    1C
    1UModel: DIN50125	                                                  
    1UDate: 06-06-2018                                                  
    1UAutor: Rafa³ Brzegowy                                             
    1UUSER                                                              
    1UDATE              11.june.2018                                    
    1UTIME              15:03:41                                        
    1UHOST                                                              
    1UPGM               CalculiX                                        
    1UVERSION           Version 2.14                             
    1UCOMPILETIME       czw.,  7 cze 2018 18:49:56                    
    1UDIR                                                               
    1UDBN                                                               
    1UMAT    11.6580                                                    
    2C                            88                                     1
 -1         1 0.00000E+00 0.00000E+00 0.00000E+00
 -1         2 1.25000E+00 0.00000E+00 7.65379E-17
 -1         3 1.25000E+00 1.50000E+00 7.65379E-17
 -1         4 0.00000E+00 1.50000E+00 0.00000E+00
 -1         5 2.50000E+00 0.00000E+00 1.53076E-16
 -1         6 2.50000E+00 1.50000E+00 1.53076E-16
 -1         7 1.25000E+00 3.00000E+00 7.65379E-17
 -1         8 0.00000E+00 3.00000E+00 0.00000E+00
 -1         9 2.50000E+00 3.00000E+00 1.53076E-16
 -1        10 1.25000E+00 4.50000E+00 7.65379E-17
 -1        11 0.00000E+00 4.50000E+00 0.00000E+00
 -1        12 2.50000E+00 4.50000E+00 1.53076E-16
 -1        13 1.25000E+00 6.00000E+00 7.65379E-17
 -1        14 0.00000E+00 6.00000E+00 0.00000E+00
 -1        15 2.50000E+00 6.00000E+00 1.53076E-16
 -1        16 1.25000E+00 7.50000E+00 7.65379E-17
 -1        17 0.00000E+00 7.50000E+00 0.00000E+00
 -1        18 2.50000E+00 7.50000E+00 1.53076E-16
 -1        19 1.25000E+00 9.00000E+00 7.65379E-17
 -1        20 0.00000E+00 9.00000E+00 0.00000E+00
 -1        21 2.50000E+00 9.00000E+00 1.53076E-16
 -1        22 1.25000E+00 1.05000E+01 7.65379E-17
 -1        23 0.00000E+00 1.05000E+01 0.00000E+00
 -1        24 2.50000E+00 1.05000E+01 1.53076E-16
 -1        25 1.25000E+00 1.20000E+01 7.65379E-17
 -1        26 0.00000E+00 1.20000E+01 0.00000E+00
 -1        27 2.50000E+00 1.20000E+01 1.53076E-16
 -1        28 1.25000E+00 1.35000E+01 7.65379E-17
 -1        29 0.00000E+00 1.35000E+01 0.00000E+00
 -1        30 2.50000E+00 1.35000E+01 1.53076E-16
 -1        31 1.25000E+00 1.50000E+01 7.65379E-17
 -1        32 0.00000E+00 1.50000E+01 0.00000E+00
 -1        33 2.50000E+00 1.50000E+01 1.53076E-16
 -1        34 4.00000E+00 1.81225E+01 2.44921E-16
 -1        35 2.00000E+00 1.81225E+01 1.22461E-16
 -1        36 2.06473E+00 1.74072E+01 1.26424E-16
 -1        37 3.36906E+00 1.74894E+01 2.06289E-16
 -1        38 0.00000E+00 1.81225E+01 0.00000E+00
 -1        39 1.00023E+00 1.73768E+01 6.12446E-17
 -1        40 1.88669E+00 1.66425E+01 1.15522E-16
 -1        41 2.89445E+00 1.67320E+01 1.77228E-16
 -1        42 9.37640E-01 1.65979E+01 5.74120E-17
 -1        43 0.00000E+00 1.65612E+01 0.00000E+00
 -1        44 1.64931E+00 1.58356E+01 1.00988E-16
 -1        45 2.59986E+00 1.58882E+01 1.59190E-16
 -1        46 8.61742E-01 1.58115E+01 5.27647E-17
 -1        47 2.00000E+00 1.96852E+01 1.22461E-16
 -1        48 0.00000E+00 1.96852E+01 0.00000E+00
 -1        49 4.00000E+00 1.96852E+01 2.44921E-16
 -1        50 2.00000E+00 2.12479E+01 1.22461E-16
 -1        51 0.00000E+00 2.12479E+01 0.00000E+00
 -1        52 4.00000E+00 2.12479E+01 2.44921E-16
 -1        53 2.00000E+00 2.28105E+01 1.22461E-16
 -1        54 0.00000E+00 2.28105E+01 0.00000E+00
 -1        55 4.00000E+00 2.28105E+01 2.44921E-16
 -1        56 2.00000E+00 2.43732E+01 1.22461E-16
 -1        57 0.00000E+00 2.43732E+01 0.00000E+00
 -1        58 4.00000E+00 2.43732E+01 2.44921E-16
 -1        59 2.00000E+00 2.59359E+01 1.22461E-16
 -1        60 0.00000E+00 2.59359E+01 0.00000E+00
 -1        61 4.00000E+00 2.59359E+01 2.44921E-16
 -1        62 2.00000E+00 2.74986E+01 1.22461E-16
 -1        63 0.00000E+00 2.74986E+01 0.00000E+00
 -1        64 4.00000E+00 2.74986E+01 2.44921E-16
 -1        65 2.00000E+00 2.90612E+01 1.22461E-16
 -1        66 0.00000E+00 2.90612E+01 0.00000E+00
 -1        67 4.00000E+00 2.90612E+01 2.44921E-16
 -1        68 2.00000E+00 3.06239E+01 1.22461E-16
 -1        69 0.00000E+00 3.06239E+01 0.00000E+00
 -1        70 4.00000E+00 3.06239E+01 2.44921E-16
 -1        71 2.00000E+00 3.21866E+01 1.22461E-16
 -1        72 0.00000E+00 3.21866E+01 0.00000E+00
 -1        73 4.00000E+00 3.21866E+01 2.44921E-16
 -1        74 2.00000E+00 3.37493E+01 1.22461E-16
 -1        75 0.00000E+00 3.37493E+01 0.00000E+00
 -1        76 4.00000E+00 3.37493E+01 2.44921E-16
 -1        77 2.00000E+00 3.53120E+01 1.22461E-16
 -1        78 0.00000E+00 3.53120E+01 0.00000E+00
 -1        79 4.00000E+00 3.53120E+01 2.44921E-16
 -1        80 2.00000E+00 3.68746E+01 1.22461E-16
 -1        81 0.00000E+00 3.68746E+01 0.00000E+00
 -1        82 4.00000E+00 3.68746E+01 2.44921E-16
 -1        83 2.00000E+00 3.84373E+01 1.22461E-16
 -1        84 0.00000E+00 3.84373E+01 0.00000E+00
 -1        85 4.00000E+00 3.84373E+01 2.44921E-16
 -1        86 2.00000E+00 4.00000E+01 1.22461E-16
 -1        87 0.00000E+00 4.00000E+01 0.00000E+00
 -1        88 4.00000E+00 4.00000E+01 2.44921E-16
 -3
    3C                            58                                     1
 -1         1    9    0    1
 -2         1         2         3         4
 -1         2    9    0    1
 -2         2         5         6         3
 -1         3    9    0    1
 -2         4         3         7         8
 -1         4    9    0    1
 -2         3         6         9         7
 -1         5    9    0    1
 -2         8         7        10        11
 -1         6    9    0    1
 -2         7         9        12        10
 -1         7    9    0    1
 -2        11        10        13        14
 -1         8    9    0    1
 -2        10        12        15        13
 -1         9    9    0    1
 -2        14        13        16        17
 -1        10    9    0    1
 -2        13        15        18        16
 -1        11    9    0    1
 -2        17        16        19        20
 -1        12    9    0    1
 -2        16        18        21        19
 -1        13    9    0    1
 -2        20        19        22        23
 -1        14    9    0    1
 -2        19        21        24        22
 -1        15    9    0    1
 -2        23        22        25        26
 -1        16    9    0    1
 -2        22        24        27        25
 -1        17    9    0    1
 -2        26        25        28        29
 -1        18    9    0    1
 -2        25        27        30        28
 -1        19    9    0    1
 -2        29        28        31        32
 -1        20    9    0    1
 -2        28        30        33        31
 -1        21    9    0    1
 -2        34        35        36        37
 -1        22    9    0    1
 -2        35        38        39        36
 -1        23    9    0    1
 -2        37        36        40        41
 -1        24    9    0    1
 -2        36        39        42        40
 -1        25    9    0    1
 -2        39        38        43        42
 -1        26    9    0    1
 -2        41        40        44        45
 -1        27    9    0    1
 -2        40        42        46        44
 -1        28    9    0    1
 -2        42        43        32        46
 -1        29    9    0    1
 -2        45        44        31        33
 -1        30    9    0    1
 -2        44        46        32        31
 -1        31    9    0    1
 -2        38        35        47        48
 -1        32    9    0    1
 -2        35        34        49        47
 -1        33    9    0    1
 -2        48        47        50        51
 -1        34    9    0    1
 -2        47        49        52        50
 -1        35    9    0    1
 -2        51        50        53        54
 -1        36    9    0    1
 -2        50        52        55        53
 -1        37    9    0    1
 -2        54        53        56        57
 -1        38    9    0    1
 -2        53        55        58        56
 -1        39    9    0    1
 -2        57        56        59        60
 -1        40    9    0    1
 -2        56        58        61        59
 -1        41    9    0    1
 -2        60        59        62        63
 -1        42    9    0    1
 -2        59        61        64        62
 -1        43    9    0    1
 -2        63        62        65        66
 -1        44    9    0    1
 -2        62        64        67        65
 -1        45    9    0    1
 -2        66        65        68        69
 -1        46    9    0    1
 -2        65        67        70        68
 -1        47    9    0    1
 -2        69        68        71        72
 -1        48    9    0    1
 -2        68        70        73        71
 -1        49    9    0    1
 -2        72        71        74        75
 -1        50    9    0    1
 -2        71        73        76        74
 -1        51    9    0    1
 -2        75        74        77        78
 -1        52    9    0    1
 -2        74        76        79        77
 -1        53    9    0    1
 -2        78        77        80        81
 -1        54    9    0    1
 -2        77        79        82        80
 -1        55    9    0    1
 -2        81        80        83        84
 -1        56    9    0    1
 -2        80        82        85        83
 -1        57    9    0    1
 -2        84        83        86        87
 -1        58    9    0    1
 -2        83        85        88        86
 -3
    1PSTEP                         1           1           1          
  100CL  101 1.000000000          88                     0    1           1
 -4  DISP        4    1
 -5  D1          1    2    1    0
 -5  D2          1    2    2    0
 -5  D3          1    2    3    0
 -5  ALL         1    2    0    0    1ALL
 -1         1-1.91963E-06 0.00000E+00 0.00000E+00
 -1         2-5.46099E-04 0.00000E+00-3.34378E-20
 -1         3-5.46085E-04 2.11329E-03-3.34369E-20
 -1         4-2.12710E-06 2.12366E-03 0.00000E+00
 -1         5-1.09111E-03 0.00000E+00-6.68091E-20
 -1         6-1.09109E-03 2.11307E-03-6.68075E-20
 -1         7-5.46029E-04 4.22650E-03-3.34336E-20
 -1         8-2.80229E-06 4.24811E-03 0.00000E+00
 -1         9-1.09100E-03 4.22599E-03-6.68021E-20
 -1        10-5.45895E-04 6.33955E-03-3.34253E-20
 -1        11-4.11811E-06 6.37423E-03 0.00000E+00
 -1        12-1.09082E-03 6.33861E-03-6.67910E-20
 -1        13-5.45603E-04 8.45233E-03-3.34074E-20
 -1        14-6.41598E-06 8.50300E-03 0.00000E+00
 -1        15-1.09048E-03 8.45068E-03-6.67702E-20
 -1        16-5.45016E-04 1.05647E-02-3.33715E-20
 -1        17-1.03035E-05 1.06357E-02 0.00000E+00
 -1        18-1.08987E-03 1.05618E-02-6.67330E-20
 -1        19-5.43892E-04 1.26766E-02-3.33027E-20
 -1        20-1.68249E-05 1.27738E-02 0.00000E+00
 -1        21-1.08880E-03 1.26714E-02-6.66675E-20
 -1        22-5.41910E-04 1.47878E-02-3.31813E-20
 -1        23-2.78582E-05 1.49194E-02 0.00000E+00
 -1        24-1.08694E-03 1.47784E-02-6.65537E-20
 -1        25-5.37429E-04 1.68978E-02-3.29070E-20
 -1        26-4.54683E-05 1.70748E-02 0.00000E+00
 -1        27-1.08231E-03 1.68807E-02-6.62701E-20
 -1        28-5.40848E-04 1.90073E-02-3.31163E-20
 -1        29-8.69407E-05 1.92452E-02 0.00000E+00
 -1        30-1.07382E-03 1.89720E-02-6.57503E-20
 -1        31-3.79694E-04 2.10373E-02-2.32488E-20
 -1        32 1.74444E-05 2.13511E-02 0.00000E+00
 -1        33-8.62983E-04 2.10294E-02-5.28407E-20
 -1        34-6.69380E-04 2.44384E-02-4.09863E-20
 -1        35-4.17897E-04 2.40504E-02-2.55879E-20
 -1        36-5.37324E-04 2.34853E-02-3.29005E-20
 -1        37-6.41278E-04 2.41584E-02-3.92656E-20
 -1        38-1.56690E-04 2.38748E-02 0.00000E+00
 -1        39-2.92300E-04 2.35794E-02-1.78976E-20
 -1        40-5.21199E-04 2.27596E-02-3.19132E-20
 -1        41-7.10886E-04 2.34371E-02-4.35278E-20
 -1        42-2.06933E-04 2.26350E-02-1.26706E-20
 -1        43-3.35435E-05 2.26132E-02 0.00000E+00
 -1        44-4.39149E-04 2.18435E-02-2.68892E-20
 -1        45-7.69287E-04 2.23263E-02-4.71037E-20
 -1        46-1.67374E-04 2.16796E-02-1.02483E-20
 -1        47-2.30600E-04 2.50000E-02-1.41197E-20
 -1        48-3.29441E-05 2.50000E-02 0.00000E+00
 -1        49-3.69890E-04 2.50000E-02-2.26485E-20
 -1        50-4.58419E-05 2.50000E-02-2.80691E-21
 -1        51 7.94750E-05 2.50000E-02 0.00000E+00
 -1        52-5.51533E-05 2.50000E-02-3.37705E-21
 -1        53-1.99639E-05 2.50000E-02-1.22240E-21
 -1        54 5.54449E-05 2.50000E-02 0.00000E+00
 -1        55-1.56071E-05 2.50000E-02-9.55626E-22
 -1        56-1.11986E-05 2.50000E-02-6.85694E-22
 -1        57 3.38471E-05 2.50000E-02 0.00000E+00
 -1        58-7.49394E-06 2.50000E-02-4.58856E-22
 -1        59-6.60727E-06 2.50000E-02-4.04565E-22
 -1        60 2.02691E-05 2.50000E-02 0.00000E+00
 -1        61-4.27925E-06 2.50000E-02-2.62020E-22
 -1        62-3.93401E-06 2.50000E-02-2.40881E-22
 -1        63 1.20998E-05 2.50000E-02 0.00000E+00
 -1        64-2.53273E-06 2.50000E-02-1.55080E-22
 -1        65-2.34674E-06 2.50000E-02-1.43692E-22
 -1        66 7.22117E-06 2.50000E-02 0.00000E+00
 -1        67-1.50924E-06 2.50000E-02-9.24115E-23
 -1        68-1.40145E-06 2.50000E-02-8.58114E-23
 -1        69 4.31276E-06 2.50000E-02 0.00000E+00
 -1        70-9.01140E-07 2.50000E-02-5.51771E-23
 -1        71-8.38946E-07 2.50000E-02-5.13690E-23
 -1        72 2.58176E-06 2.50000E-02 0.00000E+00
 -1        73-5.39428E-07 2.50000E-02-3.30294E-23
 -1        74-5.05520E-07 2.50000E-02-3.09531E-23
 -1        75 1.55568E-06 2.50000E-02 0.00000E+00
 -1        76-3.25039E-07 2.50000E-02-1.99022E-23
 -1        77-3.10123E-07 2.50000E-02-1.89889E-23
 -1        78 9.54369E-07 2.50000E-02 0.00000E+00
 -1        79-1.99402E-07 2.50000E-02-1.22095E-23
 -1        80-1.99403E-07 2.50000E-02-1.22095E-23
 -1        81 6.13641E-07 2.50000E-02 0.00000E+00
 -1        82-1.28212E-07 2.50000E-02-7.85045E-24
 -1        83-1.43129E-07 2.50000E-02-8.76384E-24
 -1        84 4.40464E-07 2.50000E-02 0.00000E+00
 -1        85-9.20289E-08 2.50000E-02-5.63496E-24
 -1        86-1.25936E-07 2.50000E-02-7.71110E-24
 -1        87 3.87554E-07 2.50000E-02 0.00000E+00
 -1        88-8.09741E-08 2.50000E-02-4.95807E-24
 -3
    1PSTEP                         2           1           1          
  100CL  101 1.000000000          88                     0    1           1
 -4  STRESS      6    1
 -5  SXX         1    4    1    1
 -5  SYY         1    4    2    2
 -5  SZZ         1    4    3    3
 -5  SXY         1    4    1    2
 -5  SYZ         1    4    2    3
 -5  SZX         1    4    3    1
 -1         1 2.73375E-01 2.69384E+02-1.98085E-01-3.04834E-01-1.79413E-13 4.48341E-14
 -1         2 1.45965E-01 2.69138E+02-1.31915E-01-1.55170E-01-1.17854E-13-3.29624E-14
 -1         3 1.65399E-01 2.69145E+02-1.37939E-01-3.17162E-01-3.75350E-13 3.25805E-15
 -1         4 3.12917E-01 2.69407E+02-2.09959E-01-6.22668E-01-4.03387E-13 1.14872E-14
 -1         5 1.85545E-02 2.68891E+02-6.57462E-02-5.50625E-03-5.62754E-14-1.10788E-13
 -1         6 1.78801E-02 2.68884E+02-6.59196E-02-1.16556E-02-3.47275E-13-5.00316E-15
 -1         7 2.28991E-01 2.69169E+02-1.56724E-01-6.62288E-01-3.88417E-13 2.80763E-15
 -1         8 4.42626E-01 2.69477E+02-2.47648E-01-1.29846E+00-2.17682E-13-5.74012E-14
 -1         9 1.53557E-02 2.68860E+02-6.58006E-02-2.61165E-02-5.59072E-13 6.29742E-14
 -1        10 3.54067E-01 2.69212E+02-1.90598E-01-1.06618E+00-9.29666E-13-4.29074E-14
 -1        11 6.98856E-01 2.69608E+02-3.17901E-01-2.08512E+00-1.12791E-12-4.08020E-14
 -1        12 9.27742E-03 2.68817E+02-6.32956E-02-4.72469E-02-7.31294E-13-4.50750E-14
 -1        13 5.74760E-01 2.69284E+02-2.44225E-01-1.56587E+00-6.55536E-13-1.63739E-14
 -1        14 1.15344E+00 2.69823E+02-4.34127E-01-3.05008E+00-1.49650E-12-2.27008E-14
 -1        15-3.92203E-03 2.68745E+02-5.43237E-02-8.16471E-02 1.85613E-13-1.01442E-14
 -1        16 9.51646E-01 2.69398E+02-3.25871E-01-2.20908E+00-1.42562E-12 1.85502E-15
 -1        17 1.93413E+00 2.70165E+02-6.20081E-01-4.27641E+00-3.38738E-12-4.72102E-15
 -1        18-3.08344E-02 2.68631E+02-3.16611E-02-1.41753E-01 5.36396E-13 8.27467E-15
 -1        19 1.58934E+00 2.69578E+02-4.53829E-01-3.06326E+00-1.98910E-12 4.56127E-14
 -1        20 3.25805E+00 2.70705E+02-9.25061E-01-5.87250E+00-3.43129E-12 7.19542E-14
 -1        21-7.93731E-02 2.68451E+02 1.74033E-02-2.54014E-01-5.46547E-13 1.90152E-14
 -1        22 2.69382E+00 2.69862E+02-6.00510E-01-4.19557E+00 6.25839E-13 5.64597E-14
 -1        23 5.51853E+00 2.71560E+02-1.35563E+00-7.95396E+00 1.41182E-12 5.09829E-14
 -1        24-1.30895E-01 2.68165E+02 1.54613E-01-4.37180E-01-1.59654E-13 6.15156E-14
 -1        25 4.64282E+00 2.70192E+02-1.25081E+00-5.97854E+00-2.14000E-12 3.39971E-14
 -1        26 8.93501E+00 2.72549E+02-3.04919E+00-1.09985E+01-1.74758E-12 5.68648E-14
 -1        27 3.50622E-01 2.67834E+02 5.47561E-01-9.58561E-01-2.53175E-12 1.03956E-14
 -1        28 1.16111E+01 2.70648E+02 6.65534E+00-3.86810E+00-3.66033E-12-1.29627E-14
 -1        29 1.82561E+01 2.73943E+02 6.49494E+00-1.10101E+01-5.33236E-12-1.80802E-14
 -1        30 4.96609E+00 2.67353E+02 6.81574E+00 3.27389E+00-1.98763E-12-8.56533E-15
 -1        31 3.81321E+00 2.28113E+02 7.68072E+00 6.32833E+00-1.03901E-11 2.01851E-13
 -1        32 1.56936E+01 2.11629E+02 1.46995E+01-9.72183E+00 4.40744E-11-4.57972E-13
 -1        33 7.66314E+00 2.50511E+02 1.42298E+01 1.56728E+01-1.27811E-11 5.61778E-13
 -1        34 7.86315E+00 9.11679E+01-1.60134E+00 2.45589E+01 1.89557E-11-5.22848E-13
 -1        35 8.73178E+00 1.07468E+02-3.44374E+00 1.65678E+01-3.46636E-12-3.70489E-14
 -1        36 1.11907E+01 1.41605E+02 7.49052E-01 1.98398E+01 2.80219E-12-1.44993E-13
 -1        37 1.21588E+01 1.15992E+02-1.61351E+00 3.80837E+01 2.46619E-11-6.69606E-13
 -1        38 1.40762E+01 1.48112E+02-5.05725E+00 9.14054E+00-1.25819E-11 1.51698E-13
 -1        39 1.44910E+01 1.77079E+02 5.41254E-01 4.48666E+00-8.02742E-12 1.06783E-13
 -1        40 2.12307E+01 2.03993E+02 2.10755E+01 2.35478E+01 1.28815E-11-2.14827E-13
 -1        41 2.25668E+01 1.81866E+02 1.50923E+01 4.45759E+01 1.11810E-11-2.70624E-13
 -1        42 2.74928E+01 2.18125E+02 2.28383E+01-1.95644E+00 4.78541E-11-4.53632E-13
 -1        43 3.50910E+01 2.10129E+02 1.86178E+01-6.43252E+00 8.11266E-11-7.49244E-13
 -1        44 5.25328E+00 2.05459E+02 1.33469E+01 1.94964E+01-1.69128E-12 1.66239E-13
 -1        45 1.47669E+01 2.26052E+02 1.94401E+01 3.34067E+01-7.05507E-12 4.70478E-13
 -1        46 1.28778E+01 1.97730E+02 1.87809E+01-3.98698E+00 5.18549E-11-4.44526E-13
 -1        47-2.58761E+00 5.00805E+01-7.53687E+00 1.22877E+01-3.33449E-12-3.95948E-14
 -1        48-3.40788E+00 5.78614E+01-8.62054E+00 9.22247E+00-2.10661E-12-5.61672E-14
 -1        49-1.76734E+00 4.22997E+01-6.45320E+00 1.53530E+01-4.56292E-12-2.33416E-14
 -1        50-1.44807E+01-8.30809E+00-1.23203E+01 5.36962E+00-3.26010E-12-1.48583E-14
 -1        51-1.97254E+01-1.01786E+01-1.31103E+01 3.96359E+00-4.89465E-13-1.91704E-14
 -1        52-9.23603E+00-6.43763E+00-1.15302E+01 6.77565E+00-6.03097E-12-1.01412E-14
 -1        53-4.79084E+00-1.89187E+00-1.31186E+00 5.80362E-01 1.79832E-12-1.82717E-15
 -1        54-8.73863E+00-2.88403E+00-5.64529E-01 1.83962E-01 7.24630E-13 4.58372E-15
 -1        55-8.43046E-01-8.99697E-01-2.05919E+00 9.76762E-01 2.87200E-12-7.73756E-15
 -1        56-2.45608E+00-8.31206E-01-2.25173E-01 1.09732E-01 3.92290E-12 1.02239E-15
 -1        57-4.96307E+00-1.45641E+00 2.65085E-01-6.57986E-02 1.93872E-12 7.61577E-15
 -1        58 5.09067E-02-2.06004E-01-7.15431E-01 2.85262E-01 5.90708E-12-5.25087E-15
 -1        59-1.42289E+00-4.65275E-01-7.79780E-02 4.17397E-02 1.03682E-13-1.16082E-16
 -1        60-2.93625E+00-8.43080E-01 2.16674E-01-5.61228E-02-1.70349E-12 1.80490E-15
 -1        61 9.04719E-02-8.74693E-02-3.72630E-01 1.39602E-01 1.91085E-12-1.84401E-15
 -1        62-8.44395E-01-2.74369E-01-4.06606E-02 2.24335E-02-2.27381E-12-1.46765E-16
 -1        63-1.74914E+00-5.00302E-01 1.35274E-01-3.51973E-02 3.19923E-13-8.59831E-17
 -1        64 6.03494E-02-4.84365E-02-2.16596E-01 8.00642E-02-4.86755E-12-9.21630E-17
 -1        65-5.03407E-01-1.63388E-01-2.36497E-02 1.31171E-02-9.07995E-13 8.04049E-16
 -1        66-1.04350E+00-2.98268E-01 8.13499E-02-2.11639E-02 4.36677E-12 1.11293E-15
 -1        67 3.66848E-02-2.85090E-02-1.28649E-01 4.73981E-02-6.18276E-12 5.64044E-16
 -1        68-3.00599E-01-9.75445E-02-1.40599E-02 7.78659E-03 8.62469E-13 9.02899E-16
 -1        69-6.23178E-01-1.78104E-01 4.86500E-02-1.26255E-02 1.93867E-12 1.89733E-15
 -1        70 2.19800E-02-1.69849E-02-7.67698E-02 2.81987E-02-2.13726E-13-5.03970E-17
 -1        71-1.79943E-01-5.83895E-02-8.41004E-03 4.62444E-03-3.31080E-12 1.69670E-16
 -1        72-3.73051E-01-1.06616E-01 2.91302E-02-7.50470E-03 3.19935E-13 2.39270E-16
 -1        73 1.31654E-02-1.01633E-02-4.59503E-02 1.67536E-02-6.94154E-12 1.24696E-16
 -1        74-1.08427E-01-3.51831E-02-5.06693E-03 2.72933E-03-2.04617E-12 3.22319E-17
 -1        75-2.24787E-01-6.42426E-02 1.75535E-02-4.42990E-03 3.15270E-12-1.06056E-16
 -1        76 7.93381E-03-6.12362E-03-2.76874E-02 9.88856E-03-7.24505E-12 1.85358E-16
 -1        77-6.65168E-02-2.15838E-02-3.10836E-03 1.57989E-03 3.11350E-12 1.29352E-16
 -1        78-1.37901E-01-3.94110E-02 1.07687E-02-2.56432E-03 4.56908E-12 2.78839E-16
 -1        79 4.86726E-03-3.75663E-03-1.69854E-02 5.72410E-03 1.65792E-12-1.10309E-17
 -1        80-4.27690E-02-1.38780E-02-1.99862E-03 8.61863E-04 2.05121E-12 2.01150E-18
 -1        81-8.86676E-02-2.53405E-02 6.92405E-03-1.39890E-03 1.73632E-12 3.37838E-17
 -1        82 3.12956E-03-2.41543E-03-1.09213E-02 3.12262E-03 2.36611E-12-2.39077E-17
 -1        83-3.06991E-02-9.96145E-03-1.43459E-03 3.79167E-04 1.64653E-12-2.70728E-17
 -1        84-6.36446E-02-1.81891E-02 4.97000E-03-6.15429E-04 3.19934E-13-4.59142E-17
 -1        85 2.24636E-03-1.73377E-03-7.83917E-03 1.37376E-03 2.97313E-12-4.03010E-18
 -1        86-2.70114E-02-8.76485E-03-1.26226E-03 1.77469E-04 2.80999E-12-1.09644E-17
 -1        87-5.59994E-02-1.60042E-02 4.37299E-03-2.88051E-04-8.47466E-14 3.11724E-18
 -1        88 1.97652E-03-1.52550E-03-6.89751E-03 6.42990E-04 5.70473E-12-2.13493E-17
 -3
    1PSTEP                         3           1           1          
  100CL  101 1.000000000          88                     0    1           1
 -4  TOSTRAIN    6    1
 -5  EXX         1    4    1    1
 -5  EYY         1    4    2    2
 -5  EZZ         1    4    3    3
 -5  EXY         1    4    1    2
 -5  EYZ         1    4    2    3
 -5  EZX         1    4    3    1
 -1         1-4.35226E-04 1.41216E-03-4.38463E-04-2.09641E-06-1.23391E-18 3.07782E-19
 -1         2-4.35601E-04 1.41096E-03-4.37509E-04-1.06715E-06-8.10535E-19-2.26275E-19
 -1         3-4.35502E-04 1.41098E-03-4.37584E-04-2.18122E-06-2.58145E-18 2.23812E-20
 -1         4-4.35036E-04 1.41223E-03-4.38625E-04-4.28222E-06-2.77428E-18 7.88876E-20
 -1         5-4.35976E-04 1.40977E-03-4.36555E-04-3.78944E-08-3.87031E-19-7.60531E-19
 -1         6-4.35968E-04 1.40973E-03-4.36543E-04-8.02184E-08-2.38836E-18-3.43449E-20
 -1         7-4.35176E-04 1.41103E-03-4.37824E-04-4.55476E-06-2.67131E-18 1.92793E-20
 -1         8-4.34409E-04 1.41245E-03-4.39148E-04-8.92977E-06-1.49710E-18-3.94036E-19
 -1         9-4.35943E-04 1.40961E-03-4.36500E-04-1.79758E-07-3.84497E-18 4.32304E-19
 -1        10-4.34537E-04 1.41111E-03-4.38276E-04-7.33248E-06-6.39376E-18-2.94411E-19
 -1        11-4.33165E-04 1.41284E-03-4.40145E-04-1.43397E-05-7.75722E-18-2.79826E-19
 -1        12-4.35908E-04 1.40939E-03-4.36406E-04-3.25232E-07-5.02942E-18-3.09424E-19
 -1        13-4.33410E-04 1.41122E-03-4.39032E-04-1.07690E-05-4.50848E-18-1.12218E-19
 -1        14-4.30944E-04 1.41342E-03-4.41844E-04-2.09759E-05-1.02922E-17-1.55461E-19
 -1        15-4.35875E-04 1.40902E-03-4.36221E-04-5.62086E-07 1.27653E-18-6.96427E-20
 -1        16-4.31488E-04 1.41134E-03-4.40259E-04-1.51927E-05-9.80492E-18 1.34974E-20
 -1        17-4.27108E-04 1.41425E-03-4.44644E-04-2.94094E-05-2.32971E-17-3.08773E-20
 -1        18-4.35868E-04 1.40843E-03-4.35874E-04-9.75936E-07 3.68902E-18 5.67984E-20
 -1        19-4.28231E-04 1.41145E-03-4.42259E-04-2.10672E-05-1.36802E-17 3.13960E-19
 -1        20-4.20552E-04 1.41542E-03-4.49272E-04-4.03856E-05-2.35991E-17 4.95609E-19
 -1        21-4.35910E-04 1.40748E-03-4.35246E-04-1.74880E-06-3.75881E-18 1.30553E-19
 -1        22-4.22670E-04 1.41139E-03-4.45288E-04-2.88552E-05 4.30448E-18 3.86957E-19
 -1        23-4.09399E-04 1.41694E-03-4.56596E-04-5.46998E-05 9.71033E-18 3.48738E-19
 -1        24-4.35940E-04 1.40584E-03-4.33981E-04-3.01063E-06-1.09801E-18 4.22287E-19
 -1        25-4.11936E-04 1.41101E-03-4.52401E-04-4.11134E-05-1.47183E-17 2.34848E-19
 -1        26-3.90349E-04 1.41933E-03-4.72631E-04-7.56296E-05-1.20204E-17 3.92914E-19
 -1        27-4.33524E-04 1.40269E-03-4.32172E-04-6.59712E-06-1.74117E-17 7.17450E-20
 -1        28-3.89076E-04 1.38925E-03-4.23105E-04-2.66953E-05-2.51753E-17-8.54738E-20
 -1        29-3.59354E-04 1.39601E-03-4.40114E-04-7.57930E-05-3.66763E-17-1.17395E-19
 -1        30-4.18798E-04 1.38249E-03-4.06096E-04 2.24023E-05-1.36697E-17-5.84974E-20
 -1        31-3.62600E-04 1.17708E-03-3.36068E-04 4.33266E-05-7.14104E-17 1.37924E-18
 -1        32-2.85067E-04 1.05988E-03-2.91929E-04-6.69239E-05 3.03002E-16-3.23730E-18
 -1        33-3.89432E-04 1.27768E-03-3.44355E-04 1.07549E-04-8.78641E-17 3.83805E-18
 -1        34-1.04134E-04 4.67375E-04-1.69083E-04 1.68512E-04 1.30130E-16-3.54580E-18
 -1        35-1.23051E-04 5.54387E-04-2.06596E-04 1.13670E-04-2.38253E-17-2.34819E-19
 -1        36-1.72331E-04 7.22565E-04-2.44016E-04 1.36184E-04 1.92426E-17-9.67054E-19
 -1        37-1.21797E-04 5.90500E-04-2.16385E-04 2.61440E-04 1.69322E-16-4.53542E-18
 -1        38-1.58381E-04 7.61418E-04-2.89689E-04 6.27731E-05-8.63747E-17 1.04574E-18
 -1        39-2.12312E-04 9.03571E-04-3.08048E-04 3.08398E-05-5.50754E-17 7.37213E-19
 -1        40-2.54006E-04 1.00041E-03-2.55131E-04 1.61766E-04 8.85379E-17-1.45095E-18
 -1        41-2.01280E-04 8.91859E-04-2.52707E-04 3.06189E-04 7.68343E-17-1.81746E-18
 -1        42-2.47084E-04 1.06152E-03-2.79046E-04-1.34081E-05 3.28960E-16-3.17784E-18
 -1        43-1.87436E-04 1.01408E-03-3.00538E-04-4.41581E-05 5.57681E-16-5.27816E-18
 -1        44-3.27502E-04 1.04662E-03-2.71988E-04 1.33920E-04-1.16098E-17 1.14907E-18
 -1        45-3.20957E-04 1.12928E-03-2.88949E-04 2.29494E-04-4.85073E-17 3.23451E-18
 -1        46-2.83920E-04 9.84878E-04-2.43426E-04-2.74296E-05 3.56494E-16-3.14140E-18
 -1        47-8.25830E-05 2.78815E-04-1.16538E-04 8.42811E-05-2.28822E-17-2.72313E-19
 -1        48-9.77389E-05 3.22688E-04-1.33514E-04 6.32538E-05-1.44682E-17-3.85987E-19
 -1        49-6.74271E-05 2.34941E-04-9.95615E-05 1.05308E-04-3.13001E-17-1.60830E-19
 -1        50-4.23336E-05 4.76283E-09-2.75125E-05 3.68201E-05-2.23584E-17-1.01889E-19
 -1        51-6.54700E-05 2.65076E-09-2.01018E-05 2.71766E-05-3.35680E-18-1.31451E-19
 -1        52-1.91971E-05 6.87491E-09-3.49232E-05 4.64635E-05-4.13617E-17-6.95488E-20
 -1        53-1.98822E-05 6.54288E-11 3.97779E-06 3.98036E-06 1.23341E-17-1.25326E-20
 -1        54-4.01528E-05 8.93244E-12 1.59080E-05 1.26158E-06 4.96987E-18 3.14364E-20
 -1        55 3.88435E-07 1.21925E-10-7.95241E-06 6.69914E-06 1.96982E-17-5.30689E-20
 -1        56-1.11442E-05 4.56791E-12 4.15643E-06 7.52618E-07 2.69055E-17 7.01048E-21
 -1        57-2.40504E-05 4.07919E-13 1.18068E-05-4.51269E-07 1.32965E-17 5.22304E-20
 -1        58 1.76204E-06 8.72789E-12-3.49397E-06 1.95651E-06 4.05145E-17-3.60139E-20
 -1        59-6.56784E-06 1.14319E-12 2.65628E-06 2.86283E-07 7.11179E-19-7.96419E-22
 -1        60-1.43561E-05 3.10396E-13 7.26838E-06-3.84915E-07-1.16835E-17 1.23786E-20
 -1        61 1.22043E-06 1.97597E-12-1.95581E-06 9.57481E-07 1.31059E-17-1.26474E-20
 -1        62-3.90957E-06 3.83395E-13 1.60291E-06 1.53865E-07-1.55952E-17-1.00661E-21
 -1        63-8.56526E-06 1.23668E-13 4.35916E-06-2.41402E-07 2.19431E-18-5.89729E-22
 -1        64 7.46121E-07 6.43122E-13-1.15334E-06 5.49132E-07-3.33848E-17-6.32117E-22
 -1        65-2.33205E-06 1.34907E-13 9.58412E-07 8.99662E-08-6.22773E-18 5.51466E-21
 -1        66-5.11125E-06 4.48191E-14 2.60365E-06-1.45154E-07 2.99499E-17 7.63312E-21
 -1        67 4.47141E-07 2.24995E-13-6.86825E-07 3.25086E-07-4.24053E-17 3.86858E-21
 -1        68-1.39267E-06 4.77988E-14 5.72588E-07 5.34057E-08 5.91533E-18 6.19260E-21
 -1        69-3.05259E-06 1.59619E-14 1.55522E-06-8.65933E-08 1.32965E-17 1.30130E-20
 -1        70 2.67246E-07 7.96357E-14-4.10043E-07 1.93405E-07-1.46587E-18-3.45655E-22
 -1        71-8.33689E-07 1.68904E-14 3.42790E-07 3.17174E-08-2.27076E-17 1.16370E-21
 -1        72-1.82738E-06 5.64527E-15 9.31030E-07-5.14719E-08 2.19431E-18 1.64105E-21
 -1        73 1.60003E-07 2.81356E-14-2.45450E-07 1.14907E-07-4.76095E-17 8.55244E-22
 -1        74-5.02352E-07 5.90040E-15 2.06556E-07 1.87195E-08-1.40340E-17 2.21069E-22
 -1        75-1.10112E-06 1.97214E-15 5.61009E-07-3.03830E-08 2.16232E-17-7.27393E-22
 -1        76 9.64148E-08 9.82865E-15-1.47898E-07 6.78220E-08-4.96912E-17 1.27130E-21
 -1        77-3.08179E-07 1.99342E-15 1.26716E-07 1.08359E-08 2.13544E-17 8.87179E-22
 -1        78-6.75506E-07 6.66102E-16 3.44164E-07-1.75878E-08 3.13377E-17 1.91245E-21
 -1        79 5.91481E-08 3.32073E-15-9.07314E-08 3.92595E-08 1.13711E-17-7.56573E-23
 -1        80-1.98153E-07 6.10454E-16 8.14762E-08 5.91121E-09 1.40685E-17 1.37959E-23
 -1        81-4.34338E-07 2.03785E-16 2.21291E-07-9.59452E-09 1.19088E-17 2.31711E-22
 -1        82 3.80311E-08 1.01712E-15-5.83386E-08 2.14169E-08 1.62283E-17-1.63975E-22
 -1        83-1.42232E-07 1.37927E-16 5.84827E-08 2.60057E-09 1.12930E-17-1.85682E-22
 -1        84-3.11763E-07 4.58216E-17 1.58840E-07-4.22100E-09 2.19431E-18-3.14909E-22
 -1        85 2.72983E-08 2.30032E-16-4.18747E-08 9.42214E-09 2.03916E-17-2.76410E-23
 -1        86-1.25147E-07 2.50855E-17 5.14575E-08 1.21720E-09 1.92727E-17-7.52006E-23
 -1        87-2.74313E-07 8.64821E-18 1.39760E-07-1.97564E-09-5.81246E-19 2.13800E-23
 -1        88 2.40191E-08 4.15228E-17-3.68446E-08 4.41004E-09 3.91266E-17-1.46427E-22
 -3
    1PSTEP                         4           1           1          
  100CL  101 1.000000000          88                     0    1           1
 -4  ERROR       1    1
 -5  STR(%)      1    1    0    0
 -1         1 0.00000E+00
 -1         2 0.00000E+00
 -1         3 0.00000E+00
 -1         4 0.00000E+00
 -1         5 0.00000E+00
 -1         6 0.00000E+00
 -1         7 0.00000E+00
 -1         8 0.00000E+00
 -1         9 0.00000E+00
 -1        10 0.00000E+00
 -1        11 0.00000E+00
 -1        12 0.00000E+00
 -1        13 0.00000E+00
 -1        14 0.00000E+00
 -1        15 0.00000E+00
 -1        16 0.00000E+00
 -1        17 0.00000E+00
 -1        18 0.00000E+00
 -1        19 0.00000E+00
 -1        20 0.00000E+00
 -1        21 0.00000E+00
 -1        22 0.00000E+00
 -1        23 0.00000E+00
 -1        24 0.00000E+00
 -1        25 0.00000E+00
 -1        26 0.00000E+00
 -1        27 0.00000E+00
 -1        28 0.00000E+00
 -1        29 0.00000E+00
 -1        30 0.00000E+00
 -1        31 0.00000E+00
 -1        32 0.00000E+00
 -1        33 0.00000E+00
 -1        34 0.00000E+00
 -1        35 0.00000E+00
 -1        36 0.00000E+00
 -1        37 0.00000E+00
 -1        38 0.00000E+00
 -1        39 0.00000E+00
 -1        40 0.00000E+00
 -1        41 0.00000E+00
 -1        42 0.00000E+00
 -1        43 0.00000E+00
 -1        44 0.00000E+00
 -1        45 0.00000E+00
 -1        46 0.00000E+00
 -1        47 0.00000E+00
 -1        48 0.00000E+00
 -1        49 0.00000E+00
 -1        50 0.00000E+00
 -1        51 0.00000E+00
 -1        52 0.00000E+00
 -1        53 0.00000E+00
 -1        54 0.00000E+00
 -1        55 0.00000E+00
 -1        56 0.00000E+00
 -1        57 0.00000E+00
 -1        58 0.00000E+00
 -1        59 0.00000E+00
 -1        60 0.00000E+00
 -1        61 0.00000E+00
 -1        62 0.00000E+00
 -1        63 0.00000E+00
 -1        64 0.00000E+00
 -1        65 0.00000E+00
 -1        66 0.00000E+00
 -1        67 0.00000E+00
 -1        68 0.00000E+00
 -1        69 0.00000E+00
 -1        70 0.00000E+00
 -1        71 0.00000E+00
 -1        72 0.00000E+00
 -1        73 0.00000E+00
 -1        74 0.00000E+00
 -1        75 0.00000E+00
 -1        76 0.00000E+00
 -1        77 0.00000E+00
 -1        78 0.00000E+00
 -1        79 0.00000E+00
 -1        80 0.00000E+00
 -1        81 0.00000E+00
 -1        82 0.00000E+00
 -1        83 0.00000E+00
 -1        84 0.00000E+00
 -1        85 0.00000E+00
 -1        86 0.00000E+00
 -1        87 0.00000E+00
 -1        88 0.00000E+00
 -3
    1PSTEP                         5           2           1          
  100CL  102 2.000000000          88                     0    2           1
 -4  DISP        4    1
 -5  D1          1    2    1    0
 -5  D2          1    2    2    0
 -5  D3          1    2    3    0
 -5  ALL         1    2    0    0    1ALL
 -1         1-3.85029E-06 0.00000E+00 0.00000E+00
 -1         2-1.09126E-03 0.00000E+00-6.68184E-20
 -1         3-1.09123E-03 4.22705E-03-6.68166E-20
 -1         4-4.26581E-06 4.24781E-03 0.00000E+00
 -1         5-2.18036E-03 0.00000E+00-1.33504E-19
 -1         6-2.18031E-03 4.22661E-03-1.33501E-19
 -1         7-1.09112E-03 8.45395E-03-6.68097E-20
 -1         8-5.61784E-06 8.49721E-03 0.00000E+00
 -1         9-2.18013E-03 8.45293E-03-1.33490E-19
 -1        10-1.09085E-03 1.26805E-02-6.67931E-20
 -1        11-8.25193E-06 1.27499E-02 0.00000E+00
 -1        12-2.17977E-03 1.26786E-02-1.33468E-19
 -1        13-1.09026E-03 1.69066E-02-6.67572E-20
 -1        14-1.28501E-05 1.70080E-02 0.00000E+00
 -1        15-2.17909E-03 1.69033E-02-1.33426E-19
 -1        16-1.08909E-03 2.11318E-02-6.66850E-20
 -1        17-2.06254E-05 2.12737E-02 0.00000E+00
 -1        18-2.17787E-03 2.11260E-02-1.33351E-19
 -1        19-1.08683E-03 2.53560E-02-6.65472E-20
 -1        20-3.36613E-05 2.55503E-02 0.00000E+00
 -1        21-2.17573E-03 2.53457E-02-1.33220E-19
 -1        22-1.08287E-03 2.95788E-02-6.63045E-20
 -1        23-5.57060E-05 2.98419E-02 0.00000E+00
 -1        24-2.17201E-03 2.95602E-02-1.32993E-19
 -1        25-1.07389E-03 3.37992E-02-6.57547E-20
 -1        26-9.08441E-05 3.41530E-02 0.00000E+00
 -1        27-2.16274E-03 3.37653E-02-1.32425E-19
 -1        28-1.08091E-03 3.80188E-02-6.61842E-20
 -1        29-1.73817E-04 3.84941E-02 0.00000E+00
 -1        30-2.14598E-03 3.79485E-02-1.31399E-19
 -1        31-7.59172E-04 4.20792E-02-4.64843E-20
 -1        32 3.45827E-05 4.27061E-02 0.00000E+00
 -1        33-1.72490E-03 4.20634E-02-1.05616E-19
 -1        34-1.33695E-03 4.88776E-02-8.18620E-20
 -1        35-8.34576E-04 4.81025E-02-5.11014E-20
 -1        36-1.07323E-03 4.69739E-02-6.57141E-20
 -1        37-1.28099E-03 4.83179E-02-7.84354E-20
 -1        38-3.12963E-04 4.77516E-02 0.00000E+00
 -1        39-5.83924E-04 4.71621E-02-3.57539E-20
 -1        40-1.04149E-03 4.55231E-02-6.37710E-20
 -1        41-1.42073E-03 4.68765E-02-8.69920E-20
 -1        42-4.13579E-04 4.52742E-02-2.53236E-20
 -1        43-6.71559E-05 4.52298E-02 0.00000E+00
 -1        44-8.78085E-04 4.36911E-02-5.37654E-20
 -1        45-1.53780E-03 4.46558E-02-9.41601E-20
 -1        46-3.34693E-04 4.33634E-02-2.04934E-20
 -1        47-4.60512E-04 5.00000E-02-2.81973E-20
 -1        48-6.57738E-05 5.00000E-02 0.00000E+00
 -1        49-7.38790E-04 5.00000E-02-4.52363E-20
 -1        50-9.15623E-05 5.00000E-02-5.60639E-21
 -1        51 1.58729E-04 5.00000E-02 0.00000E+00
 -1        52-1.10172E-04 5.00000E-02-6.74587E-21
 -1        53-3.98759E-05 5.00000E-02-2.44162E-21
 -1        54 1.10746E-04 5.00000E-02 0.00000E+00
 -1        55-3.11745E-05 5.00000E-02-1.90882E-21
 -1        56-2.23687E-05 5.00000E-02-1.36964E-21
 -1        57 6.76094E-05 5.00000E-02 0.00000E+00
 -1        58-1.49688E-05 5.00000E-02-9.16547E-22
 -1        59-1.31981E-05 5.00000E-02-8.08124E-22
 -1        60 4.04883E-05 5.00000E-02 0.00000E+00
 -1        61-8.54784E-06 5.00000E-02-5.23387E-22
 -1        62-7.85838E-06 5.00000E-02-4.81171E-22
 -1        63 2.41702E-05 5.00000E-02 0.00000E+00
 -1        64-5.05925E-06 5.00000E-02-3.09780E-22
 -1        65-4.68778E-06 5.00000E-02-2.87034E-22
 -1        66 1.44249E-05 5.00000E-02 0.00000E+00
 -1        67-3.01482E-06 5.00000E-02-1.84598E-22
 -1        68-2.79952E-06 5.00000E-02-1.71416E-22
 -1        69 8.61514E-06 5.00000E-02 0.00000E+00
 -1        70-1.80010E-06 5.00000E-02-1.10221E-22
 -1        71-1.67587E-06 5.00000E-02-1.02614E-22
 -1        72 5.15733E-06 5.00000E-02 0.00000E+00
 -1        73-1.07756E-06 5.00000E-02-6.59792E-23
 -1        74-1.00983E-06 5.00000E-02-6.18319E-23
 -1        75 3.10763E-06 5.00000E-02 0.00000E+00
 -1        76-6.49297E-07 5.00000E-02-3.97566E-23
 -1        77-6.19502E-07 5.00000E-02-3.79323E-23
 -1        78 1.90645E-06 5.00000E-02 0.00000E+00
 -1        79-3.98326E-07 5.00000E-02-2.43896E-23
 -1        80-3.98328E-07 5.00000E-02-2.43897E-23
 -1        81 1.22581E-06 5.00000E-02 0.00000E+00
 -1        82-2.56116E-07 5.00000E-02-1.56821E-23
 -1        83-2.85915E-07 5.00000E-02-1.75067E-23
 -1        84 8.79874E-07 5.00000E-02 0.00000E+00
 -1        85-1.83837E-07 5.00000E-02-1.12564E-23
 -1        86-2.51570E-07 5.00000E-02-1.54037E-23
 -1        87 7.74181E-07 5.00000E-02 0.00000E+00
 -1        88-1.61754E-07 5.00000E-02-9.90427E-24
 -3
    1PSTEP                         6           2           1          
  100CL  102 2.000000000          88                     0    2           1
 -4  STRESS      6    1
 -5  SXX         1    4    1    1
 -5  SYY         1    4    2    2
 -5  SZZ         1    4    3    3
 -5  SXY         1    4    1    2
 -5  SYZ         1    4    2    3
 -5  SZX         1    4    3    1
 -1         1 5.48798E-01 5.38490E+02-3.95504E-01-6.09427E-01 3.52614E-13 1.66338E-13
 -1         2 2.92861E-01 5.37996E+02-2.63177E-01-3.10201E-01 1.41948E-13 1.76799E-13
 -1         3 3.31764E-01 5.38011E+02-2.75161E-01-6.34004E-01-7.92297E-13 6.55550E-14
 -1         4 6.27961E-01 5.38534E+02-4.19167E-01-1.24478E+00-1.78860E-12 1.04029E-13
 -1         5 3.69233E-02 5.37503E+02-1.30851E-01-1.09755E-02-6.86811E-14 1.87203E-13
 -1         6 3.55678E-02 5.37488E+02-1.31155E-01-2.32303E-02 2.04080E-13 2.70173E-14
 -1         7 4.59041E-01 5.38058E+02-3.12526E-01-1.32377E+00-1.72585E-12-3.89950E-14
 -1         8 8.87580E-01 5.38674E+02-4.94264E-01-2.59549E+00-3.02725E-12 4.72529E-14
 -1         9 3.05025E-02 5.37442E+02-1.30789E-01-5.20404E-02-4.24293E-13-1.25327E-13
 -1        10 7.09288E-01 5.38145E+02-3.79890E-01-2.13069E+00-8.68994E-13-1.12933E-13
 -1        11 1.40024E+00 5.38935E+02-6.34221E-01-4.16726E+00-5.27217E-13-7.97563E-14
 -1        12 1.83339E-02 5.37354E+02-1.25560E-01-9.41134E-02-1.21052E-12-1.46235E-13
 -1        13 1.15064E+00 5.38288E+02-4.86497E-01-3.12854E+00-5.08390E-13-1.36559E-13
 -1        14 2.30931E+00 5.39365E+02-8.65692E-01-6.09452E+00 5.41451E-13-7.49689E-14
 -1        15-8.03648E-03 5.37211E+02-1.07301E-01-1.62563E-01-1.55786E-12-1.98344E-13
 -1        16 1.90396E+00 5.38515E+02-6.48692E-01-4.41240E+00-1.92896E-12-6.74093E-15
 -1        17 3.86963E+00 5.40047E+02-1.23584E+00-8.54274E+00-2.87245E-12-6.90007E-14
 -1        18-6.17090E-02 5.36983E+02-6.15432E-02-2.82065E-01-9.84953E-13 5.52063E-14
 -1        19 3.17783E+00 5.38872E+02-9.02852E-01-6.11655E+00-6.52079E-12-5.56429E-14
 -1        20 6.51400E+00 5.41121E+02-1.84284E+00-1.17280E+01-1.18352E-11-1.75525E-13
 -1        21-1.58332E-01 5.36624E+02 3.71336E-02-5.05154E-01-1.20568E-12 6.37273E-14
 -1        22 5.38327E+00 5.39439E+02-1.19215E+00-8.37370E+00-8.80513E-12-1.10794E-14
 -1        23 1.10270E+01 5.42824E+02-2.69687E+00-1.58796E+01-1.51767E-11 8.55757E-15
 -1        24-2.60489E-01 5.36054E+02 3.12575E-01-8.67825E-01-2.43259E-12-3.15567E-14
 -1        25 9.26789E+00 5.40091E+02-2.49521E+00-1.19327E+01-8.84041E-12 1.06842E-13
 -1        26 1.78349E+01 5.44787E+02-6.08595E+00-2.19570E+01-1.79270E-11 2.10153E-13
 -1        27 7.00895E-01 5.35395E+02 1.09553E+00-1.90853E+00 2.47476E-13 2.06655E-15
 -1        28 2.31891E+01 5.40977E+02 1.32809E+01-7.71059E+00-7.41131E-12-1.71720E-13
 -1        29 3.64505E+01 5.47546E+02 1.29551E+01-2.19685E+01-1.48363E-11-1.49644E-13
 -1        30 9.92774E+00 5.34409E+02 1.36068E+01 6.54731E+00 1.50244E-14-1.95234E-13
 -1        31 7.55255E+00 4.55850E+02 1.52428E+01 1.26565E+01-2.30876E-11 2.65694E-13
 -1        32 3.13089E+01 4.22940E+02 2.92865E+01-1.93781E+01 7.78407E-11-9.17521E-13
 -1        33 1.52575E+01 5.00571E+02 2.83322E+01 3.12995E+01-3.22078E-11 9.58948E-13
 -1        34 1.57027E+01 1.82150E+02-3.18647E+00 4.90465E+01 3.65698E-11-1.09478E-12
 -1        35 1.74161E+01 2.14639E+02-6.88853E+00 3.30910E+01-1.35630E-11-1.75183E-13
 -1        36 2.23226E+01 2.82885E+02 1.48074E+00 3.96321E+01 5.52173E-12-3.19985E-13
 -1        37 2.42566E+01 2.31791E+02-3.22095E+00 7.60607E+01 4.98030E-11-1.36821E-12
 -1        38 2.80767E+01 2.95822E+02-1.01240E+01 1.82822E+01-3.59534E-11 1.43605E-13
 -1        39 2.89161E+01 3.53722E+02 1.05803E+00 8.99422E+00-1.93281E-11 1.35160E-13
 -1        40 4.23992E+01 4.07651E+02 4.20916E+01 4.70368E+01 3.04463E-11-3.62530E-13
 -1        41 4.50337E+01 3.63447E+02 3.01257E+01 8.90171E+01 2.23776E-11-4.76066E-13
 -1        42 5.49329E+01 4.35870E+02 4.56192E+01-3.86818E+00 8.95045E-11-8.61513E-13
 -1        43 7.01012E+01 4.19886E+02 3.71809E+01-1.27928E+01 1.40495E-10-1.47605E-12
 -1        44 1.04172E+01 4.10539E+02 2.65583E+01 3.89457E+01-4.32000E-12 3.44937E-13
 -1        45 2.94164E+01 4.51637E+02 3.87243E+01 6.67001E+01-1.95470E-11 9.14000E-13
 -1        46 2.56892E+01 3.95148E+02 3.74457E+01-7.92630E+00 9.44224E-11-7.81774E-13
 -1        47-5.16179E+00 1.00047E+02-1.50397E+01 2.45417E+01-8.68766E-12-1.17520E-13
 -1        48-6.79907E+00 1.15581E+02-1.72004E+01 1.84203E+01-8.25099E-12-1.96316E-13
 -1        49-3.52452E+00 8.45129E+01-1.28790E+01 3.06631E+01-9.12545E-12-3.93600E-14
 -1        50-2.89231E+01-1.65938E+01-2.46078E+01 1.07257E+01-6.52062E-12-2.71425E-14
 -1        51-3.93967E+01-2.03279E+01-2.61836E+01 7.91702E+00-9.79015E-13-3.29734E-14
 -1        52-1.84495E+01-1.28597E+01-2.30321E+01 1.35343E+01-1.20627E-11-2.05026E-14
 -1        53-9.56959E+00-3.77907E+00-2.62058E+00 1.15933E+00 3.59663E-12-1.01011E-15
 -1        54-1.74548E+01-5.76084E+00-1.12780E+00 3.67559E-01 1.44929E-12 1.93190E-14
 -1        55-1.68435E+00-1.79731E+00-4.11336E+00 1.95110E+00 5.74394E-12-2.03395E-14
 -1        56-4.90603E+00-1.66036E+00-4.49772E-01 2.19181E-01 7.84586E-12 5.12771E-15
 -1        57-9.91370E+00-2.90922E+00 5.29514E-01-1.31420E-01 3.87758E-12 2.17880E-14
 -1        58 1.01652E-01-4.11501E-01-1.42906E+00 5.69782E-01 1.18142E-11-1.08932E-14
 -1        59-2.84227E+00-9.29409E-01-1.55744E-01 8.33669E-02 2.07346E-13-2.62624E-16
 -1        60-5.86526E+00-1.68410E+00 4.32837E-01-1.12109E-01-3.40700E-12 4.17625E-15
 -1        61 1.80719E-01-1.74720E-01-7.44326E-01 2.78843E-01 3.82170E-12-4.31586E-15
 -1        62-1.68673E+00-5.48072E-01-8.12135E-02 4.48081E-02-4.54764E-12-4.46331E-16
 -1        63-3.49402E+00-9.99391E-01 2.70230E-01-7.03103E-02 6.39822E-13 1.91133E-17
 -1        64 1.20552E-01-9.67531E-02-4.32657E-01 1.59926E-01-9.73509E-12-6.81289E-16
 -1        65-1.00560E+00-3.26382E-01-4.72389E-02 2.62009E-02-1.81596E-12 1.86663E-15
 -1        66-2.08447E+00-5.95816E-01 1.62507E-01-4.22771E-02 8.73360E-12 3.17467E-15
 -1        67 7.32812E-02-5.69484E-02-2.56985E-01 9.46790E-02-1.23655E-11 6.96176E-16
 -1        68-6.00474E-01-1.94854E-01-2.80848E-02 1.55539E-02 1.72495E-12 1.96879E-15
 -1        69-1.24485E+00-3.55780E-01 9.71842E-02-2.52208E-02 3.87735E-12 4.09469E-15
 -1        70 4.39072E-02-3.39286E-02-1.53354E-01 5.63286E-02-4.27451E-13-7.49385E-17
 -1        71-3.59453E-01-1.16639E-01-1.67995E-02 9.23756E-03-6.62160E-12 3.57107E-16
 -1        72-7.45206E-01-2.12975E-01 5.81910E-02-1.49915E-02 6.39872E-13 4.71697E-16
 -1        73 2.62992E-02-2.03021E-02-9.17899E-02 3.34666E-02-1.38831E-11 2.91710E-16
 -1        74-2.16593E-01-7.02818E-02-1.01216E-02 5.45204E-03-4.09235E-12 1.22086E-16
 -1        75-4.49036E-01-1.28331E-01 3.50652E-02-8.84919E-03 6.30541E-12-6.43897E-17
 -1        76 1.58486E-02-1.22325E-02-5.53083E-02 1.97533E-02-1.44901E-11 3.38203E-16
 -1        77-1.32874E-01-4.31159E-02-6.20923E-03 3.15596E-03 6.22701E-12 1.89769E-16
 -1        78-2.75471E-01-7.87276E-02 2.15116E-02-5.12251E-03 9.13818E-12 3.82545E-16
 -1        79 9.72286E-03-7.50424E-03-3.39301E-02 1.14344E-02 3.31584E-12 1.51772E-17
 -1        80-8.54356E-02-2.77227E-02-3.99243E-03 1.72165E-03 4.10243E-12-6.00919E-17
 -1        81-1.77123E-01-5.06204E-02 1.38315E-02-2.79445E-03 3.47264E-12-7.20953E-17
 -1        82 6.25163E-03-4.82508E-03-2.18164E-02 6.23775E-03 4.73222E-12-3.63962E-17
 -1        83-6.13247E-02-1.98990E-02-2.86573E-03 7.57423E-04 3.29307E-12-8.29457E-17
 -1        84-1.27137E-01-3.63347E-02 9.92811E-03-1.22938E-03 6.39869E-13-1.36167E-16
 -1        85 4.48735E-03-3.46339E-03-1.56596E-02 2.74423E-03 5.94626E-12-2.13318E-17
 -1        86-5.39582E-02-1.75087E-02-2.52149E-03 3.54513E-04 5.61998E-12-4.77295E-17
 -1        87-1.11865E-01-3.19701E-02 8.73551E-03-5.75414E-04-1.69493E-13-4.76207E-17
 -1        88 3.94831E-03-3.04736E-03-1.37785E-02 1.28444E-03 1.14095E-11-4.04539E-17
 -3
    1PSTEP                         7           2           1          
  100CL  102 2.000000000          88                     0    2           1
 -4  TOSTRAIN    6    1
 -5  EXX         1    4    1    1
 -5  EYY         1    4    2    2
 -5  EZZ         1    4    3    3
 -5  EXY         1    4    1    2
 -5  EYZ         1    4    2    3
 -5  EZX         1    4    3    1
 -1         1-8.69506E-04 2.82663E-03-8.75995E-04-4.20250E-06 2.43174E-18 1.14288E-18
 -1         2-8.70264E-04 2.82424E-03-8.74084E-04-2.13914E-06 9.78922E-19 1.21476E-18
 -1         3-8.70064E-04 2.82427E-03-8.74235E-04-4.37209E-06-5.46397E-18 4.50591E-19
 -1         4-8.69125E-04 2.82677E-03-8.76320E-04-8.58374E-06-1.23348E-17 7.15110E-19
 -1         5-8.71021E-04 2.82184E-03-8.72174E-04-7.57927E-08-4.73644E-19 1.28625E-18
 -1         6-8.71004E-04 2.82177E-03-8.72150E-04-1.60435E-07 1.40739E-18 1.85632E-19
 -1         7-8.69412E-04 2.82437E-03-8.74714E-04-9.12871E-06-1.19021E-17-2.67588E-19
 -1         8-8.67870E-04 2.82721E-03-8.77365E-04-1.78980E-05-2.08770E-17 3.25349E-19
 -1         9-8.70955E-04 2.82153E-03-8.72063E-04-3.59463E-07-2.92603E-18-8.61106E-19
 -1        10-8.68132E-04 2.82453E-03-8.75617E-04-1.46933E-05-5.99281E-18-7.75913E-19
 -1        11-8.65378E-04 2.82798E-03-8.79359E-04-2.87364E-05-3.63586E-18-5.47933E-19
 -1        12-8.70886E-04 2.82108E-03-8.71875E-04-6.50214E-07-8.34801E-18-1.00475E-18
 -1        13-8.65878E-04 2.82474E-03-8.77128E-04-2.15747E-05-3.50592E-18-9.38398E-19
 -1        14-8.60934E-04 2.82914E-03-8.82753E-04-4.20260E-05 3.73407E-18-5.15368E-19
 -1        15-8.70822E-04 2.82034E-03-8.71504E-04-1.12334E-06-1.07433E-17-1.36276E-18
 -1        16-8.62034E-04 2.82497E-03-8.79577E-04-3.04285E-05-1.33031E-17-4.49934E-20
 -1        17-8.53260E-04 2.83079E-03-8.88347E-04-5.89076E-05-1.98101E-17-4.71472E-19
 -1        18-8.70809E-04 2.81915E-03-8.70807E-04-1.94936E-06-6.79245E-18 3.79337E-19
 -1        19-8.55525E-04 2.82520E-03-8.83570E-04-4.21806E-05-4.49718E-17-3.75347E-19
 -1        20-8.40156E-04 2.83314E-03-8.97589E-04-8.08702E-05-8.16242E-17-1.19217E-18
 -1        21-8.70894E-04 2.81726E-03-8.69551E-04-3.49104E-06-8.31456E-18 4.37959E-19
 -1        22-8.44416E-04 2.82506E-03-8.89609E-04-5.77490E-05-6.07272E-17-6.50503E-20
 -1        23-8.17876E-04 2.83615E-03-9.12199E-04-1.09497E-04-1.04672E-16 8.06754E-20
 -1        24-8.70957E-04 2.81398E-03-8.67019E-04-6.00059E-06-1.67755E-17-2.16551E-19
 -1        25-8.22989E-04 2.82430E-03-9.03839E-04-8.22766E-05-6.09759E-17 7.52780E-19
 -1        26-7.79841E-04 2.84093E-03-9.44251E-04-1.51373E-04-1.23649E-16 1.48154E-18
 -1        27-8.66138E-04 2.80767E-03-8.63427E-04-1.31802E-05 1.70659E-18 1.39499E-20
 -1        28-7.77345E-04 2.78072E-03-8.45461E-04-5.35445E-05-5.11197E-17-1.16213E-18
 -1        29-7.17970E-04 2.79425E-03-8.79497E-04-1.51787E-04-1.02334E-16-9.92569E-19
 -1        30-8.36721E-04 2.76720E-03-8.11424E-04 4.46980E-05 1.03792E-19-1.34158E-18
 -1        31-7.24506E-04 2.35534E-03-6.71736E-04 8.64988E-05-1.59033E-16 1.79370E-18
 -1        32-5.69630E-04 2.12082E-03-5.83674E-04-1.33887E-04 5.36398E-16-6.63453E-18
 -1        33-7.78025E-04 2.55659E-03-6.88198E-04 2.14893E-04-2.21945E-16 6.50630E-18
 -1        34-2.07980E-04 9.34223E-04-3.37678E-04 3.36677E-04 2.51279E-16-7.35388E-18
 -1        35-2.45733E-04 1.10792E-03-4.12579E-04 2.27108E-04-9.33400E-17-1.12993E-18
 -1        36-3.44167E-04 1.44467E-03-4.87393E-04 2.72261E-04 3.80197E-17-2.08344E-18
 -1        37-2.43244E-04 1.18074E-03-4.32217E-04 5.22622E-04 3.42302E-16-9.14810E-18
 -1        38-3.16278E-04 1.52206E-03-5.78596E-04 1.25717E-04-2.47132E-16 9.93211E-19
 -1        39-4.24015E-04 1.80671E-03-6.15322E-04 6.19576E-05-1.32660E-16 9.34075E-19
 -1        40-5.07433E-04 2.00138E-03-5.09784E-04 3.23645E-04 2.09710E-16-2.39519E-18
 -1        41-4.02048E-04 1.78410E-03-5.04945E-04 6.12368E-04 1.54055E-16-3.10944E-18
 -1        42-4.93605E-04 2.12363E-03-5.57636E-04-2.64885E-05 6.16672E-16-6.14632E-18
 -1        43-3.74391E-04 2.02861E-03-6.00650E-04-8.78990E-05 9.67984E-16-1.06256E-17
 -1        44-6.54387E-04 2.09384E-03-5.43668E-04 2.67915E-04-2.97074E-17 2.39145E-18
 -1        45-6.41175E-04 2.25911E-03-5.77507E-04 4.58946E-04-1.34714E-16 6.27685E-18
 -1        46-5.67371E-04 1.97047E-03-4.86709E-04-5.47004E-05 6.50670E-16-5.68369E-18
 -1        47-1.64937E-04 5.57314E-04-2.32723E-04 1.68339E-04-5.96728E-17-8.10591E-19
 -1        48-1.95181E-04 6.44994E-04-2.66612E-04 1.26339E-04-5.67463E-17-1.35266E-18
 -1        49-1.34693E-04 4.69635E-04-1.98835E-04 2.10338E-04-6.26070E-17-2.72898E-19
 -1        50-8.45538E-05 1.89964E-08-5.49438E-05 7.35309E-05-4.47168E-17-1.86094E-19
 -1        51-1.30754E-04 1.05708E-08-4.01379E-05 5.42674E-05-6.71367E-18-2.26035E-19
 -1        52-3.83540E-05 2.74220E-08-6.97496E-05 9.27943E-05-8.27233E-17-1.40604E-19
 -1        53-3.97118E-05 2.61065E-10 7.94461E-06 7.95089E-06 2.46681E-17-6.93684E-21
 -1        54-8.01979E-05 3.56494E-11 3.17737E-05 2.52038E-06 9.93975E-18 1.32482E-19
 -1        55 7.74255E-07 4.86480E-10-1.58845E-05 1.33814E-05 3.93963E-17-1.39500E-19
 -1        56-2.22598E-05 1.82239E-11 8.30251E-06 1.50332E-06 5.38111E-17 3.51593E-20
 -1        57-4.80391E-05 1.62723E-12 2.35840E-05-9.01280E-07 2.65931E-17 1.49417E-19
 -1        58 3.51947E-06 3.48206E-11-6.97901E-06 3.90791E-06 8.10291E-17-7.47126E-20
 -1        59-1.31193E-05 4.56095E-12 5.30611E-06 5.71805E-07 1.42236E-18-1.80246E-21
 -1        60-2.86764E-05 1.23853E-12 1.45189E-05-7.68874E-07-2.33670E-17 2.86410E-20
 -1        61 2.43781E-06 7.88336E-12-3.90671E-06 1.91248E-06 2.62117E-17-2.96010E-20
 -1        62-7.80954E-06 1.52973E-12 3.20195E-06 3.07330E-07-3.11905E-17-3.06123E-21
 -1        63-1.71095E-05 4.93479E-13 8.70774E-06-4.82217E-07 4.38862E-18 1.31079E-22
 -1        64 1.49041E-06 2.56598E-12-2.30384E-06 1.09688E-06-6.67695E-17-4.67274E-21
 -1        65-4.65844E-06 5.38300E-13 1.91452E-06 1.79706E-07-1.24555E-17 1.28024E-20
 -1        66-1.02101E-05 1.78845E-13 5.20102E-06-2.89958E-07 5.98998E-17 2.17735E-20
 -1        67 8.93196E-07 8.97755E-13-1.37198E-06 6.49369E-07-8.48107E-17 4.77483E-21
 -1        68-2.78198E-06 1.90729E-13 1.14380E-06 1.06679E-07 1.18307E-17 1.35030E-20
 -1        69-6.09781E-06 6.36940E-14 3.10670E-06-1.72978E-07 2.65931E-17 2.80835E-20
 -1        70 5.33847E-07 3.17764E-13-8.19095E-07 3.86337E-07-2.93174E-18-5.13977E-22
 -1        71-1.66537E-06 6.73963E-14 6.84759E-07 6.33575E-08-4.54152E-17 2.44925E-21
 -1        72-3.65036E-06 2.25265E-14 1.85983E-06-1.02820E-07 4.38862E-18 3.23515E-21
 -1        73 3.19622E-07 1.12266E-13-4.90309E-07 2.29535E-07-9.52190E-17 2.00073E-21
 -1        74-1.00350E-06 2.35424E-14 4.12616E-07 3.73937E-08-2.80680E-17 8.37348E-22
 -1        75-2.19959E-06 7.86946E-15 1.12067E-06-6.06932E-08 4.32464E-17-4.41617E-22
 -1        76 1.92598E-07 3.92154E-14-2.95441E-07 1.35481E-07-9.93824E-17 2.31961E-21
 -1        77-6.15619E-07 7.95219E-15 2.53129E-07 2.16457E-08 4.27087E-17 1.30155E-21
 -1        78-1.34939E-06 2.65782E-15 6.87504E-07-3.51334E-08 6.26753E-17 2.62373E-21
 -1        79 1.18154E-07 1.32466E-14-1.81245E-07 7.84247E-08 2.27422E-17 1.04095E-22
 -1        80-3.95832E-07 2.43363E-15 1.62757E-07 1.18082E-08 2.81371E-17-4.12148E-22
 -1        81-8.67635E-07 8.12983E-16 4.42052E-07-1.91661E-08 2.38175E-17-4.94475E-22
 -1        82 7.59711E-08 4.05428E-15-1.16537E-07 4.27825E-08 3.24566E-17-2.49628E-22
 -1        83-2.84124E-07 5.48055E-16 1.16825E-07 5.19490E-09 2.25859E-17-5.68894E-22
 -1        84-6.22778E-07 1.82640E-16 3.17300E-07-8.43189E-09 4.38862E-18-9.33919E-22
 -1        85 5.45312E-08 9.13471E-16-8.36492E-08 1.88217E-08 4.07833E-17-1.46307E-22
 -1        86-2.49994E-07 9.66505E-17 1.02792E-07 2.43148E-09 3.85454E-17-3.27359E-22
 -1        87-5.47968E-07 3.28344E-17 2.79185E-07-3.94655E-09-1.16249E-18-3.26613E-22
 -1        88 4.79808E-08 1.60467E-16-7.36010E-08 8.80950E-09 7.82533E-17-2.77459E-22
 -3
    1PSTEP                         8           2           1          
  100CL  102 2.000000000          88                     0    2           1
 -4  ERROR       1    1
 -5  STR(%)      1    1    0    0
 -1         1 0.00000E+00
 -1         2 0.00000E+00
 -1         3 0.00000E+00
 -1         4 0.00000E+00
 -1         5 0.00000E+00
 -1         6 0.00000E+00
 -1         7 0.00000E+00
 -1         8 0.00000E+00
 -1         9 0.00000E+00
 -1        10 0.00000E+00
 -1        11 0.00000E+00
 -1        12 0.00000E+00
 -1        13 0.00000E+00
 -1        14 0.00000E+00
 -1        15 0.00000E+00
 -1        16 0.00000E+00
 -1        17 0.00000E+00
 -1        18 0.00000E+00
 -1        19 0.00000E+00
 -1        20 0.00000E+00
 -1        21 0.00000E+00
 -1        22 0.00000E+00
 -1        23 0.00000E+00
 -1        24 0.00000E+00
 -1        25 0.00000E+00
 -1        26 0.00000E+00
 -1        27 0.00000E+00
 -1        28 0.00000E+00
 -1        29 0.00000E+00
 -1        30 0.00000E+00
 -1        31 0.00000E+00
 -1        32 0.00000E+00
 -1        33 0.00000E+00
 -1        34 0.00000E+00
 -1        35 0.00000E+00
 -1        36 0.00000E+00
 -1        37 0.00000E+00
 -1        38 0.00000E+00
 -1        39 0.00000E+00
 -1        40 0.00000E+00
 -1        41 0.00000E+00
 -1        42 0.00000E+00
 -1        43 0.00000E+00
 -1        44 0.00000E+00
 -1        45 0.00000E+00
 -1        46 0.00000E+00
 -1        47 0.00000E+00
 -1        48 0.00000E+00
 -1        49 0.00000E+00
 -1        50 0.00000E+00
 -1        51 0.00000E+00
 -1        52 0.00000E+00
 -1        53 0.00000E+00
 -1        54 0.00000E+00
 -1        55 0.00000E+00
 -1        56 0.00000E+00
 -1        57 0.00000E+00
 -1        58 0.00000E+00
 -1        59 0.00000E+00
 -1        60 0.00000E+00
 -1        61 0.00000E+00
 -1        62 0.00000E+00
 -1        63 0.00000E+00
 -1        64 0.00000E+00
 -1        65 0.00000E+00
 -1        66 0.00000E+00
 -1        67 0.00000E+00
 -1        68 0.00000E+00
 -1        69 0.00000E+00
 -1        70 0.00000E+00
 -1        71 0.00000E+00
 -1        72 0.00000E+00
 -1        73 0.00000E+00
 -1        74 0.00000E+00
 -1        75 0.00000E+00
 -1        76 0.00000E+00
 -1        77 0.00000E+00
 -1        78 0.00000E+00
 -1        79 0.00000E+00
 -1        80 0.00000E+00
 -1        81 0.00000E+00
 -1        82 0.00000E+00
 -1        83 0.00000E+00
 -1        84 0.00000E+00
 -1        85 0.00000E+00
 -1        86 0.00000E+00
 -1        87 0.00000E+00
 -1        88 0.00000E+00
 -3
    1PSTEP                         9           3           1          
  100CL  103 3.000000000          88                     0    3           1
 -4  DISP        4    1
 -5  D1          1    2    1    0
 -5  D2          1    2    2    0
 -5  D3          1    2    3    0
 -5  ALL         1    2    0    0    1ALL
 -1         1 1.63087E+00 0.00000E+00 0.00000E+00
 -1         2 6.14616E-01 0.00000E+00 0.00000E+00
 -1         3-2.72709E+00-9.33776E-01 0.00000E+00
 -1         4-1.70943E+00-9.38183E-01 0.00000E+00
 -1         5 1.32503E+00 0.00000E+00 0.00000E+00
 -1         6-2.01882E+00-7.68944E-01 0.00000E+00
 -1         7-2.18397E-02-2.42430E+00 0.00000E+00
 -1         8 6.89733E-01-4.33564E-01 0.00000E+00
 -1         9 4.76985E+00-5.92296E-01 0.00000E+00
 -1        10-1.22801E+00-3.14874E+00 0.00000E+00
 -1        11-5.16042E-01-1.15774E+00 0.00000E+00
 -1        12-2.42095E+00-4.86118E+00 0.00000E+00
 -1        13 8.29276E-01-1.35454E+00 0.00000E+00
 -1        14-3.68433E-01-2.77716E+00 0.00000E+00
 -1        15-1.13182E+00-2.31861E+00 0.00000E+00
 -1        16 1.10400E+00-2.38927E+00 0.00000E+00
 -1        17-3.29808E-01-3.98118E+00 0.00000E+00
 -1        18-8.60370E-01-3.34763E+00 0.00000E+00
 -1        19-2.25784E-01-4.66292E+00 0.00000E+00
 -1        20-1.19139E+00-6.42836E+00 0.00000E+00
 -1        21-5.57206E-01-1.42778E+00 0.00000E+00
 -1        22 3.61077E-02-3.25226E+00 0.00000E+00
 -1        23-2.87774E-01-6.87231E+00 0.00000E+00
 -1        24-2.69666E-01-7.62059E-03 0.00000E+00
 -1        25 3.61111E-01-4.34444E+00 0.00000E+00
 -1        26-1.50090E-02-8.59268E+00 0.00000E+00
 -1        27-9.68401E-01 1.29168E+00 0.00000E+00
 -1        28-6.89588E-01-4.42050E+00 0.00000E+00
 -1        29-8.54754E-01-8.83912E+00 0.00000E+00
 -1        30-1.85923E+00 1.31893E+00 0.00000E+00
 -1        31-1.19973E-01 8.72345E-02 0.00000E+00
 -1        32 1.17196E-02-4.43214E+00 0.00000E+00
 -1        33-1.27069E+00 5.82937E+00 0.00000E+00
 -1        34-7.71661E-01 1.26952E+01 0.00000E+00
 -1        35-2.32134E+00 1.29794E+01 0.00000E+00
 -1        36-3.64842E+00 1.24929E+01 0.00000E+00
 -1        37-1.77886E+00 1.22363E+01 0.00000E+00
 -1        38-5.12863E-01 1.29920E+01 0.00000E+00
 -1        39-5.63609E-01 1.22416E+01 0.00000E+00
 -1        40-6.40763E-01 1.06019E+01 0.00000E+00
 -1        41 2.70048E+00 9.79451E+00 0.00000E+00
 -1        42-8.46230E-01 7.67207E+00 0.00000E+00
 -1        43-1.21225E-02 1.29590E+01 0.00000E+00
 -1        44-3.47834E+00-4.98958E+00 0.00000E+00
 -1        45 4.25414E+00 3.78250E-01 0.00000E+00
 -1        46-8.22375E-01-9.71910E+00 0.00000E+00
 -1        47-2.38855E+00 2.50000E+00 0.00000E+00
 -1        48-6.84930E-01 2.50000E+00 0.00000E+00
 -1        49-4.97615E+00 2.50000E+00 0.00000E+00
 -1        50-1.70205E+00 2.50000E+00 0.00000E+00
 -1        51-7.65501E-04 2.50000E+00 0.00000E+00
 -1        52-2.53061E+00 2.50000E+00 0.00000E+00
 -1        53-1.70124E+00 2.50000E+00 0.00000E+00
 -1        54 4.08967E-05 2.50000E+00 0.00000E+00
 -1        55-1.89496E+00 2.50000E+00 0.00000E+00
 -1        56-1.68885E+00 2.50000E+00 0.00000E+00
 -1        57 1.17366E-02 2.50000E+00 0.00000E+00
 -1        58-2.28742E-01 2.50000E+00 0.00000E+00
 -1        59-1.64065E+00 2.50000E+00 0.00000E+00
 -1        60 5.75233E-02 2.50000E+00 0.00000E+00
 -1        61-6.26600E-01 2.50000E+00 0.00000E+00
 -1        62-1.52055E+00 2.50000E+00 0.00000E+00
 -1        63 1.68197E-01 2.50000E+00 0.00000E+00
 -1        64-4.51257E-01 2.50000E+00 0.00000E+00
 -1        65-1.56163E+00 2.50000E+00 0.00000E+00
 -1        66 1.16651E-01 2.50000E+00 0.00000E+00
 -1        67-5.39449E-01 2.50000E+00 0.00000E+00
 -1        68-1.54739E+00 2.50000E+00 0.00000E+00
 -1        69 1.21892E-01 2.50000E+00 0.00000E+00
 -1        70-4.98017E-01 2.50000E+00 0.00000E+00
 -1        71-1.54240E+00 2.50000E+00 0.00000E+00
 -1        72 1.19314E-01 2.50000E+00 0.00000E+00
 -1        73-5.16169E-01 2.50000E+00 0.00000E+00
 -1        74-1.52834E+00 2.50000E+00 0.00000E+00
 -1        75 1.27201E-01 2.50000E+00 0.00000E+00
 -1        76-5.05008E-01 2.50000E+00 0.00000E+00
 -1        77-1.52650E+00 2.50000E+00 0.00000E+00
 -1        78 1.24262E-01 2.50000E+00 0.00000E+00
 -1        79-5.09006E-01 2.50000E+00 0.00000E+00
 -1        80-1.52922E+00 2.50000E+00 0.00000E+00
 -1        81 1.18150E-01 2.50000E+00 0.00000E+00
 -1        82-5.08427E-01 2.50000E+00 0.00000E+00
 -1        83-1.52845E+00 2.50000E+00 0.00000E+00
 -1        84 1.16880E-01 2.50000E+00 0.00000E+00
 -1        85-5.08988E-01 2.50000E+00 0.00000E+00
 -1        86-1.52624E+00 2.50000E+00 0.00000E+00
 -1        87 1.18420E-01 2.50000E+00 0.00000E+00
 -1        88-5.07856E-01 2.50000E+00 0.00000E+00
 -3
    1PSTEP                        10           3           1          
  100CL  103 3.000000000          88                     0    3           1
 -4  FORC        4    1
 -5  F1          1    2    1    0
 -5  F2          1    2    2    0
 -5  F3          1    2    3    0
 -5  ALL         1    2    0    0    1ALL
 -1         1 0.00000E+00 0.00000E+00 0.00000E+00
 -1         2 0.00000E+00 0.00000E+00 0.00000E+00
 -1         3 0.00000E+00 0.00000E+00 0.00000E+00
 -1         4 0.00000E+00 0.00000E+00 0.00000E+00
 -1         5 0.00000E+00 0.00000E+00 0.00000E+00
 -1         6 0.00000E+00 0.00000E+00 0.00000E+00
 -1         7 0.00000E+00 0.00000E+00 0.00000E+00
 -1         8 0.00000E+00 0.00000E+00 0.00000E+00
 -1         9 0.00000E+00 0.00000E+00 0.00000E+00
 -1        10 0.00000E+00 0.00000E+00 0.00000E+00
 -1        11 0.00000E+00 0.00000E+00 0.00000E+00
 -1        12 0.00000E+00 0.00000E+00 0.00000E+00
 -1        13 0.00000E+00 0.00000E+00 0.00000E+00
 -1        14 0.00000E+00 0.00000E+00 0.00000E+00
 -1        15 0.00000E+00 0.00000E+00 0.00000E+00
 -1        16 0.00000E+00 0.00000E+00 0.00000E+00
 -1        17 0.00000E+00 0.00000E+00 0.00000E+00
 -1        18 0.00000E+00 0.00000E+00 0.00000E+00
 -1        19 0.00000E+00 0.00000E+00 0.00000E+00
 -1        20 0.00000E+00 0.00000E+00 0.00000E+00
 -1        21 0.00000E+00 0.00000E+00 0.00000E+00
 -1        22 0.00000E+00 0.00000E+00 0.00000E+00
 -1        23 0.00000E+00 0.00000E+00 0.00000E+00
 -1        24 0.00000E+00 0.00000E+00 0.00000E+00
 -1        25 0.00000E+00 0.00000E+00 0.00000E+00
 -1        26 0.00000E+00 0.00000E+00 0.00000E+00
 -1        27 0.00000E+00 0.00000E+00 0.00000E+00
 -1        28 0.00000E+00 0.00000E+00 0.00000E+00
 -1        29 0.00000E+00 0.00000E+00 0.00000E+00
 -1        30 0.00000E+00 0.00000E+00 0.00000E+00
 -1        31 0.00000E+00 0.00000E+00 0.00000E+00
 -1        32 0.00000E+00 0.00000E+00 0.00000E+00
 -1        33 0.00000E+00 0.00000E+00 0.00000E+00
 -1        34 0.00000E+00 0.00000E+00 0.00000E+00
 -1        35 0.00000E+00 0.00000E+00 0.00000E+00
 -1        36 0.00000E+00 0.00000E+00 0.00000E+00
 -1        37 0.00000E+00 0.00000E+00 0.00000E+00
 -1        38 0.00000E+00 0.00000E+00 0.00000E+00
 -1        39 0.00000E+00 0.00000E+00 0.00000E+00
 -1        40 0.00000E+00 0.00000E+00 0.00000E+00
 -1        41 0.00000E+00 0.00000E+00 0.00000E+00
 -1        42 0.00000E+00 0.00000E+00 0.00000E+00
 -1        43 0.00000E+00 0.00000E+00 0.00000E+00
 -1        44 0.00000E+00 0.00000E+00 0.00000E+00
 -1        45 0.00000E+00 0.00000E+00 0.00000E+00
 -1        46 0.00000E+00 0.00000E+00 0.00000E+00
 -1        47 0.00000E+00 0.00000E+00 0.00000E+00
 -1        48 0.00000E+00 0.00000E+00 0.00000E+00
 -1        49 0.00000E+00 0.00000E+00 0.00000E+00
 -1        50 0.00000E+00 0.00000E+00 0.00000E+00
 -1        51 0.00000E+00 0.00000E+00 0.00000E+00
 -1        52 0.00000E+00 0.00000E+00 0.00000E+00
 -1        53 0.00000E+00 0.00000E+00 0.00000E+00
 -1        54 0.00000E+00 0.00000E+00 0.00000E+00
 -1        55 0.00000E+00 0.00000E+00 0.00000E+00
 -1        56 0.00000E+00 0.00000E+00 0.00000E+00
 -1        57 0.00000E+00 0.00000E+00 0.00000E+00
 -1        58 0.00000E+00 0.00000E+00 0.00000E+00
 -1        59 0.00000E+00 0.00000E+00 0.00000E+00
 -1        60 0.00000E+00 0.00000E+00 0.00000E+00
 -1        61 0.00000E+00 0.00000E+00 0.00000E+00
 -1        62 0.00000E+00 0.00000E+00 0.00000E+00
 -1        63 0.00000E+00 0.00000E+00 0.00000E+00
 -1        64 0.00000E+00 0.00000E+00 0.00000E+00
 -1        65 0.00000E+00 0.00000E+00 0.00000E+00
 -1        66 0.00000E+00 0.00000E+00 0.00000E+00
 -1        67 0.00000E+00 0.00000E+00 0.00000E+00
 -1        68 0.00000E+00 0.00000E+00 0.00000E+00
 -1        69 0.00000E+00 0.00000E+00 0.00000E+00
 -1        70 0.00000E+00 0.00000E+00 0.00000E+00
 -1        71 0.00000E+00 0.00000E+00 0.00000E+00
 -1        72 0.00000E+00 0.00000E+00 0.00000E+00
 -1        73 0.00000E+00 0.00000E+00 0.00000E+00
 -1        74 0.00000E+00 0.00000E+00 0.00000E+00
 -1        75 0.00000E+00 0.00000E+00 0.00000E+00
 -1        76 0.00000E+00 0.00000E+00 0.00000E+00
 -1        77 0.00000E+00 0.00000E+00 0.00000E+00
 -1        78 0.00000E+00 0.00000E+00 0.00000E+00
 -1        79 0.00000E+00 0.00000E+00 0.00000E+00
 -1        80 0.00000E+00 0.00000E+00 0.00000E+00
 -1        81 0.00000E+00 0.00000E+00 0.00000E+00
 -1        82 0.00000E+00 0.00000E+00 0.00000E+00
 -1        83 0.00000E+00 0.00000E+00 0.00000E+00
 -1        84 0.00000E+00 0.00000E+00 0.00000E+00
 -1        85 0.00000E+00 0.00000E+00 0.00000E+00
 -1        86 0.00000E+00 0.00000E+00 0.00000E+00
 -1        87 0.00000E+00 0.00000E+00 0.00000E+00
 -1        88 0.00000E+00 0.00000E+00 0.00000E+00
 -3
