# vtk DataFile Version 3.0

ASCII
DATASET UNSTRUCTURED_GRID

POINTS 15 double
	-1.67767000E+02	 1.26250000E+02	-4.70002000E-14
	-1.65000000E+02	 1.26250000E+02	-4.63859000E-14
	-1.64694000E+02	 1.26106000E+02	-3.06622000E+00
	-1.67767000E+02	 1.27439000E+02	-4.70800000E-14
	-1.65000000E+02	 1.27367000E+02	-4.64608000E-14
	-1.64694000E+02	 1.27227000E+02	-3.06384000E+00
	-1.66383000E+02	 1.26250000E+02	-4.66930000E-14
	-1.64847000E+02	 1.26178000E+02	-1.53311000E+00
	-1.66230000E+02	 1.26178000E+02	-1.53311000E+00
	-1.66383000E+02	 1.27403000E+02	-4.67704000E-14
	-1.64847000E+02	 1.27297000E+02	-1.53192000E+00
	-1.66230000E+02	 1.27333000E+02	-1.53192000E+00
	-1.67767000E+02	 1.26844000E+02	-4.70401000E-14
	-1.65000000E+02	 1.26808000E+02	-4.64233000E-14
	-1.64694000E+02	 1.26667000E+02	-3.06503000E+00

CELLS 1 7
	6        0       2       1       3       5       4

CELL_TYPES 1
	13

POINT_DATA 15
VECTORS 1_0.0301115_DISP double
	 2.00477000E+03	 2.58917000E+03	 9.68553000E+03
	 2.01860000E+03	 8.63595000E+02	-1.71541000E+03
	-1.07601000E+04	-6.73982000E+03	-2.60862000E+03
	 2.78521000E+03	 2.65228000E+03	 6.91448000E+03
	 2.72275000E+03	 8.73487000E+02	-4.37766000E+03
	-9.98867000E+03	-6.63310000E+03	-5.30695000E+03
	 2.01044000E+03	 1.71512000E+03	 3.99134000E+03
	-4.36771000E+03	-2.90177000E+03	-2.16395000E+03
	-4.36928000E+03	-1.97922000E+03	 3.53747000E+03
	 2.75674000E+03	 1.75885000E+03	 1.25302000E+03
	-3.64813000E+03	-2.89251000E+03	-4.84035000E+03
	-3.62792000E+03	-2.02992000E+03	 7.84449000E+02
	 2.39412000E+03	 2.62069000E+03	 8.32272000E+03
	 2.36731000E+03	 8.68050000E+02	-3.04126000E+03
	-1.03604000E+04	-6.68478000E+03	-3.96813000E+03
TENSORS 1_0.0301115_STRESS double
	 3.69727000E+05	 4.51155000E+04	 5.56674000E+05
	 4.51155000E+04	-4.49369000E+05	 3.43808000E+05
	 5.56674000E+05	 3.43808000E+05	-1.59366000E+05

	 1.14134000E+06	 6.23536000E+05	-1.27564000E+05
	 6.23536000E+05	 1.11863000E+05	-3.76437000E+04
	-1.27564000E+05	-3.76437000E+04	-6.26621000E+05

	-1.05086000E+06	-6.25400000E+05	 7.02230000E+05
	-6.25400000E+05	-1.89698000E+04	 4.87338000E+05
	 7.02230000E+05	 4.87338000E+05	-1.46452000E+06

	-2.10112000E+05	-1.38522000E+05	-1.35171000E+06
	-1.38522000E+05	-2.07364000E+05	 3.60458000E+05
	-1.35171000E+06	 3.60458000E+05	 1.09517000E+06

	-2.36234000E+06	 1.49738000E+05	 7.50810000E+05
	 1.49738000E+05	-1.42184000E+05	-6.13934000E+05
	 7.50810000E+05	-6.13934000E+05	-3.75512000E+05

	 2.28639000E+06	-9.96382000E+04	-1.43717000E+06
	-9.96382000E+04	-5.04216000E+05	-3.51506000E+05
	-1.43717000E+06	-3.51506000E+05	 1.85286000E+06

	 7.55532000E+05	 3.34326000E+05	 2.14555000E+05
	 3.34326000E+05	-1.68753000E+05	 1.53082000E+05
	 2.14555000E+05	 1.53082000E+05	-3.92994000E+05

	 4.52406000E+04	-9.31818000E+02	 2.87333000E+05
	-9.31818000E+02	 4.64468000E+04	 2.24847000E+05
	 2.87333000E+05	 2.24847000E+05	-1.04557000E+06

	-3.40564000E+05	-2.90142000E+05	 6.29452000E+05
	-2.90142000E+05	-2.34170000E+05	 4.15573000E+05
	 6.29452000E+05	 4.15573000E+05	-8.11942000E+05

	-1.28623000E+06	 5.60841000E+03	-3.00450000E+05
	 5.60841000E+03	-1.74774000E+05	-1.26738000E+05
	-3.00450000E+05	-1.26738000E+05	 3.59828000E+05

	-3.79764000E+04	 2.50501000E+04	-3.43181000E+05
	 2.50501000E+04	-3.23200000E+05	-4.82720000E+05
	-3.43181000E+05	-4.82720000E+05	 7.38673000E+05

	 1.03814000E+06	-1.19080000E+05	-1.39444000E+06
	-1.19080000E+05	-3.55790000E+05	 4.47578000E+03
	-1.39444000E+06	 4.47578000E+03	 1.47401000E+06

	 7.98077000E+04	-4.67030000E+04	-3.97518000E+05
	-4.67030000E+04	-3.28367000E+05	 3.52133000E+05
	-3.97518000E+05	 3.52133000E+05	 4.67901000E+05

	-6.10501000E+05	 3.86637000E+05	 3.11623000E+05
	 3.86637000E+05	-1.51604000E+04	-3.25789000E+05
	 3.11623000E+05	-3.25789000E+05	-5.01067000E+05

	 6.17765000E+05	-3.62519000E+05	-3.67470000E+05
	-3.62519000E+05	-2.61593000E+05	 6.79158000E+04
	-3.67470000E+05	 6.79158000E+04	 1.94169000E+05

TENSORS 1_0.0301115_TOSTRAIN double
	 2.63023000E+00	 2.79287000E-01	 3.44608000E+00
	 2.79287000E-01	-2.44037000E+00	 2.12833000E+00
	 3.44608000E+00	 2.12833000E+00	-6.45112000E-01

	 6.17031000E+00	 3.85999000E+00	-7.89682000E-01
	 3.85999000E+00	-2.02626000E-01	-2.33033000E-01
	-7.89682000E-01	-2.33033000E-01	-4.77420000E+00

	-2.88481000E+00	-3.87152000E+00	 4.34714000E+00
	-3.87152000E+00	 3.50306000E+00	 3.01685000E+00
	 4.34714000E+00	 3.01685000E+00	-5.44558000E+00

	-2.26882000E+00	-8.57514000E-01	-8.36773000E+00
	-8.57514000E-01	-2.25181000E+00	 2.23141000E+00
	-8.36773000E+00	 2.23141000E+00	 5.81148000E+00

	-1.05097000E+01	 9.26952000E-01	 4.64787000E+00
	 9.26952000E-01	 3.23415000E+00	-3.80054000E+00
	 4.64787000E+00	-3.80054000E+00	 1.78974000E+00

	 8.96092000E+00	-6.16808000E-01	-8.89677000E+00
	-6.16808000E-01	-8.31423000E+00	-2.17599000E+00
	-8.89677000E+00	-2.17599000E+00	 6.27717000E+00

	 4.40027000E+00	 2.06964000E+00	 1.32820000E+00
	 2.06964000E+00	-1.32150000E+00	 9.47650000E-01
	 1.32820000E+00	 9.47650000E-01	-2.70965000E+00

	 1.64275000E+00	-5.76840000E-03	 1.77873000E+00
	-5.76840000E-03	 1.65022000E+00	 1.39191000E+00
	 1.77873000E+00	 1.39191000E+00	-5.10989000E+00

	-1.27289000E-01	-1.79612000E+00	 3.89661000E+00
	-1.79612000E+00	 5.31345000E-01	 2.57259000E+00
	 3.89661000E+00	 2.57259000E+00	-3.04534000E+00

	-6.38925000E+00	 3.47187000E-02	-1.85993000E+00
	 3.47187000E-02	 4.91167000E-01	-7.84569000E-01
	-1.85993000E+00	-7.84569000E-01	 3.80061000E+00

	-7.74373000E-01	 1.55072000E-01	-2.12445000E+00
	 1.55072000E-01	-2.54004000E+00	-2.98827000E+00
	-2.12445000E+00	-2.98827000E+00	 4.03345000E+00

	 3.34605000E+00	-7.37161000E-01	-8.63225000E+00
	-7.37161000E-01	-5.28302000E+00	 2.77072000E-02
	-8.63225000E+00	 2.77072000E-02	 6.04433000E+00

	 1.80702000E-01	-2.89114000E-01	-2.46082000E+00
	-2.89114000E-01	-2.34609000E+00	 2.17987000E+00
	-2.46082000E+00	 2.17987000E+00	 2.58318000E+00

	-2.16968000E+00	 2.39347000E+00	 1.92909000E+00
	 2.39347000E+00	 1.51576000E+00	-2.01679000E+00
	 1.92909000E+00	-2.01679000E+00	-1.49223000E+00

	 3.03806000E+00	-2.24416000E+00	-2.27482000E+00
	-2.24416000E+00	-2.40559000E+00	 4.20431000E-01
	-2.27482000E+00	 4.20431000E-01	 4.15798000E-01

VECTORS 1_0.0301115_FORC double
	-2.43741000E+04	 4.69046000E+02	-4.24519000E+05
	 1.84006000E+04	-6.66889000E+04	-2.62372000E+05
	-3.14935000E+03	-1.31075000E+05	-9.43352000E+04
	 3.91155000E+04	-4.84076000E+04	-1.06478000E+05
	-6.30029000E+04	-7.12131000E+04	-3.05619000E+05
	 2.64151000E+04	-8.75188000E+04	-3.69689000E+05
	-9.24230000E+04	 2.85087000E+05	-8.12422000E+04
	 4.72901000E+04	 2.09019000E+05	 1.86941000E+04
	 4.88839000E+04	 2.31513000E+05	-8.29424000E+03
	-1.35046000E+05	-2.63574000E+05	 2.26641000E+05
	-9.30520000E+02	-2.19559000E+05	-2.41739000E+05
	 1.37448000E+05	-2.48265000E+05	 8.88481000E+04
	-4.69020000E+04	 5.55709000E+04	 7.72292000E+05
	-1.53141000E+05	 1.68696000E+05	 4.65349000E+05
	 2.01416000E+05	 1.85946000E+05	 3.22463000E+05
