    1C
    1UUSER                                                              
    1UDATE              25.may.2019                                     
    1UTIME              13:07:43                                        
    1UHOST                                                              
    1UPGM               CalculiX                                        
    1UVERSION           Version 2.15                             
    1UCOMPILETIME       Fri 15 Mar 11:57:46 CET 2019                    
    1UDIR                                                               
    1UDBN                                                               
    1UMAT    1STEEL                                                     
    2C                            15                                     1
 -1         1-1.67767E+02 1.26250E+02-4.70002E-14
 -1         2-1.65000E+02 1.26250E+02-4.63859E-14
 -1         3-1.64694E+02 1.26106E+02-3.06622E+00
 -1         4-1.67767E+02 1.27439E+02-4.70800E-14
 -1         5-1.65000E+02 1.27367E+02-4.64608E-14
 -1         6-1.64694E+02 1.27227E+02-3.06384E+00
 -1         7-1.66383E+02 1.26250E+02-4.66930E-14
 -1         8-1.64847E+02 1.26178E+02-1.53311E+00
 -1         9-1.66230E+02 1.26178E+02-1.53311E+00
 -1        10-1.66383E+02 1.27403E+02-4.67704E-14
 -1        11-1.64847E+02 1.27297E+02-1.53192E+00
 -1        12-1.66230E+02 1.27333E+02-1.53192E+00
 -1        13-1.67767E+02 1.26844E+02-4.70401E-14
 -1        14-1.65000E+02 1.26808E+02-4.64233E-14
 -1        15-1.64694E+02 1.26667E+02-3.06503E+00
 -3
    3C                             1                                     1
 -1         1    5    0    1
 -2         1         2         3         4         5         6         7         8         9        13
 -2        14        15        10        11        12
 -3
    1PSTEP                         1           1           1          
    1PGM                1.000000E+00                                  
    1PGK                3.579525E-02                                  
    1PHID                         -1                                  
    1PSUBC                         0                                  
    1PMODE                         1                                  
  100CL  101 3.01115E-02          15                     2    1MODAL      1
 -4  DISP        4    1
 -5  D1          1    2    1    0
 -5  D2          1    2    2    0
 -5  D3          1    2    3    0
 -5  ALL         1    2    0    0    1ALL
 -1         1 2.00477E+03 2.58917E+03 9.68553E+03
 -1         2 2.01860E+03 8.63595E+02-1.71541E+03
 -1         3-1.07601E+04-6.73982E+03-2.60862E+03
 -1         4 2.78521E+03 2.65228E+03 6.91448E+03
 -1         5 2.72275E+03 8.73487E+02-4.37766E+03
 -1         6-9.98867E+03-6.63310E+03-5.30695E+03
 -1         7 2.01044E+03 1.71512E+03 3.99134E+03
 -1         8-4.36771E+03-2.90177E+03-2.16395E+03
 -1         9-4.36928E+03-1.97922E+03 3.53747E+03
 -1        10 2.75674E+03 1.75885E+03 1.25302E+03
 -1        11-3.64813E+03-2.89251E+03-4.84035E+03
 -1        12-3.62792E+03-2.02992E+03 7.84449E+02
 -1        13 2.39412E+03 2.62069E+03 8.32272E+03
 -1        14 2.36731E+03 8.68050E+02-3.04126E+03
 -1        15-1.03604E+04-6.68478E+03-3.96813E+03
 -3
    1PSTEP                         2           1           1          
    1PGM                1.000000E+00                                  
    1PGK                3.579525E-02                                  
    1PHID                         -1                                  
    1PSUBC                         0                                  
    1PMODE                         1                                  
  100CL  101 3.01115E-02          15                     2    1MODAL      1
 -4  STRESS      6    1
 -5  SXX         1    4    1    1
 -5  SYY         1    4    2    2
 -5  SZZ         1    4    3    3
 -5  SXY         1    4    1    2
 -5  SYZ         1    4    2    3
 -5  SZX         1    4    3    1
 -1         1 3.69727E+05-4.49369E+05-1.59366E+05 4.51155E+04 3.43808E+05 5.56674E+05
 -1         2 1.14134E+06 1.11863E+05-6.26621E+05 6.23536E+05-3.76437E+04-1.27564E+05
 -1         3-1.05086E+06-1.89698E+04-1.46452E+06-6.25400E+05 4.87338E+05 7.02230E+05
 -1         4-2.10112E+05-2.07364E+05 1.09517E+06-1.38522E+05 3.60458E+05-1.35171E+06
 -1         5-2.36234E+06-1.42184E+05-3.75512E+05 1.49738E+05-6.13934E+05 7.50810E+05
 -1         6 2.28639E+06-5.04216E+05 1.85286E+06-9.96382E+04-3.51506E+05-1.43717E+06
 -1         7 7.55532E+05-1.68753E+05-3.92994E+05 3.34326E+05 1.53082E+05 2.14555E+05
 -1         8 4.52406E+04 4.64468E+04-1.04557E+06-9.31818E+02 2.24847E+05 2.87333E+05
 -1         9-3.40564E+05-2.34170E+05-8.11942E+05-2.90142E+05 4.15573E+05 6.29452E+05
 -1        10-1.28623E+06-1.74774E+05 3.59828E+05 5.60841E+03-1.26738E+05-3.00450E+05
 -1        11-3.79764E+04-3.23200E+05 7.38673E+05 2.50501E+04-4.82720E+05-3.43181E+05
 -1        12 1.03814E+06-3.55790E+05 1.47401E+06-1.19080E+05 4.47578E+03-1.39444E+06
 -1        13 7.98077E+04-3.28367E+05 4.67901E+05-4.67030E+04 3.52133E+05-3.97518E+05
 -1        14-6.10501E+05-1.51604E+04-5.01067E+05 3.86637E+05-3.25789E+05 3.11623E+05
 -1        15 6.17765E+05-2.61593E+05 1.94169E+05-3.62519E+05 6.79158E+04-3.67470E+05
 -3
    1PSTEP                         3           1           1          
    1PGM                1.000000E+00                                  
    1PGK                3.579525E-02                                  
    1PHID                         -1                                  
    1PSUBC                         0                                  
    1PMODE                         1                                  
  100CL  101 3.01115E-02          15                     2    1MODAL      1
 -4  TOSTRAIN    6    1
 -5  EXX         1    4    1    1
 -5  EYY         1    4    2    2
 -5  EZZ         1    4    3    3
 -5  EXY         1    4    1    2
 -5  EYZ         1    4    2    3
 -5  EZX         1    4    3    1
 -1         1 2.63023E+00-2.44037E+00-6.45112E-01 2.79287E-01 2.12833E+00 3.44608E+00
 -1         2 6.17031E+00-2.02626E-01-4.77420E+00 3.85999E+00-2.33033E-01-7.89682E-01
 -1         3-2.88481E+00 3.50306E+00-5.44558E+00-3.87152E+00 3.01685E+00 4.34714E+00
 -1         4-2.26882E+00-2.25181E+00 5.81148E+00-8.57514E-01 2.23141E+00-8.36773E+00
 -1         5-1.05097E+01 3.23415E+00 1.78974E+00 9.26952E-01-3.80054E+00 4.64787E+00
 -1         6 8.96092E+00-8.31423E+00 6.27717E+00-6.16808E-01-2.17599E+00-8.89677E+00
 -1         7 4.40027E+00-1.32150E+00-2.70965E+00 2.06964E+00 9.47650E-01 1.32820E+00
 -1         8 1.64275E+00 1.65022E+00-5.10989E+00-5.76840E-03 1.39191E+00 1.77873E+00
 -1         9-1.27289E-01 5.31345E-01-3.04534E+00-1.79612E+00 2.57259E+00 3.89661E+00
 -1        10-6.38925E+00 4.91167E-01 3.80061E+00 3.47187E-02-7.84569E-01-1.85993E+00
 -1        11-7.74373E-01-2.54004E+00 4.03345E+00 1.55072E-01-2.98827E+00-2.12445E+00
 -1        12 3.34605E+00-5.28302E+00 6.04433E+00-7.37161E-01 2.77072E-02-8.63225E+00
 -1        13 1.80702E-01-2.34609E+00 2.58318E+00-2.89114E-01 2.17987E+00-2.46082E+00
 -1        14-2.16968E+00 1.51576E+00-1.49223E+00 2.39347E+00-2.01679E+00 1.92909E+00
 -1        15 3.03806E+00-2.40559E+00 4.15798E-01-2.24416E+00 4.20431E-01-2.27482E+00
 -3
    1PSTEP                         4           1           1          
    1PGM                1.000000E+00                                  
    1PGK                3.579525E-02                                  
    1PHID                         -1                                  
    1PSUBC                         0                                  
    1PMODE                         1                                  
  100CL  101 3.01115E-02          15                     2    1MODAL      1
 -4  FORC        4    1
 -5  F1          1    2    1    0
 -5  F2          1    2    2    0
 -5  F3          1    2    3    0
 -5  ALL         1    2    0    0    1ALL
 -1         1-2.43741E+04 4.69046E+02-4.24519E+05
 -1         2 1.84006E+04-6.66889E+04-2.62372E+05
 -1         3-3.14935E+03-1.31075E+05-9.43352E+04
 -1         4 3.91155E+04-4.84076E+04-1.06478E+05
 -1         5-6.30029E+04-7.12131E+04-3.05619E+05
 -1         6 2.64151E+04-8.75188E+04-3.69689E+05
 -1         7-9.24230E+04 2.85087E+05-8.12422E+04
 -1         8 4.72901E+04 2.09019E+05 1.86941E+04
 -1         9 4.88839E+04 2.31513E+05-8.29424E+03
 -1        10-1.35046E+05-2.63574E+05 2.26641E+05
 -1        11-9.30520E+02-2.19559E+05-2.41739E+05
 -1        12 1.37448E+05-2.48265E+05 8.88481E+04
 -1        13-4.69020E+04 5.55709E+04 7.72292E+05
 -1        14-1.53141E+05 1.68696E+05 4.65349E+05
 -1        15 2.01416E+05 1.85946E+05 3.22463E+05
 -3
    1PSTEP                         5           1           1          
    1PGM                1.000000E+00                                  
    1PGK                3.579525E-02                                  
    1PHID                         -1                                  
    1PSUBC                         0                                  
    1PMODE                         1                                  
  100CL  101 3.01115E-02          15                     2    1MODAL      1
 -4  ERROR       1    1
 -5  STR(%)      1    1    0    0
 -1         1 4.53718E+01
 -1         2 4.53718E+01
 -1         3 4.53718E+01
 -1         4 4.53718E+01
 -1         5 4.53718E+01
 -1         6 4.53718E+01
 -1         7 4.53718E+01
 -1         8 4.53718E+01
 -1         9 4.53718E+01
 -1        10 4.53718E+01
 -1        11 4.53718E+01
 -1        12 4.53718E+01
 -1        13 4.53718E+01
 -1        14 4.53718E+01
 -1        15 4.53718E+01
 -3
 9999
