<?xml version="1.0"?>
<VTKFile type="UnstructuredGrid" version="0.1" byte_order="LittleEndian">
	<UnstructuredGrid>
		<Piece NumberOfPoints="15" NumberOfCells="1">
			<Points>
				<DataArray type="Float64" NumberOfComponents="3" format="ascii">
					-167.767000 126.250000 -0.000000 -165.000000 126.250000 -0.000000 -164.694000 126.106000 -3.066220 -167.767000 127.439000 -0.000000 -165.000000 127.367000 -0.000000 -164.694000 127.227000 -3.063840 -166.383000 126.250000 -0.000000 -164.847000 126.178000 -1.533110 -166.230000 126.178000 -1.533110 -166.383000 127.403000 -0.000000 -164.847000 127.297000 -1.531920 -166.230000 127.333000 -1.531920 -167.767000 126.844000 -0.000000 -165.000000 126.808000 -0.000000 -164.694000 126.667000 -3.065030 
				</DataArray>
			</Points>
			<Cells>
				<DataArray type="Int32" Name="connectivity" format="ascii">
					0 2 1 3 5 4 
				</DataArray>
				<DataArray type="Int32" Name="offsets" format="ascii">
					6 
				</DataArray>
				<DataArray type="UInt8" Name="types" format="ascii">
					13 
				</DataArray>
			</Cells>
			<PointData>
				<DataArray type="Float32" Name="DISP" NumberOfComponents="3" ComponentName0="D1" ComponentName1="D2" ComponentName2="D3" ComponentName3="ALL" format="ascii">
					2004.770000 2589.170000 9685.530000 2018.600000 863.595000 -1715.410000 -10760.100000 -6739.820000 -2608.620000 2785.210000 2652.280000 6914.480000 2722.750000 873.487000 -4377.660000 -9988.670000 -6633.100000 -5306.950000 2010.440000 1715.120000 3991.340000 -4367.710000 -2901.770000 -2163.950000 -4369.280000 -1979.220000 3537.470000 2756.740000 1758.850000 1253.020000 -3648.130000 -2892.510000 -4840.350000 -3627.920000 -2029.920000 784.449000 2394.120000 2620.690000 8322.720000 2367.310000 868.050000 -3041.260000 -10360.400000 -6684.780000 -3968.130000 
				</DataArray>
				<DataArray type="Float32" Name="STRESS" NumberOfComponents="6" ComponentName0="SXX" ComponentName1="SYY" ComponentName2="SZZ" ComponentName3="SXY" ComponentName4="SYZ" ComponentName5="SZX" format="ascii">
					369727.000000 -449369.000000 -159366.000000 45115.500000 343808.000000 556674.000000 1141340.000000 111863.000000 -626621.000000 623536.000000 -37643.700000 -127564.000000 -1050860.000000 -18969.800000 -1464520.000000 -625400.000000 487338.000000 702230.000000 -210112.000000 -207364.000000 1095170.000000 -138522.000000 360458.000000 -1351710.000000 -2362340.000000 -142184.000000 -375512.000000 149738.000000 -613934.000000 750810.000000 2286390.000000 -504216.000000 1852860.000000 -99638.200000 -351506.000000 -1437170.000000 755532.000000 -168753.000000 -392994.000000 334326.000000 153082.000000 214555.000000 45240.600000 46446.800000 -1045570.000000 -931.818000 224847.000000 287333.000000 -340564.000000 -234170.000000 -811942.000000 -290142.000000 415573.000000 629452.000000 -1286230.000000 -174774.000000 359828.000000 5608.410000 -126738.000000 -300450.000000 -37976.400000 -323200.000000 738673.000000 25050.100000 -482720.000000 -343181.000000 1038140.000000 -355790.000000 1474010.000000 -119080.000000 4475.780000 -1394440.000000 79807.700000 -328367.000000 467901.000000 -46703.000000 352133.000000 -397518.000000 -610501.000000 -15160.400000 -501067.000000 386637.000000 -325789.000000 311623.000000 617765.000000 -261593.000000 194169.000000 -362519.000000 67915.800000 -367470.000000 
				</DataArray>
				<DataArray type="Float32" Name="TOSTRAIN" NumberOfComponents="6" ComponentName0="EXX" ComponentName1="EYY" ComponentName2="EZZ" ComponentName3="EXY" ComponentName4="EYZ" ComponentName5="EZX" format="ascii">
					2.630230 -2.440370 -0.645112 0.279287 2.128330 3.446080 6.170310 -0.202626 -4.774200 3.859990 -0.233033 -0.789682 -2.884810 3.503060 -5.445580 -3.871520 3.016850 4.347140 -2.268820 -2.251810 5.811480 -0.857514 2.231410 -8.367730 -10.509700 3.234150 1.789740 0.926952 -3.800540 4.647870 8.960920 -8.314230 6.277170 -0.616808 -2.175990 -8.896770 4.400270 -1.321500 -2.709650 2.069640 0.947650 1.328200 1.642750 1.650220 -5.109890 -0.005768 1.391910 1.778730 -0.127289 0.531345 -3.045340 -1.796120 2.572590 3.896610 -6.389250 0.491167 3.800610 0.034719 -0.784569 -1.859930 -0.774373 -2.540040 4.033450 0.155072 -2.988270 -2.124450 3.346050 -5.283020 6.044330 -0.737161 0.027707 -8.632250 0.180702 -2.346090 2.583180 -0.289114 2.179870 -2.460820 -2.169680 1.515760 -1.492230 2.393470 -2.016790 1.929090 3.038060 -2.405590 0.415798 -2.244160 0.420431 -2.274820 
				</DataArray>
				<DataArray type="Float32" Name="FORC" NumberOfComponents="3" ComponentName0="F1" ComponentName1="F2" ComponentName2="F3" ComponentName3="ALL" format="ascii">
					-24374.100000 469.046000 -424519.000000 18400.600000 -66688.900000 -262372.000000 -3149.350000 -131075.000000 -94335.200000 39115.500000 -48407.600000 -106478.000000 -63002.900000 -71213.100000 -305619.000000 26415.100000 -87518.800000 -369689.000000 -92423.000000 285087.000000 -81242.200000 47290.100000 209019.000000 18694.100000 48883.900000 231513.000000 -8294.240000 -135046.000000 -263574.000000 226641.000000 -930.520000 -219559.000000 -241739.000000 137448.000000 -248265.000000 88848.100000 -46902.000000 55570.900000 772292.000000 -153141.000000 168696.000000 465349.000000 201416.000000 185946.000000 322463.000000 
				</DataArray>
			</PointData>
		</Piece>
	</UnstructuredGrid>
</VTKFile>