<?xml version="1.0"?>
<VTKFile type="UnstructuredGrid" version="0.1" byte_order="LittleEndian">
	<UnstructuredGrid>
		<Piece NumberOfPoints="20" NumberOfCells="1">
			<Points>
				<DataArray type="Float64" NumberOfComponents="3" format="ascii">
					-186.500000 130.900000 -0.000000 -186.500000 129.350000 -0.000000 -186.500000 129.197000 -3.307820 -186.500000 130.740000 -3.450840 -184.867000 130.900000 -0.000000 -184.867000 129.350000 -0.000000 -184.867000 129.197000 -3.307820 -184.867000 130.740000 -3.450840 -186.500000 130.125000 -0.000000 -186.500000 129.274000 -1.653910 -186.500000 129.969000 -3.379330 -186.500000 130.820000 -1.725420 -184.867000 130.125000 -0.000000 -184.867000 129.274000 -1.653910 -184.867000 129.969000 -3.379330 -184.867000 130.820000 -1.725420 -185.683000 130.900000 -0.000000 -185.683000 129.350000 -0.000000 -185.683000 129.197000 -3.307820 -185.683000 130.740000 -3.450840 
				</DataArray>
			</Points>
			<Cells>
				<DataArray type="Int32" Name="connectivity" format="ascii">
					0 1 2 3 4 5 6 7 8 9 10 11 12 13 14 15 16 17 18 19 
				</DataArray>
				<DataArray type="Int32" Name="offsets" format="ascii">
					20 
				</DataArray>
				<DataArray type="UInt8" Name="types" format="ascii">
					25 
				</DataArray>
			</Cells>
			<PointData>
				<DataArray type="Float32" Name="DISP" NumberOfComponents="3" ComponentName0="D1" ComponentName1="D2" ComponentName2="D3" ComponentName3="ALL" format="ascii">
					354.888000 -3149.010000 2380.160000 5508.980000 -3149.010000 2189.590000 -2993.960000 -2742.320000 2170.790000 -8515.680000 -2724.730000 2360.540000 354.888000 2282.190000 -2069.510000 5508.980000 2282.190000 -2260.080000 -2993.960000 2688.880000 -2278.880000 -8515.680000 2706.460000 -2089.130000 2931.930000 -3149.010000 2284.880000 1257.510000 -2945.660000 2180.190000 -5754.820000 -2733.520000 2265.670000 -4080.400000 -2936.870000 2370.350000 2931.930000 2282.190000 -2164.800000 1257.510000 2485.530000 -2269.480000 -5754.820000 2697.670000 -2184.010000 -4080.400000 2494.320000 -2079.320000 354.888000 -433.408000 155.322000 5508.980000 -433.408000 -35.247400 -2993.960000 -26.718400 -54.049400 -8515.680000 -9.134820 135.707000 
				</DataArray>
				<DataArray type="Float32" Name="STRESS" NumberOfComponents="6" ComponentName0="SXX" ComponentName1="SYY" ComponentName2="SZZ" ComponentName3="SXY" ComponentName4="SYZ" ComponentName5="SZX" format="ascii">
					4.773100 0.213227 17.871200 -0.921609 -5.405540 -25.909900 -23.435900 -7.119090 -19.969500 7.409300 -16.809900 -8.559820 -0.088814 -21.965800 -58.838500 14.116400 12.341300 0.127752 -1.337060 -10.488700 6.939580 5.875200 -3.029640 -12.892500 3.017680 9.173950 18.694100 6.525830 12.719100 -3.927220 -17.801000 -7.325770 1.892050 9.112630 -5.592890 4.463880 7.261050 10.658600 -46.063600 -0.394549 5.170220 17.297000 -19.842200 17.018700 -4.017420 -2.061690 19.934000 -18.998600 -17.028400 -9.160460 -12.352800 2.439700 -11.171000 -18.885000 -9.346280 2.408970 -33.999600 0.643919 0.873607 -5.850860 -11.399900 -23.058000 -38.143200 9.338010 4.576640 -12.352800 2.116380 9.513430 16.546100 -10.128700 -1.349710 -20.005400 -12.257900 -1.949530 5.591320 7.015330 3.379740 -0.841421 -7.279380 8.410960 -21.226100 -5.993830 4.319550 9.256480 -14.123000 9.822040 -30.534000 -1.836950 12.416400 -6.294740 -12.054400 18.429600 7.328510 -10.581600 20.506300 -12.057600 2.528230 4.029440 14.391900 2.995930 3.584710 -15.357600 -19.222300 -5.123460 -6.481370 8.454730 -10.802600 -2.188030 6.270070 -0.170782 -48.985200 7.720060 13.207400 8.541520 -10.722700 5.843740 -1.559140 2.738330 12.265100 -16.414000 
				</DataArray>
				<DataArray type="Float32" Name="TOSTRAIN" NumberOfComponents="6" ComponentName0="EXX" ComponentName1="EYY" ComponentName2="EZZ" ComponentName3="EXY" ComponentName4="EYZ" ComponentName5="EZX" format="ascii">
					-0.000003 -0.000031 0.000078 -0.000006 -0.000033 -0.000160 -0.000073 0.000028 -0.000051 0.000046 -0.000104 -0.000053 0.000115 -0.000020 -0.000249 0.000087 0.000076 0.000001 -0.000001 -0.000058 0.000050 0.000036 -0.000019 -0.000080 -0.000025 0.000013 0.000072 0.000040 0.000079 -0.000024 -0.000077 -0.000012 0.000045 0.000056 -0.000035 0.000028 0.000085 0.000106 -0.000245 -0.000002 0.000032 0.000107 -0.000113 0.000115 -0.000015 -0.000013 0.000123 -0.000118 -0.000050 -0.000002 -0.000021 0.000015 -0.000069 -0.000117 0.000001 0.000073 -0.000152 0.000004 0.000005 -0.000036 0.000033 -0.000039 -0.000132 0.000058 0.000028 -0.000076 -0.000027 0.000019 0.000062 -0.000063 -0.000008 -0.000124 -0.000064 0.000000 0.000047 0.000043 0.000021 -0.000005 -0.000016 0.000081 -0.000103 -0.000037 0.000027 0.000057 -0.000038 0.000111 -0.000139 -0.000011 0.000077 -0.000039 -0.000094 0.000095 0.000026 -0.000066 0.000127 -0.000075 -0.000014 -0.000005 0.000059 0.000019 0.000022 -0.000095 -0.000075 0.000012 0.000004 0.000052 -0.000067 -0.000014 0.000100 0.000060 -0.000242 0.000048 0.000082 0.000053 -0.000057 0.000045 -0.000000 0.000017 0.000076 -0.000102 
				</DataArray>
				<DataArray type="Float32" Name="FORC" NumberOfComponents="3" ComponentName0="F1" ComponentName1="F2" ComponentName2="F3" ComponentName3="ALL" format="ascii">
					-9.228250 -7.318870 8.491080 -8.049000 -3.034800 17.564600 -17.724500 0.478099 6.420880 -10.024500 -7.562830 -3.645850 8.330520 -0.300928 20.491400 1.875800 4.567390 30.400000 -0.625038 2.605110 21.584400 -0.204675 -0.523838 8.358970 18.890700 2.230890 -1.301560 28.311800 6.553350 -11.864500 36.854100 -4.564120 32.036300 14.458100 22.137900 22.346200 -24.124700 -5.465950 -38.953600 -10.429400 -12.145900 -43.264800 -9.119720 -18.729400 -11.479100 -28.981200 9.084390 -15.788900 -11.467500 14.249800 -10.824100 -1.888860 -1.505560 -37.080300 10.591000 -7.058730 -12.020000 12.555300 6.304010 18.528800 
				</DataArray>
			</PointData>
		</Piece>
	</UnstructuredGrid>
</VTKFile>