# vtk DataFile Version 3.0

ASCII
DATASET UNSTRUCTURED_GRID

POINTS 20 double
	-1.86500000E+02	 1.30900000E+02	-1.06581000E-14
	-1.86500000E+02	 1.29350000E+02	-1.06581000E-14
	-1.86500000E+02	 1.29197000E+02	-3.30782000E+00
	-1.86500000E+02	 1.30740000E+02	-3.45084000E+00
	-1.84867000E+02	 1.30900000E+02	-2.75712000E-14
	-1.84867000E+02	 1.29350000E+02	-2.75685000E-14
	-1.84867000E+02	 1.29197000E+02	-3.30782000E+00
	-1.84867000E+02	 1.30740000E+02	-3.45084000E+00
	-1.86500000E+02	 1.30125000E+02	-1.06581000E-14
	-1.86500000E+02	 1.29274000E+02	-1.65391000E+00
	-1.86500000E+02	 1.29969000E+02	-3.37933000E+00
	-1.86500000E+02	 1.30820000E+02	-1.72542000E+00
	-1.84867000E+02	 1.30125000E+02	-2.75699000E-14
	-1.84867000E+02	 1.29274000E+02	-1.65391000E+00
	-1.84867000E+02	 1.29969000E+02	-3.37933000E+00
	-1.84867000E+02	 1.30820000E+02	-1.72542000E+00
	-1.85683000E+02	 1.30900000E+02	-1.91147000E-14
	-1.85683000E+02	 1.29350000E+02	-1.91133000E-14
	-1.85683000E+02	 1.29197000E+02	-3.30782000E+00
	-1.85683000E+02	 1.30740000E+02	-3.45084000E+00

CELLS 1 21
	20        0       1       2       3       4       5       6       7       8       9      10      11      12      13      14      15      16      17      18      19

CELL_TYPES 1
	25

POINT_DATA 20
VECTORS 1_0.0417974_DISP double
	 3.54888000E+02	-3.14901000E+03	 2.38016000E+03
	 5.50898000E+03	-3.14901000E+03	 2.18959000E+03
	-2.99396000E+03	-2.74232000E+03	 2.17079000E+03
	-8.51568000E+03	-2.72473000E+03	 2.36054000E+03
	 3.54888000E+02	 2.28219000E+03	-2.06951000E+03
	 5.50898000E+03	 2.28219000E+03	-2.26008000E+03
	-2.99396000E+03	 2.68888000E+03	-2.27888000E+03
	-8.51568000E+03	 2.70646000E+03	-2.08913000E+03
	 2.93193000E+03	-3.14901000E+03	 2.28488000E+03
	 1.25751000E+03	-2.94566000E+03	 2.18019000E+03
	-5.75482000E+03	-2.73352000E+03	 2.26567000E+03
	-4.08040000E+03	-2.93687000E+03	 2.37035000E+03
	 2.93193000E+03	 2.28219000E+03	-2.16480000E+03
	 1.25751000E+03	 2.48553000E+03	-2.26948000E+03
	-5.75482000E+03	 2.69767000E+03	-2.18401000E+03
	-4.08040000E+03	 2.49432000E+03	-2.07932000E+03
	 3.54888000E+02	-4.33408000E+02	 1.55322000E+02
	 5.50898000E+03	-4.33408000E+02	-3.52474000E+01
	-2.99396000E+03	-2.67184000E+01	-5.40494000E+01
	-8.51568000E+03	-9.13482000E+00	 1.35707000E+02
TENSORS 1_0.0417974_STRESS double
	 4.77310000E+00	-9.21609000E-01	-2.59099000E+01
	-9.21609000E-01	 2.13227000E-01	-5.40554000E+00
	-2.59099000E+01	-5.40554000E+00	 1.78712000E+01

	-2.34359000E+01	 7.40930000E+00	-8.55982000E+00
	 7.40930000E+00	-7.11909000E+00	-1.68099000E+01
	-8.55982000E+00	-1.68099000E+01	-1.99695000E+01

	-8.88144000E-02	 1.41164000E+01	 1.27752000E-01
	 1.41164000E+01	-2.19658000E+01	 1.23413000E+01
	 1.27752000E-01	 1.23413000E+01	-5.88385000E+01

	-1.33706000E+00	 5.87520000E+00	-1.28925000E+01
	 5.87520000E+00	-1.04887000E+01	-3.02964000E+00
	-1.28925000E+01	-3.02964000E+00	 6.93958000E+00

	 3.01768000E+00	 6.52583000E+00	-3.92722000E+00
	 6.52583000E+00	 9.17395000E+00	 1.27191000E+01
	-3.92722000E+00	 1.27191000E+01	 1.86941000E+01

	-1.78010000E+01	 9.11263000E+00	 4.46388000E+00
	 9.11263000E+00	-7.32577000E+00	-5.59289000E+00
	 4.46388000E+00	-5.59289000E+00	 1.89205000E+00

	 7.26105000E+00	-3.94549000E-01	 1.72970000E+01
	-3.94549000E-01	 1.06586000E+01	 5.17022000E+00
	 1.72970000E+01	 5.17022000E+00	-4.60636000E+01

	-1.98422000E+01	-2.06169000E+00	-1.89986000E+01
	-2.06169000E+00	 1.70187000E+01	 1.99340000E+01
	-1.89986000E+01	 1.99340000E+01	-4.01742000E+00

	-1.70284000E+01	 2.43970000E+00	-1.88850000E+01
	 2.43970000E+00	-9.16046000E+00	-1.11710000E+01
	-1.88850000E+01	-1.11710000E+01	-1.23528000E+01

	-9.34628000E+00	 6.43919000E-01	-5.85086000E+00
	 6.43919000E-01	 2.40897000E+00	 8.73607000E-01
	-5.85086000E+00	 8.73607000E-01	-3.39996000E+01

	-1.13999000E+01	 9.33801000E+00	-1.23528000E+01
	 9.33801000E+00	-2.30580000E+01	 4.57664000E+00
	-1.23528000E+01	 4.57664000E+00	-3.81432000E+01

	 2.11638000E+00	-1.01287000E+01	-2.00054000E+01
	-1.01287000E+01	 9.51343000E+00	-1.34971000E+00
	-2.00054000E+01	-1.34971000E+00	 1.65461000E+01

	-1.22579000E+01	 7.01533000E+00	-8.41421000E-01
	 7.01533000E+00	-1.94953000E+00	 3.37974000E+00
	-8.41421000E-01	 3.37974000E+00	 5.59132000E+00

	-7.27938000E+00	-5.99383000E+00	 9.25648000E+00
	-5.99383000E+00	 8.41096000E+00	 4.31955000E+00
	 9.25648000E+00	 4.31955000E+00	-2.12261000E+01

	-1.41230000E+01	-1.83695000E+00	-6.29474000E+00
	-1.83695000E+00	 9.82204000E+00	 1.24164000E+01
	-6.29474000E+00	 1.24164000E+01	-3.05340000E+01

	-1.20544000E+01	-1.05816000E+01	-1.20576000E+01
	-1.05816000E+01	 1.84296000E+01	 2.05063000E+01
	-1.20576000E+01	 2.05063000E+01	 7.32851000E+00

	 2.52823000E+00	 2.99593000E+00	-1.53576000E+01
	 2.99593000E+00	 4.02944000E+00	 3.58471000E+00
	-1.53576000E+01	 3.58471000E+00	 1.43919000E+01

	-1.92223000E+01	 8.45473000E+00	-2.18803000E+00
	 8.45473000E+00	-5.12346000E+00	-1.08026000E+01
	-2.18803000E+00	-1.08026000E+01	-6.48137000E+00

	 6.27007000E+00	 7.72006000E+00	 8.54152000E+00
	 7.72006000E+00	-1.70782000E-01	 1.32074000E+01
	 8.54152000E+00	 1.32074000E+01	-4.89852000E+01

	-1.07227000E+01	 2.73833000E+00	-1.64140000E+01
	 2.73833000E+00	 5.84374000E+00	 1.22651000E+01
	-1.64140000E+01	 1.22651000E+01	-1.55914000E+00

TENSORS 1_0.0417974_TOSTRAIN double
	-3.10585000E-06	-5.70520000E-06	-1.60395000E-04
	-5.70520000E-06	-3.13336000E-05	-3.34629000E-05
	-1.60395000E-04	-3.34629000E-05	 7.79776000E-05

	-7.29016000E-05	 4.58671000E-05	-5.29894000E-05
	 4.58671000E-05	 2.81073000E-05	-1.04061000E-04
	-5.29894000E-05	-1.04061000E-04	-5.14429000E-05

	 1.15012000E-04	 8.73870000E-05	 7.90843000E-07
	 8.73870000E-05	-2.04173000E-05	 7.63986000E-05
	 7.90843000E-07	 7.63986000E-05	-2.48677000E-04

	-1.29676000E-06	 3.63703000E-05	-7.98105000E-05
	 3.63703000E-05	-5.79499000E-05	-1.87549000E-05
	-7.98105000E-05	-1.87549000E-05	 4.99396000E-05

	-2.54417000E-05	 4.03980000E-05	-2.43114000E-05
	 4.03980000E-05	 1.26686000E-05	 7.87375000E-05
	-2.43114000E-05	 7.87375000E-05	 7.16031000E-05

	-7.70040000E-05	 5.64115000E-05	 2.76336000E-05
	 5.64115000E-05	-1.21576000E-05	-3.46227000E-05
	 2.76336000E-05	-3.46227000E-05	 4.49051000E-05

	 8.51550000E-05	-2.44245000E-06	 1.07077000E-04
	-2.44245000E-06	 1.06188000E-04	 3.20061000E-05
	 1.07077000E-04	 3.20061000E-05	-2.44950000E-04

	-1.13060000E-04	-1.27629000E-05	-1.17611000E-04
	-1.27629000E-05	 1.15126000E-04	 1.23401000E-04
	-1.17611000E-04	 1.23401000E-04	-1.50970000E-05

	-5.03544000E-05	 1.51029000E-05	-1.16907000E-04
	 1.51029000E-05	-1.64806000E-06	-6.91541000E-05
	-1.16907000E-04	-6.91541000E-05	-2.14103000E-05

	 6.23316000E-07	 3.98616000E-06	-3.62196000E-05
	 3.98616000E-06	 7.33939000E-05	 5.40804000E-06
	-3.62196000E-05	 5.40804000E-06	-1.51992000E-04

	 3.31453000E-05	 5.78067000E-05	-7.64696000E-05
	 5.78067000E-05	-3.90244000E-05	 2.83316000E-05
	-7.64696000E-05	 2.83316000E-05	-1.32409000E-04

	-2.71499000E-05	-6.27015000E-05	-1.23843000E-04
	-6.27015000E-05	 1.86414000E-05	-8.35532000E-06
	-1.23843000E-04	-8.35532000E-06	 6.21769000E-05

	-6.35736000E-05	 4.34282000E-05	-5.20880000E-06
	 4.34282000E-05	 2.40234000E-07	 2.09222000E-05
	-5.20880000E-06	 2.09222000E-05	 4.69217000E-05

	-1.63564000E-05	-3.71047000E-05	 5.73020000E-05
	-3.71047000E-05	 8.07743000E-05	 2.67401000E-05
	 5.73020000E-05	 2.67401000E-05	-1.02693000E-04

	-3.76637000E-05	-1.13716000E-05	-3.89674000E-05
	-1.13716000E-05	 1.10567000E-04	 7.68637000E-05
	-3.89674000E-05	 7.68637000E-05	-1.39256000E-04

	-9.41993000E-05	-6.55052000E-05	-7.46424000E-05
	-6.55052000E-05	 9.45113000E-05	 1.26944000E-04
	-7.46424000E-05	 1.26944000E-04	 2.57903000E-05

	-1.42771000E-05	 1.85462000E-05	-9.50706000E-05
	 1.85462000E-05	-4.98381000E-06	 2.21911000E-05
	-9.50706000E-05	 2.21911000E-05	 5.91649000E-05

	-7.49564000E-05	 5.23388000E-05	-1.35450000E-05
	 5.23388000E-05	 1.23221000E-05	-6.68734000E-05
	-1.35450000E-05	-6.68734000E-05	 3.91597000E-06

	 1.00080000E-04	 4.77908000E-05	 5.28761000E-05
	 4.77908000E-05	 6.02083000E-05	 8.17602000E-05
	 5.28761000E-05	 8.17602000E-05	-2.41976000E-04

	-5.71814000E-05	 1.69516000E-05	-1.01611000E-04
	 1.69516000E-05	 4.53728000E-05	 7.59271000E-05
	-1.01611000E-04	 7.59271000E-05	-4.54480000E-07

VECTORS 1_0.0417974_FORC double
	-9.22825000E+00	-7.31887000E+00	 8.49108000E+00
	-8.04900000E+00	-3.03480000E+00	 1.75646000E+01
	-1.77245000E+01	 4.78099000E-01	 6.42088000E+00
	-1.00245000E+01	-7.56283000E+00	-3.64585000E+00
	 8.33052000E+00	-3.00928000E-01	 2.04914000E+01
	 1.87580000E+00	 4.56739000E+00	 3.04000000E+01
	-6.25038000E-01	 2.60511000E+00	 2.15844000E+01
	-2.04675000E-01	-5.23838000E-01	 8.35897000E+00
	 1.88907000E+01	 2.23089000E+00	-1.30156000E+00
	 2.83118000E+01	 6.55335000E+00	-1.18645000E+01
	 3.68541000E+01	-4.56412000E+00	 3.20363000E+01
	 1.44581000E+01	 2.21379000E+01	 2.23462000E+01
	-2.41247000E+01	-5.46595000E+00	-3.89536000E+01
	-1.04294000E+01	-1.21459000E+01	-4.32648000E+01
	-9.11972000E+00	-1.87294000E+01	-1.14791000E+01
	-2.89812000E+01	 9.08439000E+00	-1.57889000E+01
	-1.14675000E+01	 1.42498000E+01	-1.08241000E+01
	-1.88886000E+00	-1.50556000E+00	-3.70803000E+01
	 1.05910000E+01	-7.05873000E+00	-1.20200000E+01
	 1.25553000E+01	 6.30401000E+00	 1.85288000E+01
