    1C
    1UUSER                                                              
    1UDATE              25.may.2019                                     
    1UTIME              13:21:39                                        
    1UHOST                                                              
    1UPGM               CalculiX                                        
    1UVERSION           Version 2.15                             
    1UCOMPILETIME       Fri 15 Mar 11:57:46 CET 2019                    
    1UDIR                                                               
    1UDBN                                                               
    1UMAT    1STEEL                                                     
    2C                            20                                     1
 -1         1-1.86500E+02 1.30900E+02-1.06581E-14
 -1         2-1.86500E+02 1.29350E+02-1.06581E-14
 -1         3-1.86500E+02 1.29197E+02-3.30782E+00
 -1         4-1.86500E+02 1.30740E+02-3.45084E+00
 -1         5-1.84867E+02 1.30900E+02-2.75712E-14
 -1         6-1.84867E+02 1.29350E+02-2.75685E-14
 -1         7-1.84867E+02 1.29197E+02-3.30782E+00
 -1         8-1.84867E+02 1.30740E+02-3.45084E+00
 -1         9-1.86500E+02 1.30125E+02-1.06581E-14
 -1        10-1.86500E+02 1.29274E+02-1.65391E+00
 -1        11-1.86500E+02 1.29969E+02-3.37933E+00
 -1        12-1.86500E+02 1.30820E+02-1.72542E+00
 -1        13-1.84867E+02 1.30125E+02-2.75699E-14
 -1        14-1.84867E+02 1.29274E+02-1.65391E+00
 -1        15-1.84867E+02 1.29969E+02-3.37933E+00
 -1        16-1.84867E+02 1.30820E+02-1.72542E+00
 -1        17-1.85683E+02 1.30900E+02-1.91147E-14
 -1        18-1.85683E+02 1.29350E+02-1.91133E-14
 -1        19-1.85683E+02 1.29197E+02-3.30782E+00
 -1        20-1.85683E+02 1.30740E+02-3.45084E+00
 -3
    3C                             1                                     1
 -1         1    4    0    1
 -2         1         2         3         4         5         6         7         8         9        10
 -2        11        12        17        18        19        20        13        14        15        16
 -3
    1PSTEP                         1           1           1          
    1PGM                1.000000E+00                                  
    1PGK                6.896961E-02                                  
    1PHID                         -1                                  
    1PSUBC                         0                                  
    1PMODE                         1                                  
  100CL  101 4.17974E-02          20                     2    1MODAL      1
 -4  DISP        4    1
 -5  D1          1    2    1    0
 -5  D2          1    2    2    0
 -5  D3          1    2    3    0
 -5  ALL         1    2    0    0    1ALL
 -1         1 3.54888E+02-3.14901E+03 2.38016E+03
 -1         2 5.50898E+03-3.14901E+03 2.18959E+03
 -1         3-2.99396E+03-2.74232E+03 2.17079E+03
 -1         4-8.51568E+03-2.72473E+03 2.36054E+03
 -1         5 3.54888E+02 2.28219E+03-2.06951E+03
 -1         6 5.50898E+03 2.28219E+03-2.26008E+03
 -1         7-2.99396E+03 2.68888E+03-2.27888E+03
 -1         8-8.51568E+03 2.70646E+03-2.08913E+03
 -1         9 2.93193E+03-3.14901E+03 2.28488E+03
 -1        10 1.25751E+03-2.94566E+03 2.18019E+03
 -1        11-5.75482E+03-2.73352E+03 2.26567E+03
 -1        12-4.08040E+03-2.93687E+03 2.37035E+03
 -1        13 2.93193E+03 2.28219E+03-2.16480E+03
 -1        14 1.25751E+03 2.48553E+03-2.26948E+03
 -1        15-5.75482E+03 2.69767E+03-2.18401E+03
 -1        16-4.08040E+03 2.49432E+03-2.07932E+03
 -1        17 3.54888E+02-4.33408E+02 1.55322E+02
 -1        18 5.50898E+03-4.33408E+02-3.52474E+01
 -1        19-2.99396E+03-2.67184E+01-5.40494E+01
 -1        20-8.51568E+03-9.13482E+00 1.35707E+02
 -3
    1PSTEP                         2           1           1          
    1PGM                1.000000E+00                                  
    1PGK                6.896961E-02                                  
    1PHID                         -1                                  
    1PSUBC                         0                                  
    1PMODE                         1                                  
  100CL  101 4.17974E-02          20                     2    1MODAL      1
 -4  STRESS      6    1
 -5  SXX         1    4    1    1
 -5  SYY         1    4    2    2
 -5  SZZ         1    4    3    3
 -5  SXY         1    4    1    2
 -5  SYZ         1    4    2    3
 -5  SZX         1    4    3    1
 -1         1 4.77310E+00 2.13227E-01 1.78712E+01-9.21609E-01-5.40554E+00-2.59099E+01
 -1         2-2.34359E+01-7.11909E+00-1.99695E+01 7.40930E+00-1.68099E+01-8.55982E+00
 -1         3-8.88144E-02-2.19658E+01-5.88385E+01 1.41164E+01 1.23413E+01 1.27752E-01
 -1         4-1.33706E+00-1.04887E+01 6.93958E+00 5.87520E+00-3.02964E+00-1.28925E+01
 -1         5 3.01768E+00 9.17395E+00 1.86941E+01 6.52583E+00 1.27191E+01-3.92722E+00
 -1         6-1.78010E+01-7.32577E+00 1.89205E+00 9.11263E+00-5.59289E+00 4.46388E+00
 -1         7 7.26105E+00 1.06586E+01-4.60636E+01-3.94549E-01 5.17022E+00 1.72970E+01
 -1         8-1.98422E+01 1.70187E+01-4.01742E+00-2.06169E+00 1.99340E+01-1.89986E+01
 -1         9-1.70284E+01-9.16046E+00-1.23528E+01 2.43970E+00-1.11710E+01-1.88850E+01
 -1        10-9.34628E+00 2.40897E+00-3.39996E+01 6.43919E-01 8.73607E-01-5.85086E+00
 -1        11-1.13999E+01-2.30580E+01-3.81432E+01 9.33801E+00 4.57664E+00-1.23528E+01
 -1        12 2.11638E+00 9.51343E+00 1.65461E+01-1.01287E+01-1.34971E+00-2.00054E+01
 -1        13-1.22579E+01-1.94953E+00 5.59132E+00 7.01533E+00 3.37974E+00-8.41421E-01
 -1        14-7.27938E+00 8.41096E+00-2.12261E+01-5.99383E+00 4.31955E+00 9.25648E+00
 -1        15-1.41230E+01 9.82204E+00-3.05340E+01-1.83695E+00 1.24164E+01-6.29474E+00
 -1        16-1.20544E+01 1.84296E+01 7.32851E+00-1.05816E+01 2.05063E+01-1.20576E+01
 -1        17 2.52823E+00 4.02944E+00 1.43919E+01 2.99593E+00 3.58471E+00-1.53576E+01
 -1        18-1.92223E+01-5.12346E+00-6.48137E+00 8.45473E+00-1.08026E+01-2.18803E+00
 -1        19 6.27007E+00-1.70782E-01-4.89852E+01 7.72006E+00 1.32074E+01 8.54152E+00
 -1        20-1.07227E+01 5.84374E+00-1.55914E+00 2.73833E+00 1.22651E+01-1.64140E+01
 -3
    1PSTEP                         3           1           1          
    1PGM                1.000000E+00                                  
    1PGK                6.896961E-02                                  
    1PHID                         -1                                  
    1PSUBC                         0                                  
    1PMODE                         1                                  
  100CL  101 4.17974E-02          20                     2    1MODAL      1
 -4  TOSTRAIN    6    1
 -5  EXX         1    4    1    1
 -5  EYY         1    4    2    2
 -5  EZZ         1    4    3    3
 -5  EXY         1    4    1    2
 -5  EYZ         1    4    2    3
 -5  EZX         1    4    3    1
 -1         1-3.10585E-06-3.13336E-05 7.79776E-05-5.70520E-06-3.34629E-05-1.60395E-04
 -1         2-7.29016E-05 2.81073E-05-5.14429E-05 4.58671E-05-1.04061E-04-5.29894E-05
 -1         3 1.15012E-04-2.04173E-05-2.48677E-04 8.73870E-05 7.63986E-05 7.90843E-07
 -1         4-1.29676E-06-5.79499E-05 4.99396E-05 3.63703E-05-1.87549E-05-7.98105E-05
 -1         5-2.54417E-05 1.26686E-05 7.16031E-05 4.03980E-05 7.87375E-05-2.43114E-05
 -1         6-7.70040E-05-1.21576E-05 4.49051E-05 5.64115E-05-3.46227E-05 2.76336E-05
 -1         7 8.51550E-05 1.06188E-04-2.44950E-04-2.44245E-06 3.20061E-05 1.07077E-04
 -1         8-1.13060E-04 1.15126E-04-1.50970E-05-1.27629E-05 1.23401E-04-1.17611E-04
 -1         9-5.03544E-05-1.64806E-06-2.14103E-05 1.51029E-05-6.91541E-05-1.16907E-04
 -1        10 6.23316E-07 7.33939E-05-1.51992E-04 3.98616E-06 5.40804E-06-3.62196E-05
 -1        11 3.31453E-05-3.90244E-05-1.32409E-04 5.78067E-05 2.83316E-05-7.64696E-05
 -1        12-2.71499E-05 1.86414E-05 6.21769E-05-6.27015E-05-8.35532E-06-1.23843E-04
 -1        13-6.35736E-05 2.40234E-07 4.69217E-05 4.34282E-05 2.09222E-05-5.20880E-06
 -1        14-1.63564E-05 8.07743E-05-1.02693E-04-3.71047E-05 2.67401E-05 5.73020E-05
 -1        15-3.76637E-05 1.10567E-04-1.39256E-04-1.13716E-05 7.68637E-05-3.89674E-05
 -1        16-9.41993E-05 9.45113E-05 2.57903E-05-6.55052E-05 1.26944E-04-7.46424E-05
 -1        17-1.42771E-05-4.98381E-06 5.91649E-05 1.85462E-05 2.21911E-05-9.50706E-05
 -1        18-7.49564E-05 1.23221E-05 3.91597E-06 5.23388E-05-6.68734E-05-1.35450E-05
 -1        19 1.00080E-04 6.02083E-05-2.41976E-04 4.77908E-05 8.17602E-05 5.28761E-05
 -1        20-5.71814E-05 4.53728E-05-4.54480E-07 1.69516E-05 7.59271E-05-1.01611E-04
 -3
    1PSTEP                         4           1           1          
    1PGM                1.000000E+00                                  
    1PGK                6.896961E-02                                  
    1PHID                         -1                                  
    1PSUBC                         0                                  
    1PMODE                         1                                  
  100CL  101 4.17974E-02          20                     2    1MODAL      1
 -4  FORC        4    1
 -5  F1          1    2    1    0
 -5  F2          1    2    2    0
 -5  F3          1    2    3    0
 -5  ALL         1    2    0    0    1ALL
 -1         1-9.22825E+00-7.31887E+00 8.49108E+00
 -1         2-8.04900E+00-3.03480E+00 1.75646E+01
 -1         3-1.77245E+01 4.78099E-01 6.42088E+00
 -1         4-1.00245E+01-7.56283E+00-3.64585E+00
 -1         5 8.33052E+00-3.00928E-01 2.04914E+01
 -1         6 1.87580E+00 4.56739E+00 3.04000E+01
 -1         7-6.25038E-01 2.60511E+00 2.15844E+01
 -1         8-2.04675E-01-5.23838E-01 8.35897E+00
 -1         9 1.88907E+01 2.23089E+00-1.30156E+00
 -1        10 2.83118E+01 6.55335E+00-1.18645E+01
 -1        11 3.68541E+01-4.56412E+00 3.20363E+01
 -1        12 1.44581E+01 2.21379E+01 2.23462E+01
 -1        13-2.41247E+01-5.46595E+00-3.89536E+01
 -1        14-1.04294E+01-1.21459E+01-4.32648E+01
 -1        15-9.11972E+00-1.87294E+01-1.14791E+01
 -1        16-2.89812E+01 9.08439E+00-1.57889E+01
 -1        17-1.14675E+01 1.42498E+01-1.08241E+01
 -1        18-1.88886E+00-1.50556E+00-3.70803E+01
 -1        19 1.05910E+01-7.05873E+00-1.20200E+01
 -1        20 1.25553E+01 6.30401E+00 1.85288E+01
 -3
    1PSTEP                         5           1           1          
    1PGM                1.000000E+00                                  
    1PGK                6.896961E-02                                  
    1PHID                         -1                                  
    1PSUBC                         0                                  
    1PMODE                         1                                  
  100CL  101 4.17974E-02          20                     2    1MODAL      1
 -4  ERROR       1    1
 -5  STR(%)      1    1    0    0
 -1         1 1.68399E+01
 -1         2 1.68399E+01
 -1         3 1.68399E+01
 -1         4 1.68399E+01
 -1         5 1.68399E+01
 -1         6 1.68399E+01
 -1         7 1.68399E+01
 -1         8 1.68399E+01
 -1         9 1.68399E+01
 -1        10 1.68399E+01
 -1        11 1.68399E+01
 -1        12 1.68399E+01
 -1        13 1.68399E+01
 -1        14 1.68399E+01
 -1        15 1.68399E+01
 -1        16 1.68399E+01
 -1        17 1.68399E+01
 -1        18 1.68399E+01
 -1        19 1.68399E+01
 -1        20 1.68399E+01
 -3
 9999
