    1C
    1UUSER                                                              
    1UDATE              25.may.2019                                     
    1UTIME              14:03:26                                        
    1UHOST                                                              
    1UPGM               CalculiX                                        
    1UVERSION           Version 2.15                             
    1UCOMPILETIME       Fri 15 Mar 11:57:46 CET 2019                    
    1UDIR                                                               
    1UDBN                                                               
    1UMAT    1STEEL                                                     
    2C                          7532                                     1
 -1         1 8.28240E+02-1.52455E+03 0.00000E+00
 -1         2-8.28240E+02-1.52455E+03 0.00000E+00
 -1         3 8.11987E+02-1.49640E+03 0.00000E+00
 -1         4 8.50959E+02-1.47390E+03 0.00000E+00
 -1         5 8.42500E+02-1.45925E+03 0.00000E+00
 -1         6 7.77500E+02-1.34667E+03 0.00000E+00
 -1         7 7.68500E+02-1.33108E+03 0.00000E+00
 -1         8 7.08000E+02-1.36601E+03 0.00000E+00
 -1         9 7.08000E+02-1.50227E+03 0.00000E+00
 -1        10 5.90000E+02-1.57039E+03 0.00000E+00
 -1        11 4.72000E+02-1.50227E+03 0.00000E+00
 -1        12 3.54000E+02-1.57039E+03 0.00000E+00
 -1        13 2.36000E+02-1.50227E+03 0.00000E+00
 -1        14 1.18000E+02-1.57039E+03 0.00000E+00
 -1        15 0.00000E+00-1.50227E+03 0.00000E+00
 -1        16-1.18000E+02-1.57039E+03 0.00000E+00
 -1        17-2.36000E+02-1.50227E+03 0.00000E+00
 -1        18-3.54000E+02-1.57039E+03 0.00000E+00
 -1        19-4.72000E+02-1.50227E+03 0.00000E+00
 -1        20-5.90000E+02-1.57039E+03 0.00000E+00
 -1        21-7.08000E+02-1.50227E+03 0.00000E+00
 -1        22-7.08000E+02-1.36601E+03 0.00000E+00
 -1        23-7.68500E+02-1.33108E+03 0.00000E+00
 -1        24-7.77500E+02-1.34667E+03 0.00000E+00
 -1        25-8.42500E+02-1.45925E+03 0.00000E+00
 -1        26-8.50959E+02-1.47390E+03 0.00000E+00
 -1        27-8.11987E+02-1.49640E+03 0.00000E+00
 -1        28 0.00000E+00-1.70700E+03 0.00000E+00
 -1        29 0.00000E+00-1.62040E+03 0.00000E+00
 -1        30-7.48000E+01-1.66370E+03 0.00000E+00
 -1        31 7.48000E+01-1.66370E+03 0.00000E+00
 -1        32-1.61200E+02-1.66370E+03 0.00000E+00
 -1        33 1.61200E+02-1.66370E+03 0.00000E+00
 -1        34-2.36000E+02-1.62040E+03 0.00000E+00
 -1        35 2.36000E+02-1.62040E+03 0.00000E+00
 -1        36-3.10800E+02-1.66370E+03 0.00000E+00
 -1        37 3.10800E+02-1.66370E+03 0.00000E+00
 -1        38-3.97200E+02-1.66370E+03 0.00000E+00
 -1        39 3.97200E+02-1.66370E+03 0.00000E+00
 -1        40-4.72000E+02-1.62040E+03 0.00000E+00
 -1        41 4.72000E+02-1.62040E+03 0.00000E+00
 -1        42 8.23126E+02-1.52731E+03 0.00000E+00
 -1        43 8.18003E+02-1.53006E+03 0.00000E+00
 -1        44 8.12871E+02-1.53280E+03 0.00000E+00
 -1        45 8.07729E+02-1.53551E+03 0.00000E+00
 -1        46 8.02579E+02-1.53821E+03 0.00000E+00
 -1        47 7.97420E+02-1.54089E+03 0.00000E+00
 -1        48 7.92251E+02-1.54356E+03 0.00000E+00
 -1        49 7.87074E+02-1.54620E+03 0.00000E+00
 -1        50 7.81888E+02-1.54883E+03 0.00000E+00
 -1        51 7.76693E+02-1.55144E+03 0.00000E+00
 -1        52 7.71489E+02-1.55404E+03 0.00000E+00
 -1        53 7.66277E+02-1.55661E+03 0.00000E+00
 -1        54 7.61056E+02-1.55917E+03 0.00000E+00
 -1        55 7.55827E+02-1.56171E+03 0.00000E+00
 -1        56 7.50589E+02-1.56424E+03 0.00000E+00
 -1        57 7.45342E+02-1.56674E+03 0.00000E+00
 -1        58 7.40088E+02-1.56923E+03 0.00000E+00
 -1        59 7.34825E+02-1.57171E+03 0.00000E+00
 -1        60 7.29553E+02-1.57416E+03 0.00000E+00
 -1        61 7.24274E+02-1.57660E+03 0.00000E+00
 -1        62 7.18986E+02-1.57901E+03 0.00000E+00
 -1        63 7.13690E+02-1.58141E+03 0.00000E+00
 -1        64 7.08387E+02-1.58380E+03 0.00000E+00
 -1        65 7.03075E+02-1.58616E+03 0.00000E+00
 -1        66 6.97755E+02-1.58851E+03 0.00000E+00
 -1        67 6.92428E+02-1.59084E+03 0.00000E+00
 -1        68 6.87093E+02-1.59315E+03 0.00000E+00
 -1        69 6.81750E+02-1.59544E+03 0.00000E+00
 -1        70 6.76399E+02-1.59772E+03 0.00000E+00
 -1        71 6.71041E+02-1.59998E+03 0.00000E+00
 -1        72 6.65676E+02-1.60222E+03 0.00000E+00
 -1        73 6.60302E+02-1.60444E+03 0.00000E+00
 -1        74 6.54922E+02-1.60664E+03 0.00000E+00
 -1        75 6.49534E+02-1.60883E+03 0.00000E+00
 -1        76 6.44139E+02-1.61100E+03 0.00000E+00
 -1        77 6.38736E+02-1.61315E+03 0.00000E+00
 -1        78 6.33327E+02-1.61528E+03 0.00000E+00
 -1        79 6.27910E+02-1.61739E+03 0.00000E+00
 -1        80 6.22486E+02-1.61949E+03 0.00000E+00
 -1        81 6.17055E+02-1.62156E+03 0.00000E+00
 -1        82 6.11617E+02-1.62362E+03 0.00000E+00
 -1        83 6.06173E+02-1.62566E+03 0.00000E+00
 -1        84 6.00721E+02-1.62769E+03 0.00000E+00
 -1        85 5.95263E+02-1.62969E+03 0.00000E+00
 -1        86 5.89799E+02-1.63167E+03 0.00000E+00
 -1        87 5.84327E+02-1.63364E+03 0.00000E+00
 -1        88 5.78849E+02-1.63559E+03 0.00000E+00
 -1        89 5.73365E+02-1.63752E+03 0.00000E+00
 -1        90 5.67874E+02-1.63943E+03 0.00000E+00
 -1        91 5.62376E+02-1.64133E+03 0.00000E+00
 -1        92 5.56873E+02-1.64320E+03 0.00000E+00
 -1        93 5.51363E+02-1.64506E+03 0.00000E+00
 -1        94 5.45847E+02-1.64690E+03 0.00000E+00
 -1        95 5.40324E+02-1.64872E+03 0.00000E+00
 -1        96 5.34796E+02-1.65052E+03 0.00000E+00
 -1        97 5.29262E+02-1.65230E+03 0.00000E+00
 -1        98 5.23721E+02-1.65407E+03 0.00000E+00
 -1        99 5.18175E+02-1.65581E+03 0.00000E+00
 -1       100 5.12623E+02-1.65754E+03 0.00000E+00
 -1       101 5.07066E+02-1.65925E+03 0.00000E+00
 -1       102 5.01502E+02-1.66094E+03 0.00000E+00
 -1       103 4.95933E+02-1.66261E+03 0.00000E+00
 -1       104 4.90359E+02-1.66426E+03 0.00000E+00
 -1       105 4.84779E+02-1.66590E+03 0.00000E+00
 -1       106 4.79193E+02-1.66751E+03 0.00000E+00
 -1       107 4.73602E+02-1.66911E+03 0.00000E+00
 -1       108 4.68006E+02-1.67069E+03 0.00000E+00
 -1       109 4.62404E+02-1.67225E+03 0.00000E+00
 -1       110 4.56798E+02-1.67379E+03 0.00000E+00
 -1       111 4.51186E+02-1.67531E+03 0.00000E+00
 -1       112 4.45569E+02-1.67681E+03 0.00000E+00
 -1       113 4.39947E+02-1.67829E+03 0.00000E+00
 -1       114 4.34320E+02-1.67976E+03 0.00000E+00
 -1       115 4.28688E+02-1.68121E+03 0.00000E+00
 -1       116 4.23052E+02-1.68263E+03 0.00000E+00
 -1       117 4.17410E+02-1.68404E+03 0.00000E+00
 -1       118 4.11765E+02-1.68543E+03 0.00000E+00
 -1       119 4.06114E+02-1.68680E+03 0.00000E+00
 -1       120 4.00459E+02-1.68815E+03 0.00000E+00
 -1       121 3.94799E+02-1.68948E+03 0.00000E+00
 -1       122 3.89135E+02-1.69080E+03 0.00000E+00
 -1       123 3.83467E+02-1.69209E+03 0.00000E+00
 -1       124 3.77794E+02-1.69337E+03 0.00000E+00
 -1       125 3.72117E+02-1.69463E+03 0.00000E+00
 -1       126 3.66436E+02-1.69586E+03 0.00000E+00
 -1       127 3.60750E+02-1.69708E+03 0.00000E+00
 -1       128 3.55061E+02-1.69828E+03 0.00000E+00
 -1       129 3.49368E+02-1.69946E+03 0.00000E+00
 -1       130 3.43670E+02-1.70062E+03 0.00000E+00
 -1       131 3.37969E+02-1.70176E+03 0.00000E+00
 -1       132 3.32264E+02-1.70289E+03 0.00000E+00
 -1       133 3.26556E+02-1.70399E+03 0.00000E+00
 -1       134 3.20843E+02-1.70508E+03 0.00000E+00
 -1       135 3.15127E+02-1.70614E+03 0.00000E+00
 -1       136 3.09408E+02-1.70719E+03 0.00000E+00
 -1       137 3.03685E+02-1.70822E+03 0.00000E+00
 -1       138 2.97958E+02-1.70922E+03 0.00000E+00
 -1       139 2.92229E+02-1.71021E+03 0.00000E+00
 -1       140 2.86496E+02-1.71118E+03 0.00000E+00
 -1       141 2.80760E+02-1.71213E+03 0.00000E+00
 -1       142 2.75020E+02-1.71306E+03 0.00000E+00
 -1       143 2.69278E+02-1.71398E+03 0.00000E+00
 -1       144 2.63532E+02-1.71487E+03 0.00000E+00
 -1       145 2.57784E+02-1.71574E+03 0.00000E+00
 -1       146 2.52033E+02-1.71660E+03 0.00000E+00
 -1       147 2.46278E+02-1.71743E+03 0.00000E+00
 -1       148 2.40521E+02-1.71825E+03 0.00000E+00
 -1       149 2.34762E+02-1.71904E+03 0.00000E+00
 -1       150 2.29000E+02-1.71982E+03 0.00000E+00
 -1       151 2.23235E+02-1.72058E+03 0.00000E+00
 -1       152 2.17467E+02-1.72132E+03 0.00000E+00
 -1       153 2.11698E+02-1.72204E+03 0.00000E+00
 -1       154 2.05925E+02-1.72274E+03 0.00000E+00
 -1       155 2.00151E+02-1.72342E+03 0.00000E+00
 -1       156 1.94374E+02-1.72408E+03 0.00000E+00
 -1       157 1.88595E+02-1.72472E+03 0.00000E+00
 -1       158 1.82814E+02-1.72534E+03 0.00000E+00
 -1       159 1.77031E+02-1.72594E+03 0.00000E+00
 -1       160 1.71246E+02-1.72653E+03 0.00000E+00
 -1       161 1.65459E+02-1.72709E+03 0.00000E+00
 -1       162 1.59670E+02-1.72764E+03 0.00000E+00
 -1       163 1.53880E+02-1.72816E+03 0.00000E+00
 -1       164 1.48087E+02-1.72867E+03 0.00000E+00
 -1       165 1.42293E+02-1.72916E+03 0.00000E+00
 -1       166 1.36498E+02-1.72962E+03 0.00000E+00
 -1       167 1.30701E+02-1.73007E+03 0.00000E+00
 -1       168 1.24902E+02-1.73050E+03 0.00000E+00
 -1       169 1.19102E+02-1.73091E+03 0.00000E+00
 -1       170 1.13301E+02-1.73130E+03 0.00000E+00
 -1       171 1.07498E+02-1.73167E+03 0.00000E+00
 -1       172 1.01694E+02-1.73202E+03 0.00000E+00
 -1       173 9.58891E+01-1.73235E+03 0.00000E+00
 -1       174 9.00831E+01-1.73266E+03 0.00000E+00
 -1       175 8.42760E+01-1.73295E+03 0.00000E+00
 -1       176 7.84680E+01-1.73322E+03 0.00000E+00
 -1       177 7.26590E+01-1.73348E+03 0.00000E+00
 -1       178 6.68493E+01-1.73371E+03 0.00000E+00
 -1       179 6.10389E+01-1.73393E+03 0.00000E+00
 -1       180 5.52277E+01-1.73412E+03 0.00000E+00
 -1       181 4.94159E+01-1.73430E+03 0.00000E+00
 -1       182 4.36036E+01-1.73445E+03 0.00000E+00
 -1       183 3.77908E+01-1.73459E+03 0.00000E+00
 -1       184 3.19775E+01-1.73471E+03 0.00000E+00
 -1       185 2.61639E+01-1.73480E+03 0.00000E+00
 -1       186 2.03500E+01-1.73488E+03 0.00000E+00
 -1       187 1.45359E+01-1.73494E+03 0.00000E+00
 -1       188 8.72160E+00-1.73498E+03 0.00000E+00
 -1       189 2.90721E+00-1.73500E+03 0.00000E+00
 -1       190-2.90721E+00-1.73500E+03 0.00000E+00
 -1       191-8.72160E+00-1.73498E+03 0.00000E+00
 -1       192-1.45359E+01-1.73494E+03 0.00000E+00
 -1       193-2.03500E+01-1.73488E+03 0.00000E+00
 -1       194-2.61639E+01-1.73480E+03 0.00000E+00
 -1       195-3.19775E+01-1.73471E+03 0.00000E+00
 -1       196-3.77908E+01-1.73459E+03 0.00000E+00
 -1       197-4.36036E+01-1.73445E+03 0.00000E+00
 -1       198-4.94159E+01-1.73430E+03 0.00000E+00
 -1       199-5.52277E+01-1.73412E+03 0.00000E+00
 -1       200-6.10389E+01-1.73393E+03 0.00000E+00
 -1       201-6.68493E+01-1.73371E+03 0.00000E+00
 -1       202-7.26590E+01-1.73348E+03 0.00000E+00
 -1       203-7.84680E+01-1.73322E+03 0.00000E+00
 -1       204-8.42760E+01-1.73295E+03 0.00000E+00
 -1       205-9.00831E+01-1.73266E+03 0.00000E+00
 -1       206-9.58891E+01-1.73235E+03 0.00000E+00
 -1       207-1.01694E+02-1.73202E+03 0.00000E+00
 -1       208-1.07498E+02-1.73167E+03 0.00000E+00
 -1       209-1.13301E+02-1.73130E+03 0.00000E+00
 -1       210-1.19102E+02-1.73091E+03 0.00000E+00
 -1       211-1.24902E+02-1.73050E+03 0.00000E+00
 -1       212-1.30701E+02-1.73007E+03 0.00000E+00
 -1       213-1.36498E+02-1.72962E+03 0.00000E+00
 -1       214-1.42293E+02-1.72916E+03 0.00000E+00
 -1       215-1.48087E+02-1.72867E+03 0.00000E+00
 -1       216-1.53880E+02-1.72816E+03 0.00000E+00
 -1       217-1.59670E+02-1.72764E+03 0.00000E+00
 -1       218-1.65459E+02-1.72709E+03 0.00000E+00
 -1       219-1.71246E+02-1.72653E+03 0.00000E+00
 -1       220-1.77031E+02-1.72594E+03 0.00000E+00
 -1       221-1.82814E+02-1.72534E+03 0.00000E+00
 -1       222-1.88595E+02-1.72472E+03 0.00000E+00
 -1       223-1.94374E+02-1.72408E+03 0.00000E+00
 -1       224-2.00151E+02-1.72342E+03 0.00000E+00
 -1       225-2.05925E+02-1.72274E+03 0.00000E+00
 -1       226-2.11698E+02-1.72204E+03 0.00000E+00
 -1       227-2.17467E+02-1.72132E+03 0.00000E+00
 -1       228-2.23235E+02-1.72058E+03 0.00000E+00
 -1       229-2.29000E+02-1.71982E+03 0.00000E+00
 -1       230-2.34762E+02-1.71904E+03 0.00000E+00
 -1       231-2.40521E+02-1.71825E+03 0.00000E+00
 -1       232-2.46278E+02-1.71743E+03 0.00000E+00
 -1       233-2.52033E+02-1.71660E+03 0.00000E+00
 -1       234-2.57784E+02-1.71574E+03 0.00000E+00
 -1       235-2.63532E+02-1.71487E+03 0.00000E+00
 -1       236-2.69278E+02-1.71398E+03 0.00000E+00
 -1       237-2.75020E+02-1.71306E+03 0.00000E+00
 -1       238-2.80760E+02-1.71213E+03 0.00000E+00
 -1       239-2.86496E+02-1.71118E+03 0.00000E+00
 -1       240-2.92229E+02-1.71021E+03 0.00000E+00
 -1       241-2.97958E+02-1.70922E+03 0.00000E+00
 -1       242-3.03685E+02-1.70822E+03 0.00000E+00
 -1       243-3.09408E+02-1.70719E+03 0.00000E+00
 -1       244-3.15127E+02-1.70614E+03 0.00000E+00
 -1       245-3.20843E+02-1.70508E+03 0.00000E+00
 -1       246-3.26556E+02-1.70399E+03 0.00000E+00
 -1       247-3.32264E+02-1.70289E+03 0.00000E+00
 -1       248-3.37969E+02-1.70176E+03 0.00000E+00
 -1       249-3.43670E+02-1.70062E+03 0.00000E+00
 -1       250-3.49368E+02-1.69946E+03 0.00000E+00
 -1       251-3.55061E+02-1.69828E+03 0.00000E+00
 -1       252-3.60750E+02-1.69708E+03 0.00000E+00
 -1       253-3.66436E+02-1.69586E+03 0.00000E+00
 -1       254-3.72117E+02-1.69463E+03 0.00000E+00
 -1       255-3.77794E+02-1.69337E+03 0.00000E+00
 -1       256-3.83467E+02-1.69209E+03 0.00000E+00
 -1       257-3.89135E+02-1.69080E+03 0.00000E+00
 -1       258-3.94799E+02-1.68948E+03 0.00000E+00
 -1       259-4.00459E+02-1.68815E+03 0.00000E+00
 -1       260-4.06114E+02-1.68680E+03 0.00000E+00
 -1       261-4.11765E+02-1.68543E+03 0.00000E+00
 -1       262-4.17410E+02-1.68404E+03 0.00000E+00
 -1       263-4.23052E+02-1.68263E+03 0.00000E+00
 -1       264-4.28688E+02-1.68121E+03 0.00000E+00
 -1       265-4.34320E+02-1.67976E+03 0.00000E+00
 -1       266-4.39947E+02-1.67829E+03 0.00000E+00
 -1       267-4.45569E+02-1.67681E+03 0.00000E+00
 -1       268-4.51186E+02-1.67531E+03 0.00000E+00
 -1       269-4.56798E+02-1.67379E+03 0.00000E+00
 -1       270-4.62404E+02-1.67225E+03 0.00000E+00
 -1       271-4.68006E+02-1.67069E+03 0.00000E+00
 -1       272-4.73602E+02-1.66911E+03 0.00000E+00
 -1       273-4.79193E+02-1.66751E+03 0.00000E+00
 -1       274-4.84779E+02-1.66590E+03 0.00000E+00
 -1       275-4.90359E+02-1.66426E+03 0.00000E+00
 -1       276-4.95933E+02-1.66261E+03 0.00000E+00
 -1       277-5.01502E+02-1.66094E+03 0.00000E+00
 -1       278-5.07066E+02-1.65925E+03 0.00000E+00
 -1       279-5.12623E+02-1.65754E+03 0.00000E+00
 -1       280-5.18175E+02-1.65581E+03 0.00000E+00
 -1       281-5.23721E+02-1.65407E+03 0.00000E+00
 -1       282-5.29262E+02-1.65230E+03 0.00000E+00
 -1       283-5.34796E+02-1.65052E+03 0.00000E+00
 -1       284-5.40324E+02-1.64872E+03 0.00000E+00
 -1       285-5.45847E+02-1.64690E+03 0.00000E+00
 -1       286-5.51363E+02-1.64506E+03 0.00000E+00
 -1       287-5.56873E+02-1.64320E+03 0.00000E+00
 -1       288-5.62376E+02-1.64133E+03 0.00000E+00
 -1       289-5.67874E+02-1.63943E+03 0.00000E+00
 -1       290-5.73365E+02-1.63752E+03 0.00000E+00
 -1       291-5.78849E+02-1.63559E+03 0.00000E+00
 -1       292-5.84327E+02-1.63364E+03 0.00000E+00
 -1       293-5.89799E+02-1.63167E+03 0.00000E+00
 -1       294-5.95263E+02-1.62969E+03 0.00000E+00
 -1       295-6.00721E+02-1.62769E+03 0.00000E+00
 -1       296-6.06173E+02-1.62566E+03 0.00000E+00
 -1       297-6.11617E+02-1.62362E+03 0.00000E+00
 -1       298-6.17055E+02-1.62156E+03 0.00000E+00
 -1       299-6.22486E+02-1.61949E+03 0.00000E+00
 -1       300-6.27910E+02-1.61739E+03 0.00000E+00
 -1       301-6.33327E+02-1.61528E+03 0.00000E+00
 -1       302-6.38736E+02-1.61315E+03 0.00000E+00
 -1       303-6.44139E+02-1.61100E+03 0.00000E+00
 -1       304-6.49534E+02-1.60883E+03 0.00000E+00
 -1       305-6.54922E+02-1.60664E+03 0.00000E+00
 -1       306-6.60302E+02-1.60444E+03 0.00000E+00
 -1       307-6.65676E+02-1.60222E+03 0.00000E+00
 -1       308-6.71041E+02-1.59998E+03 0.00000E+00
 -1       309-6.76399E+02-1.59772E+03 0.00000E+00
 -1       310-6.81750E+02-1.59544E+03 0.00000E+00
 -1       311-6.87093E+02-1.59315E+03 0.00000E+00
 -1       312-6.92428E+02-1.59084E+03 0.00000E+00
 -1       313-6.97755E+02-1.58851E+03 0.00000E+00
 -1       314-7.03075E+02-1.58616E+03 0.00000E+00
 -1       315-7.08387E+02-1.58380E+03 0.00000E+00
 -1       316-7.13690E+02-1.58141E+03 0.00000E+00
 -1       317-7.18986E+02-1.57901E+03 0.00000E+00
 -1       318-7.24274E+02-1.57660E+03 0.00000E+00
 -1       319-7.29553E+02-1.57416E+03 0.00000E+00
 -1       320-7.34825E+02-1.57171E+03 0.00000E+00
 -1       321-7.40088E+02-1.56923E+03 0.00000E+00
 -1       322-7.45342E+02-1.56674E+03 0.00000E+00
 -1       323-7.50589E+02-1.56424E+03 0.00000E+00
 -1       324-7.55827E+02-1.56171E+03 0.00000E+00
 -1       325-7.61056E+02-1.55917E+03 0.00000E+00
 -1       326-7.66277E+02-1.55661E+03 0.00000E+00
 -1       327-7.71489E+02-1.55404E+03 0.00000E+00
 -1       328-7.76693E+02-1.55144E+03 0.00000E+00
 -1       329-7.81888E+02-1.54883E+03 0.00000E+00
 -1       330-7.87074E+02-1.54620E+03 0.00000E+00
 -1       331-7.92251E+02-1.54356E+03 0.00000E+00
 -1       332-7.97420E+02-1.54089E+03 0.00000E+00
 -1       333-8.02579E+02-1.53821E+03 0.00000E+00
 -1       334-8.07729E+02-1.53551E+03 0.00000E+00
 -1       335-8.12871E+02-1.53280E+03 0.00000E+00
 -1       336-8.18003E+02-1.53006E+03 0.00000E+00
 -1       337-8.23126E+02-1.52731E+03 0.00000E+00
 -1       338 8.25531E+02-1.51986E+03 0.00000E+00
 -1       339 8.22822E+02-1.51517E+03 0.00000E+00
 -1       340 8.20113E+02-1.51047E+03 0.00000E+00
 -1       341 8.17405E+02-1.50578E+03 0.00000E+00
 -1       342 8.14696E+02-1.50109E+03 0.00000E+00
 -1       343 8.16859E+02-1.49359E+03 0.00000E+00
 -1       344 8.21730E+02-1.49078E+03 0.00000E+00
 -1       345 8.26602E+02-1.48796E+03 0.00000E+00
 -1       346 8.31473E+02-1.48515E+03 0.00000E+00
 -1       347 8.36344E+02-1.48234E+03 0.00000E+00
 -1       348 8.41216E+02-1.47953E+03 0.00000E+00
 -1       349 8.46088E+02-1.47671E+03 0.00000E+00
 -1       350 8.37323E+02-1.46194E+03 0.00000E+00
 -1       351 8.31926E+02-1.46415E+03 0.00000E+00
 -1       352 8.26353E+02-1.46587E+03 0.00000E+00
 -1       353 8.20648E+02-1.46708E+03 0.00000E+00
 -1       354 8.14857E+02-1.46778E+03 0.00000E+00
 -1       355 8.09028E+02-1.46795E+03 0.00000E+00
 -1       356 8.03206E+02-1.46760E+03 0.00000E+00
 -1       357 7.97438E+02-1.46674E+03 0.00000E+00
 -1       358 7.91772E+02-1.46535E+03 0.00000E+00
 -1       359 7.86253E+02-1.46347E+03 0.00000E+00
 -1       360 7.80925E+02-1.46110E+03 0.00000E+00
 -1       361 7.75831E+02-1.45826E+03 0.00000E+00
 -1       362 7.71012E+02-1.45497E+03 0.00000E+00
 -1       363 7.66507E+02-1.45127E+03 0.00000E+00
 -1       364 7.62352E+02-1.44717E+03 0.00000E+00
 -1       365 7.58580E+02-1.44272E+03 0.00000E+00
 -1       366 7.55223E+02-1.43795E+03 0.00000E+00
 -1       367 7.52307E+02-1.43290E+03 0.00000E+00
 -1       368 7.49855E+02-1.42761E+03 0.00000E+00
 -1       369 7.47888E+02-1.42212E+03 0.00000E+00
 -1       370 7.46420E+02-1.41648E+03 0.00000E+00
 -1       371 7.45465E+02-1.41072E+03 0.00000E+00
 -1       372 7.45029E+02-1.40491E+03 0.00000E+00
 -1       373 7.45116E+02-1.39907E+03 0.00000E+00
 -1       374 7.45726E+02-1.39327E+03 0.00000E+00
 -1       375 7.46853E+02-1.38755E+03 0.00000E+00
 -1       376 7.48489E+02-1.38195E+03 0.00000E+00
 -1       377 7.50620E+02-1.37652E+03 0.00000E+00
 -1       378 7.53228E+02-1.37131E+03 0.00000E+00
 -1       379 7.56294E+02-1.36635E+03 0.00000E+00
 -1       380 7.59793E+02-1.36168E+03 0.00000E+00
 -1       381 7.63696E+02-1.35734E+03 0.00000E+00
 -1       382 7.67971E+02-1.35338E+03 0.00000E+00
 -1       383 7.72585E+02-1.34981E+03 0.00000E+00
 -1       384 8.48139E+02-1.46902E+03 0.00000E+00
 -1       385 8.45320E+02-1.46414E+03 0.00000E+00
 -1       386 7.75250E+02-1.34277E+03 0.00000E+00
 -1       387 7.73000E+02-1.33888E+03 0.00000E+00
 -1       388 7.70750E+02-1.33498E+03 0.00000E+00
 -1       389 7.63458E+02-1.33399E+03 0.00000E+00
 -1       390 7.58417E+02-1.33690E+03 0.00000E+00
 -1       391 7.53375E+02-1.33981E+03 0.00000E+00
 -1       392 7.48333E+02-1.34272E+03 0.00000E+00
 -1       393 7.43292E+02-1.34563E+03 0.00000E+00
 -1       394 7.38250E+02-1.34855E+03 0.00000E+00
 -1       395 7.33208E+02-1.35146E+03 0.00000E+00
 -1       396 7.28167E+02-1.35437E+03 0.00000E+00
 -1       397 7.23125E+02-1.35728E+03 0.00000E+00
 -1       398 7.18083E+02-1.36019E+03 0.00000E+00
 -1       399 7.13042E+02-1.36310E+03 0.00000E+00
 -1       400 7.08000E+02-1.37169E+03 0.00000E+00
 -1       401 7.08000E+02-1.37736E+03 0.00000E+00
 -1       402 7.08000E+02-1.38304E+03 0.00000E+00
 -1       403 7.08000E+02-1.38872E+03 0.00000E+00
 -1       404 7.08000E+02-1.39440E+03 0.00000E+00
 -1       405 7.08000E+02-1.40007E+03 0.00000E+00
 -1       406 7.08000E+02-1.40575E+03 0.00000E+00
 -1       407 7.08000E+02-1.41143E+03 0.00000E+00
 -1       408 7.08000E+02-1.41711E+03 0.00000E+00
 -1       409 7.08000E+02-1.42278E+03 0.00000E+00
 -1       410 7.08000E+02-1.42846E+03 0.00000E+00
 -1       411 7.08000E+02-1.43414E+03 0.00000E+00
 -1       412 7.08000E+02-1.43981E+03 0.00000E+00
 -1       413 7.08000E+02-1.44549E+03 0.00000E+00
 -1       414 7.08000E+02-1.45117E+03 0.00000E+00
 -1       415 7.08000E+02-1.45685E+03 0.00000E+00
 -1       416 7.08000E+02-1.46252E+03 0.00000E+00
 -1       417 7.08000E+02-1.46820E+03 0.00000E+00
 -1       418 7.08000E+02-1.47388E+03 0.00000E+00
 -1       419 7.08000E+02-1.47956E+03 0.00000E+00
 -1       420 7.08000E+02-1.48523E+03 0.00000E+00
 -1       421 7.08000E+02-1.49091E+03 0.00000E+00
 -1       422 7.08000E+02-1.49659E+03 0.00000E+00
 -1       423 7.03083E+02-1.50510E+03 0.00000E+00
 -1       424 6.98167E+02-1.50794E+03 0.00000E+00
 -1       425 6.93250E+02-1.51078E+03 0.00000E+00
 -1       426 6.88333E+02-1.51362E+03 0.00000E+00
 -1       427 6.83417E+02-1.51646E+03 0.00000E+00
 -1       428 6.78500E+02-1.51930E+03 0.00000E+00
 -1       429 6.73583E+02-1.52214E+03 0.00000E+00
 -1       430 6.68667E+02-1.52497E+03 0.00000E+00
 -1       431 6.63750E+02-1.52781E+03 0.00000E+00
 -1       432 6.58833E+02-1.53065E+03 0.00000E+00
 -1       433 6.53917E+02-1.53349E+03 0.00000E+00
 -1       434 6.49000E+02-1.53633E+03 0.00000E+00
 -1       435 6.44083E+02-1.53917E+03 0.00000E+00
 -1       436 6.39167E+02-1.54201E+03 0.00000E+00
 -1       437 6.34250E+02-1.54484E+03 0.00000E+00
 -1       438 6.29333E+02-1.54768E+03 0.00000E+00
 -1       439 6.24417E+02-1.55052E+03 0.00000E+00
 -1       440 6.19500E+02-1.55336E+03 0.00000E+00
 -1       441 6.14583E+02-1.55620E+03 0.00000E+00
 -1       442 6.09667E+02-1.55904E+03 0.00000E+00
 -1       443 6.04750E+02-1.56188E+03 0.00000E+00
 -1       444 5.99833E+02-1.56471E+03 0.00000E+00
 -1       445 5.94917E+02-1.56755E+03 0.00000E+00
 -1       446 5.85083E+02-1.56755E+03 0.00000E+00
 -1       447 5.80167E+02-1.56471E+03 0.00000E+00
 -1       448 5.75250E+02-1.56188E+03 0.00000E+00
 -1       449 5.70333E+02-1.55904E+03 0.00000E+00
 -1       450 5.65417E+02-1.55620E+03 0.00000E+00
 -1       451 5.60500E+02-1.55336E+03 0.00000E+00
 -1       452 5.55583E+02-1.55052E+03 0.00000E+00
 -1       453 5.50667E+02-1.54768E+03 0.00000E+00
 -1       454 5.45750E+02-1.54484E+03 0.00000E+00
 -1       455 5.40833E+02-1.54201E+03 0.00000E+00
 -1       456 5.35917E+02-1.53917E+03 0.00000E+00
 -1       457 5.31000E+02-1.53633E+03 0.00000E+00
 -1       458 5.26083E+02-1.53349E+03 0.00000E+00
 -1       459 5.21167E+02-1.53065E+03 0.00000E+00
 -1       460 5.16250E+02-1.52781E+03 0.00000E+00
 -1       461 5.11333E+02-1.52497E+03 0.00000E+00
 -1       462 5.06417E+02-1.52214E+03 0.00000E+00
 -1       463 5.01500E+02-1.51930E+03 0.00000E+00
 -1       464 4.96583E+02-1.51646E+03 0.00000E+00
 -1       465 4.91667E+02-1.51362E+03 0.00000E+00
 -1       466 4.86750E+02-1.51078E+03 0.00000E+00
 -1       467 4.81833E+02-1.50794E+03 0.00000E+00
 -1       468 4.76917E+02-1.50510E+03 0.00000E+00
 -1       469 4.67083E+02-1.50510E+03 0.00000E+00
 -1       470 4.62167E+02-1.50794E+03 0.00000E+00
 -1       471 4.57250E+02-1.51078E+03 0.00000E+00
 -1       472 4.52333E+02-1.51362E+03 0.00000E+00
 -1       473 4.47417E+02-1.51646E+03 0.00000E+00
 -1       474 4.42500E+02-1.51930E+03 0.00000E+00
 -1       475 4.37583E+02-1.52214E+03 0.00000E+00
 -1       476 4.32667E+02-1.52497E+03 0.00000E+00
 -1       477 4.27750E+02-1.52781E+03 0.00000E+00
 -1       478 4.22833E+02-1.53065E+03 0.00000E+00
 -1       479 4.17917E+02-1.53349E+03 0.00000E+00
 -1       480 4.13000E+02-1.53633E+03 0.00000E+00
 -1       481 4.08083E+02-1.53917E+03 0.00000E+00
 -1       482 4.03167E+02-1.54201E+03 0.00000E+00
 -1       483 3.98250E+02-1.54484E+03 0.00000E+00
 -1       484 3.93333E+02-1.54768E+03 0.00000E+00
 -1       485 3.88417E+02-1.55052E+03 0.00000E+00
 -1       486 3.83500E+02-1.55336E+03 0.00000E+00
 -1       487 3.78583E+02-1.55620E+03 0.00000E+00
 -1       488 3.73667E+02-1.55904E+03 0.00000E+00
 -1       489 3.68750E+02-1.56188E+03 0.00000E+00
 -1       490 3.63833E+02-1.56471E+03 0.00000E+00
 -1       491 3.58917E+02-1.56755E+03 0.00000E+00
 -1       492 3.49083E+02-1.56755E+03 0.00000E+00
 -1       493 3.44167E+02-1.56471E+03 0.00000E+00
 -1       494 3.39250E+02-1.56188E+03 0.00000E+00
 -1       495 3.34333E+02-1.55904E+03 0.00000E+00
 -1       496 3.29417E+02-1.55620E+03 0.00000E+00
 -1       497 3.24500E+02-1.55336E+03 0.00000E+00
 -1       498 3.19583E+02-1.55052E+03 0.00000E+00
 -1       499 3.14667E+02-1.54768E+03 0.00000E+00
 -1       500 3.09750E+02-1.54484E+03 0.00000E+00
 -1       501 3.04833E+02-1.54201E+03 0.00000E+00
 -1       502 2.99917E+02-1.53917E+03 0.00000E+00
 -1       503 2.95000E+02-1.53633E+03 0.00000E+00
 -1       504 2.90083E+02-1.53349E+03 0.00000E+00
 -1       505 2.85167E+02-1.53065E+03 0.00000E+00
 -1       506 2.80250E+02-1.52781E+03 0.00000E+00
 -1       507 2.75333E+02-1.52497E+03 0.00000E+00
 -1       508 2.70417E+02-1.52214E+03 0.00000E+00
 -1       509 2.65500E+02-1.51930E+03 0.00000E+00
 -1       510 2.60583E+02-1.51646E+03 0.00000E+00
 -1       511 2.55667E+02-1.51362E+03 0.00000E+00
 -1       512 2.50750E+02-1.51078E+03 0.00000E+00
 -1       513 2.45833E+02-1.50794E+03 0.00000E+00
 -1       514 2.40917E+02-1.50510E+03 0.00000E+00
 -1       515 2.31083E+02-1.50510E+03 0.00000E+00
 -1       516 2.26167E+02-1.50794E+03 0.00000E+00
 -1       517 2.21250E+02-1.51078E+03 0.00000E+00
 -1       518 2.16333E+02-1.51362E+03 0.00000E+00
 -1       519 2.11417E+02-1.51646E+03 0.00000E+00
 -1       520 2.06500E+02-1.51930E+03 0.00000E+00
 -1       521 2.01583E+02-1.52214E+03 0.00000E+00
 -1       522 1.96667E+02-1.52497E+03 0.00000E+00
 -1       523 1.91750E+02-1.52781E+03 0.00000E+00
 -1       524 1.86833E+02-1.53065E+03 0.00000E+00
 -1       525 1.81917E+02-1.53349E+03 0.00000E+00
 -1       526 1.77000E+02-1.53633E+03 0.00000E+00
 -1       527 1.72083E+02-1.53917E+03 0.00000E+00
 -1       528 1.67167E+02-1.54201E+03 0.00000E+00
 -1       529 1.62250E+02-1.54484E+03 0.00000E+00
 -1       530 1.57333E+02-1.54768E+03 0.00000E+00
 -1       531 1.52417E+02-1.55052E+03 0.00000E+00
 -1       532 1.47500E+02-1.55336E+03 0.00000E+00
 -1       533 1.42583E+02-1.55620E+03 0.00000E+00
 -1       534 1.37667E+02-1.55904E+03 0.00000E+00
 -1       535 1.32750E+02-1.56188E+03 0.00000E+00
 -1       536 1.27833E+02-1.56471E+03 0.00000E+00
 -1       537 1.22917E+02-1.56755E+03 0.00000E+00
 -1       538 1.13083E+02-1.56755E+03 0.00000E+00
 -1       539 1.08167E+02-1.56471E+03 0.00000E+00
 -1       540 1.03250E+02-1.56188E+03 0.00000E+00
 -1       541 9.83333E+01-1.55904E+03 0.00000E+00
 -1       542 9.34167E+01-1.55620E+03 0.00000E+00
 -1       543 8.85000E+01-1.55336E+03 0.00000E+00
 -1       544 8.35833E+01-1.55052E+03 0.00000E+00
 -1       545 7.86667E+01-1.54768E+03 0.00000E+00
 -1       546 7.37500E+01-1.54484E+03 0.00000E+00
 -1       547 6.88333E+01-1.54201E+03 0.00000E+00
 -1       548 6.39167E+01-1.53917E+03 0.00000E+00
 -1       549 5.90000E+01-1.53633E+03 0.00000E+00
 -1       550 5.40833E+01-1.53349E+03 0.00000E+00
 -1       551 4.91667E+01-1.53065E+03 0.00000E+00
 -1       552 4.42500E+01-1.52781E+03 0.00000E+00
 -1       553 3.93333E+01-1.52497E+03 0.00000E+00
 -1       554 3.44167E+01-1.52214E+03 0.00000E+00
 -1       555 2.95000E+01-1.51930E+03 0.00000E+00
 -1       556 2.45833E+01-1.51646E+03 0.00000E+00
 -1       557 1.96667E+01-1.51362E+03 0.00000E+00
 -1       558 1.47500E+01-1.51078E+03 0.00000E+00
 -1       559 9.83333E+00-1.50794E+03 0.00000E+00
 -1       560 4.91667E+00-1.50510E+03 0.00000E+00
 -1       561-4.91667E+00-1.50510E+03 0.00000E+00
 -1       562-9.83333E+00-1.50794E+03 0.00000E+00
 -1       563-1.47500E+01-1.51078E+03 0.00000E+00
 -1       564-1.96667E+01-1.51362E+03 0.00000E+00
 -1       565-2.45833E+01-1.51646E+03 0.00000E+00
 -1       566-2.95000E+01-1.51930E+03 0.00000E+00
 -1       567-3.44167E+01-1.52214E+03 0.00000E+00
 -1       568-3.93333E+01-1.52497E+03 0.00000E+00
 -1       569-4.42500E+01-1.52781E+03 0.00000E+00
 -1       570-4.91667E+01-1.53065E+03 0.00000E+00
 -1       571-5.40833E+01-1.53349E+03 0.00000E+00
 -1       572-5.90000E+01-1.53633E+03 0.00000E+00
 -1       573-6.39167E+01-1.53917E+03 0.00000E+00
 -1       574-6.88333E+01-1.54201E+03 0.00000E+00
 -1       575-7.37500E+01-1.54484E+03 0.00000E+00
 -1       576-7.86667E+01-1.54768E+03 0.00000E+00
 -1       577-8.35833E+01-1.55052E+03 0.00000E+00
 -1       578-8.85000E+01-1.55336E+03 0.00000E+00
 -1       579-9.34167E+01-1.55620E+03 0.00000E+00
 -1       580-9.83333E+01-1.55904E+03 0.00000E+00
 -1       581-1.03250E+02-1.56188E+03 0.00000E+00
 -1       582-1.08167E+02-1.56471E+03 0.00000E+00
 -1       583-1.13083E+02-1.56755E+03 0.00000E+00
 -1       584-1.22917E+02-1.56755E+03 0.00000E+00
 -1       585-1.27833E+02-1.56471E+03 0.00000E+00
 -1       586-1.32750E+02-1.56188E+03 0.00000E+00
 -1       587-1.37667E+02-1.55904E+03 0.00000E+00
 -1       588-1.42583E+02-1.55620E+03 0.00000E+00
 -1       589-1.47500E+02-1.55336E+03 0.00000E+00
 -1       590-1.52417E+02-1.55052E+03 0.00000E+00
 -1       591-1.57333E+02-1.54768E+03 0.00000E+00
 -1       592-1.62250E+02-1.54484E+03 0.00000E+00
 -1       593-1.67167E+02-1.54201E+03 0.00000E+00
 -1       594-1.72083E+02-1.53917E+03 0.00000E+00
 -1       595-1.77000E+02-1.53633E+03 0.00000E+00
 -1       596-1.81917E+02-1.53349E+03 0.00000E+00
 -1       597-1.86833E+02-1.53065E+03 0.00000E+00
 -1       598-1.91750E+02-1.52781E+03 0.00000E+00
 -1       599-1.96667E+02-1.52497E+03 0.00000E+00
 -1       600-2.01583E+02-1.52214E+03 0.00000E+00
 -1       601-2.06500E+02-1.51930E+03 0.00000E+00
 -1       602-2.11417E+02-1.51646E+03 0.00000E+00
 -1       603-2.16333E+02-1.51362E+03 0.00000E+00
 -1       604-2.21250E+02-1.51078E+03 0.00000E+00
 -1       605-2.26167E+02-1.50794E+03 0.00000E+00
 -1       606-2.31083E+02-1.50510E+03 0.00000E+00
 -1       607-2.40917E+02-1.50510E+03 0.00000E+00
 -1       608-2.45833E+02-1.50794E+03 0.00000E+00
 -1       609-2.50750E+02-1.51078E+03 0.00000E+00
 -1       610-2.55667E+02-1.51362E+03 0.00000E+00
 -1       611-2.60583E+02-1.51646E+03 0.00000E+00
 -1       612-2.65500E+02-1.51930E+03 0.00000E+00
 -1       613-2.70417E+02-1.52214E+03 0.00000E+00
 -1       614-2.75333E+02-1.52497E+03 0.00000E+00
 -1       615-2.80250E+02-1.52781E+03 0.00000E+00
 -1       616-2.85167E+02-1.53065E+03 0.00000E+00
 -1       617-2.90083E+02-1.53349E+03 0.00000E+00
 -1       618-2.95000E+02-1.53633E+03 0.00000E+00
 -1       619-2.99917E+02-1.53917E+03 0.00000E+00
 -1       620-3.04833E+02-1.54201E+03 0.00000E+00
 -1       621-3.09750E+02-1.54484E+03 0.00000E+00
 -1       622-3.14667E+02-1.54768E+03 0.00000E+00
 -1       623-3.19583E+02-1.55052E+03 0.00000E+00
 -1       624-3.24500E+02-1.55336E+03 0.00000E+00
 -1       625-3.29417E+02-1.55620E+03 0.00000E+00
 -1       626-3.34333E+02-1.55904E+03 0.00000E+00
 -1       627-3.39250E+02-1.56188E+03 0.00000E+00
 -1       628-3.44167E+02-1.56471E+03 0.00000E+00
 -1       629-3.49083E+02-1.56755E+03 0.00000E+00
 -1       630-3.58917E+02-1.56755E+03 0.00000E+00
 -1       631-3.63833E+02-1.56471E+03 0.00000E+00
 -1       632-3.68750E+02-1.56188E+03 0.00000E+00
 -1       633-3.73667E+02-1.55904E+03 0.00000E+00
 -1       634-3.78583E+02-1.55620E+03 0.00000E+00
 -1       635-3.83500E+02-1.55336E+03 0.00000E+00
 -1       636-3.88417E+02-1.55052E+03 0.00000E+00
 -1       637-3.93333E+02-1.54768E+03 0.00000E+00
 -1       638-3.98250E+02-1.54484E+03 0.00000E+00
 -1       639-4.03167E+02-1.54201E+03 0.00000E+00
 -1       640-4.08083E+02-1.53917E+03 0.00000E+00
 -1       641-4.13000E+02-1.53633E+03 0.00000E+00
 -1       642-4.17917E+02-1.53349E+03 0.00000E+00
 -1       643-4.22833E+02-1.53065E+03 0.00000E+00
 -1       644-4.27750E+02-1.52781E+03 0.00000E+00
 -1       645-4.32667E+02-1.52497E+03 0.00000E+00
 -1       646-4.37583E+02-1.52214E+03 0.00000E+00
 -1       647-4.42500E+02-1.51930E+03 0.00000E+00
 -1       648-4.47417E+02-1.51646E+03 0.00000E+00
 -1       649-4.52333E+02-1.51362E+03 0.00000E+00
 -1       650-4.57250E+02-1.51078E+03 0.00000E+00
 -1       651-4.62167E+02-1.50794E+03 0.00000E+00
 -1       652-4.67083E+02-1.50510E+03 0.00000E+00
 -1       653-4.76917E+02-1.50510E+03 0.00000E+00
 -1       654-4.81833E+02-1.50794E+03 0.00000E+00
 -1       655-4.86750E+02-1.51078E+03 0.00000E+00
 -1       656-4.91667E+02-1.51362E+03 0.00000E+00
 -1       657-4.96583E+02-1.51646E+03 0.00000E+00
 -1       658-5.01500E+02-1.51930E+03 0.00000E+00
 -1       659-5.06417E+02-1.52214E+03 0.00000E+00
 -1       660-5.11333E+02-1.52497E+03 0.00000E+00
 -1       661-5.16250E+02-1.52781E+03 0.00000E+00
 -1       662-5.21167E+02-1.53065E+03 0.00000E+00
 -1       663-5.26083E+02-1.53349E+03 0.00000E+00
 -1       664-5.31000E+02-1.53633E+03 0.00000E+00
 -1       665-5.35917E+02-1.53917E+03 0.00000E+00
 -1       666-5.40833E+02-1.54201E+03 0.00000E+00
 -1       667-5.45750E+02-1.54484E+03 0.00000E+00
 -1       668-5.50667E+02-1.54768E+03 0.00000E+00
 -1       669-5.55583E+02-1.55052E+03 0.00000E+00
 -1       670-5.60500E+02-1.55336E+03 0.00000E+00
 -1       671-5.65417E+02-1.55620E+03 0.00000E+00
 -1       672-5.70333E+02-1.55904E+03 0.00000E+00
 -1       673-5.75250E+02-1.56188E+03 0.00000E+00
 -1       674-5.80167E+02-1.56471E+03 0.00000E+00
 -1       675-5.85083E+02-1.56755E+03 0.00000E+00
 -1       676-5.94917E+02-1.56755E+03 0.00000E+00
 -1       677-5.99833E+02-1.56471E+03 0.00000E+00
 -1       678-6.04750E+02-1.56188E+03 0.00000E+00
 -1       679-6.09667E+02-1.55904E+03 0.00000E+00
 -1       680-6.14583E+02-1.55620E+03 0.00000E+00
 -1       681-6.19500E+02-1.55336E+03 0.00000E+00
 -1       682-6.24417E+02-1.55052E+03 0.00000E+00
 -1       683-6.29333E+02-1.54768E+03 0.00000E+00
 -1       684-6.34250E+02-1.54484E+03 0.00000E+00
 -1       685-6.39167E+02-1.54201E+03 0.00000E+00
 -1       686-6.44083E+02-1.53917E+03 0.00000E+00
 -1       687-6.49000E+02-1.53633E+03 0.00000E+00
 -1       688-6.53917E+02-1.53349E+03 0.00000E+00
 -1       689-6.58833E+02-1.53065E+03 0.00000E+00
 -1       690-6.63750E+02-1.52781E+03 0.00000E+00
 -1       691-6.68667E+02-1.52497E+03 0.00000E+00
 -1       692-6.73583E+02-1.52214E+03 0.00000E+00
 -1       693-6.78500E+02-1.51930E+03 0.00000E+00
 -1       694-6.83417E+02-1.51646E+03 0.00000E+00
 -1       695-6.88333E+02-1.51362E+03 0.00000E+00
 -1       696-6.93250E+02-1.51078E+03 0.00000E+00
 -1       697-6.98167E+02-1.50794E+03 0.00000E+00
 -1       698-7.03083E+02-1.50510E+03 0.00000E+00
 -1       699-7.08000E+02-1.49659E+03 0.00000E+00
 -1       700-7.08000E+02-1.49091E+03 0.00000E+00
 -1       701-7.08000E+02-1.48523E+03 0.00000E+00
 -1       702-7.08000E+02-1.47956E+03 0.00000E+00
 -1       703-7.08000E+02-1.47388E+03 0.00000E+00
 -1       704-7.08000E+02-1.46820E+03 0.00000E+00
 -1       705-7.08000E+02-1.46252E+03 0.00000E+00
 -1       706-7.08000E+02-1.45685E+03 0.00000E+00
 -1       707-7.08000E+02-1.45117E+03 0.00000E+00
 -1       708-7.08000E+02-1.44549E+03 0.00000E+00
 -1       709-7.08000E+02-1.43981E+03 0.00000E+00
 -1       710-7.08000E+02-1.43414E+03 0.00000E+00
 -1       711-7.08000E+02-1.42846E+03 0.00000E+00
 -1       712-7.08000E+02-1.42278E+03 0.00000E+00
 -1       713-7.08000E+02-1.41711E+03 0.00000E+00
 -1       714-7.08000E+02-1.41143E+03 0.00000E+00
 -1       715-7.08000E+02-1.40575E+03 0.00000E+00
 -1       716-7.08000E+02-1.40007E+03 0.00000E+00
 -1       717-7.08000E+02-1.39440E+03 0.00000E+00
 -1       718-7.08000E+02-1.38872E+03 0.00000E+00
 -1       719-7.08000E+02-1.38304E+03 0.00000E+00
 -1       720-7.08000E+02-1.37736E+03 0.00000E+00
 -1       721-7.08000E+02-1.37169E+03 0.00000E+00
 -1       722-7.13042E+02-1.36310E+03 0.00000E+00
 -1       723-7.18083E+02-1.36019E+03 0.00000E+00
 -1       724-7.23125E+02-1.35728E+03 0.00000E+00
 -1       725-7.28167E+02-1.35437E+03 0.00000E+00
 -1       726-7.33208E+02-1.35146E+03 0.00000E+00
 -1       727-7.38250E+02-1.34855E+03 0.00000E+00
 -1       728-7.43292E+02-1.34563E+03 0.00000E+00
 -1       729-7.48333E+02-1.34272E+03 0.00000E+00
 -1       730-7.53375E+02-1.33981E+03 0.00000E+00
 -1       731-7.58417E+02-1.33690E+03 0.00000E+00
 -1       732-7.63458E+02-1.33399E+03 0.00000E+00
 -1       733-7.72585E+02-1.34981E+03 0.00000E+00
 -1       734-7.67971E+02-1.35338E+03 0.00000E+00
 -1       735-7.63696E+02-1.35734E+03 0.00000E+00
 -1       736-7.59793E+02-1.36168E+03 0.00000E+00
 -1       737-7.56294E+02-1.36635E+03 0.00000E+00
 -1       738-7.53228E+02-1.37131E+03 0.00000E+00
 -1       739-7.50620E+02-1.37652E+03 0.00000E+00
 -1       740-7.48489E+02-1.38195E+03 0.00000E+00
 -1       741-7.46853E+02-1.38755E+03 0.00000E+00
 -1       742-7.45726E+02-1.39327E+03 0.00000E+00
 -1       743-7.45116E+02-1.39907E+03 0.00000E+00
 -1       744-7.45029E+02-1.40491E+03 0.00000E+00
 -1       745-7.45465E+02-1.41072E+03 0.00000E+00
 -1       746-7.46420E+02-1.41648E+03 0.00000E+00
 -1       747-7.47888E+02-1.42212E+03 0.00000E+00
 -1       748-7.49855E+02-1.42761E+03 0.00000E+00
 -1       749-7.52307E+02-1.43290E+03 0.00000E+00
 -1       750-7.55223E+02-1.43795E+03 0.00000E+00
 -1       751-7.58580E+02-1.44272E+03 0.00000E+00
 -1       752-7.62352E+02-1.44717E+03 0.00000E+00
 -1       753-7.66507E+02-1.45127E+03 0.00000E+00
 -1       754-7.71012E+02-1.45497E+03 0.00000E+00
 -1       755-7.75831E+02-1.45826E+03 0.00000E+00
 -1       756-7.80925E+02-1.46110E+03 0.00000E+00
 -1       757-7.86253E+02-1.46347E+03 0.00000E+00
 -1       758-7.91772E+02-1.46535E+03 0.00000E+00
 -1       759-7.97438E+02-1.46674E+03 0.00000E+00
 -1       760-8.03206E+02-1.46760E+03 0.00000E+00
 -1       761-8.09028E+02-1.46795E+03 0.00000E+00
 -1       762-8.14857E+02-1.46778E+03 0.00000E+00
 -1       763-8.20648E+02-1.46708E+03 0.00000E+00
 -1       764-8.26353E+02-1.46587E+03 0.00000E+00
 -1       765-8.31926E+02-1.46415E+03 0.00000E+00
 -1       766-8.37323E+02-1.46194E+03 0.00000E+00
 -1       767-7.70750E+02-1.33498E+03 0.00000E+00
 -1       768-7.73000E+02-1.33888E+03 0.00000E+00
 -1       769-7.75250E+02-1.34277E+03 0.00000E+00
 -1       770-8.45320E+02-1.46414E+03 0.00000E+00
 -1       771-8.48139E+02-1.46902E+03 0.00000E+00
 -1       772-8.46088E+02-1.47671E+03 0.00000E+00
 -1       773-8.41216E+02-1.47953E+03 0.00000E+00
 -1       774-8.36344E+02-1.48234E+03 0.00000E+00
 -1       775-8.31473E+02-1.48515E+03 0.00000E+00
 -1       776-8.26602E+02-1.48796E+03 0.00000E+00
 -1       777-8.21730E+02-1.49078E+03 0.00000E+00
 -1       778-8.16859E+02-1.49359E+03 0.00000E+00
 -1       779-8.14696E+02-1.50109E+03 0.00000E+00
 -1       780-8.17405E+02-1.50578E+03 0.00000E+00
 -1       781-8.20113E+02-1.51047E+03 0.00000E+00
 -1       782-8.22822E+02-1.51517E+03 0.00000E+00
 -1       783-8.25531E+02-1.51986E+03 0.00000E+00
 -1       784-5.76081E+00-1.70652E+03 0.00000E+00
 -1       785-1.13645E+01-1.70510E+03 0.00000E+00
 -1       786-1.66582E+01-1.70278E+03 0.00000E+00
 -1       787-2.14974E+01-1.69962E+03 0.00000E+00
 -1       788-2.57503E+01-1.69570E+03 0.00000E+00
 -1       789-2.93008E+01-1.69114E+03 0.00000E+00
 -1       790-3.20521E+01-1.68606E+03 0.00000E+00
 -1       791-3.39290E+01-1.68059E+03 0.00000E+00
 -1       792-3.48805E+01-1.67489E+03 0.00000E+00
 -1       793-3.48805E+01-1.66911E+03 0.00000E+00
 -1       794-3.39290E+01-1.66341E+03 0.00000E+00
 -1       795-3.20521E+01-1.65794E+03 0.00000E+00
 -1       796-2.93008E+01-1.65286E+03 0.00000E+00
 -1       797-2.57503E+01-1.64830E+03 0.00000E+00
 -1       798-2.14974E+01-1.64438E+03 0.00000E+00
 -1       799-1.66582E+01-1.64122E+03 0.00000E+00
 -1       800-1.13645E+01-1.63890E+03 0.00000E+00
 -1       801-5.76081E+00-1.63748E+03 0.00000E+00
 -1       802 0.00000E+00-1.63700E+03 0.00000E+00
 -1       803 5.76081E+00-1.63748E+03 0.00000E+00
 -1       804 1.13645E+01-1.63890E+03 0.00000E+00
 -1       805 1.66582E+01-1.64122E+03 0.00000E+00
 -1       806 2.14974E+01-1.64438E+03 0.00000E+00
 -1       807 2.57503E+01-1.64830E+03 0.00000E+00
 -1       808 2.93008E+01-1.65286E+03 0.00000E+00
 -1       809 3.20521E+01-1.65794E+03 0.00000E+00
 -1       810 3.39290E+01-1.66341E+03 0.00000E+00
 -1       811 3.48805E+01-1.66911E+03 0.00000E+00
 -1       812 3.48805E+01-1.67489E+03 0.00000E+00
 -1       813 3.39290E+01-1.68059E+03 0.00000E+00
 -1       814 3.20521E+01-1.68606E+03 0.00000E+00
 -1       815 2.93008E+01-1.69114E+03 0.00000E+00
 -1       816 2.57503E+01-1.69570E+03 0.00000E+00
 -1       817 2.14974E+01-1.69962E+03 0.00000E+00
 -1       818 1.66582E+01-1.70278E+03 0.00000E+00
 -1       819 1.13645E+01-1.70510E+03 0.00000E+00
 -1       820 5.76081E+00-1.70652E+03 0.00000E+00
 -1       821-5.76081E+00-1.61992E+03 0.00000E+00
 -1       822-1.13645E+01-1.61850E+03 0.00000E+00
 -1       823-1.66582E+01-1.61618E+03 0.00000E+00
 -1       824-2.14974E+01-1.61302E+03 0.00000E+00
 -1       825-2.57503E+01-1.60910E+03 0.00000E+00
 -1       826-2.93008E+01-1.60454E+03 0.00000E+00
 -1       827-3.20521E+01-1.59946E+03 0.00000E+00
 -1       828-3.39290E+01-1.59399E+03 0.00000E+00
 -1       829-3.48805E+01-1.58829E+03 0.00000E+00
 -1       830-3.48805E+01-1.58251E+03 0.00000E+00
 -1       831-3.39290E+01-1.57681E+03 0.00000E+00
 -1       832-3.20521E+01-1.57134E+03 0.00000E+00
 -1       833-2.93008E+01-1.56626E+03 0.00000E+00
 -1       834-2.57503E+01-1.56170E+03 0.00000E+00
 -1       835-2.14974E+01-1.55778E+03 0.00000E+00
 -1       836-1.66582E+01-1.55462E+03 0.00000E+00
 -1       837-1.13645E+01-1.55230E+03 0.00000E+00
 -1       838-5.76081E+00-1.55088E+03 0.00000E+00
 -1       839 0.00000E+00-1.55040E+03 0.00000E+00
 -1       840 5.76081E+00-1.55088E+03 0.00000E+00
 -1       841 1.13645E+01-1.55230E+03 0.00000E+00
 -1       842 1.66582E+01-1.55462E+03 0.00000E+00
 -1       843 2.14974E+01-1.55778E+03 0.00000E+00
 -1       844 2.57503E+01-1.56170E+03 0.00000E+00
 -1       845 2.93008E+01-1.56626E+03 0.00000E+00
 -1       846 3.20521E+01-1.57134E+03 0.00000E+00
 -1       847 3.39290E+01-1.57681E+03 0.00000E+00
 -1       848 3.48805E+01-1.58251E+03 0.00000E+00
 -1       849 3.48805E+01-1.58829E+03 0.00000E+00
 -1       850 3.39290E+01-1.59399E+03 0.00000E+00
 -1       851 3.20521E+01-1.59946E+03 0.00000E+00
 -1       852 2.93008E+01-1.60454E+03 0.00000E+00
 -1       853 2.57503E+01-1.60910E+03 0.00000E+00
 -1       854 2.14974E+01-1.61302E+03 0.00000E+00
 -1       855 1.66582E+01-1.61618E+03 0.00000E+00
 -1       856 1.13645E+01-1.61850E+03 0.00000E+00
 -1       857 5.76081E+00-1.61992E+03 0.00000E+00
 -1       858-8.05608E+01-1.66322E+03 0.00000E+00
 -1       859-8.61645E+01-1.66180E+03 0.00000E+00
 -1       860-9.14582E+01-1.65948E+03 0.00000E+00
 -1       861-9.62974E+01-1.65632E+03 0.00000E+00
 -1       862-1.00550E+02-1.65240E+03 0.00000E+00
 -1       863-1.04101E+02-1.64784E+03 0.00000E+00
 -1       864-1.06852E+02-1.64276E+03 0.00000E+00
 -1       865-1.08729E+02-1.63729E+03 0.00000E+00
 -1       866-1.09680E+02-1.63159E+03 0.00000E+00
 -1       867-1.09680E+02-1.62581E+03 0.00000E+00
 -1       868-1.08729E+02-1.62011E+03 0.00000E+00
 -1       869-1.06852E+02-1.61464E+03 0.00000E+00
 -1       870-1.04101E+02-1.60956E+03 0.00000E+00
 -1       871-1.00550E+02-1.60500E+03 0.00000E+00
 -1       872-9.62974E+01-1.60108E+03 0.00000E+00
 -1       873-9.14582E+01-1.59792E+03 0.00000E+00
 -1       874-8.61645E+01-1.59560E+03 0.00000E+00
 -1       875-8.05608E+01-1.59418E+03 0.00000E+00
 -1       876-7.48000E+01-1.59370E+03 0.00000E+00
 -1       877-6.90392E+01-1.59418E+03 0.00000E+00
 -1       878-6.34355E+01-1.59560E+03 0.00000E+00
 -1       879-5.81418E+01-1.59792E+03 0.00000E+00
 -1       880-5.33026E+01-1.60108E+03 0.00000E+00
 -1       881-4.90497E+01-1.60500E+03 0.00000E+00
 -1       882-4.54992E+01-1.60956E+03 0.00000E+00
 -1       883-4.27479E+01-1.61464E+03 0.00000E+00
 -1       884-4.08710E+01-1.62011E+03 0.00000E+00
 -1       885-3.99195E+01-1.62581E+03 0.00000E+00
 -1       886-3.99195E+01-1.63159E+03 0.00000E+00
 -1       887-4.08710E+01-1.63729E+03 0.00000E+00
 -1       888-4.27479E+01-1.64276E+03 0.00000E+00
 -1       889-4.54992E+01-1.64784E+03 0.00000E+00
 -1       890-4.90497E+01-1.65240E+03 0.00000E+00
 -1       891-5.33026E+01-1.65632E+03 0.00000E+00
 -1       892-5.81418E+01-1.65948E+03 0.00000E+00
 -1       893-6.34355E+01-1.66180E+03 0.00000E+00
 -1       894-6.90392E+01-1.66322E+03 0.00000E+00
 -1       895 6.90392E+01-1.66322E+03 0.00000E+00
 -1       896 6.34355E+01-1.66180E+03 0.00000E+00
 -1       897 5.81418E+01-1.65948E+03 0.00000E+00
 -1       898 5.33026E+01-1.65632E+03 0.00000E+00
 -1       899 4.90497E+01-1.65240E+03 0.00000E+00
 -1       900 4.54992E+01-1.64784E+03 0.00000E+00
 -1       901 4.27479E+01-1.64276E+03 0.00000E+00
 -1       902 4.08710E+01-1.63729E+03 0.00000E+00
 -1       903 3.99195E+01-1.63159E+03 0.00000E+00
 -1       904 3.99195E+01-1.62581E+03 0.00000E+00
 -1       905 4.08710E+01-1.62011E+03 0.00000E+00
 -1       906 4.27479E+01-1.61464E+03 0.00000E+00
 -1       907 4.54992E+01-1.60956E+03 0.00000E+00
 -1       908 4.90497E+01-1.60500E+03 0.00000E+00
 -1       909 5.33026E+01-1.60108E+03 0.00000E+00
 -1       910 5.81418E+01-1.59792E+03 0.00000E+00
 -1       911 6.34355E+01-1.59560E+03 0.00000E+00
 -1       912 6.90392E+01-1.59418E+03 0.00000E+00
 -1       913 7.48000E+01-1.59370E+03 0.00000E+00
 -1       914 8.05608E+01-1.59418E+03 0.00000E+00
 -1       915 8.61645E+01-1.59560E+03 0.00000E+00
 -1       916 9.14582E+01-1.59792E+03 0.00000E+00
 -1       917 9.62974E+01-1.60108E+03 0.00000E+00
 -1       918 1.00550E+02-1.60500E+03 0.00000E+00
 -1       919 1.04101E+02-1.60956E+03 0.00000E+00
 -1       920 1.06852E+02-1.61464E+03 0.00000E+00
 -1       921 1.08729E+02-1.62011E+03 0.00000E+00
 -1       922 1.09680E+02-1.62581E+03 0.00000E+00
 -1       923 1.09680E+02-1.63159E+03 0.00000E+00
 -1       924 1.08729E+02-1.63729E+03 0.00000E+00
 -1       925 1.06852E+02-1.64276E+03 0.00000E+00
 -1       926 1.04101E+02-1.64784E+03 0.00000E+00
 -1       927 1.00550E+02-1.65240E+03 0.00000E+00
 -1       928 9.62974E+01-1.65632E+03 0.00000E+00
 -1       929 9.14582E+01-1.65948E+03 0.00000E+00
 -1       930 8.61645E+01-1.66180E+03 0.00000E+00
 -1       931 8.05608E+01-1.66322E+03 0.00000E+00
 -1       932-1.66961E+02-1.66322E+03 0.00000E+00
 -1       933-1.72564E+02-1.66180E+03 0.00000E+00
 -1       934-1.77858E+02-1.65948E+03 0.00000E+00
 -1       935-1.82697E+02-1.65632E+03 0.00000E+00
 -1       936-1.86950E+02-1.65240E+03 0.00000E+00
 -1       937-1.90501E+02-1.64784E+03 0.00000E+00
 -1       938-1.93252E+02-1.64276E+03 0.00000E+00
 -1       939-1.95129E+02-1.63729E+03 0.00000E+00
 -1       940-1.96080E+02-1.63159E+03 0.00000E+00
 -1       941-1.96080E+02-1.62581E+03 0.00000E+00
 -1       942-1.95129E+02-1.62011E+03 0.00000E+00
 -1       943-1.93252E+02-1.61464E+03 0.00000E+00
 -1       944-1.90501E+02-1.60956E+03 0.00000E+00
 -1       945-1.86950E+02-1.60500E+03 0.00000E+00
 -1       946-1.82697E+02-1.60108E+03 0.00000E+00
 -1       947-1.77858E+02-1.59792E+03 0.00000E+00
 -1       948-1.72564E+02-1.59560E+03 0.00000E+00
 -1       949-1.66961E+02-1.59418E+03 0.00000E+00
 -1       950-1.61200E+02-1.59370E+03 0.00000E+00
 -1       951-1.55439E+02-1.59418E+03 0.00000E+00
 -1       952-1.49836E+02-1.59560E+03 0.00000E+00
 -1       953-1.44542E+02-1.59792E+03 0.00000E+00
 -1       954-1.39703E+02-1.60108E+03 0.00000E+00
 -1       955-1.35450E+02-1.60500E+03 0.00000E+00
 -1       956-1.31899E+02-1.60956E+03 0.00000E+00
 -1       957-1.29148E+02-1.61464E+03 0.00000E+00
 -1       958-1.27271E+02-1.62011E+03 0.00000E+00
 -1       959-1.26320E+02-1.62581E+03 0.00000E+00
 -1       960-1.26320E+02-1.63159E+03 0.00000E+00
 -1       961-1.27271E+02-1.63729E+03 0.00000E+00
 -1       962-1.29148E+02-1.64276E+03 0.00000E+00
 -1       963-1.31899E+02-1.64784E+03 0.00000E+00
 -1       964-1.35450E+02-1.65240E+03 0.00000E+00
 -1       965-1.39703E+02-1.65632E+03 0.00000E+00
 -1       966-1.44542E+02-1.65948E+03 0.00000E+00
 -1       967-1.49836E+02-1.66180E+03 0.00000E+00
 -1       968-1.55439E+02-1.66322E+03 0.00000E+00
 -1       969 1.55439E+02-1.66322E+03 0.00000E+00
 -1       970 1.49836E+02-1.66180E+03 0.00000E+00
 -1       971 1.44542E+02-1.65948E+03 0.00000E+00
 -1       972 1.39703E+02-1.65632E+03 0.00000E+00
 -1       973 1.35450E+02-1.65240E+03 0.00000E+00
 -1       974 1.31899E+02-1.64784E+03 0.00000E+00
 -1       975 1.29148E+02-1.64276E+03 0.00000E+00
 -1       976 1.27271E+02-1.63729E+03 0.00000E+00
 -1       977 1.26320E+02-1.63159E+03 0.00000E+00
 -1       978 1.26320E+02-1.62581E+03 0.00000E+00
 -1       979 1.27271E+02-1.62011E+03 0.00000E+00
 -1       980 1.29148E+02-1.61464E+03 0.00000E+00
 -1       981 1.31899E+02-1.60956E+03 0.00000E+00
 -1       982 1.35450E+02-1.60500E+03 0.00000E+00
 -1       983 1.39703E+02-1.60108E+03 0.00000E+00
 -1       984 1.44542E+02-1.59792E+03 0.00000E+00
 -1       985 1.49836E+02-1.59560E+03 0.00000E+00
 -1       986 1.55439E+02-1.59418E+03 0.00000E+00
 -1       987 1.61200E+02-1.59370E+03 0.00000E+00
 -1       988 1.66961E+02-1.59418E+03 0.00000E+00
 -1       989 1.72564E+02-1.59560E+03 0.00000E+00
 -1       990 1.77858E+02-1.59792E+03 0.00000E+00
 -1       991 1.82697E+02-1.60108E+03 0.00000E+00
 -1       992 1.86950E+02-1.60500E+03 0.00000E+00
 -1       993 1.90501E+02-1.60956E+03 0.00000E+00
 -1       994 1.93252E+02-1.61464E+03 0.00000E+00
 -1       995 1.95129E+02-1.62011E+03 0.00000E+00
 -1       996 1.96080E+02-1.62581E+03 0.00000E+00
 -1       997 1.96080E+02-1.63159E+03 0.00000E+00
 -1       998 1.95129E+02-1.63729E+03 0.00000E+00
 -1       999 1.93252E+02-1.64276E+03 0.00000E+00
 -1      1000 1.90501E+02-1.64784E+03 0.00000E+00
 -1      1001 1.86950E+02-1.65240E+03 0.00000E+00
 -1      1002 1.82697E+02-1.65632E+03 0.00000E+00
 -1      1003 1.77858E+02-1.65948E+03 0.00000E+00
 -1      1004 1.72564E+02-1.66180E+03 0.00000E+00
 -1      1005 1.66961E+02-1.66322E+03 0.00000E+00
 -1      1006-2.41761E+02-1.61992E+03 0.00000E+00
 -1      1007-2.47364E+02-1.61850E+03 0.00000E+00
 -1      1008-2.52658E+02-1.61618E+03 0.00000E+00
 -1      1009-2.57497E+02-1.61302E+03 0.00000E+00
 -1      1010-2.61750E+02-1.60910E+03 0.00000E+00
 -1      1011-2.65301E+02-1.60454E+03 0.00000E+00
 -1      1012-2.68052E+02-1.59946E+03 0.00000E+00
 -1      1013-2.69929E+02-1.59399E+03 0.00000E+00
 -1      1014-2.70880E+02-1.58829E+03 0.00000E+00
 -1      1015-2.70880E+02-1.58251E+03 0.00000E+00
 -1      1016-2.69929E+02-1.57681E+03 0.00000E+00
 -1      1017-2.68052E+02-1.57134E+03 0.00000E+00
 -1      1018-2.65301E+02-1.56626E+03 0.00000E+00
 -1      1019-2.61750E+02-1.56170E+03 0.00000E+00
 -1      1020-2.57497E+02-1.55778E+03 0.00000E+00
 -1      1021-2.52658E+02-1.55462E+03 0.00000E+00
 -1      1022-2.47364E+02-1.55230E+03 0.00000E+00
 -1      1023-2.41761E+02-1.55088E+03 0.00000E+00
 -1      1024-2.36000E+02-1.55040E+03 0.00000E+00
 -1      1025-2.30239E+02-1.55088E+03 0.00000E+00
 -1      1026-2.24636E+02-1.55230E+03 0.00000E+00
 -1      1027-2.19342E+02-1.55462E+03 0.00000E+00
 -1      1028-2.14503E+02-1.55778E+03 0.00000E+00
 -1      1029-2.10250E+02-1.56170E+03 0.00000E+00
 -1      1030-2.06699E+02-1.56626E+03 0.00000E+00
 -1      1031-2.03948E+02-1.57134E+03 0.00000E+00
 -1      1032-2.02071E+02-1.57681E+03 0.00000E+00
 -1      1033-2.01120E+02-1.58251E+03 0.00000E+00
 -1      1034-2.01120E+02-1.58829E+03 0.00000E+00
 -1      1035-2.02071E+02-1.59399E+03 0.00000E+00
 -1      1036-2.03948E+02-1.59946E+03 0.00000E+00
 -1      1037-2.06699E+02-1.60454E+03 0.00000E+00
 -1      1038-2.10250E+02-1.60910E+03 0.00000E+00
 -1      1039-2.14503E+02-1.61302E+03 0.00000E+00
 -1      1040-2.19342E+02-1.61618E+03 0.00000E+00
 -1      1041-2.24636E+02-1.61850E+03 0.00000E+00
 -1      1042-2.30239E+02-1.61992E+03 0.00000E+00
 -1      1043 2.30239E+02-1.61992E+03 0.00000E+00
 -1      1044 2.24636E+02-1.61850E+03 0.00000E+00
 -1      1045 2.19342E+02-1.61618E+03 0.00000E+00
 -1      1046 2.14503E+02-1.61302E+03 0.00000E+00
 -1      1047 2.10250E+02-1.60910E+03 0.00000E+00
 -1      1048 2.06699E+02-1.60454E+03 0.00000E+00
 -1      1049 2.03948E+02-1.59946E+03 0.00000E+00
 -1      1050 2.02071E+02-1.59399E+03 0.00000E+00
 -1      1051 2.01120E+02-1.58829E+03 0.00000E+00
 -1      1052 2.01120E+02-1.58251E+03 0.00000E+00
 -1      1053 2.02071E+02-1.57681E+03 0.00000E+00
 -1      1054 2.03948E+02-1.57134E+03 0.00000E+00
 -1      1055 2.06699E+02-1.56626E+03 0.00000E+00
 -1      1056 2.10250E+02-1.56170E+03 0.00000E+00
 -1      1057 2.14503E+02-1.55778E+03 0.00000E+00
 -1      1058 2.19342E+02-1.55462E+03 0.00000E+00
 -1      1059 2.24636E+02-1.55230E+03 0.00000E+00
 -1      1060 2.30239E+02-1.55088E+03 0.00000E+00
 -1      1061 2.36000E+02-1.55040E+03 0.00000E+00
 -1      1062 2.41761E+02-1.55088E+03 0.00000E+00
 -1      1063 2.47364E+02-1.55230E+03 0.00000E+00
 -1      1064 2.52658E+02-1.55462E+03 0.00000E+00
 -1      1065 2.57497E+02-1.55778E+03 0.00000E+00
 -1      1066 2.61750E+02-1.56170E+03 0.00000E+00
 -1      1067 2.65301E+02-1.56626E+03 0.00000E+00
 -1      1068 2.68052E+02-1.57134E+03 0.00000E+00
 -1      1069 2.69929E+02-1.57681E+03 0.00000E+00
 -1      1070 2.70880E+02-1.58251E+03 0.00000E+00
 -1      1071 2.70880E+02-1.58829E+03 0.00000E+00
 -1      1072 2.69929E+02-1.59399E+03 0.00000E+00
 -1      1073 2.68052E+02-1.59946E+03 0.00000E+00
 -1      1074 2.65301E+02-1.60454E+03 0.00000E+00
 -1      1075 2.61750E+02-1.60910E+03 0.00000E+00
 -1      1076 2.57497E+02-1.61302E+03 0.00000E+00
 -1      1077 2.52658E+02-1.61618E+03 0.00000E+00
 -1      1078 2.47364E+02-1.61850E+03 0.00000E+00
 -1      1079 2.41761E+02-1.61992E+03 0.00000E+00
 -1      1080-3.16561E+02-1.66322E+03 0.00000E+00
 -1      1081-3.22164E+02-1.66180E+03 0.00000E+00
 -1      1082-3.27458E+02-1.65948E+03 0.00000E+00
 -1      1083-3.32297E+02-1.65632E+03 0.00000E+00
 -1      1084-3.36550E+02-1.65240E+03 0.00000E+00
 -1      1085-3.40101E+02-1.64784E+03 0.00000E+00
 -1      1086-3.42852E+02-1.64276E+03 0.00000E+00
 -1      1087-3.44729E+02-1.63729E+03 0.00000E+00
 -1      1088-3.45680E+02-1.63159E+03 0.00000E+00
 -1      1089-3.45680E+02-1.62581E+03 0.00000E+00
 -1      1090-3.44729E+02-1.62011E+03 0.00000E+00
 -1      1091-3.42852E+02-1.61464E+03 0.00000E+00
 -1      1092-3.40101E+02-1.60956E+03 0.00000E+00
 -1      1093-3.36550E+02-1.60500E+03 0.00000E+00
 -1      1094-3.32297E+02-1.60108E+03 0.00000E+00
 -1      1095-3.27458E+02-1.59792E+03 0.00000E+00
 -1      1096-3.22164E+02-1.59560E+03 0.00000E+00
 -1      1097-3.16561E+02-1.59418E+03 0.00000E+00
 -1      1098-3.10800E+02-1.59370E+03 0.00000E+00
 -1      1099-3.05039E+02-1.59418E+03 0.00000E+00
 -1      1100-2.99436E+02-1.59560E+03 0.00000E+00
 -1      1101-2.94142E+02-1.59792E+03 0.00000E+00
 -1      1102-2.89303E+02-1.60108E+03 0.00000E+00
 -1      1103-2.85050E+02-1.60500E+03 0.00000E+00
 -1      1104-2.81499E+02-1.60956E+03 0.00000E+00
 -1      1105-2.78748E+02-1.61464E+03 0.00000E+00
 -1      1106-2.76871E+02-1.62011E+03 0.00000E+00
 -1      1107-2.75920E+02-1.62581E+03 0.00000E+00
 -1      1108-2.75920E+02-1.63159E+03 0.00000E+00
 -1      1109-2.76871E+02-1.63729E+03 0.00000E+00
 -1      1110-2.78748E+02-1.64276E+03 0.00000E+00
 -1      1111-2.81499E+02-1.64784E+03 0.00000E+00
 -1      1112-2.85050E+02-1.65240E+03 0.00000E+00
 -1      1113-2.89303E+02-1.65632E+03 0.00000E+00
 -1      1114-2.94142E+02-1.65948E+03 0.00000E+00
 -1      1115-2.99436E+02-1.66180E+03 0.00000E+00
 -1      1116-3.05039E+02-1.66322E+03 0.00000E+00
 -1      1117 3.05039E+02-1.66322E+03 0.00000E+00
 -1      1118 2.99436E+02-1.66180E+03 0.00000E+00
 -1      1119 2.94142E+02-1.65948E+03 0.00000E+00
 -1      1120 2.89303E+02-1.65632E+03 0.00000E+00
 -1      1121 2.85050E+02-1.65240E+03 0.00000E+00
 -1      1122 2.81499E+02-1.64784E+03 0.00000E+00
 -1      1123 2.78748E+02-1.64276E+03 0.00000E+00
 -1      1124 2.76871E+02-1.63729E+03 0.00000E+00
 -1      1125 2.75920E+02-1.63159E+03 0.00000E+00
 -1      1126 2.75920E+02-1.62581E+03 0.00000E+00
 -1      1127 2.76871E+02-1.62011E+03 0.00000E+00
 -1      1128 2.78748E+02-1.61464E+03 0.00000E+00
 -1      1129 2.81499E+02-1.60956E+03 0.00000E+00
 -1      1130 2.85050E+02-1.60500E+03 0.00000E+00
 -1      1131 2.89303E+02-1.60108E+03 0.00000E+00
 -1      1132 2.94142E+02-1.59792E+03 0.00000E+00
 -1      1133 2.99436E+02-1.59560E+03 0.00000E+00
 -1      1134 3.05039E+02-1.59418E+03 0.00000E+00
 -1      1135 3.10800E+02-1.59370E+03 0.00000E+00
 -1      1136 3.16561E+02-1.59418E+03 0.00000E+00
 -1      1137 3.22164E+02-1.59560E+03 0.00000E+00
 -1      1138 3.27458E+02-1.59792E+03 0.00000E+00
 -1      1139 3.32297E+02-1.60108E+03 0.00000E+00
 -1      1140 3.36550E+02-1.60500E+03 0.00000E+00
 -1      1141 3.40101E+02-1.60956E+03 0.00000E+00
 -1      1142 3.42852E+02-1.61464E+03 0.00000E+00
 -1      1143 3.44729E+02-1.62011E+03 0.00000E+00
 -1      1144 3.45680E+02-1.62581E+03 0.00000E+00
 -1      1145 3.45680E+02-1.63159E+03 0.00000E+00
 -1      1146 3.44729E+02-1.63729E+03 0.00000E+00
 -1      1147 3.42852E+02-1.64276E+03 0.00000E+00
 -1      1148 3.40101E+02-1.64784E+03 0.00000E+00
 -1      1149 3.36550E+02-1.65240E+03 0.00000E+00
 -1      1150 3.32297E+02-1.65632E+03 0.00000E+00
 -1      1151 3.27458E+02-1.65948E+03 0.00000E+00
 -1      1152 3.22164E+02-1.66180E+03 0.00000E+00
 -1      1153 3.16561E+02-1.66322E+03 0.00000E+00
 -1      1154-4.02961E+02-1.66322E+03 0.00000E+00
 -1      1155-4.08564E+02-1.66180E+03 0.00000E+00
 -1      1156-4.13858E+02-1.65948E+03 0.00000E+00
 -1      1157-4.18697E+02-1.65632E+03 0.00000E+00
 -1      1158-4.22950E+02-1.65240E+03 0.00000E+00
 -1      1159-4.26501E+02-1.64784E+03 0.00000E+00
 -1      1160-4.29252E+02-1.64276E+03 0.00000E+00
 -1      1161-4.31129E+02-1.63729E+03 0.00000E+00
 -1      1162-4.32080E+02-1.63159E+03 0.00000E+00
 -1      1163-4.32080E+02-1.62581E+03 0.00000E+00
 -1      1164-4.31129E+02-1.62011E+03 0.00000E+00
 -1      1165-4.29252E+02-1.61464E+03 0.00000E+00
 -1      1166-4.26501E+02-1.60956E+03 0.00000E+00
 -1      1167-4.22950E+02-1.60500E+03 0.00000E+00
 -1      1168-4.18697E+02-1.60108E+03 0.00000E+00
 -1      1169-4.13858E+02-1.59792E+03 0.00000E+00
 -1      1170-4.08564E+02-1.59560E+03 0.00000E+00
 -1      1171-4.02961E+02-1.59418E+03 0.00000E+00
 -1      1172-3.97200E+02-1.59370E+03 0.00000E+00
 -1      1173-3.91439E+02-1.59418E+03 0.00000E+00
 -1      1174-3.85836E+02-1.59560E+03 0.00000E+00
 -1      1175-3.80542E+02-1.59792E+03 0.00000E+00
 -1      1176-3.75703E+02-1.60108E+03 0.00000E+00
 -1      1177-3.71450E+02-1.60500E+03 0.00000E+00
 -1      1178-3.67899E+02-1.60956E+03 0.00000E+00
 -1      1179-3.65148E+02-1.61464E+03 0.00000E+00
 -1      1180-3.63271E+02-1.62011E+03 0.00000E+00
 -1      1181-3.62320E+02-1.62581E+03 0.00000E+00
 -1      1182-3.62320E+02-1.63159E+03 0.00000E+00
 -1      1183-3.63271E+02-1.63729E+03 0.00000E+00
 -1      1184-3.65148E+02-1.64276E+03 0.00000E+00
 -1      1185-3.67899E+02-1.64784E+03 0.00000E+00
 -1      1186-3.71450E+02-1.65240E+03 0.00000E+00
 -1      1187-3.75703E+02-1.65632E+03 0.00000E+00
 -1      1188-3.80542E+02-1.65948E+03 0.00000E+00
 -1      1189-3.85836E+02-1.66180E+03 0.00000E+00
 -1      1190-3.91439E+02-1.66322E+03 0.00000E+00
 -1      1191 3.91439E+02-1.66322E+03 0.00000E+00
 -1      1192 3.85836E+02-1.66180E+03 0.00000E+00
 -1      1193 3.80542E+02-1.65948E+03 0.00000E+00
 -1      1194 3.75703E+02-1.65632E+03 0.00000E+00
 -1      1195 3.71450E+02-1.65240E+03 0.00000E+00
 -1      1196 3.67899E+02-1.64784E+03 0.00000E+00
 -1      1197 3.65148E+02-1.64276E+03 0.00000E+00
 -1      1198 3.63271E+02-1.63729E+03 0.00000E+00
 -1      1199 3.62320E+02-1.63159E+03 0.00000E+00
 -1      1200 3.62320E+02-1.62581E+03 0.00000E+00
 -1      1201 3.63271E+02-1.62011E+03 0.00000E+00
 -1      1202 3.65148E+02-1.61464E+03 0.00000E+00
 -1      1203 3.67899E+02-1.60956E+03 0.00000E+00
 -1      1204 3.71450E+02-1.60500E+03 0.00000E+00
 -1      1205 3.75703E+02-1.60108E+03 0.00000E+00
 -1      1206 3.80542E+02-1.59792E+03 0.00000E+00
 -1      1207 3.85836E+02-1.59560E+03 0.00000E+00
 -1      1208 3.91439E+02-1.59418E+03 0.00000E+00
 -1      1209 3.97200E+02-1.59370E+03 0.00000E+00
 -1      1210 4.02961E+02-1.59418E+03 0.00000E+00
 -1      1211 4.08564E+02-1.59560E+03 0.00000E+00
 -1      1212 4.13858E+02-1.59792E+03 0.00000E+00
 -1      1213 4.18697E+02-1.60108E+03 0.00000E+00
 -1      1214 4.22950E+02-1.60500E+03 0.00000E+00
 -1      1215 4.26501E+02-1.60956E+03 0.00000E+00
 -1      1216 4.29252E+02-1.61464E+03 0.00000E+00
 -1      1217 4.31129E+02-1.62011E+03 0.00000E+00
 -1      1218 4.32080E+02-1.62581E+03 0.00000E+00
 -1      1219 4.32080E+02-1.63159E+03 0.00000E+00
 -1      1220 4.31129E+02-1.63729E+03 0.00000E+00
 -1      1221 4.29252E+02-1.64276E+03 0.00000E+00
 -1      1222 4.26501E+02-1.64784E+03 0.00000E+00
 -1      1223 4.22950E+02-1.65240E+03 0.00000E+00
 -1      1224 4.18697E+02-1.65632E+03 0.00000E+00
 -1      1225 4.13858E+02-1.65948E+03 0.00000E+00
 -1      1226 4.08564E+02-1.66180E+03 0.00000E+00
 -1      1227 4.02961E+02-1.66322E+03 0.00000E+00
 -1      1228-4.77761E+02-1.61992E+03 0.00000E+00
 -1      1229-4.83364E+02-1.61850E+03 0.00000E+00
 -1      1230-4.88658E+02-1.61618E+03 0.00000E+00
 -1      1231-4.93497E+02-1.61302E+03 0.00000E+00
 -1      1232-4.97750E+02-1.60910E+03 0.00000E+00
 -1      1233-5.01301E+02-1.60454E+03 0.00000E+00
 -1      1234-5.04052E+02-1.59946E+03 0.00000E+00
 -1      1235-5.05929E+02-1.59399E+03 0.00000E+00
 -1      1236-5.06880E+02-1.58829E+03 0.00000E+00
 -1      1237-5.06880E+02-1.58251E+03 0.00000E+00
 -1      1238-5.05929E+02-1.57681E+03 0.00000E+00
 -1      1239-5.04052E+02-1.57134E+03 0.00000E+00
 -1      1240-5.01301E+02-1.56626E+03 0.00000E+00
 -1      1241-4.97750E+02-1.56170E+03 0.00000E+00
 -1      1242-4.93497E+02-1.55778E+03 0.00000E+00
 -1      1243-4.88658E+02-1.55462E+03 0.00000E+00
 -1      1244-4.83364E+02-1.55230E+03 0.00000E+00
 -1      1245-4.77761E+02-1.55088E+03 0.00000E+00
 -1      1246-4.72000E+02-1.55040E+03 0.00000E+00
 -1      1247-4.66239E+02-1.55088E+03 0.00000E+00
 -1      1248-4.60636E+02-1.55230E+03 0.00000E+00
 -1      1249-4.55342E+02-1.55462E+03 0.00000E+00
 -1      1250-4.50503E+02-1.55778E+03 0.00000E+00
 -1      1251-4.46250E+02-1.56170E+03 0.00000E+00
 -1      1252-4.42699E+02-1.56626E+03 0.00000E+00
 -1      1253-4.39948E+02-1.57134E+03 0.00000E+00
 -1      1254-4.38071E+02-1.57681E+03 0.00000E+00
 -1      1255-4.37120E+02-1.58251E+03 0.00000E+00
 -1      1256-4.37120E+02-1.58829E+03 0.00000E+00
 -1      1257-4.38071E+02-1.59399E+03 0.00000E+00
 -1      1258-4.39948E+02-1.59946E+03 0.00000E+00
 -1      1259-4.42699E+02-1.60454E+03 0.00000E+00
 -1      1260-4.46250E+02-1.60910E+03 0.00000E+00
 -1      1261-4.50503E+02-1.61302E+03 0.00000E+00
 -1      1262-4.55342E+02-1.61618E+03 0.00000E+00
 -1      1263-4.60636E+02-1.61850E+03 0.00000E+00
 -1      1264-4.66239E+02-1.61992E+03 0.00000E+00
 -1      1265 4.66239E+02-1.61992E+03 0.00000E+00
 -1      1266 4.60636E+02-1.61850E+03 0.00000E+00
 -1      1267 4.55342E+02-1.61618E+03 0.00000E+00
 -1      1268 4.50503E+02-1.61302E+03 0.00000E+00
 -1      1269 4.46250E+02-1.60910E+03 0.00000E+00
 -1      1270 4.42699E+02-1.60454E+03 0.00000E+00
 -1      1271 4.39948E+02-1.59946E+03 0.00000E+00
 -1      1272 4.38071E+02-1.59399E+03 0.00000E+00
 -1      1273 4.37120E+02-1.58829E+03 0.00000E+00
 -1      1274 4.37120E+02-1.58251E+03 0.00000E+00
 -1      1275 4.38071E+02-1.57681E+03 0.00000E+00
 -1      1276 4.39948E+02-1.57134E+03 0.00000E+00
 -1      1277 4.42699E+02-1.56626E+03 0.00000E+00
 -1      1278 4.46250E+02-1.56170E+03 0.00000E+00
 -1      1279 4.50503E+02-1.55778E+03 0.00000E+00
 -1      1280 4.55342E+02-1.55462E+03 0.00000E+00
 -1      1281 4.60636E+02-1.55230E+03 0.00000E+00
 -1      1282 4.66239E+02-1.55088E+03 0.00000E+00
 -1      1283 4.72000E+02-1.55040E+03 0.00000E+00
 -1      1284 4.77761E+02-1.55088E+03 0.00000E+00
 -1      1285 4.83364E+02-1.55230E+03 0.00000E+00
 -1      1286 4.88658E+02-1.55462E+03 0.00000E+00
 -1      1287 4.93497E+02-1.55778E+03 0.00000E+00
 -1      1288 4.97750E+02-1.56170E+03 0.00000E+00
 -1      1289 5.01301E+02-1.56626E+03 0.00000E+00
 -1      1290 5.04052E+02-1.57134E+03 0.00000E+00
 -1      1291 5.05929E+02-1.57681E+03 0.00000E+00
 -1      1292 5.06880E+02-1.58251E+03 0.00000E+00
 -1      1293 5.06880E+02-1.58829E+03 0.00000E+00
 -1      1294 5.05929E+02-1.59399E+03 0.00000E+00
 -1      1295 5.04052E+02-1.59946E+03 0.00000E+00
 -1      1296 5.01301E+02-1.60454E+03 0.00000E+00
 -1      1297 4.97750E+02-1.60910E+03 0.00000E+00
 -1      1298 4.93497E+02-1.61302E+03 0.00000E+00
 -1      1299 4.88658E+02-1.61618E+03 0.00000E+00
 -1      1300 4.83364E+02-1.61850E+03 0.00000E+00
 -1      1301 4.77761E+02-1.61992E+03 0.00000E+00
 -1      1302 7.75986E+02-1.46361E+03 0.00000E+00
 -1      1303-1.95751E+02-1.64768E+03 0.00000E+00
 -1      1304-7.75918E+02-1.46409E+03 0.00000E+00
 -1      1305-2.42873E+02-1.71329E+03 0.00000E+00
 -1      1306 2.42694E+02-1.71285E+03 0.00000E+00
 -1      1307 7.77725E+02-1.54529E+03 0.00000E+00
 -1      1308-7.77725E+02-1.54529E+03 0.00000E+00
 -1      1309 1.20938E+02-1.72646E+03 0.00000E+00
 -1      1310 5.70296E+02-1.56464E+03 0.00000E+00
 -1      1311 4.13346E+02-1.59215E+03 0.00000E+00
 -1      1312 1.96588E+02-1.64711E+03 0.00000E+00
 -1      1313 2.75721E+02-1.64768E+03 0.00000E+00
 -1      1314-7.12949E+02-1.50025E+03 0.00000E+00
 -1      1315 7.12949E+02-1.50025E+03 0.00000E+00
 -1      1316 5.63656E+02-1.63580E+03 0.00000E+00
 -1      1317 5.10996E+02-1.59241E+03 0.00000E+00
 -1      1318-2.76094E+02-1.64794E+03 0.00000E+00
 -1      1319-5.63656E+02-1.63580E+03 0.00000E+00
 -1      1320-5.70296E+02-1.56464E+03 0.00000E+00
 -1      1321-1.22678E+02-1.72617E+03 0.00000E+00
 -1      1322 2.19802E+02-1.71584E+03 0.00000E+00
 -1      1323-2.19866E+02-1.71577E+03 0.00000E+00
 -1      1324-7.56161E+02-1.55613E+03 0.00000E+00
 -1      1325 7.56150E+02-1.55609E+03 0.00000E+00
 -1      1326-3.02322E+02-1.58004E+03 0.00000E+00
 -1      1327-7.07541E+02-1.50778E+03 0.00000E+00
 -1      1328-6.62548E+01-1.58022E+03 0.00000E+00
 -1      1329 7.07536E+02-1.50777E+03 0.00000E+00
 -1      1330-9.63527E+01-1.66221E+03 0.00000E+00
 -1      1331-1.39246E+02-1.66182E+03 0.00000E+00
 -1      1332 6.87730E+02-1.51936E+03 0.00000E+00
 -1      1333-9.28401E+01-1.72747E+03 0.00000E+00
 -1      1334 9.29214E+01-1.72714E+03 0.00000E+00
 -1      1335 6.68667E+02-1.53065E+03 0.00000E+00
 -1      1336-7.35595E+02-1.45161E+03 0.00000E+00
 -1      1337 7.32737E+02-1.46654E+03 0.00000E+00
 -1      1338 7.35602E+02-1.46157E+03 0.00000E+00
 -1      1339 7.41350E+02-1.46157E+03 0.00000E+00
 -1      1340 7.38474E+02-1.45659E+03 0.00000E+00
 -1      1341 7.32725E+02-1.45659E+03 0.00000E+00
 -1      1342 7.35595E+02-1.45161E+03 0.00000E+00
 -1      1343-6.55024E+02-1.60034E+03 0.00000E+00
 -1      1344 6.55024E+02-1.60034E+03 0.00000E+00
 -1      1345 6.46475E+02-1.56556E+03 0.00000E+00
 -1      1346-6.46475E+02-1.56556E+03 0.00000E+00
 -1      1347-6.63657E+02-1.57558E+03 0.00000E+00
 -1      1348-3.70580E+02-1.66939E+03 0.00000E+00
 -1      1349-3.72926E+02-1.67467E+03 0.00000E+00
 -1      1350-6.61986E+01-1.71753E+03 0.00000E+00
 -1      1351-6.04680E+01-1.71662E+03 0.00000E+00
 -1      1352-6.08785E+01-1.67639E+03 0.00000E+00
 -1      1353-1.13584E+02-1.65920E+03 0.00000E+00
 -1      1354-1.19224E+02-1.66006E+03 0.00000E+00
 -1      1355-1.17295E+02-1.65477E+03 0.00000E+00
 -1      1356-4.53808E+01-1.71919E+03 0.00000E+00
 -1      1357-1.72294E+02-1.71442E+03 0.00000E+00
 -1      1358-7.19411E+01-1.71834E+03 0.00000E+00
 -1      1359-1.88601E+02-1.67086E+03 0.00000E+00
 -1      1360-2.65031E+02-1.64755E+03 0.00000E+00
 -1      1361-2.62977E+02-1.64214E+03 0.00000E+00
 -1      1362-3.49676E+02-1.68712E+03 0.00000E+00
 -1      1363-1.19347E+02-1.71573E+03 0.00000E+00
 -1      1364-1.22987E+02-1.71132E+03 0.00000E+00
 -1      1365-1.20909E+02-1.70592E+03 0.00000E+00
 -1      1366-1.26640E+02-1.70683E+03 0.00000E+00
 -1      1367-1.28717E+02-1.71225E+03 0.00000E+00
 -1      1368-1.32370E+02-1.70775E+03 0.00000E+00
 -1      1369-1.34489E+02-1.71334E+03 0.00000E+00
 -1      1370-1.38107E+02-1.70869E+03 0.00000E+00
 -1      1371-1.40206E+02-1.71418E+03 0.00000E+00
 -1      1372-1.43839E+02-1.70959E+03 0.00000E+00
 -1      1373-2.59187E+01-1.71110E+03 0.00000E+00
 -1      1374-2.27768E+01-1.71588E+03 0.00000E+00
 -1      1375-8.17046E+02-1.48829E+03 0.00000E+00
 -1      1376 7.15480E+02-1.52598E+03 0.00000E+00
 -1      1377-7.15480E+02-1.52598E+03 0.00000E+00
 -1      1378 2.57310E+02-1.61822E+03 0.00000E+00
 -1      1379-2.58366E+02-1.61843E+03 0.00000E+00
 -1      1380 5.52193E+02-1.63913E+03 0.00000E+00
 -1      1381-5.52193E+02-1.63913E+03 0.00000E+00
 -1      1382-7.32738E+02-1.46654E+03 0.00000E+00
 -1      1383-7.35605E+02-1.46157E+03 0.00000E+00
 -1      1384-7.38474E+02-1.45659E+03 0.00000E+00
 -1      1385-7.32725E+02-1.45659E+03 0.00000E+00
 -1      1386-7.41351E+02-1.46157E+03 0.00000E+00
 -1      1387-2.93823E+02-1.59215E+03 0.00000E+00
 -1      1388-5.10996E+02-1.59241E+03 0.00000E+00
 -1      1389 9.61336E+01-1.66174E+03 0.00000E+00
 -1      1390 1.39076E+02-1.66179E+03 0.00000E+00
 -1      1391-6.87730E+02-1.51936E+03 0.00000E+00
 -1      1392 6.48769E+02-1.54198E+03 0.00000E+00
 -1      1393 6.87101E+02-1.58667E+03 0.00000E+00
 -1      1394 5.99856E+02-1.57036E+03 0.00000E+00
 -1      1395-5.11328E+02-1.57969E+03 0.00000E+00
 -1      1396-5.24726E+02-1.64827E+03 0.00000E+00
 -1      1397 4.34495E+02-1.64155E+03 0.00000E+00
 -1      1398 7.93360E+02-1.47087E+03 0.00000E+00
 -1      1399 4.62167E+02-1.51362E+03 0.00000E+00
 -1      1400-2.38285E+02-1.54524E+03 0.00000E+00
 -1      1401 2.00303E+02-1.63539E+03 0.00000E+00
 -1      1402 1.05958E+02-1.65291E+03 0.00000E+00
 -1      1403-1.30838E+02-1.65333E+03 0.00000E+00
 -1      1404-3.25940E+02-1.66524E+03 0.00000E+00
 -1      1405 7.41137E+02-1.41434E+03 0.00000E+00
 -1      1406-2.63717E+02-1.55601E+03 0.00000E+00
 -1      1407-7.95476E+02-1.50604E+03 0.00000E+00
 -1      1408-7.35581E+02-1.53095E+03 0.00000E+00
 -1      1409 4.46339E+02-1.67081E+03 0.00000E+00
 -1      1410-2.71745E+02-1.63579E+03 0.00000E+00
 -1      1411 7.41296E+02-1.49137E+03 0.00000E+00
 -1      1412-7.41339E+02-1.47151E+03 0.00000E+00
 -1      1413 7.84169E+02-1.50609E+03 0.00000E+00
 -1      1414-2.02448E+02-1.71806E+03 0.00000E+00
 -1      1415 1.60223E+01-1.70853E+03 0.00000E+00
 -1      1416 8.17050E+02-1.48831E+03 0.00000E+00
 -1      1417 3.62100E+02-1.64880E+03 0.00000E+00
 -1      1418-4.19038E+02-1.59451E+03 0.00000E+00
 -1      1419-6.68667E+02-1.53065E+03 0.00000E+00
 -1      1420-7.12267E+01-1.66838E+03 0.00000E+00
 -1      1421 7.21190E+01-1.66853E+03 0.00000E+00
 -1      1422-7.12839E+02-1.47736E+03 0.00000E+00
 -1      1423 7.12839E+02-1.47733E+03 0.00000E+00
 -1      1424-2.65915E+02-1.70899E+03 0.00000E+00
 -1      1425 2.65544E+02-1.70998E+03 0.00000E+00
 -1      1426 1.83013E+02-1.66209E+03 0.00000E+00
 -1      1427-1.83503E+02-1.66106E+03 0.00000E+00
 -1      1428-7.30094E+02-1.56813E+03 0.00000E+00
 -1      1429 7.30094E+02-1.56813E+03 0.00000E+00
 -1      1430-2.32058E+02-1.62531E+03 0.00000E+00
 -1      1431 6.66917E+02-1.59605E+03 0.00000E+00
 -1      1432 2.32706E+02-1.62515E+03 0.00000E+00
 -1      1433-6.48769E+02-1.54198E+03 0.00000E+00
 -1      1434-5.85158E+02-1.62860E+03 0.00000E+00
 -1      1435 5.85158E+02-1.62860E+03 0.00000E+00
 -1      1436 7.09001E+02-1.57837E+03 0.00000E+00
 -1      1437-7.09001E+02-1.57837E+03 0.00000E+00
 -1      1438 5.55185E+02-1.58447E+03 0.00000E+00
 -1      1439 1.44150E+02-1.72387E+03 0.00000E+00
 -1      1440-1.44987E+02-1.72425E+03 0.00000E+00
 -1      1441-1.01185E+02-1.72258E+03 0.00000E+00
 -1      1442 6.38643E+01-1.72913E+03 0.00000E+00
 -1      1443-6.36246E+01-1.72786E+03 0.00000E+00
 -1      1444 5.40923E+02-1.64421E+03 0.00000E+00
 -1      1445-5.40923E+02-1.64421E+03 0.00000E+00
 -1      1446-6.87101E+02-1.58667E+03 0.00000E+00
 -1      1447-6.29383E+02-1.55290E+03 0.00000E+00
 -1      1448 6.29393E+02-1.55288E+03 0.00000E+00
 -1      1449 1.79683E+02-1.72073E+03 0.00000E+00
 -1      1450-1.80147E+02-1.72074E+03 0.00000E+00
 -1      1451-5.55459E+02-1.55607E+03 0.00000E+00
 -1      1452 5.55459E+02-1.55607E+03 0.00000E+00
 -1      1453-5.85079E+02-1.57323E+03 0.00000E+00
 -1      1454 5.85079E+02-1.57323E+03 0.00000E+00
 -1      1455-6.66917E+02-1.59605E+03 0.00000E+00
 -1      1456-2.32307E+01-1.73021E+03 0.00000E+00
 -1      1457-1.57165E+02-1.66860E+03 0.00000E+00
 -1      1458 1.58519E+02-1.66853E+03 0.00000E+00
 -1      1459 6.14687E+02-1.56213E+03 0.00000E+00
 -1      1460-6.14687E+02-1.56213E+03 0.00000E+00
 -1      1461-7.92960E+02-1.53802E+03 0.00000E+00
 -1      1462 7.92960E+02-1.53802E+03 0.00000E+00
 -1      1463 1.97079E+02-1.71887E+03 0.00000E+00
 -1      1464-1.95717E+02-1.71846E+03 0.00000E+00
 -1      1465-7.59738E+02-1.45278E+03 0.00000E+00
 -1      1466 7.60884E+02-1.45282E+03 0.00000E+00
 -1      1467-5.99857E+02-1.57036E+03 0.00000E+00
 -1      1468 6.44743E+02-1.60614E+03 0.00000E+00
 -1      1469-6.44743E+02-1.60614E+03 0.00000E+00
 -1      1470 5.06861E+02-1.60444E+03 0.00000E+00
 -1      1471-5.06698E+02-1.60370E+03 0.00000E+00
 -1      1472 8.45916E+01-1.66737E+03 0.00000E+00
 -1      1473-1.70977E+02-1.66731E+03 0.00000E+00
 -1      1474 1.71256E+02-1.66725E+03 0.00000E+00
 -1      1475 2.83786E+02-1.65805E+03 0.00000E+00
 -1      1476-2.84177E+02-1.65840E+03 0.00000E+00
 -1      1477-8.39996E+01-1.66754E+03 0.00000E+00
 -1      1478-1.62649E+02-1.72211E+03 0.00000E+00
 -1      1479 1.62403E+02-1.72307E+03 0.00000E+00
 -1      1480 5.11328E+02-1.57969E+03 0.00000E+00
 -1      1481 6.28704E+02-1.61163E+03 0.00000E+00
 -1      1482-6.28704E+02-1.61163E+03 0.00000E+00
 -1      1483 5.88847E+01-1.59178E+03 0.00000E+00
 -1      1484 6.01518E+02-1.62201E+03 0.00000E+00
 -1      1485-6.01518E+02-1.62201E+03 0.00000E+00
 -1      1486 3.46531E+01-1.69121E+03 0.00000E+00
 -1      1487-3.47015E+01-1.69117E+03 0.00000E+00
 -1      1488-8.09267E+02-1.50111E+03 0.00000E+00
 -1      1489 8.09267E+02-1.50111E+03 0.00000E+00
 -1      1490-7.13014E+02-1.46041E+03 0.00000E+00
 -1      1491 7.13014E+02-1.46041E+03 0.00000E+00
 -1      1492-2.82365E+02-1.70655E+03 0.00000E+00
 -1      1493 5.76986E+01-1.72863E+03 0.00000E+00
 -1      1494 2.82663E+02-1.70761E+03 0.00000E+00
 -1      1495 3.00948E+02-1.59054E+03 0.00000E+00
 -1      1496-5.55222E+02-1.59027E+03 0.00000E+00
 -1      1497-4.07099E+02-1.59026E+03 0.00000E+00
 -1      1498-4.62417E+02-1.62390E+03 0.00000E+00
 -1      1499-3.00340E+02-1.58971E+03 0.00000E+00
 -1      1500 4.07077E+02-1.58988E+03 0.00000E+00
 -1      1501-1.70696E+02-1.59084E+03 0.00000E+00
 -1      1502 6.53072E+01-1.59082E+03 0.00000E+00
 -1      1503-6.53995E+01-1.59000E+03 0.00000E+00
 -1      1504 1.70601E+02-1.59000E+03 0.00000E+00
 -1      1505 4.62344E+02-1.62360E+03 0.00000E+00
 -1      1506 5.24726E+02-1.64827E+03 0.00000E+00
 -1      1507 6.84326E+01-1.54772E+03 0.00000E+00
 -1      1508-1.67574E+02-1.54773E+03 0.00000E+00
 -1      1509 3.04426E+02-1.54773E+03 0.00000E+00
 -1      1510-4.02449E+02-1.54723E+03 0.00000E+00
 -1      1511 7.21180E+02-1.37704E+03 0.00000E+00
 -1      1512 4.02456E+02-1.54723E+03 0.00000E+00
 -1      1513 3.58362E+02-1.67537E+03 0.00000E+00
 -1      1514-6.88333E+01-1.54768E+03 0.00000E+00
 -1      1515-3.04833E+02-1.54768E+03 0.00000E+00
 -1      1516 1.67167E+02-1.54768E+03 0.00000E+00
 -1      1517-7.61328E+02-1.49627E+03 0.00000E+00
 -1      1518-7.58474E+02-1.50122E+03 0.00000E+00
 -1      1519 3.55618E+02-1.69252E+03 0.00000E+00
 -1      1520-3.57063E+02-1.69282E+03 0.00000E+00
 -1      1521-1.47336E+02-1.56003E+03 0.00000E+00
 -1      1522-4.34925E+02-1.64165E+03 0.00000E+00
 -1      1523-2.46058E+02-1.62381E+03 0.00000E+00
 -1      1524 2.46075E+02-1.62400E+03 0.00000E+00
 -1      1525 5.40685E+02-1.54751E+03 0.00000E+00
 -1      1526-5.40685E+02-1.54751E+03 0.00000E+00
 -1      1527-2.94113E+02-1.66517E+03 0.00000E+00
 -1      1528 2.95057E+02-1.66530E+03 0.00000E+00
 -1      1529-4.64866E+02-1.66606E+03 0.00000E+00
 -1      1530 4.64866E+02-1.66606E+03 0.00000E+00
 -1      1531 2.21571E+02-1.68412E+03 0.00000E+00
 -1      1532 4.93372E+02-1.61960E+03 0.00000E+00
 -1      1533-4.94371E+02-1.61956E+03 0.00000E+00
 -1      1534 6.36931E+01-1.70662E+03 0.00000E+00
 -1      1535-7.93756E+02-1.47104E+03 0.00000E+00
 -1      1536-7.49463E+02-1.43752E+03 0.00000E+00
 -1      1537 7.49463E+02-1.43752E+03 0.00000E+00
 -1      1538 4.80032E+02-1.66234E+03 0.00000E+00
 -1      1539-4.80032E+02-1.66234E+03 0.00000E+00
 -1      1540-1.97568E+02-1.57272E+03 0.00000E+00
 -1      1541 3.84576E+01-1.57299E+03 0.00000E+00
 -1      1542-4.34040E+02-1.57266E+03 0.00000E+00
 -1      1543 2.74441E+02-1.57300E+03 0.00000E+00
 -1      1544 4.34280E+02-1.57177E+03 0.00000E+00
 -1      1545-2.73564E+02-1.57246E+03 0.00000E+00
 -1      1546-3.75638E+01-1.57246E+03 0.00000E+00
 -1      1547 1.98436E+02-1.57246E+03 0.00000E+00
 -1      1548 4.63748E+01-1.72934E+03 0.00000E+00
 -1      1549 5.40257E+02-1.62775E+03 0.00000E+00
 -1      1550-4.68855E+01-1.72909E+03 0.00000E+00
 -1      1551 3.37534E+02-1.65776E+03 0.00000E+00
 -1      1552-3.37188E+02-1.65814E+03 0.00000E+00
 -1      1553-7.26943E+02-1.51607E+03 0.00000E+00
 -1      1554 2.45774E+02-1.51381E+03 0.00000E+00
 -1      1555-2.26226E+02-1.51381E+03 0.00000E+00
 -1      1556-4.81573E+02-1.51324E+03 0.00000E+00
 -1      1557-9.83335E+00-1.51362E+03 0.00000E+00
 -1      1558-3.70183E+02-1.65804E+03 0.00000E+00
 -1      1559 3.69508E+02-1.65771E+03 0.00000E+00
 -1      1560-3.05615E+02-1.70296E+03 0.00000E+00
 -1      1561 3.05083E+02-1.70324E+03 0.00000E+00
 -1      1562 8.36731E+01-1.55610E+03 0.00000E+00
 -1      1563 3.19658E+02-1.55612E+03 0.00000E+00
 -1      1564-5.40257E+02-1.62775E+03 0.00000E+00
 -1      1565-3.88203E+02-1.55601E+03 0.00000E+00
 -1      1566-1.52342E+02-1.55612E+03 0.00000E+00
 -1      1567 1.53137E+02-1.55511E+03 0.00000E+00
 -1      1568-8.28626E+01-1.55511E+03 0.00000E+00
 -1      1569-3.18863E+02-1.55511E+03 0.00000E+00
 -1      1570 3.87639E+02-1.55571E+03 0.00000E+00
 -1      1571-4.82017E+02-1.62385E+03 0.00000E+00
 -1      1572 4.81792E+02-1.62407E+03 0.00000E+00
 -1      1573 5.07352E+02-1.56717E+03 0.00000E+00
 -1      1574-1.77121E+02-1.59179E+03 0.00000E+00
 -1      1575-5.07352E+02-1.56717E+03 0.00000E+00
 -1      1576-3.39831E+02-1.69626E+03 0.00000E+00
 -1      1577 3.39676E+02-1.69702E+03 0.00000E+00
 -1      1578 2.33803E+02-1.54495E+03 0.00000E+00
 -1      1579-6.02655E+01-1.59107E+03 0.00000E+00
 -1      1580 4.75294E+02-1.54565E+03 0.00000E+00
 -1      1581-4.68688E+02-1.54622E+03 0.00000E+00
 -1      1582 3.12969E+00-1.54592E+03 0.00000E+00
 -1      1583 5.08365E+02-1.65358E+03 0.00000E+00
 -1      1584-5.08365E+02-1.65358E+03 0.00000E+00
 -1      1585-5.73979E+01-1.72944E+03 0.00000E+00
 -1      1586 4.17438E+02-1.53875E+03 0.00000E+00
 -1      1587-1.82170E+02-1.53960E+03 0.00000E+00
 -1      1588 2.89830E+02-1.53960E+03 0.00000E+00
 -1      1589-4.17440E+02-1.53875E+03 0.00000E+00
 -1      1590 5.38428E+01-1.53958E+03 0.00000E+00
 -1      1591-5.42647E+01-1.53887E+03 0.00000E+00
 -1      1592 1.81735E+02-1.53887E+03 0.00000E+00
 -1      1593-2.90265E+02-1.53887E+03 0.00000E+00
 -1      1594 7.12991E+02-1.43164E+03 0.00000E+00
 -1      1595-7.12994E+02-1.43164E+03 0.00000E+00
 -1      1596 3.22531E+02-1.70025E+03 0.00000E+00
 -1      1597-3.21955E+02-1.70006E+03 0.00000E+00
 -1      1598-2.00122E+02-1.63530E+03 0.00000E+00
 -1      1599 3.93426E+01-1.67857E+03 0.00000E+00
 -1      1600-3.93426E+01-1.67857E+03 0.00000E+00
 -1      1601-7.12827E+02-1.38102E+03 0.00000E+00
 -1      1602 7.12841E+02-1.38102E+03 0.00000E+00
 -1      1603-3.42238E+02-1.60430E+03 0.00000E+00
 -1      1604 1.29762E+02-1.60430E+03 0.00000E+00
 -1      1605 3.65754E+02-1.60422E+03 0.00000E+00
 -1      1606-1.06010E+02-1.60401E+03 0.00000E+00
 -1      1607 3.87414E+02-1.59006E+03 0.00000E+00
 -1      1608-3.20305E+02-1.59002E+03 0.00000E+00
 -1      1609 1.51695E+02-1.59002E+03 0.00000E+00
 -1      1610-8.43052E+01-1.59002E+03 0.00000E+00
 -1      1611-3.10930E+01-1.56136E+03 0.00000E+00
 -1      1612 3.19971E+02-1.59061E+03 0.00000E+00
 -1      1613-3.87560E+02-1.59008E+03 0.00000E+00
 -1      1614 8.39781E+01-1.59059E+03 0.00000E+00
 -1      1615-1.52029E+02-1.59061E+03 0.00000E+00
 -1      1616-3.07804E+02-1.66895E+03 0.00000E+00
 -1      1617 3.08053E+02-1.66859E+03 0.00000E+00
 -1      1618 2.73835E+01-1.70208E+03 0.00000E+00
 -1      1619-2.71140E+01-1.70100E+03 0.00000E+00
 -1      1620-5.16041E+02-1.53323E+03 0.00000E+00
 -1      1621 5.16040E+02-1.53323E+03 0.00000E+00
 -1      1622 3.38098E+02-1.60003E+03 0.00000E+00
 -1      1623-3.70153E+02-1.59960E+03 0.00000E+00
 -1      1624 1.02096E+02-1.60002E+03 0.00000E+00
 -1      1625-1.33902E+02-1.60003E+03 0.00000E+00
 -1      1626 4.62208E+02-1.54673E+03 0.00000E+00
 -1      1627-2.26212E+02-1.54674E+03 0.00000E+00
 -1      1628 2.45884E+02-1.54571E+03 0.00000E+00
 -1      1629-4.81705E+02-1.54693E+03 0.00000E+00
 -1      1630-9.63576E+00-1.54666E+03 0.00000E+00
 -1      1631 3.27434E+02-1.66574E+03 0.00000E+00
 -1      1632-8.06325E+02-1.49649E+03 0.00000E+00
 -1      1633-8.03747E+02-1.50116E+03 0.00000E+00
 -1      1634-8.00982E+02-1.49638E+03 0.00000E+00
 -1      1635-7.98241E+02-1.50117E+03 0.00000E+00
 -1      1636-7.95442E+02-1.49633E+03 0.00000E+00
 -1      1637-7.92637E+02-1.50119E+03 0.00000E+00
 -1      1638-7.89818E+02-1.49630E+03 0.00000E+00
 -1      1639-7.86989E+02-1.50121E+03 0.00000E+00
 -1      1640-7.84151E+02-1.49629E+03 0.00000E+00
 -1      1641-7.81306E+02-1.50122E+03 0.00000E+00
 -1      1642-7.78457E+02-1.49628E+03 0.00000E+00
 -1      1643-7.75601E+02-1.50122E+03 0.00000E+00
 -1      1644-7.72748E+02-1.49627E+03 0.00000E+00
 -1      1645-7.69891E+02-1.50122E+03 0.00000E+00
 -1      1646-7.67037E+02-1.49627E+03 0.00000E+00
 -1      1647-7.64181E+02-1.50122E+03 0.00000E+00
 -1      1648-7.55622E+02-1.49628E+03 0.00000E+00
 -1      1649-7.52770E+02-1.50122E+03 0.00000E+00
 -1      1650-7.81321E+02-1.49148E+03 0.00000E+00
 -1      1651 6.37769E+02-1.58043E+03 0.00000E+00
 -1      1652 7.81091E+02-1.49160E+03 0.00000E+00
 -1      1653-7.55623E+02-1.50616E+03 0.00000E+00
 -1      1654-7.49910E+02-1.50615E+03 0.00000E+00
 -1      1655-7.52769E+02-1.51110E+03 0.00000E+00
 -1      1656-7.47049E+02-1.51110E+03 0.00000E+00
 -1      1657-7.49917E+02-1.49628E+03 0.00000E+00
 -1      1658-7.49913E+02-1.51605E+03 0.00000E+00
 -1      1659-7.44186E+02-1.51605E+03 0.00000E+00
 -1      1660-7.52840E+02-1.49129E+03 0.00000E+00
 -1      1661-7.72693E+02-1.50606E+03 0.00000E+00
 -1      1662-7.47073E+02-1.49133E+03 0.00000E+00
 -1      1663-7.47054E+02-1.52099E+03 0.00000E+00
 -1      1664-7.41320E+02-1.52101E+03 0.00000E+00
 -1      1665-7.50001E+02-1.48634E+03 0.00000E+00
 -1      1666-7.52725E+02-1.52096E+03 0.00000E+00
 -1      1667-7.44184E+02-1.52595E+03 0.00000E+00
 -1      1668-7.38456E+02-1.52598E+03 0.00000E+00
 -1      1669-7.44202E+02-1.48639E+03 0.00000E+00
 -1      1670-7.47076E+02-1.48143E+03 0.00000E+00
 -1      1671 8.06326E+02-1.49649E+03 0.00000E+00
 -1      1672 8.03748E+02-1.50116E+03 0.00000E+00
 -1      1673 8.01040E+02-1.49636E+03 0.00000E+00
 -1      1674 7.98234E+02-1.50117E+03 0.00000E+00
 -1      1675 7.95450E+02-1.49639E+03 0.00000E+00
 -1      1676 7.92637E+02-1.50120E+03 0.00000E+00
 -1      1677 7.89834E+02-1.49631E+03 0.00000E+00
 -1      1678 7.86991E+02-1.50121E+03 0.00000E+00
 -1      1679 7.84154E+02-1.49629E+03 0.00000E+00
 -1      1680 7.81307E+02-1.50122E+03 0.00000E+00
 -1      1681 7.78458E+02-1.49628E+03 0.00000E+00
 -1      1682 7.75602E+02-1.50122E+03 0.00000E+00
 -1      1683 7.72748E+02-1.49627E+03 0.00000E+00
 -1      1684 7.69891E+02-1.50122E+03 0.00000E+00
 -1      1685 7.67277E+02-1.49641E+03 0.00000E+00
 -1      1686 7.64221E+02-1.50124E+03 0.00000E+00
 -1      1687 7.61647E+02-1.49545E+03 0.00000E+00
 -1      1688 7.58534E+02-1.50108E+03 0.00000E+00
 -1      1689 7.55621E+02-1.49628E+03 0.00000E+00
 -1      1690 7.52787E+02-1.50120E+03 0.00000E+00
 -1      1691 7.55621E+02-1.50615E+03 0.00000E+00
 -1      1692 7.49925E+02-1.50616E+03 0.00000E+00
 -1      1693 7.52770E+02-1.51110E+03 0.00000E+00
 -1      1694 7.47058E+02-1.51110E+03 0.00000E+00
 -1      1695 7.49915E+02-1.49630E+03 0.00000E+00
 -1      1696 7.49915E+02-1.51605E+03 0.00000E+00
 -1      1697 7.44195E+02-1.51605E+03 0.00000E+00
 -1      1698 7.52674E+02-1.49139E+03 0.00000E+00
 -1      1699 7.72694E+02-1.50606E+03 0.00000E+00
 -1      1700 7.47062E+02-1.49134E+03 0.00000E+00
 -1      1701 7.47056E+02-1.52099E+03 0.00000E+00
 -1      1702 7.41328E+02-1.52101E+03 0.00000E+00
 -1      1703 7.49903E+02-1.48640E+03 0.00000E+00
 -1      1704 7.52725E+02-1.52096E+03 0.00000E+00
 -1      1705 7.44186E+02-1.52595E+03 0.00000E+00
 -1      1706 7.38458E+02-1.52598E+03 0.00000E+00
 -1      1707 7.44199E+02-1.48639E+03 0.00000E+00
 -1      1708 7.47060E+02-1.48144E+03 0.00000E+00
 -1      1709-7.41137E+02-1.41434E+03 0.00000E+00
 -1      1710-4.45113E+02-1.55602E+03 0.00000E+00
 -1      1711-2.08851E+02-1.55634E+03 0.00000E+00
 -1      1712 2.63149E+02-1.55634E+03 0.00000E+00
 -1      1713 2.70445E+01-1.55621E+03 0.00000E+00
 -1      1714-2.73285E+01-1.55688E+03 0.00000E+00
 -1      1715 2.08283E+02-1.55601E+03 0.00000E+00
 -1      1716 4.44958E+02-1.55556E+03 0.00000E+00
 -1      1717-1.13267E+02-1.57323E+03 0.00000E+00
 -1      1718 3.58921E+02-1.57324E+03 0.00000E+00
 -1      1719-3.49267E+02-1.57323E+03 0.00000E+00
 -1      1720 1.22733E+02-1.57323E+03 0.00000E+00
 -1      1721 3.05987E+01-1.52494E+03 0.00000E+00
 -1      1722 5.01270E+02-1.52466E+03 0.00000E+00
 -1      1723-4.41954E+02-1.52461E+03 0.00000E+00
 -1      1724 2.05735E+02-1.52501E+03 0.00000E+00
 -1      1725-2.66265E+02-1.52501E+03 0.00000E+00
 -1      1726 7.12752E+02-1.39775E+03 0.00000E+00
 -1      1727-7.12752E+02-1.39775E+03 0.00000E+00
 -1      1728 7.95476E+02-1.50604E+03 0.00000E+00
 -1      1729-7.41318E+02-1.53094E+03 0.00000E+00
 -1      1730 7.41320E+02-1.53094E+03 0.00000E+00
 -1      1731 7.35578E+02-1.53095E+03 0.00000E+00
 -1      1732-7.38455E+02-1.53591E+03 0.00000E+00
 -1      1733-7.32708E+02-1.53592E+03 0.00000E+00
 -1      1734-7.29835E+02-1.53095E+03 0.00000E+00
 -1      1735-7.26962E+02-1.53591E+03 0.00000E+00
 -1      1736 7.38455E+02-1.53591E+03 0.00000E+00
 -1      1737 7.32708E+02-1.53592E+03 0.00000E+00
 -1      1738 7.29831E+02-1.53095E+03 0.00000E+00
 -1      1739 7.26962E+02-1.53591E+03 0.00000E+00
 -1      1740-4.46339E+02-1.67081E+03 0.00000E+00
 -1      1741 7.44117E+02-1.42657E+03 0.00000E+00
 -1      1742-7.44215E+02-1.42655E+03 0.00000E+00
 -1      1743 4.86492E+02-1.51609E+03 0.00000E+00
 -1      1744-4.56891E+02-1.51612E+03 0.00000E+00
 -1      1745 1.47500E+01-1.51646E+03 0.00000E+00
 -1      1746 2.20934E+02-1.51691E+03 0.00000E+00
 -1      1747-2.51066E+02-1.51691E+03 0.00000E+00
 -1      1748 2.71703E+02-1.63572E+03 0.00000E+00
 -1      1749 7.41288E+02-1.51111E+03 0.00000E+00
 -1      1750-7.41327E+02-1.51110E+03 0.00000E+00
 -1      1751-3.73995E+02-1.68930E+03 0.00000E+00
 -1      1752 3.74328E+02-1.68874E+03 0.00000E+00
 -1      1753-3.63339E+02-1.57001E+03 0.00000E+00
 -1      1754 3.44604E+02-1.57031E+03 0.00000E+00
 -1      1755 1.08613E+02-1.57030E+03 0.00000E+00
 -1      1756-1.27396E+02-1.57031E+03 0.00000E+00
 -1      1757 7.44857E+02-1.37751E+03 0.00000E+00
 -1      1758-7.44929E+02-1.37721E+03 0.00000E+00
 -1      1759-7.41325E+02-1.48144E+03 0.00000E+00
 -1      1760-7.44202E+02-1.47647E+03 0.00000E+00
 -1      1761 7.38474E+02-1.47647E+03 0.00000E+00
 -1      1762 7.41338E+02-1.48143E+03 0.00000E+00
 -1      1763 7.44202E+02-1.47647E+03 0.00000E+00
 -1      1764 7.24091E+02-1.53095E+03 0.00000E+00
 -1      1765 7.21220E+02-1.53592E+03 0.00000E+00
 -1      1766-7.24093E+02-1.53095E+03 0.00000E+00
 -1      1767-7.21221E+02-1.53592E+03 0.00000E+00
 -1      1768-2.01583E+02-1.52781E+03 0.00000E+00
 -1      1769 2.70417E+02-1.52781E+03 0.00000E+00
 -1      1770-3.48032E+01-1.52757E+03 0.00000E+00
 -1      1771 4.37504E+02-1.52774E+03 0.00000E+00
 -1      1772-4.93551E+02-1.55190E+03 0.00000E+00
 -1      1773 7.41411E+02-1.38957E+03 0.00000E+00
 -1      1774-7.41411E+02-1.38957E+03 0.00000E+00
 -1      1775-7.41279E+02-1.49135E+03 0.00000E+00
 -1      1776 7.18353E+02-1.53095E+03 0.00000E+00
 -1      1777 7.15482E+02-1.53591E+03 0.00000E+00
 -1      1778 7.18347E+02-1.54089E+03 0.00000E+00
 -1      1779 7.12602E+02-1.54088E+03 0.00000E+00
 -1      1780 7.15473E+02-1.54586E+03 0.00000E+00
 -1      1781 7.09726E+02-1.54586E+03 0.00000E+00
 -1      1782 7.06857E+02-1.54088E+03 0.00000E+00
 -1      1783 7.03980E+02-1.54585E+03 0.00000E+00
 -1      1784-7.18353E+02-1.53095E+03 0.00000E+00
 -1      1785-7.15482E+02-1.53591E+03 0.00000E+00
 -1      1786-7.18347E+02-1.54089E+03 0.00000E+00
 -1      1787-7.12602E+02-1.54088E+03 0.00000E+00
 -1      1788-7.15473E+02-1.54586E+03 0.00000E+00
 -1      1789-7.09726E+02-1.54586E+03 0.00000E+00
 -1      1790-7.06857E+02-1.54088E+03 0.00000E+00
 -1      1791-7.03980E+02-1.54585E+03 0.00000E+00
 -1      1792 4.93380E+02-1.55223E+03 0.00000E+00
 -1      1793 3.73326E+02-1.56413E+03 0.00000E+00
 -1      1794-3.34333E+02-1.56471E+03 0.00000E+00
 -1      1795-9.83333E+01-1.56471E+03 0.00000E+00
 -1      1796 1.37667E+02-1.56471E+03 0.00000E+00
 -1      1797 7.52361E+02-1.48151E+03 0.00000E+00
 -1      1798-7.52786E+02-1.48144E+03 0.00000E+00
 -1      1799-5.01270E+02-1.52466E+03 0.00000E+00
 -1      1800-7.38473E+02-1.47647E+03 0.00000E+00
 -1      1801 7.41339E+02-1.47151E+03 0.00000E+00
 -1      1802 7.69938E+02-1.49123E+03 0.00000E+00
 -1      1803-7.69906E+02-1.49153E+03 0.00000E+00
 -1      1804-7.35606E+02-1.54087E+03 0.00000E+00
 -1      1805 7.35606E+02-1.54087E+03 0.00000E+00
 -1      1806-2.92103E+01-1.73055E+03 0.00000E+00
 -1      1807 2.94713E+01-1.72927E+03 0.00000E+00
 -1      1808 7.12648E+02-1.41455E+03 0.00000E+00
 -1      1809-7.12648E+02-1.41455E+03 0.00000E+00
 -1      1810-5.50255E+02-1.61044E+03 0.00000E+00
 -1      1811-7.22864E+02-1.36307E+03 0.00000E+00
 -1      1812-7.92351E+01-1.70945E+03 0.00000E+00
 -1      1813 7.22870E+02-1.36306E+03 0.00000E+00
 -1      1814-9.61033E+01-1.59495E+03 0.00000E+00
 -1      1815-3.32103E+02-1.59495E+03 0.00000E+00
 -1      1816 3.76063E+02-1.59457E+03 0.00000E+00
 -1      1817 1.39897E+02-1.59495E+03 0.00000E+00
 -1      1818 7.40137E+02-1.40228E+03 0.00000E+00
 -1      1819-4.01127E+02-1.58885E+03 0.00000E+00
 -1      1820-7.40137E+02-1.40228E+03 0.00000E+00
 -1      1821 7.01116E+02-1.54087E+03 0.00000E+00
 -1      1822 6.98239E+02-1.54584E+03 0.00000E+00
 -1      1823 7.01102E+02-1.55081E+03 0.00000E+00
 -1      1824 6.95358E+02-1.55081E+03 0.00000E+00
 -1      1825 6.92479E+02-1.54584E+03 0.00000E+00
 -1      1826 6.89598E+02-1.55080E+03 0.00000E+00
 -1      1827 6.92472E+02-1.55577E+03 0.00000E+00
 -1      1828 6.86727E+02-1.55576E+03 0.00000E+00
 -1      1829-7.01120E+02-1.54087E+03 0.00000E+00
 -1      1830-6.98241E+02-1.54584E+03 0.00000E+00
 -1      1831-7.01102E+02-1.55081E+03 0.00000E+00
 -1      1832-6.95359E+02-1.55081E+03 0.00000E+00
 -1      1833-6.92509E+02-1.54583E+03 0.00000E+00
 -1      1834-6.89619E+02-1.55079E+03 0.00000E+00
 -1      1835-6.92476E+02-1.55577E+03 0.00000E+00
 -1      1836-6.86731E+02-1.55576E+03 0.00000E+00
 -1      1837-4.56020E+02-1.54910E+03 0.00000E+00
 -1      1838-2.52023E+02-1.54888E+03 0.00000E+00
 -1      1839 2.19977E+02-1.54888E+03 0.00000E+00
 -1      1840 1.56317E+01-1.54910E+03 0.00000E+00
 -1      1841 1.30139E+02-1.65333E+03 0.00000E+00
 -1      1842-1.06276E+02-1.65320E+03 0.00000E+00
 -1      1843-8.08002E+02-1.53002E+03 0.00000E+00
 -1      1844 8.08002E+02-1.53002E+03 0.00000E+00
 -1      1845 6.83848E+02-1.55078E+03 0.00000E+00
 -1      1846 6.80987E+02-1.55574E+03 0.00000E+00
 -1      1847 6.83842E+02-1.56073E+03 0.00000E+00
 -1      1848 6.78096E+02-1.56071E+03 0.00000E+00
 -1      1849 6.75243E+02-1.55573E+03 0.00000E+00
 -1      1850 6.72348E+02-1.56069E+03 0.00000E+00
 -1      1851 6.75204E+02-1.56568E+03 0.00000E+00
 -1      1852 6.69452E+02-1.56566E+03 0.00000E+00
 -1      1853 6.72310E+02-1.57065E+03 0.00000E+00
 -1      1854 6.66557E+02-1.57062E+03 0.00000E+00
 -1      1855 6.63701E+02-1.56563E+03 0.00000E+00
 -1      1856 6.60806E+02-1.57060E+03 0.00000E+00
 -1      1857 6.57957E+02-1.56561E+03 0.00000E+00
 -1      1858 6.55060E+02-1.57057E+03 0.00000E+00
 -1      1859-6.83883E+02-1.55078E+03 0.00000E+00
 -1      1860-6.80988E+02-1.55574E+03 0.00000E+00
 -1      1861-6.83842E+02-1.56073E+03 0.00000E+00
 -1      1862-6.78096E+02-1.56071E+03 0.00000E+00
 -1      1863-6.75243E+02-1.55573E+03 0.00000E+00
 -1      1864-6.72348E+02-1.56069E+03 0.00000E+00
 -1      1865-6.75205E+02-1.56568E+03 0.00000E+00
 -1      1866-6.69452E+02-1.56566E+03 0.00000E+00
 -1      1867-6.72311E+02-1.57065E+03 0.00000E+00
 -1      1868-6.66557E+02-1.57062E+03 0.00000E+00
 -1      1869-6.63701E+02-1.56563E+03 0.00000E+00
 -1      1870-6.60806E+02-1.57060E+03 0.00000E+00
 -1      1871-6.57957E+02-1.56561E+03 0.00000E+00
 -1      1872-6.55060E+02-1.57057E+03 0.00000E+00
 -1      1873 6.52214E+02-1.56558E+03 0.00000E+00
 -1      1874 6.49317E+02-1.57054E+03 0.00000E+00
 -1      1875 6.52164E+02-1.57553E+03 0.00000E+00
 -1      1876 6.46418E+02-1.57550E+03 0.00000E+00
 -1      1877-6.52214E+02-1.56558E+03 0.00000E+00
 -1      1878-6.49317E+02-1.57054E+03 0.00000E+00
 -1      1879-6.52164E+02-1.57553E+03 0.00000E+00
 -1      1880-6.46418E+02-1.57550E+03 0.00000E+00
 -1      1881-2.19233E+02-1.62142E+03 0.00000E+00
 -1      1882 2.20576E+02-1.62194E+03 0.00000E+00
 -1      1883-5.87777E+01-1.66523E+03 0.00000E+00
 -1      1884 5.80276E+01-1.66513E+03 0.00000E+00
 -1      1885-7.35605E+02-1.47151E+03 0.00000E+00
 -1      1886-7.38473E+02-1.46654E+03 0.00000E+00
 -1      1887 7.35603E+02-1.47151E+03 0.00000E+00
 -1      1888 7.38473E+02-1.46654E+03 0.00000E+00
 -1      1889 7.21230E+02-1.52598E+03 0.00000E+00
 -1      1890-7.21228E+02-1.52598E+03 0.00000E+00
 -1      1891 4.28503E+02-1.65280E+03 0.00000E+00
 -1      1892-4.28523E+02-1.65305E+03 0.00000E+00
 -1      1893-7.44216E+02-1.53587E+03 0.00000E+00
 -1      1894 7.44217E+02-1.53588E+03 0.00000E+00
 -1      1895-6.49268E+02-1.58050E+03 0.00000E+00
 -1      1896-6.43517E+02-1.58047E+03 0.00000E+00
 -1      1897-6.40674E+02-1.57547E+03 0.00000E+00
 -1      1898-6.37769E+02-1.58043E+03 0.00000E+00
 -1      1899 6.49268E+02-1.58050E+03 0.00000E+00
 -1      1900 6.43517E+02-1.58047E+03 0.00000E+00
 -1      1901 6.40674E+02-1.57547E+03 0.00000E+00
 -1      1902 3.49585E+02-1.63519E+03 0.00000E+00
 -1      1903 4.34252E+02-1.61532E+03 0.00000E+00
 -1      1904-4.34238E+02-1.61597E+03 0.00000E+00
 -1      1905-2.73836E+02-1.59833E+03 0.00000E+00
 -1      1906 4.33690E+02-1.59753E+03 0.00000E+00
 -1      1907 3.69637E+01-1.61577E+03 0.00000E+00
 -1      1908-7.03989E+02-1.53591E+03 0.00000E+00
 -1      1909 7.03989E+02-1.53591E+03 0.00000E+00
 -1      1910 7.35566E+02-1.48145E+03 0.00000E+00
 -1      1911-7.35551E+02-1.48145E+03 0.00000E+00
 -1      1912 7.12596E+02-1.55084E+03 0.00000E+00
 -1      1913-7.12596E+02-1.55084E+03 0.00000E+00
 -1      1914-7.84169E+02-1.50610E+03 0.00000E+00
 -1      1915-6.78262E+02-1.52480E+03 0.00000E+00
 -1      1916-6.58853E+02-1.53681E+03 0.00000E+00
 -1      1917 6.78279E+02-1.52479E+03 0.00000E+00
 -1      1918 5.30820E+02-1.54179E+03 0.00000E+00
 -1      1919-5.30820E+02-1.54179E+03 0.00000E+00
 -1      1920 6.58853E+02-1.53681E+03 0.00000E+00
 -1      1921-2.79345E+02-1.53312E+03 0.00000E+00
 -1      1922-4.41895E+01-1.53362E+03 0.00000E+00
 -1      1923-1.91920E+02-1.53344E+03 0.00000E+00
 -1      1924-4.27665E+02-1.53341E+03 0.00000E+00
 -1      1925 1.92655E+02-1.53312E+03 0.00000E+00
 -1      1926 4.27750E+02-1.53349E+03 0.00000E+00
 -1      1927 4.40907E+01-1.53343E+03 0.00000E+00
 -1      1928-3.77980E+02-1.56136E+03 0.00000E+00
 -1      1929 9.40764E+01-1.56083E+03 0.00000E+00
 -1      1930 3.30069E+02-1.56085E+03 0.00000E+00
 -1      1931-1.41931E+02-1.56085E+03 0.00000E+00
 -1      1932-2.16673E+02-1.51936E+03 0.00000E+00
 -1      1933 2.55327E+02-1.51936E+03 0.00000E+00
 -1      1934 4.51956E+02-1.51895E+03 0.00000E+00
 -1      1935-2.88093E+02-1.56630E+03 0.00000E+00
 -1      1936-1.94058E+01-1.51891E+03 0.00000E+00
 -1      1937-5.20932E+01-1.56630E+03 0.00000E+00
 -1      1938-7.12843E+02-1.44841E+03 0.00000E+00
 -1      1939 1.83907E+02-1.56630E+03 0.00000E+00
 -1      1940 7.12845E+02-1.44841E+03 0.00000E+00
 -1      1941-6.29119E+02-1.58610E+03 0.00000E+00
 -1      1942 2.80080E+02-1.53344E+03 0.00000E+00
 -1      1943 5.70392E+02-1.62207E+03 0.00000E+00
 -1      1944-4.91421E+02-1.51895E+03 0.00000E+00
 -1      1945-5.90004E+02-1.57608E+03 0.00000E+00
 -1      1946-5.85075E+02-1.57892E+03 0.00000E+00
 -1      1947-5.90010E+02-1.58177E+03 0.00000E+00
 -1      1948-5.85070E+02-1.58463E+03 0.00000E+00
 -1      1949-5.90016E+02-1.58748E+03 0.00000E+00
 -1      1950-5.85075E+02-1.59033E+03 0.00000E+00
 -1      1951-5.80103E+02-1.58744E+03 0.00000E+00
 -1      1952-5.80151E+02-1.59318E+03 0.00000E+00
 -1      1953-5.75141E+02-1.59029E+03 0.00000E+00
 -1      1954-5.75187E+02-1.59605E+03 0.00000E+00
 -1      1955-5.70175E+02-1.59316E+03 0.00000E+00
 -1      1956-5.70186E+02-1.59892E+03 0.00000E+00
 -1      1957-5.65195E+02-1.59603E+03 0.00000E+00
 -1      1958-5.65221E+02-1.60179E+03 0.00000E+00
 -1      1959-5.60228E+02-1.59892E+03 0.00000E+00
 -1      1960-5.60195E+02-1.59313E+03 0.00000E+00
 -1      1961-5.55248E+02-1.59604E+03 0.00000E+00
 -1      1962-5.55242E+02-1.60179E+03 0.00000E+00
 -1      1963-5.50264E+02-1.59891E+03 0.00000E+00
 -1      1964-5.50275E+02-1.59315E+03 0.00000E+00
 -1      1965-5.50253E+02-1.60467E+03 0.00000E+00
 -1      1966-5.45267E+02-1.60178E+03 0.00000E+00
 -1      1967-5.45259E+02-1.60754E+03 0.00000E+00
 -1      1968-5.40270E+02-1.60465E+03 0.00000E+00
 -1      1969-5.40259E+02-1.61042E+03 0.00000E+00
 -1      1970-5.90020E+02-1.59320E+03 0.00000E+00
 -1      1971-5.94978E+02-1.59033E+03 0.00000E+00
 -1      1972-5.45254E+02-1.61331E+03 0.00000E+00
 -1      1973-5.40249E+02-1.61620E+03 0.00000E+00
 -1      1974-5.35251E+02-1.61330E+03 0.00000E+00
 -1      1975-5.35240E+02-1.61908E+03 0.00000E+00
 -1      1976-5.75246E+02-1.60180E+03 0.00000E+00
 -1      1977-5.30236E+02-1.61618E+03 0.00000E+00
 -1      1978-5.30226E+02-1.62197E+03 0.00000E+00
 -1      1979-5.94993E+02-1.59605E+03 0.00000E+00
 -1      1980-5.99954E+02-1.59318E+03 0.00000E+00
 -1      1981-5.25220E+02-1.61906E+03 0.00000E+00
 -1      1982-5.25209E+02-1.62485E+03 0.00000E+00
 -1      1983-5.20200E+02-1.62195E+03 0.00000E+00
 -1      1984-5.20190E+02-1.62774E+03 0.00000E+00
 -1      1985-5.45250E+02-1.61909E+03 0.00000E+00
 -1      1986-5.40279E+02-1.59889E+03 0.00000E+00
 -1      1987-5.30258E+02-1.61040E+03 0.00000E+00
 -1      1988-5.55238E+02-1.60755E+03 0.00000E+00
 -1      1989 5.90004E+02-1.57608E+03 0.00000E+00
 -1      1990 5.85075E+02-1.57892E+03 0.00000E+00
 -1      1991 5.90010E+02-1.58177E+03 0.00000E+00
 -1      1992 5.85070E+02-1.58463E+03 0.00000E+00
 -1      1993 5.90016E+02-1.58748E+03 0.00000E+00
 -1      1994 5.85075E+02-1.59033E+03 0.00000E+00
 -1      1995 5.80103E+02-1.58744E+03 0.00000E+00
 -1      1996 5.80151E+02-1.59318E+03 0.00000E+00
 -1      1997 5.75141E+02-1.59029E+03 0.00000E+00
 -1      1998 5.75187E+02-1.59605E+03 0.00000E+00
 -1      1999 5.70175E+02-1.59316E+03 0.00000E+00
 -1      2000 5.70186E+02-1.59892E+03 0.00000E+00
 -1      2001 5.65195E+02-1.59603E+03 0.00000E+00
 -1      2002 5.65221E+02-1.60179E+03 0.00000E+00
 -1      2003 5.60228E+02-1.59892E+03 0.00000E+00
 -1      2004 5.60195E+02-1.59313E+03 0.00000E+00
 -1      2005 5.55248E+02-1.59604E+03 0.00000E+00
 -1      2006 5.55242E+02-1.60179E+03 0.00000E+00
 -1      2007 5.50259E+02-1.59890E+03 0.00000E+00
 -1      2008 5.50275E+02-1.59315E+03 0.00000E+00
 -1      2009 5.50252E+02-1.60467E+03 0.00000E+00
 -1      2010 5.45264E+02-1.60177E+03 0.00000E+00
 -1      2011 5.45258E+02-1.60754E+03 0.00000E+00
 -1      2012 5.40269E+02-1.60465E+03 0.00000E+00
 -1      2013 5.40259E+02-1.61042E+03 0.00000E+00
 -1      2014 5.90020E+02-1.59320E+03 0.00000E+00
 -1      2015 5.94978E+02-1.59033E+03 0.00000E+00
 -1      2016 5.45254E+02-1.61331E+03 0.00000E+00
 -1      2017 5.40249E+02-1.61620E+03 0.00000E+00
 -1      2018 5.35251E+02-1.61330E+03 0.00000E+00
 -1      2019 5.35240E+02-1.61908E+03 0.00000E+00
 -1      2020 5.75246E+02-1.60180E+03 0.00000E+00
 -1      2021 5.30236E+02-1.61618E+03 0.00000E+00
 -1      2022 5.30226E+02-1.62197E+03 0.00000E+00
 -1      2023 5.94993E+02-1.59605E+03 0.00000E+00
 -1      2024 5.99954E+02-1.59318E+03 0.00000E+00
 -1      2025 5.25220E+02-1.61906E+03 0.00000E+00
 -1      2026 5.25209E+02-1.62485E+03 0.00000E+00
 -1      2027 5.20258E+02-1.62205E+03 0.00000E+00
 -1      2028 5.20200E+02-1.62776E+03 0.00000E+00
 -1      2029 5.45250E+02-1.61909E+03 0.00000E+00
 -1      2030 5.40277E+02-1.59888E+03 0.00000E+00
 -1      2031 5.30258E+02-1.61040E+03 0.00000E+00
 -1      2032 5.55238E+02-1.60755E+03 0.00000E+00
 -1      2033 3.53994E+02-1.57608E+03 0.00000E+00
 -1      2034 1.17962E+02-1.57608E+03 0.00000E+00
 -1      2035-1.18038E+02-1.57608E+03 0.00000E+00
 -1      2036-3.54038E+02-1.57608E+03 0.00000E+00
 -1      2037 5.70132E+02-1.58738E+03 0.00000E+00
 -1      2038-5.70132E+02-1.58738E+03 0.00000E+00
 -1      2039 5.74443E+02-1.63157E+03 0.00000E+00
 -1      2040-5.74443E+02-1.63157E+03 0.00000E+00
 -1      2041 6.18270E+02-1.61586E+03 0.00000E+00
 -1      2042-6.18270E+02-1.61586E+03 0.00000E+00
 -1      2043 4.61138E+02-1.54094E+03 0.00000E+00
 -1      2044-6.98382E+02-1.58273E+03 0.00000E+00
 -1      2045 6.98382E+02-1.58273E+03 0.00000E+00
 -1      2046-7.65682E+02-1.55074E+03 0.00000E+00
 -1      2047 7.65656E+02-1.55068E+03 0.00000E+00
 -1      2048 1.73620E+01-1.72989E+03 0.00000E+00
 -1      2049-1.73931E+01-1.72996E+03 0.00000E+00
 -1      2050 3.85477E+02-1.68642E+03 0.00000E+00
 -1      2051 6.96714E+01-1.72904E+03 0.00000E+00
 -1      2052-3.85015E+02-1.68652E+03 0.00000E+00
 -1      2053 4.92371E+02-1.65901E+03 0.00000E+00
 -1      2054-4.92370E+02-1.65901E+03 0.00000E+00
 -1      2055 2.93843E+02-1.70509E+03 0.00000E+00
 -1      2056-2.94237E+02-1.70476E+03 0.00000E+00
 -1      2057 2.08206E+02-1.71739E+03 0.00000E+00
 -1      2058-2.08241E+02-1.71766E+03 0.00000E+00
 -1      2059-2.54036E+02-1.71113E+03 0.00000E+00
 -1      2060 1.32476E+02-1.72512E+03 0.00000E+00
 -1      2061-1.32636E+02-1.72438E+03 0.00000E+00
 -1      2062-7.59637E+01-1.72877E+03 0.00000E+00
 -1      2063 7.53646E+01-1.72861E+03 0.00000E+00
 -1      2064 1.10982E+02-1.72666E+03 0.00000E+00
 -1      2065-1.09999E+02-1.72693E+03 0.00000E+00
 -1      2066-2.31128E+02-1.71434E+03 0.00000E+00
 -1      2067-8.14697E+02-1.51047E+03 0.00000E+00
 -1      2068 8.14697E+02-1.51047E+03 0.00000E+00
 -1      2069 2.31525E+02-1.71367E+03 0.00000E+00
 -1      2070 2.54193E+02-1.71135E+03 0.00000E+00
 -1      2071-2.74979E+02-1.58616E+03 0.00000E+00
 -1      2072 1.97021E+02-1.58616E+03 0.00000E+00
 -1      2073 4.32394E+02-1.58572E+03 0.00000E+00
 -1      2074-3.89793E+01-1.58616E+03 0.00000E+00
 -1      2075-1.95193E+02-1.58544E+03 0.00000E+00
 -1      2076 4.37087E+02-1.62870E+03 0.00000E+00
 -1      2077 3.49608E+01-1.62898E+03 0.00000E+00
 -1      2078-4.36890E+02-1.62878E+03 0.00000E+00
 -1      2079 2.76404E+02-1.58488E+03 0.00000E+00
 -1      2080-4.31898E+02-1.58476E+03 0.00000E+00
 -1      2081-3.48897E+01-1.62932E+03 0.00000E+00
 -1      2082 3.97386E+01-1.58514E+03 0.00000E+00
 -1      2083 6.34928E+02-1.57544E+03 0.00000E+00
 -1      2084 6.32026E+02-1.58040E+03 0.00000E+00
 -1      2085-6.34928E+02-1.57544E+03 0.00000E+00
 -1      2086-6.32026E+02-1.58040E+03 0.00000E+00
 -1      2087 6.60853E+02-1.56064E+03 0.00000E+00
 -1      2088-6.60849E+02-1.56064E+03 0.00000E+00
 -1      2089 5.99971E+02-1.59891E+03 0.00000E+00
 -1      2090 6.04932E+02-1.59605E+03 0.00000E+00
 -1      2091 5.95082E+02-1.60176E+03 0.00000E+00
 -1      2092 6.04924E+02-1.59031E+03 0.00000E+00
 -1      2093 6.09902E+02-1.59318E+03 0.00000E+00
 -1      2094 6.09893E+02-1.58743E+03 0.00000E+00
 -1      2095-5.99971E+02-1.59891E+03 0.00000E+00
 -1      2096-6.04932E+02-1.59605E+03 0.00000E+00
 -1      2097-5.95082E+02-1.60176E+03 0.00000E+00
 -1      2098-6.04924E+02-1.59031E+03 0.00000E+00
 -1      2099-6.09902E+02-1.59318E+03 0.00000E+00
 -1      2100-6.09893E+02-1.58743E+03 0.00000E+00
 -1      2101-7.12806E+02-1.48823E+03 0.00000E+00
 -1      2102 7.12804E+02-1.48821E+03 0.00000E+00
 -1      2103 7.47002E+02-1.47147E+03 0.00000E+00
 -1      2104-7.46891E+02-1.47162E+03 0.00000E+00
 -1      2105-8.03827E+02-1.49157E+03 0.00000E+00
 -1      2106 8.03385E+02-1.49191E+03 0.00000E+00
 -1      2107 3.81248E+02-1.66507E+03 0.00000E+00
 -1      2108-3.80244E+02-1.66534E+03 0.00000E+00
 -1      2109-6.35051E+02-1.58529E+03 0.00000E+00
 -1      2110 6.35051E+02-1.58529E+03 0.00000E+00
 -1      2111-3.49435E+02-1.57893E+03 0.00000E+00
 -1      2112-3.54081E+02-1.58178E+03 0.00000E+00
 -1      2113 3.58929E+02-1.57893E+03 0.00000E+00
 -1      2114 3.53985E+02-1.58178E+03 0.00000E+00
 -1      2115-1.13435E+02-1.57893E+03 0.00000E+00
 -1      2116-1.18081E+02-1.58178E+03 0.00000E+00
 -1      2117 1.22565E+02-1.57893E+03 0.00000E+00
 -1      2118 1.17919E+02-1.58178E+03 0.00000E+00
 -1      2119 6.98307E+02-1.51324E+03 0.00000E+00
 -1      2120-6.98297E+02-1.51326E+03 0.00000E+00
 -1      2121-3.61589E+02-1.64715E+03 0.00000E+00
 -1      2122 3.45814E+02-1.64724E+03 0.00000E+00
 -1      2123-7.18874E+02-1.57360E+03 0.00000E+00
 -1      2124 7.18874E+02-1.57360E+03 0.00000E+00
 -1      2125-7.40634E+02-1.56379E+03 0.00000E+00
 -1      2126 7.40634E+02-1.56379E+03 0.00000E+00
 -1      2127 5.98460E+00-1.73025E+03 0.00000E+00
 -1      2128-5.79798E+00-1.73009E+03 0.00000E+00
 -1      2129 7.32731E+02-1.35738E+03 0.00000E+00
 -1      2130-7.32824E+02-1.35733E+03 0.00000E+00
 -1      2131-5.15180E+02-1.62483E+03 0.00000E+00
 -1      2132-5.15169E+02-1.63063E+03 0.00000E+00
 -1      2133 5.15249E+02-1.62495E+03 0.00000E+00
 -1      2134 5.15182E+02-1.63065E+03 0.00000E+00
 -1      2135-4.31046E+02-1.67610E+03 0.00000E+00
 -1      2136 4.30426E+02-1.67521E+03 0.00000E+00
 -1      2137 6.38930E+02-1.54745E+03 0.00000E+00
 -1      2138 7.89827E+02-1.50605E+03 0.00000E+00
 -1      2139-6.38936E+02-1.54746E+03 0.00000E+00
 -1      2140-7.18352E+02-1.55085E+03 0.00000E+00
 -1      2141 7.18352E+02-1.55085E+03 0.00000E+00
 -1      2142-1.58402E+01-1.70814E+03 0.00000E+00
 -1      2143-6.77206E+02-1.59149E+03 0.00000E+00
 -1      2144 6.77206E+02-1.59149E+03 0.00000E+00
 -1      2145-2.17800E+02-1.65019E+03 0.00000E+00
 -1      2146-3.17533E+01-1.71200E+03 0.00000E+00
 -1      2147-2.81773E+01-1.71652E+03 0.00000E+00
 -1      2148-2.21447E+02-1.64569E+03 0.00000E+00
 -1      2149-2.15725E+02-1.64479E+03 0.00000E+00
 -1      2150-2.19372E+02-1.64029E+03 0.00000E+00
 -1      2151-2.12075E+02-1.64929E+03 0.00000E+00
 -1      2152-2.13653E+02-1.63939E+03 0.00000E+00
 -1      2153-2.17557E+02-1.63473E+03 0.00000E+00
 -1      2154-2.11631E+02-1.63396E+03 0.00000E+00
 -1      2155-2.22971E+02-1.63609E+03 0.00000E+00
 -1      2156-2.54180E+02-1.66102E+03 0.00000E+00
 -1      2157-1.73992E+02-1.70421E+03 0.00000E+00
 -1      2158-1.70338E+02-1.70872E+03 0.00000E+00
 -1      2159-1.76068E+02-1.70963E+03 0.00000E+00
 -1      2160-1.64619E+02-1.70780E+03 0.00000E+00
 -1      2161-1.89098E+02-1.70153E+03 0.00000E+00
 -1      2162-1.85445E+02-1.70604E+03 0.00000E+00
 -1      2163-1.91176E+02-1.70695E+03 0.00000E+00
 -1      2164-1.87523E+02-1.71146E+03 0.00000E+00
 -1      2165-8.13018E+01-1.71487E+03 0.00000E+00
 -1      2166-8.33901E+01-1.72028E+03 0.00000E+00
 -1      2167-2.65612E+02-1.66283E+03 0.00000E+00
 -1      2168-2.69254E+02-1.65833E+03 0.00000E+00
 -1      2169-5.01657E+01-1.68954E+03 0.00000E+00
 -1      2170-1.10094E+02-1.66358E+03 0.00000E+00
 -1      2171-2.71331E+02-1.66373E+03 0.00000E+00
 -1      2172-4.81928E+01-1.68414E+03 0.00000E+00
 -1      2173 6.63657E+02-1.57558E+03 0.00000E+00
 -1      2174 6.98260E+02-1.53590E+03 0.00000E+00
 -1      2175-6.98263E+02-1.53590E+03 0.00000E+00
 -1      2176 3.58934E+02-1.58464E+03 0.00000E+00
 -1      2177 3.63487E+02-1.58159E+03 0.00000E+00
 -1      2178 3.53681E+02-1.58754E+03 0.00000E+00
 -1      2179 3.48573E+02-1.58444E+03 0.00000E+00
 -1      2180-3.49137E+02-1.58464E+03 0.00000E+00
 -1      2181-3.44153E+02-1.58059E+03 0.00000E+00
 -1      2182-3.54045E+02-1.58750E+03 0.00000E+00
 -1      2183-3.58698E+02-1.58425E+03 0.00000E+00
 -1      2184-1.13137E+02-1.58464E+03 0.00000E+00
 -1      2185-1.08153E+02-1.58059E+03 0.00000E+00
 -1      2186-1.18342E+02-1.58754E+03 0.00000E+00
 -1      2187-1.23441E+02-1.58444E+03 0.00000E+00
 -1      2188 1.22863E+02-1.58464E+03 0.00000E+00
 -1      2189 1.27847E+02-1.58059E+03 0.00000E+00
 -1      2190 1.17670E+02-1.58752E+03 0.00000E+00
 -1      2191 1.12586E+02-1.58440E+03 0.00000E+00
 -1      2192 6.14875E+02-1.59030E+03 0.00000E+00
 -1      2193 6.14861E+02-1.58456E+03 0.00000E+00
 -1      2194-6.14875E+02-1.59030E+03 0.00000E+00
 -1      2195-6.14862E+02-1.58456E+03 0.00000E+00
 -1      2196-6.78069E+02-1.57067E+03 0.00000E+00
 -1      2197 6.78069E+02-1.57067E+03 0.00000E+00
 -1      2198-1.26000E+02-1.61039E+03 0.00000E+00
 -1      2199 1.09581E+02-1.60998E+03 0.00000E+00
 -1      2200-3.62419E+02-1.60998E+03 0.00000E+00
 -1      2201 3.45424E+02-1.60966E+03 0.00000E+00
 -1      2202 6.14883E+02-1.59605E+03 0.00000E+00
 -1      2203-6.14883E+02-1.59605E+03 0.00000E+00
 -1      2204-3.93805E+02-1.66843E+03 0.00000E+00
 -1      2205 3.94611E+02-1.66872E+03 0.00000E+00
 -1      2206 7.92677E+02-1.49135E+03 0.00000E+00
 -1      2207-7.92519E+02-1.49136E+03 0.00000E+00
 -1      2208 6.29350E+02-1.57532E+03 0.00000E+00
 -1      2209-6.29350E+02-1.57532E+03 0.00000E+00
 -1      2210 1.60282E+01-1.63558E+03 0.00000E+00
 -1      2211-1.54657E+01-1.62220E+03 0.00000E+00
 -1      2212-5.10174E+02-1.62775E+03 0.00000E+00
 -1      2213-5.10150E+02-1.63352E+03 0.00000E+00
 -1      2214 5.10179E+02-1.62776E+03 0.00000E+00
 -1      2215 5.10153E+02-1.63353E+03 0.00000E+00
 -1      2216-7.42583E+02-1.35137E+03 0.00000E+00
 -1      2217 7.43441E+02-1.35109E+03 0.00000E+00
 -1      2218-6.46368E+02-1.58547E+03 0.00000E+00
 -1      2219 6.46368E+02-1.58547E+03 0.00000E+00
 -1      2220-5.05154E+02-1.63064E+03 0.00000E+00
 -1      2221-5.05127E+02-1.63641E+03 0.00000E+00
 -1      2222-5.00113E+02-1.63351E+03 0.00000E+00
 -1      2223-5.00100E+02-1.63930E+03 0.00000E+00
 -1      2224-4.95085E+02-1.63639E+03 0.00000E+00
 -1      2225 5.05147E+02-1.63063E+03 0.00000E+00
 -1      2226 5.05127E+02-1.63641E+03 0.00000E+00
 -1      2227 5.00162E+02-1.63359E+03 0.00000E+00
 -1      2228 5.00108E+02-1.63931E+03 0.00000E+00
 -1      2229 4.95144E+02-1.63649E+03 0.00000E+00
 -1      2230 4.18936E+02-1.67864E+03 0.00000E+00
 -1      2231-4.19136E+02-1.67857E+03 0.00000E+00
 -1      2232 6.05023E+02-1.60175E+03 0.00000E+00
 -1      2233-6.05023E+02-1.60175E+03 0.00000E+00
 -1      2234 5.35230E+02-1.62486E+03 0.00000E+00
 -1      2235-5.35230E+02-1.62486E+03 0.00000E+00
 -1      2236-5.25202E+02-1.63064E+03 0.00000E+00
 -1      2237 5.25204E+02-1.63064E+03 0.00000E+00
 -1      2238 7.18365E+02-1.52102E+03 0.00000E+00
 -1      2239-7.18360E+02-1.52102E+03 0.00000E+00
 -1      2240 8.05679E+02-1.47280E+03 0.00000E+00
 -1      2241-8.05884E+02-1.47276E+03 0.00000E+00
 -1      2242 6.49365E+02-1.56061E+03 0.00000E+00
 -1      2243-6.49365E+02-1.56061E+03 0.00000E+00
 -1      2244-7.35576E+02-1.52101E+03 0.00000E+00
 -1      2245 7.35593E+02-1.52100E+03 0.00000E+00
 -1      2246 4.49899E+00-1.51041E+03 0.00000E+00
 -1      2247-4.67083E+02-1.51078E+03 0.00000E+00
 -1      2248 2.30968E+02-1.51058E+03 0.00000E+00
 -1      2249-2.41032E+02-1.51058E+03 0.00000E+00
 -1      2250 4.76702E+02-1.51052E+03 0.00000E+00
 -1      2251 7.58449E+02-1.51108E+03 0.00000E+00
 -1      2252-7.58449E+02-1.51108E+03 0.00000E+00
 -1      2253-5.80165E+02-1.57606E+03 0.00000E+00
 -1      2254 5.80165E+02-1.57606E+03 0.00000E+00
 -1      2255 4.07132E+02-1.68165E+03 0.00000E+00
 -1      2256-4.07648E+02-1.68143E+03 0.00000E+00
 -1      2257 3.93807E+00-1.71192E+03 0.00000E+00
 -1      2258-7.29875E+02-1.47150E+03 0.00000E+00
 -1      2259 7.29876E+02-1.47150E+03 0.00000E+00
 -1      2260-5.10382E+02-1.62229E+03 0.00000E+00
 -1      2261 5.10960E+02-1.62196E+03 0.00000E+00
 -1      2262-7.15469E+02-1.55583E+03 0.00000E+00
 -1      2263 7.15469E+02-1.55583E+03 0.00000E+00
 -1      2264-5.20220E+02-1.61616E+03 0.00000E+00
 -1      2265 5.20213E+02-1.61616E+03 0.00000E+00
 -1      2266-6.52129E+02-1.58550E+03 0.00000E+00
 -1      2267 6.52129E+02-1.58550E+03 0.00000E+00
 -1      2268-6.19864E+02-1.59316E+03 0.00000E+00
 -1      2269 6.19864E+02-1.59316E+03 0.00000E+00
 -1      2270 7.01127E+02-1.53095E+03 0.00000E+00
 -1      2271-7.01127E+02-1.53095E+03 0.00000E+00
 -1      2272-7.29846E+02-1.45161E+03 0.00000E+00
 -1      2273-7.32715E+02-1.44663E+03 0.00000E+00
 -1      2274 7.29846E+02-1.45161E+03 0.00000E+00
 -1      2275 7.32715E+02-1.44663E+03 0.00000E+00
 -1      2276-7.50608E+02-1.36588E+03 0.00000E+00
 -1      2277 7.50396E+02-1.36631E+03 0.00000E+00
 -1      2278 6.32111E+02-1.57045E+03 0.00000E+00
 -1      2279-6.32111E+02-1.57045E+03 0.00000E+00
 -1      2280-3.74661E+02-1.68016E+03 0.00000E+00
 -1      2281 4.19078E+02-1.66195E+03 0.00000E+00
 -1      2282-4.19578E+02-1.66226E+03 0.00000E+00
 -1      2283 7.44233E+02-1.45658E+03 0.00000E+00
 -1      2284-7.44233E+02-1.45658E+03 0.00000E+00
 -1      2285-4.11454E+02-1.67075E+03 0.00000E+00
 -1      2286 2.00652E+02-1.62148E+03 0.00000E+00
 -1      2287 3.92555E+01-1.66534E+03 0.00000E+00
 -1      2288-2.01095E+02-1.62248E+03 0.00000E+00
 -1      2289-3.92747E+01-1.66558E+03 0.00000E+00
 -1      2290-3.45245E+02-1.64753E+03 0.00000E+00
 -1      2291 4.95086E+02-1.64220E+03 0.00000E+00
 -1      2292 4.90070E+02-1.63930E+03 0.00000E+00
 -1      2293-4.95074E+02-1.64219E+03 0.00000E+00
 -1      2294-4.90201E+02-1.63953E+03 0.00000E+00
 -1      2295 1.11876E+02-1.64154E+03 0.00000E+00
 -1      2296-1.23475E+02-1.64165E+03 0.00000E+00
 -1      2297 1.83870E+02-1.59588E+03 0.00000E+00
 -1      2298-5.21297E+01-1.59588E+03 0.00000E+00
 -1      2299-2.88751E+02-1.59613E+03 0.00000E+00
 -1      2300 4.18604E+02-1.59478E+03 0.00000E+00
 -1      2301-4.37570E+02-1.60642E+03 0.00000E+00
 -1      2302 5.29841E+01-1.59531E+03 0.00000E+00
 -1      2303 3.65894E+02-1.65344E+03 0.00000E+00
 -1      2304-1.83016E+02-1.59531E+03 0.00000E+00
 -1      2305 2.89431E+02-1.59543E+03 0.00000E+00
 -1      2306 2.14844E+01-1.61856E+03 0.00000E+00
 -1      2307-2.16108E+01-1.63872E+03 0.00000E+00
 -1      2308-4.49536E+02-1.61863E+03 0.00000E+00
 -1      2309 4.50767E+02-1.61857E+03 0.00000E+00
 -1      2310 8.26467E+02-1.48291E+03 0.00000E+00
 -1      2311-8.26746E+02-1.48294E+03 0.00000E+00
 -1      2312-6.75169E+02-1.57565E+03 0.00000E+00
 -1      2313 6.75169E+02-1.57565E+03 0.00000E+00
 -1      2314-7.21236E+02-1.55584E+03 0.00000E+00
 -1      2315 7.21236E+02-1.55584E+03 0.00000E+00
 -1      2316 7.57089E+02-1.35634E+03 0.00000E+00
 -1      2317-7.58123E+02-1.35602E+03 0.00000E+00
 -1      2318-7.27011E+02-1.46655E+03 0.00000E+00
 -1      2319 7.27010E+02-1.46655E+03 0.00000E+00
 -1      2320 7.12611E+02-1.52103E+03 0.00000E+00
 -1      2321-7.12610E+02-1.52103E+03 0.00000E+00
 -1      2322 5.10139E+02-1.63931E+03 0.00000E+00
 -1      2323-5.10139E+02-1.63931E+03 0.00000E+00
 -1      2324-7.26969E+02-1.44664E+03 0.00000E+00
 -1      2325-7.29837E+02-1.44166E+03 0.00000E+00
 -1      2326 7.26971E+02-1.44664E+03 0.00000E+00
 -1      2327 7.29837E+02-1.44166E+03 0.00000E+00
 -1      2328-3.96813E+02-1.68410E+03 0.00000E+00
 -1      2329 3.96986E+02-1.68315E+03 0.00000E+00
 -1      2330-2.67735E+01-1.61490E+03 0.00000E+00
 -1      2331 2.70144E+01-1.64265E+03 0.00000E+00
 -1      2332 5.31336E+01-1.66780E+03 0.00000E+00
 -1      2333 7.24094E+02-1.44168E+03 0.00000E+00
 -1      2334 7.26956E+02-1.43669E+03 0.00000E+00
 -1      2335-7.24096E+02-1.44167E+03 0.00000E+00
 -1      2336-7.26958E+02-1.43669E+03 0.00000E+00
 -1      2337 6.43622E+02-1.56059E+03 0.00000E+00
 -1      2338-6.43624E+02-1.56059E+03 0.00000E+00
 -1      2339 6.19873E+02-1.59892E+03 0.00000E+00
 -1      2340 6.24857E+02-1.59603E+03 0.00000E+00
 -1      2341-6.19873E+02-1.59892E+03 0.00000E+00
 -1      2342-6.24857E+02-1.59603E+03 0.00000E+00
 -1      2343-3.49075E+02-1.59036E+03 0.00000E+00
 -1      2344-3.54035E+02-1.59323E+03 0.00000E+00
 -1      2345 3.58891E+02-1.59037E+03 0.00000E+00
 -1      2346 3.53617E+02-1.59328E+03 0.00000E+00
 -1      2347 1.22877E+02-1.59037E+03 0.00000E+00
 -1      2348 1.17624E+02-1.59326E+03 0.00000E+00
 -1      2349-1.13125E+02-1.59037E+03 0.00000E+00
 -1      2350-1.18389E+02-1.59328E+03 0.00000E+00
 -1      2351-6.09890E+02-1.58170E+03 0.00000E+00
 -1      2352-6.14846E+02-1.57883E+03 0.00000E+00
 -1      2353 6.09890E+02-1.58170E+03 0.00000E+00
 -1      2354 6.14846E+02-1.57883E+03 0.00000E+00
 -1      2355 7.32518E+02-1.43669E+03 0.00000E+00
 -1      2356 7.29708E+02-1.43166E+03 0.00000E+00
 -1      2357-7.32569E+02-1.43655E+03 0.00000E+00
 -1      2358-7.29722E+02-1.43167E+03 0.00000E+00
 -1      2359-7.24119E+02-1.55084E+03 0.00000E+00
 -1      2360 7.24119E+02-1.55084E+03 0.00000E+00
 -1      2361 4.90052E+02-1.64508E+03 0.00000E+00
 -1      2362 4.85033E+02-1.64217E+03 0.00000E+00
 -1      2363-4.90072E+02-1.64512E+03 0.00000E+00
 -1      2364-4.85201E+02-1.64246E+03 0.00000E+00
 -1      2365-7.27009E+02-1.55584E+03 0.00000E+00
 -1      2366 7.27009E+02-1.55584E+03 0.00000E+00
 -1      2367 3.58766E+02-1.61528E+03 0.00000E+00
 -1      2368-1.12238E+02-1.61574E+03 0.00000E+00
 -1      2369 1.23475E+02-1.61575E+03 0.00000E+00
 -1      2370-3.48525E+02-1.61575E+03 0.00000E+00
 -1      2371 6.26406E+02-1.57029E+03 0.00000E+00
 -1      2372-6.26406E+02-1.57029E+03 0.00000E+00
 -1      2373 4.85022E+02-1.64797E+03 0.00000E+00
 -1      2374 4.80004E+02-1.64506E+03 0.00000E+00
 -1      2375 4.79919E+02-1.63942E+03 0.00000E+00
 -1      2376 4.74971E+02-1.64218E+03 0.00000E+00
 -1      2377 4.74973E+02-1.64795E+03 0.00000E+00
 -1      2378 4.69958E+02-1.64504E+03 0.00000E+00
 -1      2379 4.69969E+02-1.63925E+03 0.00000E+00
 -1      2380 4.65108E+02-1.64241E+03 0.00000E+00
 -1      2381 4.64961E+02-1.64797E+03 0.00000E+00
 -1      2382 4.60114E+02-1.64535E+03 0.00000E+00
 -1      2383 4.59945E+02-1.65087E+03 0.00000E+00
 -1      2384 4.54953E+02-1.64800E+03 0.00000E+00
 -1      2385 4.55324E+02-1.64163E+03 0.00000E+00
 -1      2386 4.54898E+02-1.65372E+03 0.00000E+00
 -1      2387 4.49900E+02-1.65084E+03 0.00000E+00
 -1      2388 4.49863E+02-1.65660E+03 0.00000E+00
 -1      2389 4.44911E+02-1.65379E+03 0.00000E+00
 -1      2390-4.85053E+02-1.64802E+03 0.00000E+00
 -1      2391-4.80037E+02-1.64512E+03 0.00000E+00
 -1      2392-4.80688E+02-1.63888E+03 0.00000E+00
 -1      2393-4.75106E+02-1.64209E+03 0.00000E+00
 -1      2394-4.75001E+02-1.64795E+03 0.00000E+00
 -1      2395-4.69985E+02-1.64503E+03 0.00000E+00
 -1      2396-4.69997E+02-1.63923E+03 0.00000E+00
 -1      2397-4.64956E+02-1.64212E+03 0.00000E+00
 -1      2398-4.64936E+02-1.64792E+03 0.00000E+00
 -1      2399-4.59923E+02-1.64501E+03 0.00000E+00
 -1      2400-4.59909E+02-1.65081E+03 0.00000E+00
 -1      2401-4.54974E+02-1.64804E+03 0.00000E+00
 -1      2402-4.55280E+02-1.64237E+03 0.00000E+00
 -1      2403-4.54895E+02-1.65372E+03 0.00000E+00
 -1      2404-4.49962E+02-1.65095E+03 0.00000E+00
 -1      2405-4.49872E+02-1.65661E+03 0.00000E+00
 -1      2406-4.44935E+02-1.65384E+03 0.00000E+00
 -1      2407 6.95407E+02-1.53094E+03 0.00000E+00
 -1      2408-6.95407E+02-1.53094E+03 0.00000E+00
 -1      2409-6.80937E+02-1.57567E+03 0.00000E+00
 -1      2410 6.80937E+02-1.57567E+03 0.00000E+00
 -1      2411-7.59202E+02-1.34231E+03 0.00000E+00
 -1      2412 7.58847E+02-1.34249E+03 0.00000E+00
 -1      2413 1.09643E+02-1.68333E+03 0.00000E+00
 -1      2414-2.71348E+02-1.62148E+03 0.00000E+00
 -1      2415-1.13093E+02-1.69960E+03 0.00000E+00
 -1      2416 2.71457E+02-1.62242E+03 0.00000E+00
 -1      2417 7.38466E+02-1.44672E+03 0.00000E+00
 -1      2418-7.38466E+02-1.44672E+03 0.00000E+00
 -1      2419-4.06705E+02-1.66739E+03 0.00000E+00
 -1      2420 4.06341E+02-1.66775E+03 0.00000E+00
 -1      2421 4.64925E+02-1.65372E+03 0.00000E+00
 -1      2422-4.18262E+02-1.66878E+03 0.00000E+00
 -1      2423-4.64922E+02-1.65372E+03 0.00000E+00
 -1      2424 8.30671E+02-1.46976E+03 0.00000E+00
 -1      2425-8.30611E+02-1.46982E+03 0.00000E+00
 -1      2426 8.18796E+02-1.47222E+03 0.00000E+00
 -1      2427-8.18215E+02-1.47332E+03 0.00000E+00
 -1      2428-7.40274E+02-1.40842E+03 0.00000E+00
 -1      2429-7.24357E+02-1.45164E+03 0.00000E+00
 -1      2430 7.24359E+02-1.45164E+03 0.00000E+00
 -1      2431-3.58505E+02-1.63478E+03 0.00000E+00
 -1      2432 2.85015E+01-1.53529E+03 0.00000E+00
 -1      2433 3.26524E+01-1.53928E+03 0.00000E+00
 -1      2434 3.06111E+01-1.54494E+03 0.00000E+00
 -1      2435 3.66778E+01-1.54336E+03 0.00000E+00
 -1      2436 3.48035E+01-1.54890E+03 0.00000E+00
 -1      2437 4.06386E+01-1.54743E+03 0.00000E+00
 -1      2438 3.89278E+01-1.55295E+03 0.00000E+00
 -1      2439 4.46878E+01-1.55150E+03 0.00000E+00
 -1      2440 4.31640E+01-1.55703E+03 0.00000E+00
 -1      2441 4.87602E+01-1.55559E+03 0.00000E+00
 -1      2442 4.72343E+01-1.56111E+03 0.00000E+00
 -1      2443 5.12720E+01-1.56519E+03 0.00000E+00
 -1      2444 5.68371E+01-1.56374E+03 0.00000E+00
 -1      2445 5.27978E+01-1.55966E+03 0.00000E+00
 -1      2446-3.78363E+01-1.59833E+03 0.00000E+00
 -1      2447 1.98164E+02-1.59833E+03 0.00000E+00
 -1      2448-3.76489E+01-1.64170E+03 0.00000E+00
 -1      2449 3.78363E+01-1.59833E+03 0.00000E+00
 -1      2450-1.98285E+02-1.59758E+03 0.00000E+00
 -1      2451 2.73151E+02-1.59840E+03 0.00000E+00
 -1      2452-4.34467E+02-1.59804E+03 0.00000E+00
 -1      2453 4.44840E+02-1.65949E+03 0.00000E+00
 -1      2454-4.44846E+02-1.65950E+03 0.00000E+00
 -1      2455 9.62331E+00-1.62335E+03 0.00000E+00
 -1      2456-9.79157E+00-1.63333E+03 0.00000E+00
 -1      2457-6.49224E+02-1.59048E+03 0.00000E+00
 -1      2458 6.49224E+02-1.59048E+03 0.00000E+00
 -1      2459-4.65026E+02-1.63619E+03 0.00000E+00
 -1      2460-4.69813E+02-1.63361E+03 0.00000E+00
 -1      2461 4.64961E+02-1.63633E+03 0.00000E+00
 -1      2462 4.70026E+02-1.63357E+03 0.00000E+00
 -1      2463 4.95067E+02-1.64799E+03 0.00000E+00
 -1      2464-4.95069E+02-1.64799E+03 0.00000E+00
 -1      2465-4.89544E+02-1.63360E+03 0.00000E+00
 -1      2466 4.89911E+02-1.63278E+03 0.00000E+00
 -1      2467 8.40811E+02-1.47384E+03 0.00000E+00
 -1      2468-8.40767E+02-1.47386E+03 0.00000E+00
 -1      2469-7.24154E+02-1.47150E+03 0.00000E+00
 -1      2470 7.24154E+02-1.47150E+03 0.00000E+00
 -1      2471 6.98271E+02-1.52600E+03 0.00000E+00
 -1      2472-6.98272E+02-1.52600E+03 0.00000E+00
 -1      2473 7.15501E+02-1.51608E+03 0.00000E+00
 -1      2474 7.21222E+02-1.51607E+03 0.00000E+00
 -1      2475 7.18362E+02-1.51113E+03 0.00000E+00
 -1      2476 7.24064E+02-1.51112E+03 0.00000E+00
 -1      2477 7.21209E+02-1.50619E+03 0.00000E+00
 -1      2478 7.26908E+02-1.50618E+03 0.00000E+00
 -1      2479 7.24057E+02-1.50125E+03 0.00000E+00
 -1      2480 7.29757E+02-1.50125E+03 0.00000E+00
 -1      2481 7.26905E+02-1.49631E+03 0.00000E+00
 -1      2482-7.15501E+02-1.51608E+03 0.00000E+00
 -1      2483-7.21217E+02-1.51607E+03 0.00000E+00
 -1      2484-7.18362E+02-1.51113E+03 0.00000E+00
 -1      2485-7.24062E+02-1.51113E+03 0.00000E+00
 -1      2486-7.21208E+02-1.50619E+03 0.00000E+00
 -1      2487-7.26911E+02-1.50619E+03 0.00000E+00
 -1      2488-7.24057E+02-1.50125E+03 0.00000E+00
 -1      2489-7.29759E+02-1.50125E+03 0.00000E+00
 -1      2490-7.26906E+02-1.49631E+03 0.00000E+00
 -1      2491-7.18349E+02-1.56084E+03 0.00000E+00
 -1      2492-7.12573E+02-1.56083E+03 0.00000E+00
 -1      2493 7.18349E+02-1.56084E+03 0.00000E+00
 -1      2494 7.12573E+02-1.56083E+03 0.00000E+00
 -1      2495 2.66774E+02-1.60979E+03 0.00000E+00
 -1      2496-2.66911E+02-1.60914E+03 0.00000E+00
 -1      2497 4.32268E+01-1.65351E+03 0.00000E+00
 -1      2498 2.05089E+02-1.60914E+03 0.00000E+00
 -1      2499-2.05089E+02-1.60914E+03 0.00000E+00
 -1      2500-4.40262E+01-1.65309E+03 0.00000E+00
 -1      2501-6.54897E+02-1.59045E+03 0.00000E+00
 -1      2502 6.54897E+02-1.59045E+03 0.00000E+00
 -1      2503-8.17936E+02-1.52427E+03 0.00000E+00
 -1      2504 8.17936E+02-1.52427E+03 0.00000E+00
 -1      2505 6.25528E+02-1.57977E+03 0.00000E+00
 -1      2506-6.25529E+02-1.57977E+03 0.00000E+00
 -1      2507 6.09886E+02-1.57597E+03 0.00000E+00
 -1      2508-6.09888E+02-1.57597E+03 0.00000E+00
 -1      2509 6.29251E+02-1.56547E+03 0.00000E+00
 -1      2510-6.29252E+02-1.56547E+03 0.00000E+00
 -1      2511-4.44524E+02-1.64754E+03 0.00000E+00
 -1      2512 4.44533E+02-1.64834E+03 0.00000E+00
 -1      2513-7.27008E+02-1.47645E+03 0.00000E+00
 -1      2514 7.27000E+02-1.47646E+03 0.00000E+00
 -1      2515-6.69500E+02-1.55571E+03 0.00000E+00
 -1      2516-6.72388E+02-1.55075E+03 0.00000E+00
 -1      2517-6.66660E+02-1.55073E+03 0.00000E+00
 -1      2518-6.69539E+02-1.54579E+03 0.00000E+00
 -1      2519-6.75258E+02-1.54580E+03 0.00000E+00
 -1      2520 6.69500E+02-1.55571E+03 0.00000E+00
 -1      2521 6.72388E+02-1.55075E+03 0.00000E+00
 -1      2522 6.66660E+02-1.55073E+03 0.00000E+00
 -1      2523 6.69537E+02-1.54578E+03 0.00000E+00
 -1      2524 6.75261E+02-1.54580E+03 0.00000E+00
 -1      2525-6.92542E+02-1.53589E+03 0.00000E+00
 -1      2526-6.89692E+02-1.53093E+03 0.00000E+00
 -1      2527-6.86804E+02-1.53589E+03 0.00000E+00
 -1      2528 6.92522E+02-1.53590E+03 0.00000E+00
 -1      2529 6.89687E+02-1.53094E+03 0.00000E+00
 -1      2530 6.86764E+02-1.53591E+03 0.00000E+00
 -1      2531 7.29771E+02-1.51110E+03 0.00000E+00
 -1      2532-7.29777E+02-1.51112E+03 0.00000E+00
 -1      2533 6.46540E+02-1.55566E+03 0.00000E+00
 -1      2534 6.52235E+02-1.55566E+03 0.00000E+00
 -1      2535-6.46540E+02-1.55566E+03 0.00000E+00
 -1      2536-6.52235E+02-1.55566E+03 0.00000E+00
 -1      2537-5.35282E+02-1.60176E+03 0.00000E+00
 -1      2538-5.35294E+02-1.59599E+03 0.00000E+00
 -1      2539-5.30295E+02-1.59887E+03 0.00000E+00
 -1      2540-5.30307E+02-1.59310E+03 0.00000E+00
 -1      2541-5.35303E+02-1.59023E+03 0.00000E+00
 -1      2542-5.30321E+02-1.58734E+03 0.00000E+00
 -1      2543-5.35311E+02-1.58447E+03 0.00000E+00
 -1      2544-5.30337E+02-1.58158E+03 0.00000E+00
 -1      2545-5.35321E+02-1.57872E+03 0.00000E+00
 -1      2546-5.30352E+02-1.57583E+03 0.00000E+00
 -1      2547-5.35329E+02-1.57297E+03 0.00000E+00
 -1      2548-5.30363E+02-1.57009E+03 0.00000E+00
 -1      2549-5.40294E+02-1.57585E+03 0.00000E+00
 -1      2550-5.40302E+02-1.57012E+03 0.00000E+00
 -1      2551-5.45260E+02-1.57299E+03 0.00000E+00
 -1      2552-5.25385E+02-1.57295E+03 0.00000E+00
 -1      2553-5.25403E+02-1.56721E+03 0.00000E+00
 -1      2554-5.30375E+02-1.56435E+03 0.00000E+00
 -1      2555-5.25420E+02-1.56147E+03 0.00000E+00
 -1      2556-5.25529E+02-1.58445E+03 0.00000E+00
 -1      2557-5.45255E+02-1.57873E+03 0.00000E+00
 -1      2558-5.50219E+02-1.57586E+03 0.00000E+00
 -1      2559-5.30399E+02-1.55863E+03 0.00000E+00
 -1      2560-5.25438E+02-1.55574E+03 0.00000E+00
 -1      2561-5.20469E+02-1.55859E+03 0.00000E+00
 -1      2562-5.20487E+02-1.55286E+03 0.00000E+00
 -1      2563-5.15518E+02-1.55571E+03 0.00000E+00
 -1      2564-5.15535E+02-1.54998E+03 0.00000E+00
 -1      2565-5.10564E+02-1.55283E+03 0.00000E+00
 -1      2566-5.10581E+02-1.54710E+03 0.00000E+00
 -1      2567-5.45273E+02-1.56727E+03 0.00000E+00
 -1      2568-5.25306E+02-1.59597E+03 0.00000E+00
 -1      2569-5.20807E+02-1.57007E+03 0.00000E+00
 -1      2570-5.20498E+02-1.54714E+03 0.00000E+00
 -1      2571-5.50226E+02-1.58161E+03 0.00000E+00
 -1      2572-5.55177E+02-1.57873E+03 0.00000E+00
 -1      2573-5.55180E+02-1.57301E+03 0.00000E+00
 -1      2574-5.60133E+02-1.57588E+03 0.00000E+00
 -1      2575-5.60136E+02-1.57016E+03 0.00000E+00
 -1      2576-5.60129E+02-1.58159E+03 0.00000E+00
 -1      2577-5.65084E+02-1.57874E+03 0.00000E+00
 -1      2578-5.35364E+02-1.56151E+03 0.00000E+00
 -1      2579-5.40286E+02-1.58736E+03 0.00000E+00
 -1      2580 5.35283E+02-1.60176E+03 0.00000E+00
 -1      2581 5.35292E+02-1.59599E+03 0.00000E+00
 -1      2582 5.30295E+02-1.59887E+03 0.00000E+00
 -1      2583 5.30307E+02-1.59310E+03 0.00000E+00
 -1      2584 5.35302E+02-1.59023E+03 0.00000E+00
 -1      2585 5.30321E+02-1.58734E+03 0.00000E+00
 -1      2586 5.35311E+02-1.58447E+03 0.00000E+00
 -1      2587 5.30337E+02-1.58158E+03 0.00000E+00
 -1      2588 5.35321E+02-1.57872E+03 0.00000E+00
 -1      2589 5.30352E+02-1.57583E+03 0.00000E+00
 -1      2590 5.35331E+02-1.57297E+03 0.00000E+00
 -1      2591 5.30365E+02-1.57009E+03 0.00000E+00
 -1      2592 5.40294E+02-1.57585E+03 0.00000E+00
 -1      2593 5.40304E+02-1.57012E+03 0.00000E+00
 -1      2594 5.45261E+02-1.57299E+03 0.00000E+00
 -1      2595 5.25385E+02-1.57295E+03 0.00000E+00
 -1      2596 5.25403E+02-1.56721E+03 0.00000E+00
 -1      2597 5.30377E+02-1.56435E+03 0.00000E+00
 -1      2598 5.25421E+02-1.56147E+03 0.00000E+00
 -1      2599 5.25529E+02-1.58445E+03 0.00000E+00
 -1      2600 5.45255E+02-1.57873E+03 0.00000E+00
 -1      2601 5.50219E+02-1.57586E+03 0.00000E+00
 -1      2602 5.30399E+02-1.55863E+03 0.00000E+00
 -1      2603 5.25438E+02-1.55574E+03 0.00000E+00
 -1      2604 5.20470E+02-1.55860E+03 0.00000E+00
 -1      2605 5.20487E+02-1.55286E+03 0.00000E+00
 -1      2606 5.15518E+02-1.55571E+03 0.00000E+00
 -1      2607 5.15535E+02-1.54998E+03 0.00000E+00
 -1      2608 5.10564E+02-1.55283E+03 0.00000E+00
 -1      2609 5.10581E+02-1.54710E+03 0.00000E+00
 -1      2610 5.45274E+02-1.56727E+03 0.00000E+00
 -1      2611 5.25306E+02-1.59597E+03 0.00000E+00
 -1      2612 5.20807E+02-1.57007E+03 0.00000E+00
 -1      2613 5.20498E+02-1.54714E+03 0.00000E+00
 -1      2614 5.50227E+02-1.58161E+03 0.00000E+00
 -1      2615 5.55176E+02-1.57873E+03 0.00000E+00
 -1      2616 5.55180E+02-1.57301E+03 0.00000E+00
 -1      2617 5.60133E+02-1.57588E+03 0.00000E+00
 -1      2618 5.60135E+02-1.57016E+03 0.00000E+00
 -1      2619 5.60129E+02-1.58159E+03 0.00000E+00
 -1      2620 5.65084E+02-1.57874E+03 0.00000E+00
 -1      2621 5.35359E+02-1.56151E+03 0.00000E+00
 -1      2622 5.40285E+02-1.58735E+03 0.00000E+00
 -1      2623 5.50258E+02-1.61621E+03 0.00000E+00
 -1      2624 5.50254E+02-1.62199E+03 0.00000E+00
 -1      2625 5.55267E+02-1.61910E+03 0.00000E+00
 -1      2626 5.55262E+02-1.62489E+03 0.00000E+00
 -1      2627 5.60275E+02-1.62200E+03 0.00000E+00
 -1      2628 5.50246E+02-1.62778E+03 0.00000E+00
 -1      2629 5.60280E+02-1.61622E+03 0.00000E+00
 -1      2630 5.65284E+02-1.61911E+03 0.00000E+00
 -1      2631 5.65290E+02-1.61333E+03 0.00000E+00
 -1      2632 5.70291E+02-1.61622E+03 0.00000E+00
 -1      2633-5.50258E+02-1.61621E+03 0.00000E+00
 -1      2634-5.50254E+02-1.62199E+03 0.00000E+00
 -1      2635-5.55267E+02-1.61910E+03 0.00000E+00
 -1      2636-5.55262E+02-1.62489E+03 0.00000E+00
 -1      2637-5.60275E+02-1.62200E+03 0.00000E+00
 -1      2638-5.50246E+02-1.62778E+03 0.00000E+00
 -1      2639-5.60280E+02-1.61622E+03 0.00000E+00
 -1      2640-5.65284E+02-1.61911E+03 0.00000E+00
 -1      2641-5.65290E+02-1.61333E+03 0.00000E+00
 -1      2642-5.70291E+02-1.61622E+03 0.00000E+00
 -1      2643-6.43461E+02-1.59023E+03 0.00000E+00
 -1      2644 6.43461E+02-1.59023E+03 0.00000E+00
 -1      2645 6.83831E+02-1.57069E+03 0.00000E+00
 -1      2646 6.86710E+02-1.57569E+03 0.00000E+00
 -1      2647 6.89607E+02-1.57070E+03 0.00000E+00
 -1      2648-6.83831E+02-1.57069E+03 0.00000E+00
 -1      2649-6.86710E+02-1.57569E+03 0.00000E+00
 -1      2650-6.89607E+02-1.57070E+03 0.00000E+00
 -1      2651 1.21313E+02-1.62870E+03 0.00000E+00
 -1      2652-1.14687E+02-1.62870E+03 0.00000E+00
 -1      2653-5.25292E+02-1.60174E+03 0.00000E+00
 -1      2654-5.20308E+02-1.59886E+03 0.00000E+00
 -1      2655-5.20289E+02-1.60462E+03 0.00000E+00
 -1      2656 5.25292E+02-1.60174E+03 0.00000E+00
 -1      2657 5.20308E+02-1.59886E+03 0.00000E+00
 -1      2658 5.20289E+02-1.60462E+03 0.00000E+00
 -1      2659 6.14904E+02-1.60178E+03 0.00000E+00
 -1      2660-6.14904E+02-1.60178E+03 0.00000E+00
 -1      2661 5.94945E+02-1.57891E+03 0.00000E+00
 -1      2662-5.94945E+02-1.57891E+03 0.00000E+00
 -1      2663 5.05012E+02-1.54968E+03 0.00000E+00
 -1      2664 5.05663E+02-1.54395E+03 0.00000E+00
 -1      2665-5.05012E+02-1.54968E+03 0.00000E+00
 -1      2666-5.05662E+02-1.54395E+03 0.00000E+00
 -1      2667 7.47112E+02-1.46158E+03 0.00000E+00
 -1      2668-7.47112E+02-1.46158E+03 0.00000E+00
 -1      2669-6.57875E+02-1.58551E+03 0.00000E+00
 -1      2670 6.57875E+02-1.58551E+03 0.00000E+00
 -1      2671-7.29887E+02-1.55084E+03 0.00000E+00
 -1      2672 7.29887E+02-1.55084E+03 0.00000E+00
 -1      2673-6.14826E+02-1.57312E+03 0.00000E+00
 -1      2674 6.14826E+02-1.57312E+03 0.00000E+00
 -1      2675 5.55175E+02-1.56732E+03 0.00000E+00
 -1      2676-5.55175E+02-1.56732E+03 0.00000E+00
 -1      2677-8.06578E+02-1.50580E+03 0.00000E+00
 -1      2678 8.06578E+02-1.50580E+03 0.00000E+00
 -1      2679-4.39915E+02-1.65674E+03 0.00000E+00
 -1      2680-4.39820E+02-1.66239E+03 0.00000E+00
 -1      2681 4.39869E+02-1.65662E+03 0.00000E+00
 -1      2682 4.39811E+02-1.66237E+03 0.00000E+00
 -1      2683 5.65235E+02-1.62481E+03 0.00000E+00
 -1      2684-5.65235E+02-1.62481E+03 0.00000E+00
 -1      2685-7.24083E+02-1.43173E+03 0.00000E+00
 -1      2686-7.26919E+02-1.42672E+03 0.00000E+00
 -1      2687-7.32657E+02-1.42656E+03 0.00000E+00
 -1      2688-7.29797E+02-1.42174E+03 0.00000E+00
 -1      2689-7.24042E+02-1.42175E+03 0.00000E+00
 -1      2690-7.26858E+02-1.41679E+03 0.00000E+00
 -1      2691 7.24073E+02-1.43172E+03 0.00000E+00
 -1      2692 7.26915E+02-1.42672E+03 0.00000E+00
 -1      2693 7.32688E+02-1.42672E+03 0.00000E+00
 -1      2694 7.29750E+02-1.42176E+03 0.00000E+00
 -1      2695 7.24034E+02-1.42176E+03 0.00000E+00
 -1      2696 7.26849E+02-1.41680E+03 0.00000E+00
 -1      2697 4.54872E+02-1.65950E+03 0.00000E+00
 -1      2698-4.54871E+02-1.65950E+03 0.00000E+00
 -1      2699 3.49597E+02-1.62201E+03 0.00000E+00
 -1      2700-3.58403E+02-1.62201E+03 0.00000E+00
 -1      2701-3.97963E+01-1.60839E+03 0.00000E+00
 -1      2702 4.37598E+02-1.60633E+03 0.00000E+00
 -1      2703-6.19834E+02-1.60460E+03 0.00000E+00
 -1      2704 6.19834E+02-1.60460E+03 0.00000E+00
 -1      2705 7.51171E+02-1.45625E+03 0.00000E+00
 -1      2706 7.53324E+02-1.46188E+03 0.00000E+00
 -1      2707 7.47316E+02-1.45153E+03 0.00000E+00
 -1      2708-7.49873E+02-1.45651E+03 0.00000E+00
 -1      2709-7.52330E+02-1.46136E+03 0.00000E+00
 -1      2710-7.47100E+02-1.45157E+03 0.00000E+00
 -1      2711 5.30391E+02-1.55294E+03 0.00000E+00
 -1      2712-5.30391E+02-1.55294E+03 0.00000E+00
 -1      2713 6.63819E+02-1.54584E+03 0.00000E+00
 -1      2714-6.63820E+02-1.54584E+03 0.00000E+00
 -1      2715-6.78033E+02-1.58066E+03 0.00000E+00
 -1      2716-6.72261E+02-1.58056E+03 0.00000E+00
 -1      2717 6.78033E+02-1.58066E+03 0.00000E+00
 -1      2718 6.72261E+02-1.58056E+03 0.00000E+00
 -1      2719 6.72411E+02-1.54088E+03 0.00000E+00
 -1      2720-6.72413E+02-1.54088E+03 0.00000E+00
 -1      2721 1.24086E+02-1.64170E+03 0.00000E+00
 -1      2722-1.12144E+02-1.64145E+03 0.00000E+00
 -1      2723 1.13597E+02-1.62201E+03 0.00000E+00
 -1      2724-1.22210E+02-1.62234E+03 0.00000E+00
 -1      2725 3.35978E+00-1.63202E+03 0.00000E+00
 -1      2726 7.21295E+02-1.46655E+03 0.00000E+00
 -1      2727-7.21295E+02-1.46655E+03 0.00000E+00
 -1      2728 7.70497E+02-1.34280E+03 0.00000E+00
 -1      2729-7.70492E+02-1.34280E+03 0.00000E+00
 -1      2730-7.32785E+02-1.55578E+03 0.00000E+00
 -1      2731-7.35675E+02-1.55084E+03 0.00000E+00
 -1      2732 7.32785E+02-1.55578E+03 0.00000E+00
 -1      2733 7.35675E+02-1.55084E+03 0.00000E+00
 -1      2734-5.00801E+02-1.62736E+03 0.00000E+00
 -1      2735 4.99898E+02-1.62768E+03 0.00000E+00
 -1      2736-3.29381E+00-1.62515E+03 0.00000E+00
 -1      2737-3.49200E+02-1.59586E+03 0.00000E+00
 -1      2738-3.54189E+02-1.59871E+03 0.00000E+00
 -1      2739-3.59010E+02-1.59610E+03 0.00000E+00
 -1      2740-3.44445E+02-1.59269E+03 0.00000E+00
 -1      2741 3.59021E+02-1.59637E+03 0.00000E+00
 -1      2742 3.54097E+02-1.59929E+03 0.00000E+00
 -1      2743 3.48990E+02-1.59610E+03 0.00000E+00
 -1      2744 3.64467E+02-1.59282E+03 0.00000E+00
 -1      2745-1.12960E+02-1.59636E+03 0.00000E+00
 -1      2746-1.17901E+02-1.59929E+03 0.00000E+00
 -1      2747-1.23010E+02-1.59610E+03 0.00000E+00
 -1      2748-1.08414E+02-1.59278E+03 0.00000E+00
 -1      2749 1.22736E+02-1.59586E+03 0.00000E+00
 -1      2750 1.17743E+02-1.59872E+03 0.00000E+00
 -1      2751 1.12990E+02-1.59610E+03 0.00000E+00
 -1      2752 1.27536E+02-1.59269E+03 0.00000E+00
 -1      2753-3.51019E+02-1.62862E+03 0.00000E+00
 -1      2754 3.57313E+02-1.62870E+03 0.00000E+00
 -1      2755 5.20198E+02-1.57651E+03 0.00000E+00
 -1      2756-5.20198E+02-1.57651E+03 0.00000E+00
 -1      2757-6.24616E+02-1.59000E+03 0.00000E+00
 -1      2758-6.29394E+02-1.59267E+03 0.00000E+00
 -1      2759-6.29782E+02-1.59883E+03 0.00000E+00
 -1      2760-6.35031E+02-1.59521E+03 0.00000E+00
 -1      2761-6.34864E+02-1.60179E+03 0.00000E+00
 -1      2762 6.24616E+02-1.59000E+03 0.00000E+00
 -1      2763 6.29394E+02-1.59267E+03 0.00000E+00
 -1      2764 6.29782E+02-1.59883E+03 0.00000E+00
 -1      2765 6.35031E+02-1.59521E+03 0.00000E+00
 -1      2766 6.34864E+02-1.60179E+03 0.00000E+00
 -1      2767 5.20331E+02-1.59252E+03 0.00000E+00
 -1      2768-5.20331E+02-1.59252E+03 0.00000E+00
 -1      2769 5.15488E+02-1.56219E+03 0.00000E+00
 -1      2770-5.15488E+02-1.56219E+03 0.00000E+00
 -1      2771 3.67159E+01-1.64295E+03 0.00000E+00
 -1      2772-7.32615E+02-1.49631E+03 0.00000E+00
 -1      2773-7.29757E+02-1.49137E+03 0.00000E+00
 -1      2774-7.35490E+02-1.50124E+03 0.00000E+00
 -1      2775-7.24051E+02-1.49137E+03 0.00000E+00
 -1      2776 7.32629E+02-1.49630E+03 0.00000E+00
 -1      2777 7.29759E+02-1.49137E+03 0.00000E+00
 -1      2778 7.35478E+02-1.50126E+03 0.00000E+00
 -1      2779 7.24052E+02-1.49137E+03 0.00000E+00
 -1      2780 6.78126E+02-1.54086E+03 0.00000E+00
 -1      2781-6.78127E+02-1.54086E+03 0.00000E+00
 -1      2782-6.60918E+02-1.55073E+03 0.00000E+00
 -1      2783 6.60918E+02-1.55073E+03 0.00000E+00
 -1      2784 5.05589E+02-1.55569E+03 0.00000E+00
 -1      2785-5.05589E+02-1.55569E+03 0.00000E+00
 -1      2786 6.04902E+02-1.57885E+03 0.00000E+00
 -1      2787-6.04904E+02-1.57885E+03 0.00000E+00
 -1      2788-7.26906E+02-1.48643E+03 0.00000E+00
 -1      2789 7.26902E+02-1.48643E+03 0.00000E+00
 -1      2790 7.03985E+02-1.52600E+03 0.00000E+00
 -1      2791-7.03985E+02-1.52600E+03 0.00000E+00
 -1      2792 6.34955E+02-1.56552E+03 0.00000E+00
 -1      2793-6.34955E+02-1.56552E+03 0.00000E+00
 -1      2794-7.24277E+02-1.46167E+03 0.00000E+00
 -1      2795 7.24276E+02-1.46167E+03 0.00000E+00
 -1      2796 6.58418E+02-1.54604E+03 0.00000E+00
 -1      2797-6.58418E+02-1.54604E+03 0.00000E+00
 -1      2798-6.09795E+02-1.57031E+03 0.00000E+00
 -1      2799 6.09793E+02-1.57031E+03 0.00000E+00
 -1      2800-7.26992E+02-1.54585E+03 0.00000E+00
 -1      2801 7.26992E+02-1.54585E+03 0.00000E+00
 -1      2802 5.60260E+02-1.56453E+03 0.00000E+00
 -1      2803-5.60260E+02-1.56453E+03 0.00000E+00
 -1      2804 5.70278E+02-1.61044E+03 0.00000E+00
 -1      2805 5.75292E+02-1.61333E+03 0.00000E+00
 -1      2806 5.75292E+02-1.61911E+03 0.00000E+00
 -1      2807 5.80296E+02-1.61622E+03 0.00000E+00
 -1      2808 5.80296E+02-1.61045E+03 0.00000E+00
 -1      2809 5.85297E+02-1.61333E+03 0.00000E+00
 -1      2810 5.85269E+02-1.60756E+03 0.00000E+00
 -1      2811 5.90264E+02-1.61045E+03 0.00000E+00
 -1      2812 5.90299E+02-1.61622E+03 0.00000E+00
 -1      2813 5.95297E+02-1.61333E+03 0.00000E+00
 -1      2814-5.70278E+02-1.61044E+03 0.00000E+00
 -1      2815-5.75292E+02-1.61333E+03 0.00000E+00
 -1      2816-5.75292E+02-1.61911E+03 0.00000E+00
 -1      2817-5.80296E+02-1.61622E+03 0.00000E+00
 -1      2818-5.80296E+02-1.61045E+03 0.00000E+00
 -1      2819-5.85297E+02-1.61333E+03 0.00000E+00
 -1      2820-5.85269E+02-1.60756E+03 0.00000E+00
 -1      2821-5.90264E+02-1.61045E+03 0.00000E+00
 -1      2822-5.90299E+02-1.61622E+03 0.00000E+00
 -1      2823-5.95297E+02-1.61333E+03 0.00000E+00
 -1      2824 5.55172E+02-1.63053E+03 0.00000E+00
 -1      2825-5.55172E+02-1.63053E+03 0.00000E+00
 -1      2826-6.45789E+02-1.59547E+03 0.00000E+00
 -1      2827 6.45789E+02-1.59547E+03 0.00000E+00
 -1      2828 5.10574E+02-1.54138E+03 0.00000E+00
 -1      2829 5.05653E+02-1.53845E+03 0.00000E+00
 -1      2830 5.00820E+02-1.54106E+03 0.00000E+00
 -1      2831 5.00697E+02-1.53562E+03 0.00000E+00
 -1      2832 4.95761E+02-1.53841E+03 0.00000E+00
 -1      2833 4.95732E+02-1.53278E+03 0.00000E+00
 -1      2834 4.90798E+02-1.53557E+03 0.00000E+00
 -1      2835 4.90816E+02-1.52985E+03 0.00000E+00
 -1      2836 4.85849E+02-1.53268E+03 0.00000E+00
 -1      2837 4.85700E+02-1.53829E+03 0.00000E+00
 -1      2838 4.80877E+02-1.53552E+03 0.00000E+00
 -1      2839 4.80901E+02-1.52979E+03 0.00000E+00
 -1      2840 4.76009E+02-1.53243E+03 0.00000E+00
 -1      2841 4.75971E+02-1.52687E+03 0.00000E+00
 -1      2842 4.70987E+02-1.52967E+03 0.00000E+00
 -1      2843 4.71025E+02-1.52400E+03 0.00000E+00
 -1      2844 4.66053E+02-1.52685E+03 0.00000E+00
 -1      2845 4.66001E+02-1.53253E+03 0.00000E+00
 -1      2846 4.61076E+02-1.52967E+03 0.00000E+00
 -1      2847 4.61043E+02-1.53540E+03 0.00000E+00
 -1      2848 4.56102E+02-1.53251E+03 0.00000E+00
 -1      2849 4.56070E+02-1.53824E+03 0.00000E+00
 -1      2850 4.51121E+02-1.53535E+03 0.00000E+00
 -1      2851 4.51091E+02-1.54107E+03 0.00000E+00
 -1      2852 4.46139E+02-1.53818E+03 0.00000E+00
 -1      2853 4.46110E+02-1.54391E+03 0.00000E+00
 -1      2854 4.41161E+02-1.54102E+03 0.00000E+00
 -1      2855 4.41241E+02-1.54656E+03 0.00000E+00
 -1      2856 4.36203E+02-1.54382E+03 0.00000E+00
 -1      2857 4.36466E+02-1.55017E+03 0.00000E+00
 -1      2858 4.31262E+02-1.54678E+03 0.00000E+00
 -1      2859 4.31168E+02-1.55242E+03 0.00000E+00
 -1      2860 4.26238E+02-1.54954E+03 0.00000E+00
 -1      2861 4.26194E+02-1.55525E+03 0.00000E+00
 -1      2862 4.21255E+02-1.55236E+03 0.00000E+00
 -1      2863 4.21218E+02-1.55808E+03 0.00000E+00
 -1      2864 4.16277E+02-1.55519E+03 0.00000E+00
 -1      2865 4.16237E+02-1.56092E+03 0.00000E+00
 -1      2866 4.21184E+02-1.56381E+03 0.00000E+00
 -1      2867 4.16092E+02-1.56646E+03 0.00000E+00
 -1      2868 4.11236E+02-1.56372E+03 0.00000E+00
 -1      2869 4.11189E+02-1.56944E+03 0.00000E+00
 -1      2870 4.06262E+02-1.56657E+03 0.00000E+00
 -1      2871 4.16473E+02-1.57278E+03 0.00000E+00
 -1      2872 4.06219E+02-1.57230E+03 0.00000E+00
 -1      2873 4.01282E+02-1.56941E+03 0.00000E+00
 -1      2874 4.01242E+02-1.57515E+03 0.00000E+00
 -1      2875 3.96298E+02-1.57225E+03 0.00000E+00
 -1      2876 4.01324E+02-1.56368E+03 0.00000E+00
 -1      2877 3.96227E+02-1.57791E+03 0.00000E+00
 -1      2878 3.91371E+02-1.57496E+03 0.00000E+00
 -1      2879 4.31013E+02-1.55808E+03 0.00000E+00
 -1      2880 3.91363E+02-1.56933E+03 0.00000E+00
 -1      2881 3.86380E+02-1.57216E+03 0.00000E+00
 -1      2882 3.86258E+02-1.57752E+03 0.00000E+00
 -1      2883 3.81376E+02-1.57494E+03 0.00000E+00
 -1      2884 3.81211E+02-1.58122E+03 0.00000E+00
 -1      2885 3.76380E+02-1.57790E+03 0.00000E+00
 -1      2886 4.06194E+02-1.57806E+03 0.00000E+00
 -1      2887 3.76003E+02-1.58366E+03 0.00000E+00
 -1      2888 3.86378E+02-1.56651E+03 0.00000E+00
 -1      2889 4.16278E+02-1.54954E+03 0.00000E+00
 -1      2890 4.51109E+02-1.52970E+03 0.00000E+00
 -1      2891 4.75945E+02-1.52125E+03 0.00000E+00
 -1      2892 4.71193E+02-1.51851E+03 0.00000E+00
 -1      2893 4.66181E+02-1.53796E+03 0.00000E+00
 -1      2894 4.61328E+02-1.52408E+03 0.00000E+00
 -1      2895 4.36512E+02-1.53820E+03 0.00000E+00
 -1      2896 4.26598E+02-1.54388E+03 0.00000E+00
 -1      2897 4.11510E+02-1.55234E+03 0.00000E+00
 -1      2898-5.10575E+02-1.54138E+03 0.00000E+00
 -1      2899-5.05654E+02-1.53845E+03 0.00000E+00
 -1      2900-5.00758E+02-1.54120E+03 0.00000E+00
 -1      2901-5.00687E+02-1.53564E+03 0.00000E+00
 -1      2902-4.95894E+02-1.53819E+03 0.00000E+00
 -1      2903-4.95752E+02-1.53275E+03 0.00000E+00
 -1      2904-4.90820E+02-1.53553E+03 0.00000E+00
 -1      2905-4.90785E+02-1.52991E+03 0.00000E+00
 -1      2906-4.85854E+02-1.53268E+03 0.00000E+00
 -1      2907-4.85832E+02-1.52704E+03 0.00000E+00
 -1      2908-4.80901E+02-1.52981E+03 0.00000E+00
 -1      2909-4.80874E+02-1.53551E+03 0.00000E+00
 -1      2910-4.75935E+02-1.53264E+03 0.00000E+00
 -1      2911-4.75964E+02-1.52691E+03 0.00000E+00
 -1      2912-4.70995E+02-1.52975E+03 0.00000E+00
 -1      2913-4.71027E+02-1.52403E+03 0.00000E+00
 -1      2914-4.66057E+02-1.52686E+03 0.00000E+00
 -1      2915-4.66024E+02-1.53258E+03 0.00000E+00
 -1      2916-4.61085E+02-1.52969E+03 0.00000E+00
 -1      2917-4.61052E+02-1.53541E+03 0.00000E+00
 -1      2918-4.56108E+02-1.53252E+03 0.00000E+00
 -1      2919-4.56098E+02-1.52688E+03 0.00000E+00
 -1      2920-4.56036E+02-1.53818E+03 0.00000E+00
 -1      2921-4.51123E+02-1.53534E+03 0.00000E+00
 -1      2922-4.51110E+02-1.54089E+03 0.00000E+00
 -1      2923-4.46151E+02-1.53816E+03 0.00000E+00
 -1      2924-4.46031E+02-1.54392E+03 0.00000E+00
 -1      2925-4.41157E+02-1.54102E+03 0.00000E+00
 -1      2926-4.40824E+02-1.54708E+03 0.00000E+00
 -1      2927-4.36138E+02-1.54391E+03 0.00000E+00
 -1      2928-4.35977E+02-1.54964E+03 0.00000E+00
 -1      2929-4.31206E+02-1.54670E+03 0.00000E+00
 -1      2930-4.30994E+02-1.55219E+03 0.00000E+00
 -1      2931-4.26202E+02-1.54949E+03 0.00000E+00
 -1      2932-4.26161E+02-1.55521E+03 0.00000E+00
 -1      2933-4.21246E+02-1.55235E+03 0.00000E+00
 -1      2934-4.21213E+02-1.55808E+03 0.00000E+00
 -1      2935-4.16275E+02-1.55520E+03 0.00000E+00
 -1      2936-4.16235E+02-1.56092E+03 0.00000E+00
 -1      2937-4.21682E+02-1.56417E+03 0.00000E+00
 -1      2938-4.16140E+02-1.56646E+03 0.00000E+00
 -1      2939-4.11235E+02-1.56372E+03 0.00000E+00
 -1      2940-4.11234E+02-1.56950E+03 0.00000E+00
 -1      2941-4.06272E+02-1.56659E+03 0.00000E+00
 -1      2942-4.16169E+02-1.57240E+03 0.00000E+00
 -1      2943-4.06265E+02-1.57238E+03 0.00000E+00
 -1      2944-4.01294E+02-1.56943E+03 0.00000E+00
 -1      2945-4.01294E+02-1.57510E+03 0.00000E+00
 -1      2946-3.96310E+02-1.57225E+03 0.00000E+00
 -1      2947-4.01316E+02-1.56369E+03 0.00000E+00
 -1      2948-3.96592E+02-1.57782E+03 0.00000E+00
 -1      2949-3.91451E+02-1.57492E+03 0.00000E+00
 -1      2950-4.30888E+02-1.55723E+03 0.00000E+00
 -1      2951-3.91381E+02-1.56933E+03 0.00000E+00
 -1      2952-3.86398E+02-1.57216E+03 0.00000E+00
 -1      2953-3.86382E+02-1.57753E+03 0.00000E+00
 -1      2954-3.81401E+02-1.57495E+03 0.00000E+00
 -1      2955-3.81318E+02-1.58125E+03 0.00000E+00
 -1      2956-3.76402E+02-1.57791E+03 0.00000E+00
 -1      2957-3.76023E+02-1.58366E+03 0.00000E+00
 -1      2958-3.71362E+02-1.58070E+03 0.00000E+00
 -1      2959-3.71445E+02-1.58619E+03 0.00000E+00
 -1      2960-4.06300E+02-1.57820E+03 0.00000E+00
 -1      2961-3.76415E+02-1.57218E+03 0.00000E+00
 -1      2962-4.16279E+02-1.54954E+03 0.00000E+00
 -1      2963-4.41163E+02-1.53537E+03 0.00000E+00
 -1      2964-4.90895E+02-1.54181E+03 0.00000E+00
 -1      2965-4.66288E+02-1.52126E+03 0.00000E+00
 -1      2966-4.75909E+02-1.53837E+03 0.00000E+00
 -1      2967-4.26585E+02-1.54386E+03 0.00000E+00
 -1      2968-4.11499E+02-1.55234E+03 0.00000E+00
 -1      2969-4.71211E+02-1.51842E+03 0.00000E+00
 -1      2970-5.05932E+02-1.53297E+03 0.00000E+00
 -1      2971 5.05932E+02-1.53297E+03 0.00000E+00
 -1      2972 6.23520E+02-1.56546E+03 0.00000E+00
 -1      2973-6.23520E+02-1.56546E+03 0.00000E+00
 -1      2974-6.14854E+02-1.60744E+03 0.00000E+00
 -1      2975 6.14854E+02-1.60744E+03 0.00000E+00
 -1      2976-3.76240E+02-1.58973E+03 0.00000E+00
 -1      2977-3.86869E+02-1.56646E+03 0.00000E+00
 -1      2978 6.75366E+02-1.53614E+03 0.00000E+00
 -1      2979-6.75353E+02-1.53615E+03 0.00000E+00
 -1      2980-4.34918E+02-1.65968E+03 0.00000E+00
 -1      2981-4.34798E+02-1.66529E+03 0.00000E+00
 -1      2982-4.31091E+02-1.66254E+03 0.00000E+00
 -1      2983 4.34880E+02-1.65956E+03 0.00000E+00
 -1      2984 4.34790E+02-1.66527E+03 0.00000E+00
 -1      2985 4.29759E+02-1.66233E+03 0.00000E+00
 -1      2986-6.92318E+02-1.57562E+03 0.00000E+00
 -1      2987-6.95364E+02-1.57070E+03 0.00000E+00
 -1      2988-6.92482E+02-1.56572E+03 0.00000E+00
 -1      2989-6.98270E+02-1.56572E+03 0.00000E+00
 -1      2990-7.01164E+02-1.57063E+03 0.00000E+00
 -1      2991-7.04074E+02-1.56573E+03 0.00000E+00
 -1      2992-7.01145E+02-1.56074E+03 0.00000E+00
 -1      2993 6.92318E+02-1.57562E+03 0.00000E+00
 -1      2994 6.95364E+02-1.57070E+03 0.00000E+00
 -1      2995 6.92482E+02-1.56572E+03 0.00000E+00
 -1      2996 6.98270E+02-1.56572E+03 0.00000E+00
 -1      2997 7.01164E+02-1.57063E+03 0.00000E+00
 -1      2998 7.04074E+02-1.56573E+03 0.00000E+00
 -1      2999 7.01145E+02-1.56074E+03 0.00000E+00
 -1      3000-4.61023E+02-1.54114E+03 0.00000E+00
 -1      3001 7.35561E+02-1.42172E+03 0.00000E+00
 -1      3002-7.35561E+02-1.42172E+03 0.00000E+00
 -1      3003 7.09810E+02-1.51629E+03 0.00000E+00
 -1      3004-7.09800E+02-1.51630E+03 0.00000E+00
 -1      3005-7.21408E+02-1.48631E+03 0.00000E+00
 -1      3006 7.21402E+02-1.48626E+03 0.00000E+00
 -1      3007 4.51060E+02-1.54681E+03 0.00000E+00
 -1      3008-3.91905E+02-1.56364E+03 0.00000E+00
 -1      3009 6.40841E+02-1.55586E+03 0.00000E+00
 -1      3010-6.40834E+02-1.55587E+03 0.00000E+00
 -1      3011 3.91570E+02-1.56370E+03 0.00000E+00
 -1      3012 6.49780E+02-1.55085E+03 0.00000E+00
 -1      3013-6.49780E+02-1.55085E+03 0.00000E+00
 -1      3014-7.21337E+02-1.41684E+03 0.00000E+00
 -1      3015-7.24029E+02-1.41181E+03 0.00000E+00
 -1      3016-7.29480E+02-1.41205E+03 0.00000E+00
 -1      3017-7.26581E+02-1.40699E+03 0.00000E+00
 -1      3018-7.21070E+02-1.40687E+03 0.00000E+00
 -1      3019-7.23901E+02-1.40188E+03 0.00000E+00
 -1      3020-7.30214E+02-1.40228E+03 0.00000E+00
 -1      3021-7.26873E+02-1.39693E+03 0.00000E+00
 -1      3022-7.33041E+02-1.39635E+03 0.00000E+00
 -1      3023-7.29645E+02-1.39184E+03 0.00000E+00
 -1      3024-7.23900E+02-1.39189E+03 0.00000E+00
 -1      3025-7.26720E+02-1.38687E+03 0.00000E+00
 -1      3026-7.17970E+02-1.42224E+03 0.00000E+00
 -1      3027-7.21006E+02-1.38693E+03 0.00000E+00
 -1      3028-7.23816E+02-1.38192E+03 0.00000E+00
 -1      3029-7.29566E+02-1.38186E+03 0.00000E+00
 -1      3030-7.26625E+02-1.37688E+03 0.00000E+00
 -1      3031-7.32585E+02-1.37697E+03 0.00000E+00
 -1      3032-7.29579E+02-1.37190E+03 0.00000E+00
 -1      3033-7.35549E+02-1.37206E+03 0.00000E+00
 -1      3034-7.23994E+02-1.37202E+03 0.00000E+00
 -1      3035-7.35364E+02-1.38184E+03 0.00000E+00
 -1      3036-7.33226E+02-1.36689E+03 0.00000E+00
 -1      3037-7.38750E+02-1.36648E+03 0.00000E+00
 -1      3038 7.21334E+02-1.41684E+03 0.00000E+00
 -1      3039 7.24027E+02-1.41181E+03 0.00000E+00
 -1      3040 7.29478E+02-1.41205E+03 0.00000E+00
 -1      3041 7.26580E+02-1.40700E+03 0.00000E+00
 -1      3042 7.21070E+02-1.40687E+03 0.00000E+00
 -1      3043 7.23901E+02-1.40188E+03 0.00000E+00
 -1      3044 7.30214E+02-1.40228E+03 0.00000E+00
 -1      3045 7.26873E+02-1.39693E+03 0.00000E+00
 -1      3046 7.33041E+02-1.39635E+03 0.00000E+00
 -1      3047 7.29645E+02-1.39184E+03 0.00000E+00
 -1      3048 7.23900E+02-1.39189E+03 0.00000E+00
 -1      3049 7.26720E+02-1.38687E+03 0.00000E+00
 -1      3050 7.17968E+02-1.42224E+03 0.00000E+00
 -1      3051 7.21006E+02-1.38693E+03 0.00000E+00
 -1      3052 7.23842E+02-1.38193E+03 0.00000E+00
 -1      3053 7.29570E+02-1.38186E+03 0.00000E+00
 -1      3054 7.26655E+02-1.37690E+03 0.00000E+00
 -1      3055 7.32627E+02-1.37705E+03 0.00000E+00
 -1      3056 7.29591E+02-1.37192E+03 0.00000E+00
 -1      3057 7.35432E+02-1.37202E+03 0.00000E+00
 -1      3058 7.24044E+02-1.37206E+03 0.00000E+00
 -1      3059 7.35364E+02-1.38184E+03 0.00000E+00
 -1      3060 7.33115E+02-1.36694E+03 0.00000E+00
 -1      3061 7.38400E+02-1.36673E+03 0.00000E+00
 -1      3062 5.15440E+02-1.60166E+03 0.00000E+00
 -1      3063 5.15282E+02-1.60750E+03 0.00000E+00
 -1      3064-5.15328E+02-1.60131E+03 0.00000E+00
 -1      3065-5.15455E+02-1.60658E+03 0.00000E+00
 -1      3066-7.21511E+02-1.47634E+03 0.00000E+00
 -1      3067 7.21508E+02-1.47631E+03 0.00000E+00
 -1      3068-7.15473E+02-1.56547E+03 0.00000E+00
 -1      3069-7.21209E+02-1.56540E+03 0.00000E+00
 -1      3070 7.15473E+02-1.56547E+03 0.00000E+00
 -1      3071 7.21209E+02-1.56540E+03 0.00000E+00
 -1      3072 1.12568E+02-1.60143E+03 0.00000E+00
 -1      3073 1.17847E+02-1.60420E+03 0.00000E+00
 -1      3074-1.23248E+02-1.60157E+03 0.00000E+00
 -1      3075-1.18332E+02-1.60475E+03 0.00000E+00
 -1      3076 3.49428E+02-1.60080E+03 0.00000E+00
 -1      3077 3.52893E+02-1.60476E+03 0.00000E+00
 -1      3078-3.59420E+02-1.60143E+03 0.00000E+00
 -1      3079-3.54142E+02-1.60420E+03 0.00000E+00
 -1      3080-1.96277E+02-1.60944E+03 0.00000E+00
 -1      3081 1.95454E+02-1.60907E+03 0.00000E+00
 -1      3082 2.76048E+02-1.60792E+03 0.00000E+00
 -1      3083-3.47520E+01-1.65122E+03 0.00000E+00
 -1      3084 3.47440E+01-1.65387E+03 0.00000E+00
 -1      3085-2.76546E+02-1.60907E+03 0.00000E+00
 -1      3086 7.52566E+02-1.45125E+03 0.00000E+00
 -1      3087 7.50079E+02-1.44679E+03 0.00000E+00
 -1      3088-7.52901E+02-1.45158E+03 0.00000E+00
 -1      3089-7.50168E+02-1.44707E+03 0.00000E+00
 -1      3090-7.38568E+02-1.55549E+03 0.00000E+00
 -1      3091-7.41463E+02-1.55078E+03 0.00000E+00
 -1      3092-7.44296E+02-1.55577E+03 0.00000E+00
 -1      3093-7.47248E+02-1.55083E+03 0.00000E+00
 -1      3094-7.44327E+02-1.54582E+03 0.00000E+00
 -1      3095-7.50154E+02-1.54580E+03 0.00000E+00
 -1      3096 7.38568E+02-1.55549E+03 0.00000E+00
 -1      3097 7.41463E+02-1.55078E+03 0.00000E+00
 -1      3098 7.44296E+02-1.55577E+03 0.00000E+00
 -1      3099 7.47248E+02-1.55083E+03 0.00000E+00
 -1      3100 7.44327E+02-1.54582E+03 0.00000E+00
 -1      3101 7.50154E+02-1.54580E+03 0.00000E+00
 -1      3102 6.84174E+02-1.53107E+03 0.00000E+00
 -1      3103-6.84166E+02-1.53108E+03 0.00000E+00
 -1      3104-4.11808E+02-1.54692E+03 0.00000E+00
 -1      3105 4.11807E+02-1.54692E+03 0.00000E+00
 -1      3106 7.01144E+02-1.52134E+03 0.00000E+00
 -1      3107-7.01132E+02-1.52135E+03 0.00000E+00
 -1      3108-6.60375E+02-1.59025E+03 0.00000E+00
 -1      3109-6.63479E+02-1.58539E+03 0.00000E+00
 -1      3110 6.60375E+02-1.59025E+03 0.00000E+00
 -1      3111 6.63479E+02-1.58539E+03 0.00000E+00
 -1      3112 6.19833E+02-1.57618E+03 0.00000E+00
 -1      3113-6.19834E+02-1.57618E+03 0.00000E+00
 -1      3114 4.39788E+02-1.66816E+03 0.00000E+00
 -1      3115-4.39788E+02-1.66816E+03 0.00000E+00
 -1      3116 4.96708E+02-1.54390E+03 0.00000E+00
 -1      3117 4.41210E+02-1.60994E+03 0.00000E+00
 -1      3118 4.28561E+02-1.60540E+03 0.00000E+00
 -1      3119-4.41037E+02-1.61044E+03 0.00000E+00
 -1      3120-4.27954E+02-1.60376E+03 0.00000E+00
 -1      3121 3.08138E+01-1.60967E+03 0.00000E+00
 -1      3122 4.39862E+01-1.60443E+03 0.00000E+00
 -1      3123 3.76922E+02-1.57211E+03 0.00000E+00
 -1      3124 3.71890E+02-1.57493E+03 0.00000E+00
 -1      3125 6.26504E+02-1.56088E+03 0.00000E+00
 -1      3126-6.26506E+02-1.56088E+03 0.00000E+00
 -1      3127 4.68988E+02-1.54618E+03 0.00000E+00
 -1      3128 4.72106E+02-1.54082E+03 0.00000E+00
 -1      3129 1.45209E+02-1.59137E+03 0.00000E+00
 -1      3130 1.47546E+02-1.58568E+03 0.00000E+00
 -1      3131 1.53322E+02-1.58440E+03 0.00000E+00
 -1      3132 1.49035E+02-1.58032E+03 0.00000E+00
 -1      3133 1.54519E+02-1.57895E+03 0.00000E+00
 -1      3134 1.50525E+02-1.57484E+03 0.00000E+00
 -1      3135 1.56075E+02-1.57343E+03 0.00000E+00
 -1      3136 1.60072E+02-1.57751E+03 0.00000E+00
 -1      3137 1.61630E+02-1.57201E+03 0.00000E+00
 -1      3138 1.65636E+02-1.57611E+03 0.00000E+00
 -1      3139 1.67188E+02-1.57059E+03 0.00000E+00
 -1      3140 1.71197E+02-1.57470E+03 0.00000E+00
 -1      3141 1.72749E+02-1.56917E+03 0.00000E+00
 -1      3142 1.76760E+02-1.57328E+03 0.00000E+00
 -1      3143 1.78310E+02-1.56775E+03 0.00000E+00
 -1      3144 1.74302E+02-1.56365E+03 0.00000E+00
 -1      3145 1.79856E+02-1.56223E+03 0.00000E+00
 -1      3146 1.62984E+02-1.56609E+03 0.00000E+00
 -1      3147 1.82326E+02-1.57186E+03 0.00000E+00
 -1      3148 1.80773E+02-1.57740E+03 0.00000E+00
 -1      3149 1.43760E+02-1.58141E+03 0.00000E+00
 -1      3150 1.75855E+02-1.55813E+03 0.00000E+00
 -1      3151 1.81404E+02-1.55671E+03 0.00000E+00
 -1      3152 1.85406E+02-1.56081E+03 0.00000E+00
 -1      3153 1.86950E+02-1.55529E+03 0.00000E+00
 -1      3154 1.90958E+02-1.55939E+03 0.00000E+00
 -1      3155 1.92506E+02-1.55386E+03 0.00000E+00
 -1      3156 1.52073E+02-1.56933E+03 0.00000E+00
 -1      3157 1.77415E+02-1.55260E+03 0.00000E+00
 -1      3158 1.86473E+02-1.57581E+03 0.00000E+00
 -1      3159 1.84803E+02-1.58145E+03 0.00000E+00
 -1      3160 1.96236E+02-1.55800E+03 0.00000E+00
 -1      3161 1.98668E+02-1.55237E+03 0.00000E+00
 -1      3162 1.94153E+02-1.54833E+03 0.00000E+00
 -1      3163 1.99636E+02-1.54659E+03 0.00000E+00
 -1      3164 1.70307E+02-1.55955E+03 0.00000E+00
 -1      3165 1.88132E+02-1.57027E+03 0.00000E+00
 -1      3166 1.64041E+02-1.58126E+03 0.00000E+00
 -1      3167 1.46548E+02-1.57089E+03 0.00000E+00
 -1      3168 1.47576E+02-1.56553E+03 0.00000E+00
 -1      3169 1.79375E+02-1.58275E+03 0.00000E+00
 -1      3170 1.95618E+02-1.54281E+03 0.00000E+00
 -1      3171 2.01150E+02-1.54134E+03 0.00000E+00
 -1      3172 2.04946E+02-1.54518E+03 0.00000E+00
 -1      3173 2.06572E+02-1.53989E+03 0.00000E+00
 -1      3174 2.02661E+02-1.53587E+03 0.00000E+00
 -1      3175 2.08205E+02-1.53450E+03 0.00000E+00
 -1      3176 2.12059E+02-1.53826E+03 0.00000E+00
 -1      3177 2.13750E+02-1.53303E+03 0.00000E+00
 -1      3178 2.18285E+02-1.53752E+03 0.00000E+00
 -1      3179 2.19382E+02-1.53166E+03 0.00000E+00
 -1      3180 2.23639E+02-1.53553E+03 0.00000E+00
 -1      3181 2.24910E+02-1.53015E+03 0.00000E+00
 -1      3182 2.28921E+02-1.53422E+03 0.00000E+00
 -1      3183 2.30406E+02-1.52872E+03 0.00000E+00
 -1      3184 2.34415E+02-1.53280E+03 0.00000E+00
 -1      3185 2.35932E+02-1.52729E+03 0.00000E+00
 -1      3186 2.39946E+02-1.53137E+03 0.00000E+00
 -1      3187 2.41469E+02-1.52585E+03 0.00000E+00
 -1      3188 2.45485E+02-1.52994E+03 0.00000E+00
 -1      3189 2.37442E+02-1.52177E+03 0.00000E+00
 -1      3190 2.38358E+02-1.53666E+03 0.00000E+00
 -1      3191 2.15312E+02-1.52736E+03 0.00000E+00
 -1      3192 2.46946E+02-1.52447E+03 0.00000E+00
 -1      3193 2.50954E+02-1.52857E+03 0.00000E+00
 -1      3194 2.49483E+02-1.53403E+03 0.00000E+00
 -1      3195 2.55021E+02-1.53259E+03 0.00000E+00
 -1      3196 2.53477E+02-1.53800E+03 0.00000E+00
 -1      3197 2.59047E+02-1.53665E+03 0.00000E+00
 -1      3198 2.57556E+02-1.54196E+03 0.00000E+00
 -1      3199 2.63081E+02-1.54071E+03 0.00000E+00
 -1      3200 2.60504E+02-1.53121E+03 0.00000E+00
 -1      3201 2.61332E+02-1.54621E+03 0.00000E+00
 -1      3202 2.67060E+02-1.54482E+03 0.00000E+00
 -1      3203 2.68619E+02-1.53930E+03 0.00000E+00
 -1      3204 2.72633E+02-1.54339E+03 0.00000E+00
 -1      3205 2.70978E+02-1.54905E+03 0.00000E+00
 -1      3206 2.76636E+02-1.54749E+03 0.00000E+00
 -1      3207 2.74984E+02-1.55315E+03 0.00000E+00
 -1      3208 2.80670E+02-1.55157E+03 0.00000E+00
 -1      3209 2.79140E+02-1.55710E+03 0.00000E+00
 -1      3210 2.84720E+02-1.55563E+03 0.00000E+00
 -1      3211 2.83191E+02-1.56116E+03 0.00000E+00
 -1      3212 2.88753E+02-1.55971E+03 0.00000E+00
 -1      3213 2.87223E+02-1.56524E+03 0.00000E+00
 -1      3214 2.92789E+02-1.56379E+03 0.00000E+00
 -1      3215 2.91253E+02-1.56932E+03 0.00000E+00
 -1      3216 2.96811E+02-1.56787E+03 0.00000E+00
 -1      3217 2.95281E+02-1.57341E+03 0.00000E+00
 -1      3218 3.00836E+02-1.57196E+03 0.00000E+00
 -1      3219 3.02367E+02-1.56643E+03 0.00000E+00
 -1      3220 3.06391E+02-1.57051E+03 0.00000E+00
 -1      3221 2.89721E+02-1.57486E+03 0.00000E+00
 -1      3222 2.90309E+02-1.55418E+03 0.00000E+00
 -1      3223 3.04868E+02-1.57604E+03 0.00000E+00
 -1      3224 3.10419E+02-1.57459E+03 0.00000E+00
 -1      3225 3.11938E+02-1.56906E+03 0.00000E+00
 -1      3226 3.15966E+02-1.57314E+03 0.00000E+00
 -1      3227 3.08902E+02-1.58013E+03 0.00000E+00
 -1      3228 2.93755E+02-1.57895E+03 0.00000E+00
 -1      3229 2.87900E+02-1.58052E+03 0.00000E+00
 -1      3230 3.17477E+02-1.56761E+03 0.00000E+00
 -1      3231 3.21508E+02-1.57168E+03 0.00000E+00
 -1      3232 3.19994E+02-1.57721E+03 0.00000E+00
 -1      3233 3.25539E+02-1.57575E+03 0.00000E+00
 -1      3234 2.91956E+02-1.58445E+03 0.00000E+00
 -1      3235 2.86506E+02-1.58607E+03 0.00000E+00
 -1      3236 2.73622E+02-1.55852E+03 0.00000E+00
 -1      3237 3.13405E+02-1.56359E+03 0.00000E+00
 -1      3238 2.84147E+02-1.57630E+03 0.00000E+00
 -1      3239 2.82199E+02-1.54602E+03 0.00000E+00
 -1      3240 3.24154E+02-1.58115E+03 0.00000E+00
 -1      3241 3.29588E+02-1.57980E+03 0.00000E+00
 -1      3242 3.31075E+02-1.57430E+03 0.00000E+00
 -1      3243 3.35107E+02-1.57836E+03 0.00000E+00
 -1      3244 3.33603E+02-1.58389E+03 0.00000E+00
 -1      3245 3.39080E+02-1.58249E+03 0.00000E+00
 -1      3246 3.37789E+02-1.58781E+03 0.00000E+00
 -1      3247 2.26419E+02-1.52477E+03 0.00000E+00
 -1      3248 2.81727E+02-1.56663E+03 0.00000E+00
 -1      3249 1.90128E+02-1.54445E+03 0.00000E+00
 -1      3250 3.32257E+02-1.59009E+03 0.00000E+00
 -1      3251 1.95090E+02-1.56338E+03 0.00000E+00
 -1      3252 1.39451E+02-1.58874E+03 0.00000E+00
 -1      3253 3.03533E+02-1.58140E+03 0.00000E+00
 -1      3254 3.08063E+02-1.58538E+03 0.00000E+00
 -1      3255 3.13406E+02-1.58398E+03 0.00000E+00
 -1      3256 1.53004E+02-1.56378E+03 0.00000E+00
 -1      3257 1.83070E+02-1.58649E+03 0.00000E+00
 -1      3258 3.36609E+02-1.57285E+03 0.00000E+00
 -1      3259 2.27460E+02-1.53836E+03 0.00000E+00
 -1      3260 1.90570E+02-1.57929E+03 0.00000E+00
 -1      3261-3.26791E+02-1.59137E+03 0.00000E+00
 -1      3262-3.24454E+02-1.58568E+03 0.00000E+00
 -1      3263-3.18678E+02-1.58440E+03 0.00000E+00
 -1      3264-3.22965E+02-1.58032E+03 0.00000E+00
 -1      3265-3.17481E+02-1.57895E+03 0.00000E+00
 -1      3266-3.21475E+02-1.57484E+03 0.00000E+00
 -1      3267-3.15925E+02-1.57343E+03 0.00000E+00
 -1      3268-3.11928E+02-1.57751E+03 0.00000E+00
 -1      3269-3.10370E+02-1.57201E+03 0.00000E+00
 -1      3270-3.06364E+02-1.57611E+03 0.00000E+00
 -1      3271-3.04812E+02-1.57059E+03 0.00000E+00
 -1      3272-3.00803E+02-1.57470E+03 0.00000E+00
 -1      3273-2.99251E+02-1.56917E+03 0.00000E+00
 -1      3274-2.95240E+02-1.57328E+03 0.00000E+00
 -1      3275-2.93690E+02-1.56775E+03 0.00000E+00
 -1      3276-2.97698E+02-1.56365E+03 0.00000E+00
 -1      3277-2.92144E+02-1.56223E+03 0.00000E+00
 -1      3278-3.09016E+02-1.56609E+03 0.00000E+00
 -1      3279-2.89674E+02-1.57186E+03 0.00000E+00
 -1      3280-2.91227E+02-1.57740E+03 0.00000E+00
 -1      3281-3.28240E+02-1.58141E+03 0.00000E+00
 -1      3282-2.96145E+02-1.55813E+03 0.00000E+00
 -1      3283-2.90596E+02-1.55671E+03 0.00000E+00
 -1      3284-2.86594E+02-1.56081E+03 0.00000E+00
 -1      3285-2.85050E+02-1.55529E+03 0.00000E+00
 -1      3286-2.81042E+02-1.55939E+03 0.00000E+00
 -1      3287-2.79494E+02-1.55386E+03 0.00000E+00
 -1      3288-3.19927E+02-1.56933E+03 0.00000E+00
 -1      3289-2.94585E+02-1.55260E+03 0.00000E+00
 -1      3290-2.85527E+02-1.57581E+03 0.00000E+00
 -1      3291-2.87197E+02-1.58145E+03 0.00000E+00
 -1      3292-2.75764E+02-1.55800E+03 0.00000E+00
 -1      3293-2.73332E+02-1.55237E+03 0.00000E+00
 -1      3294-2.77847E+02-1.54833E+03 0.00000E+00
 -1      3295-2.72364E+02-1.54659E+03 0.00000E+00
 -1      3296-3.01693E+02-1.55955E+03 0.00000E+00
 -1      3297-2.83868E+02-1.57027E+03 0.00000E+00
 -1      3298-3.07959E+02-1.58126E+03 0.00000E+00
 -1      3299-3.25452E+02-1.57089E+03 0.00000E+00
 -1      3300-3.24424E+02-1.56553E+03 0.00000E+00
 -1      3301-2.92831E+02-1.58275E+03 0.00000E+00
 -1      3302-2.76383E+02-1.54281E+03 0.00000E+00
 -1      3303-2.70850E+02-1.54134E+03 0.00000E+00
 -1      3304-2.67054E+02-1.54518E+03 0.00000E+00
 -1      3305-2.65428E+02-1.53989E+03 0.00000E+00
 -1      3306-2.69339E+02-1.53587E+03 0.00000E+00
 -1      3307-2.63795E+02-1.53450E+03 0.00000E+00
 -1      3308-2.59941E+02-1.53826E+03 0.00000E+00
 -1      3309-2.58250E+02-1.53303E+03 0.00000E+00
 -1      3310-2.53715E+02-1.53752E+03 0.00000E+00
 -1      3311-2.52618E+02-1.53166E+03 0.00000E+00
 -1      3312-2.48361E+02-1.53553E+03 0.00000E+00
 -1      3313-2.47090E+02-1.53015E+03 0.00000E+00
 -1      3314-2.43079E+02-1.53422E+03 0.00000E+00
 -1      3315-2.41594E+02-1.52872E+03 0.00000E+00
 -1      3316-2.37585E+02-1.53280E+03 0.00000E+00
 -1      3317-2.36068E+02-1.52729E+03 0.00000E+00
 -1      3318-2.32054E+02-1.53137E+03 0.00000E+00
 -1      3319-2.30531E+02-1.52585E+03 0.00000E+00
 -1      3320-2.26515E+02-1.52994E+03 0.00000E+00
 -1      3321-2.34558E+02-1.52177E+03 0.00000E+00
 -1      3322-2.33318E+02-1.53680E+03 0.00000E+00
 -1      3323-2.56688E+02-1.52736E+03 0.00000E+00
 -1      3324-2.25054E+02-1.52447E+03 0.00000E+00
 -1      3325-2.21046E+02-1.52857E+03 0.00000E+00
 -1      3326-2.22527E+02-1.53383E+03 0.00000E+00
 -1      3327-2.16980E+02-1.53256E+03 0.00000E+00
 -1      3328-2.18783E+02-1.53859E+03 0.00000E+00
 -1      3329-2.12997E+02-1.53674E+03 0.00000E+00
 -1      3330-2.14173E+02-1.54223E+03 0.00000E+00
 -1      3331-2.08882E+02-1.54077E+03 0.00000E+00
 -1      3332-2.11504E+02-1.53122E+03 0.00000E+00
 -1      3333-2.10702E+02-1.54623E+03 0.00000E+00
 -1      3334-2.04899E+02-1.54483E+03 0.00000E+00
 -1      3335-2.03374E+02-1.53931E+03 0.00000E+00
 -1      3336-1.99359E+02-1.54339E+03 0.00000E+00
 -1      3337-2.01014E+02-1.54905E+03 0.00000E+00
 -1      3338-1.95361E+02-1.54749E+03 0.00000E+00
 -1      3339-1.97014E+02-1.55315E+03 0.00000E+00
 -1      3340-1.91329E+02-1.55157E+03 0.00000E+00
 -1      3341-1.92859E+02-1.55710E+03 0.00000E+00
 -1      3342-1.87280E+02-1.55563E+03 0.00000E+00
 -1      3343-1.88809E+02-1.56116E+03 0.00000E+00
 -1      3344-1.83247E+02-1.55971E+03 0.00000E+00
 -1      3345-1.84777E+02-1.56524E+03 0.00000E+00
 -1      3346-1.79211E+02-1.56379E+03 0.00000E+00
 -1      3347-1.80747E+02-1.56932E+03 0.00000E+00
 -1      3348-1.75189E+02-1.56787E+03 0.00000E+00
 -1      3349-1.76719E+02-1.57341E+03 0.00000E+00
 -1      3350-1.71164E+02-1.57196E+03 0.00000E+00
 -1      3351-1.69633E+02-1.56643E+03 0.00000E+00
 -1      3352-1.65609E+02-1.57051E+03 0.00000E+00
 -1      3353-1.82279E+02-1.57486E+03 0.00000E+00
 -1      3354-1.81691E+02-1.55418E+03 0.00000E+00
 -1      3355-1.67132E+02-1.57604E+03 0.00000E+00
 -1      3356-1.61581E+02-1.57459E+03 0.00000E+00
 -1      3357-1.60062E+02-1.56906E+03 0.00000E+00
 -1      3358-1.56034E+02-1.57314E+03 0.00000E+00
 -1      3359-1.63098E+02-1.58013E+03 0.00000E+00
 -1      3360-1.78245E+02-1.57895E+03 0.00000E+00
 -1      3361-1.84133E+02-1.58034E+03 0.00000E+00
 -1      3362-1.54523E+02-1.56761E+03 0.00000E+00
 -1      3363-1.50492E+02-1.57168E+03 0.00000E+00
 -1      3364-1.52006E+02-1.57721E+03 0.00000E+00
 -1      3365-1.46461E+02-1.57575E+03 0.00000E+00
 -1      3366-1.79280E+02-1.58533E+03 0.00000E+00
 -1      3367-1.85427E+02-1.58569E+03 0.00000E+00
 -1      3368-1.98378E+02-1.55852E+03 0.00000E+00
 -1      3369-1.58595E+02-1.56359E+03 0.00000E+00
 -1      3370-1.87853E+02-1.57630E+03 0.00000E+00
 -1      3371-1.89800E+02-1.54602E+03 0.00000E+00
 -1      3372-1.47846E+02-1.58115E+03 0.00000E+00
 -1      3373-1.42412E+02-1.57980E+03 0.00000E+00
 -1      3374-1.40925E+02-1.57430E+03 0.00000E+00
 -1      3375-1.36893E+02-1.57836E+03 0.00000E+00
 -1      3376-1.38397E+02-1.58389E+03 0.00000E+00
 -1      3377-1.32920E+02-1.58249E+03 0.00000E+00
 -1      3378-1.34210E+02-1.58781E+03 0.00000E+00
 -1      3379-2.45581E+02-1.52477E+03 0.00000E+00
 -1      3380-1.90273E+02-1.56663E+03 0.00000E+00
 -1      3381-2.81872E+02-1.54445E+03 0.00000E+00
 -1      3382-1.39743E+02-1.59009E+03 0.00000E+00
 -1      3383-2.76910E+02-1.56338E+03 0.00000E+00
 -1      3384-3.32549E+02-1.58874E+03 0.00000E+00
 -1      3385-1.68467E+02-1.58140E+03 0.00000E+00
 -1      3386-1.63937E+02-1.58538E+03 0.00000E+00
 -1      3387-1.58594E+02-1.58398E+03 0.00000E+00
 -1      3388-3.18996E+02-1.56378E+03 0.00000E+00
 -1      3389-2.89791E+02-1.58673E+03 0.00000E+00
 -1      3390-1.35391E+02-1.57285E+03 0.00000E+00
 -1      3391-2.44540E+02-1.53836E+03 0.00000E+00
 -1      3392-2.81430E+02-1.57929E+03 0.00000E+00
 -1      3393-9.07910E+01-1.59137E+03 0.00000E+00
 -1      3394-8.84538E+01-1.58568E+03 0.00000E+00
 -1      3395-8.26785E+01-1.58440E+03 0.00000E+00
 -1      3396-8.69647E+01-1.58032E+03 0.00000E+00
 -1      3397-8.14809E+01-1.57895E+03 0.00000E+00
 -1      3398-8.54745E+01-1.57484E+03 0.00000E+00
 -1      3399-7.99251E+01-1.57343E+03 0.00000E+00
 -1      3400-7.59284E+01-1.57751E+03 0.00000E+00
 -1      3401-7.43697E+01-1.57201E+03 0.00000E+00
 -1      3402-7.03636E+01-1.57611E+03 0.00000E+00
 -1      3403-6.88122E+01-1.57059E+03 0.00000E+00
 -1      3404-6.48028E+01-1.57470E+03 0.00000E+00
 -1      3405-6.32512E+01-1.56917E+03 0.00000E+00
 -1      3406-5.92396E+01-1.57328E+03 0.00000E+00
 -1      3407-5.76901E+01-1.56775E+03 0.00000E+00
 -1      3408-6.16984E+01-1.56365E+03 0.00000E+00
 -1      3409-5.61440E+01-1.56223E+03 0.00000E+00
 -1      3410-7.30163E+01-1.56609E+03 0.00000E+00
 -1      3411-5.36741E+01-1.57186E+03 0.00000E+00
 -1      3412-5.52265E+01-1.57740E+03 0.00000E+00
 -1      3413-9.22398E+01-1.58141E+03 0.00000E+00
 -1      3414-6.01452E+01-1.55813E+03 0.00000E+00
 -1      3415-5.45956E+01-1.55671E+03 0.00000E+00
 -1      3416-5.05937E+01-1.56081E+03 0.00000E+00
 -1      3417-4.90500E+01-1.55529E+03 0.00000E+00
 -1      3418-4.50417E+01-1.55939E+03 0.00000E+00
 -1      3419-4.34940E+01-1.55386E+03 0.00000E+00
 -1      3420-8.39267E+01-1.56933E+03 0.00000E+00
 -1      3421-5.85850E+01-1.55260E+03 0.00000E+00
 -1      3422-4.95267E+01-1.57581E+03 0.00000E+00
 -1      3423-5.11969E+01-1.58145E+03 0.00000E+00
 -1      3424-3.94344E+01-1.55768E+03 0.00000E+00
 -1      3425-3.77793E+01-1.55204E+03 0.00000E+00
 -1      3426-4.19211E+01-1.54827E+03 0.00000E+00
 -1      3427-3.63994E+01-1.54692E+03 0.00000E+00
 -1      3428-6.56933E+01-1.55955E+03 0.00000E+00
 -1      3429-4.78676E+01-1.57027E+03 0.00000E+00
 -1      3430-7.19588E+01-1.58126E+03 0.00000E+00
 -1      3431-8.94520E+01-1.57089E+03 0.00000E+00
 -1      3432-8.84237E+01-1.56553E+03 0.00000E+00
 -1      3433-5.66255E+01-1.58275E+03 0.00000E+00
 -1      3434-4.03926E+01-1.54286E+03 0.00000E+00
 -1      3435-3.48599E+01-1.54141E+03 0.00000E+00
 -1      3436-3.08877E+01-1.54536E+03 0.00000E+00
 -1      3437-2.93202E+01-1.53995E+03 0.00000E+00
 -1      3438-2.53098E+01-1.54404E+03 0.00000E+00
 -1      3439-2.37655E+01-1.53853E+03 0.00000E+00
 -1      3440-1.95095E+01-1.54272E+03 0.00000E+00
 -1      3441-1.79346E+01-1.53721E+03 0.00000E+00
 -1      3442-2.21784E+01-1.53304E+03 0.00000E+00
 -1      3443-1.66236E+01-1.53161E+03 0.00000E+00
 -1      3444-1.26647E+01-1.53568E+03 0.00000E+00
 -1      3445-1.11223E+01-1.53016E+03 0.00000E+00
 -1      3446-7.19087E+00-1.53395E+03 0.00000E+00
 -1      3447-5.60091E+00-1.52867E+03 0.00000E+00
 -1      3448-1.58578E+00-1.53275E+03 0.00000E+00
 -1      3449-4.97879E-02-1.52727E+03 0.00000E+00
 -1      3450 3.96795E+00-1.53136E+03 0.00000E+00
 -1      3451 5.50151E+00-1.52585E+03 0.00000E+00
 -1      3452 9.51492E+00-1.52993E+03 0.00000E+00
 -1      3453 1.49247E+00-1.52178E+03 0.00000E+00
 -1      3454 7.97199E+00-1.53532E+03 0.00000E+00
 -1      3455 1.34912E+01-1.53386E+03 0.00000E+00
 -1      3456 1.50487E+01-1.52847E+03 0.00000E+00
 -1      3457 1.90626E+01-1.53254E+03 0.00000E+00
 -1      3458-9.60595E+00-1.52463E+03 0.00000E+00
 -1      3459 1.72102E+01-1.53785E+03 0.00000E+00
 -1      3460 2.30332E+01-1.53661E+03 0.00000E+00
 -1      3461-3.47041E+00-1.53856E+03 0.00000E+00
 -1      3462-4.58857E+01-1.54445E+03 0.00000E+00
 -1      3463 2.09107E+01-1.54192E+03 0.00000E+00
 -1      3464 2.67531E+01-1.54079E+03 0.00000E+00
 -1      3465-5.45272E+02-1.59601E+03 0.00000E+00
 -1      3466-5.50279E+02-1.58740E+03 0.00000E+00
 -1      3467 3.89781E+01-1.53715E+03 0.00000E+00
 -1      3468 7.38423E+02-1.48640E+03 0.00000E+00
 -1      3469 7.38378E+02-1.49634E+03 0.00000E+00
 -1      3470 7.41218E+02-1.50130E+03 0.00000E+00
 -1      3471 7.44163E+02-1.49631E+03 0.00000E+00
 -1      3472 7.38337E+02-1.50619E+03 0.00000E+00
 -1      3473 2.82362E+02-1.66361E+03 0.00000E+00
 -1      3474 1.54671E+02-1.70600E+03 0.00000E+00
 -1      3475 3.03366E+02-1.67996E+03 0.00000E+00
 -1      3476-3.34099E+02-1.67316E+03 0.00000E+00
 -1      3477-2.93030E+02-1.67673E+03 0.00000E+00
 -1      3478 2.93847E+02-1.67667E+03 0.00000E+00
 -1      3479-1.36018E+02-1.70324E+03 0.00000E+00
 -1      3480-4.95270E+02-1.62977E+03 0.00000E+00
 -1      3481-4.85339E+01-1.69939E+03 0.00000E+00
 -1      3482 4.84790E+02-1.63665E+03 0.00000E+00
 -1      3483 6.95369E+02-1.54087E+03 0.00000E+00
 -1      3484-2.81238E+02-1.67557E+03 0.00000E+00
 -1      3485-2.79204E+02-1.67007E+03 0.00000E+00
 -1      3486 3.37592E+02-1.67385E+03 0.00000E+00
 -1      3487 1.85012E+02-1.67939E+03 0.00000E+00
 -1      3488-4.60364E+02-1.63938E+03 0.00000E+00
 -1      3489-1.39916E+02-1.68280E+03 0.00000E+00
 -1      3490-3.04232E+02-1.67914E+03 0.00000E+00
 -1      3491 1.97038E+02-1.67825E+03 0.00000E+00
 -1      3492 1.92959E+02-1.67308E+03 0.00000E+00
 -1      3493 7.55665E+02-1.46725E+03 0.00000E+00
 -1      3494 7.57108E+02-1.45767E+03 0.00000E+00
 -1      3495-4.74972E+02-1.63647E+03 0.00000E+00
 -1      3496-1.82886E+02-1.68531E+03 0.00000E+00
 -1      3497 5.53053E+01-1.56928E+03 0.00000E+00
 -1      3498 6.08628E+01-1.56782E+03 0.00000E+00
 -1      3499 5.93368E+01-1.57336E+03 0.00000E+00
 -1      3500 6.48907E+01-1.57191E+03 0.00000E+00
 -1      3501 6.64174E+01-1.56637E+03 0.00000E+00
 -1      3502 7.04446E+01-1.57045E+03 0.00000E+00
 -1      3503 5.37783E+01-1.57482E+03 0.00000E+00
 -1      3504 5.43498E+01-1.55413E+03 0.00000E+00
 -1      3505 6.89253E+01-1.57599E+03 0.00000E+00
 -1      3506 7.44754E+01-1.57453E+03 0.00000E+00
 -1      3507 7.59904E+01-1.56900E+03 0.00000E+00
 -1      3508 8.00206E+01-1.57307E+03 0.00000E+00
 -1      3509 7.29628E+01-1.58007E+03 0.00000E+00
 -1      3510 5.78153E+01-1.57891E+03 0.00000E+00
 -1      3511 5.19511E+01-1.58048E+03 0.00000E+00
 -1      3512 8.15279E+01-1.56755E+03 0.00000E+00
 -1      3513 8.55614E+01-1.57161E+03 0.00000E+00
 -1      3514 8.40518E+01-1.57714E+03 0.00000E+00
 -1      3515 8.95953E+01-1.57568E+03 0.00000E+00
 -1      3516 3.75289E+01-1.55843E+03 0.00000E+00
 -1      3517 5.67585E+01-1.58532E+03 0.00000E+00
 -1      3518 4.96572E+01-1.58668E+03 0.00000E+00
 -1      3519 4.82052E+01-1.57626E+03 0.00000E+00
 -1      3520 7.74483E+01-1.56353E+03 0.00000E+00
 -1      3521 4.62457E+01-1.54599E+03 0.00000E+00
 -1      3522 3.38121E+01-1.53350E+03 0.00000E+00
 -1      3523 8.82087E+01-1.58108E+03 0.00000E+00
 -1      3524 9.36466E+01-1.57973E+03 0.00000E+00
 -1      3525 9.51306E+01-1.57422E+03 0.00000E+00
 -1      3526 9.91655E+01-1.57828E+03 0.00000E+00
 -1      3527 9.76652E+01-1.58381E+03 0.00000E+00
 -1      3528 1.03135E+02-1.58241E+03 0.00000E+00
 -1      3529 1.01847E+02-1.58773E+03 0.00000E+00
 -1      3530 4.57731E+01-1.56659E+03 0.00000E+00
 -1      3531 9.62871E+01-1.59005E+03 0.00000E+00
 -1      3532 2.03775E+01-1.52700E+03 0.00000E+00
 -1      3533-4.08901E+01-1.56336E+03 0.00000E+00
 -1      3534-9.65490E+01-1.58874E+03 0.00000E+00
 -1      3535 6.75891E+01-1.58135E+03 0.00000E+00
 -1      3536 7.02333E+00-1.52035E+03 0.00000E+00
 -1      3537 7.23693E+01-1.58521E+03 0.00000E+00
 -1      3538 7.76718E+01-1.58381E+03 0.00000E+00
 -1      3539-8.29960E+01-1.56378E+03 0.00000E+00
 -1      3540-2.06006E+01-1.52778E+03 0.00000E+00
 -1      3541-2.59541E+01-1.52906E+03 0.00000E+00
 -1      3542-5.29296E+01-1.58649E+03 0.00000E+00
 -1      3543-3.27852E+01-1.53597E+03 0.00000E+00
 -1      3544 1.00663E+02-1.57276E+03 0.00000E+00
 -1      3545-2.13571E+01-1.54775E+03 0.00000E+00
 -1      3546-4.54295E+01-1.57929E+03 0.00000E+00
 -1      3547 3.81608E+02-1.59146E+03 0.00000E+00
 -1      3548 2.14610E+02-1.55144E+03 0.00000E+00
 -1      3549-4.50601E+02-1.55237E+03 0.00000E+00
 -1      3550-2.57390E+02-1.55144E+03 0.00000E+00
 -1      3551 2.18500E+01-1.55162E+03 0.00000E+00
 -1      3552 9.78859E+00-1.54586E+03 0.00000E+00
 -1      3553-4.88275E+02-1.54818E+03 0.00000E+00
 -1      3554-2.32305E+02-1.54602E+03 0.00000E+00
 -1      3555-2.28498E+02-1.54112E+03 0.00000E+00
 -1      3556 2.39133E+02-1.54552E+03 0.00000E+00
 -1      3557 5.10484E+02-1.57328E+03 0.00000E+00
 -1      3558-5.10484E+02-1.57328E+03 0.00000E+00
 -1      3559-5.12381E+02-1.58629E+03 0.00000E+00
 -1      3560 5.12381E+02-1.58629E+03 0.00000E+00
 -1      3561 3.69137E+02-1.60021E+03 0.00000E+00
 -1      3562-3.37449E+02-1.59847E+03 0.00000E+00
 -1      3563 1.34551E+02-1.59847E+03 0.00000E+00
 -1      3564-1.01449E+02-1.59847E+03 0.00000E+00
 -1      3565 4.87823E+02-1.54942E+03 0.00000E+00
 -1      3566 4.81691E+02-1.54715E+03 0.00000E+00
 -1      3567-3.93906E+02-1.58895E+03 0.00000E+00
 -1      3568 3.93245E+02-1.58899E+03 0.00000E+00
 -1      3569 3.98822E+02-1.58707E+03 0.00000E+00
 -1      3570-2.67487E+02-1.56153E+03 0.00000E+00
 -1      3571 2.04513E+02-1.56153E+03 0.00000E+00
 -1      3572-4.41103E+02-1.56016E+03 0.00000E+00
 -1      3573-4.37545E+02-1.56452E+03 0.00000E+00
 -1      3574 4.40911E+02-1.56079E+03 0.00000E+00
 -1      3575 4.36385E+02-1.56580E+03 0.00000E+00
 -1      3576 4.30979E+02-1.56808E+03 0.00000E+00
 -1      3577 4.28387E+02-1.57244E+03 0.00000E+00
 -1      3578 4.31100E+02-1.57709E+03 0.00000E+00
 -1      3579 4.25303E+02-1.57727E+03 0.00000E+00
 -1      3580 2.51985E+02-1.54913E+03 0.00000E+00
 -1      3581-2.20610E+02-1.54815E+03 0.00000E+00
 -1      3582 3.92452E+01-1.57946E+03 0.00000E+00
 -1      3583 2.75348E+02-1.57941E+03 0.00000E+00
 -1      3584-4.32120E+02-1.57829E+03 0.00000E+00
 -1      3585-4.27093E+02-1.58136E+03 0.00000E+00
 -1      3586-4.28323E+02-1.57355E+03 0.00000E+00
 -1      3587-4.26455E+02-1.58722E+03 0.00000E+00
 -1      3588-4.21921E+02-1.58324E+03 0.00000E+00
 -1      3589-4.23223E+02-1.57698E+03 0.00000E+00
 -1      3590-4.29907E+02-1.56868E+03 0.00000E+00
 -1      3591-4.17422E+02-1.57812E+03 0.00000E+00
 -1      3592-4.16590E+02-1.58484E+03 0.00000E+00
 -1      3593-4.30673E+02-1.59071E+03 0.00000E+00
 -1      3594-1.96581E+02-1.57925E+03 0.00000E+00
 -1      3595 2.70845E+02-1.56702E+03 0.00000E+00
 -1      3596-2.01156E+02-1.56697E+03 0.00000E+00
 -1      3597 3.48571E+01-1.56701E+03 0.00000E+00
 -1      3598 2.94933E+02-1.59295E+03 0.00000E+00
 -1      3599 4.18380E+02-1.58909E+03 0.00000E+00
 -1      3600 4.23583E+02-1.59201E+03 0.00000E+00
 -1      3601 4.12802E+02-1.58551E+03 0.00000E+00
 -1      3602 4.18461E+02-1.58331E+03 0.00000E+00
 -1      3603 4.14722E+02-1.57910E+03 0.00000E+00
 -1      3604 4.23558E+02-1.59811E+03 0.00000E+00
 -1      3605 1.75735E+02-1.59107E+03 0.00000E+00
 -1      3606-3.46599E+02-1.61012E+03 0.00000E+00
 -1      3607-1.09826E+02-1.60876E+03 0.00000E+00
 -1      3608 1.25401E+02-1.61012E+03 0.00000E+00
 -1      3609 3.62265E+02-1.60936E+03 0.00000E+00
 -1      3610 3.48629E+02-1.61495E+03 0.00000E+00
 -1      3611-3.60095E+02-1.61577E+03 0.00000E+00
 -1      3612 1.11905E+02-1.61577E+03 0.00000E+00
 -1      3613-1.23692E+02-1.61604E+03 0.00000E+00
 -1      3614 2.75411E+02-1.59315E+03 0.00000E+00
 -1      3615 2.78529E+02-1.59868E+03 0.00000E+00
 -1      3616 2.80664E+02-1.59321E+03 0.00000E+00
 -1      3617-1.96550E+02-1.59204E+03 0.00000E+00
 -1      3618-1.92516E+02-1.59583E+03 0.00000E+00
 -1      3619 3.98865E+01-1.59118E+03 0.00000E+00
 -1      3620 4.37027E+01-1.59580E+03 0.00000E+00
 -1      3621-3.98865E+01-1.59118E+03 0.00000E+00
 -1      3622-4.37027E+01-1.59580E+03 0.00000E+00
 -1      3623-4.54847E+01-1.59087E+03 0.00000E+00
 -1      3624 1.96113E+02-1.59118E+03 0.00000E+00
 -1      3625 1.92297E+02-1.59580E+03 0.00000E+00
 -1      3626 1.90515E+02-1.59087E+03 0.00000E+00
 -1      3627-2.75887E+02-1.59118E+03 0.00000E+00
 -1      3628-2.79703E+02-1.59580E+03 0.00000E+00
 -1      3629-2.81610E+02-1.59094E+03 0.00000E+00
 -1      3630 4.33085E+02-1.59162E+03 0.00000E+00
 -1      3631-4.23892E+02-1.59903E+03 0.00000E+00
 -1      3632 3.64091E+02-1.65905E+03 0.00000E+00
 -1      3633 3.67599E+02-1.66332E+03 0.00000E+00
 -1      3634 3.62225E+02-1.66449E+03 0.00000E+00
 -1      3635 3.65963E+02-1.66889E+03 0.00000E+00
 -1      3636 3.60316E+02-1.66992E+03 0.00000E+00
 -1      3637 3.56607E+02-1.66553E+03 0.00000E+00
 -1      3638 3.54636E+02-1.67094E+03 0.00000E+00
 -1      3639 3.64052E+02-1.67435E+03 0.00000E+00
 -1      3640 3.69761E+02-1.67335E+03 0.00000E+00
 -1      3641 3.50916E+02-1.66650E+03 0.00000E+00
 -1      3642 3.48939E+02-1.67194E+03 0.00000E+00
 -1      3643 3.52662E+02-1.67638E+03 0.00000E+00
 -1      3644 3.46958E+02-1.67738E+03 0.00000E+00
 -1      3645 3.43250E+02-1.67305E+03 0.00000E+00
 -1      3646 3.41252E+02-1.67841E+03 0.00000E+00
 -1      3647 3.52853E+02-1.66104E+03 0.00000E+00
 -1      3648 3.44978E+02-1.68284E+03 0.00000E+00
 -1      3649 3.39267E+02-1.68384E+03 0.00000E+00
 -1      3650 3.35539E+02-1.67940E+03 0.00000E+00
 -1      3651 3.33555E+02-1.68485E+03 0.00000E+00
 -1      3652 3.29841E+02-1.68048E+03 0.00000E+00
 -1      3653 3.27846E+02-1.68586E+03 0.00000E+00
 -1      3654 3.24132E+02-1.68150E+03 0.00000E+00
 -1      3655 3.22136E+02-1.68687E+03 0.00000E+00
 -1      3656 3.18409E+02-1.68243E+03 0.00000E+00
 -1      3657 3.16423E+02-1.68787E+03 0.00000E+00
 -1      3658 3.12696E+02-1.68343E+03 0.00000E+00
 -1      3659 3.10711E+02-1.68887E+03 0.00000E+00
 -1      3660 3.06984E+02-1.68443E+03 0.00000E+00
 -1      3661 3.05000E+02-1.68988E+03 0.00000E+00
 -1      3662 3.01273E+02-1.68543E+03 0.00000E+00
 -1      3663 2.99289E+02-1.69088E+03 0.00000E+00
 -1      3664 2.95562E+02-1.68644E+03 0.00000E+00
 -1      3665 2.97746E+02-1.68073E+03 0.00000E+00
 -1      3666 2.91869E+02-1.68195E+03 0.00000E+00
 -1      3667 2.89857E+02-1.68744E+03 0.00000E+00
 -1      3668 2.86132E+02-1.68299E+03 0.00000E+00
 -1      3669 2.84142E+02-1.68845E+03 0.00000E+00
 -1      3670 2.80415E+02-1.68400E+03 0.00000E+00
 -1      3671 2.78430E+02-1.68945E+03 0.00000E+00
 -1      3672 2.74703E+02-1.68501E+03 0.00000E+00
 -1      3673 2.76688E+02-1.67956E+03 0.00000E+00
 -1      3674 2.70976E+02-1.68056E+03 0.00000E+00
 -1      3675 2.68992E+02-1.68601E+03 0.00000E+00
 -1      3676 2.65266E+02-1.68157E+03 0.00000E+00
 -1      3677 2.67243E+02-1.67611E+03 0.00000E+00
 -1      3678 2.61541E+02-1.67712E+03 0.00000E+00
 -1      3679 2.59556E+02-1.68257E+03 0.00000E+00
 -1      3680 2.55833E+02-1.67812E+03 0.00000E+00
 -1      3681 2.57820E+02-1.67268E+03 0.00000E+00
 -1      3682 2.52112E+02-1.67368E+03 0.00000E+00
 -1      3683 2.54094E+02-1.66823E+03 0.00000E+00
 -1      3684 2.48384E+02-1.66923E+03 0.00000E+00
 -1      3685 2.46404E+02-1.67468E+03 0.00000E+00
 -1      3686 2.42672E+02-1.67023E+03 0.00000E+00
 -1      3687 2.40695E+02-1.67568E+03 0.00000E+00
 -1      3688 2.36971E+02-1.67123E+03 0.00000E+00
 -1      3689 2.34988E+02-1.67668E+03 0.00000E+00
 -1      3690 2.31268E+02-1.67223E+03 0.00000E+00
 -1      3691 2.29281E+02-1.67767E+03 0.00000E+00
 -1      3692 2.33248E+02-1.66679E+03 0.00000E+00
 -1      3693 2.25561E+02-1.67323E+03 0.00000E+00
 -1      3694 2.23573E+02-1.67868E+03 0.00000E+00
 -1      3695 2.50346E+02-1.66378E+03 0.00000E+00
 -1      3696 2.19853E+02-1.67423E+03 0.00000E+00
 -1      3697 2.17865E+02-1.67967E+03 0.00000E+00
 -1      3698 2.14145E+02-1.67523E+03 0.00000E+00
 -1      3699 2.12157E+02-1.68068E+03 0.00000E+00
 -1      3700 2.16133E+02-1.66979E+03 0.00000E+00
 -1      3701 2.32992E+02-1.68212E+03 0.00000E+00
 -1      3702 2.15867E+02-1.68512E+03 0.00000E+00
 -1      3703 2.10164E+02-1.68612E+03 0.00000E+00
 -1      3704 2.06447E+02-1.68168E+03 0.00000E+00
 -1      3705 2.04456E+02-1.68712E+03 0.00000E+00
 -1      3706 2.00737E+02-1.68268E+03 0.00000E+00
 -1      3707 1.98747E+02-1.68812E+03 0.00000E+00
 -1      3708 1.95027E+02-1.68367E+03 0.00000E+00
 -1      3709 1.93037E+02-1.68911E+03 0.00000E+00
 -1      3710 1.89318E+02-1.68467E+03 0.00000E+00
 -1      3711 1.87327E+02-1.69011E+03 0.00000E+00
 -1      3712 2.08152E+02-1.69157E+03 0.00000E+00
 -1      3713 2.02727E+02-1.67723E+03 0.00000E+00
 -1      3714 2.59780E+02-1.66722E+03 0.00000E+00
 -1      3715 2.53845E+02-1.68357E+03 0.00000E+00
 -1      3716 1.96730E+02-1.69356E+03 0.00000E+00
 -1      3717 1.83608E+02-1.68567E+03 0.00000E+00
 -1      3718 1.81618E+02-1.69111E+03 0.00000E+00
 -1      3719 1.77908E+02-1.68672E+03 0.00000E+00
 -1      3720 1.75910E+02-1.69212E+03 0.00000E+00
 -1      3721 1.72201E+02-1.68773E+03 0.00000E+00
 -1      3722 1.70201E+02-1.69312E+03 0.00000E+00
 -1      3723 1.66482E+02-1.68868E+03 0.00000E+00
 -1      3724 1.64490E+02-1.69411E+03 0.00000E+00
 -1      3725 1.60771E+02-1.68967E+03 0.00000E+00
 -1      3726 1.58782E+02-1.69511E+03 0.00000E+00
 -1      3727 1.55061E+02-1.69067E+03 0.00000E+00
 -1      3728 1.53070E+02-1.69611E+03 0.00000E+00
 -1      3729 1.49350E+02-1.69167E+03 0.00000E+00
 -1      3730 1.47359E+02-1.69710E+03 0.00000E+00
 -1      3731 1.43640E+02-1.69267E+03 0.00000E+00
 -1      3732 1.41648E+02-1.69810E+03 0.00000E+00
 -1      3733 1.37928E+02-1.69366E+03 0.00000E+00
 -1      3734 1.35936E+02-1.69910E+03 0.00000E+00
 -1      3735 1.32216E+02-1.69466E+03 0.00000E+00
 -1      3736 1.30187E+02-1.70009E+03 0.00000E+00
 -1      3737 1.26499E+02-1.69565E+03 0.00000E+00
 -1      3738 1.28494E+02-1.69022E+03 0.00000E+00
 -1      3739 1.22783E+02-1.69122E+03 0.00000E+00
 -1      3740 1.20752E+02-1.69664E+03 0.00000E+00
 -1      3741 1.17068E+02-1.69221E+03 0.00000E+00
 -1      3742 1.19065E+02-1.68677E+03 0.00000E+00
 -1      3743 1.13356E+02-1.68777E+03 0.00000E+00
 -1      3744 1.11362E+02-1.69320E+03 0.00000E+00
 -1      3745 1.07647E+02-1.68877E+03 0.00000E+00
 -1      3746 1.05653E+02-1.69420E+03 0.00000E+00
 -1      3747 1.01938E+02-1.68976E+03 0.00000E+00
 -1      3748 9.99439E+01-1.69519E+03 0.00000E+00
 -1      3749 9.62281E+01-1.69076E+03 0.00000E+00
 -1      3750 9.42340E+01-1.69619E+03 0.00000E+00
 -1      3751 9.05175E+01-1.69176E+03 0.00000E+00
 -1      3752 8.85254E+01-1.69719E+03 0.00000E+00
 -1      3753 8.48075E+01-1.69275E+03 0.00000E+00
 -1      3754 8.28140E+01-1.69818E+03 0.00000E+00
 -1      3755 7.90976E+01-1.69375E+03 0.00000E+00
 -1      3756 7.71036E+01-1.69918E+03 0.00000E+00
 -1      3757 7.33879E+01-1.69475E+03 0.00000E+00
 -1      3758 7.13937E+01-1.70018E+03 0.00000E+00
 -1      3759 6.76783E+01-1.69574E+03 0.00000E+00
 -1      3760 6.56862E+01-1.70118E+03 0.00000E+00
 -1      3761 1.15347E+02-1.68233E+03 0.00000E+00
 -1      3762 9.78675E+01-1.70064E+03 0.00000E+00
 -1      3763 6.19695E+01-1.69674E+03 0.00000E+00
 -1      3764 5.99796E+01-1.70218E+03 0.00000E+00
 -1      3765 8.07282E+01-1.70364E+03 0.00000E+00
 -1      3766 6.39601E+01-1.69130E+03 0.00000E+00
 -1      3767 1.45630E+02-1.68722E+03 0.00000E+00
 -1      3768 1.68168E+02-1.69856E+03 0.00000E+00
 -1      3769 1.21053E+02-1.68133E+03 0.00000E+00
 -1      3770 1.17338E+02-1.67689E+03 0.00000E+00
 -1      3771 1.85304E+02-1.69556E+03 0.00000E+00
 -1      3772 1.09293E+02-1.69865E+03 0.00000E+00
 -1      3773 1.51029E+02-1.70155E+03 0.00000E+00
 -1      3774 5.82544E+01-1.69230E+03 0.00000E+00
 -1      3775 1.03937E+02-1.68432E+03 0.00000E+00
 -1      3776 6.93797E+01-1.70560E+03 0.00000E+00
 -1      3777 2.57568E+02-1.68802E+03 0.00000E+00
 -1      3778 2.51855E+02-1.68902E+03 0.00000E+00
 -1      3779 8.11454E+01-1.68863E+03 0.00000E+00
 -1      3780 6.02449E+01-1.68686E+03 0.00000E+00
 -1      3781 1.23041E+02-1.67589E+03 0.00000E+00
 -1      3782 1.19326E+02-1.67145E+03 0.00000E+00
 -1      3783 1.39601E+02-1.70355E+03 0.00000E+00
 -1      3784 9.25160E+01-1.68632E+03 0.00000E+00
 -1      3785 1.13624E+02-1.67245E+03 0.00000E+00
 -1      3786 1.91419E+02-1.67933E+03 0.00000E+00
 -1      3787 6.59498E+01-1.68586E+03 0.00000E+00
 -1      3788 2.55579E+02-1.69346E+03 0.00000E+00
 -1      3789 2.49864E+02-1.69447E+03 0.00000E+00
 -1      3790 5.45408E+01-1.68786E+03 0.00000E+00
 -1      3791 5.25508E+01-1.69329E+03 0.00000E+00
 -1      3792 5.65356E+01-1.68254E+03 0.00000E+00
 -1      3793 1.15612E+02-1.66701E+03 0.00000E+00
 -1      3794 1.79889E+02-1.68123E+03 0.00000E+00
 -1      3795 1.56976E+02-1.68505E+03 0.00000E+00
 -1      3796 1.25028E+02-1.67045E+03 0.00000E+00
 -1      3797 1.28743E+02-1.67489E+03 0.00000E+00
 -1      3798 1.68490E+02-1.68326E+03 0.00000E+00
 -1      3799 2.88155E+02-1.67776E+03 0.00000E+00
 -1      3800 2.46139E+02-1.69002E+03 0.00000E+00
 -1      3801 2.44146E+02-1.69547E+03 0.00000E+00
 -1      3802 4.88380E+01-1.68885E+03 0.00000E+00
 -1      3803 4.68474E+01-1.69429E+03 0.00000E+00
 -1      3804 1.09911E+02-1.66801E+03 0.00000E+00
 -1      3805 3.20918E+02-1.67692E+03 0.00000E+00
 -1      3806 2.87866E+02-1.69289E+03 0.00000E+00
 -1      3807 2.47873E+02-1.69992E+03 0.00000E+00
 -1      3808 2.42155E+02-1.70092E+03 0.00000E+00
 -1      3809 2.38429E+02-1.69647E+03 0.00000E+00
 -1      3810 2.36436E+02-1.70192E+03 0.00000E+00
 -1      3811 2.32709E+02-1.69747E+03 0.00000E+00
 -1      3812 2.30717E+02-1.70292E+03 0.00000E+00
 -1      3813 2.26990E+02-1.69847E+03 0.00000E+00
 -1      3814 2.24998E+02-1.70392E+03 0.00000E+00
 -1      3815 2.21271E+02-1.69947E+03 0.00000E+00
 -1      3816 2.19279E+02-1.70493E+03 0.00000E+00
 -1      3817 2.28982E+02-1.69302E+03 0.00000E+00
 -1      3818 3.67798E+02-1.67880E+03 0.00000E+00
 -1      3819 3.73504E+02-1.67779E+03 0.00000E+00
 -1      3820 1.07923E+02-1.67344E+03 0.00000E+00
 -1      3821 2.10427E+02-1.67079E+03 0.00000E+00
 -1      3822 2.12414E+02-1.66535E+03 0.00000E+00
 -1      3823 2.06711E+02-1.66635E+03 0.00000E+00
 -1      3824 2.08697E+02-1.66091E+03 0.00000E+00
 -1      3825 2.14400E+02-1.65991E+03 0.00000E+00
 -1      3826 2.10683E+02-1.65547E+03 0.00000E+00
 -1      3827 2.16384E+02-1.65448E+03 0.00000E+00
 -1      3828 2.12669E+02-1.65004E+03 0.00000E+00
 -1      3829 2.18368E+02-1.64904E+03 0.00000E+00
 -1      3830 2.14653E+02-1.64460E+03 0.00000E+00
 -1      3831 2.20352E+02-1.64360E+03 0.00000E+00
 -1      3832 2.24067E+02-1.64804E+03 0.00000E+00
 -1      3833 2.26051E+02-1.64260E+03 0.00000E+00
 -1      3834 2.29766E+02-1.64704E+03 0.00000E+00
 -1      3835 2.31749E+02-1.64161E+03 0.00000E+00
 -1      3836 2.35464E+02-1.64604E+03 0.00000E+00
 -1      3837 2.37384E+02-1.64066E+03 0.00000E+00
 -1      3838 2.41153E+02-1.64505E+03 0.00000E+00
 -1      3839 2.39178E+02-1.65048E+03 0.00000E+00
 -1      3840 2.44877E+02-1.64948E+03 0.00000E+00
 -1      3841 2.46861E+02-1.64404E+03 0.00000E+00
 -1      3842 2.50578E+02-1.64848E+03 0.00000E+00
 -1      3843 2.52561E+02-1.64304E+03 0.00000E+00
 -1      3844 2.56277E+02-1.64748E+03 0.00000E+00
 -1      3845 2.02995E+02-1.66191E+03 0.00000E+00
 -1      3846 2.16900E+02-1.63927E+03 0.00000E+00
 -1      3847 2.20102E+02-1.65891E+03 0.00000E+00
 -1      3848 2.58126E+02-1.64215E+03 0.00000E+00
 -1      3849 2.54523E+02-1.63763E+03 0.00000E+00
 -1      3850 2.61819E+02-1.64661E+03 0.00000E+00
 -1      3851 2.59966E+02-1.65193E+03 0.00000E+00
 -1      3852 2.27938E+02-1.63689E+03 0.00000E+00
 -1      3853 2.08907E+02-1.64573E+03 0.00000E+00
 -1      3854 2.42894E+02-1.65491E+03 0.00000E+00
 -1      3855 2.01008E+02-1.66735E+03 0.00000E+00
 -1      3856 1.97460E+02-1.66277E+03 0.00000E+00
 -1      3857 1.95777E+02-1.66786E+03 0.00000E+00
 -1      3858 5.05601E+01-1.69873E+03 0.00000E+00
 -1      3859 4.48562E+01-1.69972E+03 0.00000E+00
 -1      3860 4.85701E+01-1.70417E+03 0.00000E+00
 -1      3861 4.28625E+01-1.70516E+03 0.00000E+00
 -1      3862 4.65808E+01-1.70961E+03 0.00000E+00
 -1      3863 4.08688E+01-1.71060E+03 0.00000E+00
 -1      3864 4.45879E+01-1.71505E+03 0.00000E+00
 -1      3865 5.03015E+01-1.71406E+03 0.00000E+00
 -1      3866 3.88756E+01-1.71605E+03 0.00000E+00
 -1      3867 3.51568E+01-1.71160E+03 0.00000E+00
 -1      3868 3.31630E+01-1.71704E+03 0.00000E+00
 -1      3869 2.95327E+01-1.71263E+03 0.00000E+00
 -1      3870 2.74659E+01-1.71804E+03 0.00000E+00
 -1      3871 3.68811E+01-1.72149E+03 0.00000E+00
 -1      3872 2.27782E+02-1.65247E+03 0.00000E+00
 -1      3873 2.37197E+02-1.65591E+03 0.00000E+00
 -1      3874 2.61294E+02-1.69246E+03 0.00000E+00
 -1      3875 2.59306E+02-1.69791E+03 0.00000E+00
 -1      3876 2.65022E+02-1.69691E+03 0.00000E+00
 -1      3877 3.62087E+02-1.67981E+03 0.00000E+00
 -1      3878 2.15557E+02-1.70047E+03 0.00000E+00
 -1      3879 2.13560E+02-1.70593E+03 0.00000E+00
 -1      3880 2.09839E+02-1.70148E+03 0.00000E+00
 -1      3881 2.07837E+02-1.70690E+03 0.00000E+00
 -1      3882 2.04114E+02-1.70247E+03 0.00000E+00
 -1      3883 2.02117E+02-1.70790E+03 0.00000E+00
 -1      3884 1.98398E+02-1.70347E+03 0.00000E+00
 -1      3885 2.60134E+02-1.63657E+03 0.00000E+00
 -1      3886 2.56507E+02-1.63217E+03 0.00000E+00
 -1      3887 2.61676E+02-1.63086E+03 0.00000E+00
 -1      3888 3.93110E+01-1.70080E+03 0.00000E+00
 -1      3889 3.14395E+02-1.69307E+03 0.00000E+00
 -1      3890 1.31172E+02-1.66932E+03 0.00000E+00
 -1      3891 1.34796E+02-1.67373E+03 0.00000E+00
 -1      3892 1.27016E+02-1.66502E+03 0.00000E+00
 -1      3893 1.32517E+02-1.67930E+03 0.00000E+00
 -1      3894 1.38228E+02-1.67830E+03 0.00000E+00
 -1      3895 1.40146E+02-1.67290E+03 0.00000E+00
 -1      3896 1.43873E+02-1.67733E+03 0.00000E+00
 -1      3897 2.50955E+02-1.63331E+03 0.00000E+00
 -1      3898 2.65514E+02-1.65088E+03 0.00000E+00
 -1      3899 2.63674E+02-1.65634E+03 0.00000E+00
 -1      3900 2.69083E+02-1.65505E+03 0.00000E+00
 -1      3901 2.67369E+02-1.66073E+03 0.00000E+00
 -1      3902 1.45671E+02-1.67261E+03 0.00000E+00
 -1      3903 1.49563E+02-1.67634E+03 0.00000E+00
 -1      3904 2.72896E+02-1.65957E+03 0.00000E+00
 -1      3905 2.71104E+02-1.66517E+03 0.00000E+00
 -1      3906 3.31524E+02-1.69003E+03 0.00000E+00
 -1      3907 1.11907E+02-1.66262E+03 0.00000E+00
 -1      3908 1.17559E+02-1.66162E+03 0.00000E+00
 -1      3909 1.96388E+02-1.70884E+03 0.00000E+00
 -1      3910 1.92680E+02-1.70446E+03 0.00000E+00
 -1      3911 1.90667E+02-1.70983E+03 0.00000E+00
 -1      3912 1.86961E+02-1.70546E+03 0.00000E+00
 -1      3913 1.84937E+02-1.71077E+03 0.00000E+00
 -1      3914 1.81233E+02-1.70645E+03 0.00000E+00
 -1      3915 2.76980E+02-1.66437E+03 0.00000E+00
 -1      3916 3.32158E+02-1.67477E+03 0.00000E+00
 -1      3917 3.09042E+02-1.67900E+03 0.00000E+00
 -1      3918 1.04312E+02-1.66904E+03 0.00000E+00
 -1      3919 1.02239E+02-1.67444E+03 0.00000E+00
 -1      3920 3.65712E+02-1.68456E+03 0.00000E+00
 -1      3921 1.98934E+02-1.65739E+03 0.00000E+00
 -1      3922 3.47317E+02-1.66222E+03 0.00000E+00
 -1      3923 4.82863E+01-1.71938E+03 0.00000E+00
 -1      3924 5.40198E+01-1.71848E+03 0.00000E+00
 -1      3925 5.60160E+01-1.71306E+03 0.00000E+00
 -1      3926 5.97389E+01-1.71750E+03 0.00000E+00
 -1      3927 3.60268E+02-1.65446E+03 0.00000E+00
 -1      3928 3.56102E+02-1.65004E+03 0.00000E+00
 -1      3929 3.58010E+02-1.64460E+03 0.00000E+00
 -1      3930 2.74858E+02-1.66966E+03 0.00000E+00
 -1      3931 2.80589E+02-1.66872E+03 0.00000E+00
 -1      3932 1.36189E+02-1.68377E+03 0.00000E+00
 -1      3933 2.40912E+02-1.66035E+03 0.00000E+00
 -1      3934 2.44415E+02-1.68012E+03 0.00000E+00
 -1      3935 2.17563E+02-1.69502E+03 0.00000E+00
 -1      3936 2.58003E+02-1.65735E+03 0.00000E+00
 -1      3937 6.17245E+01-1.71206E+03 0.00000E+00
 -1      3938 6.54561E+01-1.71651E+03 0.00000E+00
 -1      3939 1.79229E+02-1.71184E+03 0.00000E+00
 -1      3940 1.75522E+02-1.70746E+03 0.00000E+00
 -1      3941 1.73493E+02-1.71274E+03 0.00000E+00
 -1      3942 1.69801E+02-1.70845E+03 0.00000E+00
 -1      3943 1.67758E+02-1.71365E+03 0.00000E+00
 -1      3944 1.64071E+02-1.70943E+03 0.00000E+00
 -1      3945 1.77524E+02-1.70202E+03 0.00000E+00
 -1      3946 3.48291E+02-1.65694E+03 0.00000E+00
 -1      3947 1.14054E+02-1.65726E+03 0.00000E+00
 -1      3948 1.19478E+02-1.65619E+03 0.00000E+00
 -1      3949 1.15380E+02-1.65099E+03 0.00000E+00
 -1      3950 1.21277E+02-1.65052E+03 0.00000E+00
 -1      3951 1.88154E+02-1.71503E+03 0.00000E+00
 -1      3952 2.67673E+02-1.64511E+03 0.00000E+00
 -1      3953 2.40642E+01-1.71356E+03 0.00000E+00
 -1      3954 2.18940E+01-1.71892E+03 0.00000E+00
 -1      3955 1.93409E+02-1.65837E+03 0.00000E+00
 -1      3956 3.75500E+02-1.67241E+03 0.00000E+00
 -1      3957 3.79333E+02-1.67675E+03 0.00000E+00
 -1      3958 9.87148E+01-1.67021E+03 0.00000E+00
 -1      3959 9.65579E+01-1.67547E+03 0.00000E+00
 -1      3960 9.28085E+01-1.67099E+03 0.00000E+00
 -1      3961 9.09344E+01-1.67653E+03 0.00000E+00
 -1      3962 3.43215E+02-1.68810E+03 0.00000E+00
 -1      3963 3.48687E+02-1.68694E+03 0.00000E+00
 -1      3964 5.77465E+01-1.72296E+03 0.00000E+00
 -1      3965 2.52702E+02-1.62754E+03 0.00000E+00
 -1      3966 2.46297E+02-1.70494E+03 0.00000E+00
 -1      3967 4.34402E+01-1.68996E+03 0.00000E+00
 -1      3968 4.54771E+01-1.68548E+03 0.00000E+00
 -1      3969 3.60335E+02-1.68510E+03 0.00000E+00
 -1      3970 1.71178E+02-1.71769E+03 0.00000E+00
 -1      3971 2.34173E+02-1.70759E+03 0.00000E+00
 -1      3972-3.58923E+02-1.64104E+03 0.00000E+00
 -1      3973-3.56164E+02-1.64664E+03 0.00000E+00
 -1      3974-3.57917E+02-1.65177E+03 0.00000E+00
 -1      3975-3.53174E+02-1.64217E+03 0.00000E+00
 -1      3976-3.52607E+02-1.65155E+03 0.00000E+00
 -1      3977-3.54550E+02-1.65656E+03 0.00000E+00
 -1      3978-3.48724E+02-1.65578E+03 0.00000E+00
 -1      3979-3.50984E+02-1.66111E+03 0.00000E+00
 -1      3980-3.56764E+02-1.66201E+03 0.00000E+00
 -1      3981-3.53116E+02-1.66651E+03 0.00000E+00
 -1      3982-3.58816E+02-1.66760E+03 0.00000E+00
 -1      3983-3.55199E+02-1.67195E+03 0.00000E+00
 -1      3984-3.49481E+02-1.67102E+03 0.00000E+00
 -1      3985-3.60923E+02-1.67285E+03 0.00000E+00
 -1      3986-3.51563E+02-1.67643E+03 0.00000E+00
 -1      3987-3.45838E+02-1.67552E+03 0.00000E+00
 -1      3988-3.47921E+02-1.68093E+03 0.00000E+00
 -1      3989-3.42193E+02-1.68003E+03 0.00000E+00
 -1      3990-3.40211E+02-1.67470E+03 0.00000E+00
 -1      3991-3.36482E+02-1.67914E+03 0.00000E+00
 -1      3992-3.64651E+02-1.66851E+03 0.00000E+00
 -1      3993-3.66723E+02-1.67381E+03 0.00000E+00
 -1      3994-3.63086E+02-1.67822E+03 0.00000E+00
 -1      3995-3.54151E+02-1.68273E+03 0.00000E+00
 -1      3996-3.38551E+02-1.68454E+03 0.00000E+00
 -1      3997-3.32823E+02-1.68364E+03 0.00000E+00
 -1      3998-3.30742E+02-1.67823E+03 0.00000E+00
 -1      3999-3.27094E+02-1.68273E+03 0.00000E+00
 -1      4000-3.25064E+02-1.67736E+03 0.00000E+00
 -1      4001-3.21377E+02-1.68183E+03 0.00000E+00
 -1      4002-3.19474E+02-1.67656E+03 0.00000E+00
 -1      4003-3.15675E+02-1.68094E+03 0.00000E+00
 -1      4004-3.17729E+02-1.68634E+03 0.00000E+00
 -1      4005-3.12001E+02-1.68543E+03 0.00000E+00
 -1      4006-3.14077E+02-1.69084E+03 0.00000E+00
 -1      4007-3.08348E+02-1.68993E+03 0.00000E+00
 -1      4008-3.06268E+02-1.68452E+03 0.00000E+00
 -1      4009-3.02618E+02-1.68902E+03 0.00000E+00
 -1      4010-3.00540E+02-1.68361E+03 0.00000E+00
 -1      4011-2.96891E+02-1.68812E+03 0.00000E+00
 -1      4012-2.94813E+02-1.68270E+03 0.00000E+00
 -1      4013-2.91164E+02-1.68721E+03 0.00000E+00
 -1      4014-2.89086E+02-1.68180E+03 0.00000E+00
 -1      4015-2.85438E+02-1.68630E+03 0.00000E+00
 -1      4016-2.83360E+02-1.68089E+03 0.00000E+00
 -1      4017-2.79711E+02-1.68539E+03 0.00000E+00
 -1      4018-2.77634E+02-1.67998E+03 0.00000E+00
 -1      4019-2.73985E+02-1.68449E+03 0.00000E+00
 -1      4020-2.71905E+02-1.67907E+03 0.00000E+00
 -1      4021-2.68258E+02-1.68358E+03 0.00000E+00
 -1      4022-2.66178E+02-1.67817E+03 0.00000E+00
 -1      4023-2.62531E+02-1.68267E+03 0.00000E+00
 -1      4024-2.60454E+02-1.67726E+03 0.00000E+00
 -1      4025-2.56805E+02-1.68176E+03 0.00000E+00
 -1      4026-2.54725E+02-1.67635E+03 0.00000E+00
 -1      4027-2.51077E+02-1.68086E+03 0.00000E+00
 -1      4028-2.48997E+02-1.67545E+03 0.00000E+00
 -1      4029-2.45350E+02-1.67995E+03 0.00000E+00
 -1      4030-2.43273E+02-1.67454E+03 0.00000E+00
 -1      4031-2.39626E+02-1.67903E+03 0.00000E+00
 -1      4032-2.37547E+02-1.67363E+03 0.00000E+00
 -1      4033-2.33901E+02-1.67812E+03 0.00000E+00
 -1      4034-2.46916E+02-1.67003E+03 0.00000E+00
 -1      4035-2.31822E+02-1.67272E+03 0.00000E+00
 -1      4036-2.28177E+02-1.67721E+03 0.00000E+00
 -1      4037-2.26098E+02-1.67181E+03 0.00000E+00
 -1      4038-2.22450E+02-1.67632E+03 0.00000E+00
 -1      4039-2.29745E+02-1.66731E+03 0.00000E+00
 -1      4040-2.24537E+02-1.68170E+03 0.00000E+00
 -1      4041-2.18804E+02-1.68082E+03 0.00000E+00
 -1      4042-2.16726E+02-1.67541E+03 0.00000E+00
 -1      4043-2.13078E+02-1.67991E+03 0.00000E+00
 -1      4044-2.15153E+02-1.68533E+03 0.00000E+00
 -1      4045-2.09430E+02-1.68442E+03 0.00000E+00
 -1      4046-2.11003E+02-1.67450E+03 0.00000E+00
 -1      4047-2.41700E+02-1.68442E+03 0.00000E+00
 -1      4048-2.64097E+02-1.67275E+03 0.00000E+00
 -1      4049-2.11505E+02-1.68983E+03 0.00000E+00
 -1      4050-2.05779E+02-1.68892E+03 0.00000E+00
 -1      4051-2.14650E+02-1.67000E+03 0.00000E+00
 -1      4052-2.08928E+02-1.66910E+03 0.00000E+00
 -1      4053-2.12575E+02-1.66460E+03 0.00000E+00
 -1      4054-2.05282E+02-1.67360E+03 0.00000E+00
 -1      4055-2.17248E+02-1.69071E+03 0.00000E+00
 -1      4056-2.53157E+02-1.68626E+03 0.00000E+00
 -1      4057-2.07861E+02-1.69432E+03 0.00000E+00
 -1      4058-2.02127E+02-1.69343E+03 0.00000E+00
 -1      4059-2.00049E+02-1.68801E+03 0.00000E+00
 -1      4060-1.96398E+02-1.69252E+03 0.00000E+00
 -1      4061-1.94324E+02-1.68711E+03 0.00000E+00
 -1      4062-1.90672E+02-1.69161E+03 0.00000E+00
 -1      4063-1.88595E+02-1.68620E+03 0.00000E+00
 -1      4064-1.84945E+02-1.69070E+03 0.00000E+00
 -1      4065-1.87020E+02-1.69611E+03 0.00000E+00
 -1      4066-1.81294E+02-1.69520E+03 0.00000E+00
 -1      4067-1.79219E+02-1.68979E+03 0.00000E+00
 -1      4068-1.75567E+02-1.69429E+03 0.00000E+00
 -1      4069-1.73493E+02-1.68888E+03 0.00000E+00
 -1      4070-1.69841E+02-1.69338E+03 0.00000E+00
 -1      4071-1.71916E+02-1.69880E+03 0.00000E+00
 -1      4072-1.66189E+02-1.69789E+03 0.00000E+00
 -1      4073-1.64115E+02-1.69247E+03 0.00000E+00
 -1      4074-1.60463E+02-1.69697E+03 0.00000E+00
 -1      4075-1.58396E+02-1.69157E+03 0.00000E+00
 -1      4076-1.54739E+02-1.69606E+03 0.00000E+00
 -1      4077-1.52629E+02-1.69093E+03 0.00000E+00
 -1      4078-1.49008E+02-1.69519E+03 0.00000E+00
 -1      4079-1.46890E+02-1.69006E+03 0.00000E+00
 -1      4080-1.43279E+02-1.69430E+03 0.00000E+00
 -1      4081-1.41206E+02-1.68889E+03 0.00000E+00
 -1      4082-1.37562E+02-1.69335E+03 0.00000E+00
 -1      4083-1.35490E+02-1.68793E+03 0.00000E+00
 -1      4084-1.31840E+02-1.69242E+03 0.00000E+00
 -1      4085-1.29768E+02-1.68701E+03 0.00000E+00
 -1      4086-1.26117E+02-1.69150E+03 0.00000E+00
 -1      4087-1.24046E+02-1.68609E+03 0.00000E+00
 -1      4088-1.20395E+02-1.69059E+03 0.00000E+00
 -1      4089-1.18324E+02-1.68518E+03 0.00000E+00
 -1      4090-1.14673E+02-1.68968E+03 0.00000E+00
 -1      4091-1.16747E+02-1.69509E+03 0.00000E+00
 -1      4092-1.11021E+02-1.69418E+03 0.00000E+00
 -1      4093-1.09000E+02-1.68902E+03 0.00000E+00
 -1      4094-1.05289E+02-1.69341E+03 0.00000E+00
 -1      4095-1.22016E+02-1.68067E+03 0.00000E+00
 -1      4096-1.07367E+02-1.69871E+03 0.00000E+00
 -1      4097-1.01641E+02-1.69780E+03 0.00000E+00
 -1      4098-9.95538E+01-1.69249E+03 0.00000E+00
 -1      4099-9.59148E+01-1.69688E+03 0.00000E+00
 -1      4100-9.38072E+01-1.69170E+03 0.00000E+00
 -1      4101-9.01865E+01-1.69599E+03 0.00000E+00
 -1      4102-8.81772E+01-1.69098E+03 0.00000E+00
 -1      4103-8.44767E+01-1.69511E+03 0.00000E+00
 -1      4104-8.65402E+01-1.70047E+03 0.00000E+00
 -1      4105-8.08165E+01-1.69955E+03 0.00000E+00
 -1      4106-7.87460E+01-1.69413E+03 0.00000E+00
 -1      4107-7.50913E+01-1.69862E+03 0.00000E+00
 -1      4108-7.30218E+01-1.69320E+03 0.00000E+00
 -1      4109-6.93677E+01-1.69770E+03 0.00000E+00
 -1      4110-6.72990E+01-1.69229E+03 0.00000E+00
 -1      4111-6.36462E+01-1.69678E+03 0.00000E+00
 -1      4112-1.33920E+02-1.69783E+03 0.00000E+00
 -1      4113-6.57142E+01-1.70220E+03 0.00000E+00
 -1      4114-5.99920E+01-1.70128E+03 0.00000E+00
 -1      4115-6.15768E+01-1.69137E+03 0.00000E+00
 -1      4116-1.03715E+02-1.70319E+03 0.00000E+00
 -1      4117-1.16497E+02-1.67968E+03 0.00000E+00
 -1      4118-1.09442E+02-1.70410E+03 0.00000E+00
 -1      4119-9.72511E+01-1.68651E+03 0.00000E+00
 -1      4120-1.19992E+02-1.67524E+03 0.00000E+00
 -1      4121-8.28859E+01-1.70495E+03 0.00000E+00
 -1      4122-1.45360E+02-1.69965E+03 0.00000E+00
 -1      4123-1.56821E+02-1.70147E+03 0.00000E+00
 -1      4124-6.20599E+01-1.70670E+03 0.00000E+00
 -1      4125-5.63363E+01-1.70578E+03 0.00000E+00
 -1      4126-1.45855E+02-1.68524E+03 0.00000E+00
 -1      4127-2.03207E+02-1.66819E+03 0.00000E+00
 -1      4128-7.64545E+01-1.68879E+03 0.00000E+00
 -1      4129-5.42687E+01-1.70037E+03 0.00000E+00
 -1      4130-5.06123E+01-1.70486E+03 0.00000E+00
 -1      4131-2.64611E+02-1.68807E+03 0.00000E+00
 -1      4132-1.14476E+02-1.67425E+03 0.00000E+00
 -1      4133-1.17894E+02-1.66984E+03 0.00000E+00
 -1      4134-1.33419E+02-1.68250E+03 0.00000E+00
 -1      4135-1.98478E+02-1.69793E+03 0.00000E+00
 -1      4136-1.83369E+02-1.70062E+03 0.00000E+00
 -1      4137-5.26785E+01-1.71028E+03 0.00000E+00
 -1      4138-4.69564E+01-1.70936E+03 0.00000E+00
 -1      4139-1.68263E+02-1.70330E+03 0.00000E+00
 -1      4140-1.61667E+02-1.68608E+03 0.00000E+00
 -1      4141-6.52292E+01-1.68688E+03 0.00000E+00
 -1      4142-5.95109E+01-1.68596E+03 0.00000E+00
 -1      4143-2.20374E+02-1.67091E+03 0.00000E+00
 -1      4144-2.76065E+02-1.68988E+03 0.00000E+00
 -1      4145-1.77144E+02-1.68438E+03 0.00000E+00
 -1      4146-1.05788E+02-1.70861E+03 0.00000E+00
 -1      4147-1.11519E+02-1.70952E+03 0.00000E+00
 -1      4148-2.75541E+02-1.67457E+03 0.00000E+00
 -1      4149-1.92251E+02-1.68169E+03 0.00000E+00
 -1      4150-6.77849E+01-1.70761E+03 0.00000E+00
 -1      4151-8.86130E+01-1.70586E+03 0.00000E+00
 -1      4152-8.49580E+01-1.71036E+03 0.00000E+00
 -1      4153-9.06859E+01-1.71128E+03 0.00000E+00
 -1      4154-1.23455E+02-1.67078E+03 0.00000E+00
 -1      4155-1.12245E+02-1.66891E+03 0.00000E+00
 -1      4156-1.08222E+02-1.67364E+03 0.00000E+00
 -1      4157-1.15792E+02-1.66445E+03 0.00000E+00
 -1      4158-6.41287E+01-1.71211E+03 0.00000E+00
 -1      4159-6.98555E+01-1.71303E+03 0.00000E+00
 -1      4160-4.48894E+01-1.70395E+03 0.00000E+00
 -1      4161-4.12311E+01-1.70844E+03 0.00000E+00
 -1      4162-4.33001E+01-1.71386E+03 0.00000E+00
 -1      4163-3.75732E+01-1.71294E+03 0.00000E+00
 -1      4164-6.31345E+01-1.68163E+03 0.00000E+00
 -1      4165-5.74401E+01-1.68058E+03 0.00000E+00
 -1      4166-5.37951E+01-1.68505E+03 0.00000E+00
 -1      4167-2.87552E+02-1.69169E+03 0.00000E+00
 -1      4168-3.96432E+01-1.71836E+03 0.00000E+00
 -1      4169-3.39176E+01-1.71744E+03 0.00000E+00
 -1      4170-2.86866E+02-1.67658E+03 0.00000E+00
 -1      4171-8.70295E+01-1.71579E+03 0.00000E+00
 -1      4172-2.98693E+02-1.67838E+03 0.00000E+00
 -1      4173-3.29172E+02-1.68814E+03 0.00000E+00
 -1      4174-5.18705E+01-1.67976E+03 0.00000E+00
 -1      4175-3.91687E+01-1.70303E+03 0.00000E+00
 -1      4176-4.27921E+01-1.69814E+03 0.00000E+00
 -1      4177-1.07861E+02-1.71403E+03 0.00000E+00
 -1      4178-1.13594E+02-1.71494E+03 0.00000E+00
 -1      4179-1.17251E+02-1.71043E+03 0.00000E+00
 -1      4180-9.27574E+01-1.71669E+03 0.00000E+00
 -1      4181-2.98968E+02-1.69353E+03 0.00000E+00
 -1      4182-1.99556E+02-1.67269E+03 0.00000E+00
 -1      4183-1.97613E+02-1.66739E+03 0.00000E+00
 -1      4184-2.01154E+02-1.66280E+03 0.00000E+00
 -1      4185-1.95704E+02-1.66242E+03 0.00000E+00
 -1      4186-6.88424E+01-1.68260E+03 0.00000E+00
 -1      4187-1.86521E+02-1.68079E+03 0.00000E+00
 -1      4188-1.90170E+02-1.67628E+03 0.00000E+00
 -1      4189-1.84521E+02-1.67544E+03 0.00000E+00
 -1      4190-1.71454E+02-1.68350E+03 0.00000E+00
 -1      4191-1.75115E+02-1.67931E+03 0.00000E+00
 -1      4192-1.69620E+02-1.67810E+03 0.00000E+00
 -1      4193-2.24022E+02-1.66641E+03 0.00000E+00
 -1      4194-2.27670E+02-1.66191E+03 0.00000E+00
 -1      4195-2.33391E+02-1.66281E+03 0.00000E+00
 -1      4196-2.31315E+02-1.65740E+03 0.00000E+00
 -1      4197-2.25596E+02-1.65650E+03 0.00000E+00
 -1      4198-2.29238E+02-1.65200E+03 0.00000E+00
 -1      4199-2.34957E+02-1.65290E+03 0.00000E+00
 -1      4200-2.23521E+02-1.65109E+03 0.00000E+00
 -1      4201-2.32881E+02-1.64750E+03 0.00000E+00
 -1      4202-2.38598E+02-1.64841E+03 0.00000E+00
 -1      4203-2.36589E+02-1.64306E+03 0.00000E+00
 -1      4204-2.42250E+02-1.64392E+03 0.00000E+00
 -1      4205-2.44315E+02-1.64931E+03 0.00000E+00
 -1      4206-2.47956E+02-1.64481E+03 0.00000E+00
 -1      4207-2.50029E+02-1.65021E+03 0.00000E+00
 -1      4208-2.30528E+02-1.64128E+03 0.00000E+00
 -1      4209-2.53670E+02-1.64572E+03 0.00000E+00
 -1      4210-2.55744E+02-1.65112E+03 0.00000E+00
 -1      4211-2.52131E+02-1.64063E+03 0.00000E+00
 -1      4212-2.59385E+02-1.64662E+03 0.00000E+00
 -1      4213-2.61460E+02-1.65202E+03 0.00000E+00
 -1      4214-2.57819E+02-1.65652E+03 0.00000E+00
 -1      4215-2.63536E+02-1.65742E+03 0.00000E+00
 -1      4216-2.40497E+02-1.63864E+03 0.00000E+00
 -1      4217-2.46390E+02-1.65471E+03 0.00000E+00
 -1      4218-2.59894E+02-1.66192E+03 0.00000E+00
 -1      4219-2.19875E+02-1.65560E+03 0.00000E+00
 -1      4220-1.99097E+02-1.65782E+03 0.00000E+00
 -1      4221-2.04785E+02-1.65836E+03 0.00000E+00
 -1      4222-3.61321E+01-1.72280E+03 0.00000E+00
 -1      4223-1.46000E+02-1.71491E+03 0.00000E+00
 -1      4224-1.49581E+02-1.71047E+03 0.00000E+00
 -1      4225-1.51760E+02-1.71585E+03 0.00000E+00
 -1      4226-2.43817E+01-1.72091E+03 0.00000E+00
 -1      4227-1.89409E+01-1.72042E+03 0.00000E+00
 -1      4228-2.01634E+02-1.67810E+03 0.00000E+00
 -1      4229-2.56263E+02-1.66643E+03 0.00000E+00
 -1      4230-1.24557E+02-1.70142E+03 0.00000E+00
 -1      4231-7.35085E+01-1.70853E+03 0.00000E+00
 -1      4232-9.43395E+01-1.70677E+03 0.00000E+00
 -1      4233-1.02131E+02-1.71311E+03 0.00000E+00
 -1      4234-1.04240E+02-1.71832E+03 0.00000E+00
 -1      4235-1.55303E+02-1.71138E+03 0.00000E+00
 -1      4236-4.42791E+01-1.68795E+03 0.00000E+00
 -1      4237-2.02949E+02-1.65301E+03 0.00000E+00
 -1      4238-3.13680E+02-1.67592E+03 0.00000E+00
 -1      4239-2.15526E+02-1.62959E+03 0.00000E+00
 -1      4240-2.09516E+02-1.62859E+03 0.00000E+00
 -1      4241-2.74915E+02-1.65904E+03 0.00000E+00
 -1      4242-2.77034E+02-1.66475E+03 0.00000E+00
 -1      4243-3.10465E+02-1.69510E+03 0.00000E+00
 -1      4244-2.68137E+02-1.64277E+03 0.00000E+00
 -1      4245-1.82377E+02-1.66997E+03 0.00000E+00
 -1      4246-3.19851E+02-1.69144E+03 0.00000E+00
 -1      4247-2.08205E+02-1.63862E+03 0.00000E+00
 -1      4248-1.15669E+02-1.72036E+03 0.00000E+00
 -1      4249-3.45536E+02-1.66034E+03 0.00000E+00
 -1      4250-3.28600E+02-1.67401E+03 0.00000E+00
 -1      4251 4.81159E+01-1.65817E+03 0.00000E+00
 -1      4252 3.54304E+01-1.62255E+03 0.00000E+00
 -1      4253 3.01347E+01-1.62557E+03 0.00000E+00
 -1      4254 2.99752E+01-1.63184E+03 0.00000E+00
 -1      4255 2.53677E+01-1.62834E+03 0.00000E+00
 -1      4256 3.13468E+01-1.61863E+03 0.00000E+00
 -1      4257 2.51170E+01-1.63445E+03 0.00000E+00
 -1      4258-3.85066E+01-1.66023E+03 0.00000E+00
 -1      4259-4.37480E+01-1.66208E+03 0.00000E+00
 -1      4260-4.46675E+01-1.66768E+03 0.00000E+00
 -1      4261-4.92721E+01-1.66470E+03 0.00000E+00
 -1      4262-5.01273E+01-1.66990E+03 0.00000E+00
 -1      4263-4.56715E+01-1.67315E+03 0.00000E+00
 -1      4264-3.11861E+01-1.61140E+03 0.00000E+00
 -1      4265-3.25395E+01-1.61716E+03 0.00000E+00
 -1      4266-2.82785E+01-1.62039E+03 0.00000E+00
 -1      4267 1.21598E+02-1.63618E+03 0.00000E+00
 -1      4268-1.99030E+02-1.61480E+03 0.00000E+00
 -1      4269-2.04689E+02-1.61746E+03 0.00000E+00
 -1      4270 3.09980E+01-1.64615E+03 0.00000E+00
 -1      4271-3.57972E+01-1.63551E+03 0.00000E+00
 -1      4272-3.06976E+01-1.63326E+03 0.00000E+00
 -1      4273-3.23118E+01-1.64063E+03 0.00000E+00
 -1      4274 1.98943E+02-1.61501E+03 0.00000E+00
 -1      4275 2.04594E+02-1.61785E+03 0.00000E+00
 -1      4276 2.06268E+02-1.62315E+03 0.00000E+00
 -1      4277 2.02792E+02-1.62714E+03 0.00000E+00
 -1      4278 2.08429E+02-1.62847E+03 0.00000E+00
 -1      4279 2.11497E+02-1.62414E+03 0.00000E+00
 -1      4280 2.14524E+02-1.62988E+03 0.00000E+00
 -1      4281 2.10015E+02-1.63413E+03 0.00000E+00
 -1      4282 3.97959E+01-1.60934E+03 0.00000E+00
 -1      4283 9.89532E+00-1.63377E+03 0.00000E+00
 -1      4284 1.53863E+01-1.62973E+03 0.00000E+00
 -1      4285-1.92820E+02-1.60470E+03 0.00000E+00
 -1      4286-9.56687E+00-1.62382E+03 0.00000E+00
 -1      4287-1.35181E+01-1.62865E+03 0.00000E+00
 -1      4288-1.98852E+01-1.62690E+03 0.00000E+00
 -1      4289-4.39988E+01-1.60421E+03 0.00000E+00
 -1      4290-2.00758E+02-1.62927E+03 0.00000E+00
 -1      4291-1.22396E+02-1.63519E+03 0.00000E+00
 -1      4292 1.56807E+01-1.62112E+03 0.00000E+00
 -1      4293 3.78938E+01-1.65810E+03 0.00000E+00
 -1      4294 1.91876E+02-1.60432E+03 0.00000E+00
 -1      4295-1.53952E+01-1.63475E+03 0.00000E+00
 -1      4296 3.48074E+02-1.64145E+03 0.00000E+00
 -1      4297 5.30660E+01-1.66186E+03 0.00000E+00
 -1      4298 5.79966E+01-1.67099E+03 0.00000E+00
 -1      4299 5.32233E+01-1.67368E+03 0.00000E+00
 -1      4300 4.84580E+01-1.67090E+03 0.00000E+00
 -1      4301 4.89531E+01-1.67699E+03 0.00000E+00
 -1      4302 4.36915E+02-1.62118E+03 0.00000E+00
 -1      4303 4.42074E+02-1.62476E+03 0.00000E+00
 -1      4304 4.42665E+02-1.63063E+03 0.00000E+00
 -1      4305 4.47146E+02-1.62724E+03 0.00000E+00
 -1      4306 4.48077E+02-1.63304E+03 0.00000E+00
 -1      4307 4.52613E+02-1.62937E+03 0.00000E+00
 -1      4308 4.43436E+02-1.63636E+03 0.00000E+00
 -1      4309 4.42219E+02-1.61887E+03 0.00000E+00
 -1      4310-2.80124E+02-1.60432E+03 0.00000E+00
 -1      4311-4.45237E+02-1.61493E+03 0.00000E+00
 -1      4312-4.44234E+02-1.62071E+03 0.00000E+00
 -1      4313-4.48437E+02-1.62449E+03 0.00000E+00
 -1      4314-4.53800E+02-1.62287E+03 0.00000E+00
 -1      4315-4.52741E+02-1.62857E+03 0.00000E+00
 -1      4316-4.47153E+02-1.63014E+03 0.00000E+00
 -1      4317-4.51598E+02-1.63385E+03 0.00000E+00
 -1      4318-4.46660E+02-1.63560E+03 0.00000E+00
 -1      4319-4.55881E+02-1.63206E+03 0.00000E+00
 -1      4320-2.73057E+02-1.61501E+03 0.00000E+00
 -1      4321-2.67407E+02-1.61785E+03 0.00000E+00
 -1      4322-2.65789E+02-1.62317E+03 0.00000E+00
 -1      4323-2.69290E+02-1.62706E+03 0.00000E+00
 -1      4324-2.63825E+02-1.62850E+03 0.00000E+00
 -1      4325 2.72282E+02-1.61696E+03 0.00000E+00
 -1      4326 2.67188E+02-1.61884E+03 0.00000E+00
 -1      4327 2.66714E+02-1.62443E+03 0.00000E+00
 -1      4328 4.56363E+02-1.62120E+03 0.00000E+00
 -1      4329-2.25126E+02-1.62440E+03 0.00000E+00
 -1      4330-2.28386E+02-1.62967E+03 0.00000E+00
 -1      4331-2.33932E+02-1.63120E+03 0.00000E+00
 -1      4332-2.37959E+02-1.62714E+03 0.00000E+00
 -1      4333-2.14171E+02-1.61862E+03 0.00000E+00
 -1      4334-4.36543E+02-1.63527E+03 0.00000E+00
 -1      4335 1.99713E+02-1.64161E+03 0.00000E+00
 -1      4336-6.45664E+01-1.66776E+03 0.00000E+00
 -1      4337 1.34391E+02-1.65781E+03 0.00000E+00
 -1      4338-1.25085E+02-1.64681E+03 0.00000E+00
 -1      4339-1.19649E+02-1.64562E+03 0.00000E+00
 -1      4340-1.10238E+02-1.64768E+03 0.00000E+00
 -1      4341 2.40283E+02-1.62573E+03 0.00000E+00
 -1      4342 2.36223E+02-1.63032E+03 0.00000E+00
 -1      4343 2.41894E+02-1.63107E+03 0.00000E+00
 -1      4344-2.51169E+02-1.62267E+03 0.00000E+00
 -1      4345-2.49864E+02-1.62814E+03 0.00000E+00
 -1      4346-2.55256E+02-1.62679E+03 0.00000E+00
 -1      4347-2.53371E+02-1.63202E+03 0.00000E+00
 -1      4348-2.48170E+02-1.63337E+03 0.00000E+00
 -1      4349 4.00455E+01-1.67133E+03 0.00000E+00
 -1      4350 2.26650E+02-1.62412E+03 0.00000E+00
 -1      4351 2.21550E+02-1.62829E+03 0.00000E+00
 -1      4352 5.03887E+02-1.60958E+03 0.00000E+00
 -1      4353 5.00573E+02-1.61410E+03 0.00000E+00
 -1      4354 5.06218E+02-1.61466E+03 0.00000E+00
 -1      4355 5.03178E+02-1.61956E+03 0.00000E+00
 -1      4356-5.04142E+02-1.60974E+03 0.00000E+00
 -1      4357-1.33584E+02-1.65789E+03 0.00000E+00
 -1      4358-1.33304E+02-1.66402E+03 0.00000E+00
 -1      4359-1.38344E+02-1.66764E+03 0.00000E+00
 -1      4360-1.32691E+02-1.66973E+03 0.00000E+00
 -1      4361-1.37214E+02-1.67336E+03 0.00000E+00
 -1      4362-1.42583E+02-1.67162E+03 0.00000E+00
 -1      4363-1.29076E+02-1.66123E+03 0.00000E+00
 -1      4364-4.68109E+02-1.62484E+03 0.00000E+00
 -1      4365-4.73823E+02-1.62655E+03 0.00000E+00
 -1      4366 4.68694E+02-1.62467E+03 0.00000E+00
 -1      4367-1.99101E+02-1.64165E+03 0.00000E+00
 -1      4368 1.02068E+02-1.65859E+03 0.00000E+00
 -1      4369-1.01456E+02-1.65893E+03 0.00000E+00
 -1      4370-1.01567E+02-1.66505E+03 0.00000E+00
 -1      4371-9.69330E+01-1.66787E+03 0.00000E+00
 -1      4372-1.88263E+02-1.65823E+03 0.00000E+00
 -1      4373-7.78008E+01-1.66917E+03 0.00000E+00
 -1      4374-8.19747E+01-1.67305E+03 0.00000E+00
 -1      4375-8.76364E+01-1.67202E+03 0.00000E+00
 -1      4376-8.53269E+01-1.67753E+03 0.00000E+00
 -1      4377-9.13672E+01-1.67694E+03 0.00000E+00
 -1      4378-7.94009E+01-1.67901E+03 0.00000E+00
 -1      4379-8.33606E+01-1.68303E+03 0.00000E+00
 -1      4380-7.35424E+01-1.67279E+03 0.00000E+00
 -1      4381-7.06923E+02-1.57026E+03 0.00000E+00
 -1      4382 7.06923E+02-1.57026E+03 0.00000E+00
 -1      4383-1.51652E+02-1.66728E+03 0.00000E+00
 -1      4384-1.53769E+02-1.67289E+03 0.00000E+00
 -1      4385-1.59029E+02-1.67421E+03 0.00000E+00
 -1      4386-1.55619E+02-1.67810E+03 0.00000E+00
 -1      4387-1.50132E+02-1.67672E+03 0.00000E+00
 -1      4388 2.79833E+02-1.65303E+03 0.00000E+00
 -1      4389-2.89112E+02-1.66224E+03 0.00000E+00
 -1      4390-2.89300E+02-1.66810E+03 0.00000E+00
 -1      4391-2.94093E+02-1.67103E+03 0.00000E+00
 -1      4392-2.98504E+02-1.66879E+03 0.00000E+00
 -1      4393 2.88788E+02-1.66286E+03 0.00000E+00
 -1      4394 2.90984E+02-1.66817E+03 0.00000E+00
 -1      4395 2.95417E+02-1.67098E+03 0.00000E+00
 -1      4396-3.11912E+01-1.69629E+03 0.00000E+00
 -1      4397 7.79953E+01-1.66847E+03 0.00000E+00
 -1      4398 7.50219E+01-1.67362E+03 0.00000E+00
 -1      4399 6.87359E+01-1.67436E+03 0.00000E+00
 -1      4400 8.13611E+01-1.67412E+03 0.00000E+00
 -1      4401 7.72797E+01-1.67882E+03 0.00000E+00
 -1      4402 8.26272E+01-1.68001E+03 0.00000E+00
 -1      4403-3.32085E+02-1.66280E+03 0.00000E+00
 -1      4404-3.37594E+02-1.66413E+03 0.00000E+00
 -1      4405 1.64965E+02-1.66837E+03 0.00000E+00
 -1      4406 1.61942E+02-1.67344E+03 0.00000E+00
 -1      4407 1.68893E+02-1.67352E+03 0.00000E+00
 -1      4408 1.75027E+02-1.67151E+03 0.00000E+00
 -1      4409 1.73810E+02-1.67717E+03 0.00000E+00
 -1      4410-4.99359E+02-1.61470E+03 0.00000E+00
 -1      4411-5.04998E+02-1.61584E+03 0.00000E+00
 -1      4412 4.87761E+02-1.62213E+03 0.00000E+00
 -1      4413-4.88269E+02-1.62288E+03 0.00000E+00
 -1      4414-4.93180E+02-1.62510E+03 0.00000E+00
 -1      4415 4.75152E+02-1.62552E+03 0.00000E+00
 -1      4416 4.80397E+02-1.62907E+03 0.00000E+00
 -1      4417-3.74888E+02-1.66153E+03 0.00000E+00
 -1      4418 3.14142E+02-1.66806E+03 0.00000E+00
 -1      4419 3.13599E+01-1.69647E+03 0.00000E+00
 -1      4420-3.19992E+02-1.66708E+03 0.00000E+00
 -1      4421 3.32809E+02-1.66185E+03 0.00000E+00
 -1      4422 3.38305E+02-1.66310E+03 0.00000E+00
 -1      4423 3.20607E+02-1.66710E+03 0.00000E+00
 -1      4424 3.24586E+02-1.67126E+03 0.00000E+00
 -1      4425 4.31936E+02-1.64747E+03 0.00000E+00
 -1      4426-4.32100E+02-1.64794E+03 0.00000E+00
 -1      4427-1.03625E+01-1.71022E+03 0.00000E+00
 -1      4428 9.70273E+00-1.71073E+03 0.00000E+00
 -1      4429 7.52397E+00-1.71647E+03 0.00000E+00
 -1      4430 1.84555E+00-1.71752E+03 0.00000E+00
 -1      4431 1.32233E+01-1.71541E+03 0.00000E+00
 -1      4432 1.08449E+01-1.72100E+03 0.00000E+00
 -1      4433-2.11126E+00-1.71377E+03 0.00000E+00
 -1      4434-3.41566E+00-1.71991E+03 0.00000E+00
 -1      4435 9.90782E-01-1.72220E+03 0.00000E+00
 -1      4436 2.14850E+01-1.70520E+03 0.00000E+00
 -1      4437 4.00480E+02-1.66829E+03 0.00000E+00
 -1      4438 3.98176E+02-1.67329E+03 0.00000E+00
 -1      4439 3.92130E+02-1.67397E+03 0.00000E+00
 -1      4440 4.04101E+02-1.67266E+03 0.00000E+00
 -1      4441 4.10058E+02-1.67174E+03 0.00000E+00
 -1      4442 4.01734E+02-1.67829E+03 0.00000E+00
 -1      4443-3.87408E+02-1.66737E+03 0.00000E+00
 -1      4444-3.89176E+02-1.67273E+03 0.00000E+00
 -1      4445-3.95185E+02-1.67452E+03 0.00000E+00
 -1      4446-3.82666E+02-1.67104E+03 0.00000E+00
 -1      4447-3.84796E+02-1.67691E+03 0.00000E+00
 -1      4448-3.90150E+02-1.67857E+03 0.00000E+00
 -1      4449-4.12813E+02-1.66553E+03 0.00000E+00
 -1      4450-4.05200E+02-1.67259E+03 0.00000E+00
 -1      4451 6.63872E+01-1.66837E+03 0.00000E+00
 -1      4452-3.66111E+02-1.65451E+03 0.00000E+00
 -1      4453-3.65262E+02-1.65956E+03 0.00000E+00
 -1      4454 5.16648E+02-1.58172E+03 0.00000E+00
 -1      4455-5.16648E+02-1.58172E+03 0.00000E+00
 -1      4456-1.65789E+02-1.66878E+03 0.00000E+00
 -1      4457 3.76344E+02-1.66305E+03 0.00000E+00
 -1      4458 3.03016E+02-1.69533E+03 0.00000E+00
 -1      4459 2.97301E+02-1.69633E+03 0.00000E+00
 -1      4460 3.86049E+02-1.66711E+03 0.00000E+00
 -1      4461 4.14495E+02-1.66485E+03 0.00000E+00
 -1      4462 4.19338E+02-1.66787E+03 0.00000E+00
 -1      4463 3.76836E+02-1.68255E+03 0.00000E+00
 -1      4464-1.61317E+02-1.67957E+03 0.00000E+00
 -1      4465-1.49174E+02-1.56608E+03 0.00000E+00
 -1      4466 3.22826E+02-1.56608E+03 0.00000E+00
 -1      4467-1.41110E+02-1.67694E+03 0.00000E+00
 -1      4468-3.89955E+02-1.58504E+03 0.00000E+00
 -1      4469-4.37035E+02-1.62215E+03 0.00000E+00
 -1      4470 1.61767E+02-1.71454E+03 0.00000E+00
 -1      4471 1.58314E+02-1.71041E+03 0.00000E+00
 -1      4472 1.56038E+02-1.71576E+03 0.00000E+00
 -1      4473 1.52586E+02-1.71145E+03 0.00000E+00
 -1      4474 1.60366E+02-1.70502E+03 0.00000E+00
 -1      4475 1.50789E+02-1.71715E+03 0.00000E+00
 -1      4476 1.46944E+02-1.71252E+03 0.00000E+00
 -1      4477-1.31670E+02-1.67600E+03 0.00000E+00
 -1      4478-1.51800E+02-1.68267E+03 0.00000E+00
 -1      4479-5.80322E+02-1.62148E+03 0.00000E+00
 -1      4480 5.80322E+02-1.62148E+03 0.00000E+00
 -1      4481 8.68620E+01-1.56603E+03 0.00000E+00
 -1      4482-5.09093E+02-1.61238E+03 0.00000E+00
 -1      4483-1.39378E+02-1.56892E+03 0.00000E+00
 -1      4484 3.32622E+02-1.56892E+03 0.00000E+00
 -1      4485-3.49683E+02-1.62216E+03 0.00000E+00
 -1      4486 3.58254E+02-1.62209E+03 0.00000E+00
 -1      4487 1.22372E+02-1.62217E+03 0.00000E+00
 -1      4488-1.13480E+02-1.62223E+03 0.00000E+00
 -1      4489-1.13540E+02-1.63516E+03 0.00000E+00
 -1      4490 3.58340E+02-1.63488E+03 0.00000E+00
 -1      4491 3.42794E+02-1.65317E+03 0.00000E+00
 -1      4492 2.47842E+02-1.53952E+03 0.00000E+00
 -1      4493 9.66665E+01-1.56885E+03 0.00000E+00
 -1      4494-6.82088E+01-1.67320E+03 0.00000E+00
 -1      4495 2.05238E+02-1.63789E+03 0.00000E+00
 -1      4496-3.80640E+01-1.68543E+03 0.00000E+00
 -1      4497 4.29745E+02-1.66813E+03 0.00000E+00
 -1      4498-4.29598E+02-1.66643E+03 0.00000E+00
 -1      4499-1.30795E+02-1.71779E+03 0.00000E+00
 -1      4500 2.15105E+02-1.54616E+03 0.00000E+00
 -1      4501-2.56895E+02-1.54616E+03 0.00000E+00
 -1      4502-1.91952E+02-1.65278E+03 0.00000E+00
 -1      4503 2.52082E+02-1.70388E+03 0.00000E+00
 -1      4504-3.66432E+02-1.58349E+03 0.00000E+00
 -1      4505-3.67607E+02-1.58902E+03 0.00000E+00
 -1      4506-3.66927E+02-1.57792E+03 0.00000E+00
 -1      4507-1.96993E+02-1.53721E+03 0.00000E+00
 -1      4508 2.75005E+02-1.53721E+03 0.00000E+00
 -1      4509-4.12730E+02-1.59239E+03 0.00000E+00
 -1      4510 7.15808E+02-1.50584E+03 0.00000E+00
 -1      4511-7.15808E+02-1.50584E+03 0.00000E+00
 -1      4512-7.18475E+02-1.39173E+03 0.00000E+00
 -1      4513 7.18475E+02-1.39173E+03 0.00000E+00
 -1      4514-3.50039E+02-1.63429E+03 0.00000E+00
 -1      4515 2.63440E+02-1.70199E+03 0.00000E+00
 -1      4516 2.69023E+02-1.70111E+03 0.00000E+00
 -1      4517 2.70782E+02-1.69587E+03 0.00000E+00
 -1      4518 3.13227E+01-1.72275E+03 0.00000E+00
 -1      4519 2.74454E+02-1.70030E+03 0.00000E+00
 -1      4520 2.72778E+02-1.70509E+03 0.00000E+00
 -1      4521 2.22895E+02-1.70946E+03 0.00000E+00
 -1      4522 1.14690E+02-1.63548E+03 0.00000E+00
 -1      4523 7.15736E+02-1.38656E+03 0.00000E+00
 -1      4524-7.15733E+02-1.38656E+03 0.00000E+00
 -1      4525-7.30166E+02-1.56176E+03 0.00000E+00
 -1      4526 7.30166E+02-1.56176E+03 0.00000E+00
 -1      4527 3.33913E+02-1.66813E+03 0.00000E+00
 -1      4528-2.79181E+02-1.65429E+03 0.00000E+00
 -1      4529 6.95792E+02-1.52157E+03 0.00000E+00
 -1      4530-6.95792E+02-1.52157E+03 0.00000E+00
 -1      4531 2.78472E+02-1.60463E+03 0.00000E+00
 -1      4532-3.07899E+01-1.64696E+03 0.00000E+00
 -1      4533-6.80713E+01-1.72294E+03 0.00000E+00
 -1      4534 4.83145E+01-1.66458E+03 0.00000E+00
 -1      4535 1.52886E+02-1.66788E+03 0.00000E+00
 -1      4536-6.39864E+02-1.59888E+03 0.00000E+00
 -1      4537 6.39864E+02-1.59888E+03 0.00000E+00
 -1      4538-1.46622E+01-1.71350E+03 0.00000E+00
 -1      4539 2.29133E+02-1.63036E+03 0.00000E+00
 -1      4540 3.14876E+01-1.70710E+03 0.00000E+00
 -1      4541 3.91262E+01-1.68539E+03 0.00000E+00
 -1      4542-3.19149E+00-1.54511E+03 0.00000E+00
 -1      4543-3.34453E+02-1.66778E+03 0.00000E+00
 -1      4544 1.64651E+02-1.58953E+03 0.00000E+00
 -1      4545-7.13485E+01-1.58953E+03 0.00000E+00
 -1      4546-3.07267E+02-1.58933E+03 0.00000E+00
 -1      4547-4.75391E+02-1.54517E+03 0.00000E+00
 -1      4548 4.53569E+02-1.63531E+03 0.00000E+00
 -1      4549 4.57957E+02-1.63154E+03 0.00000E+00
 -1      4550-1.93334E+02-1.71249E+03 0.00000E+00
 -1      4551-1.96942E+02-1.70789E+03 0.00000E+00
 -1      4552-1.89468E+02-1.71672E+03 0.00000E+00
 -1      4553-3.51494E+02-1.61225E+03 0.00000E+00
 -1      4554 1.20506E+02-1.61225E+03 0.00000E+00
 -1      4555 1.17924E+02-1.64639E+03 0.00000E+00
 -1      4556-1.57894E+02-1.71767E+03 0.00000E+00
 -1      4557 1.09873E+02-1.64772E+03 0.00000E+00
 -1      4558 3.47222E+02-1.69257E+03 0.00000E+00
 -1      4559-3.36510E+02-1.59194E+03 0.00000E+00
 -1      4560-3.36651E+02-1.58644E+03 0.00000E+00
 -1      4561-1.00510E+02-1.59194E+03 0.00000E+00
 -1      4562-1.00651E+02-1.58644E+03 0.00000E+00
 -1      4563 1.35490E+02-1.59194E+03 0.00000E+00
 -1      4564 1.35349E+02-1.58644E+03 0.00000E+00
 -1      4565-3.42522E+02-1.65403E+03 0.00000E+00
 -1      4566 2.54886E+01-1.72384E+03 0.00000E+00
 -1      4567-4.37917E+02-1.64734E+03 0.00000E+00
 -1      4568-4.40367E+02-1.64176E+03 0.00000E+00
 -1      4569 2.24554E+02-1.54649E+03 0.00000E+00
 -1      4570-2.47446E+02-1.54649E+03 0.00000E+00
 -1      4571 3.41709E+02-1.60469E+03 0.00000E+00
 -1      4572-1.28760E+02-1.60452E+03 0.00000E+00
 -1      4573 1.07047E+02-1.60440E+03 0.00000E+00
 -1      4574-3.64987E+02-1.60434E+03 0.00000E+00
 -1      4575-7.17673E+02-1.40123E+03 0.00000E+00
 -1      4576-7.14967E+02-1.40633E+03 0.00000E+00
 -1      4577 7.17673E+02-1.40123E+03 0.00000E+00
 -1      4578 7.14967E+02-1.40633E+03 0.00000E+00
 -1      4579-2.21371E+01-1.70553E+03 0.00000E+00
 -1      4580-5.01491E+02-1.62081E+03 0.00000E+00
 -1      4581 2.02693E+02-1.64665E+03 0.00000E+00
 -1      4582-1.02202E+02-1.67072E+03 0.00000E+00
 -1      4583 3.89306E+02-1.58496E+03 0.00000E+00
 -1      4584 5.12891E+02-1.56769E+03 0.00000E+00
 -1      4585-5.12891E+02-1.56769E+03 0.00000E+00
 -1      4586 5.95446E+02-1.61908E+03 0.00000E+00
 -1      4587 5.90458E+02-1.62167E+03 0.00000E+00
 -1      4588-5.95446E+02-1.61908E+03 0.00000E+00
 -1      4589-5.90458E+02-1.62167E+03 0.00000E+00
 -1      4590 2.71015E+02-1.60452E+03 0.00000E+00
 -1      4591 4.04544E+01-1.64792E+03 0.00000E+00
 -1      4592-3.52604E+01-1.60413E+03 0.00000E+00
 -1      4593 2.01592E+02-1.60395E+03 0.00000E+00
 -1      4594-2.70408E+02-1.60395E+03 0.00000E+00
 -1      4595-3.97855E+01-1.64782E+03 0.00000E+00
 -1      4596 3.50294E+01-1.60463E+03 0.00000E+00
 -1      4597-2.00067E+02-1.60427E+03 0.00000E+00
 -1      4598-3.79010E+02-1.67571E+03 0.00000E+00
 -1      4599 3.28402E+00-1.62532E+03 0.00000E+00
 -1      4600-3.29381E+00-1.63225E+03 0.00000E+00
 -1      4601-3.14067E+02-1.66793E+03 0.00000E+00
 -1      4602-1.76621E+02-1.66599E+03 0.00000E+00
 -1      4603-1.75118E+02-1.67125E+03 0.00000E+00
 -1      4604 6.30119E+02-1.60576E+03 0.00000E+00
 -1      4605-6.30119E+02-1.60576E+03 0.00000E+00
 -1      4606-1.22355E+02-1.65589E+03 0.00000E+00
 -1      4607 4.86623E+02-1.62780E+03 0.00000E+00
 -1      4608 4.92676E+02-1.62653E+03 0.00000E+00
 -1      4609-7.75823E+01-1.58853E+03 0.00000E+00
 -1      4610 1.58418E+02-1.58853E+03 0.00000E+00
 -1      4611-3.13576E+02-1.58852E+03 0.00000E+00
 -1      4612 4.59200E+01-1.59103E+03 0.00000E+00
 -1      4613 4.64633E+02-1.62955E+03 0.00000E+00
 -1      4614 2.11449E+02-1.71143E+03 0.00000E+00
 -1      4615-4.24290E+02-1.65727E+03 0.00000E+00
 -1      4616 4.24796E+02-1.65830E+03 0.00000E+00
 -1      4617-2.16186E+01-1.61965E+03 0.00000E+00
 -1      4618 3.51977E+01-1.63618E+03 0.00000E+00
 -1      4619 2.70506E+02-1.62956E+03 0.00000E+00
 -1      4620-2.30258E+02-1.63517E+03 0.00000E+00
 -1      4621-9.07669E+01-1.66599E+03 0.00000E+00
 -1      4622 1.77542E+02-1.66585E+03 0.00000E+00
 -1      4623 1.83336E+02-1.66787E+03 0.00000E+00
 -1      4624 1.87759E+02-1.66498E+03 0.00000E+00
 -1      4625 1.87929E+02-1.67051E+03 0.00000E+00
 -1      4626 1.83854E+02-1.67353E+03 0.00000E+00
 -1      4627 4.38488E+02-1.64625E+03 0.00000E+00
 -1      4628-1.19698E+02-1.61059E+03 0.00000E+00
 -1      4629-5.75969E+02-1.62541E+03 0.00000E+00
 -1      4630 5.75969E+02-1.62541E+03 0.00000E+00
 -1      4631 3.01367E+02-1.66839E+03 0.00000E+00
 -1      4632 2.99574E+02-1.67525E+03 0.00000E+00
 -1      4633-3.99669E+02-1.66893E+03 0.00000E+00
 -1      4634 4.97800E+02-1.55546E+03 0.00000E+00
 -1      4635-4.97829E+02-1.55540E+03 0.00000E+00
 -1      4636-4.98697E+02-1.54921E+03 0.00000E+00
 -1      4637 6.87335E+02-1.52544E+03 0.00000E+00
 -1      4638-6.87336E+02-1.52544E+03 0.00000E+00
 -1      4639 4.36883E+02-1.63519E+03 0.00000E+00
 -1      4640-1.91342E+02-1.59084E+03 0.00000E+00
 -1      4641-2.83326E+02-1.66506E+03 0.00000E+00
 -1      4642-9.72176E+01-1.67370E+03 0.00000E+00
 -1      4643-1.02551E+02-1.67669E+03 0.00000E+00
 -1      4644-1.07537E+02-1.67974E+03 0.00000E+00
 -1      4645-9.74078E+01-1.67971E+03 0.00000E+00
 -1      4646 7.99349E+02-1.47210E+03 0.00000E+00
 -1      4647 7.95331E+02-1.47639E+03 0.00000E+00
 -1      4648 7.89451E+02-1.47515E+03 0.00000E+00
 -1      4649 7.91088E+02-1.48067E+03 0.00000E+00
 -1      4650 7.85489E+02-1.47932E+03 0.00000E+00
 -1      4651 7.83852E+02-1.47380E+03 0.00000E+00
 -1      4652 7.79885E+02-1.47799E+03 0.00000E+00
 -1      4653 7.97387E+02-1.48268E+03 0.00000E+00
 -1      4654 7.87195E+02-1.48459E+03 0.00000E+00
 -1      4655 7.78241E+02-1.47246E+03 0.00000E+00
 -1      4656 7.74275E+02-1.47665E+03 0.00000E+00
 -1      4657 7.75967E+02-1.48200E+03 0.00000E+00
 -1      4658 7.70330E+02-1.48078E+03 0.00000E+00
 -1      4659 7.68665E+02-1.47531E+03 0.00000E+00
 -1      4660 7.64713E+02-1.47951E+03 0.00000E+00
 -1      4661 7.63051E+02-1.47400E+03 0.00000E+00
 -1      4662 7.66985E+02-1.46988E+03 0.00000E+00
 -1      4663 7.61383E+02-1.46848E+03 0.00000E+00
 -1      4664 7.65219E+02-1.46343E+03 0.00000E+00
 -1      4665 7.57637E+02-1.47263E+03 0.00000E+00
 -1      4666 7.66542E+02-1.48611E+03 0.00000E+00
 -1      4667 7.60764E+02-1.48371E+03 0.00000E+00
 -1      4668 8.01655E+02-1.47752E+03 0.00000E+00
 -1      4669 8.07881E+02-1.47812E+03 0.00000E+00
 -1      4670 8.03929E+02-1.48271E+03 0.00000E+00
 -1      4671 8.10318E+02-1.48279E+03 0.00000E+00
 -1      4672 8.13027E+02-1.47874E+03 0.00000E+00
 -1      4673 7.62415E+02-1.48921E+03 0.00000E+00
 -1      4674 7.59068E+02-1.46288E+03 0.00000E+00
 -1      4675-7.99823E+02-1.47217E+03 0.00000E+00
 -1      4676-7.95902E+02-1.47657E+03 0.00000E+00
 -1      4677-7.89959E+02-1.47546E+03 0.00000E+00
 -1      4678-7.91861E+02-1.48099E+03 0.00000E+00
 -1      4679-7.86195E+02-1.48000E+03 0.00000E+00
 -1      4680-7.84197E+02-1.47449E+03 0.00000E+00
 -1      4681-7.80508E+02-1.47904E+03 0.00000E+00
 -1      4682-7.98140E+02-1.48184E+03 0.00000E+00
 -1      4683-7.78467E+02-1.47378E+03 0.00000E+00
 -1      4684-7.74809E+02-1.47813E+03 0.00000E+00
 -1      4685-7.72764E+02-1.47287E+03 0.00000E+00
 -1      4686-7.69111E+02-1.47719E+03 0.00000E+00
 -1      4687-7.67091E+02-1.47179E+03 0.00000E+00
 -1      4688-7.63423E+02-1.47622E+03 0.00000E+00
 -1      4689-7.61403E+02-1.47081E+03 0.00000E+00
 -1      4690-7.65258E+02-1.46628E+03 0.00000E+00
 -1      4691-7.65383E+02-1.48156E+03 0.00000E+00
 -1      4692-7.76697E+02-1.48320E+03 0.00000E+00
 -1      4693-7.57674E+02-1.47452E+03 0.00000E+00
 -1      4694-7.55715E+02-1.46985E+03 0.00000E+00
 -1      4695-7.88228E+02-1.48565E+03 0.00000E+00
 -1      4696-7.82199E+02-1.46929E+03 0.00000E+00
 -1      4697-8.02325E+02-1.47743E+03 0.00000E+00
 -1      4698-8.08359E+02-1.47799E+03 0.00000E+00
 -1      4699-8.04855E+02-1.48252E+03 0.00000E+00
 -1      4700-8.10833E+02-1.48264E+03 0.00000E+00
 -1      4701-8.14159E+02-1.47802E+03 0.00000E+00
 -1      4702-8.24830E+02-1.47239E+03 0.00000E+00
 -1      4703-8.29660E+02-1.47485E+03 0.00000E+00
 -1      4704-8.22070E+02-1.47673E+03 0.00000E+00
 -1      4705 8.24922E+02-1.47223E+03 0.00000E+00
 -1      4706 8.29690E+02-1.47480E+03 0.00000E+00
 -1      4707 8.21738E+02-1.47614E+03 0.00000E+00
 -1      4708-6.89582E+02-1.58071E+03 0.00000E+00
 -1      4709 6.89582E+02-1.58071E+03 0.00000E+00
 -1      4710-4.46081E+02-1.64135E+03 0.00000E+00
 -1      4711 1.62774E+01-1.52228E+03 0.00000E+00
 -1      4712-3.49134E+01-1.62292E+03 0.00000E+00
 -1      4713 8.36540E+02-1.46772E+03 0.00000E+00
 -1      4714-8.36885E+02-1.46801E+03 0.00000E+00
 -1      4715 7.40274E+02-1.40842E+03 0.00000E+00
 -1      4716 2.57816E+02-1.55201E+03 0.00000E+00
 -1      4717-2.14184E+02-1.55201E+03 0.00000E+00
 -1      4718 7.39534E+02-1.39606E+03 0.00000E+00
 -1      4719-7.39534E+02-1.39606E+03 0.00000E+00
 -1      4720 7.46552E+02-1.43243E+03 0.00000E+00
 -1      4721 7.43488E+02-1.43737E+03 0.00000E+00
 -1      4722 7.40718E+02-1.43212E+03 0.00000E+00
 -1      4723-7.46591E+02-1.43218E+03 0.00000E+00
 -1      4724-7.43599E+02-1.43701E+03 0.00000E+00
 -1      4725-7.41076E+02-1.43154E+03 0.00000E+00
 -1      4726-9.29593E+01-1.68257E+03 0.00000E+00
 -1      4727-1.44952E+02-1.66594E+03 0.00000E+00
 -1      4728-7.41940E+02-1.38316E+03 0.00000E+00
 -1      4729 7.41960E+02-1.38327E+03 0.00000E+00
 -1      4730-4.65055E+02-1.62977E+03 0.00000E+00
 -1      4731 1.43621E+02-1.66464E+03 0.00000E+00
 -1      4732-7.64931E+02-1.45664E+03 0.00000E+00
 -1      4733-7.69577E+02-1.46131E+03 0.00000E+00
 -1      4734-7.60006E+02-1.45781E+03 0.00000E+00
 -1      4735 7.65947E+02-1.45702E+03 0.00000E+00
 -1      4736 4.51095E+01-1.58190E+03 0.00000E+00
 -1      4737 7.53604E+02-1.36126E+03 0.00000E+00
 -1      4738 7.47701E+02-1.36117E+03 0.00000E+00
 -1      4739 7.50888E+02-1.35655E+03 0.00000E+00
 -1      4740 7.53576E+02-1.35110E+03 0.00000E+00
 -1      4741 7.59823E+02-1.35154E+03 0.00000E+00
 -1      4742-7.54159E+02-1.36078E+03 0.00000E+00
 -1      4743-7.48181E+02-1.36054E+03 0.00000E+00
 -1      4744-7.52287E+02-1.35492E+03 0.00000E+00
 -1      4745-7.55940E+02-1.35059E+03 0.00000E+00
 -1      4746-7.50589E+02-1.34954E+03 0.00000E+00
 -1      4747 7.47493E+02-1.37175E+03 0.00000E+00
 -1      4748-7.47576E+02-1.37145E+03 0.00000E+00
 -1      4749-3.76530E+02-1.67042E+03 0.00000E+00
 -1      4750-3.80732E+02-1.68182E+03 0.00000E+00
 -1      4751-1.02526E+02-1.68256E+03 0.00000E+00
 -1      4752 2.81304E+02-1.58204E+03 0.00000E+00
 -1      4753-1.53591E+02-1.72145E+03 0.00000E+00
 -1      4754-4.85823E+02-1.62821E+03 0.00000E+00
 -1      4755-4.79647E+02-1.62888E+03 0.00000E+00
 -1      4756-2.72853E+02-1.65361E+03 0.00000E+00
 -1      4757 7.41523E+02-1.42079E+03 0.00000E+00
 -1      4758-7.41599E+02-1.42062E+03 0.00000E+00
 -1      4759-2.11486E+01-1.63313E+03 0.00000E+00
 -1      4760 1.54374E+02-1.72139E+03 0.00000E+00
 -1      4761 6.36056E+02-1.60759E+03 0.00000E+00
 -1      4762-6.36056E+02-1.60759E+03 0.00000E+00
 -1      4763 7.18067E+02-1.49121E+03 0.00000E+00
 -1      4764-7.18070E+02-1.49123E+03 0.00000E+00
 -1      4765-1.90211E+02-1.58137E+03 0.00000E+00
 -1      4766-2.22228E+02-1.63029E+03 0.00000E+00
 -1      4767-4.11354E+02-1.58128E+03 0.00000E+00
 -1      4768 3.20556E+01-1.56096E+03 0.00000E+00
 -1      4769 3.63624E+02-1.69044E+03 0.00000E+00
 -1      4770-3.50792E+01-1.56642E+03 0.00000E+00
 -1      4771 2.00669E+02-1.56645E+03 0.00000E+00
 -1      4772-2.71331E+02-1.56645E+03 0.00000E+00
 -1      4773-2.97220E+01-1.62674E+03 0.00000E+00
 -1      4774-4.23990E+02-1.66717E+03 0.00000E+00
 -1      4775-4.23256E+02-1.67151E+03 0.00000E+00
 -1      4776 3.56291E+02-1.60957E+03 0.00000E+00
 -1      4777-4.24679E+02-1.56866E+03 0.00000E+00
 -1      4778 2.73075E+02-1.64165E+03 0.00000E+00
 -1      4779 2.68120E+02-1.56112E+03 0.00000E+00
 -1      4780-2.03880E+02-1.56111E+03 0.00000E+00
 -1      4781-3.57307E+02-1.62862E+03 0.00000E+00
 -1      4782 3.50687E+02-1.62870E+03 0.00000E+00
 -1      4783 1.14933E+02-1.62874E+03 0.00000E+00
 -1      4784-1.21313E+02-1.62870E+03 0.00000E+00
 -1      4785 7.35473E+02-1.40559E+03 0.00000E+00
 -1      4786-7.35473E+02-1.40559E+03 0.00000E+00
 -1      4787-7.44743E+02-1.36593E+03 0.00000E+00
 -1      4788-7.42193E+02-1.36011E+03 0.00000E+00
 -1      4789-7.67904E+02-1.34746E+03 0.00000E+00
 -1      4790-7.65248E+02-1.34252E+03 0.00000E+00
 -1      4791 7.68167E+02-1.34743E+03 0.00000E+00
 -1      4792 7.65257E+02-1.34257E+03 0.00000E+00
 -1      4793-6.74841E+02-1.58566E+03 0.00000E+00
 -1      4794-6.80625E+02-1.58593E+03 0.00000E+00
 -1      4795-6.71324E+02-1.59031E+03 0.00000E+00
 -1      4796 6.74841E+02-1.58566E+03 0.00000E+00
 -1      4797 6.80625E+02-1.58593E+03 0.00000E+00
 -1      4798 6.71324E+02-1.59031E+03 0.00000E+00
 -1      4799 1.55015E+02-1.67395E+03 0.00000E+00
 -1      4800 1.59115E+02-1.67907E+03 0.00000E+00
 -1      4801-7.62085E+02-1.35116E+03 0.00000E+00
 -1      4802 4.22605E+02-1.57270E+03 0.00000E+00
 -1      4803-3.32552E+01-1.70178E+03 0.00000E+00
 -1      4804 4.39034E+02-1.55564E+03 0.00000E+00
 -1      4805-2.40905E+01-1.52286E+03 0.00000E+00
 -1      4806-5.09725E+02-1.59835E+03 0.00000E+00
 -1      4807 5.10045E+02-1.59894E+03 0.00000E+00
 -1      4808 4.07206E+02-1.58364E+03 0.00000E+00
 -1      4809-3.97434E+02-1.58398E+03 0.00000E+00
 -1      4810 8.34407E+02-1.47399E+03 0.00000E+00
 -1      4811 7.44550E+02-1.36643E+03 0.00000E+00
 -1      4812 7.41878E+02-1.36086E+03 0.00000E+00
 -1      4813-4.05201E+02-1.58430E+03 0.00000E+00
 -1      4814 8.00953E+02-1.48749E+03 0.00000E+00
 -1      4815 6.20377E+02-1.56001E+03 0.00000E+00
 -1      4816-6.20378E+02-1.56001E+03 0.00000E+00
 -1      4817-2.06362E+02-1.62312E+03 0.00000E+00
 -1      4818-1.83724E+02-1.71589E+03 0.00000E+00
 -1      4819-3.74437E+02-1.59545E+03 0.00000E+00
 -1      4820-2.75468E+02-1.57771E+03 0.00000E+00
 -1      4821-3.94683E+01-1.57771E+03 0.00000E+00
 -1      4822 1.96532E+02-1.57771E+03 0.00000E+00
 -1      4823 7.81265E+02-1.46745E+03 0.00000E+00
 -1      4824 1.33004E+02-1.66343E+03 0.00000E+00
 -1      4825 1.99703E+02-1.71336E+03 0.00000E+00
 -1      4826 4.32262E+02-1.60959E+03 0.00000E+00
 -1      4827-4.32243E+02-1.60959E+03 0.00000E+00
 -1      4828-7.41620E+02-1.37207E+03 0.00000E+00
 -1      4829 1.28597E+02-1.65917E+03 0.00000E+00
 -1      4830 4.98966E+02-1.54941E+03 0.00000E+00
 -1      4831 4.34897E+02-1.65311E+03 0.00000E+00
 -1      4832 4.59127E+02-1.63646E+03 0.00000E+00
 -1      4833 4.49151E+02-1.63929E+03 0.00000E+00
 -1      4834 4.79585E+02-1.54141E+03 0.00000E+00
 -1      4835 2.83280E+01-1.55044E+03 0.00000E+00
 -1      4836 9.01896E+01-1.59145E+03 0.00000E+00
 -1      4837 1.65643E+02-1.67805E+03 0.00000E+00
 -1      4838 8.12427E+02-1.47353E+03 0.00000E+00
 -1      4839 3.81811E+02-1.67098E+03 0.00000E+00
 -1      4840 3.84781E+02-1.67624E+03 0.00000E+00
 -1      4841 1.58388E+01-1.54329E+03 0.00000E+00
 -1      4842 3.31147E+01-1.55465E+03 0.00000E+00
 -1      4843-5.50237E+02-1.63357E+03 0.00000E+00
 -1      4844-5.45228E+02-1.63067E+03 0.00000E+00
 -1      4845-5.45688E+02-1.63624E+03 0.00000E+00
 -1      4846-5.40380E+02-1.63346E+03 0.00000E+00
 -1      4847 5.50237E+02-1.63357E+03 0.00000E+00
 -1      4848 5.45228E+02-1.63067E+03 0.00000E+00
 -1      4849 5.45688E+02-1.63624E+03 0.00000E+00
 -1      4850 5.40380E+02-1.63346E+03 0.00000E+00
 -1      4851-3.68886E+02-1.67931E+03 0.00000E+00
 -1      4852-3.64212E+02-1.68327E+03 0.00000E+00
 -1      4853 9.76410E+01-1.59558E+03 0.00000E+00
 -1      4854-1.12366E+02-1.60289E+03 0.00000E+00
 -1      4855 3.59393E+02-1.60328E+03 0.00000E+00
 -1      4856 7.70805E+02-1.46056E+03 0.00000E+00
 -1      4857 3.26190E+02-1.59145E+03 0.00000E+00
 -1      4858-1.45810E+02-1.59145E+03 0.00000E+00
 -1      4859-1.28819E+02-1.58650E+03 0.00000E+00
 -1      4860-1.30223E+02-1.59132E+03 0.00000E+00
 -1      4861 3.43181E+02-1.58650E+03 0.00000E+00
 -1      4862 3.41777E+02-1.59132E+03 0.00000E+00
 -1      4863 7.35765E+02-1.39128E+03 0.00000E+00
 -1      4864-7.35765E+02-1.39128E+03 0.00000E+00
 -1      4865 3.33670E+02-1.59564E+03 0.00000E+00
 -1      4866-1.38330E+02-1.59564E+03 0.00000E+00
 -1      4867-4.21107E+02-1.58893E+03 0.00000E+00
 -1      4868-2.39617E+02-1.63260E+03 0.00000E+00
 -1      4869-1.86785E+02-1.66499E+03 0.00000E+00
 -1      4870 4.95997E+02-1.52724E+03 0.00000E+00
 -1      4871 4.91164E+02-1.52440E+03 0.00000E+00
 -1      4872-4.95956E+02-1.52731E+03 0.00000E+00
 -1      4873 2.08763E+02-1.54982E+03 0.00000E+00
 -1      4874-2.63237E+02-1.54982E+03 0.00000E+00
 -1      4875-6.20367E+02-1.57032E+03 0.00000E+00
 -1      4876 6.20366E+02-1.57032E+03 0.00000E+00
 -1      4877 1.07201E+02-1.58639E+03 0.00000E+00
 -1      4878 1.05804E+02-1.59125E+03 0.00000E+00
 -1      4879 3.76249E+02-1.58947E+03 0.00000E+00
 -1      4880 3.70618E+02-1.59197E+03 0.00000E+00
 -1      4881-7.49771E+02-1.55579E+03 0.00000E+00
 -1      4882 7.49769E+02-1.55578E+03 0.00000E+00
 -1      4883 9.08223E+01-1.66523E+03 0.00000E+00
 -1      4884-2.02050E+02-1.53338E+03 0.00000E+00
 -1      4885 2.69948E+02-1.53338E+03 0.00000E+00
 -1      4886 4.24616E+02-1.66513E+03 0.00000E+00
 -1      4887 3.11104E+02-1.67339E+03 0.00000E+00
 -1      4888 3.53763E+02-1.61818E+03 0.00000E+00
 -1      4889-3.54198E+02-1.61763E+03 0.00000E+00
 -1      4890 1.17810E+02-1.61763E+03 0.00000E+00
 -1      4891-4.93600E+02-1.54676E+03 0.00000E+00
 -1      4892-5.18155E+02-1.58683E+03 0.00000E+00
 -1      4893 5.18155E+02-1.58683E+03 0.00000E+00
 -1      4894 1.23853E+02-1.60459E+03 0.00000E+00
 -1      4895-3.48147E+02-1.60459E+03 0.00000E+00
 -1      4896 1.08008E+02-1.59873E+03 0.00000E+00
 -1      4897 3.44101E+02-1.59931E+03 0.00000E+00
 -1      4898-1.27927E+02-1.59879E+03 0.00000E+00
 -1      4899-3.64377E+02-1.59848E+03 0.00000E+00
 -1      4900 2.03933E+02-1.55320E+03 0.00000E+00
 -1      4901-2.68068E+02-1.55320E+03 0.00000E+00
 -1      4902-7.53060E+02-1.55085E+03 0.00000E+00
 -1      4903-7.55956E+02-1.54570E+03 0.00000E+00
 -1      4904-7.52955E+02-1.54074E+03 0.00000E+00
 -1      4905-7.58727E+02-1.54062E+03 0.00000E+00
 -1      4906-7.55730E+02-1.53568E+03 0.00000E+00
 -1      4907-7.61502E+02-1.53556E+03 0.00000E+00
 -1      4908-7.64475E+02-1.54048E+03 0.00000E+00
 -1      4909-7.67265E+02-1.53542E+03 0.00000E+00
 -1      4910-7.64271E+02-1.53049E+03 0.00000E+00
 -1      4911-7.70029E+02-1.53036E+03 0.00000E+00
 -1      4912-7.67037E+02-1.52544E+03 0.00000E+00
 -1      4913-7.72793E+02-1.52530E+03 0.00000E+00
 -1      4914-7.75782E+02-1.53022E+03 0.00000E+00
 -1      4915-7.78541E+02-1.52517E+03 0.00000E+00
 -1      4916-7.69804E+02-1.52040E+03 0.00000E+00
 -1      4917-7.81528E+02-1.53007E+03 0.00000E+00
 -1      4918-7.84272E+02-1.52503E+03 0.00000E+00
 -1      4919-7.81298E+02-1.52013E+03 0.00000E+00
 -1      4920-7.87015E+02-1.52000E+03 0.00000E+00
 -1      4921-7.89995E+02-1.52488E+03 0.00000E+00
 -1      4922-7.92734E+02-1.51986E+03 0.00000E+00
 -1      4923-7.95706E+02-1.52473E+03 0.00000E+00
 -1      4924-7.98445E+02-1.51973E+03 0.00000E+00
 -1      4925-7.64059E+02-1.52062E+03 0.00000E+00
 -1      4926-7.66825E+02-1.51559E+03 0.00000E+00
 -1      4927-7.89839E+02-1.51514E+03 0.00000E+00
 -1      4928-7.72600E+02-1.51547E+03 0.00000E+00
 -1      4929-7.78780E+02-1.53511E+03 0.00000E+00
 -1      4930-7.70164E+02-1.54007E+03 0.00000E+00
 -1      4931-7.84348E+02-1.53497E+03 0.00000E+00
 -1      4932-8.01330E+02-1.52434E+03 0.00000E+00
 -1      4933-8.04142E+02-1.51958E+03 0.00000E+00
 -1      4934-8.01174E+02-1.51478E+03 0.00000E+00
 -1      4935-7.98365E+02-1.52977E+03 0.00000E+00
 -1      4936-8.06809E+02-1.51489E+03 0.00000E+00
 -1      4937-8.09616E+02-1.51942E+03 0.00000E+00
 -1      4938-7.81489E+02-1.54005E+03 0.00000E+00
 -1      4939-7.59112E+02-1.55060E+03 0.00000E+00
 -1      4940 7.53053E+02-1.55080E+03 0.00000E+00
 -1      4941 7.55942E+02-1.54568E+03 0.00000E+00
 -1      4942 7.52953E+02-1.54074E+03 0.00000E+00
 -1      4943 7.58725E+02-1.54061E+03 0.00000E+00
 -1      4944 7.55728E+02-1.53568E+03 0.00000E+00
 -1      4945 7.61500E+02-1.53555E+03 0.00000E+00
 -1      4946 7.64456E+02-1.54046E+03 0.00000E+00
 -1      4947 7.67262E+02-1.53541E+03 0.00000E+00
 -1      4948 7.64271E+02-1.53049E+03 0.00000E+00
 -1      4949 7.70029E+02-1.53036E+03 0.00000E+00
 -1      4950 7.67037E+02-1.52544E+03 0.00000E+00
 -1      4951 7.72786E+02-1.52531E+03 0.00000E+00
 -1      4952 7.75781E+02-1.53022E+03 0.00000E+00
 -1      4953 7.78532E+02-1.52517E+03 0.00000E+00
 -1      4954 7.69796E+02-1.52040E+03 0.00000E+00
 -1      4955 7.81529E+02-1.53007E+03 0.00000E+00
 -1      4956 7.84271E+02-1.52503E+03 0.00000E+00
 -1      4957 7.81283E+02-1.52014E+03 0.00000E+00
 -1      4958 7.87010E+02-1.52000E+03 0.00000E+00
 -1      4959 7.89993E+02-1.52488E+03 0.00000E+00
 -1      4960 7.92726E+02-1.51986E+03 0.00000E+00
 -1      4961 7.95704E+02-1.52473E+03 0.00000E+00
 -1      4962 7.98436E+02-1.51972E+03 0.00000E+00
 -1      4963 7.64058E+02-1.52062E+03 0.00000E+00
 -1      4964 7.66824E+02-1.51559E+03 0.00000E+00
 -1      4965 7.89826E+02-1.51513E+03 0.00000E+00
 -1      4966 7.72592E+02-1.51547E+03 0.00000E+00
 -1      4967 7.78780E+02-1.53511E+03 0.00000E+00
 -1      4968 7.70154E+02-1.54007E+03 0.00000E+00
 -1      4969 7.84349E+02-1.53497E+03 0.00000E+00
 -1      4970 8.01328E+02-1.52434E+03 0.00000E+00
 -1      4971 8.04142E+02-1.51958E+03 0.00000E+00
 -1      4972 8.01172E+02-1.51480E+03 0.00000E+00
 -1      4973 7.98365E+02-1.52977E+03 0.00000E+00
 -1      4974 8.06808E+02-1.51489E+03 0.00000E+00
 -1      4975 8.09616E+02-1.51942E+03 0.00000E+00
 -1      4976 7.81489E+02-1.54005E+03 0.00000E+00
 -1      4977 7.59054E+02-1.55059E+03 0.00000E+00
 -1      4978-5.65080E+02-1.58446E+03 0.00000E+00
 -1      4979-5.70112E+02-1.58161E+03 0.00000E+00
 -1      4980-5.70154E+02-1.57593E+03 0.00000E+00
 -1      4981-5.75150E+02-1.58455E+03 0.00000E+00
 -1      4982 5.65080E+02-1.58446E+03 0.00000E+00
 -1      4983 5.70112E+02-1.58161E+03 0.00000E+00
 -1      4984 5.70154E+02-1.57593E+03 0.00000E+00
 -1      4985 5.75150E+02-1.58455E+03 0.00000E+00
 -1      4986-2.67645E+02-1.53055E+03 0.00000E+00
 -1      4987-2.73076E+02-1.53211E+03 0.00000E+00
 -1      4988 2.04355E+02-1.53055E+03 0.00000E+00
 -1      4989 1.98924E+02-1.53211E+03 0.00000E+00
 -1      4990-1.99075E+02-1.71335E+03 0.00000E+00
 -1      4991-2.02689E+02-1.70865E+03 0.00000E+00
 -1      4992-2.02891E+02-1.55498E+03 0.00000E+00
 -1      4993 2.69108E+02-1.55498E+03 0.00000E+00
 -1      4994-3.70301E+01-1.69688E+03 0.00000E+00
 -1      4995 7.35533E+02-1.49136E+03 0.00000E+00
 -1      4996-7.35464E+02-1.49136E+03 0.00000E+00
 -1      4997-5.65275E+02-1.56740E+03 0.00000E+00
 -1      4998 5.65275E+02-1.56740E+03 0.00000E+00
 -1      4999 7.41550E+02-1.37229E+03 0.00000E+00
 -1      5000 4.19926E+02-1.57768E+03 0.00000E+00
 -1      5001-8.00915E+02-1.48663E+03 0.00000E+00
 -1      5002-6.00316E+02-1.61622E+03 0.00000E+00
 -1      5003-6.00259E+02-1.61042E+03 0.00000E+00
 -1      5004-6.05323E+02-1.61332E+03 0.00000E+00
 -1      5005 6.00316E+02-1.61622E+03 0.00000E+00
 -1      5006 6.00259E+02-1.61042E+03 0.00000E+00
 -1      5007 6.05323E+02-1.61332E+03 0.00000E+00
 -1      5008-3.32432E+01-1.55583E+03 0.00000E+00
 -1      5009 1.44926E+02-1.71794E+03 0.00000E+00
 -1      5010 1.41202E+02-1.71349E+03 0.00000E+00
 -1      5011 1.39332E+02-1.71895E+03 0.00000E+00
 -1      5012 1.35485E+02-1.71441E+03 0.00000E+00
 -1      5013-1.53917E+01-1.54694E+03 0.00000E+00
 -1      5014-1.29845E+01-1.54143E+03 0.00000E+00
 -1      5015-8.34442E+02-1.47406E+03 0.00000E+00
 -1      5016 1.11851E+02-1.59049E+03 0.00000E+00
 -1      5017-3.98866E+01-1.67200E+03 0.00000E+00
 -1      5018-5.80285E+02-1.60469E+03 0.00000E+00
 -1      5019-5.85199E+02-1.60178E+03 0.00000E+00
 -1      5020 5.80285E+02-1.60469E+03 0.00000E+00
 -1      5021 5.85199E+02-1.60178E+03 0.00000E+00
 -1      5022-7.18925E+02-1.46138E+03 0.00000E+00
 -1      5023-7.15971E+02-1.46608E+03 0.00000E+00
 -1      5024-7.17245E+02-1.45621E+03 0.00000E+00
 -1      5025 7.18925E+02-1.46138E+03 0.00000E+00
 -1      5026 7.15971E+02-1.46608E+03 0.00000E+00
 -1      5027 7.17246E+02-1.45621E+03 0.00000E+00
 -1      5028-8.30929E+00-1.71571E+03 0.00000E+00
 -1      5029-8.53143E+00-1.72219E+03 0.00000E+00
 -1      5030 3.22988E+00-1.51601E+03 0.00000E+00
 -1      5031-2.37163E+00-1.51790E+03 0.00000E+00
 -1      5032-9.73983E-01-1.51291E+03 0.00000E+00
 -1      5033-3.81810E+02-1.59145E+03 0.00000E+00
 -1      5034-5.60132E+02-1.58733E+03 0.00000E+00
 -1      5035 5.60132E+02-1.58733E+03 0.00000E+00
 -1      5036-6.81092E+02-1.53597E+03 0.00000E+00
 -1      5037-6.78257E+02-1.53067E+03 0.00000E+00
 -1      5038-6.83920E+02-1.54086E+03 0.00000E+00
 -1      5039 6.81086E+02-1.53596E+03 0.00000E+00
 -1      5040 6.78262E+02-1.53067E+03 0.00000E+00
 -1      5041 6.83864E+02-1.54088E+03 0.00000E+00
 -1      5042 8.12032E+02-1.49085E+03 0.00000E+00
 -1      5043-8.12102E+02-1.49079E+03 0.00000E+00
 -1      5044-6.55353E+02-1.55081E+03 0.00000E+00
 -1      5045 6.55352E+02-1.55081E+03 0.00000E+00
 -1      5046 5.87057E+01-1.67708E+03 0.00000E+00
 -1      5047 5.10235E+02-1.60993E+03 0.00000E+00
 -1      5048 5.11385E+02-1.61605E+03 0.00000E+00
 -1      5049 2.68370E+02-1.63975E+03 0.00000E+00
 -1      5050-1.18000E+02-1.63964E+03 0.00000E+00
 -1      5051-7.61870E+02-1.54556E+03 0.00000E+00
 -1      5052 1.37471E+02-1.70903E+03 0.00000E+00
 -1      5053 1.31785E+02-1.71001E+03 0.00000E+00
 -1      5054 1.29750E+02-1.71539E+03 0.00000E+00
 -1      5055 1.26036E+02-1.71101E+03 0.00000E+00
 -1      5056 1.24005E+02-1.71628E+03 0.00000E+00
 -1      5057 1.20307E+02-1.71200E+03 0.00000E+00
 -1      5058 1.18279E+02-1.71726E+03 0.00000E+00
 -1      5059 1.14585E+02-1.71299E+03 0.00000E+00
 -1      5060 1.16586E+02-1.70758E+03 0.00000E+00
 -1      5061 1.10869E+02-1.70859E+03 0.00000E+00
 -1      5062 1.08872E+02-1.71403E+03 0.00000E+00
 -1      5063 1.05152E+02-1.70959E+03 0.00000E+00
 -1      5064 1.03155E+02-1.71503E+03 0.00000E+00
 -1      5065 9.94328E+01-1.71059E+03 0.00000E+00
 -1      5066 9.74362E+01-1.71603E+03 0.00000E+00
 -1      5067 9.37114E+01-1.71158E+03 0.00000E+00
 -1      5068 9.17167E+01-1.71703E+03 0.00000E+00
 -1      5069 8.79946E+01-1.71259E+03 0.00000E+00
 -1      5070 8.59977E+01-1.71803E+03 0.00000E+00
 -1      5071 8.22755E+01-1.71359E+03 0.00000E+00
 -1      5072 1.01127E+02-1.72047E+03 0.00000E+00
 -1      5073 8.02582E+01-1.71892E+03 0.00000E+00
 -1      5074 7.66000E+01-1.71452E+03 0.00000E+00
 -1      5075 8.99869E+01-1.70712E+03 0.00000E+00
 -1      5076 8.37204E+01-1.72323E+03 0.00000E+00
 -1      5077 7.45616E+01-1.71984E+03 0.00000E+00
 -1      5078 1.28161E+02-1.72052E+03 0.00000E+00
 -1      5079 7.86280E+01-1.70910E+03 0.00000E+00
 -1      5080 1.07213E+02-1.70414E+03 0.00000E+00
 -1      5081 1.28062E+02-1.70557E+03 0.00000E+00
 -1      5082-5.75159E+02-1.57884E+03 0.00000E+00
 -1      5083-7.06869E+02-1.52113E+03 0.00000E+00
 -1      5084-7.03510E+02-1.51614E+03 0.00000E+00
 -1      5085 7.06840E+02-1.52105E+03 0.00000E+00
 -1      5086 7.03506E+02-1.51612E+03 0.00000E+00
 -1      5087 1.48976E+02-1.70702E+03 0.00000E+00
 -1      5088 2.52040E+02-1.62167E+03 0.00000E+00
 -1      5089 7.95494E+02-1.51496E+03 0.00000E+00
 -1      5090-7.95520E+02-1.51497E+03 0.00000E+00
 -1      5091 7.09728E+02-1.52599E+03 0.00000E+00
 -1      5092-7.09733E+02-1.52601E+03 0.00000E+00
 -1      5093 1.97852E+01-1.72472E+03 0.00000E+00
 -1      5094 6.40716E+02-1.56554E+03 0.00000E+00
 -1      5095-6.40718E+02-1.56554E+03 0.00000E+00
 -1      5096-8.12678E+02-1.52738E+03 0.00000E+00
 -1      5097 8.12678E+02-1.52738E+03 0.00000E+00
 -1      5098 3.47541E+02-1.59055E+03 0.00000E+00
 -1      5099-1.24462E+02-1.59055E+03 0.00000E+00
 -1      5100-4.84056E+02-1.63375E+03 0.00000E+00
 -1      5101 2.64907E+02-1.55057E+03 0.00000E+00
 -1      5102-2.07090E+02-1.55057E+03 0.00000E+00
 -1      5103-2.73422E+02-1.66915E+03 0.00000E+00
 -1      5104-4.39806E+02-1.55382E+03 0.00000E+00
 -1      5105-7.12958E+02-1.36888E+03 0.00000E+00
 -1      5106-7.17847E+02-1.36578E+03 0.00000E+00
 -1      5107-7.17953E+02-1.37185E+03 0.00000E+00
 -1      5108-7.21152E+02-1.37701E+03 0.00000E+00
 -1      5109 7.12987E+02-1.36888E+03 0.00000E+00
 -1      5110-5.40315E+02-1.56439E+03 0.00000E+00
 -1      5111-5.45283E+02-1.56155E+03 0.00000E+00
 -1      5112 5.40317E+02-1.56439E+03 0.00000E+00
 -1      5113 5.45283E+02-1.56155E+03 0.00000E+00
 -1      5114 7.17870E+02-1.36580E+03 0.00000E+00
 -1      5115 5.40322E+02-1.55871E+03 0.00000E+00
 -1      5116 5.45450E+02-1.55595E+03 0.00000E+00
 -1      5117 5.50387E+02-1.55882E+03 0.00000E+00
 -1      5118 5.35352E+02-1.55583E+03 0.00000E+00
 -1      5119 5.35503E+02-1.55025E+03 0.00000E+00
 -1      5120-5.40323E+02-1.55871E+03 0.00000E+00
 -1      5121-5.45450E+02-1.55595E+03 0.00000E+00
 -1      5122-5.50387E+02-1.55882E+03 0.00000E+00
 -1      5123-5.35353E+02-1.55583E+03 0.00000E+00
 -1      5124-5.35503E+02-1.55025E+03 0.00000E+00
 -1      5125-5.60286E+02-1.61043E+03 0.00000E+00
 -1      5126 5.60286E+02-1.61043E+03 0.00000E+00
 -1      5127 3.51813E+02-1.64597E+03 0.00000E+00
 -1      5128-7.27193E+02-1.45670E+03 0.00000E+00
 -1      5129 7.27192E+02-1.45671E+03 0.00000E+00
 -1      5130 7.21292E+02-1.39660E+03 0.00000E+00
 -1      5131-7.21292E+02-1.39660E+03 0.00000E+00
 -1      5132 1.94709E+02-1.69902E+03 0.00000E+00
 -1      5133-7.24159E+02-1.48142E+03 0.00000E+00
 -1      5134-7.18081E+02-1.48073E+03 0.00000E+00
 -1      5135-7.29829E+02-1.48144E+03 0.00000E+00
 -1      5136 7.24150E+02-1.48138E+03 0.00000E+00
 -1      5137 7.18076E+02-1.48070E+03 0.00000E+00
 -1      5138 7.29829E+02-1.48144E+03 0.00000E+00
 -1      5139-7.70977E+02-1.48234E+03 0.00000E+00
 -1      5140-8.12093E+02-1.47290E+03 0.00000E+00
 -1      5141-7.17537E+02-1.41192E+03 0.00000E+00
 -1      5142 7.17537E+02-1.41192E+03 0.00000E+00
 -1      5143 2.19484E+02-1.54333E+03 0.00000E+00
 -1      5144-2.52516E+02-1.54333E+03 0.00000E+00
 -1      5145-7.21390E+02-1.42700E+03 0.00000E+00
 -1      5146 7.21386E+02-1.42700E+03 0.00000E+00
 -1      5147-2.22743E+02-1.54281E+03 0.00000E+00
 -1      5148 9.08751E+01-1.57036E+03 0.00000E+00
 -1      5149-1.45168E+02-1.57043E+03 0.00000E+00
 -1      5150 3.26832E+02-1.57043E+03 0.00000E+00
 -1      5151 2.06140E+02-1.69702E+03 0.00000E+00
 -1      5152-7.21417E+02-1.44655E+03 0.00000E+00
 -1      5153-7.18364E+02-1.44168E+03 0.00000E+00
 -1      5154 7.21420E+02-1.44656E+03 0.00000E+00
 -1      5155 7.18362E+02-1.44169E+03 0.00000E+00
 -1      5156 7.21242E+02-1.43673E+03 0.00000E+00
 -1      5157 7.15853E+02-1.43692E+03 0.00000E+00
 -1      5158 2.46614E+02-1.65935E+03 0.00000E+00
 -1      5159 7.12602E+02-1.53095E+03 0.00000E+00
 -1      5160-7.12603E+02-1.53095E+03 0.00000E+00
 -1      5161 4.31664E+02-1.54107E+03 0.00000E+00
 -1      5162-4.74802E+01-1.54979E+03 0.00000E+00
 -1      5163-5.14211E+01-1.54592E+03 0.00000E+00
 -1      5164-5.30260E+01-1.55123E+03 0.00000E+00
 -1      5165-5.69180E+01-1.54713E+03 0.00000E+00
 -1      5166-6.26513E+01-1.54844E+03 0.00000E+00
 -1      5167-6.41392E+01-1.55399E+03 0.00000E+00
 -1      5168-7.04439E+01-1.55378E+03 0.00000E+00
 -1      5169-7.18173E+01-1.55991E+03 0.00000E+00
 -1      5170-7.65193E+01-1.55590E+03 0.00000E+00
 -1      5171 1.88534E+02-1.54980E+03 0.00000E+00
 -1      5172 1.84581E+02-1.54592E+03 0.00000E+00
 -1      5173 1.82977E+02-1.55123E+03 0.00000E+00
 -1      5174 1.79082E+02-1.54713E+03 0.00000E+00
 -1      5175 1.73349E+02-1.54844E+03 0.00000E+00
 -1      5176 1.71861E+02-1.55399E+03 0.00000E+00
 -1      5177 1.65556E+02-1.55378E+03 0.00000E+00
 -1      5178 1.64183E+02-1.55991E+03 0.00000E+00
 -1      5179 1.59481E+02-1.55590E+03 0.00000E+00
 -1      5180-2.83466E+02-1.54980E+03 0.00000E+00
 -1      5181-2.87419E+02-1.54592E+03 0.00000E+00
 -1      5182-2.89023E+02-1.55123E+03 0.00000E+00
 -1      5183-2.92918E+02-1.54713E+03 0.00000E+00
 -1      5184-2.98651E+02-1.54844E+03 0.00000E+00
 -1      5185-3.00139E+02-1.55399E+03 0.00000E+00
 -1      5186-3.06444E+02-1.55378E+03 0.00000E+00
 -1      5187-3.07817E+02-1.55991E+03 0.00000E+00
 -1      5188-3.12519E+02-1.55590E+03 0.00000E+00
 -1      5189 5.35342E+02-1.56724E+03 0.00000E+00
 -1      5190-5.35341E+02-1.56724E+03 0.00000E+00
 -1      5191-7.21247E+02-1.43672E+03 0.00000E+00
 -1      5192-7.15857E+02-1.43692E+03 0.00000E+00
 -1      5193-3.96426E+02-1.56652E+03 0.00000E+00
 -1      5194-3.96678E+02-1.56081E+03 0.00000E+00
 -1      5195-4.01344E+02-1.55803E+03 0.00000E+00
 -1      5196-3.96934E+02-1.55538E+03 0.00000E+00
 -1      5197-4.06281E+02-1.56085E+03 0.00000E+00
 -1      5198-4.06507E+02-1.55524E+03 0.00000E+00
 -1      5199 3.96371E+02-1.56653E+03 0.00000E+00
 -1      5200 3.96627E+02-1.56082E+03 0.00000E+00
 -1      5201 4.01364E+02-1.55803E+03 0.00000E+00
 -1      5202 3.96941E+02-1.55539E+03 0.00000E+00
 -1      5203 4.44198E+02-1.64252E+03 0.00000E+00
 -1      5204-2.40079E+02-1.52323E+03 0.00000E+00
 -1      5205-2.44624E+02-1.51893E+03 0.00000E+00
 -1      5206-2.38428E+02-1.51798E+03 0.00000E+00
 -1      5207-2.33051E+02-1.51626E+03 0.00000E+00
 -1      5208-2.28817E+02-1.52018E+03 0.00000E+00
 -1      5209-2.23037E+02-1.51927E+03 0.00000E+00
 -1      5210-2.31501E+02-1.51063E+03 0.00000E+00
 -1      5211 2.31921E+02-1.52323E+03 0.00000E+00
 -1      5212 2.27376E+02-1.51893E+03 0.00000E+00
 -1      5213 2.33572E+02-1.51798E+03 0.00000E+00
 -1      5214 2.38949E+02-1.51626E+03 0.00000E+00
 -1      5215 2.43183E+02-1.52018E+03 0.00000E+00
 -1      5216 2.48963E+02-1.51927E+03 0.00000E+00
 -1      5217 2.40499E+02-1.51063E+03 0.00000E+00
 -1      5218 1.10523E+01-1.52442E+03 0.00000E+00
 -1      5219 2.20900E+02-1.52621E+03 0.00000E+00
 -1      5220 2.17291E+02-1.52199E+03 0.00000E+00
 -1      5221-2.51100E+02-1.52621E+03 0.00000E+00
 -1      5222-2.54709E+02-1.52199E+03 0.00000E+00
 -1      5223-7.84144E+02-1.51527E+03 0.00000E+00
 -1      5224-7.78426E+02-1.51540E+03 0.00000E+00
 -1      5225-7.75573E+02-1.52024E+03 0.00000E+00
 -1      5226 7.84135E+02-1.51527E+03 0.00000E+00
 -1      5227 7.78413E+02-1.51540E+03 0.00000E+00
 -1      5228-2.08464E+02-1.65382E+03 0.00000E+00
 -1      5229-2.06567E+02-1.64834E+03 0.00000E+00
 -1      5230-3.03268E+02-1.56507E+03 0.00000E+00
 -1      5231-6.72677E+01-1.56507E+03 0.00000E+00
 -1      5232 1.68732E+02-1.56507E+03 0.00000E+00
 -1      5233-3.71646E+02-1.57521E+03 0.00000E+00
 -1      5234-3.72108E+02-1.56956E+03 0.00000E+00
 -1      5235 3.18756E+02-1.56179E+03 0.00000E+00
 -1      5236-1.53244E+02-1.56179E+03 0.00000E+00
 -1      5237 8.27829E+01-1.56176E+03 0.00000E+00
 -1      5238-2.74891E+02-1.53737E+03 0.00000E+00
 -1      5239 1.97109E+02-1.53737E+03 0.00000E+00
 -1      5240-4.63829E+01-1.69367E+03 0.00000E+00
 -1      5241 4.56228E+02-1.52696E+03 0.00000E+00
 -1      5242-2.14157E+02-1.65470E+03 0.00000E+00
 -1      5243-4.21456E+02-1.54675E+03 0.00000E+00
 -1      5244 4.21464E+02-1.54676E+03 0.00000E+00
 -1      5245 5.15516E+02-1.54431E+03 0.00000E+00
 -1      5246 5.20734E+02-1.54159E+03 0.00000E+00
 -1      5247 5.25668E+02-1.54448E+03 0.00000E+00
 -1      5248 5.25460E+02-1.55010E+03 0.00000E+00
 -1      5249-5.15516E+02-1.54431E+03 0.00000E+00
 -1      5250-5.20734E+02-1.54159E+03 0.00000E+00
 -1      5251-5.25668E+02-1.54448E+03 0.00000E+00
 -1      5252-5.25460E+02-1.55010E+03 0.00000E+00
 -1      5253-7.58736E+02-1.48047E+03 0.00000E+00
 -1      5254-7.61713E+02-1.48615E+03 0.00000E+00
 -1      5255 7.19542E+01-1.56494E+03 0.00000E+00
 -1      5256 6.79415E+01-1.56085E+03 0.00000E+00
 -1      5257 6.23972E+01-1.56230E+03 0.00000E+00
 -1      5258 6.38785E+01-1.55683E+03 0.00000E+00
 -1      5259 6.95797E+01-1.55426E+03 0.00000E+00
 -1      5260 5.83639E+01-1.55823E+03 0.00000E+00
 -1      5261 5.98402E+01-1.55276E+03 0.00000E+00
 -1      5262 5.55898E+01-1.54885E+03 0.00000E+00
 -1      5263 6.11984E+01-1.54732E+03 0.00000E+00
 -1      5264 5.02331E+01-1.55009E+03 0.00000E+00
 -1      5265 5.15740E+01-1.54492E+03 0.00000E+00
 -1      5266 4.78077E+01-1.54074E+03 0.00000E+00
 -1      5267-1.64094E+02-1.56500E+03 0.00000E+00
 -1      5268-1.68104E+02-1.56091E+03 0.00000E+00
 -1      5269-1.73650E+02-1.56235E+03 0.00000E+00
 -1      5270-1.72160E+02-1.55688E+03 0.00000E+00
 -1      5271-1.66446E+02-1.55430E+03 0.00000E+00
 -1      5272-1.77679E+02-1.55827E+03 0.00000E+00
 -1      5273-1.76194E+02-1.55280E+03 0.00000E+00
 -1      5274-1.80442E+02-1.54890E+03 0.00000E+00
 -1      5275-1.74818E+02-1.54734E+03 0.00000E+00
 -1      5276-1.85802E+02-1.55014E+03 0.00000E+00
 -1      5277-1.84317E+02-1.54463E+03 0.00000E+00
 -1      5278-1.88210E+02-1.54074E+03 0.00000E+00
 -1      5279 3.07906E+02-1.56500E+03 0.00000E+00
 -1      5280 3.03896E+02-1.56091E+03 0.00000E+00
 -1      5281 2.98350E+02-1.56235E+03 0.00000E+00
 -1      5282 2.99840E+02-1.55688E+03 0.00000E+00
 -1      5283 3.05554E+02-1.55430E+03 0.00000E+00
 -1      5284 2.94321E+02-1.55827E+03 0.00000E+00
 -1      5285 2.95806E+02-1.55280E+03 0.00000E+00
 -1      5286 2.91558E+02-1.54890E+03 0.00000E+00
 -1      5287 2.97182E+02-1.54734E+03 0.00000E+00
 -1      5288 2.86198E+02-1.55014E+03 0.00000E+00
 -1      5289 2.87546E+02-1.54495E+03 0.00000E+00
 -1      5290 2.83779E+02-1.54077E+03 0.00000E+00
 -1      5291 5.04328E+02-1.56134E+03 0.00000E+00
 -1      5292-3.81702E+02-1.56934E+03 0.00000E+00
 -1      5293-5.04328E+02-1.56134E+03 0.00000E+00
 -1      5294-2.74398E+01-1.53454E+03 0.00000E+00
 -1      5295-9.09682E+01-1.57621E+03 0.00000E+00
 -1      5296-9.64096E+01-1.57748E+03 0.00000E+00
 -1      5297-9.50192E+01-1.57225E+03 0.00000E+00
 -1      5298-1.00508E+02-1.57376E+03 0.00000E+00
 -1      5299-1.02102E+02-1.57870E+03 0.00000E+00
 -1      5300-1.05786E+02-1.57483E+03 0.00000E+00
 -1      5301-1.04586E+02-1.56947E+03 0.00000E+00
 -1      5302-3.26968E+02-1.57621E+03 0.00000E+00
 -1      5303-3.32410E+02-1.57748E+03 0.00000E+00
 -1      5304-3.31019E+02-1.57225E+03 0.00000E+00
 -1      5305-3.36508E+02-1.57376E+03 0.00000E+00
 -1      5306-3.38102E+02-1.57870E+03 0.00000E+00
 -1      5307-3.41786E+02-1.57483E+03 0.00000E+00
 -1      5308-3.40586E+02-1.56947E+03 0.00000E+00
 -1      5309 1.45032E+02-1.57621E+03 0.00000E+00
 -1      5310 1.39590E+02-1.57748E+03 0.00000E+00
 -1      5311 1.40981E+02-1.57225E+03 0.00000E+00
 -1      5312 1.35492E+02-1.57376E+03 0.00000E+00
 -1      5313 1.33898E+02-1.57870E+03 0.00000E+00
 -1      5314 1.30214E+02-1.57483E+03 0.00000E+00
 -1      5315 1.31414E+02-1.56947E+03 0.00000E+00
 -1      5316-2.07438E+02-1.53524E+03 0.00000E+00
 -1      5317 2.64575E+02-1.53523E+03 0.00000E+00
 -1      5318-1.94067E+02-1.67190E+03 0.00000E+00
 -1      5319-7.78455E+02-1.50607E+03 0.00000E+00
 -1      5320 7.78455E+02-1.50607E+03 0.00000E+00
 -1      5321 3.81739E+02-1.56928E+03 0.00000E+00
 -1      5322 3.82172E+02-1.56366E+03 0.00000E+00
 -1      5323-4.46223E+02-1.53253E+03 0.00000E+00
 -1      5324-4.51288E+02-1.52971E+03 0.00000E+00
 -1      5325-4.51458E+02-1.52431E+03 0.00000E+00
 -1      5326-1.50512E+01-1.52639E+03 0.00000E+00
 -1      5327-1.43383E+01-1.52140E+03 0.00000E+00
 -1      5328-8.32319E+00-1.51901E+03 0.00000E+00
 -1      5329-4.07650E+00-1.52321E+03 0.00000E+00
 -1      5330 4.41517E+02-1.53539E+03 0.00000E+00
 -1      5331 4.46356E+02-1.53253E+03 0.00000E+00
 -1      5332 4.46501E+02-1.52713E+03 0.00000E+00
 -1      5333 6.58041E+02-1.55569E+03 0.00000E+00
 -1      5334-6.58041E+02-1.55569E+03 0.00000E+00
 -1      5335 6.04829E+02-1.57317E+03 0.00000E+00
 -1      5336-6.04830E+02-1.57317E+03 0.00000E+00
 -1      5337-4.36359E+02-1.53819E+03 0.00000E+00
 -1      5338-4.36585E+02-1.53279E+03 0.00000E+00
 -1      5339-4.31617E+02-1.54107E+03 0.00000E+00
 -1      5340 4.66345E+02-1.52131E+03 0.00000E+00
 -1      5341 7.35301E+02-1.41173E+03 0.00000E+00
 -1      5342-7.35301E+02-1.41173E+03 0.00000E+00
 -1      5343 7.18799E+02-1.47121E+03 0.00000E+00
 -1      5344-7.18800E+02-1.47122E+03 0.00000E+00
 -1      5345-5.50227E+02-1.57015E+03 0.00000E+00
 -1      5346-5.50245E+02-1.56447E+03 0.00000E+00
 -1      5347 5.50227E+02-1.57015E+03 0.00000E+00
 -1      5348 5.50245E+02-1.56447E+03 0.00000E+00
 -1      5349 5.65150E+02-1.59023E+03 0.00000E+00
 -1      5350-5.65150E+02-1.59023E+03 0.00000E+00
 -1      5351 4.80878E+02-1.52414E+03 0.00000E+00
 -1      5352 4.81130E+02-1.51871E+03 0.00000E+00
 -1      5353-6.66589E+02-1.56067E+03 0.00000E+00
 -1      5354 6.66605E+02-1.56067E+03 0.00000E+00
 -1      5355 2.42725E+01-1.53115E+03 0.00000E+00
 -1      5356-4.75974E+02-1.52129E+03 0.00000E+00
 -1      5357-4.76271E+02-1.51574E+03 0.00000E+00
 -1      5358-4.80879E+02-1.52418E+03 0.00000E+00
 -1      5359-4.86072E+02-1.52159E+03 0.00000E+00
 -1      5360-6.81016E+02-1.54581E+03 0.00000E+00
 -1      5361 4.85874E+02-1.52708E+03 0.00000E+00
 -1      5362-2.15406E+02-1.52599E+03 0.00000E+00
 -1      5363-2.09916E+02-1.52563E+03 0.00000E+00
 -1      5364 2.56596E+02-1.52599E+03 0.00000E+00
 -1      5365 2.62084E+02-1.52563E+03 0.00000E+00
 -1      5366 9.45436E+01-1.68090E+03 0.00000E+00
 -1      5367 4.06299E+02-1.56086E+03 0.00000E+00
 -1      5368 4.06524E+02-1.55524E+03 0.00000E+00
 -1      5369-4.61201E+02-1.52414E+03 0.00000E+00
 -1      5370 7.59245E+02-1.47816E+03 0.00000E+00
 -1      5371 6.66653E+02-1.54127E+03 0.00000E+00
 -1      5372-6.66655E+02-1.54127E+03 0.00000E+00
 -1      5373 6.04922E+02-1.58457E+03 0.00000E+00
 -1      5374 5.99914E+02-1.58173E+03 0.00000E+00
 -1      5375 5.99940E+02-1.58746E+03 0.00000E+00
 -1      5376-6.04922E+02-1.58457E+03 0.00000E+00
 -1      5377-5.99914E+02-1.58173E+03 0.00000E+00
 -1      5378-5.99940E+02-1.58746E+03 0.00000E+00
 -1      5379-7.09726E+02-1.53591E+03 0.00000E+00
 -1      5380 7.09726E+02-1.53591E+03 0.00000E+00
 -1      5381 7.87063E+02-1.52982E+03 0.00000E+00
 -1      5382-7.87063E+02-1.52983E+03 0.00000E+00
 -1      5383 6.92986E+02-1.52615E+03 0.00000E+00
 -1      5384-6.92987E+02-1.52615E+03 0.00000E+00
 -1      5385 5.65194E+02-1.57307E+03 0.00000E+00
 -1      5386-5.65194E+02-1.57307E+03 0.00000E+00
 -1      5387 7.26962E+02-1.52598E+03 0.00000E+00
 -1      5388 7.32714E+02-1.52597E+03 0.00000E+00
 -1      5389 7.29844E+02-1.52101E+03 0.00000E+00
 -1      5390 7.32666E+02-1.51605E+03 0.00000E+00
 -1      5391-7.26966E+02-1.52598E+03 0.00000E+00
 -1      5392-7.32708E+02-1.52598E+03 0.00000E+00
 -1      5393-7.29831E+02-1.52102E+03 0.00000E+00
 -1      5394-7.32683E+02-1.51606E+03 0.00000E+00
 -1      5395-5.40285E+02-1.59312E+03 0.00000E+00
 -1      5396-5.45272E+02-1.59024E+03 0.00000E+00
 -1      5397 5.40282E+02-1.59311E+03 0.00000E+00
 -1      5398 5.45271E+02-1.59024E+03 0.00000E+00
 -1      5399-3.14605E+02-1.56763E+03 0.00000E+00
 -1      5400 1.57395E+02-1.56763E+03 0.00000E+00
 -1      5401-7.86050E+01-1.56763E+03 0.00000E+00
 -1      5402-6.32136E+02-1.56093E+03 0.00000E+00
 -1      5403-6.37878E+02-1.56068E+03 0.00000E+00
 -1      5404-6.34543E+02-1.55574E+03 0.00000E+00
 -1      5405-6.37827E+02-1.57049E+03 0.00000E+00
 -1      5406 6.32146E+02-1.56092E+03 0.00000E+00
 -1      5407 6.37821E+02-1.56058E+03 0.00000E+00
 -1      5408 6.34533E+02-1.55572E+03 0.00000E+00
 -1      5409 6.37826E+02-1.57049E+03 0.00000E+00
 -1      5410-2.16225E+02-1.66010E+03 0.00000E+00
 -1      5411 3.09396E+02-1.55935E+03 0.00000E+00
 -1      5412 3.10948E+02-1.55397E+03 0.00000E+00
 -1      5413-1.62604E+02-1.55935E+03 0.00000E+00
 -1      5414-1.61052E+02-1.55397E+03 0.00000E+00
 -1      5415 7.34331E+01-1.55930E+03 0.00000E+00
 -1      5416 7.49884E+01-1.55391E+03 0.00000E+00
 -1      5417-7.38440E+02-1.51605E+03 0.00000E+00
 -1      5418-7.35561E+02-1.51109E+03 0.00000E+00
 -1      5419-7.38439E+02-1.50615E+03 0.00000E+00
 -1      5420-7.44172E+02-1.50613E+03 0.00000E+00
 -1      5421-7.41287E+02-1.50122E+03 0.00000E+00
 -1      5422-7.21336E+02-1.49633E+03 0.00000E+00
 -1      5423-7.18570E+02-1.50112E+03 0.00000E+00
 -1      5424 7.21335E+02-1.49633E+03 0.00000E+00
 -1      5425 7.18570E+02-1.50112E+03 0.00000E+00
 -1      5426 7.87384E+02-1.46918E+03 0.00000E+00
 -1      5427-5.10850E+02-1.53587E+03 0.00000E+00
 -1      5428-7.32723E+02-1.47647E+03 0.00000E+00
 -1      5429 7.32725E+02-1.47647E+03 0.00000E+00
 -1      5430 5.10849E+02-1.53587E+03 0.00000E+00
 -1      5431-6.89657E+02-1.54086E+03 0.00000E+00
 -1      5432 7.75567E+02-1.52032E+03 0.00000E+00
 -1      5433 5.45268E+02-1.59600E+03 0.00000E+00
 -1      5434 5.50279E+02-1.58740E+03 0.00000E+00
 -1      5435 7.81644E+02-1.48303E+03 0.00000E+00
 -1      5436-7.38391E+02-1.49629E+03 0.00000E+00
 -1      5437-7.38399E+02-1.48641E+03 0.00000E+00
 -1      5438-4.11339E+02-1.55804E+03 0.00000E+00
 -1      5439 6.89600E+02-1.54088E+03 0.00000E+00
 -1      5440 4.11347E+02-1.55804E+03 0.00000E+00
 -1      5441-1.47481E+02-1.70506E+03 0.00000E+00
 -1      5442-7.82381E+02-1.48399E+03 0.00000E+00
 -1      5443 3.71848E+02-1.58084E+03 0.00000E+00
 -1      5444-7.24086E+02-1.52102E+03 0.00000E+00
 -1      5445-1.95944E+02-1.67721E+03 0.00000E+00
 -1      5446 6.78116E+02-1.55077E+03 0.00000E+00
 -1      5447-6.78129E+02-1.55077E+03 0.00000E+00
 -1      5448 6.43571E+02-1.57052E+03 0.00000E+00
 -1      5449-6.43571E+02-1.57052E+03 0.00000E+00
 -1      5450-1.80890E+02-1.68000E+03 0.00000E+00
 -1      5451 1.05935E+02-1.67888E+03 0.00000E+00
 -1      5452 6.55115E+02-1.56062E+03 0.00000E+00
 -1      5453-6.55115E+02-1.56062E+03 0.00000E+00
 -1      5454-3.53658E+01-1.70744E+03 0.00000E+00
 -1      5455 7.38411E+02-1.51605E+03 0.00000E+00
 -1      5456 7.58504E+02-1.53066E+03 0.00000E+00
 -1      5457 7.52776E+02-1.53080E+03 0.00000E+00
 -1      5458 7.61284E+02-1.52566E+03 0.00000E+00
 -1      5459-7.58505E+02-1.53066E+03 0.00000E+00
 -1      5460-7.52777E+02-1.53080E+03 0.00000E+00
 -1      5461-7.61285E+02-1.52566E+03 0.00000E+00
 -1      5462 3.15035E+02-1.67788E+03 0.00000E+00
 -1      5463-3.87385E+01-1.53651E+03 0.00000E+00
 -1      5464 7.24090E+02-1.52101E+03 0.00000E+00
 -1      5465 4.74864E+02-1.63661E+03 0.00000E+00
 -1      5466 2.82409E+02-1.67859E+03 0.00000E+00
 -1      5467 2.84248E+02-1.67349E+03 0.00000E+00
 -1      5468-6.63759E+02-1.55569E+03 0.00000E+00
 -1      5469 6.63763E+02-1.55569E+03 0.00000E+00
 -1      5470 8.68520E+01-1.68761E+03 0.00000E+00
 -1      5471 8.81914E+01-1.68183E+03 0.00000E+00
 -1      5472-5.15289E+02-1.61921E+03 0.00000E+00
 -1      5473 1.51309E+02-1.68619E+03 0.00000E+00
 -1      5474 1.62759E+02-1.68423E+03 0.00000E+00
 -1      5475-7.44182E+02-1.49628E+03 0.00000E+00
 -1      5476 3.71901E+01-1.70618E+03 0.00000E+00
 -1      5477-1.27799E+02-1.68139E+03 0.00000E+00
 -1      5478-1.25877E+02-1.67609E+03 0.00000E+00
 -1      5479 2.23265E+02-1.69402E+03 0.00000E+00
 -1      5480 2.25276E+02-1.68857E+03 0.00000E+00
 -1      5481 2.30982E+02-1.68757E+03 0.00000E+00
 -1      5482 2.34705E+02-1.69202E+03 0.00000E+00
 -1      5483 2.40425E+02-1.69102E+03 0.00000E+00
 -1      5484-1.67745E+02-1.68784E+03 0.00000E+00
 -1      5485 7.66935E+02-1.50608E+03 0.00000E+00
 -1      5486-7.66929E+02-1.50608E+03 0.00000E+00
 -1      5487-5.21901E+01-1.69488E+03 0.00000E+00
 -1      5488 1.22346E+02-1.70656E+03 0.00000E+00
 -1      5489 1.18580E+02-1.70213E+03 0.00000E+00
 -1      5490 5.03099E+01-1.68290E+03 0.00000E+00
 -1      5491-2.57431E+02-1.64131E+03 0.00000E+00
 -1      5492-2.60914E+02-1.63677E+03 0.00000E+00
 -1      5493-3.09914E+02-1.68001E+03 0.00000E+00
 -1      5494-3.08004E+02-1.67476E+03 0.00000E+00
 -1      5495 7.54035E+01-1.68944E+03 0.00000E+00
 -1      5496 6.96737E+01-1.69033E+03 0.00000E+00
 -1      5497 7.17643E+01-1.68533E+03 0.00000E+00
 -1      5498 6.82467E+01-1.68054E+03 0.00000E+00
 -1      5499 6.23774E+01-1.68182E+03 0.00000E+00
 -1      5500-8.24104E+01-1.68899E+03 0.00000E+00
 -1      5501-2.41197E+02-1.66913E+03 0.00000E+00
 -1      5502-2.44834E+02-1.66462E+03 0.00000E+00
 -1      5503-2.39115E+02-1.66372E+03 0.00000E+00
 -1      5504 1.04570E+02-1.57693E+03 0.00000E+00
 -1      5505-1.31369E+02-1.57691E+03 0.00000E+00
 -1      5506 3.40631E+02-1.57691E+03 0.00000E+00
 -1      5507 1.83228E+02-1.70103E+03 0.00000E+00
 -1      5508 2.21841E+02-1.66879E+03 0.00000E+00
 -1      5509 2.27547E+02-1.66779E+03 0.00000E+00
 -1      5510 2.29528E+02-1.66235E+03 0.00000E+00
 -1      5511 2.23827E+02-1.66335E+03 0.00000E+00
 -1      5512-5.49431E+01-1.67436E+03 0.00000E+00
 -1      5513 1.66071E+02-1.70403E+03 0.00000E+00
 -1      5514-3.43907E+02-1.67023E+03 0.00000E+00
 -1      5515 9.57782E+01-1.70612E+03 0.00000E+00
 -1      5516-5.25246E+02-1.61328E+03 0.00000E+00
 -1      5517 5.25245E+02-1.61328E+03 0.00000E+00
 -1      5518 1.24771E+02-1.68577E+03 0.00000E+00
 -1      5519-2.58378E+02-1.67185E+03 0.00000E+00
 -1      5520-1.15175E+02-1.70501E+03 0.00000E+00
 -1      5521 2.63507E+02-1.67166E+03 0.00000E+00
 -1      5522 1.39913E+02-1.68822E+03 0.00000E+00
 -1      5523 2.04751E+02-1.65643E+03 0.00000E+00
 -1      5524 2.06656E+02-1.65102E+03 0.00000E+00
 -1      5525 5.75286E+02-1.60757E+03 0.00000E+00
 -1      5526-5.75286E+02-1.60757E+03 0.00000E+00
 -1      5527 2.42421E+02-1.68557E+03 0.00000E+00
 -1      5528 2.10786E+02-1.64003E+03 0.00000E+00
 -1      5529-2.46639E+02-1.63894E+03 0.00000E+00
 -1      5530-1.12180E+02-1.68369E+03 0.00000E+00
 -1      5531 2.08438E+02-1.67623E+03 0.00000E+00
 -1      5532-7.29867E+02-1.46159E+03 0.00000E+00
 -1      5533 7.29860E+02-1.46159E+03 0.00000E+00
 -1      5534 1.21265E+02-1.66606E+03 0.00000E+00
 -1      5535-1.21278E+02-1.66545E+03 0.00000E+00
 -1      5536-1.27460E+02-1.66633E+03 0.00000E+00
 -1      5537 3.45482E+02-1.66773E+03 0.00000E+00
 -1      5538 2.33579E+02-1.63589E+03 0.00000E+00
 -1      5539 2.22369E+02-1.63817E+03 0.00000E+00
 -1      5540 2.19032E+02-1.63397E+03 0.00000E+00
 -1      5541-2.67088E+02-1.65292E+03 0.00000E+00
 -1      5542-2.35470E+02-1.66822E+03 0.00000E+00
 -1      5543-2.37034E+02-1.65831E+03 0.00000E+00
 -1      5544-2.27118E+02-1.64646E+03 0.00000E+00
 -1      5545 1.06256E+02-1.66357E+03 0.00000E+00
 -1      5546-2.10130E+02-1.64388E+03 0.00000E+00
 -1      5547-7.09071E+01-1.68784E+03 0.00000E+00
 -1      5548-7.45957E+01-1.68329E+03 0.00000E+00
 -1      5549 4.16865E+01-1.69548E+03 0.00000E+00
 -1      5550 2.48991E+02-1.63868E+03 0.00000E+00
 -1      5551 2.43148E+02-1.63961E+03 0.00000E+00
 -1      5552-2.10491E+02-1.65919E+03 0.00000E+00
 -1      5553-2.24716E+02-1.64122E+03 0.00000E+00
 -1      5554-5.40287E+02-1.58160E+03 0.00000E+00
 -1      5555 5.40287E+02-1.58160E+03 0.00000E+00
 -1      5556 2.58511E+02-1.62674E+03 0.00000E+00
 -1      5557-1.18825E+02-1.70051E+03 0.00000E+00
 -1      5558 1.12538E+02-1.71814E+03 0.00000E+00
 -1      5559 1.15834E+02-1.72272E+03 0.00000E+00
 -1      5560-1.97985E+02-1.68260E+03 0.00000E+00
 -1      5561-4.79981E+02-1.65083E+03 0.00000E+00
 -1      5562-4.74938E+02-1.65369E+03 0.00000E+00
 -1      5563-4.85011E+02-1.65377E+03 0.00000E+00
 -1      5564 4.79966E+02-1.65081E+03 0.00000E+00
 -1      5565 4.74931E+02-1.65369E+03 0.00000E+00
 -1      5566 4.85012E+02-1.65377E+03 0.00000E+00
 -1      5567-6.19698E+02-1.58743E+03 0.00000E+00
 -1      5568 6.19697E+02-1.58743E+03 0.00000E+00
 -1      5569 2.18118E+02-1.66435E+03 0.00000E+00
 -1      5570 2.48595E+02-1.65391E+03 0.00000E+00
 -1      5571 1.34202E+02-1.68922E+03 0.00000E+00
 -1      5572 7.27648E+02-1.36025E+03 0.00000E+00
 -1      5573 7.38705E+02-1.35535E+03 0.00000E+00
 -1      5574-7.27698E+02-1.36022E+03 0.00000E+00
 -1      5575 2.04723E+02-1.67179E+03 0.00000E+00
 -1      5576-2.00574E+02-1.70333E+03 0.00000E+00
 -1      5577-2.06315E+02-1.70422E+03 0.00000E+00
 -1      5578-2.08450E+02-1.70926E+03 0.00000E+00
 -1      5579-2.12059E+02-1.70505E+03 0.00000E+00
 -1      5580-2.14685E+02-1.71101E+03 0.00000E+00
 -1      5581-2.17788E+02-1.70600E+03 0.00000E+00
 -1      5582-2.15692E+02-1.70059E+03 0.00000E+00
 -1      5583-2.21430E+02-1.70147E+03 0.00000E+00
 -1      5584-2.23542E+02-1.70679E+03 0.00000E+00
 -1      5585-2.27164E+02-1.70233E+03 0.00000E+00
 -1      5586-2.25063E+02-1.69694E+03 0.00000E+00
 -1      5587-2.30794E+02-1.69782E+03 0.00000E+00
 -1      5588-2.32901E+02-1.70323E+03 0.00000E+00
 -1      5589-2.36532E+02-1.69870E+03 0.00000E+00
 -1      5590-2.34417E+02-1.69330E+03 0.00000E+00
 -1      5591-2.40157E+02-1.69419E+03 0.00000E+00
 -1      5592-2.42269E+02-1.69958E+03 0.00000E+00
 -1      5593-2.45900E+02-1.69506E+03 0.00000E+00
 -1      5594-2.48008E+02-1.70046E+03 0.00000E+00
 -1      5595-2.51640E+02-1.69593E+03 0.00000E+00
 -1      5596-2.53763E+02-1.70124E+03 0.00000E+00
 -1      5597-2.57379E+02-1.69681E+03 0.00000E+00
 -1      5598-2.59542E+02-1.70186E+03 0.00000E+00
 -1      5599-2.63120E+02-1.69768E+03 0.00000E+00
 -1      5600-2.44008E+02-1.70469E+03 0.00000E+00
 -1      5601-2.65228E+02-1.70310E+03 0.00000E+00
 -1      5602-2.68856E+02-1.69858E+03 0.00000E+00
 -1      5603-2.70784E+02-1.70399E+03 0.00000E+00
 -1      5604-2.74601E+02-1.69944E+03 0.00000E+00
 -1      5605-2.76151E+02-1.70480E+03 0.00000E+00
 -1      5606-2.80324E+02-1.70040E+03 0.00000E+00
 -1      5607-2.86066E+02-1.70144E+03 0.00000E+00
 -1      5608-2.28692E+02-1.69241E+03 0.00000E+00
 -1      5609-2.32331E+02-1.68792E+03 0.00000E+00
 -1      5610 7.35511E+02-1.51111E+03 0.00000E+00
 -1      5611-2.29226E+02-1.70796E+03 0.00000E+00
 -1      5612-2.35009E+02-1.70864E+03 0.00000E+00
 -1      5613-2.24907E+02-1.71208E+03 0.00000E+00
 -1      5614-7.38330E+02-1.35514E+03 0.00000E+00
 -1      5615 7.48255E+02-1.34816E+03 0.00000E+00
 -1      5616-2.07356E+02-1.67901E+03 0.00000E+00
 -1      5617 6.19820E+02-1.58194E+03 0.00000E+00
 -1      5618-6.19820E+02-1.58194E+03 0.00000E+00
 -1      5619-2.06857E+02-1.66371E+03 0.00000E+00
 -1      5620 2.33480E+02-1.65148E+03 0.00000E+00
 -1      5621-3.34734E+02-1.68891E+03 0.00000E+00
 -1      5622-3.31346E+02-1.69330E+03 0.00000E+00
 -1      5623-3.40772E+02-1.69079E+03 0.00000E+00
 -1      5624 2.22083E+02-1.65347E+03 0.00000E+00
 -1      5625-6.98474E+02-1.57648E+03 0.00000E+00
 -1      5626 6.98474E+02-1.57648E+03 0.00000E+00
 -1      5627 5.22911E+01-1.70861E+03 0.00000E+00
 -1      5628-2.47430E+02-1.68534E+03 0.00000E+00
 -1      5629 5.55271E+02-1.61333E+03 0.00000E+00
 -1      5630-5.55271E+02-1.61333E+03 0.00000E+00
 -1      5631 5.19536E+01-1.72423E+03 0.00000E+00
 -1      5632-2.40674E+02-1.65381E+03 0.00000E+00
 -1      5633-2.52104E+02-1.65561E+03 0.00000E+00
 -1      5634 5.35269E+02-1.60753E+03 0.00000E+00
 -1      5635-5.35270E+02-1.60753E+03 0.00000E+00
 -1      5636 2.63280E+02-1.68701E+03 0.00000E+00
 -1      5637 1.26766E+02-1.68033E+03 0.00000E+00
 -1      5638 2.54289E+02-1.65291E+03 0.00000E+00
 -1      5639-9.22639E+01-1.70137E+03 0.00000E+00
 -1      5640-2.38436E+02-1.70394E+03 0.00000E+00
 -1      5641 1.99039E+02-1.67259E+03 0.00000E+00
 -1      5642-1.77643E+02-1.69971E+03 0.00000E+00
 -1      5643-2.58885E+02-1.68716E+03 0.00000E+00
 -1      5644-1.92748E+02-1.69703E+03 0.00000E+00
 -1      5645 4.71931E+02-1.50784E+03 0.00000E+00
 -1      5646-4.71979E+02-1.50776E+03 0.00000E+00
 -1      5647-7.49975E+02-1.53580E+03 0.00000E+00
 -1      5648 7.49979E+02-1.53581E+03 0.00000E+00
 -1      5649 9.38522E+00-1.51454E+03 0.00000E+00
 -1      5650 5.62643E+01-1.69774E+03 0.00000E+00
 -1      5651-1.25084E+02-1.71663E+03 0.00000E+00
 -1      5652-1.27136E+02-1.72219E+03 0.00000E+00
 -1      5653-1.36690E+02-1.71938E+03 0.00000E+00
 -1      5654 3.50679E+02-1.68177E+03 0.00000E+00
 -1      5655 2.40533E+02-1.70721E+03 0.00000E+00
 -1      5656-2.20899E+02-1.68620E+03 0.00000E+00
 -1      5657-1.62542E+02-1.70239E+03 0.00000E+00
 -1      5658 2.28610E+02-1.70846E+03 0.00000E+00
 -1      5659 2.37102E+02-1.71293E+03 0.00000E+00
 -1      5660 2.17118E+02-1.71050E+03 0.00000E+00
 -1      5661 2.25844E+02-1.71464E+03 0.00000E+00
 -1      5662 1.41877E+02-1.68277E+03 0.00000E+00
 -1      5663 1.11635E+02-1.67789E+03 0.00000E+00
 -1      5664 2.50125E+02-1.67912E+03 0.00000E+00
 -1      5665-7.47053E+02-1.50121E+03 0.00000E+00
 -1      5666 8.95041E+01-1.72248E+03 0.00000E+00
 -1      5667-2.49902E+02-1.70643E+03 0.00000E+00
 -1      5668 9.53118E+01-1.72152E+03 0.00000E+00
 -1      5669 9.86048E+01-1.72639E+03 0.00000E+00
 -1      5670-2.70340E+02-1.68897E+03 0.00000E+00
 -1      5671 5.65249E+02-1.60755E+03 0.00000E+00
 -1      5672-5.65249E+02-1.60755E+03 0.00000E+00
 -1      5673-1.66688E+02-1.71318E+03 0.00000E+00
 -1      5674-1.68245E+02-1.71861E+03 0.00000E+00
 -1      5675-1.09960E+02-1.71930E+03 0.00000E+00
 -1      5676 2.48133E+02-1.68457E+03 0.00000E+00
 -1      5677 1.06778E+02-1.71911E+03 0.00000E+00
 -1      5678-8.92688E+01-1.72238E+03 0.00000E+00
 -1      5679-8.44214E+01-1.72639E+03 0.00000E+00
 -1      5680-2.81836E+02-1.69075E+03 0.00000E+00
 -1      5681 2.53670E+02-1.69884E+03 0.00000E+00
 -1      5682 2.93577E+02-1.69189E+03 0.00000E+00
 -1      5683-2.93250E+02-1.69260E+03 0.00000E+00
 -1      5684-2.95437E+02-1.69895E+03 0.00000E+00
 -1      5685-3.01960E+02-1.69875E+03 0.00000E+00
 -1      5686-6.25390E+01-1.72204E+03 0.00000E+00
 -1      5687-5.68563E+01-1.72083E+03 0.00000E+00
 -1      5688-5.58613E+01-1.69045E+03 0.00000E+00
 -1      5689-7.12734E+02-1.49397E+03 0.00000E+00
 -1      5690 7.12733E+02-1.49396E+03 0.00000E+00
 -1      5691-5.47529E+01-1.71565E+03 0.00000E+00
 -1      5692-5.84040E+01-1.71119E+03 0.00000E+00
 -1      5693-5.79225E+01-1.69585E+03 0.00000E+00
 -1      5694-7.14379E+01-1.70311E+03 0.00000E+00
 -1      5695 6.34277E+01-1.72181E+03 0.00000E+00
 -1      5696-6.98231E+02-1.55577E+03 0.00000E+00
 -1      5697 6.98230E+02-1.55577E+03 0.00000E+00
 -1      5698-3.04894E+02-1.69412E+03 0.00000E+00
 -1      5699 5.25670E+02-1.59012E+03 0.00000E+00
 -1      5700-5.25670E+02-1.59012E+03 0.00000E+00
 -1      5701-6.89594E+02-1.56074E+03 0.00000E+00
 -1      5702 6.89593E+02-1.56074E+03 0.00000E+00
 -1      5703 1.47586E+02-1.68177E+03 0.00000E+00
 -1      5704-5.60237E+02-1.60467E+03 0.00000E+00
 -1      5705 5.60237E+02-1.60467E+03 0.00000E+00
 -1      5706 4.69947E+02-1.65083E+03 0.00000E+00
 -1      5707-4.69949E+02-1.65083E+03 0.00000E+00
 -1      5708-3.23458E+02-1.68719E+03 0.00000E+00
 -1      5709 3.71997E+02-1.66722E+03 0.00000E+00
 -1      5710 2.82154E+02-1.69390E+03 0.00000E+00
 -1      5711 2.86035E+02-1.69792E+03 0.00000E+00
 -1      5712-3.58644E+02-1.57847E+03 0.00000E+00
 -1      5713-1.22957E+02-1.57892E+03 0.00000E+00
 -1      5714 1.13043E+02-1.57892E+03 0.00000E+00
 -1      5715 3.49043E+02-1.57892E+03 0.00000E+00
 -1      5716-3.03050E+01-1.72174E+03 0.00000E+00
 -1      5717-5.45268E+02-1.58449E+03 0.00000E+00
 -1      5718 5.45267E+02-1.58449E+03 0.00000E+00
 -1      5719-5.75254E+02-1.56752E+03 0.00000E+00
 -1      5720 5.75254E+02-1.56752E+03 0.00000E+00
 -1      5721 3.37484E+02-1.68876E+03 0.00000E+00
 -1      5722 3.26054E+02-1.69109E+03 0.00000E+00
 -1      5723 3.30271E+02-1.69572E+03 0.00000E+00
 -1      5724 5.15165E+02-1.63643E+03 0.00000E+00
 -1      5725 5.15156E+02-1.64222E+03 0.00000E+00
 -1      5726 5.20181E+02-1.63933E+03 0.00000E+00
 -1      5727 5.10125E+02-1.64488E+03 0.00000E+00
 -1      5728 5.14777E+02-1.64746E+03 0.00000E+00
 -1      5729-5.15161E+02-1.63642E+03 0.00000E+00
 -1      5730-5.15155E+02-1.64222E+03 0.00000E+00
 -1      5731-5.20179E+02-1.63933E+03 0.00000E+00
 -1      5732-5.10125E+02-1.64488E+03 0.00000E+00
 -1      5733-5.14777E+02-1.64746E+03 0.00000E+00
 -1      5734 5.00092E+02-1.64510E+03 0.00000E+00
 -1      5735 4.99527E+02-1.65126E+03 0.00000E+00
 -1      5736 4.93953E+02-1.65371E+03 0.00000E+00
 -1      5737-5.00090E+02-1.64509E+03 0.00000E+00
 -1      5738-4.99527E+02-1.65126E+03 0.00000E+00
 -1      5739-4.93953E+02-1.65371E+03 0.00000E+00
 -1      5740 3.20333E+02-1.69182E+03 0.00000E+00
 -1      5741-3.57317E+02-1.67734E+03 0.00000E+00
 -1      5742 4.49720E+02-1.66217E+03 0.00000E+00
 -1      5743 4.54148E+02-1.66489E+03 0.00000E+00
 -1      5744-4.49723E+02-1.66217E+03 0.00000E+00
 -1      5745-4.54148E+02-1.66489E+03 0.00000E+00
 -1      5746 6.63879E+02-1.53331E+03 0.00000E+00
 -1      5747-6.63880E+02-1.53331E+03 0.00000E+00
 -1      5748 6.53371E+02-1.53939E+03 0.00000E+00
 -1      5749 2.67014E+02-1.69145E+03 0.00000E+00
 -1      5750-6.43839E+02-1.54463E+03 0.00000E+00
 -1      5751-6.53371E+02-1.53939E+03 0.00000E+00
 -1      5752-6.86767E+02-1.54582E+03 0.00000E+00
 -1      5753 4.25691E+01-1.72035E+03 0.00000E+00
 -1      5754 4.12496E+01-1.72551E+03 0.00000E+00
 -1      5755 3.54661E+01-1.72684E+03 0.00000E+00
 -1      5756 3.08676E+02-1.69403E+03 0.00000E+00
 -1      5757 3.12522E+02-1.69753E+03 0.00000E+00
 -1      5758-2.21947E+02-1.66100E+03 0.00000E+00
 -1      5759-3.44245E+02-1.68571E+03 0.00000E+00
 -1      5760 6.43838E+02-1.54463E+03 0.00000E+00
 -1      5761 7.09722E+02-1.55581E+03 0.00000E+00
 -1      5762-7.09722E+02-1.55581E+03 0.00000E+00
 -1      5763-2.03705E+02-1.68351E+03 0.00000E+00
 -1      5764-5.05114E+02-1.64216E+03 0.00000E+00
 -1      5765 5.05115E+02-1.64217E+03 0.00000E+00
 -1      5766-4.89715E+02-1.65062E+03 0.00000E+00
 -1      5767 4.89707E+02-1.65061E+03 0.00000E+00
 -1      5768 4.59905E+02-1.65662E+03 0.00000E+00
 -1      5769 4.64907E+02-1.65964E+03 0.00000E+00
 -1      5770-4.59898E+02-1.65661E+03 0.00000E+00
 -1      5771-4.64905E+02-1.65964E+03 0.00000E+00
 -1      5772 2.95713E+02-1.54180E+03 0.00000E+00
 -1      5773 5.97220E+01-1.54178E+03 0.00000E+00
 -1      5774-1.76287E+02-1.54180E+03 0.00000E+00
 -1      5775-4.92871E+01-1.53613E+03 0.00000E+00
 -1      5776 1.86839E+02-1.53625E+03 0.00000E+00
 -1      5777 4.22653E+02-1.53606E+03 0.00000E+00
 -1      5778-3.47625E+02-1.66579E+03 0.00000E+00
 -1      5779 5.80168E+02-1.57038E+03 0.00000E+00
 -1      5780-5.80168E+02-1.57038E+03 0.00000E+00
 -1      5781 5.20186E+02-1.63354E+03 0.00000E+00
 -1      5782-5.20183E+02-1.63353E+03 0.00000E+00
 -1      5783-3.23224E+02-1.55947E+03 0.00000E+00
 -1      5784-3.29121E+02-1.56222E+03 0.00000E+00
 -1      5785 1.48776E+02-1.55947E+03 0.00000E+00
 -1      5786 1.42879E+02-1.56222E+03 0.00000E+00
 -1      5787-8.72240E+01-1.55947E+03 0.00000E+00
 -1      5788-9.31214E+01-1.56222E+03 0.00000E+00
 -1      5789 8.86780E+01-1.56001E+03 0.00000E+00
 -1      5790 7.18088E+02-1.37194E+03 0.00000E+00
 -1      5791 1.00240E+02-1.67989E+03 0.00000E+00
 -1      5792 1.30490E+02-1.68477E+03 0.00000E+00
 -1      5793-1.96827E+02-1.53077E+03 0.00000E+00
 -1      5794 2.75172E+02-1.53077E+03 0.00000E+00
 -1      5795 4.67083E+02-1.51078E+03 0.00000E+00
 -1      5796-3.16945E+02-1.69638E+03 0.00000E+00
 -1      5797-3.11957E+02-1.70096E+03 0.00000E+00
 -1      5798 2.26162E+02-1.51355E+03 0.00000E+00
 -1      5799-2.45838E+02-1.51355E+03 0.00000E+00
 -1      5800-4.62031E+02-1.51342E+03 0.00000E+00
 -1      5801 2.72728E+02-1.69045E+03 0.00000E+00
 -1      5802-2.18299E+02-1.66550E+03 0.00000E+00
 -1      5803-4.22346E+01-1.72459E+03 0.00000E+00
 -1      5804-3.79190E+01-1.72833E+03 0.00000E+00
 -1      5805 3.24664E+02-1.56003E+03 0.00000E+00
 -1      5806-3.83148E+02-1.55855E+03 0.00000E+00
 -1      5807-4.22643E+02-1.53606E+03 0.00000E+00
 -1      5808 3.91468E+01-1.53078E+03 0.00000E+00
 -1      5809-2.85161E+02-1.53625E+03 0.00000E+00
 -1      5810 4.57109E+02-1.51625E+03 0.00000E+00
 -1      5811 3.68674E+02-1.56742E+03 0.00000E+00
 -1      5812 2.24371E+01-1.52141E+03 0.00000E+00
 -1      5813 5.30217E+02-1.62775E+03 0.00000E+00
 -1      5814 5.30320E+02-1.63371E+03 0.00000E+00
 -1      5815-5.30217E+02-1.62775E+03 0.00000E+00
 -1      5816-5.30320E+02-1.63371E+03 0.00000E+00
 -1      5817-7.32624E+02-1.50618E+03 0.00000E+00
 -1      5818 1.02976E+02-1.56790E+03 0.00000E+00
 -1      5819-1.33046E+02-1.56794E+03 0.00000E+00
 -1      5820 3.38954E+02-1.56794E+03 0.00000E+00
 -1      5821 7.44195E+02-1.50616E+03 0.00000E+00
 -1      5822 3.71437E+02-1.68339E+03 0.00000E+00
 -1      5823-3.94283E+01-1.53042E+03 0.00000E+00
 -1      5824 4.32667E+02-1.53065E+03 0.00000E+00
 -1      5825 4.44813E+02-1.66527E+03 0.00000E+00
 -1      5826-4.44813E+02-1.66527E+03 0.00000E+00
 -1      5827 3.63707E+02-1.57017E+03 0.00000E+00
 -1      5828 7.75339E+02-1.49139E+03 0.00000E+00
 -1      5829-7.75610E+02-1.49164E+03 0.00000E+00
 -1      5830 3.45160E+01-1.52775E+03 0.00000E+00
 -1      5831-7.06856E+02-1.53095E+03 0.00000E+00
 -1      5832 7.06855E+02-1.53095E+03 0.00000E+00
 -1      5833-7.58512E+02-1.49131E+03 0.00000E+00
 -1      5834-9.79896E+01-1.70228E+03 0.00000E+00
 -1      5835-6.95390E+02-1.54086E+03 0.00000E+00
 -1      5836 4.35428E+02-1.67091E+03 0.00000E+00
 -1      5837 4.24916E+02-1.67182E+03 0.00000E+00
 -1      5838-4.34759E+02-1.67104E+03 0.00000E+00
 -1      5839-4.70998E+02-1.53541E+03 0.00000E+00
 -1      5840 5.40241E+02-1.62198E+03 0.00000E+00
 -1      5841 5.45244E+02-1.62487E+03 0.00000E+00
 -1      5842-5.40241E+02-1.62198E+03 0.00000E+00
 -1      5843-5.45244E+02-1.62487E+03 0.00000E+00
 -1      5844-1.79719E+02-1.70513E+03 0.00000E+00
 -1      5845 5.30279E+02-1.60463E+03 0.00000E+00
 -1      5846-5.30279E+02-1.60463E+03 0.00000E+00
 -1      5847-7.32651E+02-1.48641E+03 0.00000E+00
 -1      5848 7.32651E+02-1.48641E+03 0.00000E+00
 -1      5849 5.42763E+01-1.70317E+03 0.00000E+00
 -1      5850 6.29119E+02-1.58610E+03 0.00000E+00
 -1      5851-5.70392E+02-1.62207E+03 0.00000E+00
 -1      5852 7.86214E+01-1.57855E+03 0.00000E+00
 -1      5853 3.14528E+02-1.57863E+03 0.00000E+00
 -1      5854-1.57472E+02-1.57863E+03 0.00000E+00
 -1      5855 9.82339E+01-1.68532E+03 0.00000E+00
 -1      5856-2.42752E+02-1.65921E+03 0.00000E+00
 -1      5857-1.94836E+02-1.70244E+03 0.00000E+00
 -1      5858-7.64225E+02-1.49136E+03 0.00000E+00
 -1      5859-7.55903E+02-1.48616E+03 0.00000E+00
 -1      5860 3.79939E+02-1.68745E+03 0.00000E+00
 -1      5861 2.31500E+02-1.65691E+03 0.00000E+00
 -1      5862-2.27989E+02-1.53540E+03 0.00000E+00
 -1      5863 5.80139E+02-1.58173E+03 0.00000E+00
 -1      5864-5.80139E+02-1.58173E+03 0.00000E+00
 -1      5865 2.38704E+02-1.68112E+03 0.00000E+00
 -1      5866-7.71625E+01-1.70403E+03 0.00000E+00
 -1      5867-5.60109E+02-1.62750E+03 0.00000E+00
 -1      5868 5.60109E+02-1.62750E+03 0.00000E+00
 -1      5869 2.57889E+02-1.70282E+03 0.00000E+00
 -1      5870 7.06849E+02-1.55082E+03 0.00000E+00
 -1      5871-7.06849E+02-1.55082E+03 0.00000E+00
 -1      5872-7.24094E+02-1.54088E+03 0.00000E+00
 -1      5873 7.24094E+02-1.54088E+03 0.00000E+00
 -1      5874 2.25804E+02-1.65791E+03 0.00000E+00
 -1      5875-6.57908E+02-1.57556E+03 0.00000E+00
 -1      5876 6.57908E+02-1.57556E+03 0.00000E+00
 -1      5877-4.90262E+01-1.71476E+03 0.00000E+00
 -1      5878 5.80197E+02-1.59891E+03 0.00000E+00
 -1      5879-5.80197E+02-1.59891E+03 0.00000E+00
 -1      5880-6.40646E+02-1.58538E+03 0.00000E+00
 -1      5881 6.40646E+02-1.58538E+03 0.00000E+00
 -1      5882 7.38522E+02-1.54584E+03 0.00000E+00
 -1      5883-7.38522E+02-1.54584E+03 0.00000E+00
 -1      5884-7.12787E+02-1.42546E+03 0.00000E+00
 -1      5885-7.12659E+02-1.41987E+03 0.00000E+00
 -1      5886 7.12787E+02-1.42546E+03 0.00000E+00
 -1      5887 7.12659E+02-1.41987E+03 0.00000E+00
 -1      5888 2.44640E+02-1.66479E+03 0.00000E+00
 -1      5889 2.91590E+02-1.69734E+03 0.00000E+00
 -1      5890 5.94923E+02-1.57322E+03 0.00000E+00
 -1      5891-5.94923E+02-1.57322E+03 0.00000E+00
 -1      5892 5.50255E+02-1.61044E+03 0.00000E+00
 -1      5893 7.61277E+02-1.50609E+03 0.00000E+00
 -1      5894-7.61260E+02-1.50611E+03 0.00000E+00
 -1      5895 2.61724E+02-1.66178E+03 0.00000E+00
 -1      5896 2.72947E+02-1.67512E+03 0.00000E+00
 -1      5897 2.35754E+00-1.53674E+03 0.00000E+00
 -1      5898 2.52316E+02-1.65835E+03 0.00000E+00
 -1      5899-5.85198E+02-1.61874E+03 0.00000E+00
 -1      5900 5.85198E+02-1.61874E+03 0.00000E+00
 -1      5901 5.95178E+02-1.60753E+03 0.00000E+00
 -1      5902-5.95178E+02-1.60753E+03 0.00000E+00
 -1      5903-4.69931E+02-1.65664E+03 0.00000E+00
 -1      5904-4.69978E+02-1.66219E+03 0.00000E+00
 -1      5905-2.05885E+02-1.63308E+03 0.00000E+00
 -1      5906-3.58708E+02-1.59014E+03 0.00000E+00
 -1      5907 4.69930E+02-1.65664E+03 0.00000E+00
 -1      5908 4.69977E+02-1.66219E+03 0.00000E+00
 -1      5909 6.80955E+02-1.56570E+03 0.00000E+00
 -1      5910-6.80955E+02-1.56570E+03 0.00000E+00
 -1      5911-2.48468E+02-1.66011E+03 0.00000E+00
 -1      5912-7.24121E+02-1.56084E+03 0.00000E+00
 -1      5913 7.24121E+02-1.56084E+03 0.00000E+00
 -1      5914 3.49335E+02-1.57322E+03 0.00000E+00
 -1      5915 1.13337E+02-1.57322E+03 0.00000E+00
 -1      5916-1.22671E+02-1.57322E+03 0.00000E+00
 -1      5917-3.58668E+02-1.57290E+03 0.00000E+00
 -1      5918-1.00064E+02-1.70769E+03 0.00000E+00
 -1      5919-1.81771E+02-1.71053E+03 0.00000E+00
 -1      5920 6.83831E+02-1.58089E+03 0.00000E+00
 -1      5921-6.83831E+02-1.58089E+03 0.00000E+00
 -1      5922-6.69412E+02-1.57561E+03 0.00000E+00
 -1      5923 6.69412E+02-1.57561E+03 0.00000E+00
 -1      5924 2.14329E+02-1.61901E+03 0.00000E+00
 -1      5925-7.59619E+02-1.46599E+03 0.00000E+00
 -1      5926 2.78677E+02-1.67413E+03 0.00000E+00
 -1      5927-4.85811E+02-1.53836E+03 0.00000E+00
 -1      5928-1.72657E+02-1.57747E+03 0.00000E+00
 -1      5929 2.99343E+02-1.57747E+03 0.00000E+00
 -1      5930 6.34014E+01-1.57742E+03 0.00000E+00
 -1      5931-5.25371E+02-1.57869E+03 0.00000E+00
 -1      5932 5.25371E+02-1.57869E+03 0.00000E+00
 -1      5933-4.11457E+02-1.57531E+03 0.00000E+00
 -1      5934-1.22472E+02-1.69600E+03 0.00000E+00
 -1      5935-2.52636E+02-1.67094E+03 0.00000E+00
 -1      5936 2.32601E+02-1.53885E+03 0.00000E+00
 -1      5937-2.39282E+02-1.53881E+03 0.00000E+00
 -1      5938 5.19988E+02-1.64499E+03 0.00000E+00
 -1      5939 5.25109E+02-1.64237E+03 0.00000E+00
 -1      5940 5.30899E+02-1.64612E+03 0.00000E+00
 -1      5941 5.30431E+02-1.63973E+03 0.00000E+00
 -1      5942 5.35802E+02-1.64206E+03 0.00000E+00
 -1      5943-5.19987E+02-1.64499E+03 0.00000E+00
 -1      5944-5.25109E+02-1.64237E+03 0.00000E+00
 -1      5945-5.30899E+02-1.64612E+03 0.00000E+00
 -1      5946-5.30431E+02-1.63973E+03 0.00000E+00
 -1      5947-5.35802E+02-1.64206E+03 0.00000E+00
 -1      5948-2.96804E+02-1.57878E+03 0.00000E+00
 -1      5949-2.98423E+02-1.58404E+03 0.00000E+00
 -1      5950 1.75230E+02-1.57878E+03 0.00000E+00
 -1      5951 1.73944E+02-1.58509E+03 0.00000E+00
 -1      5952-6.07702E+01-1.57878E+03 0.00000E+00
 -1      5953-6.20560E+01-1.58509E+03 0.00000E+00
 -1      5954 6.23641E+02-1.61365E+03 0.00000E+00
 -1      5955-6.23641E+02-1.61365E+03 0.00000E+00
 -1      5956 7.72537E+02-1.47149E+03 0.00000E+00
 -1      5957 5.79998E+02-1.63014E+03 0.00000E+00
 -1      5958-5.79998E+02-1.63014E+03 0.00000E+00
 -1      5959-7.71156E+02-1.46757E+03 0.00000E+00
 -1      5960-7.55820E+01-1.71393E+03 0.00000E+00
 -1      5961 2.85706E+02-1.57076E+03 0.00000E+00
 -1      5962-1.86294E+02-1.57076E+03 0.00000E+00
 -1      5963 4.97592E+01-1.57072E+03 0.00000E+00
 -1      5964-5.94967E+02-1.58461E+03 0.00000E+00
 -1      5965 5.94967E+02-1.58461E+03 0.00000E+00
 -1      5966-6.49685E+02-1.60350E+03 0.00000E+00
 -1      5967 6.49685E+02-1.60350E+03 0.00000E+00
 -1      5968 4.25909E+02-1.56093E+03 0.00000E+00
 -1      5969-4.26245E+02-1.56052E+03 0.00000E+00
 -1      5970-3.25735E+02-1.69233E+03 0.00000E+00
 -1      5971 6.09939E+02-1.59889E+03 0.00000E+00
 -1      5972-6.09939E+02-1.59889E+03 0.00000E+00
 -1      5973-6.51897E+02-1.59512E+03 0.00000E+00
 -1      5974 6.51897E+02-1.59512E+03 0.00000E+00
 -1      5975 2.76453E+02-1.69488E+03 0.00000E+00
 -1      5976 3.63493E+02-1.58714E+03 0.00000E+00
 -1      5977-1.08477E+02-1.58665E+03 0.00000E+00
 -1      5978 1.27515E+02-1.58664E+03 0.00000E+00
 -1      5979-3.44474E+02-1.58664E+03 0.00000E+00
 -1      5980 6.61277E+02-1.59879E+03 0.00000E+00
 -1      5981-6.61277E+02-1.59879E+03 0.00000E+00
 -1      5982-5.69104E+02-1.63372E+03 0.00000E+00
 -1      5983 5.69104E+02-1.63372E+03 0.00000E+00
 -1      5984 4.91295E+02-1.54116E+03 0.00000E+00
 -1      5985-5.25237E+02-1.63655E+03 0.00000E+00
 -1      5986 5.25239E+02-1.63655E+03 0.00000E+00
 -1      5987-7.03562E+02-1.58045E+03 0.00000E+00
 -1      5988 7.03562E+02-1.58045E+03 0.00000E+00
 -1      5989-7.14049E+02-1.57589E+03 0.00000E+00
 -1      5990 7.14049E+02-1.57589E+03 0.00000E+00
 -1      5991-1.43820E+02-1.58540E+03 0.00000E+00
 -1      5992 3.28180E+02-1.58540E+03 0.00000E+00
 -1      5993 9.22183E+01-1.58535E+03 0.00000E+00
 -1      5994-7.35247E+02-1.56585E+03 0.00000E+00
 -1      5995 7.35247E+02-1.56585E+03 0.00000E+00
 -1      5996 7.24072E+02-1.57033E+03 0.00000E+00
 -1      5997-7.24072E+02-1.57033E+03 0.00000E+00
 -1      5998-9.64098E+01-1.71219E+03 0.00000E+00
 -1      5999-3.46357E+02-1.69085E+03 0.00000E+00
 -1      6000-6.24886E+02-1.60194E+03 0.00000E+00
 -1      6001 6.24886E+02-1.60194E+03 0.00000E+00
 -1      6002-7.55570E+02-1.51601E+03 0.00000E+00
 -1      6003 7.55570E+02-1.51601E+03 0.00000E+00
 -1      6004 4.19261E+01-1.56229E+03 0.00000E+00
 -1      6005 2.77914E+02-1.56234E+03 0.00000E+00
 -1      6006-1.94086E+02-1.56234E+03 0.00000E+00
 -1      6007-7.71963E+02-1.54844E+03 0.00000E+00
 -1      6008 7.71952E+02-1.54844E+03 0.00000E+00
 -1      6009-1.28196E+02-1.69691E+03 0.00000E+00
 -1      6010 3.56422E+02-1.68078E+03 0.00000E+00
 -1      6011-7.21229E+02-1.54586E+03 0.00000E+00
 -1      6012 7.21229E+02-1.54586E+03 0.00000E+00
 -1      6013 5.20829E+02-1.56445E+03 0.00000E+00
 -1      6014-5.20829E+02-1.56445E+03 0.00000E+00
 -1      6015 2.36705E+02-1.68657E+03 0.00000E+00
 -1      6016 6.80974E+02-1.54581E+03 0.00000E+00
 -1      6017 4.01190E+02-1.58122E+03 0.00000E+00
 -1      6018 4.56270E+02-1.54388E+03 0.00000E+00
 -1      6019-2.04220E+02-1.69883E+03 0.00000E+00
 -1      6020 5.05155E+02-1.64862E+03 0.00000E+00
 -1      6021-5.05155E+02-1.64862E+03 0.00000E+00
 -1      6022 4.59617E+02-1.66251E+03 0.00000E+00
 -1      6023-4.59615E+02-1.66251E+03 0.00000E+00
 -1      6024-2.61984E+02-1.66733E+03 0.00000E+00
 -1      6025 7.44211E+02-1.46654E+03 0.00000E+00
 -1      6026-7.44193E+02-1.46656E+03 0.00000E+00
 -1      6027-2.69806E+02-1.67366E+03 0.00000E+00
 -1      6028 5.58201E+02-1.63784E+03 0.00000E+00
 -1      6029-5.58201E+02-1.63784E+03 0.00000E+00
 -1      6030 7.73027E+02-1.53527E+03 0.00000E+00
 -1      6031-7.73027E+02-1.53527E+03 0.00000E+00
 -1      6032 7.35448E+02-1.44184E+03 0.00000E+00
 -1      6033-7.35502E+02-1.44163E+03 0.00000E+00
 -1      6034-2.67704E+02-1.66824E+03 0.00000E+00
 -1      6035 6.55012E+02-1.58052E+03 0.00000E+00
 -1      6036-6.55012E+02-1.58052E+03 0.00000E+00
 -1      6037-4.13582E+02-1.67989E+03 0.00000E+00
 -1      6038 4.13046E+02-1.68014E+03 0.00000E+00
 -1      6039-4.02088E+02-1.68281E+03 0.00000E+00
 -1      6040 4.46076E+02-1.54964E+03 0.00000E+00
 -1      6041-5.11136E+01-1.72003E+03 0.00000E+00
 -1      6042-5.31337E+01-1.72558E+03 0.00000E+00
 -1      6043 7.41387E+02-1.45160E+03 0.00000E+00
 -1      6044-7.41351E+02-1.45161E+03 0.00000E+00
 -1      6045-1.93844E+02-1.54194E+03 0.00000E+00
 -1      6046 2.78156E+02-1.54194E+03 0.00000E+00
 -1      6047 4.21846E+01-1.54189E+03 0.00000E+00
 -1      6048 5.10386E+02-1.55852E+03 0.00000E+00
 -1      6049-5.10386E+02-1.55852E+03 0.00000E+00
 -1      6050-4.63136E+01-1.56481E+03 0.00000E+00
 -1      6051 1.89683E+02-1.56481E+03 0.00000E+00
 -1      6052-2.82317E+02-1.56481E+03 0.00000E+00
 -1      6053 2.43925E+02-1.53541E+03 0.00000E+00
 -1      6054-2.71011E+01-1.54884E+03 0.00000E+00
 -1      6055-7.76870E+01-1.71924E+03 0.00000E+00
 -1      6056-3.90975E+02-1.68449E+03 0.00000E+00
 -1      6057 3.91117E+02-1.68514E+03 0.00000E+00
 -1      6058 3.92427E+02-1.67973E+03 0.00000E+00
 -1      6059 7.56143E+02-1.48653E+03 0.00000E+00
 -1      6060 2.16695E-01-1.73041E+03 0.00000E+00
 -1      6061-1.15957E+01-1.73025E+03 0.00000E+00
 -1      6062-1.41232E+01-1.72491E+03 0.00000E+00
 -1      6063 1.16223E+01-1.73021E+03 0.00000E+00
 -1      6064-6.13009E+02-1.61803E+03 0.00000E+00
 -1      6065-6.06775E+02-1.61909E+03 0.00000E+00
 -1      6066 6.13009E+02-1.61803E+03 0.00000E+00
 -1      6067 6.06775E+02-1.61909E+03 0.00000E+00
 -1      6068-1.30278E+02-1.70233E+03 0.00000E+00
 -1      6069-5.55183E+02-1.58446E+03 0.00000E+00
 -1      6070-5.14498E+02-1.61270E+03 0.00000E+00
 -1      6071 2.31035E+01-1.72957E+03 0.00000E+00
 -1      6072-3.79530E+02-1.68784E+03 0.00000E+00
 -1      6073-9.84860E+01-1.71757E+03 0.00000E+00
 -1      6074 2.80327E+02-1.69907E+03 0.00000E+00
 -1      6075 5.79956E+01-1.70762E+03 0.00000E+00
 -1      6076 1.69745E+02-1.58022E+03 0.00000E+00
 -1      6077 4.85930E+02-1.65954E+03 0.00000E+00
 -1      6078-4.85930E+02-1.65954E+03 0.00000E+00
 -1      6079 2.99398E+02-1.70423E+03 0.00000E+00
 -1      6080 2.88276E+02-1.70636E+03 0.00000E+00
 -1      6081 8.29089E+01-1.58225E+03 0.00000E+00
 -1      6082-1.53177E+02-1.58233E+03 0.00000E+00
 -1      6083 3.18823E+02-1.58233E+03 0.00000E+00
 -1      6084-8.21972E+02-1.48563E+03 0.00000E+00
 -1      6085 8.21655E+02-1.48562E+03 0.00000E+00
 -1      6086-4.65912E+02-1.53802E+03 0.00000E+00
 -1      6087 7.49606E+02-1.47645E+03 0.00000E+00
 -1      6088-7.49800E+02-1.47655E+03 0.00000E+00
 -1      6089 2.27284E+02-1.68311E+03 0.00000E+00
 -1      6090-7.89825E+02-1.50610E+03 0.00000E+00
 -1      6091-2.59838E+02-1.71051E+03 0.00000E+00
 -1      6092 2.59924E+02-1.71053E+03 0.00000E+00
 -1      6093-2.13912E+02-1.71675E+03 0.00000E+00
 -1      6094 2.14047E+02-1.71663E+03 0.00000E+00
 -1      6095-3.68374E+02-1.69069E+03 0.00000E+00
 -1      6096-3.62671E+02-1.69194E+03 0.00000E+00
 -1      6097-3.59490E+02-1.68709E+03 0.00000E+00
 -1      6098-2.48373E+02-1.71236E+03 0.00000E+00
 -1      6099 2.48435E+02-1.71205E+03 0.00000E+00
 -1      6100 1.85513E+02-1.72024E+03 0.00000E+00
 -1      6101 5.55222E+02-1.59027E+03 0.00000E+00
 -1      6102 8.12038E+02-1.50576E+03 0.00000E+00
 -1      6103-8.12038E+02-1.50576E+03 0.00000E+00
 -1      6104 2.35221E+02-1.66135E+03 0.00000E+00
 -1      6105-1.39646E+02-1.69875E+03 0.00000E+00
 -1      6106 6.05235E+02-1.60754E+03 0.00000E+00
 -1      6107-6.05235E+02-1.60754E+03 0.00000E+00
 -1      6108 1.53261E+02-1.68077E+03 0.00000E+00
 -1      6109-2.50550E+02-1.66552E+03 0.00000E+00
 -1      6110 3.63515E+02-1.57561E+03 0.00000E+00
 -1      6111 2.98001E+02-1.58270E+03 0.00000E+00
 -1      6112-1.73721E+02-1.58277E+03 0.00000E+00
 -1      6113 6.23182E+01-1.58274E+03 0.00000E+00
 -1      6114 2.19568E+02-1.68957E+03 0.00000E+00
 -1      6115 3.54671E+02-1.68653E+03 0.00000E+00
 -1      6116-7.44128E+02-1.44687E+03 0.00000E+00
 -1      6117 7.44155E+02-1.44682E+03 0.00000E+00
 -1      6118 6.74149E+01-1.71106E+03 0.00000E+00
 -1      6119-4.75000E+02-1.65929E+03 0.00000E+00
 -1      6120 1.87835E+02-1.65893E+03 0.00000E+00
 -1      6121 5.70284E+02-1.62779E+03 0.00000E+00
 -1      6122-5.70284E+02-1.62779E+03 0.00000E+00
 -1      6123 2.38944E+02-1.66579E+03 0.00000E+00
 -1      6124 4.74999E+02-1.65929E+03 0.00000E+00
 -1      6125-5.25272E+02-1.60751E+03 0.00000E+00
 -1      6126 5.25271E+02-1.60751E+03 0.00000E+00
 -1      6127-1.41740E+02-1.70416E+03 0.00000E+00
 -1      6128 6.86718E+02-1.56571E+03 0.00000E+00
 -1      6129-6.86719E+02-1.56571E+03 0.00000E+00
 -1      6130 2.13861E+02-1.69057E+03 0.00000E+00
 -1      6131-4.62148E+02-1.54671E+03 0.00000E+00
 -1      6132-6.37965E+02-1.59000E+03 0.00000E+00
 -1      6133 6.37965E+02-1.59000E+03 0.00000E+00
 -1      6134 2.11852E+02-1.69602E+03 0.00000E+00
 -1      6135-8.17592E+02-1.51512E+03 0.00000E+00
 -1      6136 8.17592E+02-1.51512E+03 0.00000E+00
 -1      6137 7.49992E+02-1.46655E+03 0.00000E+00
 -1      6138-7.50412E+02-1.46695E+03 0.00000E+00
 -1      6139-5.35517E+02-1.63672E+03 0.00000E+00
 -1      6140 5.35517E+02-1.63672E+03 0.00000E+00
 -1      6141-2.09956E+02-1.69970E+03 0.00000E+00
 -1      6142 2.02441E+02-1.69257E+03 0.00000E+00
 -1      6143-3.02640E+02-1.67300E+03 0.00000E+00
 -1      6144-1.51097E+02-1.70056E+03 0.00000E+00
 -1      6145 5.35320E+02-1.63071E+03 0.00000E+00
 -1      6146-5.35320E+02-1.63071E+03 0.00000E+00
 -1      6147 2.00422E+02-1.69802E+03 0.00000E+00
 -1      6148 7.12210E+02-1.51066E+03 0.00000E+00
 -1      6149-7.12212E+02-1.51066E+03 0.00000E+00
 -1      6150 7.32591E+02-1.50617E+03 0.00000E+00
 -1      6151 7.86788E+02-1.49186E+03 0.00000E+00
 -1      6152-7.86996E+02-1.49138E+03 0.00000E+00
 -1      6153-1.53197E+02-1.70597E+03 0.00000E+00
 -1      6154 6.86727E+02-1.54583E+03 0.00000E+00
 -1      6155-6.98885E+01-1.72846E+03 0.00000E+00
 -1      6156-9.53196E+01-1.72233E+03 0.00000E+00
 -1      6157 1.91016E+02-1.69457E+03 0.00000E+00
 -1      6158-7.47160E+02-1.54081E+03 0.00000E+00
 -1      6159-5.20163E+02-1.61014E+03 0.00000E+00
 -1      6160 5.20357E+02-1.61023E+03 0.00000E+00
 -1      6161 2.56044E+02-1.66278E+03 0.00000E+00
 -1      6162 7.26943E+02-1.51606E+03 0.00000E+00
 -1      6163 1.88986E+02-1.70004E+03 0.00000E+00
 -1      6164 5.75233E+02-1.57317E+03 0.00000E+00
 -1      6165-5.75233E+02-1.57317E+03 0.00000E+00
 -1      6166 7.47160E+02-1.54081E+03 0.00000E+00
 -1      6167-1.58905E+02-1.70688E+03 0.00000E+00
 -1      6168-6.60740E+02-1.58052E+03 0.00000E+00
 -1      6169 6.60740E+02-1.58052E+03 0.00000E+00
 -1      6170 2.35834E+02-1.50774E+03 0.00000E+00
 -1      6171-2.36166E+02-1.50774E+03 0.00000E+00
 -1      6172 1.79595E+02-1.69655E+03 0.00000E+00
 -1      6173-7.73856E+01-1.56218E+03 0.00000E+00
 -1      6174-3.13386E+02-1.56218E+03 0.00000E+00
 -1      6175 1.58614E+02-1.56218E+03 0.00000E+00
 -1      6176-3.51048E+02-1.69332E+03 0.00000E+00
 -1      6177-2.13603E+02-1.69521E+03 0.00000E+00
 -1      6178 2.65445E+02-1.66620E+03 0.00000E+00
 -1      6179-7.29844E+02-1.54088E+03 0.00000E+00
 -1      6180 7.29844E+02-1.54088E+03 0.00000E+00
 -1      6181 1.73893E+02-1.69755E+03 0.00000E+00
 -1      6182-7.92354E+02-1.52955E+03 0.00000E+00
 -1      6183 7.92354E+02-1.52954E+03 0.00000E+00
 -1      6184 2.42085E+02-1.54073E+03 0.00000E+00
 -1      6185 1.71836E+02-1.70304E+03 0.00000E+00
 -1      6186 2.69187E+02-1.67063E+03 0.00000E+00
 -1      6187 1.93527E+02-1.65273E+03 0.00000E+00
 -1      6188 2.80333E+02-1.57188E+03 0.00000E+00
 -1      6189-1.91631E+02-1.57180E+03 0.00000E+00
 -1      6190 4.43717E+01-1.57186E+03 0.00000E+00
 -1      6191 7.61843E+02-1.54555E+03 0.00000E+00
 -1      6192 1.62458E+02-1.69955E+03 0.00000E+00
 -1      6193 6.95365E+02-1.56074E+03 0.00000E+00
 -1      6194-6.95366E+02-1.56074E+03 0.00000E+00
 -1      6195-1.15998E+02-1.72599E+03 0.00000E+00
 -1      6196-1.55439E+02-1.68670E+03 0.00000E+00
 -1      6197 3.54153E+02-1.63917E+03 0.00000E+00
 -1      6198 1.56757E+02-1.70054E+03 0.00000E+00
 -1      6199-8.01027E+02-1.50593E+03 0.00000E+00
 -1      6200 8.01027E+02-1.50593E+03 0.00000E+00
 -1      6201 7.32754E+02-1.54585E+03 0.00000E+00
 -1      6202-7.32755E+02-1.54585E+03 0.00000E+00
 -1      6203-1.77962E+02-1.71542E+03 0.00000E+00
 -1      6204-1.61089E+02-1.71234E+03 0.00000E+00
 -1      6205 7.47090E+02-1.50124E+03 0.00000E+00
 -1      6206-2.19354E+02-1.69609E+03 0.00000E+00
 -1      6207-6.66478E+02-1.58048E+03 0.00000E+00
 -1      6208 6.66478E+02-1.58048E+03 0.00000E+00
 -1      6209 6.13298E+00-1.54076E+03 0.00000E+00
 -1      6210-7.97926E+02-1.49139E+03 0.00000E+00
 -1      6211 1.45311E+02-1.70256E+03 0.00000E+00
 -1      6212-3.68804E+02-1.66392E+03 0.00000E+00
 -1      6213-4.41876E+02-1.63188E+03 0.00000E+00
 -1      6214-4.42185E+02-1.62607E+03 0.00000E+00
 -1      6215-5.99896E+02-1.57604E+03 0.00000E+00
 -1      6216 5.99895E+02-1.57604E+03 0.00000E+00
 -1      6217-4.35419E+01-1.57404E+03 0.00000E+00
 -1      6218 1.92458E+02-1.57404E+03 0.00000E+00
 -1      6219-2.79542E+02-1.57404E+03 0.00000E+00
 -1      6220 5.70244E+02-1.60468E+03 0.00000E+00
 -1      6221-5.70244E+02-1.60468E+03 0.00000E+00
 -1      6222-4.24682E+02-1.67694E+03 0.00000E+00
 -1      6223 1.43251E+02-1.70805E+03 0.00000E+00
 -1      6224 6.73386E+02-1.52756E+03 0.00000E+00
 -1      6225 7.47066E+02-1.53087E+03 0.00000E+00
 -1      6226 6.30011E+01-1.67285E+03 0.00000E+00
 -1      6227 1.33840E+02-1.70456E+03 0.00000E+00
 -1      6228-7.47065E+02-1.53087E+03 0.00000E+00
 -1      6229 7.12719E+02-1.37471E+03 0.00000E+00
 -1      6230 1.24404E+02-1.70111E+03 0.00000E+00
 -1      6231 2.00230E+02-1.65183E+03 0.00000E+00
 -1      6232-2.23004E+02-1.69157E+03 0.00000E+00
 -1      6233 8.71868E+01-1.67262E+03 0.00000E+00
 -1      6234 7.03982E+02-1.55577E+03 0.00000E+00
 -1      6235-7.03982E+02-1.55577E+03 0.00000E+00
 -1      6236 1.15012E+02-1.69765E+03 0.00000E+00
 -1      6237 6.04782E+02-1.56751E+03 0.00000E+00
 -1      6238 7.38317E+02-1.42670E+03 0.00000E+00
 -1      6239 1.12926E+02-1.70312E+03 0.00000E+00
 -1      6240-7.12675E+02-1.37469E+03 0.00000E+00
 -1      6241-6.04782E+02-1.56751E+03 0.00000E+00
 -1      6242-2.35987E+02-1.68348E+03 0.00000E+00
 -1      6243-3.27754E+02-1.69798E+03 0.00000E+00
 -1      6244-7.41381E+02-1.54086E+03 0.00000E+00
 -1      6245 7.41381E+02-1.54086E+03 0.00000E+00
 -1      6246 1.03568E+02-1.69967E+03 0.00000E+00
 -1      6247-6.73383E+02-1.52757E+03 0.00000E+00
 -1      6248 1.01502E+02-1.70513E+03 0.00000E+00
 -1      6249-4.34864E+02-1.65342E+03 0.00000E+00
 -1      6250-2.26634E+02-1.68706E+03 0.00000E+00
 -1      6251 9.21522E+01-1.70164E+03 0.00000E+00
 -1      6252 8.64149E+01-1.70266E+03 0.00000E+00
 -1      6253-5.15350E+02-1.59602E+03 0.00000E+00
 -1      6254 5.15487E+02-1.59599E+03 0.00000E+00
 -1      6255-6.09742E+02-1.56473E+03 0.00000E+00
 -1      6256 6.09741E+02-1.56473E+03 0.00000E+00
 -1      6257 4.10788E+02-1.57532E+03 0.00000E+00
 -1      6258 8.43380E+01-1.70812E+03 0.00000E+00
 -1      6259-7.87478E+02-1.54042E+03 0.00000E+00
 -1      6260 7.87478E+02-1.54042E+03 0.00000E+00
 -1      6261 7.50345E+01-1.70462E+03 0.00000E+00
 -1      6262 6.24577E+02-1.60781E+03 0.00000E+00
 -1      6263-6.24577E+02-1.60781E+03 0.00000E+00
 -1      6264-2.38065E+02-1.68884E+03 0.00000E+00
 -1      6265-7.13005E+02-1.44217E+03 0.00000E+00
 -1      6266-2.89607E+02-1.69704E+03 0.00000E+00
 -1      6267 5.05345E+02-1.62445E+03 0.00000E+00
 -1      6268 7.12741E+02-1.48277E+03 0.00000E+00
 -1      6269-7.06884E+02-1.56077E+03 0.00000E+00
 -1      6270 7.06884E+02-1.56077E+03 0.00000E+00
 -1      6271 7.13004E+02-1.44218E+03 0.00000E+00
 -1      6272-2.30263E+02-1.68256E+03 0.00000E+00
 -1      6273-7.88023E+02-1.46985E+03 0.00000E+00
 -1      6274-6.14699E+02-1.56758E+03 0.00000E+00
 -1      6275 6.14698E+02-1.56758E+03 0.00000E+00
 -1      6276 3.84036E+02-1.58606E+03 0.00000E+00
 -1      6277 3.82363E+02-1.68179E+03 0.00000E+00
 -1      6278-7.12746E+02-1.48280E+03 0.00000E+00
 -1      6279-3.84318E+02-1.58611E+03 0.00000E+00
 -1      6280 1.98475E+01-1.62518E+03 0.00000E+00
 -1      6281 7.09753E+02-1.56564E+03 0.00000E+00
 -1      6282-7.09753E+02-1.56564E+03 0.00000E+00
 -1      6283-7.98058E+02-1.53552E+03 0.00000E+00
 -1      6284 7.98058E+02-1.53552E+03 0.00000E+00
 -1      6285 5.85120E+02-1.59604E+03 0.00000E+00
 -1      6286-5.85120E+02-1.59604E+03 0.00000E+00
 -1      6287-7.95597E+01-1.72460E+03 0.00000E+00
 -1      6288 7.32407E+02-1.38675E+03 0.00000E+00
 -1      6289-7.32407E+02-1.38675E+03 0.00000E+00
 -1      6290 3.35585E+01-1.70176E+03 0.00000E+00
 -1      6291-4.80883E+02-1.54130E+03 0.00000E+00
 -1      6292 7.49887E+02-1.52591E+03 0.00000E+00
 -1      6293-7.49886E+02-1.52591E+03 0.00000E+00
 -1      6294-6.93197E+02-1.58505E+03 0.00000E+00
 -1      6295 6.93197E+02-1.58505E+03 0.00000E+00
 -1      6296-2.43796E+02-1.68975E+03 0.00000E+00
 -1      6297 5.70277E+02-1.57029E+03 0.00000E+00
 -1      6298-5.70277E+02-1.57029E+03 0.00000E+00
 -1      6299 5.90087E+02-1.59889E+03 0.00000E+00
 -1      6300-5.90087E+02-1.59889E+03 0.00000E+00
 -1      6301 5.75159E+02-1.57884E+03 0.00000E+00
 -1      6302 1.38095E+02-1.66761E+03 0.00000E+00
 -1      6303-2.49525E+02-1.69065E+03 0.00000E+00
 -1      6304-7.39153E+02-1.37758E+03 0.00000E+00
 -1      6305-5.94571E+01-1.54246E+03 0.00000E+00
 -1      6306-2.95457E+02-1.54246E+03 0.00000E+00
 -1      6307 1.76543E+02-1.54246E+03 0.00000E+00
 -1      6308-4.57831E+01-1.67843E+03 0.00000E+00
 -1      6309-3.44263E+02-1.59883E+03 0.00000E+00
 -1      6310-1.07549E+02-1.59825E+03 0.00000E+00
 -1      6311 1.27732E+02-1.59883E+03 0.00000E+00
 -1      6312 5.65359E+02-1.56179E+03 0.00000E+00
 -1      6313-5.65359E+02-1.56179E+03 0.00000E+00
 -1      6314-7.75684E+02-1.53995E+03 0.00000E+00
 -1      6315 7.75683E+02-1.53995E+03 0.00000E+00
 -1      6316 6.43780E+02-1.55051E+03 0.00000E+00
 -1      6317-6.43783E+02-1.55051E+03 0.00000E+00
 -1      6318-7.18474E+02-1.38180E+03 0.00000E+00
 -1      6319 7.18500E+02-1.38181E+03 0.00000E+00
 -1      6320-2.55260E+02-1.69154E+03 0.00000E+00
 -1      6321 5.90166E+02-1.60467E+03 0.00000E+00
 -1      6322-5.90166E+02-1.60467E+03 0.00000E+00
 -1      6323-7.18736E+02-1.43195E+03 0.00000E+00
 -1      6324 7.18731E+02-1.43195E+03 0.00000E+00
 -1      6325 2.05632E+02-1.71235E+03 0.00000E+00
 -1      6326 3.95075E+02-1.58339E+03 0.00000E+00
 -1      6327 5.60353E+02-1.55895E+03 0.00000E+00
 -1      6328-5.60353E+02-1.55895E+03 0.00000E+00
 -1      6329-7.02963E+02-1.51043E+03 0.00000E+00
 -1      6330-2.60995E+02-1.69243E+03 0.00000E+00
 -1      6331-1.73694E+02-1.72108E+03 0.00000E+00
 -1      6332 2.24004E+02-1.63354E+03 0.00000E+00
 -1      6333-8.42911E+02-1.46859E+03 0.00000E+00
 -1      6334-2.60732E+02-1.52214E+03 0.00000E+00
 -1      6335 2.11268E+02-1.52214E+03 0.00000E+00
 -1      6336 5.55313E+02-1.56170E+03 0.00000E+00
 -1      6337-5.55313E+02-1.56170E+03 0.00000E+00
 -1      6338 6.00125E+02-1.60465E+03 0.00000E+00
 -1      6339-6.00125E+02-1.60465E+03 0.00000E+00
 -1      6340 7.53314E+02-1.34524E+03 0.00000E+00
 -1      6341 1.26268E+02-1.64760E+03 0.00000E+00
 -1      6342-7.55583E+02-1.52581E+03 0.00000E+00
 -1      6343-1.08158E+02-1.65861E+03 0.00000E+00
 -1      6344-2.66727E+02-1.69333E+03 0.00000E+00
 -1      6345 7.55583E+02-1.52581E+03 0.00000E+00
 -1      6346-4.80678E+01-1.65842E+03 0.00000E+00
 -1      6347 2.62892E+02-1.61461E+03 0.00000E+00
 -1      6348 7.29827E+01-1.71002E+03 0.00000E+00
 -1      6349-5.93140E+01-1.67076E+03 0.00000E+00
 -1      6350-7.74526E+01-1.58284E+03 0.00000E+00
 -1      6351 1.58547E+02-1.58284E+03 0.00000E+00
 -1      6352-3.13452E+02-1.58284E+03 0.00000E+00
 -1      6353 7.02960E+02-1.51043E+03 0.00000E+00
 -1      6354 5.50565E+02-1.55323E+03 0.00000E+00
 -1      6355-5.50565E+02-1.55323E+03 0.00000E+00
 -1      6356-8.07403E+02-1.52454E+03 0.00000E+00
 -1      6357 8.07402E+02-1.52454E+03 0.00000E+00
 -1      6358 7.72469E+02-1.48632E+03 0.00000E+00
 -1      6359-2.72461E+02-1.69422E+03 0.00000E+00
 -1      6360 7.09871E+01-1.71544E+03 0.00000E+00
 -1      6361-4.15337E+02-1.67480E+03 0.00000E+00
 -1      6362-5.05542E+02-1.62490E+03 0.00000E+00
 -1      6363 4.31763E+01-1.66098E+03 0.00000E+00
 -1      6364 5.45565E+02-1.55040E+03 0.00000E+00
 -1      6365-5.45565E+02-1.55040E+03 0.00000E+00
 -1      6366 6.89730E+01-1.72068E+03 0.00000E+00
 -1      6367 1.38305E+02-1.72442E+03 0.00000E+00
 -1      6368 6.69063E+02-1.53603E+03 0.00000E+00
 -1      6369-6.69063E+02-1.53603E+03 0.00000E+00
 -1      6370-2.13207E+02-1.62408E+03 0.00000E+00
 -1      6371 6.09996E+02-1.60456E+03 0.00000E+00
 -1      6372-6.09996E+02-1.60456E+03 0.00000E+00
 -1      6373 1.18008E+02-1.64184E+03 0.00000E+00
 -1      6374 3.63932E+02-1.59891E+03 0.00000E+00
 -1      6375-2.78227E+02-1.69514E+03 0.00000E+00
 -1      6376 1.04990E+02-1.72519E+03 0.00000E+00
 -1      6377 5.40480E+02-1.55311E+03 0.00000E+00
 -1      6378-5.40480E+02-1.55311E+03 0.00000E+00
 -1      6379 7.92543E+02-1.48594E+03 0.00000E+00
 -1      6380-2.84004E+02-1.69611E+03 0.00000E+00
 -1      6381 8.11322E+01-1.72826E+03 0.00000E+00
 -1      6382 3.58437E+02-1.65997E+03 0.00000E+00
 -1      6383 4.49882E+02-1.64516E+03 0.00000E+00
 -1      6384-4.44775E+01-1.53903E+03 0.00000E+00
 -1      6385-2.37083E+02-1.71385E+03 0.00000E+00
 -1      6386-2.80354E+02-1.53899E+03 0.00000E+00
 -1      6387 1.91646E+02-1.53899E+03 0.00000E+00
 -1      6388-7.58388E+02-1.52083E+03 0.00000E+00
 -1      6389 7.58388E+02-1.52083E+03 0.00000E+00
 -1      6390-2.66412E+02-1.63763E+03 0.00000E+00
 -1      6391 4.71294E+02-1.53513E+03 0.00000E+00
 -1      6392 6.10037E+02-1.61031E+03 0.00000E+00
 -1      6393-6.10037E+02-1.61031E+03 0.00000E+00
 -1      6394 4.25707E+02-1.56700E+03 0.00000E+00
 -1      6395 3.54250E+02-1.65564E+03 0.00000E+00
 -1      6396-2.92133E+01-1.70646E+03 0.00000E+00
 -1      6397 8.42200E+02-1.46850E+03 0.00000E+00
 -1      6398-4.25036E+02-1.59290E+03 0.00000E+00
 -1      6399-4.45419E+02-1.55020E+03 0.00000E+00
 -1      6400-1.11799E+02-1.65383E+03 0.00000E+00
 -1      6401-5.35673E+02-1.54469E+03 0.00000E+00
 -1      6402 5.35673E+02-1.54469E+03 0.00000E+00
 -1      6403-7.12794E+02-1.47125E+03 0.00000E+00
 -1      6404 7.12794E+02-1.47125E+03 0.00000E+00
 -1      6405-1.66032E+02-1.68203E+03 0.00000E+00
 -1      6406 3.71649E+02-1.58656E+03 0.00000E+00
 -1      6407-7.94146E+02-1.48614E+03 0.00000E+00
 -1      6408 1.08404E+02-1.65820E+03 0.00000E+00
 -1      6409-7.46264E+02-1.56078E+03 0.00000E+00
 -1      6410 7.46264E+02-1.56078E+03 0.00000E+00
 -1      6411-1.04234E+02-1.72729E+03 0.00000E+00
 -1      6412-5.30586E+02-1.54738E+03 0.00000E+00
 -1      6413 5.30586E+02-1.54738E+03 0.00000E+00
 -1      6414 1.88752E+02-1.58539E+03 0.00000E+00
 -1      6415-4.72479E+01-1.58539E+03 0.00000E+00
 -1      6416-2.83470E+02-1.58550E+03 0.00000E+00
 -1      6417 2.61051E+01-1.62164E+03 0.00000E+00
 -1      6418-7.68500E+02-1.33888E+03 0.00000E+00
 -1      6419 7.68205E+02-1.33887E+03 0.00000E+00
 -1      6420 7.61172E+02-1.51586E+03 0.00000E+00
 -1      6421-7.61172E+02-1.51586E+03 0.00000E+00
 -1      6422-2.04816E+02-1.64303E+03 0.00000E+00
 -1      6423 4.78299E+01-1.59954E+03 0.00000E+00
 -1      6424-1.88574E+02-1.59957E+03 0.00000E+00
 -1      6425-4.77686E+01-1.59957E+03 0.00000E+00
 -1      6426-2.83667E+02-1.59961E+03 0.00000E+00
 -1      6427 1.88120E+02-1.59957E+03 0.00000E+00
 -1      6428 2.68142E+01-1.61453E+03 0.00000E+00
 -1      6429 6.82962E+02-1.52202E+03 0.00000E+00
 -1      6430-6.82960E+02-1.52202E+03 0.00000E+00
 -1      6431-2.43843E+02-1.62919E+03 0.00000E+00
 -1      6432-6.34106E+02-1.55027E+03 0.00000E+00
 -1      6433-5.25937E+02-1.53896E+03 0.00000E+00
 -1      6434 5.25937E+02-1.53896E+03 0.00000E+00
 -1      6435 2.97557E+01-1.63711E+03 0.00000E+00
 -1      6436 7.32345E+02-1.41688E+03 0.00000E+00
 -1      6437-7.32355E+02-1.41688E+03 0.00000E+00
 -1      6438 5.21341E+01-1.73012E+03 0.00000E+00
 -1      6439-4.79825E+02-1.65639E+03 0.00000E+00
 -1      6440-3.68689E+02-1.59445E+03 0.00000E+00
 -1      6441 4.79824E+02-1.65639E+03 0.00000E+00
 -1      6442 1.73953E+02-1.68255E+03 0.00000E+00
 -1      6443 1.23096E+02-1.66059E+03 0.00000E+00
 -1      6444 2.02783E+02-1.71802E+03 0.00000E+00
 -1      6445 4.75110E+02-1.63138E+03 0.00000E+00
 -1      6446 5.20892E+02-1.53613E+03 0.00000E+00
 -1      6447-5.20892E+02-1.53613E+03 0.00000E+00
 -1      6448-1.39117E+02-1.72450E+03 0.00000E+00
 -1      6449-2.62215E+02-1.52891E+03 0.00000E+00
 -1      6450 2.09785E+02-1.52891E+03 0.00000E+00
 -1      6451-7.38616E+00-1.54189E+03 0.00000E+00
 -1      6452-8.07747E+02-1.48749E+03 0.00000E+00
 -1      6453 6.93302E+02-1.51693E+03 0.00000E+00
 -1      6454-6.93301E+02-1.51693E+03 0.00000E+00
 -1      6455 6.34089E+02-1.55024E+03 0.00000E+00
 -1      6456 2.16311E+01-1.63889E+03 0.00000E+00
 -1      6457 7.67658E+02-1.54497E+03 0.00000E+00
 -1      6458-7.12927E+02-1.39162E+03 0.00000E+00
 -1      6459 7.12927E+02-1.39162E+03 0.00000E+00
 -1      6460 5.15767E+02-1.53875E+03 0.00000E+00
 -1      6461-5.15768E+02-1.53875E+03 0.00000E+00
 -1      6462 7.39176E+02-1.37785E+03 0.00000E+00
 -1      6463 5.03121E+02-1.65537E+03 0.00000E+00
 -1      6464-5.03121E+02-1.65537E+03 0.00000E+00
 -1      6465-3.47923E+02-1.64252E+03 0.00000E+00
 -1      6466 8.69395E+01-1.72779E+03 0.00000E+00
 -1      6467 7.63937E+02-1.51093E+03 0.00000E+00
 -1      6468-7.63936E+02-1.51093E+03 0.00000E+00
 -1      6469-7.67681E+02-1.54497E+03 0.00000E+00
 -1      6470-2.60063E+02-1.62421E+03 0.00000E+00
 -1      6471-1.69331E+02-1.67258E+03 0.00000E+00
 -1      6472 5.11167E+02-1.53039E+03 0.00000E+00
 -1      6473-5.11168E+02-1.53039E+03 0.00000E+00
 -1      6474-3.70108E+02-1.68507E+03 0.00000E+00
 -1      6475-7.36845E+02-1.36141E+03 0.00000E+00
 -1      6476 6.52988E+02-1.54533E+03 0.00000E+00
 -1      6477-6.52988E+02-1.54533E+03 0.00000E+00
 -1      6478-2.98648E+01-1.52507E+03 0.00000E+00
 -1      6479-3.23801E+02-1.67149E+03 0.00000E+00
 -1      6480-6.39916E+02-1.60415E+03 0.00000E+00
 -1      6481 6.39916E+02-1.60415E+03 0.00000E+00
 -1      6482-1.17713E+02-1.61757E+03 0.00000E+00
 -1      6483-6.69192E+02-1.58534E+03 0.00000E+00
 -1      6484 6.69192E+02-1.58534E+03 0.00000E+00
 -1      6485-3.77040E+02-1.56664E+03 0.00000E+00
 -1      6486-2.70865E+01-1.63721E+03 0.00000E+00
 -1      6487-1.71438E+02-1.55181E+03 0.00000E+00
 -1      6488 3.00562E+02-1.55181E+03 0.00000E+00
 -1      6489 4.96902E+02-1.62329E+03 0.00000E+00
 -1      6490-2.08723E+02-1.61434E+03 0.00000E+00
 -1      6491 2.09059E+02-1.61446E+03 0.00000E+00
 -1      6492-2.62978E+02-1.61443E+03 0.00000E+00
 -1      6493-5.06107E+02-1.52756E+03 0.00000E+00
 -1      6494 5.06107E+02-1.52756E+03 0.00000E+00
 -1      6495 7.36477E+02-1.56030E+03 0.00000E+00
 -1      6496-7.36477E+02-1.56030E+03 0.00000E+00
 -1      6497-2.84821E+02-1.67132E+03 0.00000E+00
 -1      6498 5.16120E+02-1.57229E+03 0.00000E+00
 -1      6499-5.16120E+02-1.57229E+03 0.00000E+00
 -1      6500-7.13334E+02-1.57054E+03 0.00000E+00
 -1      6501 7.13334E+02-1.57054E+03 0.00000E+00
 -1      6502-7.38196E+02-1.43677E+03 0.00000E+00
 -1      6503-1.48079E+02-1.67159E+03 0.00000E+00
 -1      6504-5.46742E+02-1.64161E+03 0.00000E+00
 -1      6505 5.46742E+02-1.64161E+03 0.00000E+00
 -1      6506 3.86941E+02-1.56097E+03 0.00000E+00
 -1      6507-1.15356E+02-1.64960E+03 0.00000E+00
 -1      6508 5.00956E+02-1.53014E+03 0.00000E+00
 -1      6509-5.00951E+02-1.53015E+03 0.00000E+00
 -1      6510 2.46916E+01-1.54600E+03 0.00000E+00
 -1      6511-7.27423E+02-1.36627E+03 0.00000E+00
 -1      6512 7.27381E+02-1.36631E+03 0.00000E+00
 -1      6513-1.57354E+02-1.55803E+03 0.00000E+00
 -1      6514 3.14646E+02-1.55803E+03 0.00000E+00
 -1      6515 1.87730E+01-1.71446E+03 0.00000E+00
 -1      6516 6.61386E+02-1.54160E+03 0.00000E+00
 -1      6517-6.61387E+02-1.54160E+03 0.00000E+00
 -1      6518-7.69763E+02-1.51080E+03 0.00000E+00
 -1      6519-4.01801E+02-1.55252E+03 0.00000E+00
 -1      6520 6.45859E+01-1.55178E+03 0.00000E+00
 -1      6521 7.69763E+02-1.51080E+03 0.00000E+00
 -1      6522 2.74456E+02-1.65404E+03 0.00000E+00
 -1      6523-3.98686E+02-1.67884E+03 0.00000E+00
 -1      6524 4.01819E+02-1.55253E+03 0.00000E+00
 -1      6525-7.67493E+02-1.48670E+03 0.00000E+00
 -1      6526 4.96511E+02-1.52182E+03 0.00000E+00
 -1      6527 7.56951E+02-1.44793E+03 0.00000E+00
 -1      6528-7.56755E+02-1.44778E+03 0.00000E+00
 -1      6529-4.96224E+02-1.52187E+03 0.00000E+00
 -1      6530 4.04638E+01-1.56726E+03 0.00000E+00
 -1      6531 3.26944E+02-1.67592E+03 0.00000E+00
 -1      6532 1.67993E+02-1.72221E+03 0.00000E+00
 -1      6533-4.70579E+02-1.54095E+03 0.00000E+00
 -1      6534 1.79042E+02-1.67583E+03 0.00000E+00
 -1      6535-1.81807E+02-1.59004E+03 0.00000E+00
 -1      6536 4.45280E+02-1.61470E+03 0.00000E+00
 -1      6537-1.42387E+02-1.71935E+03 0.00000E+00
 -1      6538 5.41957E+01-1.59005E+03 0.00000E+00
 -1      6539-4.28770E+01-1.68302E+03 0.00000E+00
 -1      6540 4.91342E+02-1.51900E+03 0.00000E+00
 -1      6541 3.17128E+02-1.70101E+03 0.00000E+00
 -1      6542 7.75577E+02-1.51069E+03 0.00000E+00
 -1      6543-2.70485E+02-1.64770E+03 0.00000E+00
 -1      6544-7.75571E+02-1.51070E+03 0.00000E+00
 -1      6545-4.91048E+02-1.52444E+03 0.00000E+00
 -1      6546 7.86772E+01-1.55799E+03 0.00000E+00
 -1      6547-4.29623E+02-1.59725E+03 0.00000E+00
 -1      6548 2.78489E+02-1.70419E+03 0.00000E+00
 -1      6549-8.03106E+02-1.53286E+03 0.00000E+00
 -1      6550 8.03106E+02-1.53286E+03 0.00000E+00
 -1      6551-4.16718E+02-1.54406E+03 0.00000E+00
 -1      6552-1.06772E+02-1.66773E+03 0.00000E+00
 -1      6553 4.16716E+02-1.54406E+03 0.00000E+00
 -1      6554 7.98269E+02-1.49198E+03 0.00000E+00
 -1      6555 7.36502E+02-1.36159E+03 0.00000E+00
 -1      6556-5.96248E+02-1.62443E+03 0.00000E+00
 -1      6557 5.96248E+02-1.62443E+03 0.00000E+00
 -1      6558 2.76438E+02-1.56728E+03 0.00000E+00
 -1      6559-1.95557E+02-1.56721E+03 0.00000E+00
 -1      6560 3.18045E+02-1.67212E+03 0.00000E+00
 -1      6561-2.20114E+02-1.52347E+03 0.00000E+00
 -1      6562 2.51886E+02-1.52347E+03 0.00000E+00
 -1      6563-4.86365E+02-1.51616E+03 0.00000E+00
 -1      6564 7.79132E+01-1.58938E+03 0.00000E+00
 -1      6565-4.11626E+02-1.58711E+03 0.00000E+00
 -1      6566 4.14155E+02-1.67497E+03 0.00000E+00
 -1      6567-2.06806E+01-1.72536E+03 0.00000E+00
 -1      6568 2.46921E+02-1.62929E+03 0.00000E+00
 -1      6569 4.86147E+02-1.52157E+03 0.00000E+00
 -1      6570 3.43007E+02-1.65899E+03 0.00000E+00
 -1      6571 8.03913E+02-1.51035E+03 0.00000E+00
 -1      6572-8.03914E+02-1.51035E+03 0.00000E+00
 -1      6573 7.79595E+01-1.68402E+03 0.00000E+00
 -1      6574 4.56004E+02-1.54947E+03 0.00000E+00
 -1      6575 2.84629E+02-1.59844E+03 0.00000E+00
 -1      6576-3.00034E+02-1.70425E+03 0.00000E+00
 -1      6577-4.81189E+02-1.51870E+03 0.00000E+00
 -1      6578-7.81341E+02-1.51060E+03 0.00000E+00
 -1      6579 1.93833E+02-1.71434E+03 0.00000E+00
 -1      6580 8.09516E+02-1.51033E+03 0.00000E+00
 -1      6581-8.09516E+02-1.51033E+03 0.00000E+00
 -1      6582 4.81443E+02-1.51333E+03 0.00000E+00
 -1      6583 2.10313E+02-1.54379E+03 0.00000E+00
 -1      6584-2.61687E+02-1.54379E+03 0.00000E+00
 -1      6585 9.22915E+00-1.62831E+03 0.00000E+00
 -1      6586-1.38181E+01-1.71878E+03 0.00000E+00
 -1      6587 3.13733E+02-1.58938E+03 0.00000E+00
 -1      6588-1.58267E+02-1.58938E+03 0.00000E+00
 -1      6589 4.28267E+02-1.59458E+03 0.00000E+00
 -1      6590-8.20320E+02-1.51958E+03 0.00000E+00
 -1      6591-8.14988E+02-1.51938E+03 0.00000E+00
 -1      6592 8.20320E+02-1.51958E+03 0.00000E+00
 -1      6593 8.14988E+02-1.51938E+03 0.00000E+00
 -1      6594 7.81341E+02-1.51059E+03 0.00000E+00
 -1      6595 1.33918E+02-1.71980E+03 0.00000E+00
 -1      6596 4.52637E+02-1.67002E+03 0.00000E+00
 -1      6597-4.52637E+02-1.67002E+03 0.00000E+00
 -1      6598 1.41067E+01-1.72535E+03 0.00000E+00
 -1      6599 2.39213E+02-1.63545E+03 0.00000E+00
 -1      6600-4.01364E+02-1.57988E+03 0.00000E+00
 -1      6601-1.27704E+02-1.58088E+03 0.00000E+00
 -1      6602 3.44299E+02-1.58088E+03 0.00000E+00
 -1      6603-4.41669E+02-1.52989E+03 0.00000E+00
 -1      6604-4.76700E+02-1.51046E+03 0.00000E+00
 -1      6605 2.04004E+01-1.63159E+03 0.00000E+00
 -1      6606-4.56295E+02-1.54370E+03 0.00000E+00
 -1      6607-8.16956E+02-1.48285E+03 0.00000E+00
 -1      6608 4.76341E+02-1.51588E+03 0.00000E+00
 -1      6609 6.24910E+02-1.55586E+03 0.00000E+00
 -1      6610-6.24910E+02-1.55587E+03 0.00000E+00
 -1      6611-2.35046E+02-1.63745E+03 0.00000E+00
 -1      6612-2.65078E+01-1.64270E+03 0.00000E+00
 -1      6613 7.12426E+02-1.45401E+03 0.00000E+00
 -1      6614-7.12426E+02-1.45401E+03 0.00000E+00
 -1      6615 7.98307E+02-1.51040E+03 0.00000E+00
 -1      6616-7.98307E+02-1.51040E+03 0.00000E+00
 -1      6617-7.92696E+02-1.51046E+03 0.00000E+00
 -1      6618-3.60770E+02-1.65718E+03 0.00000E+00
 -1      6619 4.51602E+02-1.52426E+03 0.00000E+00
 -1      6620-4.56556E+02-1.52144E+03 0.00000E+00
 -1      6621 3.35039E+02-1.69810E+03 0.00000E+00
 -1      6622 4.41067E+02-1.67331E+03 0.00000E+00
 -1      6623-4.40771E+02-1.67337E+03 0.00000E+00
 -1      6624-1.64669E+02-1.67510E+03 0.00000E+00
 -1      6625 7.87032E+02-1.51052E+03 0.00000E+00
 -1      6626-7.87032E+02-1.51052E+03 0.00000E+00
 -1      6627 5.64814E+00-1.72146E+03 0.00000E+00
 -1      6628 4.24539E+02-1.67731E+03 0.00000E+00
 -1      6629 7.92696E+02-1.51044E+03 0.00000E+00
 -1      6630 1.67495E+02-1.58525E+03 0.00000E+00
 -1      6631-6.85049E+01-1.58525E+03 0.00000E+00
 -1      6632-3.04156E+02-1.58509E+03 0.00000E+00
 -1      6633 8.12312E+02-1.51498E+03 0.00000E+00
 -1      6634-8.12312E+02-1.51498E+03 0.00000E+00
 -1      6635-4.03049E+01-1.69198E+03 0.00000E+00
 -1      6636 2.61016E+01-1.70836E+03 0.00000E+00
 -1      6637-7.46740E+02-1.35501E+03 0.00000E+00
 -1      6638-6.19280E+02-1.61030E+03 0.00000E+00
 -1      6639 6.19280E+02-1.61030E+03 0.00000E+00
 -1      6640 7.71291E+02-1.46625E+03 0.00000E+00
 -1      6641-4.39691E+02-1.61596E+03 0.00000E+00
 -1      6642-7.38714E+02-1.42605E+03 0.00000E+00
 -1      6643 1.08310E+02-1.58085E+03 0.00000E+00
 -1      6644-2.06297E+02-1.52971E+03 0.00000E+00
 -1      6645 2.65706E+02-1.52971E+03 0.00000E+00
 -1      6646-1.14728E+02-1.61140E+03 0.00000E+00
 -1      6647 5.64774E+02-1.63032E+03 0.00000E+00
 -1      6648-5.64774E+02-1.63032E+03 0.00000E+00
 -1      6649-1.78988E+02-1.67492E+03 0.00000E+00
 -1      6650-3.74512E+01-1.61450E+03 0.00000E+00
 -1      6651-4.77497E+01-1.72370E+03 0.00000E+00
 -1      6652 1.24809E+02-1.65457E+03 0.00000E+00
 -1      6653-3.34209E+02-1.69772E+03 0.00000E+00
 -1      6654 7.52428E+02-1.47181E+03 0.00000E+00
 -1      6655-2.56329E+02-1.70621E+03 0.00000E+00
 -1      6656-7.35381E+02-1.43155E+03 0.00000E+00
 -1      6657 7.12278E+02-1.40223E+03 0.00000E+00
 -1      6658-7.12279E+02-1.40223E+03 0.00000E+00
 -1      6659 4.50508E+02-1.55250E+03 0.00000E+00
 -1      6660 3.50418E+02-1.60960E+03 0.00000E+00
 -1      6661-3.10580E+02-1.55037E+03 0.00000E+00
 -1      6662 1.61420E+02-1.55037E+03 0.00000E+00
 -1      6663-7.45796E+01-1.55037E+03 0.00000E+00
 -1      6664-7.54303E+02-1.34532E+03 0.00000E+00
 -1      6665-2.58934E+02-1.63110E+03 0.00000E+00
 -1      6666 4.95558E+02-1.63141E+03 0.00000E+00
 -1      6667 5.19104E+02-1.65054E+03 0.00000E+00
 -1      6668-5.19104E+02-1.65054E+03 0.00000E+00
 -1      6669-1.63258E+02-1.71689E+03 0.00000E+00
 -1      6670 4.27847E+02-1.58871E+03 0.00000E+00
 -1      6671 4.27933E+02-1.58255E+03 0.00000E+00
 -1      6672-6.65628E+02-1.59031E+03 0.00000E+00
 -1      6673 6.65628E+02-1.59031E+03 0.00000E+00
 -1      6674 7.44923E+02-1.35651E+03 0.00000E+00
 -1      6675 7.35235E+02-1.43170E+03 0.00000E+00
 -1      6676 8.16224E+02-1.48289E+03 0.00000E+00
 -1      6677-1.48457E+02-1.72016E+03 0.00000E+00
 -1      6678-1.99461E+01-1.71169E+03 0.00000E+00
 -1      6679-8.31704E+02-1.47934E+03 0.00000E+00
 -1      6680 8.31664E+02-1.47932E+03 0.00000E+00
 -1      6681 2.97883E+01-1.53015E+03 0.00000E+00
 -1      6682-1.03309E+02-1.68825E+03 0.00000E+00
 -1      6683 7.04841E+02-1.57500E+03 0.00000E+00
 -1      6684-7.04841E+02-1.57500E+03 0.00000E+00
 -1      6685 2.66248E+02-1.63456E+03 0.00000E+00
 -1      6686 2.04696E+02-1.63247E+03 0.00000E+00
 -1      6687 3.40233E+02-1.66824E+03 0.00000E+00
 -1      6688-4.58553E+02-1.62754E+03 0.00000E+00
 -1      6689-4.13952E+01-1.56872E+03 0.00000E+00
 -1      6690 1.94605E+02-1.56872E+03 0.00000E+00
 -1      6691-2.77395E+02-1.56872E+03 0.00000E+00
 -1      6692 2.78386E+02-1.65878E+03 0.00000E+00
 -1      6693 3.51877E+02-1.69454E+03 0.00000E+00
 -1      6694 1.00872E+02-1.66485E+03 0.00000E+00
 -1      6695 1.64378E+01-1.71998E+03 0.00000E+00
 -1      6696 3.49627E+02-1.65143E+03 0.00000E+00
 -1      6697-2.88676E+02-1.70616E+03 0.00000E+00
 -1      6698-2.71949E+02-1.70911E+03 0.00000E+00
 -1      6699-7.40318E+01-1.72336E+03 0.00000E+00
 -1      6700-2.73704E+02-1.64144E+03 0.00000E+00
 -1      6701 2.52081E+02-1.54341E+03 0.00000E+00
 -1      6702-3.59651E+02-1.68173E+03 0.00000E+00
 -1      6703 7.40959E+02-1.44196E+03 0.00000E+00
 -1      6704-7.41042E+02-1.44183E+03 0.00000E+00
 -1      6705 1.91258E+02-1.71955E+03 0.00000E+00
 -1      6706-2.20158E+02-1.71033E+03 0.00000E+00
 -1      6707 7.57700E+02-1.49177E+03 0.00000E+00
 -1      6708 4.37269E+01-1.67493E+03 0.00000E+00
 -1      6709 5.15651E+02-1.61891E+03 0.00000E+00
 -1      6710-2.48061E+01-1.62424E+03 0.00000E+00
 -1      6711-1.86974E+02-1.53591E+03 0.00000E+00
 -1      6712 2.85025E+02-1.53591E+03 0.00000E+00
 -1      6713-1.38225E+02-1.56407E+03 0.00000E+00
 -1      6714 3.33775E+02-1.56407E+03 0.00000E+00
 -1      6715-9.85359E+01-1.72759E+03 0.00000E+00
 -1      6716 7.79046E+01-1.72388E+03 0.00000E+00
 -1      6717 4.02485E+02-1.68361E+03 0.00000E+00
 -1      6718-6.57545E+02-1.59499E+03 0.00000E+00
 -1      6719 6.57545E+02-1.59499E+03 0.00000E+00
 -1      6720 8.07354E+02-1.48784E+03 0.00000E+00
 -1      6721-3.63573E+02-1.59242E+03 0.00000E+00
 -1      6722 3.05417E+02-1.67410E+03 0.00000E+00
 -1      6723-5.10409E+02-1.61686E+03 0.00000E+00
 -1      6724 4.90394E+01-1.53590E+03 0.00000E+00
 -1      6725-7.27595E+01-1.67763E+03 0.00000E+00
 -1      6726-3.69256E-01-1.50776E+03 0.00000E+00
 -1      6727-9.28241E+01-1.67099E+03 0.00000E+00
 -1      6728-2.67660E+02-1.63215E+03 0.00000E+00
 -1      6729-2.05262E+02-1.71343E+03 0.00000E+00
 -1      6730-4.74690E+02-1.63149E+03 0.00000E+00
 -1      6731 7.38061E+02-1.43695E+03 0.00000E+00
 -1      6732 9.77895E+01-1.56405E+03 0.00000E+00
 -1      6733 4.40539E+02-1.65162E+03 0.00000E+00
 -1      6734 4.71647E+02-1.51311E+03 0.00000E+00
 -1      6735 4.23193E+02-1.58615E+03 0.00000E+00
 -1      6736-3.38629E+02-1.66969E+03 0.00000E+00
 -1      6737-7.18412E+02-1.45135E+03 0.00000E+00
 -1      6738 3.68937E+02-1.68988E+03 0.00000E+00
 -1      6739-1.21523E+02-1.72052E+03 0.00000E+00
 -1      6740-4.71658E+02-1.51316E+03 0.00000E+00
 -1      6741 4.58411E+02-1.66825E+03 0.00000E+00
 -1      6742-4.58411E+02-1.66825E+03 0.00000E+00
 -1      6743 7.18415E+02-1.45136E+03 0.00000E+00
 -1      6744 4.60867E+01-1.72376E+03 0.00000E+00
 -1      6745-5.37414E+01-1.66206E+03 0.00000E+00
 -1      6746 4.51377E+02-1.62390E+03 0.00000E+00
 -1      6747-2.01314E+02-1.64730E+03 0.00000E+00
 -1      6748 3.90608E+02-1.58014E+03 0.00000E+00
 -1      6749 4.19607E+02-1.67330E+03 0.00000E+00
 -1      6750-2.49416E+02-1.52176E+03 0.00000E+00
 -1      6751 2.22584E+02-1.52176E+03 0.00000E+00
 -1      6752-4.03874E+02-1.67762E+03 0.00000E+00
 -1      6753-4.50913E+02-1.54670E+03 0.00000E+00
 -1      6754-4.66674E+02-1.51594E+03 0.00000E+00
 -1      6755 4.66700E+02-1.51589E+03 0.00000E+00
 -1      6756-4.09516E+02-1.67618E+03 0.00000E+00
 -1      6757 2.56371E+02-1.54713E+03 0.00000E+00
 -1      6758-2.15597E+02-1.54669E+03 0.00000E+00
 -1      6759 1.26505E+02-1.72558E+03 0.00000E+00
 -1      6760-1.51388E+01-1.51578E+03 0.00000E+00
 -1      6761 4.46422E+02-1.62155E+03 0.00000E+00
 -1      6762 1.49892E+02-1.72387E+03 0.00000E+00
 -1      6763 2.45187E+02-1.63457E+03 0.00000E+00
 -1      6764-2.34338E+02-1.54160E+03 0.00000E+00
 -1      6765 7.53454E+02-1.44277E+03 0.00000E+00
 -1      6766-7.53099E+02-1.44263E+03 0.00000E+00
 -1      6767-3.45678E+02-1.69592E+03 0.00000E+00
 -1      6768-4.61607E+02-1.51872E+03 0.00000E+00
 -1      6769-2.30226E+01-1.55282E+03 0.00000E+00
 -1      6770 4.61754E+02-1.51872E+03 0.00000E+00
 -1      6771-6.82755E+02-1.59054E+03 0.00000E+00
 -1      6772 6.82755E+02-1.59054E+03 0.00000E+00
 -1      6773-3.17365E+02-1.70172E+03 0.00000E+00
 -1      6774 1.17948E+01-1.53874E+03 0.00000E+00
 -1      6775-1.85771E+02-1.72078E+03 0.00000E+00
 -1      6776-1.36609E+02-1.67846E+03 0.00000E+00
 -1      6777-5.51113E+00-1.51058E+03 0.00000E+00
 -1      6778 4.39580E+02-1.63965E+03 0.00000E+00
 -1      6779 7.23487E+01-1.67793E+03 0.00000E+00
 -1      6780-4.85606E+02-1.54344E+03 0.00000E+00
 -1      6781-4.51872E+02-1.51902E+03 0.00000E+00
 -1      6782 1.82543E+02-1.71574E+03 0.00000E+00
 -1      6783-1.20868E+02-1.65072E+03 0.00000E+00
 -1      6784 4.56663E+02-1.52154E+03 0.00000E+00
 -1      6785-3.25998E+01-1.55020E+03 0.00000E+00
 -1      6786 4.35389E+02-1.55971E+03 0.00000E+00
 -1      6787-4.47028E+02-1.52179E+03 0.00000E+00
 -1      6788 4.39615E+01-1.66802E+03 0.00000E+00
 -1      6789-3.86333E+02-1.68166E+03 0.00000E+00
 -1      6790-1.97272E+02-1.65277E+03 0.00000E+00
 -1      6791 8.69488E+00-1.72574E+03 0.00000E+00
 -1      6792 7.46933E+02-1.44221E+03 0.00000E+00
 -1      6793-7.46916E+02-1.44216E+03 0.00000E+00
 -1      6794 7.78343E+02-1.48697E+03 0.00000E+00
 -1      6795-7.76639E+02-1.46891E+03 0.00000E+00
 -1      6796 5.33814E+01-1.67870E+03 0.00000E+00
 -1      6797 1.42154E+02-1.56749E+03 0.00000E+00
 -1      6798-9.38463E+01-1.56749E+03 0.00000E+00
 -1      6799-3.29846E+02-1.56749E+03 0.00000E+00
 -1      6800 4.46932E+02-1.52184E+03 0.00000E+00
 -1      6801 6.23756E+02-1.58505E+03 0.00000E+00
 -1      6802-6.23756E+02-1.58505E+03 0.00000E+00
 -1      6803 2.96324E+02-1.58782E+03 0.00000E+00
 -1      6804-4.40431E+02-1.65177E+03 0.00000E+00
 -1      6805-4.35945E+02-1.55857E+03 0.00000E+00
 -1      6806 2.90318E+02-1.59001E+03 0.00000E+00
 -1      6807 2.61648E+02-1.62174E+03 0.00000E+00
 -1      6808-6.44863E+02-1.60116E+03 0.00000E+00
 -1      6809 6.44863E+02-1.60116E+03 0.00000E+00
 -1      6810-4.31731E+02-1.56330E+03 0.00000E+00
 -1      6811 4.42175E+02-1.52467E+03 0.00000E+00
 -1      6812-2.56761E+01-1.63020E+03 0.00000E+00
 -1      6813-7.73193E+02-1.48720E+03 0.00000E+00
 -1      6814-7.62740E+02-1.46165E+03 0.00000E+00
 -1      6815-4.46708E+02-1.52711E+03 0.00000E+00
 -1      6816-7.55223E+02-1.45674E+03 0.00000E+00
 -1      6817 2.70631E+02-1.64967E+03 0.00000E+00
 -1      6818 3.19253E+01-1.64118E+03 0.00000E+00
 -1      6819-4.50318E+02-1.64515E+03 0.00000E+00
 -1      6820 4.57875E+02-1.62655E+03 0.00000E+00
 -1      6821-3.17302E+02-1.67174E+03 0.00000E+00
 -1      6822 7.62406E+02-1.34684E+03 0.00000E+00
 -1      6823-3.26175E+01-1.72681E+03 0.00000E+00
 -1      6824-4.98860E+01-1.67504E+03 0.00000E+00
 -1      6825-4.37029E+02-1.52751E+03 0.00000E+00
 -1      6826-3.56080E+02-1.61052E+03 0.00000E+00
 -1      6827 1.15920E+02-1.61052E+03 0.00000E+00
 -1      6828-7.21735E+02-1.45649E+03 0.00000E+00
 -1      6829 7.21735E+02-1.45649E+03 0.00000E+00
 -1      6830-3.91751E+02-1.58001E+03 0.00000E+00
 -1      6831 7.37381E+02-1.38654E+03 0.00000E+00
 -1      6832-7.37377E+02-1.38652E+03 0.00000E+00
 -1      6833-6.66555E+01-1.67793E+03 0.00000E+00
 -1      6834-2.36996E+02-1.51302E+03 0.00000E+00
 -1      6835 2.35004E+02-1.51302E+03 0.00000E+00
 -1      6836 4.41985E+02-1.52989E+03 0.00000E+00
 -1      6837-4.32311E+02-1.53033E+03 0.00000E+00
 -1      6838-4.50982E+02-1.63909E+03 0.00000E+00
 -1      6839 7.94083E-01-1.54146E+03 0.00000E+00
 -1      6840-3.00738E+02-1.54395E+03 0.00000E+00
 -1      6841 1.71262E+02-1.54395E+03 0.00000E+00
 -1      6842-6.47384E+01-1.54395E+03 0.00000E+00
 -1      6843 5.13553E+02-1.65251E+03 0.00000E+00
 -1      6844-5.13553E+02-1.65251E+03 0.00000E+00
 -1      6845-5.90240E+02-1.62660E+03 0.00000E+00
 -1      6846 5.90240E+02-1.62660E+03 0.00000E+00
 -1      6847 3.87541E+02-1.68109E+03 0.00000E+00
 -1      6848-1.92401E+02-1.66670E+03 0.00000E+00
 -1      6849 4.37090E+02-1.53272E+03 0.00000E+00
 -1      6850-2.67376E+01-1.72593E+03 0.00000E+00
 -1      6851-7.25997E+02-1.56531E+03 0.00000E+00
 -1      6852 7.25997E+02-1.56531E+03 0.00000E+00
 -1      6853 1.18260E+02-1.63256E+03 0.00000E+00
 -1      6854-7.62564E+02-1.34608E+03 0.00000E+00
 -1      6855 3.66385E+01-1.69621E+03 0.00000E+00
 -1      6856-4.32096E+02-1.53555E+03 0.00000E+00
 -1      6857 4.74815E+02-1.66452E+03 0.00000E+00
 -1      6858-4.74815E+02-1.66452E+03 0.00000E+00
 -1      6859 4.32166E+02-1.53554E+03 0.00000E+00
 -1      6860-5.00638E+01-1.54129E+03 0.00000E+00
 -1      6861-2.86020E+02-1.54130E+03 0.00000E+00
 -1      6862 1.85980E+02-1.54130E+03 0.00000E+00
 -1      6863-7.52531E+00-1.62891E+03 0.00000E+00
 -1      6864-6.72577E+02-1.59511E+03 0.00000E+00
 -1      6865 6.72577E+02-1.59511E+03 0.00000E+00
 -1      6866-4.41511E+02-1.63685E+03 0.00000E+00
 -1      6867-3.63041E+01-1.56168E+03 0.00000E+00
 -1      6868 1.99657E+02-1.56158E+03 0.00000E+00
 -1      6869-2.72343E+02-1.56158E+03 0.00000E+00
 -1      6870 1.88248E+02-1.67539E+03 0.00000E+00
 -1      6871 2.63153E+02-1.64172E+03 0.00000E+00
 -1      6872-2.11927E+02-1.52125E+03 0.00000E+00
 -1      6873 2.60073E+02-1.52125E+03 0.00000E+00
 -1      6874 4.86430E+02-1.54416E+03 0.00000E+00
 -1      6875 1.10947E+02-1.65325E+03 0.00000E+00
 -1      6876-4.27196E+02-1.53840E+03 0.00000E+00
 -1      6877-5.48865E+01-1.66819E+03 0.00000E+00
 -1      6878 4.27214E+02-1.53841E+03 0.00000E+00
 -1      6879-3.33835E+02-1.58312E+03 0.00000E+00
 -1      6880 1.38165E+02-1.58312E+03 0.00000E+00
 -1      6881-9.78346E+01-1.58312E+03 0.00000E+00
 -1      6882-4.55491E+02-1.63708E+03 0.00000E+00
 -1      6883 8.67430E+01-1.58620E+03 0.00000E+00
 -1      6884-1.24228E+02-1.66115E+03 0.00000E+00
 -1      6885 3.15900E+02-1.55326E+03 0.00000E+00
 -1      6886-1.56100E+02-1.55326E+03 0.00000E+00
 -1      6887 3.77380E+02-1.66775E+03 0.00000E+00
 -1      6888-4.21024E+02-1.57224E+03 0.00000E+00
 -1      6889 1.77003E+02-1.71644E+03 0.00000E+00
 -1      6890 4.97622E+02-1.65777E+03 0.00000E+00
 -1      6891-4.97622E+02-1.65777E+03 0.00000E+00
 -1      6892-3.54087E+02-1.62418E+03 0.00000E+00
 -1      6893 3.53972E+02-1.62469E+03 0.00000E+00
 -1      6894 1.18001E+02-1.62479E+03 0.00000E+00
 -1      6895-1.17881E+02-1.62391E+03 0.00000E+00
 -1      6896 3.54011E+02-1.63303E+03 0.00000E+00
 -1      6897-1.17991E+02-1.63314E+03 0.00000E+00
 -1      6898 4.39373E+02-1.61526E+03 0.00000E+00
 -1      6899 4.03407E+02-1.58635E+03 0.00000E+00
 -1      6900 7.22293E+01-1.72450E+03 0.00000E+00
 -1      6901-1.28231E+02-1.67179E+03 0.00000E+00
 -1      6902-4.22093E+02-1.54125E+03 0.00000E+00
 -1      6903-2.40165E+02-1.70889E+03 0.00000E+00
 -1      6904 2.16635E+02-1.62522E+03 0.00000E+00
 -1      6905 4.22097E+02-1.54126E+03 0.00000E+00
 -1      6906-4.12337E+02-1.54168E+03 0.00000E+00
 -1      6907 7.99177E+01-1.55324E+03 0.00000E+00
 -1      6908 4.12336E+02-1.54168E+03 0.00000E+00
 -1      6909 4.07945E+02-1.67636E+03 0.00000E+00
 -1      6910 4.79777E+02-1.63423E+03 0.00000E+00
 -1      6911 2.09149E+02-1.61972E+03 0.00000E+00
 -1      6912-6.18775E+02-1.56488E+03 0.00000E+00
 -1      6913 6.18775E+02-1.56488E+03 0.00000E+00
 -1      6914-2.62920E+02-1.61962E+03 0.00000E+00
 -1      6915-2.09364E+02-1.61931E+03 0.00000E+00
 -1      6916-1.45727E+02-1.67974E+03 0.00000E+00
 -1      6917-6.14254E+02-1.61268E+03 0.00000E+00
 -1      6918 6.14254E+02-1.61268E+03 0.00000E+00
 -1      6919-3.62384E+02-1.66369E+03 0.00000E+00
 -1      6920 1.40468E-02-1.62869E+03 0.00000E+00
 -1      6921 3.22711E+02-1.58624E+03 0.00000E+00
 -1      6922-1.49289E+02-1.58624E+03 0.00000E+00
 -1      6923 5.10300E+02-1.56338E+03 0.00000E+00
 -1      6924-5.10300E+02-1.56338E+03 0.00000E+00
 -1      6925-3.45235E+02-1.57055E+03 0.00000E+00
 -1      6926 1.26765E+02-1.57055E+03 0.00000E+00
 -1      6927-1.09235E+02-1.57055E+03 0.00000E+00
 -1      6928-4.79120E+02-1.63415E+03 0.00000E+00
 -1      6929-2.79635E+02-1.66054E+03 0.00000E+00
 -1      6930 1.22072E+02-1.72115E+03 0.00000E+00
 -1      6931-3.50273E+02-1.64708E+03 0.00000E+00
 -1      6932-2.71353E+02-1.52717E+03 0.00000E+00
 -1      6933 2.00647E+02-1.52717E+03 0.00000E+00
 -1      6934-2.94924E+02-1.58717E+03 0.00000E+00
 -1      6935 6.24437E+02-1.57481E+03 0.00000E+00
 -1      6936-6.24437E+02-1.57481E+03 0.00000E+00
 -1      6937-4.07560E+02-1.54442E+03 0.00000E+00
 -1      6938 5.59477E+02-1.63276E+03 0.00000E+00
 -1      6939-5.59477E+02-1.63276E+03 0.00000E+00
 -1      6940-1.07016E+02-1.68453E+03 0.00000E+00
 -1      6941-1.62806E+02-1.54956E+03 0.00000E+00
 -1      6942 3.09194E+02-1.54956E+03 0.00000E+00
 -1      6943 4.07560E+02-1.54442E+03 0.00000E+00
 -1      6944-4.00523E+02-1.67450E+03 0.00000E+00
 -1      6945 5.15678E+02-1.61272E+03 0.00000E+00
 -1      6946-1.23208E+02-1.60636E+03 0.00000E+00
 -1      6947-2.70118E+02-1.55712E+03 0.00000E+00
 -1      6948 2.01882E+02-1.55712E+03 0.00000E+00
 -1      6949 7.31819E+01-1.54954E+03 0.00000E+00
 -1      6950-3.08302E+01-1.53069E+03 0.00000E+00
 -1      6951 4.76118E+02-1.53715E+03 0.00000E+00
 -1      6952-1.93539E+02-1.65776E+03 0.00000E+00
 -1      6953-4.07102E+02-1.54971E+03 0.00000E+00
 -1      6954-5.24122E+01-1.73051E+03 0.00000E+00
 -1      6955 7.61973E+02-1.55444E+03 0.00000E+00
 -1      6956 7.89463E+02-1.53435E+03 0.00000E+00
 -1      6957 4.07108E+02-1.54971E+03 0.00000E+00
 -1      6958 5.21354E+02-1.58259E+03 0.00000E+00
 -1      6959-5.21354E+02-1.58259E+03 0.00000E+00
 -1      6960-2.56055E+02-1.63650E+03 0.00000E+00
 -1      6961 5.40486E+02-1.63862E+03 0.00000E+00
 -1      6962-5.40486E+02-1.63862E+03 0.00000E+00
 -1      6963-2.43658E+02-1.63516E+03 0.00000E+00
 -1      6964-1.26975E+02-1.57577E+03 0.00000E+00
 -1      6965 3.45025E+02-1.57577E+03 0.00000E+00
 -1      6966-7.89460E+02-1.53435E+03 0.00000E+00
 -1      6967-6.94345E+02-1.58014E+03 0.00000E+00
 -1      6968 6.94345E+02-1.58014E+03 0.00000E+00
 -1      6969-3.54286E+02-1.68862E+03 0.00000E+00
 -1      6970 2.85786E+02-1.66836E+03 0.00000E+00
 -1      6971 3.97484E+02-1.55017E+03 0.00000E+00
 -1      6972 4.81344E+01-1.59460E+03 0.00000E+00
 -1      6973-4.78695E+01-1.59458E+03 0.00000E+00
 -1      6974-2.84149E+02-1.59474E+03 0.00000E+00
 -1      6975 1.88108E+02-1.59458E+03 0.00000E+00
 -1      6976-1.88284E+02-1.59450E+03 0.00000E+00
 -1      6977 4.14791E+02-1.67013E+03 0.00000E+00
 -1      6978-8.83667E+01-1.68213E+03 0.00000E+00
 -1      6979 7.54698E+02-1.47692E+03 0.00000E+00
 -1      6980-3.97476E+02-1.55017E+03 0.00000E+00
 -1      6981 1.08931E+02-1.57565E+03 0.00000E+00
 -1      6982-3.15242E+02-1.55192E+03 0.00000E+00
 -1      6983 1.56758E+02-1.55192E+03 0.00000E+00
 -1      6984-7.92423E+01-1.55192E+03 0.00000E+00
 -1      6985 4.00907E+01-1.73046E+03 0.00000E+00
 -1      6986-6.40422E+02-1.59396E+03 0.00000E+00
 -1      6987 6.40422E+02-1.59396E+03 0.00000E+00
 -1      6988 2.66825E+02-1.52492E+03 0.00000E+00
 -1      6989-2.05176E+02-1.52492E+03 0.00000E+00
 -1      6990 4.65637E+02-1.54281E+03 0.00000E+00
 -1      6991 4.98243E+02-1.61873E+03 0.00000E+00
 -1      6992 2.81707E+02-1.58757E+03 0.00000E+00
 -1      6993-1.71586E+02-1.54361E+03 0.00000E+00
 -1      6994 3.00414E+02-1.54361E+03 0.00000E+00
 -1      6995-4.30263E+02-1.65772E+03 0.00000E+00
 -1      6996 4.30519E+02-1.65734E+03 0.00000E+00
 -1      6997 3.59631E+02-1.63976E+03 0.00000E+00
 -1      6998 7.37133E+02-1.41724E+03 0.00000E+00
 -1      6999-7.37133E+02-1.41724E+03 0.00000E+00
 -1      7000 1.79747E+02-1.67094E+03 0.00000E+00
 -1      7001 7.35680E+02-1.40051E+03 0.00000E+00
 -1      7002-7.35680E+02-1.40051E+03 0.00000E+00
 -1      7003-8.05378E+01-1.72919E+03 0.00000E+00
 -1      7004 3.92754E+02-1.55291E+03 0.00000E+00
 -1      7005-1.90059E+02-1.58601E+03 0.00000E+00
 -1      7006-4.97458E+02-1.62396E+03 0.00000E+00
 -1      7007 2.90169E+02-1.67317E+03 0.00000E+00
 -1      7008-3.75805E+02-1.68484E+03 0.00000E+00
 -1      7009-3.92844E+02-1.55295E+03 0.00000E+00
 -1      7010 6.44206E+01-1.54360E+03 0.00000E+00
 -1      7011 7.63144E+02-1.33847E+03 0.00000E+00
 -1      7012-7.61926E+02-1.55456E+03 0.00000E+00
 -1      7013 3.92259E+02-1.55817E+03 0.00000E+00
 -1      7014 3.29007E+02-1.67116E+03 0.00000E+00
 -1      7015-6.33312E+02-1.58986E+03 0.00000E+00
 -1      7016 6.33312E+02-1.58986E+03 0.00000E+00
 -1      7017 2.57937E+01-1.52555E+03 0.00000E+00
 -1      7018-7.16656E+02-1.49658E+03 0.00000E+00
 -1      7019 7.16655E+02-1.49658E+03 0.00000E+00
 -1      7020 1.92468E+02-1.66319E+03 0.00000E+00
 -1      7021-3.92543E+02-1.55811E+03 0.00000E+00
 -1      7022 3.82838E+02-1.55812E+03 0.00000E+00
 -1      7023-2.18900E+02-1.62635E+03 0.00000E+00
 -1      7024-7.63377E+02-1.33840E+03 0.00000E+00
 -1      7025-9.89960E+01-1.56905E+03 0.00000E+00
 -1      7026 1.37004E+02-1.56905E+03 0.00000E+00
 -1      7027-3.34996E+02-1.56905E+03 0.00000E+00
 -1      7028 1.74413E+02-1.72168E+03 0.00000E+00
 -1      7029-1.06846E+02-1.72282E+03 0.00000E+00
 -1      7030 8.17531E+02-1.47719E+03 0.00000E+00
 -1      7031-3.87640E+02-1.56097E+03 0.00000E+00
 -1      7032 1.16729E+01-1.51968E+03 0.00000E+00
 -1      7033 9.55097E+01-1.66659E+03 0.00000E+00
 -1      7034-3.42397E+02-1.66516E+03 0.00000E+00
 -1      7035 4.92449E+02-1.54695E+03 0.00000E+00
 -1      7036 7.16167E+01-1.59028E+03 0.00000E+00
 -1      7037 4.47587E+01-1.68000E+03 0.00000E+00
 -1      7038-7.51876E+02-1.47234E+03 0.00000E+00
 -1      7039 8.36979E+02-1.47781E+03 0.00000E+00
 -1      7040-2.20597E+02-1.51533E+03 0.00000E+00
 -1      7041 2.51403E+02-1.51533E+03 0.00000E+00
 -1      7042-8.36979E+02-1.47781E+03 0.00000E+00
 -1      7043-4.90462E+02-1.62882E+03 0.00000E+00
 -1      7044-7.16430E+02-1.41708E+03 0.00000E+00
 -1      7045 7.16429E+02-1.41708E+03 0.00000E+00
 -1      7046 4.34462E+01-1.57670E+03 0.00000E+00
 -1      7047 1.91508E+01-1.51813E+03 0.00000E+00
 -1      7048-2.89809E+02-1.67273E+03 0.00000E+00
 -1      7049-2.24108E+02-1.53835E+03 0.00000E+00
 -1      7050 1.01160E+02-1.59221E+03 0.00000E+00
 -1      7051-1.49800E+02-1.72454E+03 0.00000E+00
 -1      7052 4.20473E+02-1.56843E+03 0.00000E+00
 -1      7053-5.10450E+02-1.60760E+03 0.00000E+00
 -1      7054-3.82397E+02-1.56389E+03 0.00000E+00
 -1      7055-3.35977E+02-1.69360E+03 0.00000E+00
 -1      7056 4.41555E+02-1.55151E+03 0.00000E+00
 -1      7057-6.37338E+01-1.67245E+03 0.00000E+00
 -1      7058 4.36238E+02-1.67550E+03 0.00000E+00
 -1      7059-4.36169E+02-1.67571E+03 0.00000E+00
 -1      7060-3.73000E+02-1.56356E+03 0.00000E+00
 -1      7061 3.07619E+02-1.59032E+03 0.00000E+00
 -1      7062-1.64381E+02-1.59032E+03 0.00000E+00
 -1      7063 3.77999E+02-1.56099E+03 0.00000E+00
 -1      7064 4.84336E+02-1.63186E+03 0.00000E+00
 -1      7065-9.13761E+01-1.68703E+03 0.00000E+00
 -1      7066 2.79433E+02-1.57672E+03 0.00000E+00
 -1      7067-7.91782E+01-1.68464E+03 0.00000E+00
 -1      7068-2.90835E+02-1.70162E+03 0.00000E+00
 -1      7069 4.33182E+02-1.60290E+03 0.00000E+00
 -1      7070-4.33091E+02-1.60282E+03 0.00000E+00
 -1      7071 3.77631E+02-1.56651E+03 0.00000E+00
 -1      7072 7.16699E+02-1.48565E+03 0.00000E+00
 -1      7073 3.37141E+02-1.59227E+03 0.00000E+00
 -1      7074-1.34859E+02-1.59227E+03 0.00000E+00
 -1      7075-3.89016E+01-1.65490E+03 0.00000E+00
 -1      7076 2.71897E+02-1.61161E+03 0.00000E+00
 -1      7077 5.11689E+02-1.60460E+03 0.00000E+00
 -1      7078-1.68003E+02-1.72322E+03 0.00000E+00
 -1      7079-7.78776E+02-1.48767E+03 0.00000E+00
 -1      7080 3.72916E+02-1.56928E+03 0.00000E+00
 -1      7081 7.07204E+02-1.51225E+03 0.00000E+00
 -1      7082-7.16809E+02-1.44603E+03 0.00000E+00
 -1      7083-3.68047E+02-1.56634E+03 0.00000E+00
 -1      7084 7.16809E+02-1.44604E+03 0.00000E+00
 -1      7085-7.07205E+02-1.51226E+03 0.00000E+00
 -1      7086-2.98982E+00-1.72562E+03 0.00000E+00
 -1      7087-8.67382E+01-1.68643E+03 0.00000E+00
 -1      7088 3.42869E+02-1.66406E+03 0.00000E+00
 -1      7089 2.36870E+02-1.54120E+03 0.00000E+00
 -1      7090 1.16031E+02-1.72761E+03 0.00000E+00
 -1      7091 4.30650E+02-1.56296E+03 0.00000E+00
 -1      7092-7.16704E+02-1.48576E+03 0.00000E+00
 -1      7093 1.81152E+02-1.59114E+03 0.00000E+00
 -1      7094-5.48477E+01-1.59114E+03 0.00000E+00
 -1      7095 3.68042E+02-1.57200E+03 0.00000E+00
 -1      7096 5.14956E+02-1.57670E+03 0.00000E+00
 -1      7097-5.14956E+02-1.57670E+03 0.00000E+00
 -1      7098-7.32126E+02-1.36225E+03 0.00000E+00
 -1      7099-2.61819E+02-1.70617E+03 0.00000E+00
 -1      7100 8.33551E+01-1.68442E+03 0.00000E+00
 -1      7101-3.67523E+02-1.57232E+03 0.00000E+00
 -1      7102 4.22963E+02-1.58139E+03 0.00000E+00
 -1      7103 1.64932E+02-1.71849E+03 0.00000E+00
 -1      7104-1.27566E+02-1.72672E+03 0.00000E+00
 -1      7105 3.96735E+02-1.67800E+03 0.00000E+00
 -1      7106-3.07007E+02-1.69838E+03 0.00000E+00
 -1      7107 7.16589E+02-1.37731E+03 0.00000E+00
 -1      7108 2.65691E+02-1.62904E+03 0.00000E+00
 -1      7109 3.18666E+02-1.69657E+03 0.00000E+00
 -1      7110-7.22291E+02-1.36758E+03 0.00000E+00
 -1      7111 2.12892E+01-1.71002E+03 0.00000E+00
 -1      7112 3.09088E+00-1.72595E+03 0.00000E+00
 -1      7113 3.00769E+02-1.69929E+03 0.00000E+00
 -1      7114-4.65244E+02-1.54275E+03 0.00000E+00
 -1      7115 7.22305E+02-1.36758E+03 0.00000E+00
 -1      7116 4.49076E+02-1.66687E+03 0.00000E+00
 -1      7117-4.49076E+02-1.66687E+03 0.00000E+00
 -1      7118-1.26113E+02-1.65181E+03 0.00000E+00
 -1      7119-1.11954E+02-1.67832E+03 0.00000E+00
 -1      7120-6.72863E+02-1.53216E+03 0.00000E+00
 -1      7121 3.06541E+02-1.69838E+03 0.00000E+00
 -1      7122 3.67682E+02-1.57827E+03 0.00000E+00
 -1      7123-3.63053E+02-1.57506E+03 0.00000E+00
 -1      7124 6.72857E+02-1.53217E+03 0.00000E+00
 -1      7125-2.87015E+02-1.59124E+03 0.00000E+00
 -1      7126 1.97846E+01-1.54638E+03 0.00000E+00
 -1      7127 2.95051E+02-1.70028E+03 0.00000E+00
 -1      7128 6.48040E+02-1.54653E+03 0.00000E+00
 -1      7129-6.48041E+02-1.54653E+03 0.00000E+00
 -1      7130 6.38171E+02-1.55203E+03 0.00000E+00
 -1      7131-1.57702E+02-1.72354E+03 0.00000E+00
 -1      7132 2.89508E+02-1.70137E+03 0.00000E+00
 -1      7133 3.10592E+02-1.70248E+03 0.00000E+00
 -1      7134 1.78655E+02-1.58731E+03 0.00000E+00
 -1      7135-5.73448E+01-1.58731E+03 0.00000E+00
 -1      7136-6.38193E+02-1.55202E+03 0.00000E+00
 -1      7137 4.34614E+02-1.55520E+03 0.00000E+00
 -1      7138-2.10524E+02-1.71359E+03 0.00000E+00
 -1      7139 6.65498E+01-1.72511E+03 0.00000E+00
 -1      7140 2.76634E+02-1.70861E+03 0.00000E+00
 -1      7141-7.82914E+02-1.54442E+03 0.00000E+00
 -1      7142 7.82914E+02-1.54442E+03 0.00000E+00
 -1      7143-1.91945E+02-1.53793E+03 0.00000E+00
 -1      7144 2.80055E+02-1.53793E+03 0.00000E+00
 -1      7145 6.69752E+01-1.58600E+03 0.00000E+00
 -1      7146 3.67671E+02-1.58386E+03 0.00000E+00
 -1      7147-7.16844E+02-1.42771E+03 0.00000E+00
 -1      7148 7.16844E+02-1.42771E+03 0.00000E+00
 -1      7149-7.12230E+02-1.40999E+03 0.00000E+00
 -1      7150 7.12230E+02-1.40999E+03 0.00000E+00
 -1      7151-5.02618E+01-1.59080E+03 0.00000E+00
 -1      7152 1.85738E+02-1.59080E+03 0.00000E+00
 -1      7153 2.84216E+02-1.70276E+03 0.00000E+00
 -1      7154 7.83928E+02-1.48764E+03 0.00000E+00
 -1      7155-3.53091E+01-1.60887E+03 0.00000E+00
 -1      7156 3.52598E+01-1.64907E+03 0.00000E+00
 -1      7157 8.45335E+02-1.47239E+03 0.00000E+00
 -1      7158-8.45335E+02-1.47239E+03 0.00000E+00
 -1      7159 7.57534E+02-1.34726E+03 0.00000E+00
 -1      7160-5.06118E+02-1.62030E+03 0.00000E+00
 -1      7161-3.62996E+02-1.58068E+03 0.00000E+00
 -1      7162-3.86246E+02-1.58222E+03 0.00000E+00
 -1      7163-5.15443E+02-1.59081E+03 0.00000E+00
 -1      7164 5.15470E+02-1.59081E+03 0.00000E+00
 -1      7165-1.44046E+02-1.56544E+03 0.00000E+00
 -1      7166 3.27954E+02-1.56544E+03 0.00000E+00
 -1      7167-3.59192E+02-1.60633E+03 0.00000E+00
 -1      7168 1.12808E+02-1.60633E+03 0.00000E+00
 -1      7169-7.16529E+02-1.37729E+03 0.00000E+00
 -1      7170 4.40957E+01-1.53791E+03 0.00000E+00
 -1      7171 5.01434E+02-1.54560E+03 0.00000E+00
 -1      7172-5.01342E+02-1.54535E+03 0.00000E+00
 -1      7173 3.24196E+02-1.69584E+03 0.00000E+00
 -1      7174-3.54297E+02-1.63257E+03 0.00000E+00
 -1      7175 6.15466E+01-1.58741E+03 0.00000E+00
 -1      7176 5.85437E+02-1.62385E+03 0.00000E+00
 -1      7177-5.85437E+02-1.62385E+03 0.00000E+00
 -1      7178-4.60474E+02-1.63362E+03 0.00000E+00
 -1      7179-7.11458E+02-1.46553E+03 0.00000E+00
 -1      7180 7.11458E+02-1.46553E+03 0.00000E+00
 -1      7181 3.02943E+02-1.58602E+03 0.00000E+00
 -1      7182-1.69057E+02-1.58602E+03 0.00000E+00
 -1      7183 6.82291E+02-1.52679E+03 0.00000E+00
 -1      7184-6.82287E+02-1.52679E+03 0.00000E+00
 -1      7185-4.36787E+02-1.61163E+03 0.00000E+00
 -1      7186-3.96739E+01-1.60291E+03 0.00000E+00
 -1      7187 4.36939E+02-1.61129E+03 0.00000E+00
 -1      7188 1.96836E+02-1.60313E+03 0.00000E+00
 -1      7189-2.75164E+02-1.60313E+03 0.00000E+00
 -1      7190 3.53020E+01-1.61109E+03 0.00000E+00
 -1      7191 3.95032E+01-1.60299E+03 0.00000E+00
 -1      7192-3.49988E+02-1.60044E+03 0.00000E+00
 -1      7193 1.21982E+02-1.60044E+03 0.00000E+00
 -1      7194-3.73752E+02-1.66638E+03 0.00000E+00
 -1      7195 8.08164E+02-1.49261E+03 0.00000E+00
 -1      7196-1.15145E+02-1.64489E+03 0.00000E+00
 -1      7197-3.63025E+02-1.58650E+03 0.00000E+00
 -1      7198-8.08024E+02-1.49238E+03 0.00000E+00
 -1      7199-1.74386E+02-1.58743E+03 0.00000E+00
 -1      7200 2.15432E+02-1.54145E+03 0.00000E+00
 -1      7201-2.56568E+02-1.54145E+03 0.00000E+00
 -1      7202-1.94256E+02-1.60025E+03 0.00000E+00
 -1      7203 9.19738E+01-1.56540E+03 0.00000E+00
 -1      7204 7.31932E+02-1.36237E+03 0.00000E+00
 -1      7205-1.87274E+01-1.52354E+03 0.00000E+00
 -1      7206 2.71206E+02-1.70941E+03 0.00000E+00
 -1      7207 3.27164E+02-1.69974E+03 0.00000E+00
 -1      7208 3.35756E+02-1.69354E+03 0.00000E+00
 -1      7209 7.61544E+02-1.45881E+03 0.00000E+00
 -1      7210 7.31211E+02-1.40760E+03 0.00000E+00
 -1      7211-7.31211E+02-1.40760E+03 0.00000E+00
 -1      7212-1.50523E+02-1.68712E+03 0.00000E+00
 -1      7213 7.72634E+02-1.54374E+03 0.00000E+00
 -1      7214-7.72644E+02-1.54374E+03 0.00000E+00
 -1      7215-3.71684E+02-1.59097E+03 0.00000E+00
 -1      7216-2.77349E+02-1.70927E+03 0.00000E+00
 -1      7217 4.70723E+02-1.62894E+03 0.00000E+00
 -1      7218-1.45526E+02-1.67532E+03 0.00000E+00
 -1      7219-4.20265E+01-1.73029E+03 0.00000E+00
 -1      7220-2.03520E+02-1.63854E+03 0.00000E+00
 -1      7221 7.47597E+02-1.35294E+03 0.00000E+00
 -1      7222-4.70370E+02-1.62915E+03 0.00000E+00
 -1      7223 7.76124E+02-1.46844E+03 0.00000E+00
 -1      7224-7.55007E+02-1.46529E+03 0.00000E+00
 -1      7225-3.66342E+01-1.61885E+03 0.00000E+00
 -1      7226 7.11294E+02-1.50510E+03 0.00000E+00
 -1      7227-7.11294E+02-1.50510E+03 0.00000E+00
 -1      7228-3.42981E+01-1.73110E+03 0.00000E+00
 -1      7229-1.91114E+02-1.72106E+03 0.00000E+00
 -1      7230-4.26849E+02-1.56507E+03 0.00000E+00
 -1      7231 1.50219E+02-1.67185E+03 0.00000E+00
 -1      7232 3.53011E+02-1.61333E+03 0.00000E+00
 -1      7233 2.14372E+02-1.63538E+03 0.00000E+00
 -1      7234-4.16634E+02-1.58957E+03 0.00000E+00
 -1      7235-2.25667E+02-1.71679E+03 0.00000E+00
 -1      7236-6.49253E+02-1.59890E+03 0.00000E+00
 -1      7237 6.49253E+02-1.59890E+03 0.00000E+00
 -1      7238-2.56488E+02-1.51787E+03 0.00000E+00
 -1      7239 2.15512E+02-1.51787E+03 0.00000E+00
 -1      7240-4.27650E+02-1.67203E+03 0.00000E+00
 -1      7241-3.46879E+02-1.65182E+03 0.00000E+00
 -1      7242-7.51758E+02-1.55997E+03 0.00000E+00
 -1      7243 7.51758E+02-1.55997E+03 0.00000E+00
 -1      7244 1.47661E+02-1.66794E+03 0.00000E+00
 -1      7245-7.72746E+02-1.34590E+03 0.00000E+00
 -1      7246 7.72800E+02-1.34590E+03 0.00000E+00
 -1      7247 2.56310E+02-1.62293E+03 0.00000E+00
 -1      7248-2.05284E+02-1.62738E+03 0.00000E+00
 -1      7249-3.11467E+02-1.67180E+03 0.00000E+00
 -1      7250 2.81921E+02-1.60191E+03 0.00000E+00
 -1      7251 7.65621E+02-1.49216E+03 0.00000E+00
 -1      7252-1.92615E+02-1.57637E+03 0.00000E+00
 -1      7253 8.88310E+01-1.66911E+03 0.00000E+00
 -1      7254 1.21970E+02-1.64577E+03 0.00000E+00
 -1      7255 2.67549E+02-1.70571E+03 0.00000E+00
 -1      7256-2.97564E+02-1.67372E+03 0.00000E+00
 -1      7257 1.59239E+02-1.71961E+03 0.00000E+00
 -1      7258 5.10168E+02-1.64949E+03 0.00000E+00
 -1      7259-5.10168E+02-1.64949E+03 0.00000E+00
 -1      7260-6.09620E+02-1.61474E+03 0.00000E+00
 -1      7261 6.09620E+02-1.61474E+03 0.00000E+00
 -1      7262-4.85898E+02-1.63786E+03 0.00000E+00
 -1      7263 5.54572E+02-1.63494E+03 0.00000E+00
 -1      7264-5.54572E+02-1.63494E+03 0.00000E+00
 -1      7265-6.63793E+02-1.53781E+03 0.00000E+00
 -1      7266 6.63792E+02-1.53781E+03 0.00000E+00
 -1      7267 8.40988E+02-1.46425E+03 0.00000E+00
 -1      7268 5.01977E+02-1.55332E+03 0.00000E+00
 -1      7269-5.01953E+02-1.55329E+03 0.00000E+00
 -1      7270 3.41299E+02-1.69273E+03 0.00000E+00
 -1      7271-3.40324E+02-1.59454E+03 0.00000E+00
 -1      7272 1.31674E+02-1.59454E+03 0.00000E+00
 -1      7273-1.04172E+02-1.59474E+03 0.00000E+00
 -1      7274-7.41459E+02-1.55914E+03 0.00000E+00
 -1      7275 7.41459E+02-1.55914E+03 0.00000E+00
 -1      7276 3.48177E+01-1.73134E+03 0.00000E+00
 -1      7277 6.40473E+02-1.60870E+03 0.00000E+00
 -1      7278-6.40473E+02-1.60870E+03 0.00000E+00
 -1      7279-8.69080E+00-1.72665E+03 0.00000E+00
 -1      7280 2.28635E+02-1.54323E+03 0.00000E+00
 -1      7281-2.43360E+02-1.54327E+03 0.00000E+00
 -1      7282-7.17074E+02-1.47559E+03 0.00000E+00
 -1      7283 7.17074E+02-1.47559E+03 0.00000E+00
 -1      7284-3.53171E+01-1.53223E+03 0.00000E+00
 -1      7285-3.49990E+02-1.63870E+03 0.00000E+00
 -1      7286 4.62049E+02-1.63307E+03 0.00000E+00
 -1      7287-8.18538E+02-1.47852E+03 0.00000E+00
 -1      7288-7.11308E+02-1.43697E+03 0.00000E+00
 -1      7289-3.39818E+02-1.58336E+03 0.00000E+00
 -1      7290 1.32181E+02-1.58336E+03 0.00000E+00
 -1      7291-1.03818E+02-1.58336E+03 0.00000E+00
 -1      7292 3.46903E+02-1.60510E+03 0.00000E+00
 -1      7293 8.18430E+01-1.58644E+03 0.00000E+00
 -1      7294-6.62348E+02-1.59408E+03 0.00000E+00
 -1      7295 6.62348E+02-1.59408E+03 0.00000E+00
 -1      7296-1.72781E+02-1.67525E+03 0.00000E+00
 -1      7297-5.11147E+02-1.60277E+03 0.00000E+00
 -1      7298 7.11302E+02-1.43697E+03 0.00000E+00
 -1      7299-4.96726E+02-1.54323E+03 0.00000E+00
 -1      7300-2.63257E+02-1.63305E+03 0.00000E+00
 -1      7301-4.26500E+01-1.65775E+03 0.00000E+00
 -1      7302 2.68141E+02-1.61432E+03 0.00000E+00
 -1      7303-1.05741E+02-1.66291E+03 0.00000E+00
 -1      7304 8.22923E+02-1.52311E+03 0.00000E+00
 -1      7305-8.22923E+02-1.52311E+03 0.00000E+00
 -1      7306-5.89290E+01-1.72498E+03 0.00000E+00
 -1      7307-8.03641E+02-1.52831E+03 0.00000E+00
 -1      7308 8.03641E+02-1.52831E+03 0.00000E+00
 -1      7309 4.10081E+02-1.58027E+03 0.00000E+00
 -1      7310 2.62146E+02-1.70661E+03 0.00000E+00
 -1      7311 2.85531E+02-1.59245E+03 0.00000E+00
 -1      7312-8.40988E+02-1.46439E+03 0.00000E+00
 -1      7313 1.39534E+01-1.62554E+03 0.00000E+00
 -1      7314 8.60602E+01-1.67702E+03 0.00000E+00
 -1      7315-7.42419E+02-1.35565E+03 0.00000E+00
 -1      7316 4.40218E+01-1.58687E+03 0.00000E+00
 -1      7317 2.05380E+02-1.64282E+03 0.00000E+00
 -1      7318-7.38447E+01-1.58544E+03 0.00000E+00
 -1      7319 1.62155E+02-1.58544E+03 0.00000E+00
 -1      7320-3.10012E+02-1.58543E+03 0.00000E+00
 -1      7321 1.42595E+02-1.66919E+03 0.00000E+00
 -1      7322 4.28258E+02-1.60040E+03 0.00000E+00
 -1      7323 3.17729E+02-1.58651E+03 0.00000E+00
 -1      7324-1.54271E+02-1.58651E+03 0.00000E+00
 -1      7325-7.80084E+02-1.46537E+03 0.00000E+00
 -1      7326-3.29705E+02-1.66883E+03 0.00000E+00
 -1      7327-1.81184E+02-1.66508E+03 0.00000E+00
 -1      7328 6.98281E+02-1.51788E+03 0.00000E+00
 -1      7329-6.98281E+02-1.51788E+03 0.00000E+00
 -1      7330 4.69925E+02-1.66678E+03 0.00000E+00
 -1      7331-4.69926E+02-1.66678E+03 0.00000E+00
 -1      7332-3.28916E+02-1.58607E+03 0.00000E+00
 -1      7333 1.43084E+02-1.58607E+03 0.00000E+00
 -1      7334-9.29162E+01-1.58607E+03 0.00000E+00
 -1      7335 3.73858E+01-1.56293E+03 0.00000E+00
 -1      7336-5.81883E+00-1.51504E+03 0.00000E+00
 -1      7337 8.12664E+02-1.48659E+03 0.00000E+00
 -1      7338-2.91047E+02-1.54331E+03 0.00000E+00
 -1      7339 1.80953E+02-1.54331E+03 0.00000E+00
 -1      7340 3.85729E+02-1.58206E+03 0.00000E+00
 -1      7341-5.50469E+01-1.54331E+03 0.00000E+00
 -1      7342-4.89322E+02-1.65527E+03 0.00000E+00
 -1      7343 4.89321E+02-1.65527E+03 0.00000E+00
 -1      7344-1.57352E+02-1.68248E+03 0.00000E+00
 -1      7345-7.18471E+02-1.56906E+03 0.00000E+00
 -1      7346 7.18471E+02-1.56906E+03 0.00000E+00
 -1      7347-4.20188E+02-1.56821E+03 0.00000E+00
 -1      7348-1.27189E+02-1.65669E+03 0.00000E+00
 -1      7349 8.21650E+02-1.48050E+03 0.00000E+00
 -1      7350-2.41795E+02-1.51494E+03 0.00000E+00
 -1      7351 2.30205E+02-1.51494E+03 0.00000E+00
 -1      7352-4.35088E+02-1.55397E+03 0.00000E+00
 -1      7353-8.12150E+02-1.52289E+03 0.00000E+00
 -1      7354 8.12150E+02-1.52289E+03 0.00000E+00
 -1      7355-2.45079E+02-1.70917E+03 0.00000E+00
 -1      7356 7.66980E+02-1.33540E+03 0.00000E+00
 -1      7357-7.11326E+02-1.38604E+03 0.00000E+00
 -1      7358 7.11328E+02-1.38604E+03 0.00000E+00
 -1      7359-7.66980E+02-1.33540E+03 0.00000E+00
 -1      7360 2.73380E+02-1.56303E+03 0.00000E+00
 -1      7361-1.98620E+02-1.56302E+03 0.00000E+00
 -1      7362 1.10288E+02-1.72214E+03 0.00000E+00
 -1      7363-9.10130E+00-1.53801E+03 0.00000E+00
 -1      7364 2.77832E+02-1.58922E+03 0.00000E+00
 -1      7365 2.56429E+02-1.70749E+03 0.00000E+00
 -1      7366-2.55502E+02-1.62166E+03 0.00000E+00
 -1      7367 3.44303E+02-1.69645E+03 0.00000E+00
 -1      7368-2.00496E+02-1.60907E+03 0.00000E+00
 -1      7369 2.00151E+02-1.60900E+03 0.00000E+00
 -1      7370 3.85762E+01-1.65234E+03 0.00000E+00
 -1      7371-2.71849E+02-1.60900E+03 0.00000E+00
 -1      7372 5.00947E+02-1.62304E+03 0.00000E+00
 -1      7373 1.90105E+02-1.65530E+03 0.00000E+00
 -1      7374-3.22170E+02-1.69533E+03 0.00000E+00
 -1      7375-3.78510E+02-1.59416E+03 0.00000E+00
 -1      7376-1.42363E+02-1.59402E+03 0.00000E+00
 -1      7377 3.29637E+02-1.59402E+03 0.00000E+00
 -1      7378 9.36375E+01-1.59401E+03 0.00000E+00
 -1      7379 5.01196E+02-1.55814E+03 0.00000E+00
 -1      7380-5.01197E+02-1.55813E+03 0.00000E+00
 -1      7381 7.64413E+02-1.35131E+03 0.00000E+00
 -1      7382-3.41047E+02-1.66036E+03 0.00000E+00
 -1      7383-7.09921E+02-1.57383E+03 0.00000E+00
 -1      7384 7.09921E+02-1.57383E+03 0.00000E+00
 -1      7385-1.76810E+01-1.55060E+03 0.00000E+00
 -1      7386 3.51984E+02-1.69007E+03 0.00000E+00
 -1      7387-8.84800E+01-1.72857E+03 0.00000E+00
 -1      7388-7.54122E+02-1.47722E+03 0.00000E+00
 -1      7389 5.01043E+01-1.59124E+03 0.00000E+00
 -1      7390-1.86151E+02-1.59080E+03 0.00000E+00
 -1      7391-4.34728E+02-1.56822E+03 0.00000E+00
 -1      7392-7.16927E+02-1.39594E+03 0.00000E+00
 -1      7393 7.16927E+02-1.39594E+03 0.00000E+00
 -1      7394 4.02135E+02-1.59015E+03 0.00000E+00
 -1      7395-3.17374E+02-1.55959E+03 0.00000E+00
 -1      7396 1.54627E+02-1.55959E+03 0.00000E+00
 -1      7397-8.13735E+01-1.55959E+03 0.00000E+00
 -1      7398 1.33673E+02-1.56595E+03 0.00000E+00
 -1      7399-1.02327E+02-1.56595E+03 0.00000E+00
 -1      7400-3.38327E+02-1.56595E+03 0.00000E+00
 -1      7401 5.22226E+02-1.58732E+03 0.00000E+00
 -1      7402-5.22226E+02-1.58732E+03 0.00000E+00
 -1      7403-4.77415E+02-1.62410E+03 0.00000E+00
 -1      7404-3.54088E+02-1.63722E+03 0.00000E+00
 -1      7405-8.12905E+02-1.48674E+03 0.00000E+00
 -1      7406 1.04113E+02-1.59564E+03 0.00000E+00
 -1      7407 7.56982E+02-1.48185E+03 0.00000E+00
 -1      7408-2.51814E+02-1.63608E+03 0.00000E+00
 -1      7409 1.14001E+02-1.64573E+03 0.00000E+00
 -1      7410-7.58694E+02-1.34706E+03 0.00000E+00
 -1      7411 3.86928E+02-1.67233E+03 0.00000E+00
 -1      7412 3.71326E+02-1.59611E+03 0.00000E+00
 -1      7413 2.74845E+02-1.60244E+03 0.00000E+00
 -1      7414-3.54971E+01-1.64570E+03 0.00000E+00
 -1      7415 3.44802E+02-1.59459E+03 0.00000E+00
 -1      7416-1.27122E+02-1.59453E+03 0.00000E+00
 -1      7417 1.08942E+02-1.59451E+03 0.00000E+00
 -1      7418 3.59167E+02-1.69009E+03 0.00000E+00
 -1      7419 7.96366E+02-1.48789E+03 0.00000E+00
 -1      7420-7.83948E+02-1.48819E+03 0.00000E+00
 -1      7421 4.33202E+02-1.58111E+03 0.00000E+00
 -1      7422 2.50548E+02-1.70830E+03 0.00000E+00
 -1      7423 1.69797E+02-1.67921E+03 0.00000E+00
 -1      7424 4.60909E+02-1.64073E+03 0.00000E+00
 -1      7425-6.29331E+02-1.55745E+03 0.00000E+00
 -1      7426 3.67638E+02-1.59603E+03 0.00000E+00
 -1      7427-4.16195E+01-1.58263E+03 0.00000E+00
 -1      7428 1.94380E+02-1.58263E+03 0.00000E+00
 -1      7429-2.77646E+02-1.58264E+03 0.00000E+00
 -1      7430-3.40281E+02-1.58907E+03 0.00000E+00
 -1      7431-1.04259E+02-1.58910E+03 0.00000E+00
 -1      7432 1.31715E+02-1.58907E+03 0.00000E+00
 -1      7433 6.29353E+02-1.55742E+03 0.00000E+00
 -1      7434-4.33952E+02-1.59380E+03 0.00000E+00
 -1      7435-8.22249E+02-1.48090E+03 0.00000E+00
 -1      7436 2.00068E+02-1.63064E+03 0.00000E+00
 -1      7437-2.72107E+02-1.63048E+03 0.00000E+00
 -1      7438-2.41412E+02-1.62412E+03 0.00000E+00
 -1      7439-4.58149E+02-1.62180E+03 0.00000E+00
 -1      7440 3.92619E+01-1.69151E+03 0.00000E+00
 -1      7441-3.03084E+02-1.66715E+03 0.00000E+00
 -1      7442 5.17386E+02-1.56718E+03 0.00000E+00
 -1      7443-5.17386E+02-1.56718E+03 0.00000E+00
 -1      7444-5.51007E+00-1.71071E+03 0.00000E+00
 -1      7445 2.58795E+01-1.63828E+03 0.00000E+00
 -1      7446-1.31242E+02-1.57276E+03 0.00000E+00
 -1      7447 3.40758E+02-1.57276E+03 0.00000E+00
 -1      7448 3.67661E+02-1.58855E+03 0.00000E+00
 -1      7449 3.79548E+02-1.58647E+03 0.00000E+00
 -1      7450 6.11333E+01-1.72548E+03 0.00000E+00
 -1      7451-4.25402E+01-1.67553E+03 0.00000E+00
 -1      7452 2.23527E+02-1.54049E+03 0.00000E+00
 -1      7453-2.48473E+02-1.54049E+03 0.00000E+00
 -1      7454 3.40030E+02-1.59565E+03 0.00000E+00
 -1      7455-1.31895E+02-1.59570E+03 0.00000E+00
 -1      7456-2.26341E+02-1.63352E+03 0.00000E+00
 -1      7457-7.75733E+01-1.67445E+03 0.00000E+00
 -1      7458-7.46348E+02-1.34855E+03 0.00000E+00
 -1      7459-3.64793E+02-1.68788E+03 0.00000E+00
 -1      7460 3.88967E+02-1.67703E+03 0.00000E+00
 -1      7461 2.03124E+02-1.54912E+03 0.00000E+00
 -1      7462-2.68876E+02-1.54912E+03 0.00000E+00
 -1      7463-2.76302E+02-1.52897E+03 0.00000E+00
 -1      7464 1.95698E+02-1.52897E+03 0.00000E+00
 -1      7465 6.91422E+02-1.52203E+03 0.00000E+00
 -1      7466-6.91422E+02-1.52203E+03 0.00000E+00
 -1      7467 7.56215E+02-1.45326E+03 0.00000E+00
 -1      7468-1.12159E+02-1.72295E+03 0.00000E+00
 -1      7469-1.74156E+01-1.63090E+03 0.00000E+00
 -1      7470-2.18381E+02-1.54369E+03 0.00000E+00
 -1      7471 2.71775E+02-1.64603E+03 0.00000E+00
 -1      7472 1.57913E+02-1.72398E+03 0.00000E+00
 -1      7473-3.46108E+02-1.57607E+03 0.00000E+00
 -1      7474 1.25892E+02-1.57607E+03 0.00000E+00
 -1      7475-1.10108E+02-1.57607E+03 0.00000E+00
 -1      7476-4.26468E+02-1.66223E+03 0.00000E+00
 -1      7477 1.04773E+02-1.57271E+03 0.00000E+00
 -1      7478-7.57363E+02-1.46159E+03 0.00000E+00
 -1      7479-8.26210E+02-1.47786E+03 0.00000E+00
 -1      7480 8.26022E+02-1.47765E+03 0.00000E+00
 -1      7481-4.20135E+02-1.67412E+03 0.00000E+00
 -1      7482 6.15994E+01-1.66828E+03 0.00000E+00
 -1      7483-3.62473E+02-1.65182E+03 0.00000E+00
 -1      7484-1.61566E+02-1.67042E+03 0.00000E+00
 -1      7485 3.71862E+02-1.66185E+03 0.00000E+00
 -1      7486-3.79631E+02-1.58645E+03 0.00000E+00
 -1      7487 2.45350E+02-1.70933E+03 0.00000E+00
 -1      7488 3.90105E+02-1.66942E+03 0.00000E+00
 -1      7489-1.79887E+02-1.54452E+03 0.00000E+00
 -1      7490 2.92099E+02-1.54455E+03 0.00000E+00
 -1      7491 4.11092E+02-1.66804E+03 0.00000E+00
 -1      7492-1.14711E+02-1.60723E+03 0.00000E+00
 -1      7493 5.07379E+02-1.61922E+03 0.00000E+00
 -1      7494-1.91338E+02-1.66202E+03 0.00000E+00
 -1      7495-7.94239E+02-1.53344E+03 0.00000E+00
 -1      7496 7.94240E+02-1.53344E+03 0.00000E+00
 -1      7497-1.82604E+01-1.71600E+03 0.00000E+00
 -1      7498 6.43186E+01-1.67752E+03 0.00000E+00
 -1      7499 5.61143E+01-1.54452E+03 0.00000E+00
 -1      7500 1.91378E+02-1.66792E+03 0.00000E+00
 -1      7501 5.36596E+02-1.64656E+03 0.00000E+00
 -1      7502-5.36596E+02-1.64656E+03 0.00000E+00
 -1      7503 1.93092E+02-1.58724E+03 0.00000E+00
 -1      7504-4.29084E+01-1.58724E+03 0.00000E+00
 -1      7505-2.78962E+02-1.58727E+03 0.00000E+00
 -1      7506 6.57003E+02-1.54184E+03 0.00000E+00
 -1      7507-6.57003E+02-1.54184E+03 0.00000E+00
 -1      7508-3.94417E+02-1.68033E+03 0.00000E+00
 -1      7509-4.27690E+02-1.57755E+03 0.00000E+00
 -1      7510 2.62848E+02-1.62656E+03 0.00000E+00
 -1      7511 4.25175E+01-1.60018E+03 0.00000E+00
 -1      7512-2.78499E+02-1.60024E+03 0.00000E+00
 -1      7513 1.93486E+02-1.60019E+03 0.00000E+00
 -1      7514-4.24984E+01-1.60017E+03 0.00000E+00
 -1      7515 3.22481E+01-1.61394E+03 0.00000E+00
 -1      7516 2.03143E+02-1.61355E+03 0.00000E+00
 -1      7517-2.03306E+02-1.61333E+03 0.00000E+00
 -1      7518-2.68859E+02-1.61355E+03 0.00000E+00
 -1      7519-2.26862E+02-1.63748E+03 0.00000E+00
 -1      7520 6.33141E+02-1.61093E+03 0.00000E+00
 -1      7521-6.33141E+02-1.61093E+03 0.00000E+00
 -1      7522-2.69999E+02-1.63941E+03 0.00000E+00
 -1      7523-2.94189E+01-1.55276E+03 0.00000E+00
 -1      7524-3.51214E+02-1.60810E+03 0.00000E+00
 -1      7525 1.20785E+02-1.60810E+03 0.00000E+00
 -1      7526 7.41620E+01-1.68161E+03 0.00000E+00
 -1      7527 5.81377E+02-1.62589E+03 0.00000E+00
 -1      7528-5.81377E+02-1.62589E+03 0.00000E+00
 -1      7529-3.03209E+02-1.55137E+03 0.00000E+00
 -1      7530 1.68791E+02-1.55137E+03 0.00000E+00
 -1      7531-6.72096E+01-1.55137E+03 0.00000E+00
 -1      7532 7.89133E+02-1.48820E+03 0.00000E+00
 -3
    3C                         13789                                     1
 -1      1343    7    0    1
 -2      2942      6888      3591
 -1      1344    7    0    1
 -2      5812      7017       555
 -1      1345    7    0    1
 -2      4626      6534      3487
 -1      1346    7    0    1
 -2      3361      4765      3367
 -1      1347    7    0    1
 -2       171      6376       172
 -1      1348    7    0    1
 -2      1711      5102      4717
 -1      1349    7    0    1
 -2      1712      5101      4716
 -1      1350    7    0    1
 -2      4717      5102      3333
 -1      1351    7    0    1
 -2      4716      5101      3201
 -1      1352    7    0    1
 -2      4632      3478      3665
 -1      1353    7    0    1
 -2      4800      5474      4837
 -1      1354    7    0    1
 -2      1923      5793      4507
 -1      1355    7    0    1
 -2      1942      5794      4508
 -1      1356    7    0    1
 -2      3852      5538      4539
 -1      1357    7    0    1
 -2      4653      4670      4668
 -1      1358    7    0    1
 -2      4776      4855      3077
 -1      1359    7    0    1
 -2      4769      7418       127
 -1      1360    7    0    1
 -2       441      4815       440
 -1      1361    7    0    1
 -2       681      4816       680
 -1      1362    7    0    1
 -2      4631      6722      1617
 -1      1363    7    0    1
 -2      1927      5808      3467
 -1      1364    7    0    1
 -2      2964      4891      3553
 -1      1365    7    0    1
 -2       891      6745      6346
 -1      1366    7    0    1
 -2      4713      4810      2467
 -1      1367    7    0    1
 -2       126      4769       127
 -1      1368    7    0    1
 -2      3946      6696      4491
 -1      1369    7    0    1
 -2      2742      4855      2741
 -1      1370    7    0    1
 -2      2746      4854      2745
 -1      1371    7    0    1
 -2      6203      6331      1357
 -1      1372    7    0    1
 -2      1429      5995      4526
 -1      1373    7    0    1
 -2      4525      5994      1428
 -1      1374    7    0    1
 -2      3965      5088      1524
 -1      1375    7    0    1
 -2      4236      6635      4496
 -1      1376    7    0    1
 -2      3591      6888      3589
 -1      1377    7    0    1
 -2      3487      6534      3794
 -1      1378    7    0    1
 -2      4424      6560      3805
 -1      1379    7    0    1
 -2      4406      4837      4407
 -1      1380    7    0    1
 -2      4539      5538      4342
 -1      1381    7    0    1
 -2      4271      4273      4272
 -1      1382    7    0    1
 -2      4252      4256      4253
 -1      1383    7    0    1
 -2      4351      4539      4350
 -1      1384    7    0    1
 -2      3061      4999      4811
 -1      1385    7    0    1
 -2      2506      5618      3113
 -1      1386    7    0    1
 -2      4794      5921      1446
 -1      1387    7    0    1
 -2      1393      5920      4797
 -1      1388    7    0    1
 -2      3112      5617      2505
 -1      1389    7    0    1
 -2      4406      4407      4405
 -1      1390    7    0    1
 -2      5207      5208      1555
 -1      1391    7    0    1
 -2      5214      5215      1554
 -1      1392    7    0    1
 -2      1465      6816      3088
 -1      1393    7    0    1
 -2      3891      6302      3890
 -1      1394    7    0    1
 -2      4284      6605      6280
 -1      1395    7    0    1
 -2      2422      2285      4449
 -1      1396    7    0    1
 -2      3609      4855      4776
 -1      1397    7    0    1
 -2      3920      6738      5822
 -1      1398    7    0    1
 -2      4312      6214      4469
 -1      1399    7    0    1
 -2      4809      4813      1819
 -1      1400    7    0    1
 -2      4249      4565      3978
 -1      1401    7    0    1
 -2      3519      4736      3511
 -1      1402    7    0    1
 -2      4273      6486      4272
 -1      1403    7    0    1
 -2      3536      5649      5030
 -1      1404    7    0    1
 -2      3601      4808      1500
 -1      1405    7    0    1
 -2      6589      6670      3600
 -1      1406    7    0    1
 -2      4809      6600      4813
 -1      1407    7    0    1
 -2      3088      6528      1465
 -1      1408    7    0    1
 -2      2893      6990      3128
 -1      1409    7    0    1
 -2      4280      5540      4351
 -1      1410    7    0    1
 -2      4500      6583      4873
 -1      1411    7    0    1
 -2      4501      6584      4874
 -1      1412    7    0    1
 -2      4541      7037      1599
 -1      1413    7    0    1
 -2      4256      6417      4253
 -1      1414    7    0    1
 -2      4697      4699      4682
 -1      1415    7    0    1
 -2      2047      6191      4977
 -1      1416    7    0    1
 -2      3904      6692      6522
 -1      1417    7    0    1
 -2      4239      4766      2153
 -1      1418    7    0    1
 -2      2186      5099      2350
 -1      1419    7    0    1
 -2      2178      5098      2346
 -1      1420    7    0    1
 -2      4500      4873      3548
 -1      1421    7    0    1
 -2      4501      4874      3550
 -1      1422    7    0    1
 -2      4351      6332      4539
 -1      1423    7    0    1
 -2      1446      5921      4708
 -1      1424    7    0    1
 -2      4709      5920      1393
 -1      1425    7    0    1
 -2      6346      6745      4261
 -1      1426    7    0    1
 -2      2926      6399      5104
 -1      1427    7    0    1
 -2      5004      6065      5002
 -1      1428    7    0    1
 -2      5005      6067      5007
 -1      1429    7    0    1
 -2      5009      6762      4475
 -1      1430    7    0    1
 -2      4304      4639      4308
 -1      1431    7    0    1
 -2      4293      6363      2497
 -1      1432    7    0    1
 -2      2422      6361      2285
 -1      1433    7    0    1
 -2      6482      6646      4628
 -1      1434    7    0    1
 -2      6020      6463      1583
 -1      1435    7    0    1
 -2      1584      6464      6021
 -1      1436    7    0    1
 -2      2757      1941      2758
 -1      1437    7    0    1
 -2      2763      5850      2762
 -1      1438    7    0    1
 -2      5362      6872      1932
 -1      1439    7    0    1
 -2      5364      6873      1933
 -1      1440    7    0    1
 -2      4285      7202      4597
 -1      1441    7    0    1
 -2      5684      6576      2056
 -1      1442    7    0    1
 -2      4284      7313      6585
 -1      1443    7    0    1
 -2       814      4541       813
 -1      1444    7    0    1
 -2      4532      6612      4273
 -1      1445    7    0    1
 -2      4632      6722      4631
 -1      1446    7    0    1
 -2      3238      4752      3229
 -1      1447    7    0    1
 -2      3573      6810      6805
 -1      1448    7    0    1
 -2      4787      4828      3037
 -1      1449    7    0    1
 -2      4939      5051      2046
 -1      1450    7    0    1
 -2      1807      4518      4566
 -1      1451    7    0    1
 -2      3128      6990      3127
 -1      1452    7    0    1
 -2      4249      7382      4565
 -1      1453    7    0    1
 -2      4462      5837      4886
 -1      1454    7    0    1
 -2      3388      5783      3300
 -1      1455    7    0    1
 -2      3539      5787      3432
 -1      1456    7    0    1
 -2      3256      5785      3168
 -1      1457    7    0    1
 -2      2190      5016      2348
 -1      1458    7    0    1
 -2      4641      6929      1476
 -1      1459    7    0    1
 -2      5271      6941      1508
 -1      1460    7    0    1
 -2      5283      6942      1509
 -1      1461    7    0    1
 -2      1311      3601      1500
 -1      1462    7    0    1
 -2      4653      4814      4670
 -1      1463    7    0    1
 -2      6280      7313      4284
 -1      1464    7    0    1
 -2      3388      7395      5783
 -1      1465    7    0    1
 -2      3256      7396      5785
 -1      1466    7    0    1
 -2      3539      7397      5787
 -1      1467    7    0    1
 -2      3046      7001      4718
 -1      1468    7    0    1
 -2      4719      7002      3022
 -1      1469    7    0    1
 -2      1349      4749      4598
 -1      1470    7    0    1
 -2      3617      4640      2075
 -1      1471    7    0    1
 -2      1409      5825      3114
 -1      1472    7    0    1
 -2      3115      5826      1740
 -1      1473    7    0    1
 -2      4284      6585      4283
 -1      1474    7    0    1
 -2      6543      6700      1318
 -1      1475    7    0    1
 -2      1557      6760      5328
 -1      1476    7    0    1
 -2      4640      7005      2075
 -1      1477    7    0    1
 -2      3591      5933      2942
 -1      1478    7    0    1
 -2      4397      4400      1472
 -1      1479    7    0    1
 -2      4410      4580      1533
 -1      1480    7    0    1
 -2      4389      4641      1476
 -1      1481    7    0    1
 -2      4412      4608      1532
 -1      1482    7    0    1
 -2      4134      5477      4477
 -1      1483    7    0    1
 -2      1214      3604      1213
 -1      1484    7    0    1
 -2      4245      7327      4869
 -1      1485    7    0    1
 -2      4428      4431      1415
 -1      1486    7    0    1
 -2      3553      4891      1772
 -1      1487    7    0    1
 -2      3511      4736      3518
 -1      1488    7    0    1
 -2      1609      4610      3131
 -1      1489    7    0    1
 -2      1610      4609      3395
 -1      1490    7    0    1
 -2      1608      4611      3263
 -1      1491    7    0    1
 -2      2505      6935      3112
 -1      1492    7    0    1
 -2      3113      6936      2506
 -1      1493    7    0    1
 -2      4718      4863      3046
 -1      1494    7    0    1
 -2      3022      4864      4719
 -1      1495    7    0    1
 -2      4803      4994      4175
 -1      1496    7    0    1
 -2      3916      3486      4527
 -1      1497    7    0    1
 -2      4767      4813      2960
 -1      1498    7    0    1
 -2      4245      4603      4602
 -1      1499    7    0    1
 -2      2468      5015      4714
 -1      1500    7    0    1
 -2      4431      6515      1415
 -1      1501    7    0    1
 -2      4608      6489      1532
 -1      1502    7    0    1
 -2      5328      6760      5327
 -1      1503    7    0    1
 -2      4248      6739      6195
 -1      1504    7    0    1
 -2      3885      6871      6685
 -1      1505    7    0    1
 -2      4400      6233      1472
 -1      1506    7    0    1
 -2      6195      6739      1321
 -1      1507    7    0    1
 -2      4580      7006      1533
 -1      1508    7    0    1
 -2      1932      6561      5362
 -1      1509    7    0    1
 -2      1933      6562      5364
 -1      1510    7    0    1
 -2      3552      6774      6209
 -1      1511    7    0    1
 -2      3001      6238      4757
 -1      1512    7    0    1
 -2      1524      6568      3965
 -1      1513    7    0    1
 -2      5573      6555      4812
 -1      1514    7    0    1
 -2      2076      4639      4304
 -1      1515    7    0    1
 -2      4841      6774      3552
 -1      1516    7    0    1
 -2      4266      4617      2330
 -1      1517    7    0    1
 -2      4254      4618      2077
 -1      1518    7    0    1
 -2      4334      4568      1522
 -1      1519    7    0    1
 -2      4327      4619      2416
 -1      1520    7    0    1
 -2      6685      6871      5049
 -1      1521    7    0    1
 -2      1420      4494      4336
 -1      1522    7    0    1
 -2      2924      6753      6399
 -1      1523    7    0    1
 -2      4371      4621      1330
 -1      1524    7    0    1
 -2      4408      4622      1474
 -1      1525    7    0    1
 -2      1197      3929      1417
 -1      1526    7    0    1
 -2      4395      4631      1528
 -1      1527    7    0    1
 -2      3971      5658      2069
 -1      1528    7    0    1
 -2      5259      6949      1507
 -1      1529    7    0    1
 -2      4343      6568      4341
 -1      1530    7    0    1
 -2      4341      6568      1524
 -1      1531    7    0    1
 -2      4868      6611      4331
 -1      1532    7    0    1
 -2      1404      6479      4420
 -1      1533    7    0    1
 -2      1404      7326      6479
 -1      1534    7    0    1
 -2      4579      6396      1373
 -1      1535    7    0    1
 -2      4450      4633      2419
 -1      1536    7    0    1
 -2      3322      6764      3555
 -1      1537    7    0    1
 -2      5623      6767      1576
 -1      1538    7    0    1
 -2       556      5812       555
 -1      1539    7    0    1
 -2      4245      4869      1359
 -1      1540    7    0    1
 -2      6641      7185      3119
 -1      1541    7    0    1
 -2      3631      6547      3120
 -1      1542    7    0    1
 -2      1381      4845      4843
 -1      1543    7    0    1
 -2      4847      4849      1380
 -1      1544    7    0    1
 -2      3037      4788      4787
 -1      1545    7    0    1
 -2      1464      4552      4550
 -1      1546    7    0    1
 -2      4886      5837      4497
 -1      1547    7    0    1
 -2      5029      7086      4434
 -1      1548    7    0    1
 -2      1715      6948      3571
 -1      1549    7    0    1
 -2      1406      6947      3570
 -1      1550    7    0    1
 -2      1197      6997      3929
 -1      1551    7    0    1
 -2      1486      4541       814
 -1      1552    7    0    1
 -2      4285      4597      3080
 -1      1553    7    0    1
 -2      1530      5908      5769
 -1      1554    7    0    1
 -2      5771      5904      1529
 -1      1555    7    0    1
 -2      3229      4752      3235
 -1      1556    7    0    1
 -2      4727      6503      4362
 -1      1557    7    0    1
 -2      4900      6948      1715
 -1      1558    7    0    1
 -2      4901      6947      1406
 -1      1559    7    0    1
 -2      3968      7037      4541
 -1      1560    7    0    1
 -2      6021      6464      5738
 -1      1561    7    0    1
 -2      5735      6463      6020
 -1      1562    7    0    1
 -2      3603      5000      2871
 -1      1563    7    0    1
 -2      4759      6812      6486
 -1      1564    7    0    1
 -2      4244      6700      6543
 -1      1565    7    0    1
 -2      4824      4829      3892
 -1      1566    7    0    1
 -2      4699      5001      4682
 -1      1567    7    0    1
 -2      4710      6866      4318
 -1      1568    7    0    1
 -2      1941      7015      2758
 -1      1569    7    0    1
 -2      2763      7016      5850
 -1      1570    7    0    1
 -2      4255      6417      6280
 -1      1571    7    0    1
 -2      3055      6462      3057
 -1      1572    7    0    1
 -2      2966      6291      4547
 -1      1573    7    0    1
 -2      4568      6866      4710
 -1      1574    7    0    1
 -2       172      6376      5669
 -1      1575    7    0    1
 -2      4334      6866      4568
 -1      1576    7    0    1
 -2      4572      6946      3074
 -1      1577    7    0    1
 -2      1628      6701      4492
 -1      1578    7    0    1
 -2      5168      5169      3428
 -1      1579    7    0    1
 -2      5177      5178      3164
 -1      1580    7    0    1
 -2      5186      5187      3296
 -1      1581    7    0    1
 -2      2332      4534      4300
 -1      1582    7    0    1
 -2      3665      3475      4632
 -1      1583    7    0    1
 -2      4359      4727      4362
 -1      1584    7    0    1
 -2      3114      6622      1409
 -1      1585    7    0    1
 -2      1740      6623      3115
 -1      1586    7    0    1
 -2      1508      6487      5271
 -1      1587    7    0    1
 -2      1509      6488      5283
 -1      1588    7    0    1
 -2      1455      6672      4795
 -1      1589    7    0    1
 -2      4798      6673      1431
 -1      1590    7    0    1
 -2      4553      6826      4889
 -1      1591    7    0    1
 -2      4554      6827      4890
 -1      1592    7    0    1
 -2      4351      6904      4280
 -1      1593    7    0    1
 -2      4712      4773      4266
 -1      1594    7    0    1
 -2      2467      6397      4713
 -1      1595    7    0    1
 -2      2108      7194      4417
 -1      1596    7    0    1
 -2      4492      6184      1628
 -1      1597    7    0    1
 -2      4597      7202      2450
 -1      1598    7    0    1
 -2      2926      5104      2928
 -1      1599    7    0    1
 -2      1628      6184      3556
 -1      1600    7    0    1
 -2      4262      6877      5512
 -1      1601    7    0    1
 -2      3234      6806      6803
 -1      1602    7    0    1
 -2      3605      5951      1504
 -1      1603    7    0    1
 -2      1579      5953      1503
 -1      1604    7    0    1
 -2      4795      6864      1455
 -1      1605    7    0    1
 -2      1431      6865      4798
 -1      1606    7    0    1
 -2      6210      6407      5001
 -1      1607    7    0    1
 -2      6037      6756      6361
 -1      1608    7    0    1
 -2      4889      6826      3611
 -1      1609    7    0    1
 -2      4890      6827      3612
 -1      1610    7    0    1
 -2      4468      6830      4809
 -1      1611    7    0    1
 -2      5631      1493      3964
 -1      1612    7    0    1
 -2      3261      3384      1815
 -1      1613    7    0    1
 -2      3129      3252      1817
 -1      1614    7    0    1
 -2      3393      3534      1814
 -1      1615    7    0    1
 -2      6803      6806      3598
 -1      1616    7    0    1
 -2      4469      6641      4312
 -1      1617    7    0    1
 -2      1323      6093      5580
 -1      1618    7    0    1
 -2      3575      3576      1544
 -1      1619    7    0    1
 -2      3557      4584      1573
 -1      1620    7    0    1
 -2      1575      4585      3558
 -1      1621    7    0    1
 -2      4311      6641      3119
 -1      1622    7    0    1
 -2      4499      5653      2061
 -1      1623    7    0    1
 -2      3560      4454      1480
 -1      1624    7    0    1
 -2      1395      4455      3559
 -1      1625    7    0    1
 -2      1298      6991      4353
 -1      1626    7    0    1
 -2      3630      6670      6589
 -1      1627    7    0    1
 -2      4528      6929      4241
 -1      1628    7    0    1
 -2      4645      4751      4119
 -1      1629    7    0    1
 -2      1381      6504      4845
 -1      1630    7    0    1
 -2      4849      6505      1380
 -1      1631    7    0    1
 -2      2080      3585      3584
 -1      1632    7    0    1
 -2      2871      6257      3603
 -1      1633    7    0    1
 -2      5462      6560      4887
 -1      1634    7    0    1
 -2      3440      5014      3441
 -1      1635    7    0    1
 -2      3464      6510      2434
 -1      1636    7    0    1
 -2      4468      4809      3567
 -1      1637    7    0    1
 -2      2300      3599      1311
 -1      1638    7    0    1
 -2      3613      4628      2198
 -1      1639    7    0    1
 -2      6522      6692      4388
 -1      1640    7    0    1
 -2      2449      3620      3619
 -1      1641    7    0    1
 -2      2450      3618      3617
 -1      1642    7    0    1
 -2      3627      3628      1905
 -1      1643    7    0    1
 -2      3621      3622      2446
 -1      1644    7    0    1
 -2      3624      3625      2447
 -1      1645    7    0    1
 -2      4271      4272      2081
 -1      1646    7    0    1
 -2      2211      4287      4286
 -1      1647    7    0    1
 -2      1907      4256      4252
 -1      1648    7    0    1
 -2      2286      4275      4274
 -1      1649    7    0    1
 -2      4268      4269      2288
 -1      1650    7    0    1
 -2      2414      4321      4320
 -1      1651    7    0    1
 -2      2308      4312      4311
 -1      1652    7    0    1
 -2      2076      4303      4302
 -1      1653    7    0    1
 -2      4748      4828      4787
 -1      1654    7    0    1
 -2      1882      4351      4350
 -1      1655    7    0    1
 -2      1430      4330      4329
 -1      1656    7    0    1
 -2      1432      4342      4341
 -1      1657    7    0    1
 -2      4465      7165      1521
 -1      1658    7    0    1
 -2      4466      7166      5805
 -1      1659    7    0    1
 -2      1312      4581      4335
 -1      1660    7    0    1
 -2      1507      6520      5259
 -1      1661    7    0    1
 -2      6536      6761      2309
 -1      1662    7    0    1
 -2      1214      7322      3604
 -1      1663    7    0    1
 -2      4356      4411      4410
 -1      1664    7    0    1
 -2      1421      4398      4397
 -1      1665    7    0    1
 -2      6334      6449      3323
 -1      1666    7    0    1
 -2      6335      6450      3191
 -1      1667    7    0    1
 -2      3921      6231      6187
 -1      1668    7    0    1
 -2      1477      4374      4373
 -1      1669    7    0    1
 -2      4295      4759      2307
 -1      1670    7    0    1
 -2      1458      4406      4405
 -1      1671    7    0    1
 -2      1527      4390      4389
 -1      1672    7    0    1
 -2      1533      4414      4413
 -1      1673    7    0    1
 -2      1572      4607      4412
 -1      1674    7    0    1
 -2      5002      6065      1485
 -1      1675    7    0    1
 -2      1484      6067      5005
 -1      1676    7    0    1
 -2      1522      4567      4426
 -1      1677    7    0    1
 -2      3562      6309      1603
 -1      1678    7    0    1
 -2      3564      6310      1606
 -1      1679    7    0    1
 -2      3563      6311      1604
 -1      1680    7    0    1
 -2      3582      7046      1541
 -1      1681    7    0    1
 -2      1206      3547      1816
 -1      1682    7    0    1
 -2      1095      3261      1815
 -1      1683    7    0    1
 -2       984      3129      1817
 -1      1684    7    0    1
 -2       873      3393      1814
 -1      1685    7    0    1
 -2       842      3551      1840
 -1      1686    7    0    1
 -2      1284      3566      1580
 -1      1687    7    0    1
 -2      1840      3552       841
 -1      1688    7    0    1
 -2      1064      4716      3580
 -1      1689    7    0    1
 -2      1027      4717      3581
 -1      1690    7    0    1
 -2      1710      3549      1250
 -1      1691    7    0    1
 -2      1020      3550      1406
 -1      1692    7    0    1
 -2      1057      3548      1715
 -1      1693    7    0    1
 -2      1243      3553      1772
 -1      1694    7    0    1
 -2       875      4609      1610
 -1      1695    7    0    1
 -2       986      4610      1609
 -1      1696    7    0    1
 -2      1097      4611      1608
 -1      1697    7    0    1
 -2      1024      3554      1400
 -1      1698    7    0    1
 -2      1282      3127      1626
 -1      1699    7    0    1
 -2      1628      3556      1062
 -1      1700    7    0    1
 -2      2257      4429      4428
 -1      1701    7    0    1
 -2      1276      3575      1544
 -1      1702    7    0    1
 -2      1417      3928      3927
 -1      1703    7    0    1
 -2      2282      2422      4449
 -1      1704    7    0    1
 -2      1290      3557      1573
 -1      1705    7    0    1
 -2      1575      3558      1239
 -1      1706    7    0    1
 -2      2061      5652      4499
 -1      1707    7    0    1
 -2      2075      4765      3594
 -1      1708    7    0    1
 -2      3567      1819      1172
 -1      1709    7    0    1
 -2      1459      4815       441
 -1      1710    7    0    1
 -2       680      4816      1460
 -1      1711    7    0    1
 -2      4119      4726      4645
 -1      1712    7    0    1
 -2      4567      4568      2511
 -1      1713    7    0    1
 -2      1395      3559      1237
 -1      1714    7    0    1
 -2      1292      3560      1480
 -1      1715    7    0    1
 -2      1093      3562      1603
 -1      1716    7    0    1
 -2       871      3564      1606
 -1      1717    7    0    1
 -2       982      3563      1604
 -1      1718    7    0    1
 -2       847      3582      1541
 -1      1719    7    0    1
 -2      1069      3583      1543
 -1      1720    7    0    1
 -2      5167      5168      3428
 -1      1721    7    0    1
 -2      5176      5177      3164
 -1      1722    7    0    1
 -2      5185      5186      3296
 -1      1723    7    0    1
 -2      2069      5659      3971
 -1      1724    7    0    1
 -2      2080      3584      1255
 -1      1725    7    0    1
 -2      2075      3594      1033
 -1      1726    7    0    1
 -2      3583      7066      1543
 -1      1727    7    0    1
 -2      4497      5837      2136
 -1      1728    7    0    1
 -2      1417      3927      2303
 -1      1729    7    0    1
 -2      1100      1387      1499
 -1      1730    7    0    1
 -2      1495      3598      1133
 -1      1731    7    0    1
 -2       910      1483      2302
 -1      1732    7    0    1
 -2       947      1574      2304
 -1      1733    7    0    1
 -2      2300      1311      1212
 -1      1734    7    0    1
 -2      1603      3606      1092
 -1      1735    7    0    1
 -2      1604      3608       981
 -1      1736    7    0    1
 -2      1331      4727      4359
 -1      1737    7    0    1
 -2      5601      5603      1424
 -1      1738    7    0    1
 -2      3424      6867      5008
 -1      1739    7    0    1
 -2       869      3607      2368
 -1      1740    7    0    1
 -2      1202      3609      2367
 -1      1741    7    0    1
 -2      1568      7397      5170
 -1      1742    7    0    1
 -2      1569      7395      5188
 -1      1743    7    0    1
 -2      1567      7396      5179
 -1      1744    7    0    1
 -2       957      3613      2198
 -1      1745    7    0    1
 -2      2699      3610      1143
 -1      1746    7    0    1
 -2      2700      3611      1180
 -1      1747    7    0    1
 -2      2723      3612       921
 -1      1748    7    0    1
 -2      1272      3630      1906
 -1      1749    7    0    1
 -2      2450      3617      1035
 -1      1750    7    0    1
 -2      2449      3619       850
 -1      1751    7    0    1
 -2       828      3621      2446
 -1      1752    7    0    1
 -2      1013      3627      1905
 -1      1753    7    0    1
 -2      1050      3624      2447
 -1      1754    7    0    1
 -2      1167      3631      3120
 -1      1755    7    0    1
 -2      2287      4293       810
 -1      1756    7    0    1
 -2       886      4271      2081
 -1      1757    7    0    1
 -2      1907      4252       905
 -1      1758    7    0    1
 -2      2077      4618       903
 -1      1759    7    0    1
 -2      2651      4267       977
 -1      1760    7    0    1
 -2       803      4283      2725
 -1      1761    7    0    1
 -2      2330      4617       824
 -1      1762    7    0    1
 -2       799      4295      2307
 -1      1763    7    0    1
 -2      2286      4274       995
 -1      1764    7    0    1
 -2      2211      4286       822
 -1      1765    7    0    1
 -2       942      4268      2288
 -1      1766    7    0    1
 -2      2414      4320      1106
 -1      1767    7    0    1
 -2      2308      4311      1261
 -1      1768    7    0    1
 -2      2076      4302      1218
 -1      1769    7    0    1
 -2      2416      4619      1126
 -1      1770    7    0    1
 -2      2722      4340       864
 -1      1771    7    0    1
 -2      1882      4350      1044
 -1      1772    7    0    1
 -2      1599      4349       812
 -1      1773    7    0    1
 -2      1430      4329      1042
 -1      1774    7    0    1
 -2      1432      4341        35
 -1      1775    7    0    1
 -2      1598      4367       939
 -1      1776    7    0    1
 -2      4811      4999      4747
 -1      1777    7    0    1
 -2      1631      4527      4421
 -1      1778    7    0    1
 -2      1842      4369       862
 -1      1779    7    0    1
 -2      1312      4335       999
 -1      1780    7    0    1
 -2      1420      4336       894
 -1      1781    7    0    1
 -2       936      4502      4372
 -1      1782    7    0    1
 -2      1330      4621       860
 -1      1783    7    0    1
 -2      4356      4410      1232
 -1      1784    7    0    1
 -2      1313      4388      1122
 -1      1785    7    0    1
 -2      1421      4397        31
 -1      1786    7    0    1
 -2      1548      6438      5631
 -1      1787    7    0    1
 -2      1477      4373       858
 -1      1788    7    0    1
 -2      1458      4405        33
 -1      1789    7    0    1
 -2      4653      4668      4647
 -1      1790    7    0    1
 -2      1474      4622      1004
 -1      1791    7    0    1
 -2      4714      6333      2468
 -1      1792    7    0    1
 -2      1475      4393      1120
 -1      1793    7    0    1
 -2      1527      4389      1114
 -1      1794    7    0    1
 -2      4366      4415        41
 -1      1795    7    0    1
 -2      1528      4631      1118
 -1      1796    7    0    1
 -2      1533      4413      1230
 -1      1797    7    0    1
 -2      1572      4412      1300
 -1      1798    7    0    1
 -2      5999      6767      5623
 -1      1799    7    0    1
 -2      1522      4426      1160
 -1      1800    7    0    1
 -2      2108      4417      1188
 -1      1801    7    0    1
 -2      2257      4428       820
 -1      1802    7    0    1
 -2      2282      4449      1156
 -1      1803    7    0    1
 -2      2419      4633      1154
 -1      1804    7    0    1
 -2      3035      6304      4728
 -1      1805    7    0    1
 -2      1443      5686      4533
 -1      1806    7    0    1
 -2      3609      4776      2367
 -1      1807    7    0    1
 -2      5755      4518      1807
 -1      1808    7    0    1
 -2      5822      6738      1752
 -1      1809    7    0    1
 -2      6613      6743      1940
 -1      1810    7    0    1
 -2      5631      6744      1548
 -1      1811    7    0    1
 -2      5631      6438      1493
 -1      1812    7    0    1
 -2      2512      5203      4627
 -1      1813    7    0    1
 -2      4491      6570      3946
 -1      1814    7    0    1
 -2      1560      5797       243
 -1      1815    7    0    1
 -2       813      4541      1599
 -1      1816    7    0    1
 -2      5170      6984      1568
 -1      1817    7    0    1
 -2      5188      6982      1569
 -1      1818    7    0    1
 -2      5179      6983      1567
 -1      1819    7    0    1
 -2      1938      6737      6614
 -1      1820    7    0    1
 -2      4270      7156      2771
 -1      1821    7    0    1
 -2      4463      5822      1752
 -1      1822    7    0    1
 -2      5685      6576      5684
 -1      1823    7    0    1
 -2      5548      6725      4378
 -1      1824    7    0    1
 -2      2207      6152      4695
 -1      1825    7    0    1
 -2      3589      6888      3586
 -1      1826    7    0    1
 -2      4568      4710      2511
 -1      1827    7    0    1
 -2      5203      6778      4627
 -1      1828    7    0    1
 -2      4481      7203      5789
 -1      1829    7    0    1
 -2      3370      4765      3361
 -1      1830    7    0    1
 -2      3567      4809      1819
 -1      1831    7    0    1
 -2      6456      6605      2210
 -1      1832    7    0    1
 -2      6341      6652      1841
 -1      1833    7    0    1
 -2      4309      6761      6536
 -1      1834    7    0    1
 -2      3586      6888      4777
 -1      1835    7    0    1
 -2      5655      5659      1306
 -1      1836    7    0    1
 -2      1579      7135      5953
 -1      1837    7    0    1
 -2      3605      7134      5951
 -1      1838    7    0    1
 -2      2459      4730      2460
 -1      1839    7    0    1
 -2      5512      6824      4262
 -1      1840    7    0    1
 -2      4765      7005      3367
 -1      1841    7    0    1
 -2      2497      6363      4251
 -1      1842    7    0    1
 -2      2198      6946      4572
 -1      1843    7    0    1
 -2      2153      4766      2155
 -1      1844    7    0    1
 -2      4567      6249      4426
 -1      1845    7    0    1
 -2      2045      5988      5626
 -1      1846    7    0    1
 -2      5580      6706      1323
 -1      1847    7    0    1
 -2      5625      5987      2044
 -1      1848    7    0    1
 -2       127      7418      1519
 -1      1849    7    0    1
 -2      1362      6176      5999
 -1      1850    7    0    1
 -2      4812      6674      5573
 -1      1851    7    0    1
 -2      4522      6373      4267
 -1      1852    7    0    1
 -2      5566      6441      6077
 -1      1853    7    0    1
 -2      4253      6417      4255
 -1      1854    7    0    1
 -2       945      6424      4285
 -1      1855    7    0    1
 -2      6078      6439      5563
 -1      1856    7    0    1
 -2      4444      4447      4446
 -1      1857    7    0    1
 -2      3566      4834      1580
 -1      1858    7    0    1
 -2      3805      6531      4424
 -1      1859    7    0    1
 -2      4438      4442      4440
 -1      1860    7    0    1
 -2      3890      6302      4824
 -1      1861    7    0    1
 -2      4595      7075      3083
 -1      1862    7    0    1
 -2      4590      7076      3082
 -1      1863    7    0    1
 -2      1619      6396      4579
 -1      1864    7    0    1
 -2      1618      6636      4540
 -1      1865    7    0    1
 -2      4759      6486      2307
 -1      1866    7    0    1
 -2      1840      4841      3552
 -1      1867    7    0    1
 -2      3410      6173      5401
 -1      1868    7    0    1
 -2      3146      6175      5400
 -1      1869    7    0    1
 -2      3278      6174      5399
 -1      1870    7    0    1
 -2      4241      4756      4528
 -1      1871    7    0    1
 -2      4467      6916      3489
 -1      1872    7    0    1
 -2       555      7017      1721
 -1      1873    7    0    1
 -2      2136      5836      4497
 -1      1874    7    0    1
 -2      3037      6475      4788
 -1      1875    7    0    1
 -2      3254      7061      6587
 -1      1876    7    0    1
 -2      3386      7062      6588
 -1      1877    7    0    1
 -2      3516      4842      4768
 -1      1878    7    0    1
 -2      1439      6762      5009
 -1      1879    7    0    1
 -2      4383      6503      4727
 -1      1880    7    0    1
 -2      3517      6538      1483
 -1      1881    7    0    1
 -2      3254      6587      3255
 -1      1882    7    0    1
 -2      3386      6588      3387
 -1      1883    7    0    1
 -2      1550      6651      6042
 -1      1884    7    0    1
 -2      3127      6990      1626
 -1      1885    7    0    1
 -2      4757      6238      1741
 -1      1886    7    0    1
 -2      1387      6934      1499
 -1      1887    7    0    1
 -2      4565      7382      1552
 -1      1888    7    0    1
 -2      6042      6954      1550
 -1      1889    7    0    1
 -2       797      6612      4532
 -1      1890    7    0    1
 -2      2187      5099      2186
 -1      1891    7    0    1
 -2      2179      5098      2178
 -1      1892    7    0    1
 -2      3553      6780      2964
 -1      1893    7    0    1
 -2      1483      7175      3517
 -1      1894    7    0    1
 -2      1362      6969      6176
 -1      1895    7    0    1
 -2      1921      5238      4987
 -1      1896    7    0    1
 -2      1925      5239      4989
 -1      1897    7    0    1
 -2      3075      4854      2746
 -1      1898    7    0    1
 -2      3077      4855      2742
 -1      1899    7    0    1
 -2      1271      7069      2702
 -1      1900    7    0    1
 -2      2301      7070      1258
 -1      1901    7    0    1
 -2      4265      4712      4266
 -1      1902    7    0    1
 -2      2466      4608      4607
 -1      1903    7    0    1
 -2      3548      4873      1715
 -1      1904    7    0    1
 -2      3550      4874      1406
 -1      1905    7    0    1
 -2      4496      6635      1487
 -1      1906    7    0    1
 -2      3537      7036      6564
 -1      1907    7    0    1
 -2      5494      6143      1616
 -1      1908    7    0    1
 -2      4613      6820      4549
 -1      1909    7    0    1
 -2      3366      6535      1574
 -1      1910    7    0    1
 -2      4793      4794      2143
 -1      1911    7    0    1
 -2      2144      4797      4796
 -1      1912    7    0    1
 -2      1304      5959      4733
 -1      1913    7    0    1
 -2      4409      6442      3794
 -1      1914    7    0    1
 -2      4465      1521      5236
 -1      1915    7    0    1
 -2      4466      5805      5235
 -1      1916    7    0    1
 -2      6017      6326      3569
 -1      1917    7    0    1
 -2      3494      7467      2705
 -1      1918    7    0    1
 -2      2456      6863      4287
 -1      1919    7    0    1
 -2      1450      6331      6203
 -1      1920    7    0    1
 -2      1752      5860      4463
 -1      1921    7    0    1
 -2      4676      4697      4682
 -1      1922    7    0    1
 -2       795      7075      4258
 -1      1923    7    0    1
 -2      1128      7076      4325
 -1      1924    7    0    1
 -2      2771      6818      4270
 -1      1925    7    0    1
 -2      3547      4879      1816
 -1      1926    7    0    1
 -2      4491      6696      2122
 -1      1927    7    0    1
 -2      5078      6930      6759
 -1      1928    7    0    1
 -2      4695      6407      2207
 -1      1929    7    0    1
 -2      4502      6952      4372
 -1      1930    7    0    1
 -2      4496      6539      4236
 -1      1931    7    0    1
 -2      5169      6173      3410
 -1      1932    7    0    1
 -2      5178      6175      3146
 -1      1933    7    0    1
 -2      5187      6174      3278
 -1      1934    7    0    1
 -2      6759      6930      1309
 -1      1935    7    0    1
 -2      4287      4295      2456
 -1      1936    7    0    1
 -2      1574      7199      3366
 -1      1937    7    0    1
 -2      3537      6564      3538
 -1      1938    7    0    1
 -2      1906      7069      1271
 -1      1939    7    0    1
 -2      1258      7070      2452
 -1      1940    7    0    1
 -2      4527      7014      3916
 -1      1941    7    0    1
 -2      3410      5231      5169
 -1      1942    7    0    1
 -2      3146      5232      5178
 -1      1943    7    0    1
 -2      3278      5230      5187
 -1      1944    7    0    1
 -2      4664      4856      4735
 -1      1945    7    0    1
 -2      5174      6307      5175
 -1      1946    7    0    1
 -2      5183      6306      5184
 -1      1947    7    0    1
 -2      1333      7387      5678
 -1      1948    7    0    1
 -2      5165      6305      5166
 -1      1949    7    0    1
 -2      3489      6916      4126
 -1      1950    7    0    1
 -2      3794      6534      4409
 -1      1951    7    0    1
 -2      6399      6753      3549
 -1      1952    7    0    1
 -2      2316      4739      4737
 -1      1953    7    0    1
 -2      6548      7153      6074
 -1      1954    7    0    1
 -2      6874      7035      5984
 -1      1955    7    0    1
 -2      3082      7076      1128
 -1      1956    7    0    1
 -2      3083      7075       795
 -1      1957    7    0    1
 -2      2699      4888      3610
 -1      1958    7    0    1
 -2      2700      4889      3611
 -1      1959    7    0    1
 -2      2723      4890      3612
 -1      1960    7    0    1
 -2      1604      4894      3608
 -1      1961    7    0    1
 -2      1603      4895      3606
 -1      1962    7    0    1
 -2      1471      7053      4356
 -1      1963    7    0    1
 -2      4566      6071      1807
 -1      1964    7    0    1
 -2      4788      6475      5614
 -1      1965    7    0    1
 -2      2287      6788      6363
 -1      1966    7    0    1
 -2      4528      4756      1318
 -1      1967    7    0    1
 -2      5287      6488      1509
 -1      1968    7    0    1
 -2      5275      6487      1508
 -1      1969    7    0    1
 -2      4507      5793      4884
 -1      1970    7    0    1
 -2      4508      5794      4885
 -1      1971    7    0    1
 -2      4701      5140      2427
 -1      1972    7    0    1
 -2      5011      6595      6367
 -1      1973    7    0    1
 -2      6541      7133       135
 -1      1974    7    0    1
 -2      4608      6666      2735
 -1      1975    7    0    1
 -2      4616      4886      2985
 -1      1976    7    0    1
 -2      4733      5959      4690
 -1      1977    7    0    1
 -2      4267      6853      4522
 -1      1978    7    0    1
 -2      5306      5307      2181
 -1      1979    7    0    1
 -2      5313      5314      2189
 -1      1980    7    0    1
 -2      5299      5300      2185
 -1      1981    7    0    1
 -2      5603      6698      1424
 -1      1982    7    0    1
 -2      1304      4733       755
 -1      1983    7    0    1
 -2      4297      4534      2332
 -1      1984    7    0    1
 -2      4337      4829      4824
 -1      1985    7    0    1
 -2      4651      4823      4655
 -1      1986    7    0    1
 -2      1491      5026      5025
 -1      1987    7    0    1
 -2      5022      5023      1490
 -1      1988    7    0    1
 -2      5611      5612      2066
 -1      1989    7    0    1
 -2      4507      7143      1923
 -1      1990    7    0    1
 -2      4508      7144      1942
 -1      1991    7    0    1
 -2      1554      5217      5214
 -1      1992    7    0    1
 -2      1555      5210      5207
 -1      1993    7    0    1
 -2      6097      6969      3995
 -1      1994    7    0    1
 -2      4425      4831      4627
 -1      1995    7    0    1
 -2      2735      6489      4608
 -1      1996    7    0    1
 -2      3903      6108      4799
 -1      1997    7    0    1
 -2      1881      6370      4333
 -1      1998    7    0    1
 -2      4220      6952      6790
 -1      1999    7    0    1
 -2       132      6621      5723
 -1      2000    7    0    1
 -2      4666      7251      1802
 -1      2001    7    0    1
 -2      3950      6652      6341
 -1      2002    7    0    1
 -2      3929      6197      5127
 -1      2003    7    0    1
 -2      3588      3591      3589
 -1      2004    7    0    1
 -2       173      5669      1334
 -1      2005    7    0    1
 -2       990      7093      3605
 -1      2006    7    0    1
 -2       879      7094      1579
 -1      2007    7    0    1
 -2      4444      4446      4443
 -1      2008    7    0    1
 -2      4481      5789      5237
 -1      2009    7    0    1
 -2      4548      4833      2385
 -1      2010    7    0    1
 -2      6732      7203      4493
 -1      2011    7    0    1
 -2      4540      6290      1618
 -1      2012    7    0    1
 -2      4438      4440      4437
 -1      2013    7    0    1
 -2      3077      7292      6660
 -1      2014    7    0    1
 -2      1478      6669      5674
 -1      2015    7    0    1
 -2      5723      7207       132
 -1      2016    7    0    1
 -2      2191      5016      2190
 -1      2017    7    0    1
 -2      6307      6841      5175
 -1      2018    7    0    1
 -2      6306      6840      5184
 -1      2019    7    0    1
 -2      1929      7203      6732
 -1      2020    7    0    1
 -2       715      6658      4576
 -1      2021    7    0    1
 -2      4578      6657       406
 -1      2022    7    0    1
 -2      6305      6842      5166
 -1      2023    7    0    1
 -2      5263      6520      1507
 -1      2024    7    0    1
 -2      3459      4841      3463
 -1      2025    7    0    1
 -2      6714      7166      4484
 -1      2026    7    0    1
 -2      6713      7165      4483
 -1      2027    7    0    1
 -2      1348      4749      1349
 -1      2028    7    0    1
 -2      3076      7292      3077
 -1      2029    7    0    1
 -2      3467      5808      3522
 -1      2030    7    0    1
 -2      4889      6892      4485
 -1      2031    7    0    1
 -2      4888      6893      4486
 -1      2032    7    0    1
 -2      4890      6894      4487
 -1      2033    7    0    1
 -2      1509      6994      5287
 -1      2034    7    0    1
 -2      1508      6993      5275
 -1      2035    7    0    1
 -2      6515      6695      3954
 -1      2036    7    0    1
 -2      2500      7075      4595
 -1      2037    7    0    1
 -2      2495      7076      4590
 -1      2038    7    0    1
 -2      3551      7126      1840
 -1      2039    7    0    1
 -2      4495      5528      4281
 -1      2040    7    0    1
 -2      1475      3473      4393
 -1      2041    7    0    1
 -2       172      5669       173
 -1      2042    7    0    1
 -2      2651      6853      4267
 -1      2043    7    0    1
 -2      6367      6595      2060
 -1      2044    7    0    1
 -2      5674      7078      1478
 -1      2045    7    0    1
 -2      2287      6363      4293
 -1      2046    7    0    1
 -2      4576      7149       715
 -1      2047    7    0    1
 -2       406      7150      4578
 -1      2048    7    0    1
 -2      4977      6955      2047
 -1      2049    7    0    1
 -2      4433      5028      4434
 -1      2050    7    0    1
 -2      3613      6482      4628
 -1      2051    7    0    1
 -2      4597      7368      3080
 -1      2052    7    0    1
 -2      1494      7153      6548
 -1      2053    7    0    1
 -2      3588      3589      3585
 -1      2054    7    0    1
 -2      5253      5859      1798
 -1      2055    7    0    1
 -2      4567      6804      6249
 -1      2056    7    0    1
 -2      2700      6892      4889
 -1      2057    7    0    1
 -2      2699      6893      4888
 -1      2058    7    0    1
 -2      2723      6894      4890
 -1      2059    7    0    1
 -2      3555      6764      3554
 -1      2060    7    0    1
 -2      3467      7170      1927
 -1      2061    7    0    1
 -2      3569      6899      6017
 -1      2062    7    0    1
 -2      1930      7166      6714
 -1      2063    7    0    1
 -2      1931      7165      6713
 -1      2064    7    0    1
 -2       565      4805      1936
 -1      2065    7    0    1
 -2      4464      6405      4140
 -1      2066    7    0    1
 -2      4396      4994      4803
 -1      2067    7    0    1
 -2      6790      6952      4502
 -1      2068    7    0    1
 -2      2316      4740      4739
 -1      2069    7    0    1
 -2      5030      5649      2246
 -1      2070    7    0    1
 -2      5208      5209      1555
 -1      2071    7    0    1
 -2      5215      5216      1554
 -1      2072    7    0    1
 -2      4395      3478      4632
 -1      2073    7    0    1
 -2      4356      7053      4482
 -1      2074    7    0    1
 -2      4791      7246      2728
 -1      2075    7    0    1
 -2      2039      5957      4630
 -1      2076    7    0    1
 -2      4629      5958      2040
 -1      2077    7    0    1
 -2      3615      7413      4531
 -1      2078    7    0    1
 -2      4273      7414      4532
 -1      2079    7    0    1
 -2      5009      5011      1439
 -1      2080    7    0    1
 -2      4547      6291      1629
 -1      2081    7    0    1
 -2      1253      3573      1252
 -1      2082    7    0    1
 -2      4729      6462      3059
 -1      2083    7    0    1
 -2      4531      7250      3615
 -1      2084    7    0    1
 -2      4156      4643      4582
 -1      2085    7    0    1
 -2      4651      5426      4823
 -1      2086    7    0    1
 -2      6485      7054      5292
 -1      2087    7    0    1
 -2      3546      6217      3422
 -1      2088    7    0    1
 -2      3392      6219      3290
 -1      2089    7    0    1
 -2      3260      6218      3158
 -1      2090    7    0    1
 -2      6143      7441      1616
 -1      2091    7    0    1
 -2      1507      7010      5263
 -1      2092    7    0    1
 -2      3921      6187      3955
 -1      2093    7    0    1
 -2      6805      6810      2950
 -1      2094    7    0    1
 -2      2046      7012      4939
 -1      2095    7    0    1
 -2      1298      4353      1297
 -1      2096    7    0    1
 -2      2297      7093       990
 -1      2097    7    0    1
 -2      2298      7094       879
 -1      2098    7    0    1
 -2      4300      6788      6708
 -1      2099    7    0    1
 -2      6547      7070      3120
 -1      2100    7    0    1
 -2      6363      6788      4534
 -1      2101    7    0    1
 -2      2434      6510      4835
 -1      2102    7    0    1
 -2      5658      5661      2069
 -1      2103    7    0    1
 -2      1495      6803      3598
 -1      2104    7    0    1
 -2      6464      6891      5738
 -1      2105    7    0    1
 -2      5735      6890      6463
 -1      2106    7    0    1
 -2      3082      7413      4590
 -1      2107    7    0    1
 -2      3083      7414      4595
 -1      2108    7    0    1
 -2      4547      6533      2966
 -1      2109    7    0    1
 -2      5936      7280      1578
 -1      2110    7    0    1
 -2      5937      7281      1400
 -1      2111    7    0    1
 -2      4717      6758      3581
 -1      2112    7    0    1
 -2      4716      6757      3580
 -1      2113    7    0    1
 -2      1710      6399      3549
 -1      2114    7    0    1
 -2      4854      6310      2745
 -1      2115    7    0    1
 -2      4667      6059      4673
 -1      2116    7    0    1
 -2      2368      6646      6482
 -1      2117    7    0    1
 -2       963      7118      4338
 -1      2118    7    0    1
 -2      5757      7133      6541
 -1      2119    7    0    1
 -2      3565      7035      6874
 -1      2120    7    0    1
 -2       381      4741      2316
 -1      2121    7    0    1
 -2      4849      6961      6505
 -1      2122    7    0    1
 -2      6504      6962      4845
 -1      2123    7    0    1
 -2      4140      7344      4464
 -1      2124    7    0    1
 -2      1842      6343      4369
 -1      2125    7    0    1
 -2      6505      6961      1444
 -1      2126    7    0    1
 -2      1445      6962      6504
 -1      2127    7    0    1
 -2      4245      6649      4603
 -1      2128    7    0    1
 -2      6361      6756      2285
 -1      2129    7    0    1
 -2      6566      6909      6038
 -1      2130    7    0    1
 -2      4565      7241      3978
 -1      2131    7    0    1
 -2      2722      7196      4340
 -1      2132    7    0    1
 -2      3078      4899      4574
 -1      2133    7    0    1
 -2      3074      4898      4572
 -1      2134    7    0    1
 -2      3072      4896      4573
 -1      2135    7    0    1
 -2        96      5940        97
 -1      2136    7    0    1
 -2       282      5945       283
 -1      2137    7    0    1
 -2      4521      5660      1322
 -1      2138    7    0    1
 -2      2729      7245      4789
 -1      2139    7    0    1
 -2      3033      6304      3031
 -1      2140    7    0    1
 -2      4216      6611      4868
 -1      2141    7    0    1
 -2      4366      7217      4415
 -1      2142    7    0    1
 -2      6725      7457      4378
 -1      2143    7    0    1
 -2      5989      6500      2123
 -1      2144    7    0    1
 -2      2124      6501      5990
 -1      2145    7    0    1
 -2      4433      7444      5028
 -1      2146    7    0    1
 -2       566      4805       565
 -1      2147    7    0    1
 -2      3554      6764      1400
 -1      2148    7    0    1
 -2      2265      6945      6709
 -1      2149    7    0    1
 -2      1837      6606      6131
 -1      2150    7    0    1
 -2      1521      7165      1931
 -1      2151    7    0    1
 -2      5805      7166      1930
 -1      2152    7    0    1
 -2      4539      6332      3852
 -1      2153    7    0    1
 -2      4308      4833      4306
 -1      2154    7    0    1
 -2      4749      7194      2108
 -1      2155    7    0    1
 -2      4176      6635      5240
 -1      2156    7    0    1
 -2      4897      7292      3076
 -1      2157    7    0    1
 -2      3536      7032      5649
 -1      2158    7    0    1
 -2      3615      6575      3616
 -1      2159    7    0    1
 -2      4301      7037      5490
 -1      2160    7    0    1
 -2      1428      6851      4525
 -1      2161    7    0    1
 -2      4526      6852      1429
 -1      2162    7    0    1
 -2      2329      6717      4442
 -1      2163    7    0    1
 -2      4510      5425      1315
 -1      2164    7    0    1
 -2      1314      5423      4511
 -1      2165    7    0    1
 -2      4767      5933      3591
 -1      2166    7    0    1
 -2      4728      6304      1758
 -1      2167    7    0    1
 -2      4571      7292      4897
 -1      2168    7    0    1
 -2      1574      6535      2304
 -1      2169    7    0    1
 -2      3057      6462      4999
 -1      2170    7    0    1
 -2      1483      6538      2302
 -1      2171    7    0    1
 -2      1631      7014      4527
 -1      2172    7    0    1
 -2      5011      6367      1439
 -1      2173    7    0    1
 -2      1476      6929      4528
 -1      2174    7    0    1
 -2      4855      6374      2741
 -1      2175    7    0    1
 -2      2886      6017      4808
 -1      2176    7    0    1
 -2      6424      7202      4285
 -1      2177    7    0    1
 -2      1599      6708      4349
 -1      2178    7    0    1
 -2      4592      7186      2701
 -1      2179    7    0    1
 -2      4282      7191      4596
 -1      2180    7    0    1
 -2      4596      7190      4282
 -1      2181    7    0    1
 -2      3607      6646      2368
 -1      2182    7    0    1
 -2      1313      6522      4388
 -1      2183    7    0    1
 -2      2434      4835      2436
 -1      2184    7    0    1
 -2      4283      6585      2725
 -1      2185    7    0    1
 -2      3630      6589      1906
 -1      2186    7    0    1
 -2      5738      6891      5739
 -1      2187    7    0    1
 -2      5736      6890      5735
 -1      2188    7    0    1
 -2      4642      4645      4377
 -1      2189    7    0    1
 -2      5574      7098      6511
 -1      2190    7    0    1
 -2      1598      7220      4367
 -1      2191    7    0    1
 -2      3011      7013      6506
 -1      2192    7    0    1
 -2       826      7155      4264
 -1      2193    7    0    1
 -2       808      7156      4270
 -1      2194    7    0    1
 -2      4482      7053      6070
 -1      2195    7    0    1
 -2      1491      7180      5026
 -1      2196    7    0    1
 -2      5023      7179      1490
 -1      2197    7    0    1
 -2      5127      6197      4296
 -1      2198    7    0    1
 -2      4442      7105      2329
 -1      2199    7    0    1
 -2      5789      7203      1929
 -1      2200    7    0    1
 -2      6500      7345      2123
 -1      2201    7    0    1
 -2      2124      7346      6501
 -1      2202    7    0    1
 -2      2385      4832      4548
 -1      2203    7    0    1
 -2      4498      7240      4774
 -1      2204    7    0    1
 -2      1403      7118       963
 -1      2205    7    0    1
 -2      2438      4842      3516
 -1      2206    7    0    1
 -2      6575      7311      3616
 -1      2207    7    0    1
 -2      5995      6495      4526
 -1      2208    7    0    1
 -2      4525      6496      5994
 -1      2209    7    0    1
 -2      4368      6694      5545
 -1      2210    7    0    1
 -2      4767      6565      4813
 -1      2211    7    0    1
 -2      2706      3494      2705
 -1      2212    7    0    1
 -2      3441      5014      3444
 -1      2213    7    0    1
 -2      3205      4993      3207
 -1      2214    7    0    1
 -2      3337      4992      3339
 -1      2215    7    0    1
 -2      3795      5474      4800
 -1      2216    7    0    1
 -2      4533      6155      1443
 -1      2217    7    0    1
 -2      1322      5661      4521
 -1      2218    7    0    1
 -2      5477      5478      4477
 -1      2219    7    0    1
 -2      4834      6874      2837
 -1      2220    7    0    1
 -2      6077      6441      1538
 -1      2221    7    0    1
 -2      1539      6439      6078
 -1      2222    7    0    1
 -2      2346      5098      2743
 -1      2223    7    0    1
 -2      2350      5099      2747
 -1      2224    7    0    1
 -2      4422      6570      1551
 -1      2225    7    0    1
 -2      4423      6560      4424
 -1      2226    7    0    1
 -2      5134      6278      1422
 -1      2227    7    0    1
 -2      2348      5016      2751
 -1      2228    7    0    1
 -2       160      7028      6532
 -1      2229    7    0    1
 -2      5205      5799      1747
 -1      2230    7    0    1
 -2      5212      5798      1746
 -1      2231    7    0    1
 -2      4800      4837      4406
 -1      2232    7    0    1
 -2      3424      5008      3425
 -1      2233    7    0    1
 -2      5463      5823      1922
 -1      2234    7    0    1
 -2      2255      6909      4442
 -1      2235    7    0    1
 -2      2705      7467      3086
 -1      2236    7    0    1
 -2      4644      4751      4643
 -1      2237    7    0    1
 -2      4422      7088      6570
 -1      2238    7    0    1
 -2      5169      5231      3428
 -1      2239    7    0    1
 -2      5178      5232      3164
 -1      2240    7    0    1
 -2      5187      5230      3296
 -1      2241    7    0    1
 -2      4815      6609       440
 -1      2242    7    0    1
 -2       681      6610      4816
 -1      2243    7    0    1
 -2       381      7381      4741
 -1      2244    7    0    1
 -2      6845      7177      4589
 -1      2245    7    0    1
 -2      4587      7176      6846
 -1      2246    7    0    1
 -2      3081      7369      7188
 -1      2247    7    0    1
 -2      3085      7371      7189
 -1      2248    7    0    1
 -2      6059      6707      4673
 -1      2249    7    0    1
 -2      4395      4632      4631
 -1      2250    7    0    1
 -2      4469      6214      2078
 -1      2251    7    0    1
 -2      3429      6689      6050
 -1      2252    7    0    1
 -2      3165      6690      6051
 -1      2253    7    0    1
 -2      3297      6691      6052
 -1      2254    7    0    1
 -2      1725      6449      6334
 -1      2255    7    0    1
 -2      1724      6450      6335
 -1      2256    7    0    1
 -2      4841      7126      3463
 -1      2257    7    0    1
 -2      2142      6678      4538
 -1      2258    7    0    1
 -2      1532      6991      1298
 -1      2259    7    0    1
 -2      6070      7053      3065
 -1      2260    7    0    1
 -2      4434      7086      4435
 -1      2261    7    0    1
 -2      4774      7240      4775
 -1      2262    7    0    1
 -2      2129      6555      5573
 -1      2263    7    0    1
 -2      5524      6231      5523
 -1      2264    7    0    1
 -2      5414      6886       591
 -1      2265    7    0    1
 -2      5412      6885       499
 -1      2266    7    0    1
 -2      4360      5536      4358
 -1      2267    7    0    1
 -2      1387      7125      3389
 -1      2268    7    0    1
 -2      4887      6560      4418
 -1      2269    7    0    1
 -2      4550      4990      1464
 -1      2270    7    0    1
 -2      1308      6314      4938
 -1      2271    7    0    1
 -2      4976      6315      1307
 -1      2272    7    0    1
 -2       591      6941      5414
 -1      2273    7    0    1
 -2       499      6942      5412
 -1      2274    7    0    1
 -2      4799      6108      4800
 -1      2275    7    0    1
 -2      6823      6850      5716
 -1      2276    7    0    1
 -2      4602      7327      4245
 -1      2277    7    0    1
 -2      1505      6820      4613
 -1      2278    7    0    1
 -2      2064      6376       171
 -1      2279    7    0    1
 -2      4126      6916      4478
 -1      2280    7    0    1
 -2      6405      6624      4192
 -1      2281    7    0    1
 -2      2462      4613      2461
 -1      2282    7    0    1
 -2      5678      7387      5679
 -1      2283    7    0    1
 -2      6502      6704      6033
 -1      2284    7    0    1
 -2      4811      4812      3061
 -1      2285    7    0    1
 -2      5545      6408      4368
 -1      2286    7    0    1
 -2      4774      7476      4498
 -1      2287    7    0    1
 -2      3473      6692      3915
 -1      2288    7    0    1
 -2      6846      7176      1435
 -1      2289    7    0    1
 -2      1434      7177      6845
 -1      2290    7    0    1
 -2      4292      7313      6280
 -1      2291    7    0    1
 -2      4675      4697      4676
 -1      2292    7    0    1
 -2      4287      6863      4286
 -1      2293    7    0    1
 -2      4647      4668      4646
 -1      2294    7    0    1
 -2      3555      5862      3322
 -1      2295    7    0    1
 -2      4257      6605      6456
 -1      2296    7    0    1
 -2      4414      7006      3480
 -1      2297    7    0    1
 -2      5924      6904      1882
 -1      2298    7    0    1
 -2      1541      7046      6190
 -1      2299    7    0    1
 -2      4498      7476      2982
 -1      2300    7    0    1
 -2      6618      6919      3980
 -1      2301    7    0    1
 -2      1820      7002      4719
 -1      2302    7    0    1
 -2      4718      7001      1818
 -1      2303    7    0    1
 -2      3480      7006      2734
 -1      2304    7    0    1
 -2      4835      4842      2436
 -1      2305    7    0    1
 -2      4831      6733      4627
 -1      2306    7    0    1
 -2      4730      7222      2460
 -1      2307    7    0    1
 -2      4316      6214      4313
 -1      2308    7    0    1
 -2      4436      6636      1618
 -1      2309    7    0    1
 -2      6394      7091      5968
 -1      2310    7    0    1
 -2      1371      5653      1369
 -1      2311    7    0    1
 -2      3084      7156       808
 -1      2312    7    0    1
 -2      4592      7155       826
 -1      2313    7    0    1
 -2      5008      6867      1611
 -1      2314    7    0    1
 -2      4821      6217      3546
 -1      2315    7    0    1
 -2      4820      6219      3392
 -1      2316    7    0    1
 -2      4822      6218      3260
 -1      2317    7    0    1
 -2      1601      6318      4524
 -1      2318    7    0    1
 -2      4523      6319      1602
 -1      2319    7    0    1
 -2      1478      7131      4556
 -1      2320    7    0    1
 -2      3895      6302      3891
 -1      2321    7    0    1
 -2      1928      7054      6485
 -1      2322    7    0    1
 -2      4307      6820      6746
 -1      2323    7    0    1
 -2      1802      6358      4666
 -1      2324    7    0    1
 -2      4837      5474      3798
 -1      2325    7    0    1
 -2      4239      7023      4766
 -1      2326    7    0    1
 -2      4464      6624      6405
 -1      2327    7    0    1
 -2      4574      7167      3078
 -1      2328    7    0    1
 -2      4573      7168      3072
 -1      2329    7    0    1
 -2      3461      6451      4542
 -1      2330    7    0    1
 -2      2050      6277      5860
 -1      2331    7    0    1
 -2      1481      7520      4604
 -1      2332    7    0    1
 -2      4605      7521      1482
 -1      2333    7    0    1
 -2      1540      7252      6189
 -1      2334    7    0    1
 -2      5660      6094      1322
 -1      2335    7    0    1
 -2      3995      6702      6097
 -1      2336    7    0    1
 -2      4745      4801      2317
 -1      2337    7    0    1
 -2      3976      7241      6931
 -1      2338    7    0    1
 -2      1357      6331      5674
 -1      2339    7    0    1
 -2      1253      7391      3573
 -1      2340    7    0    1
 -2      4785      5341      4715
 -1      2341    7    0    1
 -2      2428      5342      4786
 -1      2342    7    0    1
 -2      4724      4725      4723
 -1      2343    7    0    1
 -2      6131      6606      3000
 -1      2344    7    0    1
 -2      1543      7066      6188
 -1      2345    7    0    1
 -2      1423      6268      5137
 -1      2346    7    0    1
 -2      4281      6686      4495
 -1      2347    7    0    1
 -2      4867      6398      1418
 -1      2348    7    0    1
 -2      6807      7247      5556
 -1      2349    7    0    1
 -2      6709      6945      5048
 -1      2350    7    0    1
 -2      6519      6953      5198
 -1      2351    7    0    1
 -2      2497      7370      4293
 -1      2352    7    0    1
 -2      6343      6400      1353
 -1      2353    7    0    1
 -2      4643      4751      4645
 -1      2354    7    0    1
 -2      4598      2280      1349
 -1      2355    7    0    1
 -2       757      6273      4696
 -1      2356    7    0    1
 -2      4768      4842      1713
 -1      2357    7    0    1
 -2      5678      6156      1333
 -1      2358    7    0    1
 -2      2706      3493      4674
 -1      2359    7    0    1
 -2      7188      7369      4593
 -1      2360    7    0    1
 -2      7189      7371      4594
 -1      2361    7    0    1
 -2      5050      6897      4291
 -1      2362    7    0    1
 -2      4489      6897      5050
 -1      2363    7    0    1
 -2      5860      6277      4463
 -1      2364    7    0    1
 -2      1400      6764      5937
 -1      2365    7    0    1
 -2      2427      7287      4701
 -1      2366    7    0    1
 -2       561      6777      6726
 -1      2367    7    0    1
 -2      3971      5659      5655
 -1      2368    7    0    1
 -2      4755      6730      4365
 -1      2369    7    0    1
 -2      5368      6957      6524
 -1      2370    7    0    1
 -2      1418      6398      3631
 -1      2371    7    0    1
 -2      4542      6839      3461
 -1      2372    7    0    1
 -2      5416      6907       545
 -1      2373    7    0    1
 -2      4451      6226      4399
 -1      2374    7    0    1
 -2      1578      7089      5936
 -1      2375    7    0    1
 -2      5796      7374      1597
 -1      2376    7    0    1
 -2       545      6949      5416
 -1      2377    7    0    1
 -2      4743      4744      4742
 -1      2378    7    0    1
 -2      5216      6562      1933
 -1      2379    7    0    1
 -2      5209      6561      1932
 -1      2380    7    0    1
 -2      5001      6452      2105
 -1      2381    7    0    1
 -2       243      5797       244
 -1      2382    7    0    1
 -2      1597      6773      5796
 -1      2383    7    0    1
 -2      4672      4838      4669
 -1      2384    7    0    1
 -2      4669      4838      2240
 -1      2385    7    0    1
 -2      6678      7497      4538
 -1      2386    7    0    1
 -2      7280      7452      4569
 -1      2387    7    0    1
 -2      7281      7453      4570
 -1      2388    7    0    1
 -2      4260      5017      2289
 -1      2389    7    0    1
 -2      1315      7226      4510
 -1      2390    7    0    1
 -2      4511      7227      1314
 -1      2391    7    0    1
 -2      4490      6896      6197
 -1      2392    7    0    1
 -2      4735      7209      4664
 -1      2393    7    0    1
 -2      2466      6666      4608
 -1      2394    7    0    1
 -2      1630      5013       837
 -1      2395    7    0    1
 -2      5001      6407      4682
 -1      2396    7    0    1
 -2      6931      7241      2290
 -1      2397    7    0    1
 -2      2281      4886      4616
 -1      2398    7    0    1
 -2      1422      7282      5134
 -1      2399    7    0    1
 -2      4794      6771      2143
 -1      2400    7    0    1
 -2      2144      6772      4797
 -1      2401    7    0    1
 -2      6197      6896      1902
 -1      2402    7    0    1
 -2      5769      6022      1530
 -1      2403    7    0    1
 -2      1529      6023      5771
 -1      2404    7    0    1
 -2      4869      7327      1427
 -1      2405    7    0    1
 -2       601      6872      5363
 -1      2406    7    0    1
 -2       509      6873      5365
 -1      2407    7    0    1
 -2      1530      7330      5908
 -1      2408    7    0    1
 -2      5904      7331      1529
 -1      2409    7    0    1
 -2      4287      7469      4295
 -1      2410    7    0    1
 -2      3128      6391      2893
 -1      2411    7    0    1
 -2      4477      6776      4134
 -1      2412    7    0    1
 -2      4531      7413      3082
 -1      2413    7    0    1
 -2      4532      7414      3083
 -1      2414    7    0    1
 -2       148      5659       149
 -1      2415    7    0    1
 -2      4306      4833      4548
 -1      2416    7    0    1
 -2      1747      6750      5205
 -1      2417    7    0    1
 -2      1746      6751      5212
 -1      2418    7    0    1
 -2      6512      7204      5572
 -1      2419    7    0    1
 -2      5363      6989       601
 -1      2420    7    0    1
 -2      5365      6988       509
 -1      2421    7    0    1
 -2      4614      6094      5660
 -1      2422    7    0    1
 -2      4690      6814      4733
 -1      2423    7    0    1
 -2      4365      7403      4755
 -1      2424    7    0    1
 -2      3594      7252      1540
 -1      2425    7    0    1
 -2      3059      6831      4729
 -1      2426    7    0    1
 -2      4728      6832      3035
 -1      2427    7    0    1
 -2      5013      5014      3440
 -1      2428    7    0    1
 -2      2838      4834      2837
 -1      2429    7    0    1
 -2      4521      5661      5658
 -1      2430    7    0    1
 -2      1550      7219      5803
 -1      2431    7    0    1
 -2      4938      7141      1308
 -1      2432    7    0    1
 -2      1307      7142      4976
 -1      2433    7    0    1
 -2      2724      6895      6482
 -1      2434    7    0    1
 -2      5605      5606      1492
 -1      2435    7    0    1
 -2      4401      6573      4402
 -1      2436    7    0    1
 -2      1369      5653      4499
 -1      2437    7    0    1
 -2      4702      4704      2427
 -1      2438    7    0    1
 -2      2426      4707      4705
 -1      2439    7    0    1
 -2      4581      6231      5524
 -1      2440    7    0    1
 -2      4674      3494      2706
 -1      2441    7    0    1
 -2      4646      4668      2240
 -1      2442    7    0    1
 -2      2052      6072      4750
 -1      2443    7    0    1
 -2      4671      6676      4672
 -1      2444    7    0    1
 -2      3928      6696      6395
 -1      2445    7    0    1
 -2      1334      5669      5668
 -1      2446    7    0    1
 -2      4536      6986      2826
 -1      2447    7    0    1
 -2      2827      6987      4537
 -1      2448    7    0    1
 -2      3081      7188      4294
 -1      2449    7    0    1
 -2      3122      7191      4282
 -1      2450    7    0    1
 -2      2701      7186      4289
 -1      2451    7    0    1
 -2      3121      7190      4596
 -1      2452    7    0    1
 -2      3085      7189      4310
 -1      2453    7    0    1
 -2      4675      4676      1535
 -1      2454    7    0    1
 -2      1741      4722      4720
 -1      2455    7    0    1
 -2      5291      6923      6048
 -1      2456    7    0    1
 -2      6049      6924      5293
 -1      2457    7    0    1
 -2      5803      6651      1550
 -1      2458    7    0    1
 -2      5606      5607      1492
 -1      2459    7    0    1
 -2      1432      4539      4342
 -1      2460    7    0    1
 -2      1881      7023      6370
 -1      2461    7    0    1
 -2      6417      6428      2306
 -1      2462    7    0    1
 -2      7208      7270      5721
 -1      2463    7    0    1
 -2      6506      7013      1570
 -1      2464    7    0    1
 -2      4416      4607      1572
 -1      2465    7    0    1
 -2      6708      6788      4349
 -1      2466    7    0    1
 -2      6018      6574      1626
 -1      2467    7    0    1
 -2      4441      6909      6566
 -1      2468    7    0    1
 -2      1060      7280      4569
 -1      2469    7    0    1
 -2      1023      7281      4570
 -1      2470    7    0    1
 -2      2207      6407      6210
 -1      2471    7    0    1
 -2      3604      6589      3600
 -1      2472    7    0    1
 -2      2317      4801       735
 -1      2473    7    0    1
 -2      4817      6370      4240
 -1      2474    7    0    1
 -2      2826      6808      4536
 -1      2475    7    0    1
 -2      4537      6809      2827
 -1      2476    7    0    1
 -2      6479      7326      4250
 -1      2477    7    0    1
 -2      1464      7229      4552
 -1      2478    7    0    1
 -2      4556      6669      1478
 -1      2479    7    0    1
 -2      4470      7257      7103
 -1      2480    7    0    1
 -2      4673      6707      1687
 -1      2481    7    0    1
 -2      1577      7270      7208
 -1      2482    7    0    1
 -2       759      4675      1535
 -1      2483    7    0    1
 -2       356      4646      2240
 -1      2484    7    0    1
 -2      2066      5613      5611
 -1      2485    7    0    1
 -2       763      4702      2427
 -1      2486    7    0    1
 -2      2426      4705       353
 -1      2487    7    0    1
 -2      5679      7387       204
 -1      2488    7    0    1
 -2      5783      7395      1569
 -1      2489    7    0    1
 -2      5785      7396      1567
 -1      2490    7    0    1
 -2      5787      7397      1568
 -1      2491    7    0    1
 -2      2277      4811      4747
 -1      2492    7    0    1
 -2      1806      6850      6823
 -1      2493    7    0    1
 -2      5556      7510      6807
 -1      2494    7    0    1
 -2      4290      5905      1598
 -1      2495    7    0    1
 -2      4403      7326      1404
 -1      2496    7    0    1
 -2      4431      6695      6515
 -1      2497    7    0    1
 -2      1933      7041      5216
 -1      2498    7    0    1
 -2      1932      7040      5209
 -1      2499    7    0    1
 -2       204      7003      5679
 -1      2500    7    0    1
 -2      5222      6750      1747
 -1      2501    7    0    1
 -2      5220      6751      1746
 -1      2502    7    0    1
 -2      4264      6650      4265
 -1      2503    7    0    1
 -2      5027      6743      6613
 -1      2504    7    0    1
 -2      6614      6737      5024
 -1      2505    7    0    1
 -2      2771      7156      4591
 -1      2506    7    0    1
 -2      3533      6689      4770
 -1      2507    7    0    1
 -2      3251      6690      4771
 -1      2508    7    0    1
 -2      3383      6691      4772
 -1      2509    7    0    1
 -2      7103      7257      1479
 -1      2510    7    0    1
 -2      6097      6702      4852
 -1      2511    7    0    1
 -2      5093      6071      4566
 -1      2512    7    0    1
 -2      2047      6457      6191
 -1      2513    7    0    1
 -2      2701      7155      4592
 -1      2514    7    0    1
 -2      1537      6792      6765
 -1      2515    7    0    1
 -2      6766      6793      1536
 -1      2516    7    0    1
 -2       129      6693      4558
 -1      2517    7    0    1
 -2      4671      7337      6676
 -1      2518    7    0    1
 -2      1818      4785      4715
 -1      2519    7    0    1
 -2      2428      4786      1820
 -1      2520    7    0    1
 -2      3486      6687      4527
 -1      2521    7    0    1
 -2      4828      6304      3033
 -1      2522    7    0    1
 -2      2436      4842      2438
 -1      2523    7    0    1
 -2      4588      5002      1485
 -1      2524    7    0    1
 -2      1484      5005      4586
 -1      2525    7    0    1
 -2      5906      7197      6721
 -1      2526    7    0    1
 -2      6280      6605      4255
 -1      2527    7    0    1
 -2      3575      7091      3576
 -1      2528    7    0    1
 -2      3949      7409      4557
 -1      2529    7    0    1
 -2      4645      4726      4377
 -1      2530    7    0    1
 -2      4720      4721      1537
 -1      2531    7    0    1
 -2      1536      4724      4723
 -1      2532    7    0    1
 -2      5614      6475      2130
 -1      2533    7    0    1
 -2      2059      6098      5667
 -1      2534    7    0    1
 -2      6017      6899      4808
 -1      2535    7    0    1
 -2      4357      7348      1403
 -1      2536    7    0    1
 -2      6532      7028      3970
 -1      2537    7    0    1
 -2      4242      6929      4641
 -1      2538    7    0    1
 -2      4627      6778      1397
 -1      2539    7    0    1
 -2      1580      4834      3128
 -1      2540    7    0    1
 -2      1602      7358      4523
 -1      2541    7    0    1
 -2      4524      7357      1601
 -1      2542    7    0    1
 -2      5244      6905      6553
 -1      2543    7    0    1
 -2      1389      6694      4368
 -1      2544    7    0    1
 -2      6551      6902      5243
 -1      2545    7    0    1
 -2      1741      6238      4722
 -1      2546    7    0    1
 -2      4533      6699      6155
 -1      2547    7    0    1
 -2      3890      4824      3892
 -1      2548    7    0    1
 -2       626      5784       625
 -1      2549    7    0    1
 -2       534      5786       533
 -1      2550    7    0    1
 -2       580      5788       579
 -1      2551    7    0    1
 -2      6482      6895      4488
 -1      2552    7    0    1
 -2      1818      4715       372
 -1      2553    7    0    1
 -2       744      2428      1820
 -1      2554    7    0    1
 -2      1820      4719       743
 -1      2555    7    0    1
 -2       373      4718      1818
 -1      2556    7    0    1
 -2      1604      6311      4894
 -1      2557    7    0    1
 -2      1603      6309      4895
 -1      2558    7    0    1
 -2      5836      6622      3114
 -1      2559    7    0    1
 -2      3115      6623      5838
 -1      2560    7    0    1
 -2      4770      6689      1546
 -1      2561    7    0    1
 -2      4771      6690      1547
 -1      2562    7    0    1
 -2      4772      6691      1545
 -1      2563    7    0    1
 -2      3259      7452      7280
 -1      2564    7    0    1
 -2      3391      7453      7281
 -1      2565    7    0    1
 -2      3390      5819      4483
 -1      2566    7    0    1
 -2      3258      5820      4484
 -1      2567    7    0    1
 -2       367      4720      1537
 -1      2568    7    0    1
 -2      1536      4723       749
 -1      2569    7    0    1
 -2      4358      5536      4363
 -1      2570    7    0    1
 -2       934      7327      4602
 -1      2571    7    0    1
 -2      4581      5524      3853
 -1      2572    7    0    1
 -2      1758      4828      4748
 -1      2573    7    0    1
 -2      4987      7463      1921
 -1      2574    7    0    1
 -2      4989      7464      1925
 -1      2575    7    0    1
 -2      2276      4743      4742
 -1      2576    7    0    1
 -2      2288      7248      4290
 -1      2577    7    0    1
 -2      4641      3485      4242
 -1      2578    7    0    1
 -2       740      4728      1758
 -1      2579    7    0    1
 -2      1757      4729       376
 -1      2580    7    0    1
 -2      4699      6452      5001
 -1      2581    7    0    1
 -2      5551      6763      6599
 -1      2582    7    0    1
 -2      4610      6351      3131
 -1      2583    7    0    1
 -2      4609      6350      3395
 -1      2584    7    0    1
 -2      4611      6352      3263
 -1      2585    7    0    1
 -2      4604      6262      1481
 -1      2586    7    0    1
 -2      1482      6263      4605
 -1      2587    7    0    1
 -2      1618      6290      4419
 -1      2588    7    0    1
 -2      2135      7240      5838
 -1      2589    7    0    1
 -2      2316      4737       380
 -1      2590    7    0    1
 -2      2276      4742       737
 -1      2591    7    0    1
 -2      2277      4747       378
 -1      2592    7    0    1
 -2      1758      4748       739
 -1      2593    7    0    1
 -2      4279      6904      5924
 -1      2594    7    0    1
 -2      6527      6765      3087
 -1      2595    7    0    1
 -2      3089      6766      6528
 -1      2596    7    0    1
 -2      5013      7385       837
 -1      2597    7    0    1
 -2      1757      6462      4729
 -1      2598    7    0    1
 -2      6573      7100      4402
 -1      2599    7    0    1
 -2      4378      7067      5548
 -1      2600    7    0    1
 -2      1687      7251      4673
 -1      2601    7    0    1
 -2      5137      7283      1423
 -1      2602    7    0    1
 -2      5988      6683      5626
 -1      2603    7    0    1
 -2      5625      6684      5987
 -1      2604    7    0    1
 -2      2078      6213      4334
 -1      2605    7    0    1
 -2      2295      6373      4522
 -1      2606    7    0    1
 -2      4580      6362      2734
 -1      2607    7    0    1
 -2      7140      7206       142
 -1      2608    7    0    1
 -2      1747      7238      5222
 -1      2609    7    0    1
 -2      1746      7239      5220
 -1      2610    7    0    1
 -2      4549      7286      4613
 -1      2611    7    0    1
 -2      6511      7098      3036
 -1      2612    7    0    1
 -2      4557      6875      3949
 -1      2613    7    0    1
 -2      4575      6658      1727
 -1      2614    7    0    1
 -2      1726      6657      4577
 -1      2615    7    0    1
 -2      4785      7210      5341
 -1      2616    7    0    1
 -2      5342      7211      4786
 -1      2617    7    0    1
 -2      5816      6146      6139
 -1      2618    7    0    1
 -2      6140      6145      5814
 -1      2619    7    0    1
 -2      4156      4644      4643
 -1      2620    7    0    1
 -2      4331      6611      4620
 -1      2621    7    0    1
 -2      3389      6934      1387
 -1      2622    7    0    1
 -2      4673      7251      4666
 -1      2623    7    0    1
 -2      3931      3473      3915
 -1      2624    7    0    1
 -2      4264      7155      6650
 -1      2625    7    0    1
 -2       280      6844      6668
 -1      2626    7    0    1
 -2      6667      6843        99
 -1      2627    7    0    1
 -2      1798      7388      5253
 -1      2628    7    0    1
 -2      4520      7206      7140
 -1      2629    7    0    1
 -2      2040      6122      4629
 -1      2630    7    0    1
 -2      4630      6121      2039
 -1      2631    7    0    1
 -2      3580      6701      1628
 -1      2632    7    0    1
 -2      4442      6717      2255
 -1      2633    7    0    1
 -2      4261      6877      4262
 -1      2634    7    0    1
 -2      4852      7459      6097
 -1      2635    7    0    1
 -2      4826      7069      3118
 -1      2636    7    0    1
 -2      3120      7070      4827
 -1      2637    7    0    1
 -2      6786      7091      3575
 -1      2638    7    0    1
 -2      5401      6173      3539
 -1      2639    7    0    1
 -2      5400      6175      3256
 -1      2640    7    0    1
 -2      5399      6174      3388
 -1      2641    7    0    1
 -2      3518      7316      4612
 -1      2642    7    0    1
 -2      4175      4994      4176
 -1      2643    7    0    1
 -2      6325      6444      2057
 -1      2644    7    0    1
 -2      6681      7017      5355
 -1      2645    7    0    1
 -2      5615      7221      4740
 -1      2646    7    0    1
 -2      3086      6527      3087
 -1      2647    7    0    1
 -2      3089      6528      3088
 -1      2648    7    0    1
 -2      4453      6919      6618
 -1      2649    7    0    1
 -2      6746      6820      4328
 -1      2650    7    0    1
 -2      7109      7173      5740
 -1      2651    7    0    1
 -2      4672      7030      4838
 -1      2652    7    0    1
 -2      4368      6408      1402
 -1      2653    7    0    1
 -2      6642      6656      2687
 -1      2654    7    0    1
 -2      6745      6877      4261
 -1      2655    7    0    1
 -2      2725      6585      4599
 -1      2656    7    0    1
 -2      3614      7364      1071
 -1      2657    7    0    1
 -2      1510      6953      6519
 -1      2658    7    0    1
 -2      1008      7366      4344
 -1      2659    7    0    1
 -2      2871      5000      4802
 -1      2660    7    0    1
 -2      6637      7458      4746
 -1      2661    7    0    1
 -2      4558      7367       129
 -1      2662    7    0    1
 -2      3544      5818      4493
 -1      2663    7    0    1
 -2      3531      5993      4836
 -1      2664    7    0    1
 -2      4309      6898      4302
 -1      2665    7    0    1
 -2      4582      6552      4156
 -1      2666    7    0    1
 -2      3059      6462      3055
 -1      2667    7    0    1
 -2      1817      4563      3563
 -1      2668    7    0    1
 -2      1814      4561      3564
 -1      2669    7    0    1
 -2      1815      4559      3562
 -1      2670    7    0    1
 -2      3089      6793      6766
 -1      2671    7    0    1
 -2      6765      6792      3087
 -1      2672    7    0    1
 -2      1716      4804      3574
 -1      2673    7    0    1
 -2      4758      6642      3002
 -1      2674    7    0    1
 -2      1613      4468      3567
 -1      2675    7    0    1
 -2      5307      7473      2181
 -1      2676    7    0    1
 -2      5300      7475      2185
 -1      2677    7    0    1
 -2      5314      7474      2189
 -1      2678    7    0    1
 -2      6721      7197      4505
 -1      2679    7    0    1
 -2      2372      4875      2973
 -1      2680    7    0    1
 -2      2972      4876      2371
 -1      2681    7    0    1
 -2      4994      6635      4176
 -1      2682    7    0    1
 -2      6597      6742       269
 -1      2683    7    0    1
 -2       110      6741      6596
 -1      2684    7    0    1
 -2      5051      6469      2046
 -1      2685    7    0    1
 -2      1252      3573      3572
 -1      2686    7    0    1
 -2      5234      7101      7083
 -1      2687    7    0    1
 -2      4636      7299      7172
 -1      2688    7    0    1
 -2        97      5940      1506
 -1      2689    7    0    1
 -2      1396      5945       282
 -1      2690    7    0    1
 -2      1209      3569      3568
 -1      2691    7    0    1
 -2      2866      6394      5968
 -1      2692    7    0    1
 -2      3057      4999      3061
 -1      2693    7    0    1
 -2      4880      7448      2744
 -1      2694    7    0    1
 -2      4598      4749      4446
 -1      2695    7    0    1
 -2      5614      7315      4788
 -1      2696    7    0    1
 -2      2367      4888      4486
 -1      2697    7    0    1
 -2      2370      4889      4485
 -1      2698    7    0    1
 -2      2369      4890      4487
 -1      2699    7    0    1
 -2      1596      7173      7109
 -1      2700    7    0    1
 -2      2057      6094      4614
 -1      2701    7    0    1
 -2      4825      6444      6325
 -1      2702    7    0    1
 -2      4445      4448      4444
 -1      2703    7    0    1
 -2      4776      7232      2367
 -1      2704    7    0    1
 -2      4454      6958      2755
 -1      2705    7    0    1
 -2      2756      6959      4455
 -1      2706    7    0    1
 -2      1332      6429      4637
 -1      2707    7    0    1
 -2      4638      6430      1391
 -1      2708    7    0    1
 -2      4891      7299      4636
 -1      2709    7    0    1
 -2      7083      7101      1753
 -1      2710    7    0    1
 -2      6037      6361      2231
 -1      2711    7    0    1
 -2      2211      4617      4288
 -1      2712    7    0    1
 -2      2081      4773      4712
 -1      2713    7    0    1
 -2      2121      3973      3972
 -1      2714    7    0    1
 -2      4251      4534      4297
 -1      2715    7    0    1
 -2      4724      6502      4725
 -1      2716    7    0    1
 -2      4297      2332      1884
 -1      2717    7    0    1
 -2      1841      4829      4337
 -1      2718    7    0    1
 -2      5836      7058      6622
 -1      2719    7    0    1
 -2      6623      7059      5838
 -1      2720    7    0    1
 -2      1331      4358      4357
 -1      2721    7    0    1
 -2      4337      4824      1390
 -1      2722    7    0    1
 -2      1297      4353      4352
 -1      2723    7    0    1
 -2      1727      7392      4575
 -1      2724    7    0    1
 -2      4577      7393      1726
 -1      2725    7    0    1
 -2      4792      7011      2412
 -1      2726    7    0    1
 -2      5291      6048      2784
 -1      2727    7    0    1
 -2        40      4365      4364
 -1      2728    7    0    1
 -2      3957      4839      3956
 -1      2729    7    0    1
 -2      2785      6049      5293
 -1      2730    7    0    1
 -2      1421      4451      4399
 -1      2731    7    0    1
 -2      4302      6898      1903
 -1      2732    7    0    1
 -2      2744      7426      4880
 -1      2733    7    0    1
 -2      2303      3632      1559
 -1      2734    7    0    1
 -2      1505      4613      4366
 -1      2735    7    0    1
 -2      1457      4384      4383
 -1      2736    7    0    1
 -2      4706      6680      4810
 -1      2737    7    0    1
 -2      1477      4621      4375
 -1      2738    7    0    1
 -2      5015      6679      4703
 -1      2739    7    0    1
 -2      4535      4799      1458
 -1      2740    7    0    1
 -2      1552      4404      4403
 -1      2741    7    0    1
 -2      4421      4422      1551
 -1      2742    7    0    1
 -2      4396      4803      1619
 -1      2743    7    0    1
 -2      6486      6812      4272
 -1      2744    7    0    1
 -2      4425      4627      1397
 -1      2745    7    0    1
 -2      4423      4424      1631
 -1      2746    7    0    1
 -2      1373      6678      4579
 -1      2747    7    0    1
 -2      1891      4831      4425
 -1      2748    7    0    1
 -2      2142      4538      4427
 -1      2749    7    0    1
 -2      4708      6294      1446
 -1      2750    7    0    1
 -2      1393      6295      4709
 -1      2751    7    0    1
 -2      4443      4446      2108
 -1      2752    7    0    1
 -2      2143      4795      4793
 -1      2753    7    0    1
 -2      4796      4798      2144
 -1      2754    7    0    1
 -2      4838      7030      2426
 -1      2755    7    0    1
 -2      2204      4444      4443
 -1      2756    7    0    1
 -2      2205      4438      4437
 -1      2757    7    0    1
 -2      2064      7090      5559
 -1      2758    7    0    1
 -2      3972      7404      2431
 -1      2759    7    0    1
 -2      4437      4440      2420
 -1      2760    7    0    1
 -2      6243      7374      5970
 -1      2761    7    0    1
 -2      6524      6957      1512
 -1      2762    7    0    1
 -2      1716      6659      6040
 -1      2763    7    0    1
 -2      6992      7311      3235
 -1      2764    7    0    1
 -2      3036      6475      3037
 -1      2765    7    0    1
 -2      1578      7280      1060
 -1      2766    7    0    1
 -2      1400      7281      1023
 -1      2767    7    0    1
 -2      2755      7096      4454
 -1      2768    7    0    1
 -2      4455      7097      2756
 -1      2769    7    0    1
 -2      6582      6608      5352
 -1      2770    7    0    1
 -2      4543      7326      4403
 -1      2771    7    0    1
 -2      6156      6715      1333
 -1      2772    7    0    1
 -2      2250      6608      6582
 -1      2773    7    0    1
 -2      2702      7069      4826
 -1      2774    7    0    1
 -2      4827      7070      2301
 -1      2775    7    0    1
 -2      5559      7362      2064
 -1      2776    7    0    1
 -2      4586      6557      1484
 -1      2777    7    0    1
 -2      1485      6556      4588
 -1      2778    7    0    1
 -2      3207      4993      3236
 -1      2779    7    0    1
 -2      3339      4992      3368
 -1      2780    7    0    1
 -2      5838      7240      4498
 -1      2781    7    0    1
 -2      6579      6705      1463
 -1      2782    7    0    1
 -2      5490      6796      4301
 -1      2783    7    0    1
 -2      2200      7167      4574
 -1      2784    7    0    1
 -2      2199      7168      4573
 -1      2785    7    0    1
 -2      3904      6522      3900
 -1      2786    7    0    1
 -2      4893      6958      4454
 -1      2787    7    0    1
 -2      4455      6959      4892
 -1      2788    7    0    1
 -2      4809      6830      2948
 -1      2789    7    0    1
 -2      5104      6399      1710
 -1      2790    7    0    1
 -2      5612      6385      2066
 -1      2791    7    0    1
 -2      3118      7322      1214
 -1      2792    7    0    1
 -2      2411      7024      4790
 -1      2793    7    0    1
 -2      4478      7212      4126
 -1      2794    7    0    1
 -2      1392      6476      5748
 -1      2795    7    0    1
 -2      5751      6477      1433
 -1      2796    7    0    1
 -2      1544      3578      1275
 -1      2797    7    0    1
 -2      4736      7316      3518
 -1      2798    7    0    1
 -2      3566      6874      4834
 -1      2799    7    0    1
 -2      2985      6996      4616
 -1      2800    7    0    1
 -2      4730      7178      6688
 -1      2801    7    0    1
 -2      1446      6771      4794
 -1      2802    7    0    1
 -2      4797      6772      1393
 -1      2803    7    0    1
 -2      4254      6435      4618
 -1      2804    7    0    1
 -2      4288      6812      4759
 -1      2805    7    0    1
 -2      1256      3593      2080
 -1      2806    7    0    1
 -2      4696      7325       757
 -1      2807    7    0    1
 -2      1581      6533      4547
 -1      2808    7    0    1
 -2      1213      3604      2300
 -1      2809    7    0    1
 -2      5467      7007      6970
 -1      2810    7    0    1
 -2      6585      7313      2455
 -1      2811    7    0    1
 -2       996      4277      2286
 -1      2812    7    0    1
 -2      1107      4323      2414
 -1      2813    7    0    1
 -2        34      4332      1430
 -1      2814    7    0    1
 -2      1262      4314      2308
 -1      2815    7    0    1
 -2      4313      6214      4312
 -1      2816    7    0    1
 -2      4266      6710      4617
 -1      2817    7    0    1
 -2      1115      4392      1527
 -1      2818    7    0    1
 -2      4604      7520      4761
 -1      2819    7    0    1
 -2      4762      7521      4605
 -1      2820    7    0    1
 -2      4614      6325      2057
 -1      2821    7    0    1
 -2      1560      7106      5797
 -1      2822    7    0    1
 -2        28      4433      2257
 -1      2823    7    0    1
 -2      5359      6577      6563
 -1      2824    7    0    1
 -2      3205      5101      4993
 -1      2825    7    0    1
 -2      3337      5102      4992
 -1      2826    7    0    1
 -2      3576      7091      6394
 -1      2827    7    0    1
 -2      3519      7046      4736
 -1      2828    7    0    1
 -2      6540      6569      4871
 -1      2829    7    0    1
 -2      4327      7108      4619
 -1      2830    7    0    1
 -2      6726      6777      5032
 -1      2831    7    0    1
 -2      2465      5100      4754
 -1      2832    7    0    1
 -2      1499      6934      5949
 -1      2833    7    0    1
 -2      1813      6512      5572
 -1      2834    7    0    1
 -2      5574      6511      1811
 -1      2835    7    0    1
 -2      2367      7232      4888
 -1      2836    7    0    1
 -2      4363      7348      4357
 -1      2837    7    0    1
 -2      6155      6699      2062
 -1      2838    7    0    1
 -2      4620      6611      4208
 -1      2839    7    0    1
 -2      2736      6863      4600
 -1      2840    7    0    1
 -2      6563      6577      1556
 -1      2841    7    0    1
 -2      1626      2043      6018
 -1      2842    7    0    1
 -2      3422      6217      3429
 -1      2843    7    0    1
 -2      3158      6218      3165
 -1      2844    7    0    1
 -2      3290      6219      3297
 -1      2845    7    0    1
 -2      4769      6738      3920
 -1      2846    7    0    1
 -2      2106      6720      4814
 -1      2847    7    0    1
 -2      3463      6510      3464
 -1      2848    7    0    1
 -2      1205      7412      3561
 -1      2849    7    0    1
 -2      4599      6920      2725
 -1      2850    7    0    1
 -2      4600      6920      2736
 -1      2851    7    0    1
 -2      4807      6254      1317
 -1      2852    7    0    1
 -2      1388      6253      4806
 -1      2853    7    0    1
 -2      4263      5017      4260
 -1      2854    7    0    1
 -2      1587      5278      5277
 -1      2855    7    0    1
 -2      1588      5290      5289
 -1      2856    7    0    1
 -2      3951      6705      6579
 -1      2857    7    0    1
 -2      2512      6383      5203
 -1      2858    7    0    1
 -2       755      4733       754
 -1      2859    7    0    1
 -2      3250      5992      4857
 -1      2860    7    0    1
 -2      3382      5991      4858
 -1      2861    7    0    1
 -2      5414      6941      5271
 -1      2862    7    0    1
 -2      5412      6942      5283
 -1      2863    7    0    1
 -2      6882      7178      3488
 -1      2864    7    0    1
 -2      5573      6674      2217
 -1      2865    7    0    1
 -2       729      6664      4746
 -1      2866    7    0    1
 -2      5222      6334      3323
 -1      2867    7    0    1
 -2      5220      6335      3191
 -1      2868    7    0    1
 -2      4876      6935      2371
 -1      2869    7    0    1
 -2      2372      6936      4875
 -1      2870    7    0    1
 -2      6710      6812      4288
 -1      2871    7    0    1
 -2      1743      6569      6540
 -1      2872    7    0    1
 -2      1617      4887      4418
 -1      2873    7    0    1
 -2      2424      4810      4713
 -1      2874    7    0    1
 -2      3368      4992      4780
 -1      2875    7    0    1
 -2      3236      4993      4779
 -1      2876    7    0    1
 -2      4571      4897      1622
 -1      2877    7    0    1
 -2      4573      4896      1624
 -1      2878    7    0    1
 -2      4572      4898      1625
 -1      2879    7    0    1
 -2      4574      4899      1623
 -1      2880    7    0    1
 -2      4724      6704      6502
 -1      2881    7    0    1
 -2      4743      6637      4744
 -1      2882    7    0    1
 -2      4680      6273      4677
 -1      2883    7    0    1
 -2      1904      7185      6641
 -1      2884    7    0    1
 -2      1427      7327       934
 -1      2885    7    0    1
 -2      3578      7421      1275
 -1      2886    7    0    1
 -2      4377      6727      4642
 -1      2887    7    0    1
 -2      2412      6822      4792
 -1      2888    7    0    1
 -2      4462      6749      5837
 -1      2889    7    0    1
 -2      4740      7221      4739
 -1      2890    7    0    1
 -2      4780      4992      1711
 -1      2891    7    0    1
 -2      4779      4993      1712
 -1      2892    7    0    1
 -2      4371      6727      4621
 -1      2893    7    0    1
 -2      1486      7440      4541
 -1      2894    7    0    1
 -2      1256      7434      3593
 -1      2895    7    0    1
 -2      4822      7428      1052
 -1      2896    7    0    1
 -2      4821      7427       830
 -1      2897    7    0    1
 -2      4820      7429      1015
 -1      2898    7    0    1
 -2      6187      6231      1312
 -1      2899    7    0    1
 -2       996      7436      4277
 -1      2900    7    0    1
 -2      1107      7437      4323
 -1      2901    7    0    1
 -2      6970      7007      4394
 -1      2902    7    0    1
 -2      2241      5140      4698
 -1      2903    7    0    1
 -2        34      7438      4332
 -1      2904    7    0    1
 -2      1262      7439      4314
 -1      2905    7    0    1
 -2      4817      6915      6370
 -1      2906    7    0    1
 -2      4817      7248      2288
 -1      2907    7    0    1
 -2      1714      5008      1611
 -1      2908    7    0    1
 -2      6217      6689      3429
 -1      2909    7    0    1
 -2      6218      6690      3165
 -1      2910    7    0    1
 -2      6219      6691      3297
 -1      2911    7    0    1
 -2      1115      7441      4392
 -1      2912    7    0    1
 -2      1613      6279      4468
 -1      2913    7    0    1
 -2      3046      4863      3047
 -1      2914    7    0    1
 -2      3023      4864      3022
 -1      2915    7    0    1
 -2      4893      7401      6958
 -1      2916    7    0    1
 -2      6959      7402      4892
 -1      2917    7    0    1
 -2      6680      7039      4810
 -1      2918    7    0    1
 -2        28      7444      4433
 -1      2919    7    0    1
 -2      5015      7042      6679
 -1      2920    7    0    1
 -2      4872      6545      6529
 -1      2921    7    0    1
 -2      1487      4994      4396
 -1      2922    7    0    1
 -2      4800      6108      3795
 -1      2923    7    0    1
 -2      4442      6909      4440
 -1      2924    7    0    1
 -2      3037      4828      3033
 -1      2925    7    0    1
 -2      2728      4792      4791
 -1      2926    7    0    1
 -2      2985      4886      4497
 -1      2927    7    0    1
 -2      5884      5885      3026
 -1      2928    7    0    1
 -2      3050      5887      5886
 -1      2929    7    0    1
 -2      6603      6815      5323
 -1      2930    7    0    1
 -2      4744      6637      4746
 -1      2931    7    0    1
 -2      5816      6139      5946
 -1      2932    7    0    1
 -2      5941      6140      5814
 -1      2933    7    0    1
 -2      4814      6720      4670
 -1      2934    7    0    1
 -2      4308      5203      4833
 -1      2935    7    0    1
 -2      1398      5426      4648
 -1      2936    7    0    1
 -2      4881      6409      3092
 -1      2937    7    0    1
 -2      3098      6410      4882
 -1      2938    7    0    1
 -2      5254      5859      5253
 -1      2939    7    0    1
 -2      4778      5049      3952
 -1      2940    7    0    1
 -2      6529      6545      1944
 -1      2941    7    0    1
 -2      1590      5266      5265
 -1      2942    7    0    1
 -2      2452      7070      6547
 -1      2943    7    0    1
 -2      4806      6253      3064
 -1      2944    7    0    1
 -2      3062      6254      4807
 -1      2945    7    0    1
 -2      3238      7066      4752
 -1      2946    7    0    1
 -2      4408      7000      4622
 -1      2947    7    0    1
 -2      5127      6696      3928
 -1      2948    7    0    1
 -2      6688      7178      4319
 -1      2949    7    0    1
 -2       383      7246      4791
 -1      2950    7    0    1
 -2      4414      7043      4413
 -1      2951    7    0    1
 -2      3031      6304      3035
 -1      2952    7    0    1
 -2        96      7501      5940
 -1      2953    7    0    1
 -2      5945      7502       283
 -1      2954    7    0    1
 -2      4789      4790      2729
 -1      2955    7    0    1
 -2      4569      7452      5143
 -1      2956    7    0    1
 -2      4570      7453      5144
 -1      2957    7    0    1
 -2      6416      7125      3629
 -1      2958    7    0    1
 -2      4475      6762      4760
 -1      2959    7    0    1
 -2      1748      5049      4778
 -1      2960    7    0    1
 -2      4489      5050      2722
 -1      2961    7    0    1
 -2      2296      5050      4291
 -1      2962    7    0    1
 -2      4644      7119      5530
 -1      2963    7    0    1
 -2      2960      5933      4767
 -1      2964    7    0    1
 -2      5416      6949      5259
 -1      2965    7    0    1
 -2      5626      6968      2045
 -1      2966    7    0    1
 -2      4494      7057      4336
 -1      2967    7    0    1
 -2      2044      6967      5625
 -1      2968    7    0    1
 -2      1343      7236      5973
 -1      2969    7    0    1
 -2      5974      7237      1344
 -1      2970    7    0    1
 -2      4790      6854      2411
 -1      2971    7    0    1
 -2      1842      6400      6343
 -1      2972    7    0    1
 -2      3588      4867      3592
 -1      2973    7    0    1
 -2      3960      6233      3961
 -1      2974    7    0    1
 -2      4628      7492      3075
 -1      2975    7    0    1
 -2      2734      7006      4580
 -1      2976    7    0    1
 -2      5203      6383      4833
 -1      2977    7    0    1
 -2      3036      7098      6475
 -1      2978    7    0    1
 -2       149      5659      2069
 -1      2979    7    0    1
 -2      1306      5659       148
 -1      2980    7    0    1
 -2      6382      6395      3647
 -1      2981    7    0    1
 -2      3476      7326      4543
 -1      2982    7    0    1
 -2      5490      7037      3968
 -1      2983    7    0    1
 -2      6311      7193      4894
 -1      2984    7    0    1
 -2      6309      7192      4895
 -1      2985    7    0    1
 -2      5819      6713      4483
 -1      2986    7    0    1
 -2      5820      6714      4484
 -1      2987    7    0    1
 -2      1921      6386      5238
 -1      2988    7    0    1
 -2      1925      6387      5239
 -1      2989    7    0    1
 -2      4764      5689      2101
 -1      2990    7    0    1
 -2      2102      5690      4763
 -1      2991    7    0    1
 -2      4339      5050      2296
 -1      2992    7    0    1
 -2      2146      6396      5454
 -1      2993    7    0    1
 -2      4319      7178      6882
 -1      2994    7    0    1
 -2      2122      5127      4296
 -1      2995    7    0    1
 -2      6494      6508      2971
 -1      2996    7    0    1
 -2      2970      6509      6493
 -1      2997    7    0    1
 -2      1792      3565      1286
 -1      2998    7    0    1
 -2      1922      6384      5463
 -1      2999    7    0    1
 -2      3579      6671      3578
 -1      3000    7    0    1
 -2      1711      4717      1028
 -1      3001    7    0    1
 -2      1712      4716      1065
 -1      3002    7    0    1
 -2      3596      4780      1030
 -1      3003    7    0    1
 -2      3595      4779      1067
 -1      3004    7    0    1
 -2      3597      4768       845
 -1      3005    7    0    1
 -2      1581      4547      1246
 -1      3006    7    0    1
 -2      1066      4779      1712
 -1      3007    7    0    1
 -2      1029      4780      1711
 -1      3008    7    0    1
 -2       844      4768      1713
 -1      3009    7    0    1
 -2      1716      3574      1278
 -1      3010    7    0    1
 -2      1582      4542       839
 -1      3011    7    0    1
 -2      1245      4547      1629
 -1      3012    7    0    1
 -2      1714      1611       834
 -1      3013    7    0    1
 -2      1406      3570      1019
 -1      3014    7    0    1
 -2      1715      3571      1056
 -1      3015    7    0    1
 -2       838      4542      1630
 -1      3016    7    0    1
 -2      1613      3567      1173
 -1      3017    7    0    1
 -2      1611      4770       833
 -1      3018    7    0    1
 -2      3571      4771      1055
 -1      3019    7    0    1
 -2      3570      4772      1018
 -1      3020    7    0    1
 -2      5523      6231      3921
 -1      3021    7    0    1
 -2      1543      3595      1068
 -1      3022    7    0    1
 -2      1540      3596      1031
 -1      3023    7    0    1
 -2      1541      3597       846
 -1      3024    7    0    1
 -2       832      4770      1546
 -1      3025    7    0    1
 -2      1017      4772      1545
 -1      3026    7    0    1
 -2      1054      4771      1547
 -1      3027    7    0    1
 -2      1140      4571      1622
 -1      3028    7    0    1
 -2       918      4573      1624
 -1      3029    7    0    1
 -2       955      4572      1625
 -1      3030    7    0    1
 -2      1177      4574      1623
 -1      3031    7    0    1
 -2      1503      4545       877
 -1      3032    7    0    1
 -2      1499      4546      1099
 -1      3033    7    0    1
 -2      1504      4544       988
 -1      3034    7    0    1
 -2       150      5661       151
 -1      3035    7    0    1
 -2       843      3551       842
 -1      3036    7    0    1
 -2       841      3552       840
 -1      3037    7    0    1
 -2      1207      3547      1206
 -1      3038    7    0    1
 -2      1096      3261      1095
 -1      3039    7    0    1
 -2       985      3129       984
 -1      3040    7    0    1
 -2       874      3393       873
 -1      3041    7    0    1
 -2      1285      3566      1284
 -1      3042    7    0    1
 -2      1250      3549      1249
 -1      3043    7    0    1
 -2      1058      3548      1057
 -1      3044    7    0    1
 -2      1021      3550      1020
 -1      3045    7    0    1
 -2      5463      7284      5823
 -1      3046    7    0    1
 -2      1244      3553      1243
 -1      3047    7    0    1
 -2      1176      4819      1175
 -1      3048    7    0    1
 -2      1175      5033      1174
 -1      3049    7    0    1
 -2      1027      3581      1026
 -1      3050    7    0    1
 -2      1064      3580      1063
 -1      3051    7    0    1
 -2       953      4858       952
 -1      3052    7    0    1
 -2      1138      4857      1137
 -1      3053    7    0    1
 -2       916      4836       915
 -1      3054    7    0    1
 -2      1139      4865      1138
 -1      3055    7    0    1
 -2       954      4866       953
 -1      3056    7    0    1
 -2       917      4853       916
 -1      3057    7    0    1
 -2       987      4610       986
 -1      3058    7    0    1
 -2       876      4609       875
 -1      3059    7    0    1
 -2      1098      4611      1097
 -1      3060    7    0    1
 -2      2204      4633      4445
 -1      3061    7    0    1
 -2      1283      3127      1282
 -1      3062    7    0    1
 -2      1025      3554      1024
 -1      3063    7    0    1
 -2      1062      3556      1061
 -1      3064    7    0    1
 -2      1289      5291      1288
 -1      3065    7    0    1
 -2      1241      5293      1240
 -1      3066    7    0    1
 -2      1288      4634      1287
 -1      3067    7    0    1
 -2      1242      4635      1241
 -1      3068    7    0    1
 -2      4789      7245       733
 -1      3069    7    0    1
 -2      1023      4570      1022
 -1      3070    7    0    1
 -2      1060      4569      1059
 -1      3071    7    0    1
 -2      1252      3572      1251
 -1      3072    7    0    1
 -2      1277      3575      1276
 -1      3073    7    0    1
 -2      1722      6508      6494
 -1      3074    7    0    1
 -2      6493      6509      1799
 -1      3075    7    0    1
 -2      1209      3568      1208
 -1      3076    7    0    1
 -2      1388      4806      1235
 -1      3077    7    0    1
 -2      1294      4807      1317
 -1      3078    7    0    1
 -2      1205      3561      1204
 -1      3079    7    0    1
 -2      1172      1819      1171
 -1      3080    7    0    1
 -2      1291      3557      1290
 -1      3081    7    0    1
 -2      1239      3558      1238
 -1      3082    7    0    1
 -2      1497      4509      1170
 -1      3083    7    0    1
 -2      2200      4574      1178
 -1      3084    7    0    1
 -2      2198      4572       956
 -1      3085    7    0    1
 -2      2199      4573       919
 -1      3086    7    0    1
 -2      2201      4571      1141
 -1      3087    7    0    1
 -2      1094      3562      1093
 -1      3088    7    0    1
 -2       983      3563       982
 -1      3089    7    0    1
 -2       872      3564       871
 -1      3090    7    0    1
 -2      4250      7326      3476
 -1      3091    7    0    1
 -2      1237      3559      1236
 -1      3092    7    0    1
 -2      1293      3560      1292
 -1      3093    7    0    1
 -2       848      3582       847
 -1      3094    7    0    1
 -2      1070      3583      1069
 -1      3095    7    0    1
 -2      6553      6905      1586
 -1      3096    7    0    1
 -2      1169      4509      1418
 -1      3097    7    0    1
 -2      1255      3584      1254
 -1      3098    7    0    1
 -2      1033      3594      1032
 -1      3099    7    0    1
 -2      1101      1387      1100
 -1      3100    7    0    1
 -2      1133      3598      1132
 -1      3101    7    0    1
 -2      1053      4822      1052
 -1      3102    7    0    1
 -2       831      4821       830
 -1      3103    7    0    1
 -2      1016      4820      1015
 -1      3104    7    0    1
 -2      1092      3606      1091
 -1      3105    7    0    1
 -2       981      3608       980
 -1      3106    7    0    1
 -2       990      3605       989
 -1      3107    7    0    1
 -2       879      1579       878
 -1      3108    7    0    1
 -2       911      1483       910
 -1      3109    7    0    1
 -2       948      1574       947
 -1      3110    7    0    1
 -2      1212      1311      1211
 -1      3111    7    0    1
 -2       870      3607       869
 -1      3112    7    0    1
 -2      1203      3609      1202
 -1      3113    7    0    1
 -2      1589      6902      6551
 -1      3114    7    0    1
 -2      1470      4807      1295
 -1      3115    7    0    1
 -2      1234      4806      1471
 -1      3116    7    0    1
 -2      1837      6131      1248
 -1      3117    7    0    1
 -2       958      3613       957
 -1      3118    7    0    1
 -2      2367      4486      1201
 -1      3119    7    0    1
 -2      2370      4485      1090
 -1      3120    7    0    1
 -2      2368      4488       868
 -1      3121    7    0    1
 -2      2369      4487       979
 -1      3122    7    0    1
 -2      1180      3611      1179
 -1      3123    7    0    1
 -2      1143      3610      1142
 -1      3124    7    0    1
 -2       921      3612       920
 -1      3125    7    0    1
 -2      1168      3631      1167
 -1      3126    7    0    1
 -2      1072      3614      1071
 -1      3127    7    0    1
 -2      1181      4781      2700
 -1      3128    7    0    1
 -2      1144      4782      2699
 -1      3129    7    0    1
 -2      1273      3630      1272
 -1      3130    7    0    1
 -2      1035      3617      1034
 -1      3131    7    0    1
 -2      1051      3624      1050
 -1      3132    7    0    1
 -2       850      3619       849
 -1      3133    7    0    1
 -2      1014      3627      1013
 -1      3134    7    0    1
 -2       829      3621       828
 -1      3135    7    0    1
 -2      1089      4485      2753
 -1      3136    7    0    1
 -2      1200      4486      2754
 -1      3137    7    0    1
 -2      1130      4531      1129
 -1      3138    7    0    1
 -2       959      4784      2724
 -1      3139    7    0    1
 -2       922      4783      2723
 -1      3140    7    0    1
 -2      2754      4490      1199
 -1      3141    7    0    1
 -2      1902      4782      1145
 -1      3142    7    0    1
 -2      2431      4781      1182
 -1      3143    7    0    1
 -2       867      4488      2652
 -1      3144    7    0    1
 -2       978      4487      2651
 -1      3145    7    0    1
 -2      1088      4514      1087
 -1      3146    7    0    1
 -2      1259      2301      1258
 -1      3147    7    0    1
 -2      1165      4827      1904
 -1      3148    7    0    1
 -2      1215      4826      3118
 -1      3149    7    0    1
 -2      1271      2702      1270
 -1      3150    7    0    1
 -2      2495      4590      1074
 -1      3151    7    0    1
 -2      2447      4593      1049
 -1      3152    7    0    1
 -2      1905      4594      1012
 -1      3153    7    0    1
 -2       977      4267       976
 -1      3154    7    0    1
 -2       826      4264       825
 -1      3155    7    0    1
 -2       905      4252       904
 -1      3156    7    0    1
 -2       888      4595      2448
 -1      3157    7    0    1
 -2      2499      4597      1037
 -1      3158    7    0    1
 -2       943      4268       942
 -1      3159    7    0    1
 -2       885      4712       884
 -1      3160    7    0    1
 -2      2497      4251       899
 -1      3161    7    0    1
 -2      2296      4291       961
 -1      3162    7    0    1
 -2      4522      4783       923
 -1      3163    7    0    1
 -2      2295      4522       924
 -1      3164    7    0    1
 -2      3121      4596       852
 -1      3165    7    0    1
 -2      2701      4289       882
 -1      3166    7    0    1
 -2      2446      4592       827
 -1      3167    7    0    1
 -2       810      4293       809
 -1      3168    7    0    1
 -2       824      4617       823
 -1      3169    7    0    1
 -2      2121      3972      1184
 -1      3170    7    0    1
 -2       887      4271       886
 -1      3171    7    0    1
 -2       804      4283       803
 -1      3172    7    0    1
 -2      3122      4282       907
 -1      3173    7    0    1
 -2       800      4295       799
 -1      3174    7    0    1
 -2      2500      4595       889
 -1      3175    7    0    1
 -2      1183      3972      2431
 -1      3176    7    0    1
 -2       903      4618       902
 -1      3177    7    0    1
 -2       822      4286       821
 -1      3178    7    0    1
 -2       808      4270       807
 -1      3179    7    0    1
 -2       857      4599      2455
 -1      3180    7    0    1
 -2       797      4532       796
 -1      3181    7    0    1
 -2      2455      4292       856
 -1      3182    7    0    1
 -2      1048      4593      2498
 -1      3183    7    0    1
 -2      4291      4784       960
 -1      3184    7    0    1
 -2       865      4489      2722
 -1      3185    7    0    1
 -2      2652      4489       866
 -1      3186    7    0    1
 -2      1903      4826      1216
 -1      3187    7    0    1
 -2       801      4600      2456
 -1      3188    7    0    1
 -2       855      4292      2306
 -1      3189    7    0    1
 -2      2771      4591       901
 -1      3190    7    0    1
 -2       900      4591      2497
 -1      3191    7    0    1
 -2       995      4274       994
 -1      3192    7    0    1
 -2       795      4258       794
 -1      3193    7    0    1
 -2       851      4596      2449
 -1      3194    7    0    1
 -2      3081      4294       993
 -1      3195    7    0    1
 -2      1036      4597      2450
 -1      3196    7    0    1
 -2      2736      4599        29
 -1      3197    7    0    1
 -2      2725      4600       802
 -1      3198    7    0    1
 -2       906      4282      1907
 -1      3199    7    0    1
 -2      1011      4594      2496
 -1      3200    7    0    1
 -2       945      4285       944
 -1      3201    7    0    1
 -2      3085      4310      1104
 -1      3202    7    0    1
 -2      1073      4590      2451
 -1      3203    7    0    1
 -2      3120      4827      1166
 -1      3204    7    0    1
 -2      1128      4325      1127
 -1      3205    7    0    1
 -2      1106      4320      1105
 -1      3206    7    0    1
 -2      1261      4311      1260
 -1      3207    7    0    1
 -2      1904      4469      1164
 -1      3208    7    0    1
 -2      1218      4302      1217
 -1      3209    7    0    1
 -2      1881      4333      1040
 -1      3210    7    0    1
 -2      1146      4296      1902
 -1      3211    7    0    1
 -2      2122      4296      1147
 -1      3212    7    0    1
 -2      4251      4297       898
 -1      3213    7    0    1
 -2      1163      4469      2078
 -1      3214    7    0    1
 -2      2288      4290       941
 -1      3215    7    0    1
 -2       940      4290      1598
 -1      3216    7    0    1
 -2       897      4297      1884
 -1      3217    7    0    1
 -2      1008      4344      1007
 -1      3218    7    0    1
 -2      1126      4619      1125
 -1      3219    7    0    1
 -2       864      4340       863
 -1      3220    7    0    1
 -2       963      4338       962
 -1      3221    7    0    1
 -2      1044      4350      1043
 -1      3222    7    0    1
 -2       812      4349       811
 -1      3223    7    0    1
 -2      1042      4329      1041
 -1      3224    7    0    1
 -2      1247      6131      1581
 -1      3225    7    0    1
 -2       925      4557      2295
 -1      3226    7    0    1
 -2        35      4341      1079
 -1      3227    7    0    1
 -2      2289      5017       793
 -1      3228    7    0    1
 -2      1077      5088      1378
 -1      3229    7    0    1
 -2      1402      4557       926
 -1      3230    7    0    1
 -2      1186      4452      1185
 -1      3231    7    0    1
 -2       939      4367       938
 -1      3232    7    0    1
 -2       896      4451       895
 -1      3233    7    0    1
 -2       792      5017      1600
 -1      3234    7    0    1
 -2      1524      5088      1078
 -1      3235    7    0    1
 -2       862      4369       861
 -1      3236    7    0    1
 -2      2309      4328      1267
 -1      3237    7    0    1
 -2      1841      4337       973
 -1      3238    7    0    1
 -2       964      4357      1403
 -1      3239    7    0    1
 -2       999      4335       998
 -1      3240    7    0    1
 -2       894      4336       893
 -1      3241    7    0    1
 -2       927      4368      1402
 -1      3242    7    0    1
 -2      1748      4778      1124
 -1      3243    7    0    1
 -2      2290      4565      1085
 -1      3244    7    0    1
 -2       936      4372       935
 -1      3245    7    0    1
 -2      1297      4352      1296
 -1      3246    7    0    1
 -2       860      4621       859
 -1      3247    7    0    1
 -2      1148      4491      2122
 -1      3248    7    0    1
 -2       934      4602       933
 -1      3249    7    0    1
 -2       970      4535       969
 -1      3250    7    0    1
 -2      1417      2303      1196
 -1      3251    7    0    1
 -2      1232      4410      1231
 -1      3252    7    0    1
 -2      1219      4639      2076
 -1      3253    7    0    1
 -2      1122      4388      1121
 -1      3254    7    0    1
 -2       971      4731       970
 -1      3255    7    0    1
 -2       972      4337      1390
 -1      3256    7    0    1
 -2        31      4397       931
 -1      3257    7    0    1
 -2      1331      4357       965
 -1      3258    7    0    1
 -2       932      4456        32
 -1      3259    7    0    1
 -2      2078      4334      1162
 -1      3260    7    0    1
 -2      1266      4328      1505
 -1      3261    7    0    1
 -2      1600      4496       791
 -1      3262    7    0    1
 -2       858      4373        30
 -1      3263    7    0    1
 -2      1004      4622      1003
 -1      3264    7    0    1
 -2        33      4405      1005
 -1      3265    7    0    1
 -2      1471      4356      1233
 -1      3266    7    0    1
 -2        40      4364      1264
 -1      3267    7    0    1
 -2      1120      4393      1119
 -1      3268    7    0    1
 -2      1114      4389      1113
 -1      3269    7    0    1
 -2        41      4415      1301
 -1      3270    7    0    1
 -2      1194      4457      1193
 -1      3271    7    0    1
 -2      1118      4631      1117
 -1      3272    7    0    1
 -2      1230      4413      1229
 -1      3273    7    0    1
 -2      1300      4412      1299
 -1      3274    7    0    1
 -2      1389      4368       928
 -1      3275    7    0    1
 -2       966      4727      1331
 -1      3276    7    0    1
 -2      1123      4778      1313
 -1      3277    7    0    1
 -2      1160      4426      1159
 -1      3278    7    0    1
 -2      2924      6399      2926
 -1      3279    7    0    1
 -2      1303      4502       937
 -1      3280    7    0    1
 -2      1188      4417      1187
 -1      3281    7    0    1
 -2      1505      4366      1265
 -1      3282    7    0    1
 -2       929      4883      1389
 -1      3283    7    0    1
 -2      4383      4727       967
 -1      3284    7    0    1
 -2       820      4428       819
 -1      3285    7    0    1
 -2      1084      4565      1552
 -1      3286    7    0    1
 -2      1111      4528      1318
 -1      3287    7    0    1
 -2      1457      4383       968
 -1      3288    7    0    1
 -2      1192      4460      1191
 -1      3289    7    0    1
 -2       790      4496      1487
 -1      3290    7    0    1
 -2      1551      4491      1149
 -1      3291    7    0    1
 -2      1476      4528      1112
 -1      3292    7    0    1
 -2      1156      4449      1155
 -1      3293    7    0    1
 -2      1154      4633        38
 -1      3294    7    0    1
 -2      1226      4461      1225
 -1      3295    7    0    1
 -2      1472      4883       930
 -1      3296    7    0    1
 -2      1195      2303      1559
 -1      3297    7    0    1
 -2      1397      4639      1220
 -1      3298    7    0    1
 -2      1161      4334      1522
 -1      3299    7    0    1
 -2      1487      4396       789
 -1      3300    7    0    1
 -2       815      4419      1486
 -1      3301    7    0    1
 -2      1552      4403      1083
 -1      3302    7    0    1
 -2      1045      5924      1882
 -1      3303    7    0    1
 -2      1150      4421      1551
 -1      3304    7    0    1
 -2       788      4396      1619
 -1      3305    7    0    1
 -2      1618      4419       816
 -1      3306    7    0    1
 -2      1082      4403      1404
 -1      3307    7    0    1
 -2      1631      4421      1151
 -1      3308    7    0    1
 -2        36      4601      1616
 -1      3309    7    0    1
 -2      1617      4418        37
 -1      3310    7    0    1
 -2      1404      4420      1081
 -1      3311    7    0    1
 -2      1152      4423      1631
 -1      3312    7    0    1
 -2      4420      4601      1080
 -1      3313    7    0    1
 -2      4352      5047      1470
 -1      3314    7    0    1
 -2      1619      4579       787
 -1      3315    7    0    1
 -2      4418      4423      1153
 -1      3316    7    0    1
 -2      1221      4425      1397
 -1      3317    7    0    1
 -2       817      4436      1618
 -1      3318    7    0    1
 -2      1323      6706      5613
 -1      3319    7    0    1
 -2      1891      4425      1222
 -1      3320    7    0    1
 -2       786      4579      2142
 -1      3321    7    0    1
 -2      1892      4615      1158
 -1      3322    7    0    1
 -2      1223      4616      1891
 -1      3323    7    0    1
 -2      1415      4436       818
 -1      3324    7    0    1
 -2      2142      4427       785
 -1      3325    7    0    1
 -2      2281      4616      1224
 -1      3326    7    0    1
 -2      1157      4615      2282
 -1      3327    7    0    1
 -2      5512      6877      6349
 -1      3328    7    0    1
 -2      2204      4443      1190
 -1      3329    7    0    1
 -2      1189      4443      2108
 -1      3330    7    0    1
 -2      4859      5099      2187
 -1      3331    7    0    1
 -2      4861      5098      2179
 -1      3332    7    0    1
 -2      2205      4437        39
 -1      3333    7    0    1
 -2      1227      4437      2420
 -1      3334    7    0    1
 -2      5241      6784      6619
 -1      3335    7    0    1
 -2      3995      6969      1362
 -1      3336    7    0    1
 -2      4756      6543      1318
 -1      3337    7    0    1
 -2      1843      6356      5096
 -1      3338    7    0    1
 -2      5097      6357      1844
 -1      3339    7    0    1
 -2      1002      6120      1001
 -1      3340    7    0    1
 -2      1391      7466      4638
 -1      3341    7    0    1
 -2      4637      7465      1332
 -1      3342    7    0    1
 -2      1071      7364      2079
 -1      3343    7    0    1
 -2      1379      7366      1008
 -1      3344    7    0    1
 -2      5029      7279      7086
 -1      3345    7    0    1
 -2      3916      7014      6531
 -1      3346    7    0    1
 -2      1721      7017      6681
 -1      3347    7    0    1
 -2      5236      1521      1566
 -1      3348    7    0    1
 -2      5235      5805      1563
 -1      3349    7    0    1
 -2      1001      6187      1000
 -1      3350    7    0    1
 -2      6213      6214      4316
 -1      3351    7    0    1
 -2      1470      7077      4807
 -1      3352    7    0    1
 -2      1334      5668      5666
 -1      3353    7    0    1
 -2      4812      6555      3061
 -1      3354    7    0    1
 -2      4332      6431      4868
 -1      3355    7    0    1
 -2      1497      6565      4509
 -1      3356    7    0    1
 -2      2177      7146      7122
 -1      3357    7    0    1
 -2      4380      6725      4494
 -1      3358    7    0    1
 -2      5530      6940      4644
 -1      3359    7    0    1
 -2      3957      4840      4839
 -1      3360    7    0    1
 -2       896      7482      4451
 -1      3361    7    0    1
 -2      4452      7483      1185
 -1      3362    7    0    1
 -2      3805      6560      5462
 -1      3363    7    0    1
 -2      4639      6778      4308
 -1      3364    7    0    1
 -2      6980      7009       637
 -1      3365    7    0    1
 -2      4456      7484        32
 -1      3366    7    0    1
 -2      3993      4851      3994
 -1      3367    7    0    1
 -2      1194      7485      4457
 -1      3368    7    0    1
 -2      4447      4750      4598
 -1      3369    7    0    1
 -2      4296      6197      1902
 -1      3370    7    0    1
 -2      5153      6265      5192
 -1      3371    7    0    1
 -2      4460      7488      1191
 -1      3372    7    0    1
 -2      2681      4831      2983
 -1      3373    7    0    1
 -2      1226      7491      4461
 -1      3374    7    0    1
 -2      1475      6692      3473
 -1      3375    7    0    1
 -2      5363      6872      5362
 -1      3376    7    0    1
 -2      5365      6873      5364
 -1      3377    7    0    1
 -2      7122      7146      5443
 -1      3378    7    0    1
 -2       625      5784      5783
 -1      3379    7    0    1
 -2       579      5788      5787
 -1      3380    7    0    1
 -2       533      5786      5785
 -1      3381    7    0    1
 -2      6308      6539      1600
 -1      3382    7    0    1
 -2      1794      5784       626
 -1      3383    7    0    1
 -2      1795      5788       580
 -1      3384    7    0    1
 -2      1796      5786       534
 -1      3385    7    0    1
 -2      3389      7125      6416
 -1      3386    7    0    1
 -2      5818      6732      4493
 -1      3387    7    0    1
 -2      1745      7032      4711
 -1      3388    7    0    1
 -2      1665      5859      1660
 -1      3389    7    0    1
 -2      4746      7458       729
 -1      3390    7    0    1
 -2      1441      6715      6156
 -1      3391    7    0    1
 -2      2170      6343      1353
 -1      3392    7    0    1
 -2      6628      6749      2230
 -1      3393    7    0    1
 -2       771      6333       770
 -1      3394    7    0    1
 -2       484      7004      6971
 -1      3395    7    0    1
 -2      3391      7281      5937
 -1      3396    7    0    1
 -2      3259      7280      5936
 -1      3397    7    0    1
 -2      1597      7374      6243
 -1      3398    7    0    1
 -2      3116      7035      4830
 -1      3399    7    0    1
 -2      4553      4889      2370
 -1      3400    7    0    1
 -2      4554      4890      2369
 -1      3401    7    0    1
 -2      5157      6271      5155
 -1      3402    7    0    1
 -2      6446      6460      5246
 -1      3403    7    0    1
 -2      5250      6461      6447
 -1      3404    7    0    1
 -2      3975      7404      3972
 -1      3405    7    0    1
 -2      4899      6440      1623
 -1      3406    7    0    1
 -2      3568      6326      4583
 -1      3407    7    0    1
 -2      6620      6768      5369
 -1      3408    7    0    1
 -2      3992      6919      6212
 -1      3409    7    0    1
 -2      4617      6710      4288
 -1      3410    7    0    1
 -2      5605      6698      5603
 -1      3411    7    0    1
 -2      4450      6944      4633
 -1      3412    7    0    1
 -2      5622      6243      5970
 -1      3413    7    0    1
 -2      5100      7262      2392
 -1      3414    7    0    1
 -2      1390      6302      4731
 -1      3415    7    0    1
 -2      4208      7519      4620
 -1      3416    7    0    1
 -2      4534      6788      4300
 -1      3417    7    0    1
 -2      4807      7077      3062
 -1      3418    7    0    1
 -2      6058      7105      4439
 -1      3419    7    0    1
 -2      2721      6341       975
 -1      3420    7    0    1
 -2       974      6341      1841
 -1      3421    7    0    1
 -2      2429      6828      6737
 -1      3422    7    0    1
 -2      1519      7418      6115
 -1      3423    7    0    1
 -2      3384      6879      4560
 -1      3424    7    0    1
 -2      3252      6880      4564
 -1      3425    7    0    1
 -2      3534      6881      4562
 -1      3426    7    0    1
 -2      6599      6763      4343
 -1      3427    7    0    1
 -2       890      6346      2500
 -1      3428    7    0    1
 -2      1075      6347      2495
 -1      3429    7    0    1
 -2      1378      6347      1076
 -1      3430    7    0    1
 -2      4757      6998      3001
 -1      3431    7    0    1
 -2      3002      6999      4758
 -1      3432    7    0    1
 -2      6803      7181      6111
 -1      3433    7    0    1
 -2      1621      6460      6446
 -1      3434    7    0    1
 -2      6447      6461      1620
 -1      3435    7    0    1
 -2      6668      6844      5733
 -1      3436    7    0    1
 -2      5728      6843      6667
 -1      3437    7    0    1
 -2      5196      7009      6980
 -1      3438    7    0    1
 -2      4292      6280      2306
 -1      3439    7    0    1
 -2      5168      5170      5169
 -1      3440    7    0    1
 -2      5177      5179      5178
 -1      3441    7    0    1
 -2      5186      5188      5187
 -1      3442    7    0    1
 -2      6743      6829      2430
 -1      3443    7    0    1
 -2      4627      6733      2512
 -1      3444    7    0    1
 -2      6725      6833      4494
 -1      3445    7    0    1
 -2      6826      7524      3079
 -1      3446    7    0    1
 -2      6827      7525      3073
 -1      3447    7    0    1
 -2      3060      7204      6512
 -1      3448    7    0    1
 -2      4536      6808      6480
 -1      3449    7    0    1
 -2      6481      6809      4537
 -1      3450    7    0    1
 -2      6531      7014      4424
 -1      3451    7    0    1
 -2      3252      4563      1817
 -1      3452    7    0    1
 -2      3534      4561      1814
 -1      3453    7    0    1
 -2      3384      4559      1815
 -1      3454    7    0    1
 -2      4380      7457      6725
 -1      3455    7    0    1
 -2      6476      7506      5748
 -1      3456    7    0    1
 -2      5751      7507      6477
 -1      3457    7    0    1
 -2      3007      6659      6574
 -1      3458    7    0    1
 -2      3576      3577      1544
 -1      3459    7    0    1
 -2      3599      3601      1311
 -1      3460    7    0    1
 -2      6971      7004      5202
 -1      3461    7    0    1
 -2      5947      6962      1445
 -1      3462    7    0    1
 -2      1444      6961      5942
 -1      3463    7    0    1
 -2      4561      7273      3564
 -1      3464    7    0    1
 -2      4563      7272      3563
 -1      3465    7    0    1
 -2      4559      7271      3562
 -1      3466    7    0    1
 -2      5237      5789      1562
 -1      3467    7    0    1
 -2      6139      6146      4846
 -1      3468    7    0    1
 -2      4850      6145      6140
 -1      3469    7    0    1
 -2      4740      6340      5615
 -1      3470    7    0    1
 -2      2080      3587      3585
 -1      3471    7    0    1
 -2      3620      4612      3619
 -1      3472    7    0    1
 -2      3621      3623      3622
 -1      3473    7    0    1
 -2      3624      3626      3625
 -1      3474    7    0    1
 -2      3627      3629      3628
 -1      3475    7    0    1
 -2      3618      4640      3617
 -1      3476    7    0    1
 -2      2300      3600      3599
 -1      3477    7    0    1
 -2      4303      4309      4302
 -1      3478    7    0    1
 -2      2211      4288      4287
 -1      3479    7    0    1
 -2      4272      4773      2081
 -1      3480    7    0    1
 -2      2286      4276      4275
 -1      3481    7    0    1
 -2      2414      4322      4321
 -1      3482    7    0    1
 -2      4269      4817      2288
 -1      3483    7    0    1
 -2      4330      4766      4329
 -1      3484    7    0    1
 -2      1430      4331      4330
 -1      3485    7    0    1
 -2      4342      4343      4341
 -1      3486    7    0    1
 -2      2308      4313      4312
 -1      3487    7    0    1
 -2      2739      4899      3078
 -1      3488    7    0    1
 -2      2743      4897      3076
 -1      3489    7    0    1
 -2      2747      4898      3074
 -1      3490    7    0    1
 -2      2751      4896      3072
 -1      3491    7    0    1
 -2      2076      4304      4303
 -1      3492    7    0    1
 -2      4356      4482      4411
 -1      3493    7    0    1
 -2      1421      4399      4398
 -1      3494    7    0    1
 -2      4453      6618      4452
 -1      3495    7    0    1
 -2      4413      7043      4754
 -1      3496    7    0    1
 -2      4760      6762       163
 -1      3497    7    0    1
 -2      1417      3929      3928
 -1      3498    7    0    1
 -2      4256      6428      6417
 -1      3499    7    0    1
 -2      1477      4375      4374
 -1      3500    7    0    1
 -2      1522      4568      4567
 -1      3501    7    0    1
 -2      4398      4400      4397
 -1      3502    7    0    1
 -2      1458      4799      4406
 -1      3503    7    0    1
 -2      4455      4892      3559
 -1      3504    7    0    1
 -2      3560      4893      4454
 -1      3505    7    0    1
 -2      4411      4580      4410
 -1      3506    7    0    1
 -2      4390      4641      4389
 -1      3507    7    0    1
 -2      1527      4391      4390
 -1      3508    7    0    1
 -2      4607      4608      4412
 -1      3509    7    0    1
 -2      5946      5985      5816
 -1      3510    7    0    1
 -2      5814      5986      5941
 -1      3511    7    0    1
 -2      2060      6595      5078
 -1      3512    7    0    1
 -2      6819      6838      2402
 -1      3513    7    0    1
 -2      2257      4430      4429
 -1      3514    7    0    1
 -2      2282      4774      2422
 -1      3515    7    0    1
 -2      4429      4431      4428
 -1      3516    7    0    1
 -2      5540      6332      4351
 -1      3517    7    0    1
 -2      6743      7084      1940
 -1      3518    7    0    1
 -2      4788      6637      4743
 -1      3519    7    0    1
 -2      1573      6923      5291
 -1      3520    7    0    1
 -2      5293      6924      1575
 -1      3521    7    0    1
 -2       754      4733      4732
 -1      3522    7    0    1
 -2      4877      5016      2191
 -1      3523    7    0    1
 -2      2302      6423       909
 -1      3524    7    0    1
 -2       991      6427      2297
 -1      3525    7    0    1
 -2       880      6425      2298
 -1      3526    7    0    1
 -2      2304      6424       946
 -1      3527    7    0    1
 -2      1102      6426      2299
 -1      3528    7    0    1
 -2       908      6423      3122
 -1      3529    7    0    1
 -2      4310      6426      1103
 -1      3530    7    0    1
 -2      4289      6425       881
 -1      3531    7    0    1
 -2      4294      6427       992
 -1      3532    7    0    1
 -2       853      6428      3121
 -1      3533    7    0    1
 -2      2306      6428       854
 -1      3534    7    0    1
 -2      2261      6709      5048
 -1      3535    7    0    1
 -2      4621      6727      4375
 -1      3536    7    0    1
 -2      1938      7082      6737
 -1      3537    7    0    1
 -2      3473      6970      4393
 -1      3538    7    0    1
 -2      4750      6789      2052
 -1      3539    7    0    1
 -2      4300      6708      4301
 -1      3540    7    0    1
 -2      4393      6970      4394
 -1      3541    7    0    1
 -2      6486      6612      2307
 -1      3542    7    0    1
 -2      3929      5127      3928
 -1      3543    7    0    1
 -2      4997      6298      5386
 -1      3544    7    0    1
 -2      5385      6297      4998
 -1      3545    7    0    1
 -2      3558      7097      1395
 -1      3546    7    0    1
 -2      1480      7096      3557
 -1      3547    7    0    1
 -2      7086      7112      4435
 -1      3548    7    0    1
 -2      5667      6655      2059
 -1      3549    7    0    1
 -2       481      6943      6908
 -1      3550    7    0    1
 -2      6060      7112      7086
 -1      3551    7    0    1
 -2      1306      7487      5655
 -1      3552    7    0    1
 -2      2331      6456       806
 -1      3553    7    0    1
 -2       805      6456      2210
 -1      3554    7    0    1
 -2      6906      6937       640
 -1      3555    7    0    1
 -2      4613      7286      2461
 -1      3556    7    0    1
 -2      4447      4598      4446
 -1      3557    7    0    1
 -2      4445      7508      4448
 -1      3558    7    0    1
 -2      4766      7023      4329
 -1      3559    7    0    1
 -2      2048      6071      5093
 -1      3560    7    0    1
 -2      1087      6465      1086
 -1      3561    7    0    1
 -2      4615      7476      2282
 -1      3562    7    0    1
 -2      1742      6642      4758
 -1      3563    7    0    1
 -2      4444      4448      4447
 -1      3564    7    0    1
 -2      4884      5793      1768
 -1      3565    7    0    1
 -2      4885      5794      1769
 -1      3566    7    0    1
 -2      4804      6786      3574
 -1      3567    7    0    1
 -2      4731      7244       970
 -1      3568    7    0    1
 -2       970      7244      4535
 -1      3569    7    0    1
 -2      4707      7480      4705
 -1      3570    7    0    1
 -2      4702      7479      4704
 -1      3571    7    0    1
 -2      4439      7105      4438
 -1      3572    7    0    1
 -2      3061      6555      3060
 -1      3573    7    0    1
 -2      1450      6203      4818
 -1      3574    7    0    1
 -2      5783      5784      3300
 -1      3575    7    0    1
 -2      5785      5786      3168
 -1      3576    7    0    1
 -2      5787      5788      3432
 -1      3577    7    0    1
 -2      5124      6412      6401
 -1      3578    7    0    1
 -2      6402      6413      5119
 -1      3579    7    0    1
 -2      5755      6985      5754
 -1      3580    7    0    1
 -2      2299      7125      1387
 -1      3581    7    0    1
 -2      4265      7225      4712
 -1      3582    7    0    1
 -2      2451      7413      3615
 -1      3583    7    0    1
 -2      2448      7414      4273
 -1      3584    7    0    1
 -2      4612      7389      3518
 -1      3585    7    0    1
 -2      4698      5140      4701
 -1      3586    7    0    1
 -2      1443      7306      5686
 -1      3587    7    0    1
 -2      5613      7235      1323
 -1      3588    7    0    1
 -2      1038      6490      2499
 -1      3589    7    0    1
 -2      2498      6491      1047
 -1      3590    7    0    1
 -2      2496      6492      1010
 -1      3591    7    0    1
 -2      4333      6490      1039
 -1      3592    7    0    1
 -2      1009      6492      1379
 -1      3593    7    0    1
 -2      3201      6757      4716
 -1      3594    7    0    1
 -2      3333      6758      4717
 -1      3595    7    0    1
 -2      5086      6353      2119
 -1      3596    7    0    1
 -2      7061      7181      1495
 -1      3597    7    0    1
 -2      7062      7182      1501
 -1      3598    7    0    1
 -2      4677      6273      1535
 -1      3599    7    0    1
 -2      1419      6369      5747
 -1      3600    7    0    1
 -2      3487      6870      4626
 -1      3601    7    0    1
 -2      1046      6491      5924
 -1      3602    7    0    1
 -2      1816      7412      1205
 -1      3603    7    0    1
 -2      5746      6368      1335
 -1      3604    7    0    1
 -2      6401      6412      1919
 -1      3605    7    0    1
 -2      1918      6413      6402
 -1      3606    7    0    1
 -2      5745      6742      6597
 -1      3607    7    0    1
 -2      6596      6741      5743
 -1      3608    7    0    1
 -2      2760      7015      6132
 -1      3609    7    0    1
 -2      6133      7016      2765
 -1      3610    7    0    1
 -2      3573      6805      3572
 -1      3611    7    0    1
 -2      4478      6916      4387
 -1      3612    7    0    1
 -2      6115      7386      1519
 -1      3613    7    0    1
 -2      3026      7147      5884
 -1      3614    7    0    1
 -2      6646      7492      4628
 -1      3615    7    0    1
 -2      5042      7337      6720
 -1      3616    7    0    1
 -2      5886      7148      3050
 -1      3617    7    0    1
 -2      7036      7145      1502
 -1      3618    7    0    1
 -2      4753      7131       216
 -1      3619    7    0    1
 -2      5254      5858      5833
 -1      3620    7    0    1
 -2      4711      7047      1745
 -1      3621    7    0    1
 -2      4748      4787      2276
 -1      3622    7    0    1
 -2      1617      6722      4887
 -1      3623    7    0    1
 -2      1614      6564       914
 -1      3624    7    0    1
 -2      5955      6263      1482
 -1      3625    7    0    1
 -2      1481      6262      5954
 -1      3626    7    0    1
 -2      1588      6712      5290
 -1      3627    7    0    1
 -2      1587      6711      5278
 -1      3628    7    0    1
 -2      3117      6536      1269
 -1      3629    7    0    1
 -2      1268      6536      2309
 -1      3630    7    0    1
 -2      4734      6816      1465
 -1      3631    7    0    1
 -2      5808      5830      3522
 -1      3632    7    0    1
 -2      4348      7408      5529
 -1      3633    7    0    1
 -2      1626      6574      1281
 -1      3634    7    0    1
 -2      2392      6928      5100
 -1      3635    7    0    1
 -2      2120      6329      5084
 -1      3636    7    0    1
 -2      1548      6744      5754
 -1      3637    7    0    1
 -2      4725      6656      6642
 -1      3638    7    0    1
 -2      2940      5933      2943
 -1      3639    7    0    1
 -2      4851      4852      3994
 -1      3640    7    0    1
 -2      4329      7023      1881
 -1      3641    7    0    1
 -2      3992      6212      1348
 -1      3642    7    0    1
 -2      2424      4713       351
 -1      3643    7    0    1
 -2      1612      6587      1136
 -1      3644    7    0    1
 -2      1615      6588       951
 -1      3645    7    0    1
 -2      4648      5426      4651
 -1      3646    7    0    1
 -2      4693      7038      4694
 -1      3647    7    0    1
 -2      3588      3592      3591
 -1      3648    7    0    1
 -2      4555      7254      6373
 -1      3649    7    0    1
 -2        46      6550      6284
 -1      3650    7    0    1
 -2      6283      6549       333
 -1      3651    7    0    1
 -2       126      6738      4769
 -1      3652    7    0    1
 -2      1131      6575      1130
 -1      3653    7    0    1
 -2      4588      6556      4589
 -1      3654    7    0    1
 -2      4587      6557      4586
 -1      3655    7    0    1
 -2      1378      6807      6347
 -1      3656    7    0    1
 -2      5078      6759      2060
 -1      3657    7    0    1
 -2      2316      4741      4740
 -1      3658    7    0    1
 -2      6471      6624      4456
 -1      3659    7    0    1
 -2      4223      6677      6537
 -1      3660    7    0    1
 -2      2240      4838       355
 -1      3661    7    0    1
 -2       354      4838      2426
 -1      3662    7    0    1
 -2      5170      7397      6173
 -1      3663    7    0    1
 -2      5179      7396      6175
 -1      3664    7    0    1
 -2      5188      7395      6174
 -1      3665    7    0    1
 -2      3953      6515      3954
 -1      3666    7    0    1
 -2      3384      7332      6879
 -1      3667    7    0    1
 -2      3534      7334      6881
 -1      3668    7    0    1
 -2      3252      7333      6880
 -1      3669    7    0    1
 -2      6499      7097      3558
 -1      3670    7    0    1
 -2      3557      7096      6498
 -1      3671    7    0    1
 -2      2307      6612       798
 -1      3672    7    0    1
 -2      1892      6995      4615
 -1      3673    7    0    1
 -2      4616      6996      1891
 -1      3674    7    0    1
 -2      6480      6808      1469
 -1      3675    7    0    1
 -2      1468      6809      6481
 -1      3676    7    0    1
 -2       761      5140      2241
 -1      3677    7    0    1
 -2      2427      5140       762
 -1      3678    7    0    1
 -2      3573      7391      6810
 -1      3679    7    0    1
 -2      2511      6804      4567
 -1      3680    7    0    1
 -2      5833      5859      5254
 -1      3681    7    0    1
 -2       358      5426      1398
 -1      3682    7    0    1
 -2      4881      7242      6409
 -1      3683    7    0    1
 -2      6410      7243      4882
 -1      3684    7    0    1
 -2      1349      4851      3993
 -1      3685    7    0    1
 -2      4705      7480      4706
 -1      3686    7    0    1
 -2      4703      7479      4702
 -1      3687    7    0    1
 -2      6280      6417      2306
 -1      3688    7    0    1
 -2       830      7427      2074
 -1      3689    7    0    1
 -2      1052      7428      2072
 -1      3690    7    0    1
 -2      1015      7429      2071
 -1      3691    7    0    1
 -2      4992      5102      1711
 -1      3692    7    0    1
 -2      4993      5101      1712
 -1      3693    7    0    1
 -2      1279      6659      1716
 -1      3694    7    0    1
 -2      1600      6539      4496
 -1      3695    7    0    1
 -2      6190      6530      1541
 -1      3696    7    0    1
 -2      1590      6724      5266
 -1      3697    7    0    1
 -2      1506      5940      5939
 -1      3698    7    0    1
 -2      5944      5945      1396
 -1      3699    7    0    1
 -2      5993      6883      4836
 -1      3700    7    0    1
 -2      4175      5454      4803
 -1      3701    7    0    1
 -2      6908      6943      3105
 -1      3702    7    0    1
 -2      2280      6474      4851
 -1      3703    7    0    1
 -2       884      6650       883
 -1      3704    7    0    1
 -2      3104      6937      6906
 -1      3705    7    0    1
 -2      4542      6451      1630
 -1      3706    7    0    1
 -2      2459      7178      4730
 -1      3707    7    0    1
 -2      2246      5032      5030
 -1      3708    7    0    1
 -2      4980      5082      4979
 -1      3709    7    0    1
 -2      4983      6301      4984
 -1      3710    7    0    1
 -2      5004      7260      6065
 -1      3711    7    0    1
 -2      6067      7261      5007
 -1      3712    7    0    1
 -2      2706      6137      3493
 -1      3713    7    0    1
 -2      4830      7035      1792
 -1      3714    7    0    1
 -2       766      4714       765
 -1      3715    7    0    1
 -2      4768      7335      3516
 -1      3716    7    0    1
 -2      5755      7276      6985
 -1      3717    7    0    1
 -2      1405      4757       370
 -1      3718    7    0    1
 -2       746      4758      1709
 -1      3719    7    0    1
 -2       760      4675       759
 -1      3720    7    0    1
 -2      1742      4758       747
 -1      3721    7    0    1
 -2       369      4757      1741
 -1      3722    7    0    1
 -2      4899      6721      6440
 -1      3723    7    0    1
 -2       353      4705       352
 -1      3724    7    0    1
 -2       764      4702       763
 -1      3725    7    0    1
 -2       357      4646       356
 -1      3726    7    0    1
 -2      6373      7254      2721
 -1      3727    7    0    1
 -2      4823      5426       359
 -1      3728    7    0    1
 -2      2877      6326      6017
 -1      3729    7    0    1
 -2      4834      6951      3128
 -1      3730    7    0    1
 -2      4735      4856       362
 -1      3731    7    0    1
 -2      1541      6530      3597
 -1      3732    7    0    1
 -2      1302      4823       360
 -1      3733    7    0    1
 -2      1320      6298      4997
 -1      3734    7    0    1
 -2      4998      6297      1310
 -1      3735    7    0    1
 -2      4619      6685      1748
 -1      3736    7    0    1
 -2      1466      4735       363
 -1      3737    7    0    1
 -2       361      4856      1302
 -1      3738    7    0    1
 -2       151      5661      1322
 -1      3739    7    0    1
 -2      2069      5661       150
 -1      3740    7    0    1
 -2      5966      7236      1343
 -1      3741    7    0    1
 -2      1344      7237      5967
 -1      3742    7    0    1
 -2      4870      6526      4871
 -1      3743    7    0    1
 -2      6373      7409      4555
 -1      3744    7    0    1
 -2      4873      6583      3172
 -1      3745    7    0    1
 -2      4874      6584      3304
 -1      3746    7    0    1
 -2       372      4715       371
 -1      3747    7    0    1
 -2       745      2428       744
 -1      3748    7    0    1
 -2       743      4719       742
 -1      3749    7    0    1
 -2       374      4718       373
 -1      3750    7    0    1
 -2       368      4720       367
 -1      3751    7    0    1
 -2       749      4723       748
 -1      3752    7    0    1
 -2       754      4732       753
 -1      3753    7    0    1
 -2      4120      5478      4095
 -1      3754    7    0    1
 -2       175      6466      6381
 -1      3755    7    0    1
 -2       376      4729       375
 -1      3756    7    0    1
 -2       741      4728       740
 -1      3757    7    0    1
 -2      1109      6700      1410
 -1      3758    7    0    1
 -2      4599      6585      2455
 -1      3759    7    0    1
 -2       566      6478      4805
 -1      3760    7    0    1
 -2       378      4747       377
 -1      3761    7    0    1
 -2      1318      6700      1110
 -1      3762    7    0    1
 -2       380      4737       379
 -1      3763    7    0    1
 -2       737      4742       736
 -1      3764    7    0    1
 -2       739      4748       738
 -1      3765    7    0    1
 -2      5240      6635      4236
 -1      3766    7    0    1
 -2      6825      6837       645
 -1      3767    7    0    1
 -2      5605      7216      6698
 -1      3768    7    0    1
 -2      1723      6815      6603
 -1      3769    7    0    1
 -2      4761      7520        77
 -1      3770    7    0    1
 -2       302      7521      4762
 -1      3771    7    0    1
 -2      1540      6559      3596
 -1      3772    7    0    1
 -2      1543      6558      3595
 -1      3773    7    0    1
 -2      5957      7527      4630
 -1      3774    7    0    1
 -2      4629      7528      5958
 -1      3775    7    0    1
 -2      6526      6540      4871
 -1      3776    7    0    1
 -2      5828      6358      1802
 -1      3777    7    0    1
 -2      5492      6960      6665
 -1      3778    7    0    1
 -2       836      6769       835
 -1      3779    7    0    1
 -2      4227      6567      6062
 -1      3780    7    0    1
 -2      4696      6273      4680
 -1      3781    7    0    1
 -2      4802      5000      3579
 -1      3782    7    0    1
 -2      4693      7388      7038
 -1      3783    7    0    1
 -2      4668      4669      2240
 -1      3784    7    0    1
 -2      5454      6396      4803
 -1      3785    7    0    1
 -2      6365      6378      1526
 -1      3786    7    0    1
 -2      1525      6377      6364
 -1      3787    7    0    1
 -2      4881      4902      1324
 -1      3788    7    0    1
 -2      1325      4940      4882
 -1      3789    7    0    1
 -2      2280      4851      1349
 -1      3790    7    0    1
 -2      5754      6985      1548
 -1      3791    7    0    1
 -2      2663      7171      4830
 -1      3792    7    0    1
 -2      2970      6473      5427
 -1      3793    7    0    1
 -2      4598      4750      2280
 -1      3794    7    0    1
 -2      4636      7172      2665
 -1      3795    7    0    1
 -2      5121      6378      6365
 -1      3796    7    0    1
 -2      6364      6377      5116
 -1      3797    7    0    1
 -2      6188      6558      1543
 -1      3798    7    0    1
 -2      6189      6559      1540
 -1      3799    7    0    1
 -2       385      6397       384
 -1      3800    7    0    1
 -2      5430      6472      2971
 -1      3801    7    0    1
 -2      1660      5859      5833
 -1      3802    7    0    1
 -2      5500      7067      4379
 -1      3803    7    0    1
 -2      6470      6665      4346
 -1      3804    7    0    1
 -2      4324      6665      6470
 -1      3805    7    0    1
 -2      2368      6482      4488
 -1      3806    7    0    1
 -2       735      4801       734
 -1      3807    7    0    1
 -2      2295      7409      6373
 -1      3808    7    0    1
 -2      6700      7522      1410
 -1      3809    7    0    1
 -2      5973      6718      1343
 -1      3810    7    0    1
 -2      1344      6719      5974
 -1      3811    7    0    1
 -2       892      6745       891
 -1      3812    7    0    1
 -2      5997      7345      3069
 -1      3813    7    0    1
 -2      3071      7346      5996
 -1      3814    7    0    1
 -2      5529      7408      4211
 -1      3815    7    0    1
 -2      4676      4677      1535
 -1      3816    7    0    1
 -2       123      5860       124
 -1      3817    7    0    1
 -2      1798      5859      1665
 -1      3818    7    0    1
 -2      6139      6962      5947
 -1      3819    7    0    1
 -2      5942      6961      6140
 -1      3820    7    0    1
 -2      3597      7335      4768
 -1      3821    7    0    1
 -2      3557      6498      4584
 -1      3822    7    0    1
 -2      4585      6499      3558
 -1      3823    7    0    1
 -2      3927      6395      6382
 -1      3824    7    0    1
 -2      5944      5985      5946
 -1      3825    7    0    1
 -2      5941      5986      5939
 -1      3826    7    0    1
 -2      2970      6493      6473
 -1      3827    7    0    1
 -2      6472      6494      2971
 -1      3828    7    0    1
 -2      1348      7194      4749
 -1      3829    7    0    1
 -2      1953      4981      1951
 -1      3830    7    0    1
 -2      1995      4985      1997
 -1      3831    7    0    1
 -2      5143      7452      3178
 -1      3832    7    0    1
 -2      5144      7453      3310
 -1      3833    7    0    1
 -2       474      6811      6800
 -1      3834    7    0    1
 -2      4780      7361      3368
 -1      3835    7    0    1
 -2      4779      7360      3236
 -1      3836    7    0    1
 -2      4720      4722      4721
 -1      3837    7    0    1
 -2       758      6273       757
 -1      3838    7    0    1
 -2      4416      7064      4607
 -1      3839    7    0    1
 -2      6671      7421      3578
 -1      3840    7    0    1
 -2      1312      6231      4581
 -1      3841    7    0    1
 -2      2462      7217      4613
 -1      3842    7    0    1
 -2      1904      6641      4469
 -1      3843    7    0    1
 -2      6106      6338      5006
 -1      3844    7    0    1
 -2      5003      6339      6107
 -1      3845    7    0    1
 -2      2056      7068      5684
 -1      3846    7    0    1
 -2      4553      7524      6826
 -1      3847    7    0    1
 -2      4554      7525      6827
 -1      3848    7    0    1
 -2      4238      7249      6821
 -1      3849    7    0    1
 -2      5538      6599      4342
 -1      3850    7    0    1
 -2      3596      7361      4780
 -1      3851    7    0    1
 -2      3595      7360      4779
 -1      3852    7    0    1
 -2      4237      6790      6747
 -1      3853    7    0    1
 -2      6416      7505      7429
 -1      3854    7    0    1
 -2      6415      7504      7427
 -1      3855    7    0    1
 -2      6414      7503      7428
 -1      3856    7    0    1
 -2      5247      6434      5246
 -1      3857    7    0    1
 -2      5250      6433      5251
 -1      3858    7    0    1
 -2      6260      6956      4969
 -1      3859    7    0    1
 -2      3235      7311      6806
 -1      3860    7    0    1
 -2      1463      6444      4825
 -1      3861    7    0    1
 -2      5488      6230      5489
 -1      3862    7    0    1
 -2      2276      4787      4743
 -1      3863    7    0    1
 -2      2803      6337      6328
 -1      3864    7    0    1
 -2      6327      6336      2802
 -1      3865    7    0    1
 -2      4509      7234      1418
 -1      3866    7    0    1
 -2      5992      6921      4857
 -1      3867    7    0    1
 -2      5991      6922      4858
 -1      3868    7    0    1
 -2      1582      6839      4542
 -1      3869    7    0    1
 -2      1749      5610      5455
 -1      3870    7    0    1
 -2      6781      6787       648
 -1      3871    7    0    1
 -2      1209      7394      3569
 -1      3872    7    0    1
 -2      6328      6337      1451
 -1      3873    7    0    1
 -2      1452      6336      6327
 -1      3874    7    0    1
 -2      6165      5082      4980
 -1      3875    7    0    1
 -2      4984      6301      6164
 -1      3876    7    0    1
 -2      4426      6249      1892
 -1      3877    7    0    1
 -2      3917      5462      4887
 -1      3878    7    0    1
 -2      4399      7498      5498
 -1      3879    7    0    1
 -2      6051      6690      3251
 -1      3880    7    0    1
 -2      6052      6691      3383
 -1      3881    7    0    1
 -2      6050      6689      3533
 -1      3882    7    0    1
 -2      4813      6600      2960
 -1      3883    7    0    1
 -2      5053      6227      5081
 -1      3884    7    0    1
 -2      1506      5939      5938
 -1      3885    7    0    1
 -2      5943      5944      1396
 -1      3886    7    0    1
 -2      4931      6966      6259
 -1      3887    7    0    1
 -2      6434      6446      5246
 -1      3888    7    0    1
 -2      5250      6447      6433
 -1      3889    7    0    1
 -2      4931      6259      4938
 -1      3890    7    0    1
 -2      4976      6260      4969
 -1      3891    7    0    1
 -2       383      4791       382
 -1      3892    7    0    1
 -2      4863      6288      3047
 -1      3893    7    0    1
 -2      3023      6289      4864
 -1      3894    7    0    1
 -2      3235      6806      3234
 -1      3895    7    0    1
 -2      4339      7196      5050
 -1      3896    7    0    1
 -2      4978      4979      2038
 -1      3897    7    0    1
 -2      2037      4983      4982
 -1      3898    7    0    1
 -2      5048      7493      2261
 -1      3899    7    0    1
 -2      3095      4902      3093
 -1      3900    7    0    1
 -2      3099      4940      3101
 -1      3901    7    0    1
 -2        40      7403      4365
 -1      3902    7    0    1
 -2      2787      6215      5336
 -1      3903    7    0    1
 -2      6619      6784      1934
 -1      3904    7    0    1
 -2      4535      7231      4799
 -1      3905    7    0    1
 -2      4419      6855      1486
 -1      3906    7    0    1
 -2      1954      5879      1976
 -1      3907    7    0    1
 -2      2020      5878      1998
 -1      3908    7    0    1
 -2      6369      7265      5747
 -1      3909    7    0    1
 -2      4418      6560      4423
 -1      3910    7    0    1
 -2      6448      6537      1440
 -1      3911    7    0    1
 -2       216      7051      4753
 -1      3912    7    0    1
 -2      1321      6739      5652
 -1      3913    7    0    1
 -2      4694      7038      6138
 -1      3914    7    0    1
 -2      4332      7438      6431
 -1      3915    7    0    1
 -2      1625      7455      4866
 -1      3916    7    0    1
 -2      1622      7454      4865
 -1      3917    7    0    1
 -2      3973      3975      3972
 -1      3918    7    0    1
 -2      6490      7517      2499
 -1      3919    7    0    1
 -2      2498      7516      6491
 -1      3920    7    0    1
 -2      2496      7518      6492
 -1      3921    7    0    1
 -2      5335      6216      2786
 -1      3922    7    0    1
 -2      2121      3974      3973
 -1      3923    7    0    1
 -2      4358      4363      4357
 -1      3924    7    0    1
 -2      2303      3927      3632
 -1      3925    7    0    1
 -2      5746      7266      6368
 -1      3926    7    0    1
 -2      2332      4298      1884
 -1      3927    7    0    1
 -2      1551      6570      4491
 -1      3928    7    0    1
 -2      1331      4359      4358
 -1      3929    7    0    1
 -2      4353      4354      4352
 -1      3930    7    0    1
 -2      1457      4385      4384
 -1      3931    7    0    1
 -2      4556      7131      4753
 -1      3932    7    0    1
 -2      3632      3633      1559
 -1      3933    7    0    1
 -2      4710      6838      6819
 -1      3934    7    0    1
 -2      4404      4543      4403
 -1      3935    7    0    1
 -2      4421      4527      4422
 -1      3936    7    0    1
 -2      4805      7205      1936
 -1      3937    7    0    1
 -2      5955      6638      6263
 -1      3938    7    0    1
 -2      6262      6639      5954
 -1      3939    7    0    1
 -2      6556      6845      4589
 -1      3940    7    0    1
 -2      4587      6846      6557
 -1      3941    7    0    1
 -2      4446      4749      2108
 -1      3942    7    0    1
 -2      4538      5028      4427
 -1      3943    7    0    1
 -2      2205      4439      4438
 -1      3944    7    0    1
 -2      1515      6661      5186
 -1      3945    7    0    1
 -2      1516      6662      5177
 -1      3946    7    0    1
 -2      2204      4445      4444
 -1      3947    7    0    1
 -2      1514      6663      5168
 -1      3948    7    0    1
 -2      4440      4441      2420
 -1      3949    7    0    1
 -2      1624      7406      4853
 -1      3950    7    0    1
 -2      2216      7458      6637
 -1      3951    7    0    1
 -2      3112      6935      4876
 -1      3952    7    0    1
 -2      4875      6936      3113
 -1      3953    7    0    1
 -2      1600      7451      6308
 -1      3954    7    0    1
 -2        27      5043       778
 -1      3955    7    0    1
 -2      4903      5051      4939
 -1      3956    7    0    1
 -2      2942      5933      2940
 -1      3957    7    0    1
 -2      3028      5108      3030
 -1      3958    7    0    1
 -2      5109      5790      5114
 -1      3959    7    0    1
 -2      3792      5499      5046
 -1      3960    7    0    1
 -2      2943      5933      2960
 -1      3961    7    0    1
 -2      1976      5879      5018
 -1      3962    7    0    1
 -2      5020      5878      2020
 -1      3963    7    0    1
 -2      3475      6722      4632
 -1      3964    7    0    1
 -2      4778      7471      1313
 -1      3965    7    0    1
 -2      1411      3468      4995
 -1      3966    7    0    1
 -2      3093      4902      4881
 -1      3967    7    0    1
 -2      4882      4940      3099
 -1      3968    7    0    1
 -2      5157      6324      1594
 -1      3969    7    0    1
 -2      1775      5436      4996
 -1      3970    7    0    1
 -2      4825      6579      1463
 -1      3971    7    0    1
 -2      1749      5821      3472
 -1      3972    7    0    1
 -2      1325      4977      4940
 -1      3973    7    0    1
 -2      5982      6122      2040
 -1      3974    7    0    1
 -2      2039      6121      5983
 -1      3975    7    0    1
 -2      1504      6630      4544
 -1      3976    7    0    1
 -2      1503      6631      4545
 -1      3977    7    0    1
 -2      1499      6632      4546
 -1      3978    7    0    1
 -2      1910      5429      5138
 -1      3979    7    0    1
 -2      1910      5848      3468
 -1      3980    7    0    1
 -2      5617      6801      2505
 -1      3981    7    0    1
 -2      5653      6448      2061
 -1      3982    7    0    1
 -2      2061      7104      5652
 -1      3983    7    0    1
 -2      6212      6919      4453
 -1      3984    7    0    1
 -2      4873      4900      1715
 -1      3985    7    0    1
 -2      4874      4901      1406
 -1      3986    7    0    1
 -2      5489      6230      3740
 -1      3987    7    0    1
 -2      2506      6802      5618
 -1      3988    7    0    1
 -2      1775      5475      5436
 -1      3989    7    0    1
 -2      5028      7444      4427
 -1      3990    7    0    1
 -2      4995      3469      1411
 -1      3991    7    0    1
 -2      6737      6828      5024
 -1      3992    7    0    1
 -2      5611      5613      5584
 -1      3993    7    0    1
 -2      5837      6749      6628
 -1      3994    7    0    1
 -2       734      4789       733
 -1      3995    7    0    1
 -2      1630      5014      5013
 -1      3996    7    0    1
 -2      4903      4939      4902
 -1      3997    7    0    1
 -2       163      7472      4760
 -1      3998    7    0    1
 -2      5121      6355      5122
 -1      3999    7    0    1
 -2      5117      6354      5116
 -1      4000    7    0    1
 -2      4154      5478      4120
 -1      4001    7    0    1
 -2      4095      5478      5477
 -1      4002    7    0    1
 -2      5037      6247      1915
 -1      4003    7    0    1
 -2      1198      6997      1197
 -1      4004    7    0    1
 -2      5606      6380      5607
 -1      4005    7    0    1
 -2      3468      5848      4995
 -1      4006    7    0    1
 -2      5336      6215      1467
 -1      4007    7    0    1
 -2      2038      4981      1953
 -1      4008    7    0    1
 -2      1997      4985      2037
 -1      4009    7    0    1
 -2      5138      5848      1910
 -1      4010    7    0    1
 -2      5081      6227      3736
 -1      4011    7    0    1
 -2      4364      7222      4730
 -1      4012    7    0    1
 -2      1744      6768      6620
 -1      4013    7    0    1
 -2      1884      7482       896
 -1      4014    7    0    1
 -2      1185      7483      2121
 -1      4015    7    0    1
 -2      1411      3471      1700
 -1      4016    7    0    1
 -2      5036      5037      3103
 -1      4017    7    0    1
 -2       912      7036      1502
 -1      4018    7    0    1
 -2        32      7484      1457
 -1      4019    7    0    1
 -2      4866      7455      7074
 -1      4020    7    0    1
 -2      4865      7454      7073
 -1      4021    7    0    1
 -2      2527      5036      3103
 -1      4022    7    0    1
 -2      3102      5039      2530
 -1      4023    7    0    1
 -2      1134      7061      1495
 -1      4024    7    0    1
 -2       949      7062      1501
 -1      4025    7    0    1
 -2      1559      7485      1194
 -1      4026    7    0    1
 -2      1595      6323      5192
 -1      4027    7    0    1
 -2      4833      6383      2385
 -1      4028    7    0    1
 -2      5027      6829      6743
 -1      4029    7    0    1
 -2      1957      5350      1955
 -1      4030    7    0    1
 -2      1999      5349      2001
 -1      4031    7    0    1
 -2      5408      6455      1448
 -1      4032    7    0    1
 -2      1191      7488      2205
 -1      4033    7    0    1
 -2      6416      7429      3392
 -1      4034    7    0    1
 -2      6415      7427      3546
 -1      4035    7    0    1
 -2      6414      7428      3260
 -1      4036    7    0    1
 -2      5338      6837      6825
 -1      4037    7    0    1
 -2      2420      7491      1226
 -1      4038    7    0    1
 -2      2782      5044      2797
 -1      4039    7    0    1
 -2      2796      5045      2783
 -1      4040    7    0    1
 -2        77      7277      4761
 -1      4041    7    0    1
 -2      4762      7278       302
 -1      4042    7    0    1
 -2      5017      7451      1600
 -1      4043    7    0    1
 -2      1394      6216      5335
 -1      4044    7    0    1
 -2      5121      6365      6355
 -1      4045    7    0    1
 -2      6354      6364      5116
 -1      4046    7    0    1
 -2      3601      7309      4808
 -1      4047    7    0    1
 -2      1700      3471      1695
 -1      4048    7    0    1
 -2      4763      7072      2102
 -1      4049    7    0    1
 -2      1275      7421      1274
 -1      4050    7    0    1
 -2      3472      5821      3470
 -1      4051    7    0    1
 -2       997      7436       996
 -1      4052    7    0    1
 -2      1108      7437      1107
 -1      4053    7    0    1
 -2      1257      7434      1256
 -1      4054    7    0    1
 -2      1006      7438        34
 -1      4055    7    0    1
 -2      1263      7439      1262
 -1      4056    7    0    1
 -2      1210      7394      1209
 -1      4057    7    0    1
 -2      5135      5428      1911
 -1      4058    7    0    1
 -2      2038      5350      4978
 -1      4059    7    0    1
 -2      4982      5349      2037
 -1      4060    7    0    1
 -2      1116      7441      1115
 -1      4061    7    0    1
 -2      4607      7064      2466
 -1      4062    7    0    1
 -2      5039      5041      2530
 -1      4063    7    0    1
 -2       784      7444        28
 -1      4064    7    0    1
 -2      1911      5847      5135
 -1      4065    7    0    1
 -2      4879      4880      1816
 -1      4066    7    0    1
 -2      1811      5106       723
 -1      4067    7    0    1
 -2      6624      7484      4456
 -1      4068    7    0    1
 -2      1228      7403        40
 -1      4069    7    0    1
 -2      1526      6378      5124
 -1      4070    7    0    1
 -2      5119      6377      1525
 -1      4071    7    0    1
 -2      4754      7043      2465
 -1      4072    7    0    1
 -2      6618      7483      4452
 -1      4073    7    0    1
 -2      3562      7271      6309
 -1      4074    7    0    1
 -2      3564      7273      6310
 -1      4075    7    0    1
 -2      3563      7272      6311
 -1      4076    7    0    1
 -2      6252      6258      5075
 -1      4077    7    0    1
 -2      1371      6537      5653
 -1      4078    7    0    1
 -2      5821      6205      3470
 -1      4079    7    0    1
 -2      4979      4981      2038
 -1      4080    7    0    1
 -2      2037      4985      4983
 -1      4081    7    0    1
 -2      4818      6775      1450
 -1      4082    7    0    1
 -2      4826      7187      2702
 -1      4083    7    0    1
 -2      2301      7185      4827
 -1      4084    7    0    1
 -2      1490      5024      5022
 -1      4085    7    0    1
 -2      5025      5027      1491
 -1      4086    7    0    1
 -2      5439      3483      2528
 -1      4087    7    0    1
 -2      2050      5860       123
 -1      4088    7    0    1
 -2      3489      6776      4467
 -1      4089    7    0    1
 -2       124      5860      1752
 -1      4090    7    0    1
 -2      3534      4562      4561
 -1      4091    7    0    1
 -2      3252      4564      4563
 -1      4092    7    0    1
 -2      3384      4560      4559
 -1      4093    7    0    1
 -2      3946      6570      3922
 -1      4094    7    0    1
 -2      3765      6258      6252
 -1      4095    7    0    1
 -2      1447      6432      5404
 -1      4096    7    0    1
 -2      2693      6238      3001
 -1      4097    7    0    1
 -2      4392      7441      6143
 -1      4098    7    0    1
 -2      6265      7288      5192
 -1      4099    7    0    1
 -2      1669      5437      1759
 -1      4100    7    0    1
 -2      4853      7406      7050
 -1      4101    7    0    1
 -2      5047      7077      1470
 -1      4102    7    0    1
 -2      7273      7431      2748
 -1      4103    7    0    1
 -2      7272      7432      2752
 -1      4104    7    0    1
 -2      7271      7430      2740
 -1      4105    7    0    1
 -2      3472      5610      1749
 -1      4106    7    0    1
 -2      3095      4903      4902
 -1      4107    7    0    1
 -2      4940      4941      3101
 -1      4108    7    0    1
 -2      2123      7345      5997
 -1      4109    7    0    1
 -2      5996      7346      2124
 -1      4110    7    0    1
 -2      4996      5437      1775
 -1      4111    7    0    1
 -2      3885      6685      3887
 -1      4112    7    0    1
 -2      4668      4670      4669
 -1      4113    7    0    1
 -2      5498      6779      4399
 -1      4114    7    0    1
 -2      3599      3602      3601
 -1      4115    7    0    1
 -2      2803      6313      4997
 -1      4116    7    0    1
 -2      4998      6312      2802
 -1      4117    7    0    1
 -2      4981      5864      1951
 -1      4118    7    0    1
 -2      6246      6248      5080
 -1      4119    7    0    1
 -2      1995      5863      4985
 -1      4120    7    0    1
 -2      5299      7291      6881
 -1      4121    7    0    1
 -2      5313      7290      6880
 -1      4122    7    0    1
 -2      5306      7289      6879
 -1      4123    7    0    1
 -2      6284      6550      4973
 -1      4124    7    0    1
 -2      4935      6549      6283
 -1      4125    7    0    1
 -2      5133      5134      3066
 -1      4126    7    0    1
 -2      5083      5084      3004
 -1      4127    7    0    1
 -2      3587      3588      3585
 -1      4128    7    0    1
 -2      5403      5404      3010
 -1      4129    7    0    1
 -2      3952      7471      4778
 -1      4130    7    0    1
 -2      4447      6789      4750
 -1      4131    7    0    1
 -2      1373      6396      2146
 -1      4132    7    0    1
 -2      3762      6248      6246
 -1      4133    7    0    1
 -2      3030      5108      3034
 -1      4134    7    0    1
 -2      3009      5407      2337
 -1      4135    7    0    1
 -2      3102      5040      5039
 -1      4136    7    0    1
 -2      2513      5133      3066
 -1      4137    7    0    1
 -2      3067      5136      2514
 -1      4138    7    0    1
 -2      3960      7253      6233
 -1      4139    7    0    1
 -2      6056      6789      4448
 -1      4140    7    0    1
 -2      2513      5135      5133
 -1      4141    7    0    1
 -2      2286      4277      4276
 -1      4142    7    0    1
 -2      2414      4323      4322
 -1      4143    7    0    1
 -2      5437      5847      1911
 -1      4144    7    0    1
 -2      3470      6205      3471
 -1      4145    7    0    1
 -2      1430      4332      4331
 -1      4146    7    0    1
 -2      1527      4392      4391
 -1      4147    7    0    1
 -2      2257      4433      4430
 -1      4148    7    0    1
 -2      5034      5350      1960
 -1      4149    7    0    1
 -2      2004      5349      5035
 -1      4150    7    0    1
 -2      4551      4990      4550
 -1      4151    7    0    1
 -2      2308      4314      4313
 -1      4152    7    0    1
 -2      2968      5438      5198
 -1      4153    7    0    1
 -2      5436      5475      5421
 -1      4154    7    0    1
 -2      3003      5085      2320
 -1      4155    7    0    1
 -2      2321      5083      3004
 -1      4156    7    0    1
 -2      4304      4305      4303
 -1      4157    7    0    1
 -2      2357      6502      6033
 -1      4158    7    0    1
 -2      4331      4620      4330
 -1      4159    7    0    1
 -2      1451      6337      5122
 -1      4160    7    0    1
 -2      5117      6336      1452
 -1      4161    7    0    1
 -2      2300      3604      3600
 -1      4162    7    0    1
 -2      6236      6239      5489
 -1      4163    7    0    1
 -2      2080      3593      3587
 -1      4164    7    0    1
 -2      3577      3578      1544
 -1      4165    7    0    1
 -2      4839      6887      3956
 -1      4166    7    0    1
 -2       364      6527      1466
 -1      4167    7    0    1
 -2      1465      6528       752
 -1      4168    7    0    1
 -2      2527      5038      5036
 -1      4169    7    0    1
 -2      5018      5526      1976
 -1      4170    7    0    1
 -2      2020      5525      5020
 -1      4171    7    0    1
 -2      4398      4401      4400
 -1      4172    7    0    1
 -2      4375      4376      4374
 -1      4173    7    0    1
 -2      1495      7181      6803
 -1      4174    7    0    1
 -2      2338      5403      3010
 -1      4175    7    0    1
 -2      4579      6678      2142
 -1      4176    7    0    1
 -2      4799      4800      4406
 -1      4177    7    0    1
 -2      6565      7234      4509
 -1      4178    7    0    1
 -2      5247      6413      1918
 -1      4179    7    0    1
 -2      1919      6412      5251
 -1      4180    7    0    1
 -2      2803      6328      6313
 -1      4181    7    0    1
 -2      6312      6327      2802
 -1      4182    7    0    1
 -2      1917      6224      5040
 -1      4183    7    0    1
 -2      3772      6239      6236
 -1      4184    7    0    1
 -2      5649      7032      1745
 -1      4185    7    0    1
 -2      1952      5879      1954
 -1      4186    7    0    1
 -2      1998      5878      1996
 -1      4187    7    0    1
 -2      4701      6607      4700
 -1      4188    7    0    1
 -2       606      5210       605
 -1      4189    7    0    1
 -2       514      5217       513
 -1      4190    7    0    1
 -2      5525      6220      2804
 -1      4191    7    0    1
 -2      2814      6221      5526
 -1      4192    7    0    1
 -2      4429      4432      4431
 -1      4193    7    0    1
 -2      2778      3469      2776
 -1      4194    7    0    1
 -2      5138      5429      2514
 -1      4195    7    0    1
 -2      4905      5051      4903
 -1      4196    7    0    1
 -2      4774      4775      2422
 -1      4197    7    0    1
 -2      2232      6338      6106
 -1      4198    7    0    1
 -2      6107      6339      2233
 -1      4199    7    0    1
 -2      4664      7209      4674
 -1      4200    7    0    1
 -2      5262      5265      5264
 -1      4201    7    0    1
 -2      5136      5137      3006
 -1      4202    7    0    1
 -2      5286      5289      5288
 -1      4203    7    0    1
 -2      5274      5277      5276
 -1      4204    7    0    1
 -2      5157      7298      6271
 -1      4205    7    0    1
 -2      2119      7328      5086
 -1      4206    7    0    1
 -2      5039      5040      2978
 -1      4207    7    0    1
 -2      4984      6297      5385
 -1      4208    7    0    1
 -2      5386      6298      4980
 -1      4209    7    0    1
 -2      5418      5817      5419
 -1      4210    7    0    1
 -2      4908      5051      4905
 -1      4211    7    0    1
 -2      6821      7249      4601
 -1      4212    7    0    1
 -2      4618      6818      2771
 -1      4213    7    0    1
 -2      2774      5421      5419
 -1      4214    7    0    1
 -2      5136      5138      2514
 -1      4215    7    0    1
 -2       605      5210      1555
 -1      4216    7    0    1
 -2       513      5217      1554
 -1      4217    7    0    1
 -2      5430      6460      1621
 -1      4218    7    0    1
 -2      1556      6577      5357
 -1      4219    7    0    1
 -2      5085      5091      2320
 -1      4220    7    0    1
 -2      2321      5092      5083
 -1      4221    7    0    1
 -2      2776      3469      4995
 -1      4222    7    0    1
 -2      5419      5817      2774
 -1      4223    7    0    1
 -2      4584      7442      2769
 -1      4224    7    0    1
 -2      2770      7443      4585
 -1      4225    7    0    1
 -2      4590      7413      2451
 -1      4226    7    0    1
 -2      4595      7414      2448
 -1      4227    7    0    1
 -2      4979      5082      4981
 -1      4228    7    0    1
 -2      4985      6301      4983
 -1      4229    7    0    1
 -2      3592      4767      3591
 -1      4230    7    0    1
 -2      2782      5334      5044
 -1      4231    7    0    1
 -2      5045      5333      2783
 -1      4232    7    0    1
 -2      2441      5264      2439
 -1      4233    7    0    1
 -2      5390      6162      5389
 -1      4234    7    0    1
 -2      3210      5288      3208
 -1      4235    7    0    1
 -2      3342      5276      3340
 -1      4236    7    0    1
 -2      5035      6101      2004
 -1      4237    7    0    1
 -2      1960      1496      5034
 -1      4238    7    0    1
 -2      5166      6842      1514
 -1      4239    7    0    1
 -2      5184      6840      1515
 -1      4240    7    0    1
 -2      5175      6841      1516
 -1      4241    7    0    1
 -2      2320      5091      1376
 -1      4242    7    0    1
 -2      1377      5092      2321
 -1      4243    7    0    1
 -2      5334      5453      2536
 -1      4244    7    0    1
 -2      2534      5452      5333
 -1      4245    7    0    1
 -2      5407      5408      5406
 -1      4246    7    0    1
 -2      1402      6875      4557
 -1      4247    7    0    1
 -2      4185      6952      4220
 -1      4248    7    0    1
 -2      4619      7108      6685
 -1      4249    7    0    1
 -2      6070      6723      4482
 -1      4250    7    0    1
 -2      2758      7015      2760
 -1      4251    7    0    1
 -2      2765      7016      2763
 -1      4252    7    0    1
 -2      2821      6322      5902
 -1      4253    7    0    1
 -2      5901      6321      2811
 -1      4254    7    0    1
 -2      1944      6545      5359
 -1      4255    7    0    1
 -2      3117      6898      6536
 -1      4256    7    0    1
 -2      4714      5015      2425
 -1      4257    7    0    1
 -2      4829      6443      3892
 -1      4258    7    0    1
 -2      2331      7445      6456
 -1      4259    7    0    1
 -2      3466      5717      2571
 -1      4260    7    0    1
 -2      4557      7409      2295
 -1      4261    7    0    1
 -2      2614      5718      5434
 -1      4262    7    0    1
 -2      1533      7006      4414
 -1      4263    7    0    1
 -2      3034      5108      5107
 -1      4264    7    0    1
 -2      4802      7052      2871
 -1      4265    7    0    1
 -2      1825      6154      1826
 -1      4266    7    0    1
 -2      1620      6461      5427
 -1      4267    7    0    1
 -2      2774      5436      5421
 -1      4268    7    0    1
 -2      5029      6586      6062
 -1      4269    7    0    1
 -2      3469      3471      1411
 -1      4270    7    0    1
 -2      5261      5262      3504
 -1      4271    7    0    1
 -2      5285      5286      3222
 -1      4272    7    0    1
 -2      5273      5274      3354
 -1      4273    7    0    1
 -2      4676      4678      4677
 -1      4274    7    0    1
 -2      1955      5350      2038
 -1      4275    7    0    1
 -2      2037      5349      1999
 -1      4276    7    0    1
 -2      5260      5261      3504
 -1      4277    7    0    1
 -2      5940      5941      5939
 -1      4278    7    0    1
 -2      5944      5946      5945
 -1      4279    7    0    1
 -2      5284      5285      3222
 -1      4280    7    0    1
 -2      5272      5273      3354
 -1      4281    7    0    1
 -2      2337      5407      5094
 -1      4282    7    0    1
 -2      2712      5123      2559
 -1      4283    7    0    1
 -2      2602      5118      2711
 -1      4284    7    0    1
 -2      4752      6992      3235
 -1      4285    7    0    1
 -2       343      5042         3
 -1      4286    7    0    1
 -2      4551      4991      4990
 -1      4287    7    0    1
 -2      3492      7500      4625
 -1      4288    7    0    1
 -2      5837      6628      2136
 -1      4289    7    0    1
 -2      6574      6659      1280
 -1      4290    7    0    1
 -2      6800      6811      5332
 -1      4291    7    0    1
 -2      3003      5086      5085
 -1      4292    7    0    1
 -2      4653      7419      4814
 -1      4293    7    0    1
 -2      2513      5428      5135
 -1      4294    7    0    1
 -2      4788      7315      6637
 -1      4295    7    0    1
 -2      4336      6349      1883
 -1      4296    7    0    1
 -2      5352      6569      1743
 -1      4297    7    0    1
 -2      4927      5090      4922
 -1      4298    7    0    1
 -2      5036      5038      2781
 -1      4299    7    0    1
 -2      2999      6193      2996
 -1      4300    7    0    1
 -2      2989      6194      2992
 -1      4301    7    0    1
 -2      4870      6508      1722
 -1      4302    7    0    1
 -2      1799      6509      4872
 -1      4303    7    0    1
 -2      4242      3485      5103
 -1      4304    7    0    1
 -2      3928      6395      3927
 -1      4305    7    0    1
 -2      5038      5360      2781
 -1      4306    7    0    1
 -2      5103      3485      4148
 -1      4307    7    0    1
 -2      3009      5408      5407
 -1      4308    7    0    1
 -2      5085      5086      3106
 -1      4309    7    0    1
 -2      4318      6838      4710
 -1      4310    7    0    1
 -2      1960      5350      1957
 -1      4311    7    0    1
 -2      2001      5349      2004
 -1      4312    7    0    1
 -2      5041      5439      2530
 -1      4313    7    0    1
 -2      5515      6251      5075
 -1      4314    7    0    1
 -2      5360      5447      2519
 -1      4315    7    0    1
 -2      2137      6316      5760
 -1      4316    7    0    1
 -2      5750      6317      2139
 -1      4317    7    0    1
 -2      2530      5439      2528
 -1      4318    7    0    1
 -2      5028      5029      4434
 -1      4319    7    0    1
 -2       336      2503       337
 -1      4320    7    0    1
 -2        42      2504        43
 -1      4321    7    0    1
 -2      3857      7500      3492
 -1      4322    7    0    1
 -2      2445      5260      3504
 -1      4323    7    0    1
 -2      3344      5272      3354
 -1      4324    7    0    1
 -2      3212      5284      3222
 -1      4325    7    0    1
 -2      2439      5264      3521
 -1      4326    7    0    1
 -2      3340      5276      3371
 -1      4327    7    0    1
 -2      3208      5288      3239
 -1      4328    7    0    1
 -2      4379      7087      5500
 -1      4329    7    0    1
 -2      5377      5964      2662
 -1      4330    7    0    1
 -2      2661      5965      5374
 -1      4331    7    0    1
 -2      6166      6245      3100
 -1      4332    7    0    1
 -2      3094      6244      6158
 -1      4333    7    0    1
 -2      3178      7200      5143
 -1      4334    7    0    1
 -2      3310      7201      5144
 -1      4335    7    0    1
 -2      2712      5124      5123
 -1      4336    7    0    1
 -2      5118      5119      2711
 -1      4337    7    0    1
 -2      6251      6252      5075
 -1      4338    7    0    1
 -2      5393      1553      5394
 -1      4339    7    0    1
 -2      4819      7375      1175
 -1      4340    7    0    1
 -2      1175      7375      5033
 -1      4341    7    0    1
 -2      4865      7377      1138
 -1      4342    7    0    1
 -2      4866      7376       953
 -1      4343    7    0    1
 -2      4853      7378       916
 -1      4344    7    0    1
 -2       953      7376      4858
 -1      4345    7    0    1
 -2      1138      7377      4857
 -1      4346    7    0    1
 -2      5095      5403      2338
 -1      4347    7    0    1
 -2       916      7378      4836
 -1      4348    7    0    1
 -2      4751      6682      4119
 -1      4349    7    0    1
 -2      1288      7379      4634
 -1      4350    7    0    1
 -2      6995      7476      4615
 -1      4351    7    0    1
 -2      4635      7380      1241
 -1      4352    7    0    1
 -2       734      4801      4789
 -1      4353    7    0    1
 -2      4902      4939      1324
 -1      4354    7    0    1
 -2      5291      7379      1288
 -1      4355    7    0    1
 -2      1241      7380      5293
 -1      4356    7    0    1
 -2      2531      6162      5390
 -1      4357    7    0    1
 -2      4810      7039      2467
 -1      4358    7    0    1
 -2      2799      6237      5335
 -1      4359    7    0    1
 -2      2532      5418      5394
 -1      4360    7    0    1
 -2      1775      5437      1669
 -1      4361    7    0    1
 -2      2468      7042      5015
 -1      4362    7    0    1
 -2      5091      5159      1376
 -1      4363    7    0    1
 -2      1377      5160      5092
 -1      4364    7    0    1
 -2      3324      5208      3319
 -1      4365    7    0    1
 -2      3192      5215      3187
 -1      4366    7    0    1
 -2      2757      6802      1941
 -1      4367    7    0    1
 -2      3414      5167      3428
 -1      4368    7    0    1
 -2      5368      5440      2897
 -1      4369    7    0    1
 -2      5850      6801      2762
 -1      4370    7    0    1
 -2      3150      5176      3164
 -1      4371    7    0    1
 -2      3282      5185      3296
 -1      4372    7    0    1
 -2      1759      5437      1911
 -1      4373    7    0    1
 -2      5396      5717      3466
 -1      4374    7    0    1
 -2      1889      5464      2238
 -1      4375    7    0    1
 -2      1397      6778      4639
 -1      4376    7    0    1
 -2      5434      5718      5398
 -1      4377    7    0    1
 -2      4830      7268      2663
 -1      4378    7    0    1
 -2      5828      6794      6358
 -1      4379    7    0    1
 -2      5094      5407      2792
 -1      4380    7    0    1
 -2      5653      6537      6448
 -1      4381    7    0    1
 -2      2665      7269      4636
 -1      4382    7    0    1
 -2      2504      5097        43
 -1      4383    7    0    1
 -2       336      5096      2503
 -1      4384    7    0    1
 -2      3324      5209      5208
 -1      4385    7    0    1
 -2      3192      5216      5215
 -1      4386    7    0    1
 -2      5044      5334      2536
 -1      4387    7    0    1
 -2      2534      5333      5045
 -1      4388    7    0    1
 -2      5357      6604      1556
 -1      4389    7    0    1
 -2      4934      4936      4933
 -1      4390    7    0    1
 -2      4971      4974      4972
 -1      4391    7    0    1
 -2      5081      6230      5488
 -1      4392    7    0    1
 -2      2941      5197      2939
 -1      4393    7    0    1
 -2      4831      6996      2983
 -1      4394    7    0    1
 -2      4259      6346      4261
 -1      4395    7    0    1
 -2      2425      4703      4702
 -1      4396    7    0    1
 -2      4705      4706      2424
 -1      4397    7    0    1
 -2      5378      5964      5377
 -1      4398    7    0    1
 -2      5374      5965      5375
 -1      4399    7    0    1
 -2      5336      6241      2798
 -1      4400    7    0    1
 -2      2444      5260      2445
 -1      4401    7    0    1
 -2      3214      5284      3212
 -1      4402    7    0    1
 -2      3346      5272      3344
 -1      4403    7    0    1
 -2      5052      6223      3783
 -1      4404    7    0    1
 -2      2101      7092      4764
 -1      4405    7    0    1
 -2      6062      6586      4227
 -1      4406    7    0    1
 -2      2792      5409      5094
 -1      4407    7    0    1
 -2      5095      5405      2793
 -1      4408    7    0    1
 -2      5882      6201      2733
 -1      4409    7    0    1
 -2      2731      6202      5883
 -1      4410    7    0    1
 -2      6256      6275      1459
 -1      4411    7    0    1
 -2      1460      6274      6255
 -1      4412    7    0    1
 -2      1843      5096       335
 -1      4413    7    0    1
 -2        44      5097      1844
 -1      4414    7    0    1
 -2      4787      4788      4743
 -1      4415    7    0    1
 -2      5563      7342      6078
 -1      4416    7    0    1
 -2      6077      7343      5566
 -1      4417    7    0    1
 -2      5418      5419      1750
 -1      4418    7    0    1
 -2      5128      5532      2794
 -1      4419    7    0    1
 -2      5052      6227      5053
 -1      4420    7    0    1
 -2      4676      4682      4678
 -1      4421    7    0    1
 -2      2793      5403      5095
 -1      4422    7    0    1
 -2      1825      3483      5439
 -1      4423    7    0    1
 -2      1743      6582      5352
 -1      4424    7    0    1
 -2      5896      5926      3930
 -1      4425    7    0    1
 -2      2179      6602      4861
 -1      4426    7    0    1
 -2      2187      6601      4859
 -1      4427    7    0    1
 -2      2241      4697      4675
 -1      4428    7    0    1
 -2      4664      6640      4856
 -1      4429    7    0    1
 -2      4670      4671      4669
 -1      4430    7    0    1
 -2      4698      4699      4697
 -1      4431    7    0    1
 -2      3043      5130      4577
 -1      4432    7    0    1
 -2      4575      5131      3019
 -1      4433    7    0    1
 -2      5087      3474      3773
 -1      4434    7    0    1
 -2      5129      5533      1341
 -1      4435    7    0    1
 -2       836      7385      6769
 -1      4436    7    0    1
 -2      5671      5705      5126
 -1      4437    7    0    1
 -2      5125      5704      5672
 -1      4438    7    0    1
 -2      2778      3470      3469
 -1      4439    7    0    1
 -2      3202      5101      3205
 -1      4440    7    0    1
 -2      3334      5102      3337
 -1      4441    7    0    1
 -2      5652      7104      1321
 -1      4442    7    0    1
 -2      4972      5089      4962
 -1      4443    7    0    1
 -2      2795      5533      5129
 -1      4444    7    0    1
 -2      3201      5101      3202
 -1      4445    7    0    1
 -2      3333      5102      3334
 -1      4446    7    0    1
 -2      2937      7230      4777
 -1      4447    7    0    1
 -2      5165      5166      3421
 -1      4448    7    0    1
 -2      5174      5175      3157
 -1      4449    7    0    1
 -2      5183      5184      3289
 -1      4450    7    0    1
 -2      5164      5165      3421
 -1      4451    7    0    1
 -2      2532      5817      5418
 -1      4452    7    0    1
 -2      4706      4810      2424
 -1      4453    7    0    1
 -2      5173      5174      3157
 -1      4454    7    0    1
 -2      5182      5183      3289
 -1      4455    7    0    1
 -2      4916      5225      4913
 -1      4456    7    0    1
 -2      2425      5015      4703
 -1      4457    7    0    1
 -2      5328      5329      5031
 -1      4458    7    0    1
 -2      1621      6472      5430
 -1      4459    7    0    1
 -2      5359      6563      1944
 -1      4460    7    0    1
 -2      1385      5532      5128
 -1      4461    7    0    1
 -2      4783      6853      2651
 -1      4462    7    0    1
 -2      5896      6186      3677
 -1      4463    7    0    1
 -2      5394      1553      2532
 -1      4464    7    0    1
 -2      2020      6220      5525
 -1      4465    7    0    1
 -2      5526      6221      1976
 -1      4466    7    0    1
 -2      3695      5888      3684
 -1      4467    7    0    1
 -2      5199      5200      3011
 -1      4468    7    0    1
 -2      2002      5705      5671
 -1      4469    7    0    1
 -2      5672      5704      1958
 -1      4470    7    0    1
 -2      3931      5926      5467
 -1      4471    7    0    1
 -2      1606      6310      4854
 -1      4472    7    0    1
 -2      1906      7322      7069
 -1      4473    7    0    1
 -2      2781      5360      2519
 -1      4474    7    0    1
 -2      4971      4972      4962
 -1      4475    7    0    1
 -2      4924      4934      4933
 -1      4476    7    0    1
 -2      5513      6185      3768
 -1      4477    7    0    1
 -2      3783      6223      6211
 -1      4478    7    0    1
 -2      2024      5375      2015
 -1      4479    7    0    1
 -2      1971      5378      1980
 -1      4480    7    0    1
 -2      5198      5438      5197
 -1      4481    7    0    1
 -2      5417      5418      1750
 -1      4482    7    0    1
 -2      5984      7035      3116
 -1      4483    7    0    1
 -2      3930      5926      3931
 -1      4484    7    0    1
 -2      2083      5409      2278
 -1      4485    7    0    1
 -2      2279      5405      2085
 -1      4486    7    0    1
 -2      1398      4647      4646
 -1      4487    7    0    1
 -2      4354      5047      4352
 -1      4488    7    0    1
 -2      3521      6047      2437
 -1      4489    7    0    1
 -2      1918      6434      5247
 -1      4490    7    0    1
 -2      5251      6433      1919
 -1      4491    7    0    1
 -2       398      5114      1813
 -1      4492    7    0    1
 -2      3974      3976      3973
 -1      4493    7    0    1
 -2       765      4714      2425
 -1      4494    7    0    1
 -2      3431      5297      5295
 -1      4495    7    0    1
 -2      3167      5311      5309
 -1      4496    7    0    1
 -2      3299      5304      5302
 -1      4497    7    0    1
 -2      3453      5329      3449
 -1      4498    7    0    1
 -2      5427      6473      1620
 -1      4499    7    0    1
 -2      2332      4299      4298
 -1      4500    7    0    1
 -2      5325      6787      6781
 -1      4501    7    0    1
 -2      2786      6216      5374
 -1      4502    7    0    1
 -2      5377      6215      2787
 -1      4503    7    0    1
 -2      4359      4360      4358
 -1      4504    7    0    1
 -2      2092      5375      2024
 -1      4505    7    0    1
 -2      1980      5378      2098
 -1      4506    7    0    1
 -2      5122      6355      1451
 -1      4507    7    0    1
 -2      1452      6354      5117
 -1      4508    7    0    1
 -2      2967      5339      2929
 -1      4509    7    0    1
 -2      4353      4355      4354
 -1      4510    7    0    1
 -2      2691      5156      2334
 -1      4511    7    0    1
 -2      3504      5264      2441
 -1      4512    7    0    1
 -2      3222      5288      3210
 -1      4513    7    0    1
 -2      3354      5276      3342
 -1      4514    7    0    1
 -2      5513      6192      4474
 -1      4515    7    0    1
 -2      6241      6255      2798
 -1      4516    7    0    1
 -2      1807      7276      5755
 -1      4517    7    0    1
 -2      4385      4386      4384
 -1      4518    7    0    1
 -2      3632      3634      3633
 -1      4519    7    0    1
 -2      2890      5332      5331
 -1      4520    7    0    1
 -2      5111      5346      2567
 -1      4521    7    0    1
 -2      2610      5348      5113
 -1      4522    7    0    1
 -2      1538      6441      6124
 -1      4523    7    0    1
 -2       400      5109         8
 -1      4524    7    0    1
 -2      6119      6439      1539
 -1      4525    7    0    1
 -2      1809      7149      5141
 -1      4526    7    0    1
 -2      5142      7150      1808
 -1      4527    7    0    1
 -2         8      5109       399
 -1      4528    7    0    1
 -2      3773      3474      6198
 -1      4529    7    0    1
 -2      1722      6526      4870
 -1      4530    7    0    1
 -2      2008      5434      5398
 -1      4531    7    0    1
 -2      5158      5888      3695
 -1      4532    7    0    1
 -2      1398      4646       357
 -1      4533    7    0    1
 -2      2890      5331      2850
 -1      4534    7    0    1
 -2      2578      5120      5110
 -1      4535    7    0    1
 -2      5112      5115      2621
 -1      4536    7    0    1
 -2      2799      6256      6237
 -1      4537    7    0    1
 -2      5224      5225      4928
 -1      4538    7    0    1
 -2      2425      4702       764
 -1      4539    7    0    1
 -2       352      4705      2424
 -1      4540    7    0    1
 -2      2559      5123      2578
 -1      4541    7    0    1
 -2      2621      5118      2602
 -1      4542    7    0    1
 -2      2711      5248      2603
 -1      4543    7    0    1
 -2      2560      5252      2712
 -1      4544    7    0    1
 -2      2936      5438      2935
 -1      4545    7    0    1
 -2      5194      5195      2947
 -1      4546    7    0    1
 -2      4649      4653      4647
 -1      4547    7    0    1
 -2      4872      6529      1799
 -1      4548    7    0    1
 -2      1438      6101      5035
 -1      4549    7    0    1
 -2      4966      5432      5227
 -1      4550    7    0    1
 -2      5034      1496      6069
 -1      4551    7    0    1
 -2      3513      5148      4481
 -1      4552    7    0    1
 -2      2241      4675       760
 -1      4553    7    0    1
 -2      3231      5150      4466
 -1      4554    7    0    1
 -2      3363      5149      4465
 -1      4555    7    0    1
 -2      6038      6909      2255
 -1      4556    7    0    1
 -2      4996      5847      5437
 -1      4557    7    0    1
 -2      5396      3466      1964
 -1      4558    7    0    1
 -2      3067      5137      5136
 -1      4559    7    0    1
 -2      1656      5420      1654
 -1      4560    7    0    1
 -2      2238      5464      2474
 -1      4561    7    0    1
 -2      2650      6129      2988
 -1      4562    7    0    1
 -2      2995      6128      2647
 -1      4563    7    0    1
 -2      4692      5139      4684
 -1      4564    7    0    1
 -2      6381      6466      5076
 -1      4565    7    0    1
 -2      5507      6163      3771
 -1      4566    7    0    1
 -2      6192      6198      4474
 -1      4567    7    0    1
 -2      5257      5260      2444
 -1      4568    7    0    1
 -2      5281      5284      3214
 -1      4569    7    0    1
 -2      5269      5272      3346
 -1      4570    7    0    1
 -2      5079      6258      3765
 -1      4571    7    0    1
 -2      2882      7340      6748
 -1      4572    7    0    1
 -2      3019      5131      3021
 -1      4573    7    0    1
 -2      3045      5130      3043
 -1      4574    7    0    1
 -2      5197      5438      2939
 -1      4575    7    0    1
 -2      4960      5089      4965
 -1      4576    7    0    1
 -2       723      5106       722
 -1      4577    7    0    1
 -2      5455      5610      5390
 -1      4578    7    0    1
 -2      5170      6173      5169
 -1      4579    7    0    1
 -2      5188      6174      5187
 -1      4580    7    0    1
 -2      5179      6175      5178
 -1      4581    7    0    1
 -2       837      7385       836
 -1      4582    7    0    1
 -2      4360      6901      5536
 -1      4583    7    0    1
 -2      1664      5417      1659
 -1      4584    7    0    1
 -2      5439      6154      1825
 -1      4585    7    0    1
 -2      3095      4904      4903
 -1      4586    7    0    1
 -2      4941      4942      3101
 -1      4587    7    0    1
 -2      3498      5257      2444
 -1      4588    7    0    1
 -2      3714      6161      3683
 -1      4589    7    0    1
 -2      3216      5281      3214
 -1      4590    7    0    1
 -2      3348      5269      3346
 -1      4591    7    0    1
 -2      5124      6401      1526
 -1      4592    7    0    1
 -2      1525      6402      5119
 -1      4593    7    0    1
 -2      4698      4700      4699
 -1      4594    7    0    1
 -2      5110      5190      2578
 -1      4595    7    0    1
 -2      3014      5141      3015
 -1      4596    7    0    1
 -2      3039      5142      3038
 -1      4597    7    0    1
 -2      3647      6395      3946
 -1      4598    7    0    1
 -2      4733      6814      4732
 -1      4599    7    0    1
 -2      1964      3465      5396
 -1      4600    7    0    1
 -2      5010      6223      5052
 -1      4601    7    0    1
 -2      5035      5349      4982
 -1      4602    7    0    1
 -2      4978      5350      5034
 -1      4603    7    0    1
 -2      6510      7126      3551
 -1      4604    7    0    1
 -2      4990      1414      1464
 -1      4605    7    0    1
 -2      2499      7368      4597
 -1      4606    7    0    1
 -2      4593      7369      2498
 -1      4607    7    0    1
 -2      4591      7370      2497
 -1      4608    7    0    1
 -2      4594      7371      2496
 -1      4609    7    0    1
 -2      1352      7057      6833
 -1      4610    7    0    1
 -2      3602      3603      3601
 -1      4611    7    0    1
 -2      2149      5546      2152
 -1      4612    7    0    1
 -2      2032      5629      5126
 -1      4613    7    0    1
 -2      5125      5630      1988
 -1      4614    7    0    1
 -2      2004      6101      2005
 -1      4615    7    0    1
 -2      5388      5389      5387
 -1      4616    7    0    1
 -2       351      4713       350
 -1      4617    7    0    1
 -2      1961      1496      1960
 -1      4618    7    0    1
 -2      2621      5189      5112
 -1      4619    7    0    1
 -2      3321      5206      5204
 -1      4620    7    0    1
 -2      3189      5213      5211
 -1      4621    7    0    1
 -2      6069      1496      3466
 -1      4622    7    0    1
 -2      4913      5225      4915
 -1      4623    7    0    1
 -2      5434      6101      1438
 -1      4624    7    0    1
 -2      6040      7056      1716
 -1      4625    7    0    1
 -2      3415      5164      3421
 -1      4626    7    0    1
 -2      5515      6248      3762
 -1      4627    7    0    1
 -2      4957      5432      4953
 -1      4628    7    0    1
 -2      2685      5145      2686
 -1      4629    7    0    1
 -2      2692      5146      2691
 -1      4630    7    0    1
 -2      3283      5182      3289
 -1      4631    7    0    1
 -2      3151      5173      3157
 -1      4632    7    0    1
 -2      2241      4698      4697
 -1      4633    7    0    1
 -2      5159      5832      5380
 -1      4634    7    0    1
 -2      5379      5831      5160
 -1      4635    7    0    1
 -2      5122      5346      5111
 -1      4636    7    0    1
 -2      5113      5348      5117
 -1      4637    7    0    1
 -2      3795      6108      5473
 -1      4638    7    0    1
 -2      5264      5265      3521
 -1      4639    7    0    1
 -2      5276      5277      3371
 -1      4640    7    0    1
 -2      5288      5289      3239
 -1      4641    7    0    1
 -2      4962      5089      4960
 -1      4642    7    0    1
 -2      2007      5433      2010
 -1      4643    7    0    1
 -2      5507      6172      3945
 -1      4644    7    0    1
 -2      5031      5329      3453
 -1      4645    7    0    1
 -2      2835      5361      2836
 -1      4646    7    0    1
 -2       759      1535       758
 -1      4647    7    0    1
 -2       358      1398       357
 -1      4648    7    0    1
 -2      5421      5665      5420
 -1      4649    7    0    1
 -2      3768      6185      6181
 -1      4650    7    0    1
 -2      5366      5471      3784
 -1      4651    7    0    1
 -2      5193      5194      2947
 -1      4652    7    0    1
 -2      5393      5394      2244
 -1      4653    7    0    1
 -2      3239      6046      3206
 -1      4654    7    0    1
 -2      3371      6045      3338
 -1      4655    7    0    1
 -2      6120      7373      1001
 -1      4656    7    0    1
 -2      4924      4933      4932
 -1      4657    7    0    1
 -2      4970      4971      4962
 -1      4658    7    0    1
 -2      4770      6867      3533
 -1      4659    7    0    1
 -2      4148      6027      5103
 -1      4660    7    0    1
 -2      4771      6868      3251
 -1      4661    7    0    1
 -2      4772      6869      3383
 -1      4662    7    0    1
 -2      2547      5190      2550
 -1      4663    7    0    1
 -2      4473      3474      5087
 -1      4664    7    0    1
 -2      3961      5471      5366
 -1      4665    7    0    1
 -2      2880      5199      3011
 -1      4666    7    0    1
 -2      5392      5393      2244
 -1      4667    7    0    1
 -2      3008      5193      2951
 -1      4668    7    0    1
 -2      2278      5409      2792
 -1      4669    7    0    1
 -2      2793      5405      2279
 -1      4670    7    0    1
 -2      5228      5229      2151
 -1      4671    7    0    1
 -2      2088      5453      5334
 -1      4672    7    0    1
 -2      5333      5452      2087
 -1      4673    7    0    1
 -2      5221      5222      3323
 -1      4674    7    0    1
 -2      5219      5220      3191
 -1      4675    7    0    1
 -2      5389      5464      5387
 -1      4676    7    0    1
 -2       765      2425       764
 -1      4677    7    0    1
 -2       352      2424       351
 -1      4678    7    0    1
 -2      5233      5234      2961
 -1      4679    7    0    1
 -2      4529      5383      2471
 -1      4680    7    0    1
 -2      5334      5468      2088
 -1      4681    7    0    1
 -2      5475      5665      5421
 -1      4682    7    0    1
 -2      2858      5161      2896
 -1      4683    7    0    1
 -2      4922      5090      4924
 -1      4684    7    0    1
 -2      5261      5263      5262
 -1      4685    7    0    1
 -2      5285      5287      5286
 -1      4686    7    0    1
 -2      5273      5275      5274
 -1      4687    7    0    1
 -2      4695      5442      4679
 -1      4688    7    0    1
 -2      5324      5325      2919
 -1      4689    7    0    1
 -2      2239      5444      1890
 -1      4690    7    0    1
 -2      2514      5429      2259
 -1      4691    7    0    1
 -2      3765      6261      5079
 -1      4692    7    0    1
 -2      5162      5164      3417
 -1      4693    7    0    1
 -2      5171      5173      3153
 -1      4694    7    0    1
 -2      5180      5182      3285
 -1      4695    7    0    1
 -2      5091      5832      5159
 -1      4696    7    0    1
 -2      5160      5831      5092
 -1      4697    7    0    1
 -2      5266      6047      3521
 -1      4698    7    0    1
 -2      3296      5230      3276
 -1      4699    7    0    1
 -2      3428      5231      3408
 -1      4700    7    0    1
 -2      3164      5232      3144
 -1      4701    7    0    1
 -2      5132      6147      3716
 -1      4702    7    0    1
 -2      6356      7353      5096
 -1      4703    7    0    1
 -2      5097      7354      6357
 -1      4704    7    0    1
 -2      3451      5218      3536
 -1      4705    7    0    1
 -2      5080      6239      3772
 -1      4706    7    0    1
 -2      4182      5318      4183
 -1      4707    7    0    1
 -2      5387      5464      1889
 -1      4708    7    0    1
 -2      2935      5438      2968
 -1      4709    7    0    1
 -2      1001      7373      6187
 -1      4710    7    0    1
 -2      6172      6181      3945
 -1      4711    7    0    1
 -2      3321      5207      5206
 -1      4712    7    0    1
 -2      3189      5214      5213
 -1      4713    7    0    1
 -2      2613      5246      5245
 -1      4714    7    0    1
 -2      5249      5250      2570
 -1      4715    7    0    1
 -2      3942      6185      5513
 -1      4716    7    0    1
 -2      4448      7508      6056
 -1      4717    7    0    1
 -2      4871      5361      2835
 -1      4718    7    0    1
 -2       356      2240       355
 -1      4719    7    0    1
 -2       761      2241       760
 -1      4720    7    0    1
 -2      4928      5225      4916
 -1      4721    7    0    1
 -2      3321      5204      3317
 -1      4722    7    0    1
 -2      3189      5211      3185
 -1      4723    7    0    1
 -2      3179      5219      3191
 -1      4724    7    0    1
 -2      3311      5221      3323
 -1      4725    7    0    1
 -2      2245      5388      1706
 -1      4726    7    0    1
 -2      2088      5468      5353
 -1      4727    7    0    1
 -2      2243      5453      1877
 -1      4728    7    0    1
 -2      1873      5452      2242
 -1      4729    7    0    1
 -2       354      2426       353
 -1      4730    7    0    1
 -2       763      2427       762
 -1      4731    7    0    1
 -2      1659      5417      1750
 -1      4732    7    0    1
 -2      3431      5295      3398
 -1      4733    7    0    1
 -2      3167      5309      3134
 -1      4734    7    0    1
 -2      3299      5302      3266
 -1      4735    7    0    1
 -2      1706      5388      1731
 -1      4736    7    0    1
 -2      5697      6193      2999
 -1      4737    7    0    1
 -2      2992      6194      5696
 -1      4738    7    0    1
 -2      3421      5167      3414
 -1      4739    7    0    1
 -2      1310      6312      4998
 -1      4740    7    0    1
 -2      4997      6313      1320
 -1      4741    7    0    1
 -2      2603      5248      2605
 -1      4742    7    0    1
 -2      2562      5252      2560
 -1      4743    7    0    1
 -2      3157      5176      3150
 -1      4744    7    0    1
 -2      3289      5185      3282
 -1      4745    7    0    1
 -2      5398      5433      2008
 -1      4746    7    0    1
 -2      2336      5191      2685
 -1      4747    7    0    1
 -2      2571      6069      3466
 -1      4748    7    0    1
 -2      2956      5233      2961
 -1      4749    7    0    1
 -2      3008      5194      5193
 -1      4750    7    0    1
 -2      2888      5322      5321
 -1      4751    7    0    1
 -2      1859      5447      5360
 -1      4752    7    0    1
 -2      3197      5317      3200
 -1      4753    7    0    1
 -2      3329      5316      3332
 -1      4754    7    0    1
 -2      2918      5324      2919
 -1      4755    7    0    1
 -2      2894      5241      2846
 -1      4756    7    0    1
 -2      2333      5155      5154
 -1      4757    7    0    1
 -2      4650      5435      4654
 -1      4758    7    0    1
 -2      5434      1438      2614
 -1      4759    7    0    1
 -2      3577      3579      3578
 -1      4760    7    0    1
 -2      3437      5294      3543
 -1      4761    7    0    1
 -2      3187      5215      3189
 -1      4762    7    0    1
 -2      3319      5208      3321
 -1      4763    7    0    1
 -2      2087      5469      5333
 -1      4764    7    0    1
 -2      1785      5379      5160
 -1      4765    7    0    1
 -2      5159      5380      1777
 -1      4766    7    0    1
 -2      2952      5292      2977
 -1      4767    7    0    1
 -2      5367      5440      5368
 -1      4768    7    0    1
 -2      2962      5243      2933
 -1      4769    7    0    1
 -2      4691      5254      5253
 -1      4770    7    0    1
 -2      4804      7137      6786
 -1      4771    7    0    1
 -2      2564      5249      2570
 -1      4772    7    0    1
 -2      2862      5244      2889
 -1      4773    7    0    1
 -2      2613      5245      2607
 -1      4774    7    0    1
 -2      2550      5190      5110
 -1      4775    7    0    1
 -2       355      4838       354
 -1      4776    7    0    1
 -2      3762      6251      5515
 -1      4777    7    0    1
 -2      2633      1810      5630
 -1      4778    7    0    1
 -2      5629      5892      2623
 -1      4779    7    0    1
 -2      1680      5320      1413
 -1      4780    7    0    1
 -2      1914      5319      1641
 -1      4781    7    0    1
 -2      5267      5268      3351
 -1      4782    7    0    1
 -2      5279      5280      3219
 -1      4783    7    0    1
 -2      5255      5256      3501
 -1      4784    7    0    1
 -2      3587      4867      3588
 -1      4785    7    0    1
 -2      3515      5148      3513
 -1      4786    7    0    1
 -2      3233      5150      3231
 -1      4787    7    0    1
 -2      3365      5149      3363
 -1      4788    7    0    1
 -2      4277      4278      4276
 -1      4789    7    0    1
 -2      4323      4324      4322
 -1      4790    7    0    1
 -2      2888      5321      2881
 -1      4791    7    0    1
 -2      4965      5226      4958
 -1      4792    7    0    1
 -2      2875      5199      2880
 -1      4793    7    0    1
 -2      2429      5152      2324
 -1      4794    7    0    1
 -2      1805      6201      5882
 -1      4795    7    0    1
 -2      5883      6202      1804
 -1      4796    7    0    1
 -2      3912      6163      5507
 -1      4797    7    0    1
 -2      2951      5193      2946
 -1      4798    7    0    1
 -2      3443      5326      3540
 -1      4799    7    0    1
 -2      4219      5242      2145
 -1      4800    7    0    1
 -2      4332      4868      4331
 -1      4801    7    0    1
 -2        47      1462        48
 -1      4802    7    0    1
 -2       331      1461       332
 -1      4803    7    0    1
 -2      5181      5183      5182
 -1      4804    7    0    1
 -2      5172      5174      5173
 -1      4805    7    0    1
 -2      5163      5165      5164
 -1      4806    7    0    1
 -2      5133      5135      2788
 -1      4807    7    0    1
 -2      3771      6163      6157
 -1      4808    7    0    1
 -2      1864      5353      2515
 -1      4809    7    0    1
 -2      2520      5354      1850
 -1      4810    7    0    1
 -2      2947      5197      2941
 -1      4811    7    0    1
 -2      3419      5162      3417
 -1      4812    7    0    1
 -2      3155      5171      3153
 -1      4813    7    0    1
 -2      3287      5180      3285
 -1      4814    7    0    1
 -2      5358      5359      2907
 -1      4815    7    0    1
 -2      5278      6045      3371
 -1      4816    7    0    1
 -2      5290      6046      3239
 -1      4817    7    0    1
 -2      5227      5432      4957
 -1      4818    7    0    1
 -2      4376      4378      4374
 -1      4819    7    0    1
 -2      5940      7501      5942
 -1      4820    7    0    1
 -2      5947      7502      5945
 -1      4821    7    0    1
 -2      3024      4512      3027
 -1      4822    7    0    1
 -2      3051      4513      3048
 -1      4823    7    0    1
 -2      1750      5420      1656
 -1      4824    7    0    1
 -2      4375      4377      4376
 -1      4825    7    0    1
 -2      4512      4524      3027
 -1      4826    7    0    1
 -2      3051      4523      4513
 -1      4827    7    0    1
 -2      4314      4315      4313
 -1      4828    7    0    1
 -2      3417      5164      3415
 -1      4829    7    0    1
 -2      2483      5444      2239
 -1      4830    7    0    1
 -2      3285      5182      3283
 -1      4831    7    0    1
 -2      3153      5173      3151
 -1      4832    7    0    1
 -2      5151      6134      3712
 -1      4833    7    0    1
 -2      5172      5173      5171
 -1      4834    7    0    1
 -2      5181      5182      5180
 -1      4835    7    0    1
 -2      5163      5164      5162
 -1      4836    7    0    1
 -2      4304      4306      4305
 -1      4837    7    0    1
 -2      2259      5429      1887
 -1      4838    7    0    1
 -2      1668      5392      2244
 -1      4839    7    0    1
 -2      4401      4402      4400
 -1      4840    7    0    1
 -2      3772      6246      5080
 -1      4841    7    0    1
 -2      5026      5343      2726
 -1      4842    7    0    1
 -2      2727      5344      5023
 -1      4843    7    0    1
 -2      2151      5242      5228
 -1      4844    7    0    1
 -2      3449      5329      3447
 -1      4845    7    0    1
 -2      3303      5238      3302
 -1      4846    7    0    1
 -2      3171      5239      3170
 -1      4847    7    0    1
 -2      1773      4863      4718
 -1      4848    7    0    1
 -2      4719      4864      1774
 -1      4849    7    0    1
 -2      2801      6012      2360
 -1      4850    7    0    1
 -2      2359      6011      2800
 -1      4851    7    0    1
 -2      4163      5454      4161
 -1      4852    7    0    1
 -2      2355      6731      6675
 -1      4853    7    0    1
 -2       778      5043      1375
 -1      4854    7    0    1
 -2      2593      5189      2590
 -1      4855    7    0    1
 -2      2242      5452      2534
 -1      4856    7    0    1
 -2      2536      5453      2243
 -1      4857    7    0    1
 -2      4678      4695      4679
 -1      4858    7    0    1
 -2      6164      6297      4984
 -1      4859    7    0    1
 -2      4980      6298      6165
 -1      4860    7    0    1
 -2      3457      5355      3532
 -1      4861    7    0    1
 -2      5115      5118      2621
 -1      4862    7    0    1
 -2      2578      5123      5120
 -1      4863    7    0    1
 -2      2844      5340      2894
 -1      4864    7    0    1
 -2      4053      5552      5410
 -1      4865    7    0    1
 -2      3267      5399      3288
 -1      4866    7    0    1
 -2      3399      5401      3420
 -1      4867    7    0    1
 -2      3135      5400      3156
 -1      4868    7    0    1
 -2      6537      6677      1440
 -1      4869    7    0    1
 -2      4920      4927      4922
 -1      4870    7    0    1
 -2      4960      4965      4958
 -1      4871    7    0    1
 -2      4963      5458      4950
 -1      4872    7    0    1
 -2      4912      5461      4925
 -1      4873    7    0    1
 -2      3144      5232      3141
 -1      4874    7    0    1
 -2      3276      5230      3273
 -1      4875    7    0    1
 -2      3408      5231      3405
 -1      4876    7    0    1
 -2      2567      5346      5345
 -1      4877    7    0    1
 -2      5347      5348      2610
 -1      4878    7    0    1
 -2      3502      5255      3501
 -1      4879    7    0    1
 -2      3352      5267      3351
 -1      4880    7    0    1
 -2      3220      5279      3219
 -1      4881    7    0    1
 -2      2008      5433      2007
 -1      4882    7    0    1
 -2      1901      5409      2083
 -1      4883    7    0    1
 -2      2085      5405      1897
 -1      4884    7    0    1
 -2      2573      5345      2676
 -1      4885    7    0    1
 -2      2675      5347      2616
 -1      4886    7    0    1
 -2      4182      5445      5318
 -1      4887    7    0    1
 -2      2333      5154      2326
 -1      4888    7    0    1
 -2      2929      5339      2927
 -1      4889    7    0    1
 -2      3398      5295      3396
 -1      4890    7    0    1
 -2      3134      5309      3132
 -1      4891    7    0    1
 -2      3266      5302      3264
 -1      4892    7    0    1
 -2      2258      5428      2513
 -1      4893    7    0    1
 -2      4433      4434      4430
 -1      4894    7    0    1
 -2      5327      6760      1936
 -1      4895    7    0    1
 -2      5519      5935      4229
 -1      4896    7    0    1
 -2      4648      4649      4647
 -1      4897    7    0    1
 -2      2939      5438      2936
 -1      4898    7    0    1
 -2      4940      4977      4941
 -1      4899    7    0    1
 -2      4691      5253      4688
 -1      4900    7    0    1
 -2      3018      4576      4575
 -1      4901    7    0    1
 -2      4577      4578      3042
 -1      4902    7    0    1
 -2      2876      5367      5201
 -1      4903    7    0    1
 -2      3002      6642      2687
 -1      4904    7    0    1
 -2      2786      5373      2353
 -1      4905    7    0    1
 -2      2351      5376      2787
 -1      4906    7    0    1
 -2      3740      6236      5489
 -1      4907    7    0    1
 -2      6027      6034      5103
 -1      4908    7    0    1
 -2      2914      5369      2965
 -1      4909    7    0    1
 -2      2471      5383      2407
 -1      4910    7    0    1
 -2      4678      4679      4677
 -1      4911    7    0    1
 -2      2689      3026      3014
 -1      4912    7    0    1
 -2      3038      3050      2695
 -1      4913    7    0    1
 -2      1341      5533      1338
 -1      4914    7    0    1
 -2      5280      5411      5283
 -1      4915    7    0    1
 -2      5268      5413      5271
 -1      4916    7    0    1
 -2      5256      5415      5259
 -1      4917    7    0    1
 -2      4956      4958      4957
 -1      4918    7    0    1
 -2      4919      4920      4918
 -1      4919    7    0    1
 -2      3884      6147      5132
 -1      4920    7    0    1
 -2      3736      6230      5081
 -1      4921    7    0    1
 -2      3288      5399      3388
 -1      4922    7    0    1
 -2      3156      5400      3256
 -1      4923    7    0    1
 -2      3420      5401      3539
 -1      4924    7    0    1
 -2      3332      5363      5362
 -1      4925    7    0    1
 -2      3200      5365      5364
 -1      4926    7    0    1
 -2      2963      5323      2923
 -1      4927    7    0    1
 -2      4723      4725      1742
 -1      4928    7    0    1
 -2      1833      5835      1830
 -1      4929    7    0    1
 -2      5194      5196      5195
 -1      4930    7    0    1
 -2      6326      6748      4583
 -1      4931    7    0    1
 -2      4481      5237      3512
 -1      4932    7    0    1
 -2      4466      5235      3230
 -1      4933    7    0    1
 -2      4465      5236      3362
 -1      4934    7    0    1
 -2      5482      6015      5481
 -1      4935    7    0    1
 -2      2799      5335      2507
 -1      4936    7    0    1
 -2      1758      6304      4828
 -1      4937    7    0    1
 -2      2850      5331      2852
 -1      4938    7    0    1
 -2      2244      5417      1664
 -1      4939    7    0    1
 -2      1890      5444      5391
 -1      4940    7    0    1
 -2      2472      5384      4530
 -1      4941    7    0    1
 -2      3686      6123      3688
 -1      4942    7    0    1
 -2      6211      6223      5087
 -1      4943    7    0    1
 -2      5411      5412      5283
 -1      4944    7    0    1
 -2      5413      5414      5271
 -1      4945    7    0    1
 -2      5415      5416      5259
 -1      4946    7    0    1
 -2      3541      5294      3442
 -1      4947    7    0    1
 -2      4884      5316      3335
 -1      4948    7    0    1
 -2      4885      5317      3203
 -1      4949    7    0    1
 -2      3452      5218      3451
 -1      4950    7    0    1
 -2      3783      6227      5052
 -1      4951    7    0    1
 -2      2618      5385      4998
 -1      4952    7    0    1
 -2      4997      5386      2575
 -1      4953    7    0    1
 -2      3491      5641      3492
 -1      4954    7    0    1
 -2      5431      5752      5038
 -1      4955    7    0    1
 -2      2010      5433      2030
 -1      4956    7    0    1
 -2      4950      5458      4948
 -1      4957    7    0    1
 -2      4910      5461      4912
 -1      4958    7    0    1
 -2      2969      5357      5356
 -1      4959    7    0    1
 -2      5367      5368      5201
 -1      4960    7    0    1
 -2      2590      5189      2591
 -1      4961    7    0    1
 -2      3581      5147      1627
 -1      4962    7    0    1
 -2      2309      6746      4328
 -1      4963    7    0    1
 -2      4149      5560      4061
 -1      4964    7    0    1
 -2      5345      5346      2676
 -1      4965    7    0    1
 -2      2675      5348      5347
 -1      4966    7    0    1
 -2      5354      5469      2087
 -1      4967    7    0    1
 -2      4569      5143      1839
 -1      4968    7    0    1
 -2      4570      5144      1838
 -1      4969    7    0    1
 -2      2575      5386      2574
 -1      4970    7    0    1
 -2      2617      5385      2618
 -1      4971    7    0    1
 -2      4958      5226      4957
 -1      4972    7    0    1
 -2      2152      5546      4247
 -1      4973    7    0    1
 -2      2818      5526      5018
 -1      4974    7    0    1
 -2      5020      5525      2808
 -1      4975    7    0    1
 -2      5946      5947      5945
 -1      4976    7    0    1
 -2      5940      5942      5941
 -1      4977    7    0    1
 -2      3481      5487      4129
 -1      4978    7    0    1
 -2      1376      5159      1776
 -1      4979    7    0    1
 -2      1784      5160      1377
 -1      4980    7    0    1
 -2      5473      5703      3767
 -1      4981    7    0    1
 -2      2836      5361      2839
 -1      4982    7    0    1
 -2      4188      5445      4149
 -1      4983    7    0    1
 -2      1866      5353      1864
 -1      4984    7    0    1
 -2      1850      5354      1852
 -1      4985    7    0    1
 -2      2970      5427      2899
 -1      4986    7    0    1
 -2      5519      6024      4048
 -1      4987    7    0    1
 -2      6703      6731      6032
 -1      4988    7    0    1
 -2      2353      5373      2094
 -1      4989    7    0    1
 -2      2100      5376      2351
 -1      4990    7    0    1
 -2      5410      5552      5242
 -1      4991    7    0    1
 -2      2245      5389      5388
 -1      4992    7    0    1
 -2      2908      5358      2907
 -1      4993    7    0    1
 -2      4953      5432      4951
 -1      4994    7    0    1
 -2      2786      5374      5373
 -1      4995    7    0    1
 -2      5376      5377      2787
 -1      4996    7    0    1
 -2      3492      5641      3857
 -1      4997    7    0    1
 -2      2548      5190      2547
 -1      4998    7    0    1
 -2      3880      6134      5151
 -1      4999    7    0    1
 -2      3716      6147      6142
 -1      5000    7    0    1
 -2      5262      5264      3504
 -1      5001    7    0    1
 -2      5286      5288      3222
 -1      5002    7    0    1
 -2      5274      5276      3354
 -1      5003    7    0    1
 -2      2324      5152      2335
 -1      5004    7    0    1
 -2      2870      5367      2876
 -1      5005    7    0    1
 -2      4971      4975      4974
 -1      5006    7    0    1
 -2      4936      4937      4933
 -1      5007    7    0    1
 -2      6198      3474      4474
 -1      5008    7    0    1
 -2      5445      5560      4149
 -1      5009    7    0    1
 -2      5152      5153      2335
 -1      5010    7    0    1
 -2      2145      5242      2151
 -1      5011    7    0    1
 -2      1885      5428      2258
 -1      5012    7    0    1
 -2      2897      5440      2864
 -1      5013    7    0    1
 -2      5126      5705      2032
 -1      5014    7    0    1
 -2      1988      5704      5125
 -1      5015    7    0    1
 -2      1682      5320      1680
 -1      5016    7    0    1
 -2      1641      5319      1643
 -1      5017    7    0    1
 -2      3773      6211      5087
 -1      5018    7    0    1
 -2      4915      4919      4918
 -1      5019    7    0    1
 -2      4956      4957      4953
 -1      5020    7    0    1
 -2      5240      3481      4176
 -1      5021    7    0    1
 -2      2151      5546      2149
 -1      5022    7    0    1
 -2      3332      5362      3327
 -1      5023    7    0    1
 -2      3200      5364      3195
 -1      5024    7    0    1
 -2      2521      5446      2524
 -1      5025    7    0    1
 -2      2519      5447      2516
 -1      5026    7    0    1
 -2      2558      5345      2573
 -1      5027    7    0    1
 -2      2616      5347      2601
 -1      5028    7    0    1
 -2      4922      4924      4923
 -1      5029    7    0    1
 -2      4961      4962      4960
 -1      5030    7    0    1
 -2      1849      5446      2521
 -1      5031    7    0    1
 -2      2516      5447      1863
 -1      5032    7    0    1
 -2      1372      6127      5441
 -1      5033    7    0    1
 -2      5277      5278      3371
 -1      5034    7    0    1
 -2      5289      5290      3239
 -1      5035    7    0    1
 -2      3684      5888      3686
 -1      5036    7    0    1
 -2      5267      5413      5268
 -1      5037    7    0    1
 -2      5279      5411      5280
 -1      5038    7    0    1
 -2      3932      5571      5522
 -1      5039    7    0    1
 -2      5255      5415      5256
 -1      5040    7    0    1
 -2      1787      5379      1785
 -1      5041    7    0    1
 -2      1777      5380      1779
 -1      5042    7    0    1
 -2      2527      5431      5038
 -1      5043    7    0    1
 -2      2864      5440      2865
 -1      5044    7    0    1
 -2      6070      6159      2264
 -1      5045    7    0    1
 -2      4495      7317      5528
 -1      5046    7    0    1
 -2      1408      5392      1668
 -1      5047    7    0    1
 -2      5265      5266      3521
 -1      5048    7    0    1
 -2      4665      5370      4661
 -1      5049    7    0    1
 -2      1398      4648      4647
 -1      5050    7    0    1
 -2      4920      4922      4921
 -1      5051    7    0    1
 -2      4959      4960      4958
 -1      5052    7    0    1
 -2      5630      1810      1988
 -1      5053    7    0    1
 -2      2032      5892      5629
 -1      5054    7    0    1
 -2      5481      6015      3701
 -1      5055    7    0    1
 -2      1971      5964      5378
 -1      5056    7    0    1
 -2      5375      5965      2015
 -1      5057    7    0    1
 -2      4667      4673      4666
 -1      5058    7    0    1
 -2      3018      4575      3019
 -1      5059    7    0    1
 -2      3043      4577      3042
 -1      5060    7    0    1
 -2      4634      4830      1792
 -1      5061    7    0    1
 -2      2969      5356      2913
 -1      5062    7    0    1
 -2      5229      5546      2151
 -1      5063    7    0    1
 -2      2326      2430      2274
 -1      5064    7    0    1
 -2      2272      2429      2324
 -1      5065    7    0    1
 -2      1839      4500      3548
 -1      5066    7    0    1
 -2      1838      4501      3550
 -1      5067    7    0    1
 -2      2927      5339      5337
 -1      5068    7    0    1
 -2      2091      6321      5901
 -1      5069    7    0    1
 -2      5902      6322      2097
 -1      5070    7    0    1
 -2      4732      4734      1465
 -1      5071    7    0    1
 -2      4684      5139      4686
 -1      5072    7    0    1
 -2      6024      6034      4048
 -1      5073    7    0    1
 -2      1833      5752      5431
 -1      5074    7    0    1
 -2      3930      6186      5896
 -1      5075    7    0    1
 -2      5420      5665      1654
 -1      5076    7    0    1
 -2      1713      4835      3551
 -1      5077    7    0    1
 -2      1772      4636      4635
 -1      5078    7    0    1
 -2      4679      5442      4681
 -1      5079    7    0    1
 -2      3540      4805      3541
 -1      5080    7    0    1
 -2      3471      6205      1695
 -1      5081    7    0    1
 -2      3572      5104      1710
 -1      5082    7    0    1
 -2      3126      5402      2510
 -1      5083    7    0    1
 -2      3767      5662      5522
 -1      5084    7    0    1
 -2       371      4715      1405
 -1      5085    7    0    1
 -2      1709      2428       745
 -1      5086    7    0    1
 -2      1776      5159      1777
 -1      5087    7    0    1
 -2      1785      5160      1784
 -1      5088    7    0    1
 -2      4161      5454      4175
 -1      5089    7    0    1
 -2      2326      5154      2430
 -1      5090    7    0    1
 -2      5419      5420      1750
 -1      5091    7    0    1
 -2      1610      3394      3393
 -1      5092    7    0    1
 -2      1609      3130      3129
 -1      5093    7    0    1
 -2      1608      3262      3261
 -1      5094    7    0    1
 -2      1580      3128      3127
 -1      5095    7    0    1
 -2      2852      5331      5330
 -1      5096    7    0    1
 -2        44      1844        45
 -1      5097    7    0    1
 -2       334      1843       335
 -1      5098    7    0    1
 -2      3264      5302      3281
 -1      5099    7    0    1
 -2      3396      5295      3413
 -1      5100    7    0    1
 -2      3132      5309      3149
 -1      5101    7    0    1
 -2      1894      6245      6166
 -1      5102    7    0    1
 -2      5897      6209      3454
 -1      5103    7    0    1
 -2      3263      3264      3262
 -1      5104    7    0    1
 -2      3131      3132      3130
 -1      5105    7    0    1
 -2      3395      3396      3394
 -1      5106    7    0    1
 -2      3543      5463      3435
 -1      5107    7    0    1
 -2      2591      5189      2597
 -1      5108    7    0    1
 -2      1773      4718       374
 -1      5109    7    0    1
 -2       742      4719      1774
 -1      5110    7    0    1
 -2      5112      5189      2593
 -1      5111    7    0    1
 -2      1627      3555      3554
 -1      5112    7    0    1
 -2      3501      5257      3498
 -1      5113    7    0    1
 -2      3351      5269      3348
 -1      5114    7    0    1
 -2      3219      5281      3216
 -1      5115    7    0    1
 -2      5309      5311      5310
 -1      5116    7    0    1
 -2      5302      5304      5303
 -1      5117    7    0    1
 -2      5295      5297      5296
 -1      5118    7    0    1
 -2      3470      3471      3469
 -1      5119    7    0    1
 -2      4652      5435      4650
 -1      5120    7    0    1
 -2      4219      5410      5242
 -1      5121    7    0    1
 -2      2686      5145      2689
 -1      5122    7    0    1
 -2      2695      5146      2692
 -1      5123    7    0    1
 -2      4650      4654      4649
 -1      5124    7    0    1
 -2      5337      5338      2963
 -1      5125    7    0    1
 -2      5298      5301      5300
 -1      5126    7    0    1
 -2      5312      5315      5314
 -1      5127    7    0    1
 -2      5305      5308      5307
 -1      5128    7    0    1
 -2      6720      7195      5042
 -1      5129    7    0    1
 -2      3015      5141      3018
 -1      5130    7    0    1
 -2      3042      5142      3039
 -1      5131    7    0    1
 -2      4715      5341      1405
 -1      5132    7    0    1
 -2      1709      5342      2428
 -1      5133    7    0    1
 -2      4638      5384      2526
 -1      5134    7    0    1
 -2      5250      5251      2570
 -1      5135    7    0    1
 -2      2613      5247      5246
 -1      5136    7    0    1
 -2      2856      5161      2858
 -1      5137    7    0    1
 -2      3784      5855      5366
 -1      5138    7    0    1
 -2      4949      4950      4948
 -1      5139    7    0    1
 -2      4910      4912      4911
 -1      5140    7    0    1
 -2      2696      3038      2695
 -1      5141    7    0    1
 -2      2689      3014      2690
 -1      5142    7    0    1
 -2      3768      6192      5513
 -1      5143    7    0    1
 -2      4686      4691      4688
 -1      5144    7    0    1
 -2      5333      5469      2783
 -1      5145    7    0    1
 -2      3568      4583      1607
 -1      5146    7    0    1
 -2      4949      4951      4950
 -1      5147    7    0    1
 -2      4912      4913      4911
 -1      5148    7    0    1
 -2      2714      5372      2518
 -1      5149    7    0    1
 -2      2899      5427      2898
 -1      5150    7    0    1
 -2      3288      3300      3299
 -1      5151    7    0    1
 -2      3420      3432      3431
 -1      5152    7    0    1
 -2      3156      3168      3167
 -1      5153    7    0    1
 -2      1890      5391      1766
 -1      5154    7    0    1
 -2      3512      5237      3520
 -1      5155    7    0    1
 -2      3230      5235      3237
 -1      5156    7    0    1
 -2      3362      5236      3369
 -1      5157    7    0    1
 -2      3021      5131      3024
 -1      5158    7    0    1
 -2      3048      5130      3045
 -1      5159    7    0    1
 -2      2719      5371      2523
 -1      5160    7    0    1
 -2      4048      6034      6027
 -1      5161    7    0    1
 -2      4511      5423      2486
 -1      5162    7    0    1
 -2      2477      5425      4510
 -1      5163    7    0    1
 -2      4948      5458      5456
 -1      5164    7    0    1
 -2      6181      6185      3945
 -1      5165    7    0    1
 -2      1966      3465      1963
 -1      5166    7    0    1
 -2      4660      4666      4658
 -1      5167    7    0    1
 -2      2351      2508      2352
 -1      5168    7    0    1
 -2      2354      2507      2353
 -1      5169    7    0    1
 -2      2245      5455      5390
 -1      5170    7    0    1
 -2      3133      3134      3132
 -1      5171    7    0    1
 -2      3265      3266      3264
 -1      5172    7    0    1
 -2      3397      3398      3396
 -1      5173    7    0    1
 -2      4688      5253      4693
 -1      5174    7    0    1
 -2      1963      3465      1964
 -1      5175    7    0    1
 -2      3458      5327      5326
 -1      5176    7    0    1
 -2      2846      5241      2848
 -1      5177    7    0    1
 -2      4948      5456      4945
 -1      5178    7    0    1
 -2      5211      5212      3247
 -1      5179    7    0    1
 -2      5204      5205      3379
 -1      5180    7    0    1
 -2      3047      3048      3045
 -1      5181    7    0    1
 -2      3021      3024      3023
 -1      5182    7    0    1
 -2      3199      5317      3197
 -1      5183    7    0    1
 -2      3331      5316      3329
 -1      5184    7    0    1
 -2      3336      4507      3335
 -1      5185    7    0    1
 -2      3204      4508      3203
 -1      5186    7    0    1
 -2      4681      4692      4684
 -1      5187    7    0    1
 -2      3258      4484      3242
 -1      5188    7    0    1
 -2      3390      4483      3374
 -1      5189    7    0    1
 -2      3544      4493      3525
 -1      5190    7    0    1
 -2      3049      3051      3048
 -1      5191    7    0    1
 -2      3024      3027      3025
 -1      5192    7    0    1
 -2      2408      5384      2472
 -1      5193    7    0    1
 -2      5373      5375      2092
 -1      5194    7    0    1
 -2      2098      5378      5376
 -1      5195    7    0    1
 -2      2726      5343      2470
 -1      5196    7    0    1
 -2      2469      5344      2727
 -1      5197    7    0    1
 -2      3317      5204      3315
 -1      5198    7    0    1
 -2      3185      5211      3183
 -1      5199    7    0    1
 -2      5240      5487      3481
 -1      5200    7    0    1
 -2      3439      5294      3437
 -1      5201    7    0    1
 -2      3460      5355      3457
 -1      5202    7    0    1
 -2      2854      2895      2856
 -1      5203    7    0    1
 -2      2952      2977      2951
 -1      5204    7    0    1
 -2      3443      3540      3442
 -1      5205    7    0    1
 -2      2030      5397      2581
 -1      5206    7    0    1
 -2      5318      5445      4188
 -1      5207    7    0    1
 -2      4193      5802      5758
 -1      5208    7    0    1
 -2      2674      2799      2507
 -1      5209    7    0    1
 -2      2508      2798      2673
 -1      5210    7    0    1
 -2      1857      5452      1873
 -1      5211    7    0    1
 -2      1877      5453      1871
 -1      5212    7    0    1
 -2      2880      2888      2881
 -1      5213    7    0    1
 -2      2488      5423      5422
 -1      5214    7    0    1
 -2      5424      5425      2479
 -1      5215    7    0    1
 -2      3577      4802      3579
 -1      5216    7    0    1
 -2      3540      3541      3442
 -1      5217    7    0    1
 -2      1383      5532      1385
 -1      5218    7    0    1
 -2      2905      4872      2903
 -1      5219    7    0    1
 -2      2146      5454      4163
 -1      5220    7    0    1
 -2      1405      6998      4757
 -1      5221    7    0    1
 -2      4758      6999      1709
 -1      5222    7    0    1
 -2      4507      4884      3335
 -1      5223    7    0    1
 -2      4508      4885      3203
 -1      5224    7    0    1
 -2       748      4723      1742
 -1      5225    7    0    1
 -2      1741      4720       368
 -1      5226    7    0    1
 -2      2274      5129      1341
 -1      5227    7    0    1
 -2      1385      5128      2272
 -1      5228    7    0    1
 -2      1911      5428      1800
 -1      5229    7    0    1
 -2      2433      3522      2432
 -1      5230    7    0    1
 -2      4988      4989      3174
 -1      5231    7    0    1
 -2      4986      4987      3306
 -1      5232    7    0    1
 -2      3434      3462      3426
 -1      5233    7    0    1
 -2      2829      2971      2831
 -1      5234    7    0    1
 -2      3526      3544      3525
 -1      5235    7    0    1
 -2      3203      5317      3199
 -1      5236    7    0    1
 -2      3335      5316      3331
 -1      5237    7    0    1
 -2      2901      2970      2899
 -1      5238    7    0    1
 -2      3243      3258      3242
 -1      5239    7    0    1
 -2      3375      3390      3374
 -1      5240    7    0    1
 -2      5311      5312      5310
 -1      5241    7    0    1
 -2      5304      5305      5303
 -1      5242    7    0    1
 -2      5297      5298      5296
 -1      5243    7    0    1
 -2      5431      5835      1833
 -1      5244    7    0    1
 -2      1731      5388      1738
 -1      5245    7    0    1
 -2      2528      3483      2174
 -1      5246    7    0    1
 -2      3307      4986      3306
 -1      5247    7    0    1
 -2      3175      4988      3174
 -1      5248    7    0    1
 -2      3170      3249      3162
 -1      5249    7    0    1
 -2      3302      3381      3294
 -1      5250    7    0    1
 -2       224      1414       225
 -1      5251    7    0    1
 -2      3041      3042      3039
 -1      5252    7    0    1
 -2      3015      3018      3017
 -1      5253    7    0    1
 -2      2925      2963      2923
 -1      5254    7    0    1
 -2      2507      5335      2786
 -1      5255    7    0    1
 -2      2921      5324      2918
 -1      5256    7    0    1
 -2      3442      5294      3439
 -1      5257    7    0    1
 -2      2334      5156      2333
 -1      5258    7    0    1
 -2      2833      4870      2835
 -1      5259    7    0    1
 -2      2432      5355      3460
 -1      5260    7    0    1
 -2      5201      5202      5200
 -1      5261    7    0    1
 -2      5396      3465      5395
 -1      5262    7    0    1
 -2      2876      5200      5199
 -1      5263    7    0    1
 -2      3267      3288      3266
 -1      5264    7    0    1
 -2      3399      3420      3398
 -1      5265    7    0    1
 -2      3135      3156      3134
 -1      5266    7    0    1
 -2      2968      3104      2962
 -1      5267    7    0    1
 -2      2889      3105      2897
 -1      5268    7    0    1
 -2      2923      5323      2921
 -1      5269    7    0    1
 -2      2927      5337      2925
 -1      5270    7    0    1
 -2      4996      5436      2772
 -1      5271    7    0    1
 -2      5702      6128      2995
 -1      5272    7    0    1
 -2      2988      6129      5701
 -1      5273    7    0    1
 -2      2799      6275      6256
 -1      5274    7    0    1
 -2      6255      6274      2798
 -1      5275    7    0    1
 -2      2852      5330      2854
 -1      5276    7    0    1
 -2      3602      5000      3603
 -1      5277    7    0    1
 -2      5156      5157      5155
 -1      5278    7    0    1
 -2      2579      5717      5396
 -1      5279    7    0    1
 -2      4656      4657      4652
 -1      5280    7    0    1
 -2      3230      3237      3225
 -1      5281    7    0    1
 -2      3362      3369      3357
 -1      5282    7    0    1
 -2      3512      3520      3507
 -1      5283    7    0    1
 -2      2973      3126      2510
 -1      5284    7    0    1
 -2      2509      3125      2972
 -1      5285    7    0    1
 -2      2278      2509      2371
 -1      5286    7    0    1
 -2      2372      2510      2279
 -1      5287    7    0    1
 -2      2954      5292      2952
 -1      5288    7    0    1
 -2      4020      6027      4148
 -1      5289    7    0    1
 -2      3125      4815      2972
 -1      5290    7    0    1
 -2      2973      4816      3126
 -1      5291    7    0    1
 -2      3435      5463      3434
 -1      5292    7    0    1
 -2      2372      2973      2510
 -1      5293    7    0    1
 -2      2509      2972      2371
 -1      5294    7    0    1
 -2      4660      4667      4666
 -1      5295    7    0    1
 -2      3181      5219      3179
 -1      5296    7    0    1
 -2      3313      5221      3311
 -1      5297    7    0    1
 -2      2772      5436      2774
 -1      5298    7    0    1
 -2      2916      5369      2914
 -1      5299    7    0    1
 -2      6158      6244      1893
 -1      5300    7    0    1
 -2      2666      2898      2566
 -1      5301    7    0    1
 -2      3396      3413      3394
 -1      5302    7    0    1
 -2      3264      3281      3262
 -1      5303    7    0    1
 -2      3132      3149      3130
 -1      5304    7    0    1
 -2      2579      5396      5395
 -1      5305    7    0    1
 -2      2956      2961      2954
 -1      5306    7    0    1
 -2      2609      2828      2664
 -1      5307    7    0    1
 -2      3536      5030      3453
 -1      5308    7    0    1
 -2      2881      5321      2883
 -1      5309    7    0    1
 -2      5295      5296      3413
 -1      5310    7    0    1
 -2      5302      5303      3281
 -1      5311    7    0    1
 -2      5309      5310      3149
 -1      5312    7    0    1
 -2      4947      4949      4948
 -1      5313    7    0    1
 -2      4910      4911      4909
 -1      5314    7    0    1
 -2      2883      3123      2885
 -1      5315    7    0    1
 -2      1772      4891      4636
 -1      5316    7    0    1
 -2      2931      2967      2929
 -1      5317    7    0    1
 -2      2193      2353      2094
 -1      5318    7    0    1
 -2      2100      2351      2195
 -1      5319    7    0    1
 -2      2566      5249      2564
 -1      5320    7    0    1
 -2      2858      2896      2860
 -1      5321    7    0    1
 -2      2209      2372      2279
 -1      5322    7    0    1
 -2      2278      2371      2208
 -1      5323    7    0    1
 -2      4187      5450      4189
 -1      5324    7    0    1
 -2      2778      3472      3470
 -1      5325    7    0    1
 -2      2607      5245      2609
 -1      5326    7    0    1
 -2      3420      3431      3398
 -1      5327    7    0    1
 -2      3288      3299      3266
 -1      5328    7    0    1
 -2      3156      3167      3134
 -1      5329    7    0    1
 -2      4504      4506      2958
 -1      5330    7    0    1
 -2       762      5140       761
 -1      5331    7    0    1
 -2      4506      5233      2958
 -1      5332    7    0    1
 -2      5153      5192      5191
 -1      5333    7    0    1
 -2      5459      5461      4910
 -1      5334    7    0    1
 -2      3445      5326      3443
 -1      5335    7    0    1
 -2      2488      5422      2490
 -1      5336    7    0    1
 -2      2481      5424      2479
 -1      5337    7    0    1
 -2      4026      5935      5519
 -1      5338    7    0    1
 -2      3295      3302      3294
 -1      5339    7    0    1
 -2      3163      3170      3162
 -1      5340    7    0    1
 -2      1627      5147      3555
 -1      5341    7    0    1
 -2      4551      5576      4991
 -1      5342    7    0    1
 -2      3427      3434      3426
 -1      5343    7    0    1
 -2      2933      5243      2931
 -1      5344    7    0    1
 -2      2891      2892      2843
 -1      5345    7    0    1
 -2      2787      5336      2508
 -1      5346    7    0    1
 -2      1368      6068      3479
 -1      5347    7    0    1
 -2      3532      4711      3456
 -1      5348    7    0    1
 -2      3513      4481      3512
 -1      5349    7    0    1
 -2      3363      4465      3362
 -1      5350    7    0    1
 -2      3231      4466      3230
 -1      5351    7    0    1
 -2      5268      5271      5270
 -1      5352    7    0    1
 -2      5280      5283      5282
 -1      5353    7    0    1
 -2      5256      5259      5258
 -1      5354    7    0    1
 -2      2860      5244      2862
 -1      5355    7    0    1
 -2      3183      3247      3181
 -1      5356    7    0    1
 -2      3315      3379      3313
 -1      5357    7    0    1
 -2      2242      2533      2337
 -1      5358    7    0    1
 -2      2338      2535      2243
 -1      5359    7    0    1
 -2      4451      7482      6226
 -1      5360    7    0    1
 -2      3695      5898      5158
 -1      5361    7    0    1
 -2      2338      3010      2535
 -1      5362    7    0    1
 -2      2533      3009      2337
 -1      5363    7    0    1
 -2      2727      5023      5022
 -1      5364    7    0    1
 -2      5025      5026      2726
 -1      5365    7    0    1
 -2      2958      5233      2956
 -1      5366    7    0    1
 -2      3187      3189      3185
 -1      5367    7    0    1
 -2      3319      3321      3317
 -1      5368    7    0    1
 -2      3451      3453      3449
 -1      5369    7    0    1
 -2      4686      5139      4691
 -1      5370    7    0    1
 -2      3451      3536      3453
 -1      5371    7    0    1
 -2      1876      5448      1901
 -1      5372    7    0    1
 -2      1897      5449      1880
 -1      5373    7    0    1
 -2      1826      6154      1845
 -1      5374    7    0    1
 -2      2174      3483      1821
 -1      5375    7    0    1
 -2      2895      5161      2856
 -1      5376    7    0    1
 -2      2209      2279      2085
 -1      5377    7    0    1
 -2      2083      2278      2208
 -1      5378    7    0    1
 -2      2560      2712      2559
 -1      5379    7    0    1
 -2      2602      2711      2603
 -1      5380    7    0    1
 -2      2557      5717      5554
 -1      5381    7    0    1
 -2      5555      5718      2600
 -1      5382    7    0    1
 -2       373      1818       372
 -1      5383    7    0    1
 -2       744      1820       743
 -1      5384    7    0    1
 -2      4912      4916      4913
 -1      5385    7    0    1
 -2      4951      4954      4950
 -1      5386    7    0    1
 -2      1839      5143      4500
 -1      5387    7    0    1
 -2      1838      5144      4501
 -1      5388    7    0    1
 -2      2242      2337      1345
 -1      5389    7    0    1
 -2      1346      2338      2243
 -1      5390    7    0    1
 -2      5511      5569      5508
 -1      5391    7    0    1
 -2      5106      5107      5105
 -1      5392    7    0    1
 -2      3767      5703      5662
 -1      5393    7    0    1
 -2      2848      2890      2850
 -1      5394    7    0    1
 -2      2848      5241      2890
 -1      5395    7    0    1
 -2      2282      7476      4774
 -1      5396    7    0    1
 -2      4657      5435      4652
 -1      5397    7    0    1
 -2      3179      3191      3177
 -1      5398    7    0    1
 -2      3311      3323      3309
 -1      5399    7    0    1
 -2      3334      3335      3331
 -1      5400    7    0    1
 -2      3202      3203      3199
 -1      5401    7    0    1
 -2      2935      2962      2933
 -1      5402    7    0    1
 -2      2862      2889      2864
 -1      5403    7    0    1
 -2      2523      5371      2713
 -1      5404    7    0    1
 -2      3447      3458      3445
 -1      5405    7    0    1
 -2       746      1709       745
 -1      5406    7    0    1
 -2       371      1405       370
 -1      5407    7    0    1
 -2      3441      3442      3439
 -1      5408    7    0    1
 -2      4947      4948      4945
 -1      5409    7    0    1
 -2      4907      4910      4909
 -1      5410    7    0    1
 -2      2875      2880      2878
 -1      5411    7    0    1
 -2      3565      3566      1285
 -1      5412    7    0    1
 -2      2517      2518      2516
 -1      5413    7    0    1
 -2      2521      2523      2522
 -1      5414    7    0    1
 -2      2883      5321      3123
 -1      5415    7    0    1
 -2      2913      5356      2911
 -1      5416    7    0    1
 -2      5166      5167      3421
 -1      5417    7    0    1
 -2      5175      5176      3157
 -1      5418    7    0    1
 -2      5184      5185      3289
 -1      5419    7    0    1
 -2      4904      4905      4903
 -1      5420    7    0    1
 -2      4941      4943      4942
 -1      5421    7    0    1
 -2      5497      5498      3787
 -1      5422    7    0    1
 -2      1713      4842      4835
 -1      5423    7    0    1
 -2      2517      2714      2518
 -1      5424    7    0    1
 -2      2523      2713      2522
 -1      5425    7    0    1
 -2      2828      5430      2829
 -1      5426    7    0    1
 -2      2245      5390      5389
 -1      5427    7    0    1
 -2      2898      5249      2566
 -1      5428    7    0    1
 -2      2579      5395      2541
 -1      5429    7    0    1
 -2      2810      5021      5020
 -1      5430    7    0    1
 -2      5018      5019      2820
 -1      5431    7    0    1
 -2      2944      2947      2941
 -1      5432    7    0    1
 -2      5323      5324      2921
 -1      5433    7    0    1
 -2      2258      2469      2318
 -1      5434    7    0    1
 -2      2319      2470      2259
 -1      5435    7    0    1
 -2       747      4758       746
 -1      5436    7    0    1
 -2       370      4757       369
 -1      5437    7    0    1
 -2      2609      5245      2828
 -1      5438    7    0    1
 -2      2868      5367      2870
 -1      5439    7    0    1
 -2      3508      3512      3507
 -1      5440    7    0    1
 -2      2195      5567      2194
 -1      5441    7    0    1
 -2      2192      5568      2193
 -1      5442    7    0    1
 -2      3226      3230      3225
 -1      5443    7    0    1
 -2      3358      3362      3357
 -1      5444    7    0    1
 -2      1873      2242      1345
 -1      5445    7    0    1
 -2      1346      2243      1877
 -1      5446    7    0    1
 -2      2870      2876      2873
 -1      5447    7    0    1
 -2      5571      5792      3738
 -1      5448    7    0    1
 -2      2949      2951      2946
 -1      5449    7    0    1
 -2      5253      7388      4693
 -1      5450    7    0    1
 -2      2094      5373      2092
 -1      5451    7    0    1
 -2      2098      5376      2100
 -1      5452    7    0    1
 -2      2829      5430      2971
 -1      5453    7    0    1
 -2      3305      3306      3303
 -1      5454    7    0    1
 -2      3173      3174      3171
 -1      5455    7    0    1
 -2      1885      2258      1382
 -1      5456    7    0    1
 -2      1337      2259      1887
 -1      5457    7    0    1
 -2      1249      3549      1837
 -1      5458    7    0    1
 -2      1838      3550      1021
 -1      5459    7    0    1
 -2      1839      3548      1058
 -1      5460    7    0    1
 -2      3340      3371      3338
 -1      5461    7    0    1
 -2      3208      3239      3206
 -1      5462    7    0    1
 -2      1608      3263      3262
 -1      5463    7    0    1
 -2      1610      3395      3394
 -1      5464    7    0    1
 -2      1609      3131      3130
 -1      5465    7    0    1
 -2      3437      3543      3435
 -1      5466    7    0    1
 -2      2439      3521      2437
 -1      5467    7    0    1
 -2      2841      2891      2843
 -1      5468    7    0    1
 -2      5394      5417      2244
 -1      5469    7    0    1
 -2      2854      5330      2895
 -1      5470    7    0    1
 -2      2515      2517      2516
 -1      5471    7    0    1
 -2      2521      2522      2520
 -1      5472    7    0    1
 -2       375      1773       374
 -1      5473    7    0    1
 -2       742      1774       741
 -1      5474    7    0    1
 -2      1607      3547      1207
 -1      5475    7    0    1
 -2      1623      4819      1176
 -1      5476    7    0    1
 -2      1609      3129       985
 -1      5477    7    0    1
 -2      1610      3393       874
 -1      5478    7    0    1
 -2      1608      3261      1096
 -1      5479    7    0    1
 -2      2686      2689      2688
 -1      5480    7    0    1
 -2      2694      2695      2692
 -1      5481    7    0    1
 -2      4906      5460      5459
 -1      5482    7    0    1
 -2      4681      5442      4692
 -1      5483    7    0    1
 -2      5456      5457      4944
 -1      5484    7    0    1
 -2      2961      5292      2954
 -1      5485    7    0    1
 -2      4870      4871      2835
 -1      5486    7    0    1
 -2      2555      2559      2554
 -1      5487    7    0    1
 -2      2597      2602      2598
 -1      5488    7    0    1
 -2      2547      2550      2549
 -1      5489    7    0    1
 -2      2592      2593      2590
 -1      5490    7    0    1
 -2      4904      4906      4905
 -1      5491    7    0    1
 -2      4943      4944      4942
 -1      5492    7    0    1
 -2      2332      4300      4299
 -1      5493    7    0    1
 -2      1713      3551       843
 -1      5494    7    0    1
 -2      5441      6127      4122
 -1      5495    7    0    1
 -2      2977      3008      2951
 -1      5496    7    0    1
 -2      1871      2088      1869
 -1      5497    7    0    1
 -2      1855      2087      1857
 -1      5498    7    0    1
 -2      3315      5204      3379
 -1      5499    7    0    1
 -2      3183      5211      3247
 -1      5500    7    0    1
 -2      3197      3200      3195
 -1      5501    7    0    1
 -2      3329      3332      3327
 -1      5502    7    0    1
 -2      3283      3289      3282
 -1      5503    7    0    1
 -2      3415      3421      3414
 -1      5504    7    0    1
 -2      3151      3157      3150
 -1      5505    7    0    1
 -2      1800      5428      1885
 -1      5506    7    0    1
 -2       360      4823       359
 -1      5507    7    0    1
 -2      1625      4866       954
 -1      5508    7    0    1
 -2      1622      4865      1139
 -1      5509    7    0    1
 -2      1624      4853       917
 -1      5510    7    0    1
 -2      2965      2969      2913
 -1      5511    7    0    1
 -2      1174      5033      1613
 -1      5512    7    0    1
 -2      2880      3011      2888
 -1      5513    7    0    1
 -2      3457      3532      3456
 -1      5514    7    0    1
 -2      4945      5456      4944
 -1      5515    7    0    1
 -2      2193      2354      2353
 -1      5516    7    0    1
 -2      2351      2352      2195
 -1      5517    7    0    1
 -2      5211      5213      5212
 -1      5518    7    0    1
 -2      5204      5206      5205
 -1      5519    7    0    1
 -2      2925      5337      2963
 -1      5520    7    0    1
 -2      2618      2802      2675
 -1      5521    7    0    1
 -2      2676      2803      2575
 -1      5522    7    0    1
 -2      2270      2471      2407
 -1      5523    7    0    1
 -2      2408      2472      2271
 -1      5524    7    0    1
 -2       840      3552      1582
 -1      5525    7    0    1
 -2      2594      2610      2593
 -1      5526    7    0    1
 -2      2550      2567      2551
 -1      5527    7    0    1
 -2      5351      5352      2891
 -1      5528    7    0    1
 -2      3277      3282      3276
 -1      5529    7    0    1
 -2      3145      3150      3144
 -1      5530    7    0    1
 -2      3409      3414      3408
 -1      5531    7    0    1
 -2      1909      2270      2174
 -1      5532    7    0    1
 -2      2175      2271      1908
 -1      5533    7    0    1
 -2       753      4732      1465
 -1      5534    7    0    1
 -2      3464      2432      3460
 -1      5535    7    0    1
 -2       952      4858      1615
 -1      5536    7    0    1
 -2      1137      4857      1612
 -1      5537    7    0    1
 -2       915      4836      1614
 -1      5538    7    0    1
 -2      3524      3525      3515
 -1      5539    7    0    1
 -2      2605      2613      2607
 -1      5540    7    0    1
 -2      2564      2570      2562
 -1      5541    7    0    1
 -2      3247      5219      3181
 -1      5542    7    0    1
 -2      3379      5221      3313
 -1      5543    7    0    1
 -2      3241      3242      3233
 -1      5544    7    0    1
 -2      3373      3374      3365
 -1      5545    7    0    1
 -2      3458      5328      5327
 -1      5546    7    0    1
 -2      3586      4777      3590
 -1      5547    7    0    1
 -2      2354      2674      2507
 -1      5548    7    0    1
 -2      2508      2673      2352
 -1      5549    7    0    1
 -2      2931      5243      2967
 -1      5550    7    0    1
 -2      4915      4918      4917
 -1      5551    7    0    1
 -2      4955      4956      4953
 -1      5552    7    0    1
 -2       369      1741       368
 -1      5553    7    0    1
 -2       748      1742       747
 -1      5554    7    0    1
 -2      3282      3296      3276
 -1      5555    7    0    1
 -2      3150      3164      3144
 -1      5556    7    0    1
 -2      3414      3428      3408
 -1      5557    7    0    1
 -2      5113      5116      5115
 -1      5558    7    0    1
 -2      5120      5121      5111
 -1      5559    7    0    1
 -2      1287      4634      1792
 -1      5560    7    0    1
 -2      3271      3278      3269
 -1      5561    7    0    1
 -2      3139      3146      3137
 -1      5562    7    0    1
 -2      3403      3410      3401
 -1      5563    7    0    1
 -2      2896      5244      2860
 -1      5564    7    0    1
 -2      2175      2408      2271
 -1      5565    7    0    1
 -2      2270      2407      2174
 -1      5566    7    0    1
 -2      2518      5372      2720
 -1      5567    7    0    1
 -2      1849      2521      2520
 -1      5568    7    0    1
 -2      2515      2516      1863
 -1      5569    7    0    1
 -2      2919      5369      2916
 -1      5570    7    0    1
 -2       606      6171      5210
 -1      5571    7    0    1
 -2       514      6170      5217
 -1      5572    7    0    1
 -2      2573      2575      2574
 -1      5573    7    0    1
 -2      2617      2618      2616
 -1      5574    7    0    1
 -2      1629      3553      1244
 -1      5575    7    0    1
 -2      1772      4635      1242
 -1      5576    7    0    1
 -2      2319      2726      2470
 -1      5577    7    0    1
 -2      2469      2727      2318
 -1      5578    7    0    1
 -2      3269      5399      3267
 -1      5579    7    0    1
 -2      3137      5400      3135
 -1      5580    7    0    1
 -2      3401      5401      3399
 -1      5581    7    0    1
 -2      1022      4570      1838
 -1      5582    7    0    1
 -2      1059      4569      1839
 -1      5583    7    0    1
 -2      2810      5020      2808
 -1      5584    7    0    1
 -2      2818      5018      2820
 -1      5585    7    0    1
 -2      2914      2965      2913
 -1      5586    7    0    1
 -2      1026      3581      1627
 -1      5587    7    0    1
 -2      1063      3580      1628
 -1      5588    7    0    1
 -2      3395      3397      3396
 -1      5589    7    0    1
 -2      3131      3133      3132
 -1      5590    7    0    1
 -2      3263      3265      3264
 -1      5591    7    0    1
 -2      1829      2175      1908
 -1      5592    7    0    1
 -2      1909      2174      1821
 -1      5593    7    0    1
 -2      1580      3127      1283
 -1      5594    7    0    1
 -2      5680      6380      6375
 -1      5595    7    0    1
 -2      2918      2919      2916
 -1      5596    7    0    1
 -2      1061      3556      1578
 -1      5597    7    0    1
 -2      3771      6172      5507
 -1      5598    7    0    1
 -2      2321      3004      2482
 -1      5599    7    0    1
 -2      2473      3003      2320
 -1      5600    7    0    1
 -2      2844      2894      2846
 -1      5601    7    0    1
 -2      2526      5384      2408
 -1      5602    7    0    1
 -2      1627      3554      1025
 -1      5603    7    0    1
 -2      2529      4637      3102
 -1      5604    7    0    1
 -2      3103      4638      2526
 -1      5605    7    0    1
 -2      2666      2899      2898
 -1      5606    7    0    1
 -2      3574      3575      1277
 -1      5607    7    0    1
 -2      2470      3067      2514
 -1      5608    7    0    1
 -2      2513      3066      2469
 -1      5609    7    0    1
 -2      2828      2829      2664
 -1      5610    7    0    1
 -2      2782      5468      5334
 -1      5611    7    0    1
 -2      2865      5440      2868
 -1      5612    7    0    1
 -2      5110      5111      2567
 -1      5613    7    0    1
 -2      2610      5113      5112
 -1      5614    7    0    1
 -2      1377      2239      1890
 -1      5615    7    0    1
 -2      1889      2238      1376
 -1      5616    7    0    1
 -2      3458      5326      3445
 -1      5617    7    0    1
 -2      2324      2335      2325
 -1      5618    7    0    1
 -2      2327      2333      2326
 -1      5619    7    0    1
 -2      1251      3572      1710
 -1      5620    7    0    1
 -2      2238      2320      1376
 -1      5621    7    0    1
 -2      1377      2321      2239
 -1      5622    7    0    1
 -2      5493      5494      4238
 -1      5623    7    0    1
 -2      1784      1377      1890
 -1      5624    7    0    1
 -2      1889      1376      1776
 -1      5625    7    0    1
 -2      1782      1909      1821
 -1      5626    7    0    1
 -2      1829      1908      1790
 -1      5627    7    0    1
 -2      5496      5497      3787
 -1      5628    7    0    1
 -2      3327      5362      3325
 -1      5629    7    0    1
 -2      3195      5364      3193
 -1      5630    7    0    1
 -2      3106      4529      2471
 -1      5631    7    0    1
 -2      2472      4530      3107
 -1      5632    7    0    1
 -2      4354      5048      5047
 -1      5633    7    0    1
 -2      2876      5201      5200
 -1      5634    7    0    1
 -2      3124      5443      2885
 -1      5635    7    0    1
 -2       766      7312      4714
 -1      5636    7    0    1
 -2      2430      5129      2274
 -1      5637    7    0    1
 -2      2272      5128      2429
 -1      5638    7    0    1
 -2      2546      2547      2545
 -1      5639    7    0    1
 -2      2588      2590      2589
 -1      5640    7    0    1
 -2      4907      5459      4910
 -1      5641    7    0    1
 -2      2839      5361      5351
 -1      5642    7    0    1
 -2      2597      5189      2621
 -1      5643    7    0    1
 -2      4544      4610       987
 -1      5644    7    0    1
 -2      4545      4609       876
 -1      5645    7    0    1
 -2      4546      4611      1098
 -1      5646    7    0    1
 -2      1766      5391      1734
 -1      5647    7    0    1
 -2      5030      5032      5031
 -1      5648    7    0    1
 -2       375      4729      1773
 -1      5649    7    0    1
 -2      1774      4728       741
 -1      5650    7    0    1
 -2      1819      4813      1497
 -1      5651    7    0    1
 -2      2258      2318      1382
 -1      5652    7    0    1
 -2      1337      2319      2259
 -1      5653    7    0    1
 -2      2470      5343      3067
 -1      5654    7    0    1
 -2      3066      5344      2469
 -1      5655    7    0    1
 -2      2445      3504      2441
 -1      5656    7    0    1
 -2      3212      3222      3210
 -1      5657    7    0    1
 -2      3344      3354      3342
 -1      5658    7    0    1
 -2      2946      5193      2944
 -1      5659    7    0    1
 -2      5520      2415      5557
 -1      5660    7    0    1
 -2      1764      1889      1776
 -1      5661    7    0    1
 -2      1784      1890      1766
 -1      5662    7    0    1
 -2      2597      2621      2602
 -1      5663    7    0    1
 -2      2559      2578      2554
 -1      5664    7    0    1
 -2      3278      5399      3269
 -1      5665    7    0    1
 -2      3146      5400      3137
 -1      5666    7    0    1
 -2      3410      5401      3401
 -1      5667    7    0    1
 -2      3028      6318      5108
 -1      5668    7    0    1
 -2      4299      5046      4298
 -1      5669    7    0    1
 -2      2238      2473      2320
 -1      5670    7    0    1
 -2      2321      2482      2239
 -1      5671    7    0    1
 -2      2873      5199      2875
 -1      5672    7    0    1
 -2      5398      5718      2622
 -1      5673    7    0    1
 -2      4919      5223      4920
 -1      5674    7    0    1
 -2      1573      5291      1289
 -1      5675    7    0    1
 -2      3123      3124      2885
 -1      5676    7    0    1
 -2      1240      5293      1575
 -1      5677    7    0    1
 -2      3847      5569      5511
 -1      5678    7    0    1
 -2      1208      3568      1607
 -1      5679    7    0    1
 -2      2508      5336      2798
 -1      5680    7    0    1
 -2      2030      5433      5397
 -1      5681    7    0    1
 -2      2841      2843      2842
 -1      5682    7    0    1
 -2      2935      2968      2962
 -1      5683    7    0    1
 -2      2889      2897      2864
 -1      5684    7    0    1
 -2      3143      3144      3141
 -1      5685    7    0    1
 -2      3407      3408      3405
 -1      5686    7    0    1
 -2      3275      3276      3273
 -1      5687    7    0    1
 -2      2510      5402      2793
 -1      5688    7    0    1
 -2      4386      4387      4384
 -1      5689    7    0    1
 -2      4924      5090      4934
 -1      5690    7    0    1
 -2      3775      2413      5451
 -1      5691    7    0    1
 -2      3586      3590      1542
 -1      5692    7    0    1
 -2      1707      3468      1411
 -1      5693    7    0    1
 -2      3780      5499      3792
 -1      5694    7    0    1
 -2      3065      7297      3064
 -1      5695    7    0    1
 -2      3425      3426      3419
 -1      5696    7    0    1
 -2      3188      3192      3187
 -1      5697    7    0    1
 -2      3320      3324      3319
 -1      5698    7    0    1
 -2      1762      3468      1707
 -1      5699    7    0    1
 -2      3381      5181      5180
 -1      5700    7    0    1
 -2      3249      5172      5171
 -1      5701    7    0    1
 -2      5402      5404      5403
 -1      5702    7    0    1
 -2      3161      3162      3155
 -1      5703    7    0    1
 -2      3293      3294      3287
 -1      5704    7    0    1
 -2      2547      2549      2545
 -1      5705    7    0    1
 -2      2588      2592      2590
 -1      5706    7    0    1
 -2      3462      5163      5162
 -1      5707    7    0    1
 -2      5394      5418      5417
 -1      5708    7    0    1
 -2      2351      2787      2508
 -1      5709    7    0    1
 -2      2507      2786      2353
 -1      5710    7    0    1
 -2      2577      4980      4979
 -1      5711    7    0    1
 -2      4983      4984      2620
 -1      5712    7    0    1
 -2      2571      5717      2557
 -1      5713    7    0    1
 -2      2600      5718      2614
 -1      5714    7    0    1
 -2      3024      5131      4512
 -1      5715    7    0    1
 -2      4513      5130      3048
 -1      5716    7    0    1
 -2      4195      5543      5503
 -1      5717    7    0    1
 -2      5353      5468      2515
 -1      5718    7    0    1
 -2      2336      2685      2358
 -1      5719    7    0    1
 -2      2356      2691      2334
 -1      5720    7    0    1
 -2      2912      2913      2911
 -1      5721    7    0    1
 -2      4656      4658      4657
 -1      5722    7    0    1
 -2      5522      5662      3932
 -1      5723    7    0    1
 -2      2534      3012      2533
 -1      5724    7    0    1
 -2      2535      3013      2536
 -1      5725    7    0    1
 -2      3974      3977      3976
 -1      5726    7    0    1
 -2      3426      5162      3419
 -1      5727    7    0    1
 -2      3162      5171      3155
 -1      5728    7    0    1
 -2      3294      5180      3287
 -1      5729    7    0    1
 -2      2911      5358      2908
 -1      5730    7    0    1
 -2      6157      6163      5132
 -1      5731    7    0    1
 -2      4925      4926      4916
 -1      5732    7    0    1
 -2      4954      4964      4963
 -1      5733    7    0    1
 -2      2880      2881      2878
 -1      5734    7    0    1
 -2      2944      5193      2947
 -1      5735    7    0    1
 -2      3805      5462      3656
 -1      5736    7    0    1
 -2      2876      5199      2873
 -1      5737    7    0    1
 -2      5084      7329      2120
 -1      5738    7    0    1
 -2       362      4856       361
 -1      5739    7    0    1
 -2      2574      5386      2577
 -1      5740    7    0    1
 -2      2620      5385      2617
 -1      5741    7    0    1
 -2      4034      6109      5935
 -1      5742    7    0    1
 -2      3749      5855      3784
 -1      5743    7    0    1
 -2      4906      5459      4907
 -1      5744    7    0    1
 -2      4359      4361      4360
 -1      5745    7    0    1
 -2      5121      5122      5111
 -1      5746    7    0    1
 -2      5113      5117      5116
 -1      5747    7    0    1
 -2      2949      2952      2951
 -1      5748    7    0    1
 -2      2586      2588      2587
 -1      5749    7    0    1
 -2      2544      2545      2543
 -1      5750    7    0    1
 -2      3500      3501      3498
 -1      5751    7    0    1
 -2      3050      5146      2695
 -1      5752    7    0    1
 -2      2689      5145      3026
 -1      5753    7    0    1
 -2      1702      5455      2245
 -1      5754    7    0    1
 -2      3350      3351      3348
 -1      5755    7    0    1
 -2      3218      3219      3216
 -1      5756    7    0    1
 -2      2542      2543      2541
 -1      5757    7    0    1
 -2      2584      2586      2585
 -1      5758    7    0    1
 -2      2843      5340      2844
 -1      5759    7    0    1
 -2      3133      3135      3134
 -1      5760    7    0    1
 -2      3265      3267      3266
 -1      5761    7    0    1
 -2      3397      3399      3398
 -1      5762    7    0    1
 -2      2524      2719      2523
 -1      5763    7    0    1
 -2      2518      2720      2519
 -1      5764    7    0    1
 -2      2577      5386      4980
 -1      5765    7    0    1
 -2      4984      5385      2620
 -1      5766    7    0    1
 -2      3288      3388      3300
 -1      5767    7    0    1
 -2      3156      3256      3168
 -1      5768    7    0    1
 -2      3420      3539      3432
 -1      5769    7    0    1
 -2      3506      3507      3502
 -1      5770    7    0    1
 -2      4039      5542      4035
 -1      5771    7    0    1
 -2      3224      3225      3220
 -1      5772    7    0    1
 -2      3356      3357      3352
 -1      5773    7    0    1
 -2      2591      2597      2596
 -1      5774    7    0    1
 -2      2553      2554      2548
 -1      5775    7    0    1
 -2      4385      4464      4386
 -1      5776    7    0    1
 -2      3058      5790      1511
 -1      5777    7    0    1
 -2      1878      5449      1346
 -1      5778    7    0    1
 -2      1345      5448      1874
 -1      5779    7    0    1
 -2      2615      2616      2601
 -1      5780    7    0    1
 -2      2558      2573      2572
 -1      5781    7    0    1
 -2       363      4735       362
 -1      5782    7    0    1
 -2       367      1537       366
 -1      5783    7    0    1
 -2       750      1536       749
 -1      5784    7    0    1
 -2      2839      5351      2841
 -1      5785    7    0    1
 -2      1873      1345      1874
 -1      5786    7    0    1
 -2      1878      1346      1877
 -1      5787    7    0    1
 -2      4061      5560      4059
 -1      5788    7    0    1
 -2      3450      3451      3449
 -1      5789    7    0    1
 -2      1286      3565      1285
 -1      5790    7    0    1
 -2      2631      5126      2629
 -1      5791    7    0    1
 -2      2639      5125      2641
 -1      5792    7    0    1
 -2      2086      2209      2085
 -1      5793    7    0    1
 -2      2083      2208      2084
 -1      5794    7    0    1
 -2      2550      2551      2549
 -1      5795    7    0    1
 -2      2592      2594      2593
 -1      5796    7    0    1
 -2      1901      2083      1651
 -1      5797    7    0    1
 -2      1898      2085      1897
 -1      5798    7    0    1
 -2      2573      2676      2575
 -1      5799    7    0    1
 -2      2618      2675      2616
 -1      5800    7    0    1
 -2      2549      5554      2545
 -1      5801    7    0    1
 -2      2588      5555      2592
 -1      5802    7    0    1
 -2      3584      3586      1542
 -1      5803    7    0    1
 -2      2720      2979      2781
 -1      5804    7    0    1
 -2      2780      2978      2719
 -1      5805    7    0    1
 -2      2713      2796      2783
 -1      5806    7    0    1
 -2      2782      2797      2714
 -1      5807    7    0    1
 -2      3018      5141      4576
 -1      5808    7    0    1
 -2      4578      5142      3042
 -1      5809    7    0    1
 -2      2486      5423      2488
 -1      5810    7    0    1
 -2      2479      5425      2477
 -1      5811    7    0    1
 -2      3242      5150      3233
 -1      5812    7    0    1
 -2      3374      5149      3365
 -1      5813    7    0    1
 -2      3525      5148      3515
 -1      5814    7    0    1
 -2      1910      3468      1762
 -1      5815    7    0    1
 -2      2433      3467      3522
 -1      5816    7    0    1
 -2      2567      5345      2551
 -1      5817    7    0    1
 -2      2594      5347      2610
 -1      5818    7    0    1
 -2      1065      4716      1064
 -1      5819    7    0    1
 -2      1028      4717      1027
 -1      5820    7    0    1
 -2      3237      5411      5279
 -1      5821    7    0    1
 -2      3369      5413      5267
 -1      5822    7    0    1
 -2      2979      5037      5036
 -1      5823    7    0    1
 -2      1815      3562      1094
 -1      5824    7    0    1
 -2      1814      3564       872
 -1      5825    7    0    1
 -2      1817      3563       983
 -1      5826    7    0    1
 -2      2605      5248      2613
 -1      5827    7    0    1
 -2      3520      5415      5255
 -1      5828    7    0    1
 -2      2570      5252      2562
 -1      5829    7    0    1
 -2      1857      1873      1858
 -1      5830    7    0    1
 -2      1872      1877      1871
 -1      5831    7    0    1
 -2      2472      3107      2791
 -1      5832    7    0    1
 -2      2790      3106      2471
 -1      5833    7    0    1
 -2      5503      5542      4195
 -1      5834    7    0    1
 -2      2839      2841      2840
 -1      5835    7    0    1
 -2      1846      5446      1849
 -1      5836    7    0    1
 -2      1863      5447      1860
 -1      5837    7    0    1
 -2      5135      5847      2788
 -1      5838    7    0    1
 -2      1887      5429      1761
 -1      5839    7    0    1
 -2      5280      5282      5281
 -1      5840    7    0    1
 -2      5268      5270      5269
 -1      5841    7    0    1
 -2      5256      5258      5257
 -1      5842    7    0    1
 -2      2618      4998      2802
 -1      5843    7    0    1
 -2      2803      4997      2575
 -1      5844    7    0    1
 -2      5557      2415      4091
 -1      5845    7    0    1
 -2      3334      3336      3335
 -1      5846    7    0    1
 -2      3202      3204      3203
 -1      5847    7    0    1
 -2      5126      5629      2629
 -1      5848    7    0    1
 -2      2639      5630      5125
 -1      5849    7    0    1
 -2      5481      6089      5480
 -1      5850    7    0    1
 -2      1287      1792      1286
 -1      5851    7    0    1
 -2      3479      6068      4112
 -1      5852    7    0    1
 -2      2543      5554      2579
 -1      5853    7    0    1
 -2      2622      5555      2586
 -1      5854    7    0    1
 -2      1986      3465      1966
 -1      5855    7    0    1
 -2      5391      5393      5392
 -1      5856    7    0    1
 -2      6019      6141      5577
 -1      5857    7    0    1
 -2      1249      1837      1248
 -1      5858    7    0    1
 -2       842      1840       841
 -1      5859    7    0    1
 -2      1022      1838      1021
 -1      5860    7    0    1
 -2      1059      1839      1058
 -1      5861    7    0    1
 -2      3441      3443      3442
 -1      5862    7    0    1
 -2      3107      5084      5083
 -1      5863    7    0    1
 -2      1140      1622      1139
 -1      5864    7    0    1
 -2      1177      1623      1176
 -1      5865    7    0    1
 -2       955      1625       954
 -1      5866    7    0    1
 -2       918      1624       917
 -1      5867    7    0    1
 -2      1467      6241      5336
 -1      5868    7    0    1
 -2      2543      2579      2541
 -1      5869    7    0    1
 -2      2584      2622      2586
 -1      5870    7    0    1
 -2       984      1817       983
 -1      5871    7    0    1
 -2      1095      1815      1094
 -1      5872    7    0    1
 -2      1206      1816      1205
 -1      5873    7    0    1
 -2       873      1814       872
 -1      5874    7    0    1
 -2      4926      4928      4916
 -1      5875    7    0    1
 -2      4954      4966      4964
 -1      5876    7    0    1
 -2      2407      2529      2528
 -1      5877    7    0    1
 -2      2525      2526      2408
 -1      5878    7    0    1
 -2      1246      4547      1245
 -1      5879    7    0    1
 -2      2602      2603      2598
 -1      5880    7    0    1
 -2      2555      2560      2559
 -1      5881    7    0    1
 -2      3006      4763      2779
 -1      5882    7    0    1
 -2      2775      4764      3005
 -1      5883    7    0    1
 -2      1243      1772      1242
 -1      5884    7    0    1
 -2      2557      5554      2549
 -1      5885    7    0    1
 -2      2592      5555      2600
 -1      5886    7    0    1
 -2      3456      5218      3452
 -1      5887    7    0    1
 -2      4187      3496      5450
 -1      5888    7    0    1
 -2      1480      3557      1291
 -1      5889    7    0    1
 -2      1238      3558      1395
 -1      5890    7    0    1
 -2      3357      5267      3352
 -1      5891    7    0    1
 -2      3225      5279      3220
 -1      5892    7    0    1
 -2      2868      5440      5367
 -1      5893    7    0    1
 -2      3917      3475      3660
 -1      5894    7    0    1
 -2      3507      5255      3502
 -1      5895    7    0    1
 -2      1849      2520      1850
 -1      5896    7    0    1
 -2      1864      2515      1863
 -1      5897    7    0    1
 -2      1869      5353      1866
 -1      5898    7    0    1
 -2      1852      5354      1855
 -1      5899    7    0    1
 -2      1870      1871      1869
 -1      5900    7    0    1
 -2      1855      1857      1856
 -1      5901    7    0    1
 -2       839      4542       838
 -1      5902    7    0    1
 -2      2181      7289      5306
 -1      5903    7    0    1
 -2      2189      7290      5313
 -1      5904    7    0    1
 -2      2185      7291      5299
 -1      5905    7    0    1
 -2      1030      4780      1029
 -1      5906    7    0    1
 -2      1067      4779      1066
 -1      5907    7    0    1
 -2      2529      3102      2530
 -1      5908    7    0    1
 -2      2527      3103      2526
 -1      5909    7    0    1
 -2       845      4768       844
 -1      5910    7    0    1
 -2      1097      1608      1096
 -1      5911    7    0    1
 -2       986      1609       985
 -1      5912    7    0    1
 -2       875      1610       874
 -1      5913    7    0    1
 -2       952      1615       951
 -1      5914    7    0    1
 -2       915      1614       914
 -1      5915    7    0    1
 -2      1137      1612      1136
 -1      5916    7    0    1
 -2      1174      1613      1173
 -1      5917    7    0    1
 -2      1208      1607      1207
 -1      5918    7    0    1
 -2      4688      4693      4689
 -1      5919    7    0    1
 -2      3455      3456      3452
 -1      5920    7    0    1
 -2      1278      3574      1277
 -1      5921    7    0    1
 -2      5298      5300      5299
 -1      5922    7    0    1
 -2      5305      5307      5306
 -1      5923    7    0    1
 -2      5312      5314      5313
 -1      5924    7    0    1
 -2      3888      5476      3861
 -1      5925    7    0    1
 -2      4686      4688      4687
 -1      5926    7    0    1
 -2      3306      5238      3303
 -1      5927    7    0    1
 -2      3174      5239      3171
 -1      5928    7    0    1
 -2      6225      6292      1705
 -1      5929    7    0    1
 -2      1031      3596      1030
 -1      5930    7    0    1
 -2      1068      3595      1067
 -1      5931    7    0    1
 -2       846      3597       845
 -1      5932    7    0    1
 -2      2275      2326      2274
 -1      5933    7    0    1
 -2      2272      2324      2273
 -1      5934    7    0    1
 -2      5444      1553      5393
 -1      5935    7    0    1
 -2      3271      5230      3278
 -1      5936    7    0    1
 -2      3139      5232      3146
 -1      5937    7    0    1
 -2      3403      5231      3410
 -1      5938    7    0    1
 -2      4913      4915      4914
 -1      5939    7    0    1
 -2      4952      4953      4951
 -1      5940    7    0    1
 -2      5125      5672      2641
 -1      5941    7    0    1
 -2      2631      5671      5126
 -1      5942    7    0    1
 -2      3405      5231      3403
 -1      5943    7    0    1
 -2      3141      5232      3139
 -1      5944    7    0    1
 -2      3273      5230      3271
 -1      5945    7    0    1
 -2      4951      5432      4954
 -1      5946    7    0    1
 -2      2551      5345      2558
 -1      5947    7    0    1
 -2      2601      5347      2594
 -1      5948    7    0    1
 -2      2632      2804      2631
 -1      5949    7    0    1
 -2      2641      2814      2642
 -1      5950    7    0    1
 -2      6132      6986      2760
 -1      5951    7    0    1
 -2      2765      6987      6133
 -1      5952    7    0    1
 -2      1279      1716      1278
 -1      5953    7    0    1
 -2      1020      1406      1019
 -1      5954    7    0    1
 -2      1251      1710      1250
 -1      5955    7    0    1
 -2      1066      1712      1065
 -1      5956    7    0    1
 -2       844      1713       843
 -1      5957    7    0    1
 -2      1029      1711      1028
 -1      5958    7    0    1
 -2       835      1714       834
 -1      5959    7    0    1
 -2      1057      1715      1056
 -1      5960    7    0    1
 -2       834      1611       833
 -1      5961    7    0    1
 -2      4059      5763      4050
 -1      5962    7    0    1
 -2      2258      2513      2469
 -1      5963    7    0    1
 -2      2470      2514      2259
 -1      5964    7    0    1
 -2      1019      3570      1018
 -1      5965    7    0    1
 -2      1056      3571      1055
 -1      5966    7    0    1
 -2      2150      5553      2148
 -1      5967    7    0    1
 -2      4012      3477      4172
 -1      5968    7    0    1
 -2       753      1465       752
 -1      5969    7    0    1
 -2       364      1466       363
 -1      5970    7    0    1
 -2      2222      3480      2734
 -1      5971    7    0    1
 -2      2610      5112      2593
 -1      5972    7    0    1
 -2      2550      5110      2567
 -1      5973    7    0    1
 -2      1734      5392      1408
 -1      5974    7    0    1
 -2      1024      1400      1023
 -1      5975    7    0    1
 -2      1061      1578      1060
 -1      5976    7    0    1
 -2       840      1582       839
 -1      5977    7    0    1
 -2      1247      1581      1246
 -1      5978    7    0    1
 -2      1284      1580      1283
 -1      5979    7    0    1
 -2      3861      5476      3863
 -1      5980    7    0    1
 -2      1761      1910      1762
 -1      5981    7    0    1
 -2      1759      1911      1800
 -1      5982    7    0    1
 -2      5110      5120      5111
 -1      5983    7    0    1
 -2      5113      5115      5112
 -1      5984    7    0    1
 -2      1859      5752      1834
 -1      5985    7    0    1
 -2      2466      3482      2292
 -1      5986    7    0    1
 -2      2087      5452      1857
 -1      5987    7    0    1
 -2      1871      5453      2088
 -1      5988    7    0    1
 -2      1790      5379      1787
 -1      5989    7    0    1
 -2      1779      5380      1782
 -1      5990    7    0    1
 -2      3321      5208      5207
 -1      5991    7    0    1
 -2      3189      5215      5214
 -1      5992    7    0    1
 -2      3464      2433      2432
 -1      5993    7    0    1
 -2      2541      5395      2538
 -1      5994    7    0    1
 -2      2998      2999      2996
 -1      5995    7    0    1
 -2      2989      2992      2991
 -1      5996    7    0    1
 -2      3800      5483      3801
 -1      5997    7    0    1
 -2      2615      2617      2616
 -1      5998    7    0    1
 -2      2573      2574      2572
 -1      5999    7    0    1
 -2      1173      3567      1172
 -1      6000    7    0    1
 -2      5391      5444      5393
 -1      6001    7    0    1
 -2      1782      1821      1783
 -1      6002    7    0    1
 -2      1791      1829      1790
 -1      6003    7    0    1
 -2      2994      2995      2647
 -1      6004    7    0    1
 -2      2650      2988      2987
 -1      6005    7    0    1
 -2      4229      6024      5519
 -1      6006    7    0    1
 -2       335      5096       336
 -1      6007    7    0    1
 -2        43      5097        44
 -1      6008    7    0    1
 -2       838      1630       837
 -1      6009    7    0    1
 -2      1063      1628      1062
 -1      6010    7    0    1
 -2      1245      1629      1244
 -1      6011    7    0    1
 -2      1026      1627      1025
 -1      6012    7    0    1
 -2      1282      1626      1281
 -1      6013    7    0    1
 -2      4003      5493      4238
 -1      6014    7    0    1
 -2      1738      5387      1764
 -1      6015    7    0    1
 -2      3173      3175      3174
 -1      6016    7    0    1
 -2      3305      3307      3306
 -1      6017    7    0    1
 -2      2672      2801      2360
 -1      6018    7    0    1
 -2      2359      2800      2671
 -1      6019    7    0    1
 -2      1385      2272      1336
 -1      6020    7    0    1
 -2      1342      2274      1341
 -1      6021    7    0    1
 -2      3892      5534      3796
 -1      6022    7    0    1
 -2      1738      5388      5387
 -1      6023    7    0    1
 -2      3295      3303      3302
 -1      6024    7    0    1
 -2      3163      3171      3170
 -1      6025    7    0    1
 -2      3991      3476      3990
 -1      6026    7    0    1
 -2      5510      5874      5511
 -1      6027    7    0    1
 -2      3526      5504      3544
 -1      6028    7    0    1
 -2       833      4770       832
 -1      6029    7    0    1
 -2      3375      5505      3390
 -1      6030    7    0    1
 -2      3243      5506      3258
 -1      6031    7    0    1
 -2      1018      4772      1017
 -1      6032    7    0    1
 -2      1055      4771      1054
 -1      6033    7    0    1
 -2      3932      5792      5571
 -1      6034    7    0    1
 -2      3099      3100      3097
 -1      6035    7    0    1
 -2      3091      3094      3093
 -1      6036    7    0    1
 -2       292      1434       293
 -1      6037    7    0    1
 -2        86      1435        87
 -1      6038    7    0    1
 -2      3634      3635      3633
 -1      6039    7    0    1
 -2      1822      3483      1825
 -1      6040    7    0    1
 -2      4141      5547      4110
 -1      6041    7    0    1
 -2      2397      3488      2459
 -1      6042    7    0    1
 -2      3702      6114      1531
 -1      6043    7    0    1
 -2      3427      3435      3434
 -1      6044    7    0    1
 -2      2818      2820      2819
 -1      6045    7    0    1
 -2      2809      2810      2808
 -1      6046    7    0    1
 -2      2546      2548      2547
 -1      6047    7    0    1
 -2      2590      2591      2589
 -1      6048    7    0    1
 -2        78      1481        79
 -1      6049    7    0    1
 -2       300      1482       301
 -1      6050    7    0    1
 -2      1667      6293      6228
 -1      6051    7    0    1
 -2      2795      5025      2726
 -1      6052    7    0    1
 -2      2727      5022      2794
 -1      6053    7    0    1
 -2      1764      1776      1765
 -1      6054    7    0    1
 -2      1767      1784      1766
 -1      6055    7    0    1
 -2      2407      5383      2529
 -1      6056    7    0    1
 -2      3508      3513      3512
 -1      6057    7    0    1
 -2      3759      5496      3766
 -1      6058    7    0    1
 -2      3226      3231      3230
 -1      6059    7    0    1
 -2      3358      3363      3362
 -1      6060    7    0    1
 -2      2928      2929      2927
 -1      6061    7    0    1
 -2      2477      4510      2475
 -1      6062    7    0    1
 -2      2484      4511      2486
 -1      6063    7    0    1
 -2      3809      5483      5482
 -1      6064    7    0    1
 -2      2856      2858      2857
 -1      6065    7    0    1
 -2      3448      3449      3447
 -1      6066    7    0    1
 -2      2482      2484      2483
 -1      6067    7    0    1
 -2      2474      2475      2473
 -1      6068    7    0    1
 -2        80      2041        81
 -1      6069    7    0    1
 -2       298      2042       299
 -1      6070    7    0    1
 -2      4005      5493      4003
 -1      6071    7    0    1
 -2      3799      5467      5466
 -1      6072    7    0    1
 -2      4663      4665      4661
 -1      6073    7    0    1
 -2      1735      1766      1734
 -1      6074    7    0    1
 -2      1738      1764      1739
 -1      6075    7    0    1
 -2      5395      3465      1986
 -1      6076    7    0    1
 -2      4016      3484      4170
 -1      6077    7    0    1
 -2      2630      2631      2629
 -1      6078    7    0    1
 -2      2639      2641      2640
 -1      6079    7    0    1
 -2        83      1484        84
 -1      6080    7    0    1
 -2       295      1485       296
 -1      6081    7    0    1
 -2        75      1468        76
 -1      6082    7    0    1
 -2       303      1469       304
 -1      6083    7    0    1
 -2      3692      5509      3690
 -1      6084    7    0    1
 -2      5758      5802      5410
 -1      6085    7    0    1
 -2      2597      2598      2596
 -1      6086    7    0    1
 -2      2553      2555      2554
 -1      6087    7    0    1
 -2      2910      2911      2908
 -1      6088    7    0    1
 -2      2892      5340      2843
 -1      6089    7    0    1
 -2      4052      5619      4053
 -1      6090    7    0    1
 -2      4278      4279      4276
 -1      6091    7    0    1
 -2      3186      3187      3185
 -1      6092    7    0    1
 -2      3318      3319      3317
 -1      6093    7    0    1
 -2      3799      5466      3668
 -1      6094    7    0    1
 -2      3491      3492      3786
 -1      6095    7    0    1
 -2      1846      1849      1848
 -1      6096    7    0    1
 -2      1862      1863      1860
 -1      6097    7    0    1
 -2      5522      5571      3733
 -1      6098    7    0    1
 -2      4522      6853      4783
 -1      6099    7    0    1
 -2      5030      5031      3453
 -1      6100    7    0    1
 -2      3716      6157      5132
 -1      6101    7    0    1
 -2      1171      1819      1497
 -1      6102    7    0    1
 -2      3277      3283      3282
 -1      6103    7    0    1
 -2      3145      3151      3150
 -1      6104    7    0    1
 -2      3409      3415      3414
 -1      6105    7    0    1
 -2      1876      1901      1900
 -1      6106    7    0    1
 -2      1896      1897      1880
 -1      6107    7    0    1
 -2       877      4545       876
 -1      6108    7    0    1
 -2       988      4544       987
 -1      6109    7    0    1
 -2      1099      4546      1098
 -1      6110    7    0    1
 -2      1032      1540      1031
 -1      6111    7    0    1
 -2      1069      1543      1068
 -1      6112    7    0    1
 -2       847      1541       846
 -1      6113    7    0    1
 -2      1254      1542      1253
 -1      6114    7    0    1
 -2      1017      1545      1016
 -1      6115    7    0    1
 -2      1054      1547      1053
 -1      6116    7    0    1
 -2      1276      1544      1275
 -1      6117    7    0    1
 -2       832      1546       831
 -1      6118    7    0    1
 -2      5473      6108      5703
 -1      6119    7    0    1
 -2      2333      5156      5155
 -1      6120    7    0    1
 -2      3766      5496      3787
 -1      6121    7    0    1
 -2      2930      2931      2929
 -1      6122    7    0    1
 -2      5487      5693      4129
 -1      6123    7    0    1
 -2      1874      5448      1876
 -1      6124    7    0    1
 -2      1880      5449      1878
 -1      6125    7    0    1
 -2      5895      6161      3714
 -1      6126    7    0    1
 -2      1290      1573      1289
 -1      6127    7    0    1
 -2      1240      1575      1239
 -1      6128    7    0    1
 -2      3407      3409      3408
 -1      6129    7    0    1
 -2      3143      3145      3144
 -1      6130    7    0    1
 -2      3275      3277      3276
 -1      6131    7    0    1
 -2      3692      5510      5509
 -1      6132    7    0    1
 -2      5195      5197      2947
 -1      6133    7    0    1
 -2      3784      5471      5470
 -1      6134    7    0    1
 -2      1822      1825      1824
 -1      6135    7    0    1
 -2      1832      1833      1830
 -1      6136    7    0    1
 -2      2858      2860      2859
 -1      6137    7    0    1
 -2       361      1302       360
 -1      6138    7    0    1
 -2       756      1304       755
 -1      6139    7    0    1
 -2      3524      3526      3525
 -1      6140    7    0    1
 -2      2815      2818      2817
 -1      6141    7    0    1
 -2      2807      2808      2805
 -1      6142    7    0    1
 -2      1836      1859      1834
 -1      6143    7    0    1
 -2      1826      1845      1828
 -1      6144    7    0    1
 -2      4195      5542      4039
 -1      6145    7    0    1
 -2      5270      5273      5272
 -1      6146    7    0    1
 -2      5282      5285      5284
 -1      6147    7    0    1
 -2      3241      3243      3242
 -1      6148    7    0    1
 -2      3373      3375      3374
 -1      6149    7    0    1
 -2      5258      5261      5260
 -1      6150    7    0    1
 -2      2843      2844      2842
 -1      6151    7    0    1
 -2      3645      3486      3646
 -1      6152    7    0    1
 -2      3713      5641      3491
 -1      6153    7    0    1
 -2      1868      1869      1866
 -1      6154    7    0    1
 -2      1852      1855      1854
 -1      6155    7    0    1
 -2      4659      4660      4658
 -1      6156    7    0    1
 -2        88      2039        89
 -1      6157    7    0    1
 -2       290      2040       291
 -1      6158    7    0    1
 -2      3717      3487      3794
 -1      6159    7    0    1
 -2       305      1343       306
 -1      6160    7    0    1
 -2        73      1344        74
 -1      6161    7    0    1
 -2      2375      5465      2376
 -1      6162    7    0    1
 -2      4134      3489      4083
 -1      6163    7    0    1
 -2      1845      6016      5446
 -1      6164    7    0    1
 -2      3809      5482      3811
 -1      6165    7    0    1
 -2        71      1431        72
 -1      6166    7    0    1
 -2       307      1455       308
 -1      6167    7    0    1
 -2      1317      3560      1293
 -1      6168    7    0    1
 -2      1236      3559      1388
 -1      6169    7    0    1
 -2      5268      5269      3351
 -1      6170    7    0    1
 -2      5280      5281      3219
 -1      6171    7    0    1
 -2      2906      2907      2905
 -1      6172    7    0    1
 -2      5256      5257      3501
 -1      6173    7    0    1
 -2      4069      5484      4190
 -1      6174    7    0    1
 -2      3708      3491      3786
 -1      6175    7    0    1
 -2      1977      5516      1987
 -1      6176    7    0    1
 -2      2031      5517      2021
 -1      6177    7    0    1
 -2      1254      3584      1542
 -1      6178    7    0    1
 -2      2815      5526      2818
 -1      6179    7    0    1
 -2      2808      5525      2805
 -1      6180    7    0    1
 -2      1983      5472      2264
 -1      6181    7    0    1
 -2      2538      5395      1986
 -1      6182    7    0    1
 -2      4172      3490      4010
 -1      6183    7    0    1
 -2      1204      3561      1605
 -1      6184    7    0    1
 -2       309      2143       310
 -1      6185    7    0    1
 -2        69      2144        70
 -1      6186    7    0    1
 -2      1032      3594      1540
 -1      6187    7    0    1
 -2      3817      5480      5479
 -1      6188    7    0    1
 -2      5360      5752      1859
 -1      6189    7    0    1
 -2      2779      5424      2481
 -1      6190    7    0    1
 -2      2490      5422      2775
 -1      6191    7    0    1
 -2      4145      3496      4067
 -1      6192    7    0    1
 -2        67      1393        68
 -1      6193    7    0    1
 -2       311      1446       312
 -1      6194    7    0    1
 -2      5547      5548      4128
 -1      6195    7    0    1
 -2      4906      4907      4905
 -1      6196    7    0    1
 -2      4943      4945      4944
 -1      6197    7    0    1
 -2      2912      2914      2913
 -1      6198    7    0    1
 -2      3161      3163      3162
 -1      6199    7    0    1
 -2      3293      3295      3294
 -1      6200    7    0    1
 -2      4648      4650      4649
 -1      6201    7    0    1
 -2      3795      5473      3727
 -1      6202    7    0    1
 -2      1789      1790      1787
 -1      6203    7    0    1
 -2      1779      1782      1781
 -1      6204    7    0    1
 -2      5419      5421      5420
 -1      6205    7    0    1
 -2      5195      5198      5197
 -1      6206    7    0    1
 -2      2540      2541      2538
 -1      6207    7    0    1
 -2      2581      2584      2583
 -1      6208    7    0    1
 -2      1606      4854      3607
 -1      6209    7    0    1
 -2      1605      4855      3609
 -1      6210    7    0    1
 -2        65      2045        66
 -1      6211    7    0    1
 -2       313      2044       314
 -1      6212    7    0    1
 -2      4199      5543      4196
 -1      6213    7    0    1
 -2      5509      5511      5508
 -1      6214    7    0    1
 -2        57      2126        58
 -1      6215    7    0    1
 -2       321      2125       322
 -1      6216    7    0    1
 -2      3798      5474      3723
 -1      6217    7    0    1
 -2      3041      3043      3042
 -1      6218    7    0    1
 -2      3018      3019      3017
 -1      6219    7    0    1
 -2      4129      5693      4114
 -1      6220    7    0    1
 -2       315      1437       316
 -1      6221    7    0    1
 -2        63      1436        64
 -1      6222    7    0    1
 -2       317      2123       318
 -1      6223    7    0    1
 -2        61      2124        62
 -1      6224    7    0    1
 -2      3801      5483      3809
 -1      6225    7    0    1
 -2      3787      5499      3780
 -1      6226    7    0    1
 -2      4904      5647      4906
 -1      6227    7    0    1
 -2      5410      5802      4053
 -1      6228    7    0    1
 -2      3784      5470      3751
 -1      6229    7    0    1
 -2      3058      1511      3054
 -1      6230    7    0    1
 -2      3316      3317      3315
 -1      6231    7    0    1
 -2      3184      3185      3183
 -1      6232    7    0    1
 -2      5356      5358      2911
 -1      6233    7    0    1
 -2      3188      3193      3192
 -1      6234    7    0    1
 -2      3320      3325      3324
 -1      6235    7    0    1
 -2      4954      5432      4966
 -1      6236    7    0    1
 -2      3425      3427      3426
 -1      6237    7    0    1
 -2      1685      1686      1684
 -1      6238    7    0    1
 -2      1645      1647      1646
 -1      6239    7    0    1
 -2      4954      4963      4950
 -1      6240    7    0    1
 -2      4912      4925      4916
 -1      6241    7    0    1
 -2      4130      3481      4129
 -1      6242    7    0    1
 -2      4186      5547      4141
 -1      6243    7    0    1
 -2      2435      3467      2433
 -1      6244    7    0    1
 -2       319      1428       320
 -1      6245    7    0    1
 -2        59      1429        60
 -1      6246    7    0    1
 -2      4551      5857      5576
 -1      6247    7    0    1
 -2      3745      2413      3775
 -1      6248    7    0    1
 -2      2696      3039      3038
 -1      6249    7    0    1
 -2      3014      3015      2690
 -1      6250    7    0    1
 -2      4306      4307      4305
 -1      6251    7    0    1
 -2      2792      5407      5406
 -1      6252    7    0    1
 -2        90      1316        91
 -1      6253    7    0    1
 -2       288      1319       289
 -1      6254    7    0    1
 -2      1731      1738      1737
 -1      6255    7    0    1
 -2      1733      1734      1408
 -1      6256    7    0    1
 -2      1845      5446      1846
 -1      6257    7    0    1
 -2      1860      5447      1859
 -1      6258    7    0    1
 -2      1238      1395      1237
 -1      6259    7    0    1
 -2      1292      1480      1291
 -1      6260    7    0    1
 -2      4095      5477      4087
 -1      6261    7    0    1
 -2      3500      3502      3501
 -1      6262    7    0    1
 -2      3350      3352      3351
 -1      6263    7    0    1
 -2      3218      3220      3219
 -1      6264    7    0    1
 -2      2792      5406      2509
 -1      6265    7    0    1
 -2        50      1307        51
 -1      6266    7    0    1
 -2       328      1308       329
 -1      6267    7    0    1
 -2      4915      5225      4919
 -1      6268    7    0    1
 -2      3506      3508      3507
 -1      6269    7    0    1
 -2      6142      6147      5151
 -1      6270    7    0    1
 -2      4747      4999      1757
 -1      6271    7    0    1
 -2      3817      5479      3813
 -1      6272    7    0    1
 -2      3356      3358      3357
 -1      6273    7    0    1
 -2      3224      3226      3225
 -1      6274    7    0    1
 -2      2460      3495      2396
 -1      6275    7    0    1
 -2      2484      2486      2485
 -1      6276    7    0    1
 -2      2476      2477      2475
 -1      6277    7    0    1
 -2      1546      4821       831
 -1      6278    7    0    1
 -2      1547      4822      1053
 -1      6279    7    0    1
 -2      1545      4820      1016
 -1      6280    7    0    1
 -2      2586      2587      2585
 -1      6281    7    0    1
 -2      2542      2544      2543
 -1      6282    7    0    1
 -2      5081      5488      5055
 -1      6283    7    0    1
 -2      2335      5191      2336
 -1      6284    7    0    1
 -2      4315      4316      4313
 -1      6285    7    0    1
 -2      2841      5351      2891
 -1      6286    7    0    1
 -2      1901      5448      5409
 -1      6287    7    0    1
 -2      5405      5449      1897
 -1      6288    7    0    1
 -2      2554      5190      2548
 -1      6289    7    0    1
 -2      2278      2792      2509
 -1      6290    7    0    1
 -2      2510      2793      2279
 -1      6291    7    0    1
 -2      1761      5429      1910
 -1      6292    7    0    1
 -2       326      2046       327
 -1      6293    7    0    1
 -2        52      2047        53
 -1      6294    7    0    1
 -2      3867      4540      3869
 -1      6295    7    0    1
 -2      2588      2589      2587
 -1      6296    7    0    1
 -2      2544      2546      2545
 -1      6297    7    0    1
 -2      4196      5543      4195
 -1      6298    7    0    1
 -2      2932      2933      2931
 -1      6299    7    0    1
 -2      1699      5320      1682
 -1      6300    7    0    1
 -2      1643      5319      1661
 -1      6301    7    0    1
 -2        54      1325        55
 -1      6302    7    0    1
 -2       324      1324       325
 -1      6303    7    0    1
 -2      5391      5392      1734
 -1      6304    7    0    1
 -2      2860      2862      2861
 -1      6305    7    0    1
 -2      5335      6237      1394
 -1      6306    7    0    1
 -2      2509      5406      3125
 -1      6307    7    0    1
 -2      4037      4143      4193
 -1      6308    7    0    1
 -2      2105      6210      5001
 -1      6309    7    0    1
 -2      2082      4736      3582
 -1      6310    7    0    1
 -2      2079      4752      3583
 -1      6311    7    0    1
 -2      2627      2629      2625
 -1      6312    7    0    1
 -2      2635      2639      2637
 -1      6313    7    0    1
 -2      2155      5553      2150
 -1      6314    7    0    1
 -2      1702      2245      1706
 -1      6315    7    0    1
 -2      1668      2244      1664
 -1      6316    7    0    1
 -2      3802      5490      3968
 -1      6317    7    0    1
 -2      2100      2195      2194
 -1      6318    7    0    1
 -2      2192      2193      2094
 -1      6319    7    0    1
 -2      1643      1645      1644
 -1      6320    7    0    1
 -2      1683      1684      1682
 -1      6321    7    0    1
 -2      1764      5387      1889
 -1      6322    7    0    1
 -2      2098      2100      2099
 -1      6323    7    0    1
 -2      2093      2094      2092
 -1      6324    7    0    1
 -2      2242      2534      2533
 -1      6325    7    0    1
 -2      2535      2536      2243
 -1      6326    7    0    1
 -2      1686      5485      1684
 -1      6327    7    0    1
 -2      1855      5354      2087
 -1      6328    7    0    1
 -2      2088      5353      1869
 -1      6329    7    0    1
 -2      2833      2835      2834
 -1      6330    7    0    1
 -2      2831      2833      2832
 -1      6331    7    0    1
 -2      5861      5874      5510
 -1      6332    7    0    1
 -2      2789      3006      2779
 -1      6333    7    0    1
 -2      2775      3005      2788
 -1      6334    7    0    1
 -2      2673      4875      3113
 -1      6335    7    0    1
 -2      3112      4876      2674
 -1      6336    7    0    1
 -2      2520      5469      5354
 -1      6337    7    0    1
 -2      2584      2585      2583
 -1      6338    7    0    1
 -2      2540      2542      2541
 -1      6339    7    0    1
 -2      4228      5445      4182
 -1      6340    7    0    1
 -2      2841      2842      2840
 -1      6341    7    0    1
 -2      5366      5855      5791
 -1      6342    7    0    1
 -2      3800      5527      5483
 -1      6343    7    0    1
 -2      6089      1531      5480
 -1      6344    7    0    1
 -2      5498      5499      3787
 -1      6345    7    0    1
 -2      2521      2524      2523
 -1      6346    7    0    1
 -2      2518      2519      2516
 -1      6347    7    0    1
 -2      4070      5484      4069
 -1      6348    7    0    1
 -2      4067      3496      4064
 -1      6349    7    0    1
 -2      4035      5542      4032
 -1      6350    7    0    1
 -2      4000      4250      3998
 -1      6351    7    0    1
 -2      4304      4308      4306
 -1      6352    7    0    1
 -2      5005      5006      2813
 -1      6353    7    0    1
 -2      2823      5003      5002
 -1      6354    7    0    1
 -2      3005      5134      5133
 -1      6355    7    0    1
 -2      1782      5380      1909
 -1      6356    7    0    1
 -2      1908      5379      1790
 -1      6357    7    0    1
 -2      3429      1937      3411
 -1      6358    7    0    1
 -2      5409      5448      5094
 -1      6359    7    0    1
 -2      5095      5449      5405
 -1      6360    7    0    1
 -2      3165      1939      3147
 -1      6361    7    0    1
 -2      3297      1935      3279
 -1      6362    7    0    1
 -2      2270      2790      2471
 -1      6363    7    0    1
 -2      2472      2791      2271
 -1      6364    7    0    1
 -2      4919      5224      5223
 -1      6365    7    0    1
 -2      1687      1688      1686
 -1      6366    7    0    1
 -2      1647      1518      1517
 -1      6367    7    0    1
 -2      2148      5553      5544
 -1      6368    7    0    1
 -2      5402      5403      2793
 -1      6369    7    0    1
 -2      3490      5494      5493
 -1      6370    7    0    1
 -2      1294      1317      1293
 -1      6371    7    0    1
 -2      1236      1388      1235
 -1      6372    7    0    1
 -2      3654      3805      3656
 -1      6373    7    0    1
 -2      4103      5500      4102
 -1      6374    7    0    1
 -2       118      2255       119
 -1      6375    7    0    1
 -2       260      2256       261
 -1      6376    7    0    1
 -2      3446      3447      3445
 -1      6377    7    0    1
 -2      3796      5534      3782
 -1      6378    7    0    1
 -2      3650      3916      3652
 -1      6379    7    0    1
 -2      2836      2839      2838
 -1      6380    7    0    1
 -2      2090      2092      2024
 -1      6381    7    0    1
 -2      1980      2098      2096
 -1      6382    7    0    1
 -2      4211      5491      4209
 -1      6383    7    0    1
 -2      5527      5676      3934
 -1      6384    7    0    1
 -2      2904      2905      2903
 -1      6385    7    0    1
 -2      2238      2474      2473
 -1      6386    7    0    1
 -2      2482      2483      2239
 -1      6387    7    0    1
 -2      2194      5567      2268
 -1      6388    7    0    1
 -2      2269      5568      2192
 -1      6389    7    0    1
 -2      5576      5857      4135
 -1      6390    7    0    1
 -2      1346      5095      2338
 -1      6391    7    0    1
 -2      2337      5094      1345
 -1      6392    7    0    1
 -2      4376      4379      4378
 -1      6393    7    0    1
 -2       262      2231       263
 -1      6394    7    0    1
 -2       116      2230       117
 -1      6395    7    0    1
 -2      2926      2927      2925
 -1      6396    7    0    1
 -2      2387      2512      2389
 -1      6397    7    0    1
 -2      2406      2511      2404
 -1      6398    7    0    1
 -2      3990      5514      3987
 -1      6399    7    0    1
 -2      2529      5383      4637
 -1      6400    7    0    1
 -2      5153      5191      2335
 -1      6401    7    0    1
 -2      3779      5495      3755
 -1      6402    7    0    1
 -2      2517      2782      2714
 -1      6403    7    0    1
 -2      2713      2783      2522
 -1      6404    7    0    1
 -2      3182      3183      3181
 -1      6405    7    0    1
 -2      3314      3315      3313
 -1      6406    7    0    1
 -2       258      2328       259
 -1      6407    7    0    1
 -2       120      2329       121
 -1      6408    7    0    1
 -2      2534      5045      3012
 -1      6409    7    0    1
 -2      3013      5044      2536
 -1      6410    7    0    1
 -2      2854      2856      2855
 -1      6411    7    0    1
 -2      4684      4686      4685
 -1      6412    7    0    1
 -2      3656      5462      3658
 -1      6413    7    0    1
 -2      3381      5180      3294
 -1      6414    7    0    1
 -2      3249      5171      3162
 -1      6415    7    0    1
 -2      3462      5162      3426
 -1      6416    7    0    1
 -2      3054      1511      3052
 -1      6417    7    0    1
 -2      2581      5397      2584
 -1      6418    7    0    1
 -2      5450      3496      4145
 -1      6419    7    0    1
 -2      4010      3490      4008
 -1      6420    7    0    1
 -2      5531      5575      3713
 -1      6421    7    0    1
 -2      3646      3486      3650
 -1      6422    7    0    1
 -2      2902      2903      2901
 -1      6423    7    0    1
 -2      1360      5541      4213
 -1      6424    7    0    1
 -2       956      4572       955
 -1      6425    7    0    1
 -2       919      4573       918
 -1      6426    7    0    1
 -2      1178      4574      1177
 -1      6427    7    0    1
 -2      1141      4571      1140
 -1      6428    7    0    1
 -2      3800      5676      5527
 -1      6429    7    0    1
 -2      5873      6012      2801
 -1      6430    7    0    1
 -2      2800      6011      5872
 -1      6431    7    0    1
 -2      3450      3452      3451
 -1      6432    7    0    1
 -2      3738      5518      3739
 -1      6433    7    0    1
 -2      2397      2459      2396
 -1      6434    7    0    1
 -2      2379      2461      2380
 -1      6435    7    0    1
 -2      3658      3917      3660
 -1      6436    7    0    1
 -2      3660      3475      3662
 -1      6437    7    0    1
 -2      2720      2781      2519
 -1      6438    7    0    1
 -2      2524      2780      2719
 -1      6439    7    0    1
 -2      4213      5541      4215
 -1      6440    7    0    1
 -2      3863      5476      3867
 -1      6441    7    0    1
 -2      2988      2989      2987
 -1      6442    7    0    1
 -2      2994      2996      2995
 -1      6443    7    0    1
 -2      2147      1373      2146
 -1      6444    7    0    1
 -2      3845      5523      3921
 -1      6445    7    0    1
 -2      3821      5531      3698
 -1      6446    7    0    1
 -2      2934      2935      2933
 -1      6447    7    0    1
 -2      2900      2901      2899
 -1      6448    7    0    1
 -2      4053      5619      5552
 -1      6449    7    0    1
 -2      3853      5524      3828
 -1      6450    7    0    1
 -2      2175      2525      2408
 -1      6451    7    0    1
 -2      2407      2528      2174
 -1      6452    7    0    1
 -2      2862      2864      2863
 -1      6453    7    0    1
 -2      2362      3482      2375
 -1      6454    7    0    1
 -2      3677      5521      3678
 -1      6455    7    0    1
 -2      3967      5549      3803
 -1      6456    7    0    1
 -2      2224      3480      2222
 -1      6457    7    0    1
 -2      2292      3482      2362
 -1      6458    7    0    1
 -2      3698      5531      3699
 -1      6459    7    0    1
 -2      2924      2925      2923
 -1      6460    7    0    1
 -2      3666      3478      3799
 -1      6461    7    0    1
 -2      4711      5218      3456
 -1      6462    7    0    1
 -2      3767      5522      3731
 -1      6463    7    0    1
 -2      2979      5036      2781
 -1      6464    7    0    1
 -2      2780      5039      2978
 -1      6465    7    0    1
 -2      2399      3488      2397
 -1      6466    7    0    1
 -2      3455      3457      3456
 -1      6467    7    0    1
 -2      4123      6153      6144
 -1      6468    7    0    1
 -2      3107      5083      2791
 -1      6469    7    0    1
 -2      2790      5085      3106
 -1      6470    7    0    1
 -2      2600      2601      2594
 -1      6471    7    0    1
 -2      2551      2558      2557
 -1      6472    7    0    1
 -2      4012      4172      4010
 -1      6473    7    0    1
 -2      3094      3095      3093
 -1      6474    7    0    1
 -2      3099      3101      3100
 -1      6475    7    0    1
 -2      2694      2696      2695
 -1      6476    7    0    1
 -2      2689      2690      2688
 -1      6477    7    0    1
 -2      1888      1337      1887
 -1      6478    7    0    1
 -2      1885      1382      1886
 -1      6479    7    0    1
 -2      3662      3475      3665
 -1      6480    7    0    1
 -2      3658      5462      3917
 -1      6481    7    0    1
 -2      1354      5535      4157
 -1      6482    7    0    1
 -2      1694      1749      1697
 -1      6483    7    0    1
 -2      1659      1750      1656
 -1      6484    7    0    1
 -2      3673      5926      5896
 -1      6485    7    0    1
 -2      4763      5424      2779
 -1      6486    7    0    1
 -2      2775      5422      4764
 -1      6487    7    0    1
 -2      3447      5329      3458
 -1      6488    7    0    1
 -2      2396      3495      2393
 -1      6489    7    0    1
 -2       188      2127       189
 -1      6490    7    0    1
 -2       190      2128       191
 -1      6491    7    0    1
 -2      2465      3480      2224
 -1      6492    7    0    1
 -2      3237      5279      3225
 -1      6493    7    0    1
 -2      3369      5267      3357
 -1      6494    7    0    1
 -2      2131      5472      1983
 -1      6495    7    0    1
 -2      3520      5255      3507
 -1      6496    7    0    1
 -2      2852      2854      2853
 -1      6497    7    0    1
 -2      1997      2037      1999
 -1      6498    7    0    1
 -2      1955      2038      1953
 -1      6499    7    0    1
 -2      2082      3582       848
 -1      6500    7    0    1
 -2      2079      3583      1070
 -1      6501    7    0    1
 -2      2459      2460      2396
 -1      6502    7    0    1
 -2      2379      2462      2461
 -1      6503    7    0    1
 -2      4038      4143      4037
 -1      6504    7    0    1
 -2      4944      5648      4942
 -1      6505    7    0    1
 -2      1689      1690      1688
 -1      6506    7    0    1
 -2      1518      1649      1648
 -1      6507    7    0    1
 -2      4008      5493      4005
 -1      6508    7    0    1
 -2      4148      3485      3484
 -1      6509    7    0    1
 -2      3757      5496      3759
 -1      6510    7    0    1
 -2      2940      2941      2939
 -1      6511    7    0    1
 -2      2868      2870      2869
 -1      6512    7    0    1
 -2      2229      2466      2292
 -1      6513    7    0    1
 -2      2294      2465      2224
 -1      6514    7    0    1
 -2      3606      4553      2370
 -1      6515    7    0    1
 -2      3608      4554      2369
 -1      6516    7    0    1
 -2      3690      5509      3693
 -1      6517    7    0    1
 -2      4738      4811      2277
 -1      6518    7    0    1
 -2      1383      1385      1384
 -1      6519    7    0    1
 -2      1340      1341      1338
 -1      6520    7    0    1
 -2      2395      2396      2393
 -1      6521    7    0    1
 -2      2376      2379      2378
 -1      6522    7    0    1
 -2      2393      3495      2392
 -1      6523    7    0    1
 -2      4161      4175      4160
 -1      6524    7    0    1
 -2      1981      5516      1977
 -1      6525    7    0    1
 -2      2021      5517      2025
 -1      6526    7    0    1
 -2      2943      2944      2941
 -1      6527    7    0    1
 -2      2829      2831      2830
 -1      6528    7    0    1
 -2       286      1381       287
 -1      6529    7    0    1
 -2        92      1380        93
 -1      6530    7    0    1
 -2      3666      3799      3668
 -1      6531    7    0    1
 -2      4175      4176      4160
 -1      6532    7    0    1
 -2      2632      2805      2804
 -1      6533    7    0    1
 -2      2814      2815      2642
 -1      6534    7    0    1
 -2      3998      3476      3991
 -1      6535    7    0    1
 -2      3670      5466      3673
 -1      6536    7    0    1
 -2       256      2052       257
 -1      6537    7    0    1
 -2       122      2050       123
 -1      6538    7    0    1
 -2      1821      3483      1822
 -1      6539    7    0    1
 -2      4738      4812      4811
 -1      6540    7    0    1
 -2      2401      2402      2399
 -1      6541    7    0    1
 -2      2382      2385      2384
 -1      6542    7    0    1
 -2      4174      5512      4165
 -1      6543    7    0    1
 -2      2362      2375      2374
 -1      6544    7    0    1
 -2      2391      2392      2364
 -1      6545    7    0    1
 -2      3650      3486      3916
 -1      6546    7    0    1
 -2       192      2049       193
 -1      6547    7    0    1
 -2       186      2048       187
 -1      6548    7    0    1
 -2      4189      1359      4188
 -1      6549    7    0    1
 -2      4118      5520      4147
 -1      6550    7    0    1
 -2      4920      5223      4927
 -1      6551    7    0    1
 -2      4956      4959      4958
 -1      6552    7    0    1
 -2      4920      4921      4918
 -1      6553    7    0    1
 -2      2260      5472      2131
 -1      6554    7    0    1
 -2      4201      5544      4208
 -1      6555    7    0    1
 -2       264      2135       265
 -1      6556    7    0    1
 -2       114      2136       115
 -1      6557    7    0    1
 -2      4190      4191      4145
 -1      6558    7    0    1
 -2      3665      3478      3666
 -1      6559    7    0    1
 -2      5397      5398      2622
 -1      6560    7    0    1
 -2      2222      2734      2220
 -1      6561    7    0    1
 -2      2225      2735      2227
 -1      6562    7    0    1
 -2      4189      4245      1359
 -1      6563    7    0    1
 -2      2340      2762      2269
 -1      6564    7    0    1
 -2      2268      2757      2342
 -1      6565    7    0    1
 -2      4016      4170      4014
 -1      6566    7    0    1
 -2      1873      1874      1858
 -1      6567    7    0    1
 -2      1872      1878      1877
 -1      6568    7    0    1
 -2      4744      4746      4745
 -1      6569    7    0    1
 -2      3647      3946      3922
 -1      6570    7    0    1
 -2      3662      3665      3664
 -1      6571    7    0    1
 -2      3635      5709      3633
 -1      6572    7    0    1
 -2      4110      5547      4108
 -1      6573    7    0    1
 -2      5242      5552      5228
 -1      6574    7    0    1
 -2      4157      5535      4133
 -1      6575    7    0    1
 -2      3759      3766      3763
 -1      6576    7    0    1
 -2      2402      3488      2399
 -1      6577    7    0    1
 -2      3761      5663      2413
 -1      6578    7    0    1
 -2      2870      2873      2872
 -1      6579    7    0    1
 -2      4014      3477      4012
 -1      6580    7    0    1
 -2      4216      5529      4204
 -1      6581    7    0    1
 -2      3668      5466      3670
 -1      6582    7    0    1
 -2      5495      5497      5496
 -1      6583    7    0    1
 -2      4187      4189      4188
 -1      6584    7    0    1
 -2      2525      2527      2526
 -1      6585    7    0    1
 -2      2529      2530      2528
 -1      6586    7    0    1
 -2      4075      4140      4073
 -1      6587    7    0    1
 -2      4142      4165      4164
 -1      6588    7    0    1
 -2      4069      4145      4067
 -1      6589    7    0    1
 -2      4190      4192      4191
 -1      6590    7    0    1
 -2      4115      4142      4141
 -1      6591    7    0    1
 -2      2474      2476      2475
 -1      6592    7    0    1
 -2      2484      2485      2483
 -1      6593    7    0    1
 -2      4170      3477      4014
 -1      6594    7    0    1
 -2      3999      4000      3998
 -1      6595    7    0    1
 -2      4187      4188      4149
 -1      6596    7    0    1
 -2      5560      5763      4059
 -1      6597    7    0    1
 -2      3766      3780      3774
 -1      6598    7    0    1
 -2      3637      3647      3641
 -1      6599    7    0    1
 -2      3790      5490      3802
 -1      6600    7    0    1
 -2      2850      2852      2851
 -1      6601    7    0    1
 -2      4083      3489      4081
 -1      6602    7    0    1
 -2      1987      5635      1974
 -1      6603    7    0    1
 -2      2953      2954      2952
 -1      6604    7    0    1
 -2      4142      4164      4141
 -1      6605    7    0    1
 -2      4143      5802      4193
 -1      6606    7    0    1
 -2      4069      4190      4145
 -1      6607    7    0    1
 -2      4081      4126      4079
 -1      6608    7    0    1
 -2      3922      5537      3641
 -1      6609    7    0    1
 -2      1959      1960      1957
 -1      6610    7    0    1
 -2      2001      2004      2003
 -1      6611    7    0    1
 -2      5488      5489      5060
 -1      6612    7    0    1
 -2      3766      3774      3763
 -1      6613    7    0    1
 -2      3755      5495      3757
 -1      6614    7    0    1
 -2      3817      5481      5480
 -1      6615    7    0    1
 -2      4018      3484      4016
 -1      6616    7    0    1
 -2      2005      2008      2007
 -1      6617    7    0    1
 -2      1963      1964      1961
 -1      6618    7    0    1
 -2      4001      4002      4000
 -1      6619    7    0    1
 -2      3706      3491      3708
 -1      6620    7    0    1
 -2      3717      3794      3719
 -1      6621    7    0    1
 -2      4032      5501      4030
 -1      6622    7    0    1
 -2      3708      3786      3710
 -1      6623    7    0    1
 -2      4063      4149      4061
 -1      6624    7    0    1
 -2      3710      3487      3717
 -1      6625    7    0    1
 -2      4063      4187      4149
 -1      6626    7    0    1
 -2      2356      2692      2691
 -1      6627    7    0    1
 -2      2685      2686      2358
 -1      6628    7    0    1
 -2      2922      2923      2921
 -1      6629    7    0    1
 -2      4148      3484      4018
 -1      6630    7    0    1
 -2      4737      4738      2277
 -1      6631    7    0    1
 -2      3781      3782      3770
 -1      6632    7    0    1
 -2      2083      2084      1651
 -1      6633    7    0    1
 -2      1898      2086      2085
 -1      6634    7    0    1
 -2      3780      3792      3790
 -1      6635    7    0    1
 -2      2910      2912      2911
 -1      6636    7    0    1
 -2      5791      5855      3775
 -1      6637    7    0    1
 -2       989      3605      1504
 -1      6638    7    0    1
 -2       878      1579      1503
 -1      6639    7    0    1
 -2      3867      5476      4540
 -1      6640    7    0    1
 -2      3907      5545      3804
 -1      6641    7    0    1
 -2       194      1806       195
 -1      6642    7    0    1
 -2       184      1807       185
 -1      6643    7    0    1
 -2      3769      3770      3761
 -1      6644    7    0    1
 -2      4108      4128      4106
 -1      6645    7    0    1
 -2      3490      5493      4008
 -1      6646    7    0    1
 -2      2133      2261      2214
 -1      6647    7    0    1
 -2      2212      2260      2131
 -1      6648    7    0    1
 -2      3828      5524      3826
 -1      6649    7    0    1
 -2      7065      7087      6978
 -1      6650    7    0    1
 -2      1502      1483       911
 -1      6651    7    0    1
 -2      4742      4744      2317
 -1      6652    7    0    1
 -2      4064      3496      4063
 -1      6653    7    0    1
 -2      1501      1574       948
 -1      6654    7    0    1
 -2      2777      2779      2481
 -1      6655    7    0    1
 -2      2490      2775      2773
 -1      6656    7    0    1
 -2      5510      5511      5509
 -1      6657    7    0    1
 -2       722      5105        22
 -1      6658    7    0    1
 -2      4115      4141      4110
 -1      6659    7    0    1
 -2      3727      5473      3729
 -1      6660    7    0    1
 -2      2168      4756      4241
 -1      6661    7    0    1
 -2      3205      3206      3204
 -1      6662    7    0    1
 -2      3337      3338      3336
 -1      6663    7    0    1
 -2      2264      5516      1981
 -1      6664    7    0    1
 -2      2025      5517      2265
 -1      6665    7    0    1
 -2      3725      3795      3727
 -1      6666    7    0    1
 -2      2478      2479      2477
 -1      6667    7    0    1
 -2      2486      2488      2487
 -1      6668    7    0    1
 -2      5608      5609      5590
 -1      6669    7    0    1
 -2      1857      1858      1856
 -1      6670    7    0    1
 -2      1870      1872      1871
 -1      6671    7    0    1
 -2      4087      5477      4085
 -1      6672    7    0    1
 -2      2086      2506      2209
 -1      6673    7    0    1
 -2      2208      2505      2084
 -1      6674    7    0    1
 -2      3780      3790      3774
 -1      6675    7    0    1
 -2      5503      5856      5502
 -1      6676    7    0    1
 -2      4003      4238      4002
 -1      6677    7    0    1
 -2      1365      4230      1366
 -1      6678    7    0    1
 -2      3914      3945      3940
 -1      6679    7    0    1
 -2      4186      5548      5547
 -1      6680    7    0    1
 -2      4020      4148      4018
 -1      6681    7    0    1
 -2      2955      2956      2954
 -1      6682    7    0    1
 -2      4483      5149      3374
 -1      6683    7    0    1
 -2      4484      5150      3242
 -1      6684    7    0    1
 -2      4165      1352      4164
 -1      6685    7    0    1
 -2      4085      4134      4083
 -1      6686    7    0    1
 -2      3704      3713      3706
 -1      6687    7    0    1
 -2      3725      5474      3795
 -1      6688    7    0    1
 -2      4093      5530      4090
 -1      6689    7    0    1
 -2      5071      5079      5074
 -1      6690    7    0    1
 -2      3721      3798      3723
 -1      6691    7    0    1
 -2      2379      2380      2378
 -1      6692    7    0    1
 -2      2395      2397      2396
 -1      6693    7    0    1
 -2      3723      5474      3725
 -1      6694    7    0    1
 -2      5539      5540      3846
 -1      6695    7    0    1
 -2       949      1501       948
 -1      6696    7    0    1
 -2       989      1504       988
 -1      6697    7    0    1
 -2       912      1502       911
 -1      6698    7    0    1
 -2       878      1503       877
 -1      6699    7    0    1
 -2      1100      1499      1099
 -1      6700    7    0    1
 -2      1211      1500      1210
 -1      6701    7    0    1
 -2      1134      1495      1133
 -1      6702    7    0    1
 -2      1171      1497      1170
 -1      6703    7    0    1
 -2      4493      5148      3525
 -1      6704    7    0    1
 -2      1211      1311      1500
 -1      6705    7    0    1
 -2      2525      5431      2527
 -1      6706    7    0    1
 -2      4081      3489      4126
 -1      6707    7    0    1
 -2      2783      5469      2522
 -1      6708    7    0    1
 -2      3942      5513      3944
 -1      6709    7    0    1
 -2      3792      5490      3790
 -1      6710    7    0    1
 -2      1821      1822      1783
 -1      6711    7    0    1
 -2      1791      1830      1829
 -1      6712    7    0    1
 -2      5520      5557      1365
 -1      6713    7    0    1
 -2      3444      3445      3443
 -1      6714    7    0    1
 -2      4169      2146      4163
 -1      6715    7    0    1
 -2      3670      3673      3672
 -1      6716    7    0    1
 -2      3831      5539      3846
 -1      6717    7    0    1
 -2      3884      5132      3910
 -1      6718    7    0    1
 -2      4132      4133      4120
 -1      6719    7    0    1
 -2      3712      6142      5151
 -1      6720    7    0    1
 -2      3753      3779      3755
 -1      6721    7    0    1
 -2      5038      5752      5360
 -1      6722    7    0    1
 -2      4100      4119      4098
 -1      6723    7    0    1
 -2      3781      3796      3782
 -1      6724    7    0    1
 -2      3207      3208      3206
 -1      6725    7    0    1
 -2      3339      3340      3338
 -1      6726    7    0    1
 -2      3944      4474      4471
 -1      6727    7    0    1
 -2      1832      1834      1833
 -1      6728    7    0    1
 -2      1825      1826      1824
 -1      6729    7    0    1
 -2      4147      5520      4179
 -1      6730    7    0    1
 -2      3912      5507      3914
 -1      6731    7    0    1
 -2      5226      5227      4957
 -1      6732    7    0    1
 -2       254      1751       255
 -1      6733    7    0    1
 -2       124      1752       125
 -1      6734    7    0    1
 -2      2438      2439      2437
 -1      6735    7    0    1
 -2      3824      5523      3845
 -1      6736    7    0    1
 -2      4030      4034      4028
 -1      6737    7    0    1
 -2      3968      4541      3967
 -1      6738    7    0    1
 -2      3838      5551      3837
 -1      6739    7    0    1
 -2      2633      5630      2635
 -1      6740    7    0    1
 -2      2625      5629      2623
 -1      6741    7    0    1
 -2      3867      3869      3868
 -1      6742    7    0    1
 -2      4117      4120      4095
 -1      6743    7    0    1
 -2      3729      5473      3767
 -1      6744    7    0    1
 -2      4183      4185      4184
 -1      6745    7    0    1
 -2      4907      4909      4908
 -1      6746    7    0    1
 -2      4946      4947      4945
 -1      6747    7    0    1
 -2      3880      5151      3882
 -1      6748    7    0    1
 -2      3769      3781      3770
 -1      6749    7    0    1
 -2      3751      5470      3753
 -1      6750    7    0    1
 -2      5495      5496      3757
 -1      6751    7    0    1
 -2      1767      1785      1784
 -1      6752    7    0    1
 -2      1776      1777      1765
 -1      6753    7    0    1
 -2      4473      5087      4476
 -1      6754    7    0    1
 -2      3869      3953      3870
 -1      6755    7    0    1
 -2      1849      1850      1848
 -1      6756    7    0    1
 -2      1862      1864      1863
 -1      6757    7    0    1
 -2      3802      3968      3967
 -1      6758    7    0    1
 -2      3693      5509      5508
 -1      6759    7    0    1
 -2       111      1409       112
 -1      6760    7    0    1
 -2       267      1740       268
 -1      6761    7    0    1
 -2      4300      4301      4299
 -1      6762    7    0    1
 -2       245      1597       246
 -1      6763    7    0    1
 -2       133      1596       134
 -1      6764    7    0    1
 -2      4198      5544      4201
 -1      6765    7    0    1
 -2      3897      5550      3849
 -1      6766    7    0    1
 -2      5055      5488      5057
 -1      6767    7    0    1
 -2      4744      4745      2317
 -1      6768    7    0    1
 -2      5065      5515      5067
 -1      6769    7    0    1
 -2      3749      3784      3751
 -1      6770    7    0    1
 -2      5501      5502      4034
 -1      6771    7    0    1
 -2      5067      5075      5069
 -1      6772    7    0    1
 -2      4155      4157      4133
 -1      6773    7    0    1
 -2      5010      5052      5012
 -1      6774    7    0    1
 -2      3815      3935      3878
 -1      6775    7    0    1
 -2      3742      3761      3743
 -1      6776    7    0    1
 -2      3944      5513      4474
 -1      6777    7    0    1
 -2      4111      4115      4110
 -1      6778    7    0    1
 -2      1170      4509      1169
 -1      6779    7    0    1
 -2      3782      3793      3785
 -1      6780    7    0    1
 -2      1372      5441      4224
 -1      6781    7    0    1
 -2      5053      5081      5055
 -1      6782    7    0    1
 -2      4987      5238      3306
 -1      6783    7    0    1
 -2      4989      5239      3174
 -1      6784    7    0    1
 -2      3647      3922      3641
 -1      6785    7    0    1
 -2      4073      5484      4070
 -1      6786    7    0    1
 -2      2148      5544      4200
 -1      6787    7    0    1
 -2      3786      3487      3710
 -1      6788    7    0    1
 -2      3729      3767      3731
 -1      6789    7    0    1
 -2      5061      5080      5063
 -1      6790    7    0    1
 -2      4166      4174      4165
 -1      6791    7    0    1
 -2      4046      4052      4051
 -1      6792    7    0    1
 -2      3989      3990      3987
 -1      6793    7    0    1
 -2      3997      3998      3991
 -1      6794    7    0    1
 -2      1836      1860      1859
 -1      6795    7    0    1
 -2      1845      1846      1828
 -1      6796    7    0    1
 -2      4138      4160      4130
 -1      6797    7    0    1
 -2      4046      4051      4042
 -1      6798    7    0    1
 -2      1896      1898      1897
 -1      6799    7    0    1
 -2      1901      1651      1900
 -1      6800    7    0    1
 -2      5057      5060      5059
 -1      6801    7    0    1
 -2      1368      3479      1370
 -1      6802    7    0    1
 -2      4089      4095      4087
 -1      6803    7    0    1
 -2      2574      2577      2576
 -1      6804    7    0    1
 -2      2619      2620      2617
 -1      6805    7    0    1
 -2      2558      2572      2571
 -1      6806    7    0    1
 -2      2614      2615      2601
 -1      6807    7    0    1
 -2      2641      2642      2640
 -1      6808    7    0    1
 -2      2630      2632      2631
 -1      6809    7    0    1
 -2      3811      3817      3813
 -1      6810    7    0    1
 -2      3735      3738      3737
 -1      6811    7    0    1
 -2      4179      5520      1365
 -1      6812    7    0    1
 -2      4165      5512      1352
 -1      6813    7    0    1
 -2      3731      5522      3733
 -1      6814    7    0    1
 -2      3890      3892      3796
 -1      6815    7    0    1
 -2      5587      5608      5590
 -1      6816    7    0    1
 -2      4109      4110      4108
 -1      6817    7    0    1
 -2      3745      3775      3747
 -1      6818    7    0    1
 -2      3813      5479      3815
 -1      6819    7    0    1
 -2      4179      1365      1364
 -1      6820    7    0    1
 -2      3921      3955      3856
 -1      6821    7    0    1
 -2      3713      3491      3706
 -1      6822    7    0    1
 -2      4132      4155      4133
 -1      6823    7    0    1
 -2      3699      5531      3704
 -1      6824    7    0    1
 -2      3696      3700      3698
 -1      6825    7    0    1
 -2      4183      4184      4127
 -1      6826    7    0    1
 -2      2873      2875      2874
 -1      6827    7    0    1
 -2      4030      5501      4034
 -1      6828    7    0    1
 -2      3914      5507      3945
 -1      6829    7    0    1
 -2      3987      5514      3984
 -1      6830    7    0    1
 -2      2881      2883      2882
 -1      6831    7    0    1
 -2      2945      2946      2944
 -1      6832    7    0    1
 -2      2170      1353      4157
 -1      6833    7    0    1
 -2       275      2054       276
 -1      6834    7    0    1
 -2       103      2053       104
 -1      6835    7    0    1
 -2      4085      5477      4134
 -1      6836    7    0    1
 -2      5057      5488      5060
 -1      6837    7    0    1
 -2      3681      3683      3682
 -1      6838    7    0    1
 -2      3822      3824      3823
 -1      6839    7    0    1
 -2      3793      3907      3804
 -1      6840    7    0    1
 -2      1968      1986      1966
 -1      6841    7    0    1
 -2      2010      2030      2012
 -1      6842    7    0    1
 -2      4117      4132      4120
 -1      6843    7    0    1
 -2      3742      3769      3761
 -1      6844    7    0    1
 -2       359      5426       358
 -1      6845    7    0    1
 -2      4737      4739      4738
 -1      6846    7    0    1
 -2       105      1538       106
 -1      6847    7    0    1
 -2       273      1539       274
 -1      6848    7    0    1
 -2      4024      4048      4022
 -1      6849    7    0    1
 -2      4125      4129      4114
 -1      6850    7    0    1
 -2      3674      3677      3676
 -1      6851    7    0    1
 -2       100      1583       101
 -1      6852    7    0    1
 -2       278      1584       279
 -1      6853    7    0    1
 -2      5067      5515      5075
 -1      6854    7    0    1
 -2      4250      3476      3998
 -1      6855    7    0    1
 -2      3739      3742      3741
 -1      6856    7    0    1
 -2       130      1577       131
 -1      6857    7    0    1
 -2       248      1576       249
 -1      6858    7    0    1
 -2      1518      1648      1517
 -1      6859    7    0    1
 -2      1687      1689      1688
 -1      6860    7    0    1
 -2      3846      5528      3830
 -1      6861    7    0    1
 -2      4106      5500      4103
 -1      6862    7    0    1
 -2      4182      4183      4127
 -1      6863    7    0    1
 -2      2957      2958      2956
 -1      6864    7    0    1
 -2      2436      2437      2435
 -1      6865    7    0    1
 -2       181      1548       182
 -1      6866    7    0    1
 -2       197      1550       198
 -1      6867    7    0    1
 -2      4228      5560      5445
 -1      6868    7    0    1
 -2      3803      5549      3859
 -1      6869    7    0    1
 -2      3849      5550      3843
 -1      6870    7    0    1
 -2       242      1560       243
 -1      6871    7    0    1
 -2       136      1561       137
 -1      6872    7    0    1
 -2       270      1529       271
 -1      6873    7    0    1
 -2       108      1530       109
 -1      6874    7    0    1
 -2      3700      3822      3821
 -1      6875    7    0    1
 -2       127      1519       128
 -1      6876    7    0    1
 -2       251      1520       252
 -1      6877    7    0    1
 -2      1689      1695      1690
 -1      6878    7    0    1
 -2      1649      1657      1648
 -1      6879    7    0    1
 -2      3845      3921      3856
 -1      6880    7    0    1
 -2      1983      2264      1981
 -1      6881    7    0    1
 -2      2025      2265      2027
 -1      6882    7    0    1
 -2      3693      5508      3696
 -1      6883    7    0    1
 -2      3826      5524      5523
 -1      6884    7    0    1
 -2      3908      3947      3907
 -1      6885    7    0    1
 -2      4160      3481      4130
 -1      6886    7    0    1
 -2      2391      2393      2392
 -1      6887    7    0    1
 -2      2375      2376      2374
 -1      6888    7    0    1
 -2      3678      3681      3680
 -1      6889    7    0    1
 -2      3819      3956      3640
 -1      6890    7    0    1
 -2      4089      4117      4095
 -1      6891    7    0    1
 -2      3822      3823      3821
 -1      6892    7    0    1
 -2      3681      3714      3683
 -1      6893    7    0    1
 -2      4215      5541      2168
 -1      6894    7    0    1
 -2      1868      1870      1869
 -1      6895    7    0    1
 -2      1855      1856      1854
 -1      6896    7    0    1
 -2      3824      3845      3823
 -1      6897    7    0    1
 -2      1647      1517      1646
 -1      6898    7    0    1
 -2      1685      1687      1686
 -1      6899    7    0    1
 -2      2437      6047      2435
 -1      6900    7    0    1
 -2      5586      5608      5587
 -1      6901    7    0    1
 -2      4063      3496      4187
 -1      6902    7    0    1
 -2      2413      5663      5451
 -1      6903    7    0    1
 -2      4133      5535      4154
 -1      6904    7    0    1
 -2      3738      5792      5518
 -1      6905    7    0    1
 -2      5094      5448      1345
 -1      6906    7    0    1
 -2      1346      5449      5095
 -1      6907    7    0    1
 -2      2545      5554      2543
 -1      6908    7    0    1
 -2      2586      5555      2588
 -1      6909    7    0    1
 -2      4052      4053      4051
 -1      6910    7    0    1
 -2      3753      5470      3779
 -1      6911    7    0    1
 -2      3804      5545      3918
 -1      6912    7    0    1
 -2      4359      4362      4361
 -1      6913    7    0    1
 -2      1680      1413      1678
 -1      6914    7    0    1
 -2      1639      1914      1641
 -1      6915    7    0    1
 -2      4949      4952      4951
 -1      6916    7    0    1
 -2      4913      4914      4911
 -1      6917    7    0    1
 -2      4212      1361      1360
 -1      6918    7    0    1
 -2      4193      4194      4039
 -1      6919    7    0    1
 -2      4155      2170      4157
 -1      6920    7    0    1
 -2      4037      4039      4035
 -1      6921    7    0    1
 -2      2609      2664      2663
 -1      6922    7    0    1
 -2        94      1444        95
 -1      6923    7    0    1
 -2       284      1445       285
 -1      6924    7    0    1
 -2      2883      2885      2884
 -1      6925    7    0    1
 -2      2454      2679      2406
 -1      6926    7    0    1
 -2      2389      2681      2453
 -1      6927    7    0    1
 -2      4037      4193      4039
 -1      6928    7    0    1
 -2      4197      4198      4196
 -1      6929    7    0    1
 -2      2665      2666      2566
 -1      6930    7    0    1
 -2      4026      5519      4024
 -1      6931    7    0    1
 -2      5579      5582      5581
 -1      6932    7    0    1
 -2      3815      5479      3935
 -1      6933    7    0    1
 -2      4009      4010      4008
 -1      6934    7    0    1
 -2      3615      3616      3614
 -1      6935    7    0    1
 -2       240      2056       241
 -1      6936    7    0    1
 -2       138      2055       139
 -1      6937    7    0    1
 -2        97      1506        98
 -1      6938    7    0    1
 -2       281      1396       282
 -1      6939    7    0    1
 -2      1662      1775      1669
 -1      6940    7    0    1
 -2      1707      1411      1700
 -1      6941    7    0    1
 -2      5587      5590      5589
 -1      6942    7    0    1
 -2      3136      3137      3135
 -1      6943    7    0    1
 -2      3400      3401      3399
 -1      6944    7    0    1
 -2      3268      3269      3267
 -1      6945    7    0    1
 -2      5544      5553      4208
 -1      6946    7    0    1
 -2      4185      4220      4184
 -1      6947    7    0    1
 -2      4200      5544      4198
 -1      6948    7    0    1
 -2      5583      5586      5585
 -1      6949    7    0    1
 -2      3683      3695      3684
 -1      6950    7    0    1
 -2      3802      3967      3803
 -1      6951    7    0    1
 -2      1789      1791      1790
 -1      6952    7    0    1
 -2      1782      1783      1781
 -1      6953    7    0    1
 -2      3318      3320      3319
 -1      6954    7    0    1
 -2      3186      3188      3187
 -1      6955    7    0    1
 -2      5501      5503      5502
 -1      6956    7    0    1
 -2      4062      4063      4061
 -1      6957    7    0    1
 -2      1606      3607       870
 -1      6958    7    0    1
 -2      1605      3609      1203
 -1      6959    7    0    1
 -2      4197      4200      4198
 -1      6960    7    0    1
 -2      4068      4069      4067
 -1      6961    7    0    1
 -2      4060      4061      4059
 -1      6962    7    0    1
 -2      3793      3908      3907
 -1      6963    7    0    1
 -2      4024      5519      4048
 -1      6964    7    0    1
 -2      4054      4127      4052
 -1      6965    7    0    1
 -2      2938      2939      2936
 -1      6966    7    0    1
 -2      4043      4046      4042
 -1      6967    7    0    1
 -2       736      4742      2317
 -1      6968    7    0    1
 -2      2627      2630      2629
 -1      6969    7    0    1
 -2      2639      2640      2637
 -1      6970    7    0    1
 -2       379      4737      2277
 -1      6971    7    0    1
 -2      4127      5619      4052
 -1      6972    7    0    1
 -2      2865      2868      2867
 -1      6973    7    0    1
 -2       738      4748      2276
 -1      6974    7    0    1
 -2      1764      1765      1739
 -1      6975    7    0    1
 -2      1735      1767      1766
 -1      6976    7    0    1
 -2      3826      5523      3824
 -1      6977    7    0    1
 -2      4209      5491      4212
 -1      6978    7    0    1
 -2      3404      3405      3403
 -1      6979    7    0    1
 -2      3140      3141      3139
 -1      6980    7    0    1
 -2      3272      3273      3271
 -1      6981    7    0    1
 -2      3825      3826      3824
 -1      6982    7    0    1
 -2      3665      3666      3664
 -1      6983    7    0    1
 -2      4194      4197      4196
 -1      6984    7    0    1
 -2      5052      5053      5012
 -1      6985    7    0    1
 -2      2145      2149      2148
 -1      6986    7    0    1
 -2      4198      4201      4199
 -1      6987    7    0    1
 -2      3811      5482      3817
 -1      6988    7    0    1
 -2      1977      1987      1974
 -1      6989    7    0    1
 -2      2018      2031      2021
 -1      6990    7    0    1
 -2      4133      4154      4120
 -1      6991    7    0    1
 -2      4140      5484      4073
 -1      6992    7    0    1
 -2       140      1494       141
 -1      6993    7    0    1
 -2       238      1492       239
 -1      6994    7    0    1
 -2      5060      5061      5059
 -1      6995    7    0    1
 -2      4137      5692      5691
 -1      6996    7    0    1
 -2      3700      3821      3698
 -1      6997    7    0    1
 -2      2299      1387      1101
 -1      6998    7    0    1
 -2      3908      3948      3947
 -1      6999    7    0    1
 -2      2981      2982      2980
 -1      7000    7    0    1
 -2      2983      2985      2984
 -1      7001    7    0    1
 -2       377      4747      1757
 -1      7002    7    0    1
 -2      3848      3885      3849
 -1      7003    7    0    1
 -2      3830      5528      3853
 -1      7004    7    0    1
 -2      1132      3598      2305
 -1      7005    7    0    1
 -2      2327      2334      2333
 -1      7006    7    0    1
 -2      2335      2336      2325
 -1      7007    7    0    1
 -2      2168      4241      2171
 -1      7008    7    0    1
 -2      2603      2605      2604
 -1      7009    7    0    1
 -2      2561      2562      2560
 -1      7010    7    0    1
 -2      2145      2148      4200
 -1      7011    7    0    1
 -2      3688      3692      3690
 -1      7012    7    0    1
 -2      3742      3743      3741
 -1      7013    7    0    1
 -2      2680      2980      2679
 -1      7014    7    0    1
 -2      2681      2983      2682
 -1      7015    7    0    1
 -2      1361      4244      1360
 -1      7016    7    0    1
 -2      3704      5531      3713
 -1      7017    7    0    1
 -2      4107      4108      4106
 -1      7018    7    0    1
 -2      2149      2152      2150
 -1      7019    7    0    1
 -2      4201      4203      4202
 -1      7020    7    0    1
 -2      3790      3802      3791
 -1      7021    7    0    1
 -2      3793      3804      3785
 -1      7022    7    0    1
 -2      3782      3785      3770
 -1      7023    7    0    1
 -2      1365      1366      1364
 -1      7024    7    0    1
 -2      3738      3739      3737
 -1      7025    7    0    1
 -2      3827      3828      3826
 -1      7026    7    0    1
 -2      3896      3902      3895
 -1      7027    7    0    1
 -2      3859      5549      3888
 -1      7028    7    0    1
 -2      3180      3181      3179
 -1      7029    7    0    1
 -2      3312      3313      3311
 -1      7030    7    0    1
 -2      4194      4196      4195
 -1      7031    7    0    1
 -2      2875      2878      2877
 -1      7032    7    0    1
 -2       220      1450       221
 -1      7033    7    0    1
 -2       158      1449       159
 -1      7034    7    0    1
 -2      3848      3849      3843
 -1      7035    7    0    1
 -2      2149      2150      2148
 -1      7036    7    0    1
 -2      4007      4008      4005
 -1      7037    7    0    1
 -2       217      1478       218
 -1      7038    7    0    1
 -2       161      1479       162
 -1      7039    7    0    1
 -2      3677      3678      3676
 -1      7040    7    0    1
 -2      2440      2441      2439
 -1      7041    7    0    1
 -2      3341      3342      3340
 -1      7042    7    0    1
 -2      3209      3210      3208
 -1      7043    7    0    1
 -2      3759      3763      3760
 -1      7044    7    0    1
 -2      3766      3787      3780
 -1      7045    7    0    1
 -2      2376      5465      2379
 -1      7046    7    0    1
 -2      3830      3853      3828
 -1      7047    7    0    1
 -2      4921      5382      4918
 -1      7048    7    0    1
 -2      3829      3830      3828
 -1      7049    7    0    1
 -2      3683      3684      3682
 -1      7050    7    0    1
 -2      4191      5450      4145
 -1      7051    7    0    1
 -2      4203      4216      4204
 -1      7052    7    0    1
 -2      4204      5529      4206
 -1      7053    7    0    1
 -2      4206      4211      4209
 -1      7054    7    0    1
 -2       223      1464       224
 -1      7055    7    0    1
 -2       155      1463       156
 -1      7056    7    0    1
 -2      3681      3682      3680
 -1      7057    7    0    1
 -2      5535      5536      4154
 -1      7058    7    0    1
 -2      2486      2487      2485
 -1      7059    7    0    1
 -2      2476      2478      2477
 -1      7060    7    0    1
 -2      2152      2154      2153
 -1      7061    7    0    1
 -2      4074      4075      4073
 -1      7062    7    0    1
 -2      2152      2153      2150
 -1      7063    7    0    1
 -2      2807      2809      2808
 -1      7064    7    0    1
 -2      2818      2819      2817
 -1      7065    7    0    1
 -2      3448      3450      3449
 -1      7066    7    0    1
 -2      3797      3890      3796
 -1      7067    7    0    1
 -2      2525      5835      5431
 -1      7068    7    0    1
 -2       235      1424       236
 -1      7069    7    0    1
 -2       143      1425       144
 -1      7070    7    0    1
 -2      4115      5693      5688
 -1      7071    7    0    1
 -2      4032      5542      5501
 -1      7072    7    0    1
 -2       164      1439       165
 -1      7073    7    0    1
 -2       214      1440       215
 -1      7074    7    0    1
 -2      2577      4979      4978
 -1      7075    7    0    1
 -2      4982      4983      2620
 -1      7076    7    0    1
 -2       200      1443       201
 -1      7077    7    0    1
 -2       178      1442       179
 -1      7078    7    0    1
 -2      2848      2850      2849
 -1      7079    7    0    1
 -2      1738      1739      1737
 -1      7080    7    0    1
 -2      1733      1735      1734
 -1      7081    7    0    1
 -2      3650      3652      3651
 -1      7082    7    0    1
 -2      1353      1355      1354
 -1      7083    7    0    1
 -2      4128      5500      4106
 -1      7084    7    0    1
 -2      1204      1605      1203
 -1      7085    7    0    1
 -2       982      1604       981
 -1      7086    7    0    1
 -2       871      1606       870
 -1      7087    7    0    1
 -2      1093      1603      1092
 -1      7088    7    0    1
 -2       166      2060       167
 -1      7089    7    0    1
 -2       212      2061       213
 -1      7090    7    0    1
 -2      4101      4102      4100
 -1      7091    7    0    1
 -2      4011      4012      4010
 -1      7092    7    0    1
 -2      3757      3759      3758
 -1      7093    7    0    1
 -2      3859      3888      3861
 -1      7094    7    0    1
 -2      3844      3848      3843
 -1      7095    7    0    1
 -2      4042      4143      4038
 -1      7096    7    0    1
 -2       176      2063       177
 -1      7097    7    0    1
 -2       202      2062       203
 -1      7098    7    0    1
 -2      3948      3949      3947
 -1      7099    7    0    1
 -2       210      1321       211
 -1      7100    7    0    1
 -2       168      1309       169
 -1      7101    7    0    1
 -2      4066      4067      4064
 -1      7102    7    0    1
 -2      2443      2444      2445
 -1      7103    7    0    1
 -2      3213      3214      3212
 -1      7104    7    0    1
 -2      3345      3346      3344
 -1      7105    7    0    1
 -2       225      2058       226
 -1      7106    7    0    1
 -2       153      2057       154
 -1      7107    7    0    1
 -2      3097      5882      2733
 -1      7108    7    0    1
 -2      2731      5883      3091
 -1      7109    7    0    1
 -2      4201      4208      4203
 -1      7110    7    0    1
 -2      3831      3846      3830
 -1      7111    7    0    1
 -2       208      2065       209
 -1      7112    7    0    1
 -2       170      2064       171
 -1      7113    7    0    1
 -2      2018      5634      2031
 -1      7114    7    0    1
 -2      3528      5504      3526
 -1      7115    7    0    1
 -2      2727      2794      2318
 -1      7116    7    0    1
 -2      2319      2795      2726
 -1      7117    7    0    1
 -2       173      1334       174
 -1      7118    7    0    1
 -2       205      1333       206
 -1      7119    7    0    1
 -2      3652      3654      3653
 -1      7120    7    0    1
 -2      2147      1374      1373
 -1      7121    7    0    1
 -2      3845      3856      3855
 -1      7122    7    0    1
 -2       381      2316       380
 -1      7123    7    0    1
 -2       736      2317       735
 -1      7124    7    0    1
 -2       379      2277       378
 -1      7125    7    0    1
 -2       738      2276       737
 -1      7126    7    0    1
 -2      3837      5538      3835
 -1      7127    7    0    1
 -2      1091      3606      2370
 -1      7128    7    0    1
 -2       980      3608      2369
 -1      7129    7    0    1
 -2      4036      4037      4035
 -1      7130    7    0    1
 -2      2154      4239      2153
 -1      7131    7    0    1
 -2      3835      3852      3833
 -1      7132    7    0    1
 -2      3377      5505      3375
 -1      7133    7    0    1
 -2      3245      5506      3243
 -1      7134    7    0    1
 -2      1353      1354      4157
 -1      7135    7    0    1
 -2      3863      3867      3866
 -1      7136    7    0    1
 -2      4109      4111      4110
 -1      7137    7    0    1
 -2      3898      3952      3850
 -1      7138    7    0    1
 -2      4031      4032      4030
 -1      7139    7    0    1
 -2      2805      5525      2804
 -1      7140    7    0    1
 -2      2814      5526      2815
 -1      7141    7    0    1
 -2      4142      4166      4165
 -1      7142    7    0    1
 -2      6177      6206      5582
 -1      7143    7    0    1
 -2      4219      2145      4200
 -1      7144    7    0    1
 -2      4033      4035      4032
 -1      7145    7    0    1
 -2      3696      5508      3700
 -1      7146    7    0    1
 -2      4099      4100      4098
 -1      7147    7    0    1
 -2      4076      4077      4075
 -1      7148    7    0    1
 -2      3977      3978      3976
 -1      7149    7    0    1
 -2      4029      4030      4028
 -1      7150    7    0    1
 -2      3833      5539      3831
 -1      7151    7    0    1
 -2      2268      5567      2757
 -1      7152    7    0    1
 -2      2762      5568      2269
 -1      7153    7    0    1
 -2      4108      5547      4128
 -1      7154    7    0    1
 -2      3992      1348      3993
 -1      7155    7    0    1
 -2      4058      4059      4050
 -1      7156    7    0    1
 -2      2522      5469      2520
 -1      7157    7    0    1
 -2      3673      3674      3672
 -1      7158    7    0    1
 -2      2168      5541      4756
 -1      7159    7    0    1
 -2      4125      4130      4129
 -1      7160    7    0    1
 -2      2387      2389      2388
 -1      7161    7    0    1
 -2      2405      2406      2404
 -1      7162    7    0    1
 -2       151      1322       152
 -1      7163    7    0    1
 -2       227      1323       228
 -1      7164    7    0    1
 -2      1359      5318      4188
 -1      7165    7    0    1
 -2      3654      3656      3655
 -1      7166    7    0    1
 -2      4201      4202      4199
 -1      7167    7    0    1
 -2       233      2059       234
 -1      7168    7    0    1
 -2       145      2070       146
 -1      7169    7    0    1
 -2      3885      3886      3849
 -1      7170    7    0    1
 -2      2820      2821      2819
 -1      7171    7    0    1
 -2      2809      2811      2810
 -1      7172    7    0    1
 -2      4203      4204      4202
 -1      7173    7    0    1
 -2      2948      2949      2946
 -1      7174    7    0    1
 -2      4122      6127      6105
 -1      7175    7    0    1
 -2      4166      2172      4174
 -1      7176    7    0    1
 -2      5590      5591      5589
 -1      7177    7    0    1
 -2      4078      4079      4077
 -1      7178    7    0    1
 -2      4105      4106      4103
 -1      7179    7    0    1
 -2      4072      4073      4070
 -1      7180    7    0    1
 -2      4198      4199      4196
 -1      7181    7    0    1
 -2      4080      4081      4079
 -1      7182    7    0    1
 -2      4212      1360      4213
 -1      7183    7    0    1
 -2      2959      4504      2958
 -1      7184    7    0    1
 -2      3841      5551      3838
 -1      7185    7    0    1
 -2      4082      4083      4081
 -1      7186    7    0    1
 -2      3656      3658      3657
 -1      7187    7    0    1
 -2      5582      5583      5581
 -1      7188    7    0    1
 -2      4237      5229      5228
 -1      7189    7    0    1
 -2      4138      4161      4160
 -1      7190    7    0    1
 -2      5491      5492      1361
 -1      7191    7    0    1
 -2      2537      2538      1986
 -1      7192    7    0    1
 -2      2030      2581      2580
 -1      7193    7    0    1
 -2      3822      3825      3824
 -1      7194    7    0    1
 -2      4041      4042      4038
 -1      7195    7    0    1
 -2      5586      5587      5585
 -1      7196    7    0    1
 -2       229      2066       230
 -1      7197    7    0    1
 -2       149      2069       150
 -1      7198    7    0    1
 -2      3270      3271      3269
 -1      7199    7    0    1
 -2      3402      3403      3401
 -1      7200    7    0    1
 -2      3138      3139      3137
 -1      7201    7    0    1
 -2      2885      5443      2887
 -1      7202    7    0    1
 -2      4220      4237      4221
 -1      7203    7    0    1
 -2      4084      4085      4083
 -1      7204    7    0    1
 -2      3852      5539      3833
 -1      7205    7    0    1
 -2      3835      5538      3852
 -1      7206    7    0    1
 -2      3825      3827      3826
 -1      7207    7    0    1
 -2      3842      3843      3841
 -1      7208    7    0    1
 -2      4088      4089      4087
 -1      7209    7    0    1
 -2      4086      4087      4085
 -1      7210    7    0    1
 -2      1683      1685      1684
 -1      7211    7    0    1
 -2      1645      1646      1644
 -1      7212    7    0    1
 -2      3894      3895      3891
 -1      7213    7    0    1
 -2      3696      3698      3697
 -1      7214    7    0    1
 -2      2605      2607      2606
 -1      7215    7    0    1
 -2      2563      2564      2562
 -1      7216    7    0    1
 -2      4278      4280      4279
 -1      7217    7    0    1
 -2      4013      4014      4012
 -1      7218    7    0    1
 -2      2154      4240      4239
 -1      7219    7    0    1
 -2      3885      3887      3886
 -1      7220    7    0    1
 -2      4206      5529      4211
 -1      7221    7    0    1
 -2      3829      3831      3830
 -1      7222    7    0    1
 -2      3827      3829      3828
 -1      7223    7    0    1
 -2      3948      3950      3949
 -1      7224    7    0    1
 -2       147      1306       148
 -1      7225    7    0    1
 -2       231      1305       232
 -1      7226    7    0    1
 -2      3733      5571      3735
 -1      7227    7    0    1
 -2      3704      3706      3705
 -1      7228    7    0    1
 -2      1355      4606      1354
 -1      7229    7    0    1
 -2      3646      3650      3649
 -1      7230    7    0    1
 -2       740      1758       739
 -1      7231    7    0    1
 -2       377      1757       376
 -1      7232    7    0    1
 -2      2607      2609      2608
 -1      7233    7    0    1
 -2      3755      3757      3756
 -1      7234    7    0    1
 -2      3843      5550      3841
 -1      7235    7    0    1
 -2      3706      3708      3707
 -1      7236    7    0    1
 -2      4212      5491      1361
 -1      7237    7    0    1
 -2      4194      4195      4039
 -1      7238    7    0    1
 -2      3887      5556      3886
 -1      7239    7    0    1
 -2      4027      4028      4026
 -1      7240    7    0    1
 -2      3708      3710      3709
 -1      7241    7    0    1
 -2      4164      4186      4141
 -1      7242    7    0    1
 -2      2565      2566      2564
 -1      7243    7    0    1
 -2      3710      3717      3711
 -1      7244    7    0    1
 -2      4097      4098      4094
 -1      7245    7    0    1
 -2      3642      5537      3645
 -1      7246    7    0    1
 -2      2622      5718      5555
 -1      7247    7    0    1
 -2      5554      5717      2579
 -1      7248    7    0    1
 -2      3886      5556      3965
 -1      7249    7    0    1
 -2      3822      5569      3825
 -1      7250    7    0    1
 -2      3717      3719      3718
 -1      7251    7    0    1
 -2      3886      3965      3897
 -1      7252    7    0    1
 -2      4516      4517      3876
 -1      7253    7    0    1
 -2      3678      5521      3681
 -1      7254    7    0    1
 -2      1295      4807      1294
 -1      7255    7    0    1
 -2      1235      4806      1234
 -1      7256    7    0    1
 -2      3862      5627      3860
 -1      7257    7    0    1
 -2      4209      4212      4210
 -1      7258    7    0    1
 -2      4107      4109      4108
 -1      7259    7    0    1
 -2      3950      4555      3949
 -1      7260    7    0    1
 -2      3719      3721      3720
 -1      7261    7    0    1
 -2      5508      5569      3700
 -1      7262    7    0    1
 -2      3739      5518      3742
 -1      7263    7    0    1
 -2      2152      4247      2154
 -1      7264    7    0    1
 -2      2145      2151      2149
 -1      7265    7    0    1
 -2      4092      4093      4090
 -1      7266    7    0    1
 -2      2585      5699      2583
 -1      7267    7    0    1
 -2      2540      5700      2542
 -1      7268    7    0    1
 -2      5006      5901      2813
 -1      7269    7    0    1
 -2      2823      5902      5003
 -1      7270    7    0    1
 -2      4693      4694      4689
 -1      7271    7    0    1
 -2      3882      3884      3883
 -1      7272    7    0    1
 -2      3753      3755      3754
 -1      7273    7    0    1
 -2      3642      3645      3644
 -1      7274    7    0    1
 -2      3884      3910      3909
 -1      7275    7    0    1
 -2      3782      5534      3793
 -1      7276    7    0    1
 -2      3880      3882      3881
 -1      7277    7    0    1
 -2      2920      2921      2918
 -1      7278    7    0    1
 -2      3693      3696      3694
 -1      7279    7    0    1
 -2      5251      5252      2570
 -1      7280    7    0    1
 -2      2613      5248      5247
 -1      7281    7    0    1
 -2      3825      5569      3847
 -1      7282    7    0    1
 -2      4969      5381      4955
 -1      7283    7    0    1
 -2      4054      4182      4127
 -1      7284    7    0    1
 -2      4051      4143      4042
 -1      7285    7    0    1
 -2      2839      2840      2838
 -1      7286    7    0    1
 -2      4215      2168      2167
 -1      7287    7    0    1
 -2      3878      3880      3879
 -1      7288    7    0    1
 -2      3658      3660      3659
 -1      7289    7    0    1
 -2      5888      6123      3686
 -1      7290    7    0    1
 -2      5071      5074      5073
 -1      7291    7    0    1
 -2      4015      4016      4014
 -1      7292    7    0    1
 -2      3844      3850      3848
 -1      7293    7    0    1
 -2      3910      3912      3911
 -1      7294    7    0    1
 -2      3634      3637      3636
 -1      7295    7    0    1
 -2      1365      5557      4230
 -1      7296    7    0    1
 -2      4219      5758      5410
 -1      7297    7    0    1
 -2      2442      2445      2441
 -1      7298    7    0    1
 -2      3815      3878      3816
 -1      7299    7    0    1
 -2      3343      3344      3342
 -1      7300    7    0    1
 -2      3211      3212      3210
 -1      7301    7    0    1
 -2      3912      3914      3913
 -1      7302    7    0    1
 -2      4046      4054      4052
 -1      7303    7    0    1
 -2      5389      6162      5464
 -1      7304    7    0    1
 -2      3999      4001      4000
 -1      7305    7    0    1
 -2      2183      5906      2182
 -1      7306    7    0    1
 -2      5451      5791      3775
 -1      7307    7    0    1
 -2      3813      3815      3814
 -1      7308    7    0    1
 -2      4176      3481      4160
 -1      7309    7    0    1
 -2      3914      3940      3939
 -1      7310    7    0    1
 -2      3751      3753      3752
 -1      7311    7    0    1
 -2      3989      3991      3990
 -1      7312    7    0    1
 -2      3699      3704      3703
 -1      7313    7    0    1
 -2      4918      5382      4917
 -1      7314    7    0    1
 -2      4169      2147      2146
 -1      7315    7    0    1
 -2      3840      3841      3838
 -1      7316    7    0    1
 -2      3802      3803      3791
 -1      7317    7    0    1
 -2      3790      3791      3774
 -1      7318    7    0    1
 -2      3958      3960      3959
 -1      7319    7    0    1
 -2      4197      4219      4200
 -1      7320    7    0    1
 -2      4660      5370      4667
 -1      7321    7    0    1
 -2      5270      5272      5269
 -1      7322    7    0    1
 -2      5282      5284      5281
 -1      7323    7    0    1
 -2      3811      3813      3812
 -1      7324    7    0    1
 -2      3721      3723      3722
 -1      7325    7    0    1
 -2      5258      5260      5257
 -1      7326    7    0    1
 -2      3637      3641      3638
 -1      7327    7    0    1
 -2      2552      2553      2548
 -1      7328    7    0    1
 -2      2591      2596      2595
 -1      7329    7    0    1
 -2      2153      2155      2150
 -1      7330    7    0    1
 -2      5514      5778      3984
 -1      7331    7    0    1
 -2      3997      3999      3998
 -1      7332    7    0    1
 -2      5691      5692      1351
 -1      7333    7    0    1
 -2      3940      3942      3941
 -1      7334    7    0    1
 -2      3842      3844      3843
 -1      7335    7    0    1
 -2      2380      2382      2381
 -1      7336    7    0    1
 -2      2398      2399      2397
 -1      7337    7    0    1
 -2      3640      5709      3635
 -1      7338    7    0    1
 -2      5069      5071      5070
 -1      7339    7    0    1
 -2      4017      4018      4016
 -1      7340    7    0    1
 -2      3804      3918      3820
 -1      7341    7    0    1
 -2      3918      3958      3919
 -1      7342    7    0    1
 -2      3749      3751      3750
 -1      7343    7    0    1
 -2      3809      3811      3810
 -1      7344    7    0    1
 -2      4036      4038      4037
 -1      7345    7    0    1
 -2      4025      4026      4024
 -1      7346    7    0    1
 -2      4206      4209      4207
 -1      7347    7    0    1
 -2      5380      5832      1909
 -1      7348    7    0    1
 -2      1908      5831      5379
 -1      7349    7    0    1
 -2      4019      4020      4018
 -1      7350    7    0    1
 -2      4241      4242      2171
 -1      7351    7    0    1
 -2      3942      3944      3943
 -1      7352    7    0    1
 -2      4204      4206      4205
 -1      7353    7    0    1
 -2      3743      3745      3744
 -1      7354    7    0    1
 -2      1800      1885      1412
 -1      7355    7    0    1
 -2      1801      1887      1761
 -1      7356    7    0    1
 -2      3747      3749      3748
 -1      7357    7    0    1
 -2      3660      3662      3661
 -1      7358    7    0    1
 -2      2382      2384      2383
 -1      7359    7    0    1
 -2      2400      2401      2399
 -1      7360    7    0    1
 -2      5067      5069      5068
 -1      7361    7    0    1
 -2      5061      5063      5062
 -1      7362    7    0    1
 -2      3047      3049      3048
 -1      7363    7    0    1
 -2      3024      3025      3023
 -1      7364    7    0    1
 -2      5065      5067      5066
 -1      7365    7    0    1
 -2      4688      4689      4687
 -1      7366    7    0    1
 -2      3944      4471      4470
 -1      7367    7    0    1
 -2      3745      3747      3746
 -1      7368    7    0    1
 -2      5053      5055      5054
 -1      7369    7    0    1
 -2      4060      4062      4061
 -1      7370    7    0    1
 -2      2379      5465      2462
 -1      7371    7    0    1
 -2      4199      5632      5543
 -1      7372    7    0    1
 -2      4041      4043      4042
 -1      7373    7    0    1
 -2      3886      3897      3849
 -1      7374    7    0    1
 -2      3836      3837      3835
 -1      7375    7    0    1
 -2      3178      3179      3177
 -1      7376    7    0    1
 -2      3310      3311      3309
 -1      7377    7    0    1
 -2      4001      4003      4002
 -1      7378    7    0    1
 -2      2384      2387      2386
 -1      7379    7    0    1
 -2      2403      2404      2401
 -1      7380    7    0    1
 -2      5063      5065      5064
 -1      7381    7    0    1
 -2      2724      6482      3613
 -1      7382    7    0    1
 -2      3641      5537      3642
 -1      7383    7    0    1
 -2      5575      5641      3713
 -1      7384    7    0    1
 -2      3739      3741      3740
 -1      7385    7    0    1
 -2      5467      5926      5466
 -1      7386    7    0    1
 -2      4471      4473      4472
 -1      7387    7    0    1
 -2      2005      6101      2008
 -1      7388    7    0    1
 -2      4476      5010      5009
 -1      7389    7    0    1
 -2      4062      4064      4063
 -1      7390    7    0    1
 -2      4473      4476      4475
 -1      7391    7    0    1
 -2      5298      5299      5296
 -1      7392    7    0    1
 -2      5305      5306      5303
 -1      7393    7    0    1
 -2      5312      5313      5310
 -1      7394    7    0    1
 -2      3690      3693      3691
 -1      7395    7    0    1
 -2      5010      5012      5011
 -1      7396    7    0    1
 -2      5057      5059      5058
 -1      7397    7    0    1
 -2      2578      5190      2554
 -1      7398    7    0    1
 -2      3688      3690      3689
 -1      7399    7    0    1
 -2      5055      5057      5056
 -1      7400    7    0    1
 -2      3834      3835      3833
 -1      7401    7    0    1
 -2      2611      2767      2657
 -1      7402    7    0    1
 -2      2654      2768      2568
 -1      7403    7    0    1
 -2      3686      3688      3687
 -1      7404    7    0    1
 -2      3684      3686      3685
 -1      7405    7    0    1
 -2      4023      4024      4022
 -1      7406    7    0    1
 -2      5599      5602      5601
 -1      7407    7    0    1
 -2      4661      5370      4660
 -1      7408    7    0    1
 -2      3781      3797      3796
 -1      7409    7    0    1
 -2      2775      2788      2773
 -1      7410    7    0    1
 -2      2777      2789      2779
 -1      7411    7    0    1
 -2      3723      3725      3724
 -1      7412    7    0    1
 -2      1964      1496      1961
 -1      7413    7    0    1
 -2      3678      3680      3679
 -1      7414    7    0    1
 -2      2376      2378      2377
 -1      7415    7    0    1
 -2      2394      2395      2393
 -1      7416    7    0    1
 -2      5550      5551      3841
 -1      7417    7    0    1
 -2      4058      4060      4059
 -1      7418    7    0    1
 -2      4068      4070      4069
 -1      7419    7    0    1
 -2       957      2198       956
 -1      7420    7    0    1
 -2      1142      2201      1141
 -1      7421    7    0    1
 -2       920      2199       919
 -1      7422    7    0    1
 -2      1179      2200      1178
 -1      7423    7    0    1
 -2      3727      3729      3728
 -1      7424    7    0    1
 -2      4021      4022      4020
 -1      7425    7    0    1
 -2      5597      5599      5598
 -1      7426    7    0    1
 -2      3926      3937      3925
 -1      7427    7    0    1
 -2      3845      3855      3823
 -1      7428    7    0    1
 -2      3725      3727      3726
 -1      7429    7    0    1
 -2      4361      4477      4360
 -1      7430    7    0    1
 -2      4066      4068      4067
 -1      7431    7    0    1
 -2      4237      5228      4221
 -1      7432    7    0    1
 -2      3729      3731      3730
 -1      7433    7    0    1
 -2      3832      3833      3831
 -1      7434    7    0    1
 -2      5604      5606      5605
 -1      7435    7    0    1
 -2      1179      3611      2200
 -1      7436    7    0    1
 -2      1142      3610      2201
 -1      7437    7    0    1
 -2      1366      1368      1367
 -1      7438    7    0    1
 -2      3743      2413      3745
 -1      7439    7    0    1
 -2       920      3612      2199
 -1      7440    7    0    1
 -2      3742      5518      3769
 -1      7441    7    0    1
 -2      4105      4107      4106
 -1      7442    7    0    1
 -2      4132      4156      4155
 -1      7443    7    0    1
 -2      5595      5597      5596
 -1      7444    7    0    1
 -2      3681      5521      3714
 -1      7445    7    0    1
 -2      3735      3737      3736
 -1      7446    7    0    1
 -2      3733      3735      3734
 -1      7447    7    0    1
 -2      2434      2435      2433
 -1      7448    7    0    1
 -2      3731      3733      3732
 -1      7449    7    0    1
 -2      4033      4036      4035
 -1      7450    7    0    1
 -2      5602      5604      5603
 -1      7451    7    0    1
 -2      3005      5133      2788
 -1      7452    7    0    1
 -2      2789      5136      3006
 -1      7453    7    0    1
 -2      2584      5397      2622
 -1      7454    7    0    1
 -2      4179      1364      1363
 -1      7455    7    0    1
 -2      4220      4221      4184
 -1      7456    7    0    1
 -2      4029      4031      4030
 -1      7457    7    0    1
 -2      4031      4033      4032
 -1      7458    7    0    1
 -2      1368      1370      1369
 -1      7459    7    0    1
 -2      3793      5534      3908
 -1      7460    7    0    1
 -2      2928      2930      2929
 -1      7461    7    0    1
 -2      3865      5627      3862
 -1      7462    7    0    1
 -2      3801      3809      3808
 -1      7463    7    0    1
 -2      4101      4103      4102
 -1      7464    7    0    1
 -2      1370      1372      1371
 -1      7465    7    0    1
 -2      3666      3668      3667
 -1      7466    7    0    1
 -2      3406      3407      3405
 -1      7467    7    0    1
 -2      3142      3143      3141
 -1      7468    7    0    1
 -2      3274      3275      3273
 -1      7469    7    0    1
 -2      1372      4224      4223
 -1      7470    7    0    1
 -2      2724      3613       958
 -1      7471    7    0    1
 -2      3065      6159      6070
 -1      7472    7    0    1
 -2      5501      5542      5503
 -1      7473    7    0    1
 -2      3896      3903      3902
 -1      7474    7    0    1
 -2      3924      3925      3865
 -1      7475    7    0    1
 -2      3856      3857      3855
 -1      7476    7    0    1
 -2      2906      2908      2907
 -1      7477    7    0    1
 -2      1071      2079      1070
 -1      7478    7    0    1
 -2      1256      2080      1255
 -1      7479    7    0    1
 -2      1015      2071      1014
 -1      7480    7    0    1
 -2      1274      2073      1273
 -1      7481    7    0    1
 -2      1034      2075      1033
 -1      7482    7    0    1
 -2      1052      2072      1051
 -1      7483    7    0    1
 -2       830      2074       829
 -1      7484    7    0    1
 -2       849      2082       848
 -1      7485    7    0    1
 -2      2917      2918      2916
 -1      7486    7    0    1
 -2      4046      5616      4054
 -1      7487    7    0    1
 -2      2073      3630      1273
 -1      7488    7    0    1
 -2      4434      4435      4430
 -1      7489    7    0    1
 -2      1418      3631      1168
 -1      7490    7    0    1
 -2       980      2369       979
 -1      7491    7    0    1
 -2      1202      2367      1201
 -1      7492    7    0    1
 -2       869      2368       868
 -1      7493    7    0    1
 -2      1091      2370      1090
 -1      7494    7    0    1
 -2       849      3619      2082
 -1      7495    7    0    1
 -2      1034      3617      2075
 -1      7496    7    0    1
 -2      2072      3624      1051
 -1      7497    7    0    1
 -2      2074      3621       829
 -1      7498    7    0    1
 -2      2071      3627      1014
 -1      7499    7    0    1
 -2      4224      4235      4225
 -1      7500    7    0    1
 -2      4089      5530      4117
 -1      7501    7    0    1
 -2      2229      2292      2291
 -1      7502    7    0    1
 -2      2293      2294      2224
 -1      7503    7    0    1
 -2      2227      2229      2228
 -1      7504    7    0    1
 -2      2223      2224      2222
 -1      7505    7    0    1
 -2      3662      3664      3663
 -1      7506    7    0    1
 -2      5593      5595      5594
 -1      7507    7    0    1
 -2      3982      3992      3985
 -1      7508    7    0    1
 -2      2451      3614      1072
 -1      7509    7    0    1
 -2      3797      3891      3890
 -1      7510    7    0    1
 -2      2858      2859      2857
 -1      7511    7    0    1
 -2      2451      3615      3614
 -1      7512    7    0    1
 -2      3840      3842      3841
 -1      7513    7    0    1
 -2      4027      4029      4028
 -1      7514    7    0    1
 -2      1181      2700      1180
 -1      7515    7    0    1
 -2      1144      2699      1143
 -1      7516    7    0    1
 -2      1102      2299      1101
 -1      7517    7    0    1
 -2       991      2297       990
 -1      7518    7    0    1
 -2       947      2304       946
 -1      7519    7    0    1
 -2      1132      2305      1131
 -1      7520    7    0    1
 -2      1169      1418      1168
 -1      7521    7    0    1
 -2       880      2298       879
 -1      7522    7    0    1
 -2       910      2302       909
 -1      7523    7    0    1
 -2      1213      2300      1212
 -1      7524    7    0    1
 -2      1830      5835      1829
 -1      7525    7    0    1
 -2      3778      3800      3789
 -1      7526    7    0    1
 -2      1129      4531      3082
 -1      7527    7    0    1
 -2      1090      4485      1089
 -1      7528    7    0    1
 -2      1201      4486      1200
 -1      7529    7    0    1
 -2       922      2723       921
 -1      7530    7    0    1
 -2       959      2724       958
 -1      7531    7    0    1
 -2      1089      2753      1088
 -1      7532    7    0    1
 -2      1200      2754      1199
 -1      7533    7    0    1
 -2      2753      4514      1088
 -1      7534    7    0    1
 -2      4072      4074      4073
 -1      7535    7    0    1
 -2      1145      4782      1144
 -1      7536    7    0    1
 -2      1182      4781      1181
 -1      7537    7    0    1
 -2       979      4487       978
 -1      7538    7    0    1
 -2       868      4488       867
 -1      7539    7    0    1
 -2       907      4282       906
 -1      7540    7    0    1
 -2       993      4294       992
 -1      7541    7    0    1
 -2      3080      4268       943
 -1      7542    7    0    1
 -2       976      2721       975
 -1      7543    7    0    1
 -2      1270      2702      3117
 -1      7544    7    0    1
 -2       865      2722       864
 -1      7545    7    0    1
 -2       828      2446       827
 -1      7546    7    0    1
 -2      1165      1904      1164
 -1      7547    7    0    1
 -2      1217      1903      1216
 -1      7548    7    0    1
 -2      2448      4273      4271
 -1      7549    7    0    1
 -2       902      2771       901
 -1      7550    7    0    1
 -2      1050      2447      1049
 -1      7551    7    0    1
 -2       976      4267      2721
 -1      7552    7    0    1
 -2       902      4618      2771
 -1      7553    7    0    1
 -2       962      2296       961
 -1      7554    7    0    1
 -2      1073      2451      1072
 -1      7555    7    0    1
 -2      1036      2450      1035
 -1      7556    7    0    1
 -2      1184      3972      1183
 -1      7557    7    0    1
 -2      1258      2452      1257
 -1      7558    7    0    1
 -2      1013      1905      1012
 -1      7559    7    0    1
 -2      1272      1906      1271
 -1      7560    7    0    1
 -2       801      2456       800
 -1      7561    7    0    1
 -2      3119      2301      1259
 -1      7562    7    0    1
 -2      1260      3119      1259
 -1      7563    7    0    1
 -2       908      3122       907
 -1      7564    7    0    1
 -2      1075      2495      1074
 -1      7565    7    0    1
 -2       853      3121       852
 -1      7566    7    0    1
 -2      1197      1417      1196
 -1      7567    7    0    1
 -2      1038      2499      1037
 -1      7568    7    0    1
 -2       827      4592       826
 -1      7569    7    0    1
 -2       890      2500       889
 -1      7570    7    0    1
 -2      4258      4259      2289
 -1      7571    7    0    1
 -2       807      4270      2331
 -1      7572    7    0    1
 -2       825      4264      2330
 -1      7573    7    0    1
 -2       901      4591       900
 -1      7574    7    0    1
 -2      2210      4284      4283
 -1      7575    7    0    1
 -2      2081      4712       885
 -1      7576    7    0    1
 -2       942      2288       941
 -1      7577    7    0    1
 -2       794      2289       793
 -1      7578    7    0    1
 -2      1011      2496      1010
 -1      7579    7    0    1
 -2      1104      4310      1103
 -1      7580    7    0    1
 -2       882      4289       881
 -1      7581    7    0    1
 -2      1048      2498      1047
 -1      7582    7    0    1
 -2      1049      4593      1048
 -1      7583    7    0    1
 -2      1215      3118      1214
 -1      7584    7    0    1
 -2       900      2497       899
 -1      7585    7    0    1
 -2      1105      3085      1104
 -1      7586    7    0    1
 -2      1216      4826      1215
 -1      7587    7    0    1
 -2      1012      4594      1011
 -1      7588    7    0    1
 -2      1086      2290      1085
 -1      7589    7    0    1
 -2       855      2306       854
 -1      7590    7    0    1
 -2      4255      4257      4254
 -1      7591    7    0    1
 -2      4253      4254      2077
 -1      7592    7    0    1
 -2       796      4532      3083
 -1      7593    7    0    1
 -2       799      2307       798
 -1      7594    7    0    1
 -2       883      2701       882
 -1      7595    7    0    1
 -2       857      2455       856
 -1      7596    7    0    1
 -2       809      3084       808
 -1      7597    7    0    1
 -2       994      3081       993
 -1      7598    7    0    1
 -2       944      4285      3080
 -1      7599    7    0    1
 -2       805      2210       804
 -1      7600    7    0    1
 -2       825      2330       824
 -1      7601    7    0    1
 -2      2448      4271       887
 -1      7602    7    0    1
 -2       899      4251       898
 -1      7603    7    0    1
 -2      1146      1902      1145
 -1      7604    7    0    1
 -2      1183      2431      1182
 -1      7605    7    0    1
 -2       807      2331       806
 -1      7606    7    0    1
 -2       856      4292       855
 -1      7607    7    0    1
 -2      4264      4265      2330
 -1      7608    7    0    1
 -2       811      2287       810
 -1      7609    7    0    1
 -2       924      4522       923
 -1      7610    7    0    1
 -2      1270      3117      1269
 -1      7611    7    0    1
 -2       823      4617      2211
 -1      7612    7    0    1
 -2       961      4291       960
 -1      7613    7    0    1
 -2       809      4293      3084
 -1      7614    7    0    1
 -2       994      4274      3081
 -1      7615    7    0    1
 -2       996      2286       995
 -1      7616    7    0    1
 -2       821      2736        29
 -1      7617    7    0    1
 -2      2456      4295       800
 -1      7618    7    0    1
 -2      1185      2121      1184
 -1      7619    7    0    1
 -2       852      4596       851
 -1      7620    7    0    1
 -2       889      4595       888
 -1      7621    7    0    1
 -2      1148      2122      1147
 -1      7622    7    0    1
 -2       823      2211       822
 -1      7623    7    0    1
 -2      1037      4597      1036
 -1      7624    7    0    1
 -2       796      3083       795
 -1      7625    7    0    1
 -2       944      3080       943
 -1      7626    7    0    1
 -2       803      2725       802
 -1      7627    7    0    1
 -2      1074      4590      1073
 -1      7628    7    0    1
 -2      1129      3082      1128
 -1      7629    7    0    1
 -2       802      4600       801
 -1      7630    7    0    1
 -2      4265      4266      2330
 -1      7631    7    0    1
 -2      1166      4827      1165
 -1      7632    7    0    1
 -2        29      4599       857
 -1      7633    7    0    1
 -2       794      4258      2289
 -1      7634    7    0    1
 -2       821      4286      2736
 -1      7635    7    0    1
 -2       904      4252      2077
 -1      7636    7    0    1
 -2       886      2081       885
 -1      7637    7    0    1
 -2       867      2652       866
 -1      7638    7    0    1
 -2       866      4489       865
 -1      7639    7    0    1
 -2      2210      4283       804
 -1      7640    7    0    1
 -2       978      2651       977
 -1      7641    7    0    1
 -2      4253      4255      4254
 -1      7642    7    0    1
 -2       923      4783       922
 -1      7643    7    0    1
 -2       960      4784       959
 -1      7644    7    0    1
 -2       904      2077       903
 -1      7645    7    0    1
 -2      4252      4253      2077
 -1      7646    7    0    1
 -2       906      1907       905
 -1      7647    7    0    1
 -2      1199      4490      1198
 -1      7648    7    0    1
 -2       888      2448       887
 -1      7649    7    0    1
 -2       851      2449       850
 -1      7650    7    0    1
 -2       925      2295       924
 -1      7651    7    0    1
 -2      1167      3120      1166
 -1      7652    7    0    1
 -2      1105      4320      3085
 -1      7653    7    0    1
 -2      1127      4325      2416
 -1      7654    7    0    1
 -2      1260      4311      3119
 -1      7655    7    0    1
 -2      1127      2416      1126
 -1      7656    7    0    1
 -2      1107      2414      1106
 -1      7657    7    0    1
 -2      1040      4333      1039
 -1      7658    7    0    1
 -2      1164      4469      1163
 -1      7659    7    0    1
 -2      4325      4326      2416
 -1      7660    7    0    1
 -2      1262      2308      1261
 -1      7661    7    0    1
 -2      1268      2309      1267
 -1      7662    7    0    1
 -2      1041      1881      1040
 -1      7663    7    0    1
 -2      1045      1882      1044
 -1      7664    7    0    1
 -2      1217      4302      1903
 -1      7665    7    0    1
 -2      1009      1379      1008
 -1      7666    7    0    1
 -2      1077      1378      1076
 -1      7667    7    0    1
 -2      4118      2415      5520
 -1      7668    7    0    1
 -2      1147      4296      1146
 -1      7669    7    0    1
 -2      1163      2078      1162
 -1      7670    7    0    1
 -2      1219      2076      1218
 -1      7671    7    0    1
 -2      3894      3896      3895
 -1      7672    7    0    1
 -2       998      1401       997
 -1      7673    7    0    1
 -2       940      1598       939
 -1      7674    7    0    1
 -2       898      4297       897
 -1      7675    7    0    1
 -2      5664      5676      3715
 -1      7676    7    0    1
 -2      5591      5593      5592
 -1      7677    7    0    1
 -2      4074      4076      4075
 -1      7678    7    0    1
 -2      3817      5482      5481
 -1      7679    7    0    1
 -2      4099      4101      4100
 -1      7680    7    0    1
 -2       941      4290       940
 -1      7681    7    0    1
 -2      4090      5530      4089
 -1      7682    7    0    1
 -2      2791      5831      2271
 -1      7683    7    0    1
 -2      2270      5832      2790
 -1      7684    7    0    1
 -2      1694      5821      1749
 -1      7685    7    0    1
 -2       893      1883       892
 -1      7686    7    0    1
 -2       897      1884       896
 -1      7687    7    0    1
 -2       927      1402       926
 -1      7688    7    0    1
 -2       974      1841       973
 -1      7689    7    0    1
 -2      1109      1410      1108
 -1      7690    7    0    1
 -2      1125      1748      1124
 -1      7691    7    0    1
 -2      2225      2227      2226
 -1      7692    7    0    1
 -2      2221      2222      2220
 -1      7693    7    0    1
 -2      4386      4478      4387
 -1      7694    7    0    1
 -2      3416      3417      3415
 -1      7695    7    0    1
 -2       964      1403       963
 -1      7696    7    0    1
 -2       863      1842       862
 -1      7697    7    0    1
 -2      3308      3309      3307
 -1      7698    7    0    1
 -2      3176      3177      3175
 -1      7699    7    0    1
 -2      5568      5617      2193
 -1      7700    7    0    1
 -2      3670      3672      3671
 -1      7701    7    0    1
 -2       962      4338      2296
 -1      7702    7    0    1
 -2      5587      5589      5588
 -1      7703    7    0    1
 -2      2169      4236      2172
 -1      7704    7    0    1
 -2      4009      4011      4010
 -1      7705    7    0    1
 -2      4097      4099      4098
 -1      7706    7    0    1
 -2      3821      5575      5531
 -1      7707    7    0    1
 -2      2363      2364      2294
 -1      7708    7    0    1
 -2      2292      2362      2361
 -1      7709    7    0    1
 -2      3674      3676      3675
 -1      7710    7    0    1
 -2      4147      4179      4178
 -1      7711    7    0    1
 -2      1125      4619      1748
 -1      7712    7    0    1
 -2      4007      4009      4008
 -1      7713    7    0    1
 -2      5557      5934      4230
 -1      7714    7    0    1
 -2       863      4340      1842
 -1      7715    7    0    1
 -2      5583      5585      5584
 -1      7716    7    0    1
 -2      4076      4078      4077
 -1      7717    7    0    1
 -2      3152      3153      3151
 -1      7718    7    0    1
 -2      3284      3285      3283
 -1      7719    7    0    1
 -2      4212      4213      4210
 -1      7720    7    0    1
 -2      4078      4080      4079
 -1      7721    7    0    1
 -2      4080      4082      4081
 -1      7722    7    0    1
 -2      2168      2171      2167
 -1      7723    7    0    1
 -2       811      4349      2287
 -1      7724    7    0    1
 -2      2362      2374      2373
 -1      7725    7    0    1
 -2      2390      2391      2364
 -1      7726    7    0    1
 -2      1079      1524      1078
 -1      7727    7    0    1
 -2      1007      1523      1006
 -1      7728    7    0    1
 -2       813      1599       812
 -1      7729    7    0    1
 -2       792      1600       791
 -1      7730    7    0    1
 -2      4082      4084      4083
 -1      7731    7    0    1
 -2      3668      3670      3669
 -1      7732    7    0    1
 -2      2539      2540      2538
 -1      7733    7    0    1
 -2      2581      2583      2582
 -1      7734    7    0    1
 -2      1043      1432        35
 -1      7735    7    0    1
 -2        34      1430      1042
 -1      7736    7    0    1
 -2      1007      4344      1523
 -1      7737    7    0    1
 -2      1041      4329      1881
 -1      7738    7    0    1
 -2      4338      4339      2296
 -1      7739    7    0    1
 -2      4663      3493      4665
 -1      7740    7    0    1
 -2      4088      4090      4089
 -1      7741    7    0    1
 -2      3700      5569      3822
 -1      7742    7    0    1
 -2      4086      4088      4087
 -1      7743    7    0    1
 -2      5579      5581      5580
 -1      7744    7    0    1
 -2      4084      4086      4085
 -1      7745    7    0    1
 -2      3901      3904      3900
 -1      7746    7    0    1
 -2      4326      4327      2416
 -1      7747    7    0    1
 -2       926      4557       925
 -1      7748    7    0    1
 -2      4824      6302      1390
 -1      7749    7    0    1
 -2      4092      4094      4093
 -1      7750    7    0    1
 -2      5688      5693      5487
 -1      7751    7    0    1
 -2      3836      3838      3837
 -1      7752    7    0    1
 -2       793      5017       792
 -1      7753    7    0    1
 -2      4151      4232      4153
 -1      7754    7    0    1
 -2      5577      5579      5578
 -1      7755    7    0    1
 -2      1078      5088      1077
 -1      7756    7    0    1
 -2      1043      4350      1432
 -1      7757    7    0    1
 -2      2214      2225      2215
 -1      7758    7    0    1
 -2      2213      2220      2212
 -1      7759    7    0    1
 -2      3819      3957      3956
 -1      7760    7    0    1
 -2      3899      3900      3898
 -1      7761    7    0    1
 -2      2846      2848      2847
 -1      7762    7    0    1
 -2      1234      1471      1233
 -1      7763    7    0    1
 -2      1296      1470      1295
 -1      7764    7    0    1
 -2      3440      3441      3439
 -1      7765    7    0    1
 -2      3184      3186      3185
 -1      7766    7    0    1
 -2      3316      3318      3317
 -1      7767    7    0    1
 -2      3763      3764      3760
 -1      7768    7    0    1
 -2      3759      3760      3758
 -1      7769    7    0    1
 -2      1676      2138      1728
 -1      7770    7    0    1
 -2      1407      6090      1637
 -1      7771    7    0    1
 -2      4204      4205      4202
 -1      7772    7    0    1
 -2      3698      3699      3697
 -1      7773    7    0    1
 -2      1657      5475      1662
 -1      7774    7    0    1
 -2      1079      4341      1524
 -1      7775    7    0    1
 -2      3829      3832      3831
 -1      7776    7    0    1
 -2      4112      6068      6009
 -1      7777    7    0    1
 -2      4278      4281      4280
 -1      7778    7    0    1
 -2      3834      3836      3835
 -1      7779    7    0    1
 -2      4516      4519      4517
 -1      7780    7    0    1
 -2      3696      3697      3694
 -1      7781    7    0    1
 -2      3735      5571      3738
 -1      7782    7    0    1
 -2      4262      4263      4260
 -1      7783    7    0    1
 -2      4259      4261      4260
 -1      7784    7    0    1
 -2      3333      3334      3331
 -1      7785    7    0    1
 -2      3201      3202      3199
 -1      7786    7    0    1
 -2      2132      2212      2131
 -1      7787    7    0    1
 -2      2133      2214      2134
 -1      7788    7    0    1
 -2      3851      3898      3850
 -1      7789    7    0    1
 -2      2163      4551      4550
 -1      7790    7    0    1
 -2      4025      4027      4026
 -1      7791    7    0    1
 -2      3804      3820      3785
 -1      7792    7    0    1
 -2      1662      5475      1775
 -1      7793    7    0    1
 -2      5483      6015      5482
 -1      7794    7    0    1
 -2      3869      3870      3868
 -1      7795    7    0    1
 -2      3905      3915      3904
 -1      7796    7    0    1
 -2      3867      3868      3866
 -1      7797    7    0    1
 -2      3706      3707      3705
 -1      7798    7    0    1
 -2      3825      3847      3827
 -1      7799    7    0    1
 -2      3832      3834      3833
 -1      7800    7    0    1
 -2      3704      3705      3703
 -1      7801    7    0    1
 -2      1267      4328      1266
 -1      7802    7    0    1
 -2       973      4337       972
 -1      7803    7    0    1
 -2      4259      4260      2289
 -1      7804    7    0    1
 -2      4344      4346      4345
 -1      7805    7    0    1
 -2      4013      4015      4014
 -1      7806    7    0    1
 -2      3458      5329      5328
 -1      7807    7    0    1
 -2       965      4357       964
 -1      7808    7    0    1
 -2      4011      4013      4012
 -1      7809    7    0    1
 -2      2915      2916      2914
 -1      7810    7    0    1
 -2      3757      3758      3756
 -1      7811    7    0    1
 -2      4113      4114      4111
 -1      7812    7    0    1
 -2      2599      5699      2585
 -1      7813    7    0    1
 -2      2542      5700      2556
 -1      7814    7    0    1
 -2      3708      3709      3707
 -1      7815    7    0    1
 -2      4206      4207      4205
 -1      7816    7    0    1
 -2      3743      3744      3741
 -1      7817    7    0    1
 -2      3497      3498      2444
 -1      7818    7    0    1
 -2      3710      3711      3709
 -1      7819    7    0    1
 -2      4209      4210      4207
 -1      7820    7    0    1
 -2      3347      3348      3346
 -1      7821    7    0    1
 -2      3215      3216      3214
 -1      7822    7    0    1
 -2      4023      4025      4024
 -1      7823    7    0    1
 -2      3684      3685      3682
 -1      7824    7    0    1
 -2      3717      3718      3711
 -1      7825    7    0    1
 -2      3882      3883      3881
 -1      7826    7    0    1
 -2      3880      3881      3879
 -1      7827    7    0    1
 -2      5061      5062      5059
 -1      7828    7    0    1
 -2      3960      3961      3959
 -1      7829    7    0    1
 -2      2930      2932      2931
 -1      7830    7    0    1
 -2       998      4335      1401
 -1      7831    7    0    1
 -2      1984      2131      1983
 -1      7832    7    0    1
 -2      2027      2133      2028
 -1      7833    7    0    1
 -2      3884      3909      3883
 -1      7834    7    0    1
 -2      3815      3816      3814
 -1      7835    7    0    1
 -2      4671      4672      4669
 -1      7836    7    0    1
 -2      3878      3879      3816
 -1      7837    7    0    1
 -2      5053      5054      5012
 -1      7838    7    0    1
 -2      3719      3720      3718
 -1      7839    7    0    1
 -2      4017      4019      4018
 -1      7840    7    0    1
 -2      3813      3814      3812
 -1      7841    7    0    1
 -2      4315      4317      4316
 -1      7842    7    0    1
 -2      3910      3911      3909
 -1      7843    7    0    1
 -2      2551      2557      2549
 -1      7844    7    0    1
 -2      2592      2600      2594
 -1      7845    7    0    1
 -2      3958      3959      3919
 -1      7846    7    0    1
 -2      2860      2861      2859
 -1      7847    7    0    1
 -2      3721      3722      3720
 -1      7848    7    0    1
 -2      2030      2580      2012
 -1      7849    7    0    1
 -2      1968      2537      1986
 -1      7850    7    0    1
 -2      3811      3812      3810
 -1      7851    7    0    1
 -2      3755      3756      3754
 -1      7852    7    0    1
 -2      4054      5616      4228
 -1      7853    7    0    1
 -2       928      4368       927
 -1      7854    7    0    1
 -2      4344      4345      1523
 -1      7855    7    0    1
 -2      4019      4021      4020
 -1      7856    7    0    1
 -2      1124      4778      1123
 -1      7857    7    0    1
 -2      3918      3919      3820
 -1      7858    7    0    1
 -2      5074      5077      5073
 -1      7859    7    0    1
 -2       972      1390       971
 -1      7860    7    0    1
 -2       966      1331       965
 -1      7861    7    0    1
 -2      1464      1414       224
 -1      7862    7    0    1
 -2      3678      3679      3676
 -1      7863    7    0    1
 -2      1749      5455      1697
 -1      7864    7    0    1
 -2      3753      3754      3752
 -1      7865    7    0    1
 -2      3912      3913      3911
 -1      7866    7    0    1
 -2      3739      3740      3737
 -1      7867    7    0    1
 -2      3953      3954      3870
 -1      7868    7    0    1
 -2      2948      6600      4809
 -1      7869    7    0    1
 -2      4053      5802      4051
 -1      7870    7    0    1
 -2      3914      3939      3913
 -1      7871    7    0    1
 -2      4150      4231      4159
 -1      7872    7    0    1
 -2      4261      4262      4260
 -1      7873    7    0    1
 -2      4021      4023      4022
 -1      7874    7    0    1
 -2      1266      1505      1265
 -1      7875    7    0    1
 -2      1264      1498      1263
 -1      7876    7    0    1
 -2      1085      4565      1084
 -1      7877    7    0    1
 -2       893      4336      1883
 -1      7878    7    0    1
 -2      3770      5663      3761
 -1      7879    7    0    1
 -2      3693      3694      3691
 -1      7880    7    0    1
 -2      2175      5835      2525
 -1      7881    7    0    1
 -2      4015      4017      4016
 -1      7882    7    0    1
 -2      1366      1367      1364
 -1      7883    7    0    1
 -2      3940      3941      3939
 -1      7884    7    0    1
 -2      3690      3691      3689
 -1      7885    7    0    1
 -2      3751      3752      3750
 -1      7886    7    0    1
 -2      4350      4539      1432
 -1      7887    7    0    1
 -2      4306      4548      4307
 -1      7888    7    0    1
 -2      4040      4041      4038
 -1      7889    7    0    1
 -2      5003      5004      5002
 -1      7890    7    0    1
 -2      5005      5007      5006
 -1      7891    7    0    1
 -2      3930      3931      3915
 -1      7892    7    0    1
 -2      4044      4045      4043
 -1      7893    7    0    1
 -2      3688      3689      3687
 -1      7894    7    0    1
 -2       225      1414      2058
 -1      7895    7    0    1
 -2      5071      5073      5070
 -1      7896    7    0    1
 -2      4517      5749      3876
 -1      7897    7    0    1
 -2      3652      3653      3651
 -1      7898    7    0    1
 -2      3749      3750      3748
 -1      7899    7    0    1
 -2      3791      5650      3774
 -1      7900    7    0    1
 -2      3645      3646      3644
 -1      7901    7    0    1
 -2      3809      3810      3808
 -1      7902    7    0    1
 -2      3686      3687      3685
 -1      7903    7    0    1
 -2      3745      3746      3744
 -1      7904    7    0    1
 -2      4137      4138      4130
 -1      7905    7    0    1
 -2      3839      3840      3838
 -1      7906    7    0    1
 -2      4548      4549      4307
 -1      7907    7    0    1
 -2      2354      3112      2674
 -1      7908    7    0    1
 -2      2673      3113      2352
 -1      7909    7    0    1
 -2      3747      3748      3746
 -1      7910    7    0    1
 -2      5067      5068      5066
 -1      7911    7    0    1
 -2       397      5572       396
 -1      7912    7    0    1
 -2       396      2129       395
 -1      7913    7    0    1
 -2       724      1811       723
 -1      7914    7    0    1
 -2       726      2130       725
 -1      7915    7    0    1
 -2       398      1813       397
 -1      7916    7    0    1
 -2       725      5574       724
 -1      7917    7    0    1
 -2      3942      3943      3941
 -1      7918    7    0    1
 -2      5576      5577      4991
 -1      7919    7    0    1
 -2      3650      3651      3649
 -1      7920    7    0    1
 -2      5065      5066      5064
 -1      7921    7    0    1
 -2      3761      2413      3743
 -1      7922    7    0    1
 -2      5063      5064      5062
 -1      7923    7    0    1
 -2      5069      5070      5068
 -1      7924    7    0    1
 -2      4346      4347      4345
 -1      7925    7    0    1
 -2      4317      4318      4316
 -1      7926    7    0    1
 -2      2629      5629      2625
 -1      7927    7    0    1
 -2      2635      5630      2639
 -1      7928    7    0    1
 -2      3763      5650      3764
 -1      7929    7    0    1
 -2      3944      4470      3943
 -1      7930    7    0    1
 -2      5059      5558      5058
 -1      7931    7    0    1
 -2      4124      4125      4114
 -1      7932    7    0    1
 -2      3934      5676      5664
 -1      7933    7    0    1
 -2      5055      5056      5054
 -1      7934    7    0    1
 -2      5057      5058      5056
 -1      7935    7    0    1
 -2      4043      5616      4046
 -1      7936    7    0    1
 -2      5010      5011      5009
 -1      7937    7    0    1
 -2      4471      4472      4470
 -1      7938    7    0    1
 -2      3654      3655      3653
 -1      7939    7    0    1
 -2      5591      5592      5589
 -1      7940    7    0    1
 -2      5062      5558      5059
 -1      7941    7    0    1
 -2      3823      5575      3821
 -1      7942    7    0    1
 -2      3723      3724      3722
 -1      7943    7    0    1
 -2      4476      5009      4475
 -1      7944    7    0    1
 -2      4473      4475      4472
 -1      7945    7    0    1
 -2      5518      5637      3769
 -1      7946    7    0    1
 -2      2389      2453      2388
 -1      7947    7    0    1
 -2      2405      2454      2406
 -1      7948    7    0    1
 -2      4659      4661      4660
 -1      7949    7    0    1
 -2      1338      5533      1337
 -1      7950    7    0    1
 -2      3634      3636      3635
 -1      7951    7    0    1
 -2      1149      4491      1148
 -1      7952    7    0    1
 -2      3680      3715      3679
 -1      7953    7    0    1
 -2      3800      3801      3789
 -1      7954    7    0    1
 -2      1233      4356      1232
 -1      7955    7    0    1
 -2      3844      3851      3850
 -1      7956    7    0    1
 -2      3926      3938      3937
 -1      7957    7    0    1
 -2      3729      3730      3728
 -1      7958    7    0    1
 -2      4335      4495      1401
 -1      7959    7    0    1
 -2      2324      2325      2273
 -1      7960    7    0    1
 -2      2275      2327      2326
 -1      7961    7    0    1
 -2       727      5614       726
 -1      7962    7    0    1
 -2       395      5573       394
 -1      7963    7    0    1
 -2      5587      5588      5585
 -1      7964    7    0    1
 -2      3656      3657      3655
 -1      7965    7    0    1
 -2       938      4367      1303
 -1      7966    7    0    1
 -2      4347      4348      4345
 -1      7967    7    0    1
 -2      3735      3736      3734
 -1      7968    7    0    1
 -2      5597      5598      5596
 -1      7969    7    0    1
 -2      3781      5637      3797
 -1      7970    7    0    1
 -2      5583      5584      5581
 -1      7971    7    0    1
 -2      3727      3728      3726
 -1      7972    7    0    1
 -2      5599      5601      5598
 -1      7973    7    0    1
 -2      3725      3726      3724
 -1      7974    7    0    1
 -2      3933      5158      3854
 -1      7975    7    0    1
 -2      3733      3734      3732
 -1      7976    7    0    1
 -2      3731      3732      3730
 -1      7977    7    0    1
 -2      4151      5639      4232
 -1      7978    7    0    1
 -2      1959      1961      1960
 -1      7979    7    0    1
 -2      2004      2005      2003
 -1      7980    7    0    1
 -2      1643      1661      1645
 -1      7981    7    0    1
 -2      1684      1699      1682
 -1      7982    7    0    1
 -2      5595      5596      5594
 -1      7983    7    0    1
 -2      2633      2635      2634
 -1      7984    7    0    1
 -2      2624      2625      2623
 -1      7985    7    0    1
 -2      3658      3659      3657
 -1      7986    7    0    1
 -2       791      4496       790
 -1      7987    7    0    1
 -2      1220      4639      1219
 -1      7988    7    0    1
 -2      1196      2303      1195
 -1      7989    7    0    1
 -2      2395      2398      2397
 -1      7990    7    0    1
 -2      2380      2381      2378
 -1      7991    7    0    1
 -2      1296      4352      1470
 -1      7992    7    0    1
 -2      3514      3515      3513
 -1      7993    7    0    1
 -2       937      4502       936
 -1      7994    7    0    1
 -2       938      1303       937
 -1      7995    7    0    1
 -2      1000      1312       999
 -1      7996    7    0    1
 -2      4045      5616      4043
 -1      7997    7    0    1
 -2      3364      3365      3363
 -1      7998    7    0    1
 -2      3232      3233      3231
 -1      7999    7    0    1
 -2      4049      4050      4045
 -1      8000    7    0    1
 -2      2804      5671      2631
 -1      8001    7    0    1
 -2      2641      5672      2814
 -1      8002    7    0    1
 -2      5374      5375      5373
 -1      8003    7    0    1
 -2      5376      5378      5377
 -1      8004    7    0    1
 -2      3438      3439      3437
 -1      8005    7    0    1
 -2      5602      5603      5601
 -1      8006    7    0    1
 -2      1368      1369      1367
 -1      8007    7    0    1
 -2       861      4369      1330
 -1      8008    7    0    1
 -2      3436      3437      3435
 -1      8009    7    0    1
 -2      4104      4105      4103
 -1      8010    7    0    1
 -2      4179      1363      4178
 -1      8011    7    0    1
 -2      4065      4066      4064
 -1      8012    7    0    1
 -2      4213      4215      4214
 -1      8013    7    0    1
 -2       861      1330       860
 -1      8014    7    0    1
 -2       929      1389       928
 -1      8015    7    0    1
 -2      1370      1371      1369
 -1      8016    7    0    1
 -2      5593      5594      5592
 -1      8017    7    0    1
 -2       895      4451      1421
 -1      8018    7    0    1
 -2       728      2216       727
 -1      8019    7    0    1
 -2       394      2217       393
 -1      8020    7    0    1
 -2      1372      4223      1371
 -1      8021    7    0    1
 -2      4115      5688      4142
 -1      8022    7    0    1
 -2      4057      4058      4050
 -1      8023    7    0    1
 -2      4166      2169      2172
 -1      8024    7    0    1
 -2      1972      1810      2633
 -1      8025    7    0    1
 -2      2623      5892      2016
 -1      8026    7    0    1
 -2       935      1427       934
 -1      8027    7    0    1
 -2      1003      1426      1002
 -1      8028    7    0    1
 -2      2681      2682      2453
 -1      8029    7    0    1
 -2      2454      2680      2679
 -1      8030    7    0    1
 -2      4224      4225      4223
 -1      8031    7    0    1
 -2      1348      1349      3993
 -1      8032    7    0    1
 -2      3840      5570      3842
 -1      8033    7    0    1
 -2       967      4727       966
 -1      8034    7    0    1
 -2      5228      5552      4221
 -1      8035    7    0    1
 -2      3803      3859      3858
 -1      8036    7    0    1
 -2      4193      5758      4194
 -1      8037    7    0    1
 -2      1162      4334      1161
 -1      8038    7    0    1
 -2      3778      5676      3800
 -1      8039    7    0    1
 -2      1645      5486      1647
 -1      8040    7    0    1
 -2      4235      4556      4225
 -1      8041    7    0    1
 -2      1123      1313      1122
 -1      8042    7    0    1
 -2      1111      1318      1110
 -1      8043    7    0    1
 -2      2611      5699      2767
 -1      8044    7    0    1
 -2      2768      5700      2568
 -1      8045    7    0    1
 -2       393      5615       392
 -1      8046    7    0    1
 -2      4380      4494      1420
 -1      8047    7    0    1
 -2      3836      3839      3838
 -1      8048    7    0    1
 -2      4050      5763      4045
 -1      8049    7    0    1
 -2      3839      3873      3854
 -1      8050    7    0    1
 -2      4362      4467      4361
 -1      8051    7    0    1
 -2      4171      2165      4152
 -1      8052    7    0    1
 -2      4184      5619      4127
 -1      8053    7    0    1
 -2      3304      3305      3303
 -1      8054    7    0    1
 -2      3172      3173      3171
 -1      8055    7    0    1
 -2       895      1421        31
 -1      8056    7    0    1
 -2        30      1420       894
 -1      8057    7    0    1
 -2      4686      4687      4685
 -1      8058    7    0    1
 -2      4071      4072      4070
 -1      8059    7    0    1
 -2      4162      4163      4161
 -1      8060    7    0    1
 -2      5604      5605      5603
 -1      8061    7    0    1
 -2      3198      3199      3197
 -1      8062    7    0    1
 -2      3330      3331      3329
 -1      8063    7    0    1
 -2      2029      2623      2016
 -1      8064    7    0    1
 -2      1972      2633      1985
 -1      8065    7    0    1
 -2      2478      2480      2479
 -1      8066    7    0    1
 -2      2488      2489      2487
 -1      8067    7    0    1
 -2      3832      3872      3834
 -1      8068    7    0    1
 -2      3893      3894      3891
 -1      8069    7    0    1
 -2      3668      3669      3667
 -1      8070    7    0    1
 -2       930      4883       929
 -1      8071    7    0    1
 -2      3829      5624      3832
 -1      8072    7    0    1
 -2       969      1458        33
 -1      8073    7    0    1
 -2        32      1457       968
 -1      8074    7    0    1
 -2      3641      3642      3638
 -1      8075    7    0    1
 -2      2488      2490      2489
 -1      8076    7    0    1
 -2      2480      2481      2479
 -1      8077    7    0    1
 -2       968      4383       967
 -1      8078    7    0    1
 -2      5579      5580      5578
 -1      8079    7    0    1
 -2      3662      3663      3661
 -1      8080    7    0    1
 -2      1982      1983      1981
 -1      8081    7    0    1
 -2      2025      2027      2026
 -1      8082    7    0    1
 -2      3986      3987      3984
 -1      8083    7    0    1
 -2      1112      4528      1111
 -1      8084    7    0    1
 -2      3674      3675      3672
 -1      8085    7    0    1
 -2      3851      3899      3898
 -1      8086    7    0    1
 -2      5585      5611      5584
 -1      8087    7    0    1
 -2      3899      3901      3900
 -1      8088    7    0    1
 -2       731      2411       730
 -1      8089    7    0    1
 -2       391      2412       390
 -1      8090    7    0    1
 -2      3637      3638      3636
 -1      8091    7    0    1
 -2      3666      3667      3664
 -1      8092    7    0    1
 -2      2926      2928      2927
 -1      8093    7    0    1
 -2      4096      4097      4094
 -1      8094    7    0    1
 -2        19      5646       652
 -1      8095    7    0    1
 -2        11      5645       468
 -1      8096    7    0    1
 -2      4091      4092      4090
 -1      8097    7    0    1
 -2      4036      4040      4038
 -1      8098    7    0    1
 -2      4041      4044      4043
 -1      8099    7    0    1
 -2      3827      5624      3829
 -1      8100    7    0    1
 -2      3924      3926      3925
 -1      8101    7    0    1
 -2       653      5646        19
 -1      8102    7    0    1
 -2       469      5645        11
 -1      8103    7    0    1
 -2      4552      4818      2164
 -1      8104    7    0    1
 -2      2844      2846      2845
 -1      8105    7    0    1
 -2      4114      5693      4111
 -1      8106    7    0    1
 -2      3839      3854      3840
 -1      8107    7    0    1
 -2      5636      5749      3675
 -1      8108    7    0    1
 -2      5158      5570      3854
 -1      8109    7    0    1
 -2      3847      5624      3827
 -1      8110    7    0    1
 -2      3463      3464      3460
 -1      8111    7    0    1
 -2      1350      1351      4158
 -1      8112    7    0    1
 -2      3979      5778      4249
 -1      8113    7    0    1
 -2      3660      3661      3659
 -1      8114    7    0    1
 -2      4109      4113      4111
 -1      8115    7    0    1
 -2      4197      5758      4219
 -1      8116    7    0    1
 -2      3679      5636      3676
 -1      8117    7    0    1
 -2      3925      5627      3865
 -1      8118    7    0    1
 -2      2856      2857      2855
 -1      8119    7    0    1
 -2      4177      4233      4146
 -1      8120    7    0    1
 -2      3538      5852      3509
 -1      8121    7    0    1
 -2      4202      5632      4199
 -1      8122    7    0    1
 -2      2376      2377      2374
 -1      8123    7    0    1
 -2      2391      2394      2393
 -1      8124    7    0    1
 -2      4215      2167      4218
 -1      8125    7    0    1
 -2      3387      5854      3359
 -1      8126    7    0    1
 -2      3255      5853      3227
 -1      8127    7    0    1
 -2      5577      5578      4991
 -1      8128    7    0    1
 -2      3901      3905      3904
 -1      8129    7    0    1
 -2      4054      4228      4182
 -1      8130    7    0    1
 -2      1265      4366        41
 -1      8131    7    0    1
 -2      2158      2160      4139
 -1      8132    7    0    1
 -2      1558      4452      1186
 -1      8133    7    0    1
 -2      3873      3933      3854
 -1      8134    7    0    1
 -2      2169      5240      4236
 -1      8135    7    0    1
 -2      3670      3671      3669
 -1      8136    7    0    1
 -2      5588      5611      5585
 -1      8137    7    0    1
 -2      4213      4214      4210
 -1      8138    7    0    1
 -2      3988      3989      3987
 -1      8139    7    0    1
 -2      4952      4955      4953
 -1      8140    7    0    1
 -2      4915      4917      4914
 -1      8141    7    0    1
 -2      3979      4249      3978
 -1      8142    7    0    1
 -2      3875      3876      3874
 -1      8143    7    0    1
 -2       935      4372      1427
 -1      8144    7    0    1
 -2      1390      4731       971
 -1      8145    7    0    1
 -2      3996      3997      3991
 -1      8146    7    0    1
 -2      4848      4850      4849
 -1      8147    7    0    1
 -2      4845      4846      4844
 -1      8148    7    0    1
 -2      5397      5433      5398
 -1      8149    7    0    1
 -2      2098      2099      2096
 -1      8150    7    0    1
 -2      2090      2093      2092
 -1      8151    7    0    1
 -2      2382      2383      2381
 -1      8152    7    0    1
 -2      2398      2400      2399
 -1      8153    7    0    1
 -2      1113      1476      1112
 -1      8154    7    0    1
 -2      1121      1475      1120
 -1      8155    7    0    1
 -2      4623      4624      1426
 -1      8156    7    0    1
 -2      3505      3506      3502
 -1      8157    7    0    1
 -2      3992      3993      3985
 -1      8158    7    0    1
 -2      3699      3703      3702
 -1      8159    7    0    1
 -2      4218      2156      4214
 -1      8160    7    0    1
 -2      3788      3874      3777
 -1      8161    7    0    1
 -2      3355      3356      3352
 -1      8162    7    0    1
 -2      3223      3224      3220
 -1      8163    7    0    1
 -2      4029      4047      4031
 -1      8164    7    0    1
 -2      3769      5637      3781
 -1      8165    7    0    1
 -2      4207      4217      4205
 -1      8166    7    0    1
 -2      2985      4497      2984
 -1      8167    7    0    1
 -2      3855      5575      3823
 -1      8168    7    0    1
 -2      2981      4498      2982
 -1      8169    7    0    1
 -2      2904      2906      2905
 -1      8170    7    0    1
 -2      4315      4319      4317
 -1      8171    7    0    1
 -2      4515      4516      3876
 -1      8172    7    0    1
 -2      5588      5612      5611
 -1      8173    7    0    1
 -2      2680      2981      2980
 -1      8174    7    0    1
 -2      2983      2984      2682
 -1      8175    7    0    1
 -2      2384      2386      2383
 -1      8176    7    0    1
 -2      2400      2403      2401
 -1      8177    7    0    1
 -2      1119      1528      1118
 -1      8178    7    0    1
 -2      1115      1527      1114
 -1      8179    7    0    1
 -2       396      5572      2129
 -1      8180    7    0    1
 -2      1813      5572       397
 -1      8181    7    0    1
 -2       724      5574      1811
 -1      8182    7    0    1
 -2      2130      5574       725
 -1      8183    7    0    1
 -2      3527      3528      3526
 -1      8184    7    0    1
 -2       790      1487       789
 -1      8185    7    0    1
 -2       815      1486       814
 -1      8186    7    0    1
 -2      3966      4503      3807
 -1      8187    7    0    1
 -2      3376      3377      3375
 -1      8188    7    0    1
 -2      3244      3245      3243
 -1      8189    7    0    1
 -2      2615      2619      2617
 -1      8190    7    0    1
 -2      2574      2576      2572
 -1      8191    7    0    1
 -2      2600      2614      2601
 -1      8192    7    0    1
 -2      2558      2571      2557
 -1      8193    7    0    1
 -2      2403      2405      2404
 -1      8194    7    0    1
 -2      2387      2388      2386
 -1      8195    7    0    1
 -2      3854      5570      3840
 -1      8196    7    0    1
 -2      4058      4135      4060
 -1      8197    7    0    1
 -2      3446      3448      3447
 -1      8198    7    0    1
 -2       859      1477       858
 -1      8199    7    0    1
 -2       931      1472       930
 -1      8200    7    0    1
 -2      3182      3184      3183
 -1      8201    7    0    1
 -2      3314      3316      3315
 -1      8202    7    0    1
 -2      4369      4370      1330
 -1      8203    7    0    1
 -2      3859      3861      3860
 -1      8204    7    0    1
 -2      3797      5637      3893
 -1      8205    7    0    1
 -2      1367      5651      1364
 -1      8206    7    0    1
 -2      2997      2998      2996
 -1      8207    7    0    1
 -2      2989      2991      2990
 -1      8208    7    0    1
 -2      3680      5664      3715
 -1      8209    7    0    1
 -2      3422      3429      3411
 -1      8210    7    0    1
 -2      1264      4364      1498
 -1      8211    7    0    1
 -2      3983      3984      3981
 -1      8212    7    0    1
 -2      2160      5657      4139
 -1      8213    7    0    1
 -2      2757      2758      2342
 -1      8214    7    0    1
 -2      2340      2763      2762
 -1      8215    7    0    1
 -2      3851      3936      3899
 -1      8216    7    0    1
 -2      3158      3165      3147
 -1      8217    7    0    1
 -2      3290      3297      3279
 -1      8218    7    0    1
 -2      3834      5620      3836
 -1      8219    7    0    1
 -2      3774      5650      3763
 -1      8220    7    0    1
 -2      4101      4104      4103
 -1      8221    7    0    1
 -2      5686      5687      1351
 -1      8222    7    0    1
 -2      5592      5640      5589
 -1      8223    7    0    1
 -2      3747      5855      3749
 -1      8224    7    0    1
 -2      4025      4056      4027
 -1      8225    7    0    1
 -2      2229      2291      2228
 -1      8226    7    0    1
 -2      2223      2293      2224
 -1      8227    7    0    1
 -2      4168      4169      4163
 -1      8228    7    0    1
 -2      1150      1551      1149
 -1      8229    7    0    1
 -2      1084      1552      1083
 -1      8230    7    0    1
 -2      2093      2192      2094
 -1      8231    7    0    1
 -2      2100      2194      2099
 -1      8232    7    0    1
 -2      2292      2361      2291
 -1      8233    7    0    1
 -2      2293      2363      2294
 -1      8234    7    0    1
 -2      3842      5638      3844
 -1      8235    7    0    1
 -2      1342      2275      2274
 -1      8236    7    0    1
 -2      2272      2273      1336
 -1      8237    7    0    1
 -2       933      1473       932
 -1      8238    7    0    1
 -2      1005      1474      1004
 -1      8239    7    0    1
 -2       969      4535      1458
 -1      8240    7    0    1
 -2      4906      5647      5460
 -1      8241    7    0    1
 -2      4062      4065      4064
 -1      8242    7    0    1
 -2      2036      5712      2112
 -1      8243    7    0    1
 -2      3832      5624      3872
 -1      8244    7    0    1
 -2       726      5614      2130
 -1      8245    7    0    1
 -2      2129      5573       395
 -1      8246    7    0    1
 -2      1231      1533      1230
 -1      8247    7    0    1
 -2      1299      1532      1298
 -1      8248    7    0    1
 -2      3797      3893      3891
 -1      8249    7    0    1
 -2      5457      5648      4944
 -1      8250    7    0    1
 -2      2227      2228      2226
 -1      8251    7    0    1
 -2      2221      2223      2222
 -1      8252    7    0    1
 -2      4004      4005      4003
 -1      8253    7    0    1
 -2      2034      5714      2118
 -1      8254    7    0    1
 -2      2035      5713      2116
 -1      8255    7    0    1
 -2      2033      5715      2114
 -1      8256    7    0    1
 -2      4370      4371      1330
 -1      8257    7    0    1
 -2      3499      3500      3498
 -1      8258    7    0    1
 -2      3905      3930      3915
 -1      8259    7    0    1
 -2      3956      5709      3640
 -1      8260    7    0    1
 -2      3820      5663      3785
 -1      8261    7    0    1
 -2      3349      3350      3348
 -1      8262    7    0    1
 -2      3217      3218      3216
 -1      8263    7    0    1
 -2      2539      2568      2540
 -1      8264    7    0    1
 -2      2583      2611      2582
 -1      8265    7    0    1
 -2      3801      3808      3807
 -1      8266    7    0    1
 -2      4068      4071      4070
 -1      8267    7    0    1
 -2      1301      1572      1300
 -1      8268    7    0    1
 -2      1229      1571      1228
 -1      8269    7    0    1
 -2      2136      7058      5836
 -1      8270    7    0    1
 -2      5838      7059      2135
 -1      8271    7    0    1
 -2      4088      4091      4090
 -1      8272    7    0    1
 -2      2374      5564      2373
 -1      8273    7    0    1
 -2       859      4621      1477
 -1      8274    7    0    1
 -2      2581      2582      2580
 -1      8275    7    0    1
 -2      2537      2539      2538
 -1      8276    7    0    1
 -2      4092      4096      4094
 -1      8277    7    0    1
 -2      4044      4049      4045
 -1      8278    7    0    1
 -2      4221      5619      4184
 -1      8279    7    0    1
 -2      3803      3858      3791
 -1      8280    7    0    1
 -2      2366      2672      2360
 -1      8281    7    0    1
 -2      2359      2671      2365
 -1      8282    7    0    1
 -2      4226      4227      1374
 -1      8283    7    0    1
 -2      1003      4622      1426
 -1      8284    7    0    1
 -2      3858      5650      3791
 -1      8285    7    0    1
 -2      2363      2390      2364
 -1      8286    7    0    1
 -2      2362      2373      2361
 -1      8287    7    0    1
 -2      4242      5103      2171
 -1      8288    7    0    1
 -2      2671      2731      2730
 -1      8289    7    0    1
 -2      2732      2733      2672
 -1      8290    7    0    1
 -2      3894      5662      3896
 -1      8291    7    0    1
 -2      3715      3778      3777
 -1      8292    7    0    1
 -2      5092      5831      2791
 -1      8293    7    0    1
 -2      2790      5832      5091
 -1      8294    7    0    1
 -2      1912      5870      5761
 -1      8295    7    0    1
 -2      4082      4112      4084
 -1      8296    7    0    1
 -2        30      4373      1420
 -1      8297    7    0    1
 -2      3685      5664      3682
 -1      8298    7    0    1
 -2      1187      1558      1186
 -1      8299    7    0    1
 -2      1195      1559      1194
 -1      8300    7    0    1
 -2      4215      4218      4214
 -1      8301    7    0    1
 -2      3919      5451      3820
 -1      8302    7    0    1
 -2      3778      3789      3788
 -1      8303    7    0    1
 -2      4125      4137      4130
 -1      8304    7    0    1
 -2      5935      6109      4229
 -1      8305    7    0    1
 -2        36      1616      1116
 -1      8306    7    0    1
 -2      1117      1617        37
 -1      8307    7    0    1
 -2      1121      4388      1475
 -1      8308    7    0    1
 -2      2213      2221      2220
 -1      8309    7    0    1
 -2      2225      2226      2215
 -1      8310    7    0    1
 -2      4138      4162      4161
 -1      8311    7    0    1
 -2      4078      4122      4080
 -1      8312    7    0    1
 -2      4074      4123      4076
 -1      8313    7    0    1
 -2      3328      3329      3327
 -1      8314    7    0    1
 -2      3196      3197      3195
 -1      8315    7    0    1
 -2       789      4396       788
 -1      8316    7    0    1
 -2      4006      4007      4005
 -1      8317    7    0    1
 -2       817      1618       816
 -1      8318    7    0    1
 -2       788      1619       787
 -1      8319    7    0    1
 -2      1152      1631      1151
 -1      8320    7    0    1
 -2      1082      1404      1081
 -1      8321    7    0    1
 -2      4096      4118      4116
 -1      8322    7    0    1
 -2      3699      3702      3697
 -1      8323    7    0    1
 -2      3961      5366      3959
 -1      8324    7    0    1
 -2       816      4419       815
 -1      8325    7    0    1
 -2      4049      4057      4050
 -1      8326    7    0    1
 -2      5589      5640      5588
 -1      8327    7    0    1
 -2      3676      5636      3675
 -1      8328    7    0    1
 -2      3682      5664      3680
 -1      8329    7    0    1
 -2      4656      4659      4658
 -1      8330    7    0    1
 -2       933      4602      1473
 -1      8331    7    0    1
 -2      3687      3934      3685
 -1      8332    7    0    1
 -2      4021      4131      4023
 -1      8333    7    0    1
 -2      3691      3701      3689
 -1      8334    7    0    1
 -2      4113      4124      4114
 -1      8335    7    0    1
 -2      3816      4521      3814
 -1      8336    7    0    1
 -2      4407      4408      1474
 -1      8337    7    0    1
 -2      3194      3195      3193
 -1      8338    7    0    1
 -2      3326      3327      3325
 -1      8339    7    0    1
 -2      3096      3097      2733
 -1      8340    7    0    1
 -2      2731      3091      3090
 -1      8341    7    0    1
 -2      3812      3971      3810
 -1      8342    7    0    1
 -2      3881      4614      3879
 -1      8343    7    0    1
 -2      1083      4403      1082
 -1      8344    7    0    1
 -2      2377      5564      2374
 -1      8345    7    0    1
 -2      3705      3712      3703
 -1      8346    7    0    1
 -2      2932      2934      2933
 -1      8347    7    0    1
 -2      4118      4147      4146
 -1      8348    7    0    1
 -2      3785      5663      3770
 -1      8349    7    0    1
 -2      3056      3058      3054
 -1      8350    7    0    1
 -2      3030      3034      3032
 -1      8351    7    0    1
 -2      4582      4642      4371
 -1      8352    7    0    1
 -2      4147      4178      4177
 -1      8353    7    0    1
 -2      5594      5600      5592
 -1      8354    7    0    1
 -2      1151      4421      1150
 -1      8355    7    0    1
 -2      4370      4582      4371
 -1      8356    7    0    1
 -2      4104      4151      4121
 -1      8357    7    0    1
 -2      1161      1522      1160
 -1      8358    7    0    1
 -2      1221      1397      1220
 -1      8359    7    0    1
 -2      2216      5614       727
 -1      8360    7    0    1
 -2       394      5573      2217
 -1      8361    7    0    1
 -2      2862      2863      2861
 -1      8362    7    0    1
 -2      1231      4410      1533
 -1      8363    7    0    1
 -2      2993      2994      2647
 -1      8364    7    0    1
 -2      2650      2987      2986
 -1      8365    7    0    1
 -2      4104      4121      4105
 -1      8366    7    0    1
 -2      3746      3772      3744
 -1      8367    7    0    1
 -2      1364      5651      1363
 -1      8368    7    0    1
 -2      3523      3524      3515
 -1      8369    7    0    1
 -2      3844      5638      3851
 -1      8370    7    0    1
 -2      2669      3109      3108
 -1      8371    7    0    1
 -2      3110      3111      2670
 -1      8372    7    0    1
 -2      3909      4825      3883
 -1      8373    7    0    1
 -2      2214      2215      2134
 -1      8374    7    0    1
 -2      2132      2213      2212
 -1      8375    7    0    1
 -2      4065      4136      4066
 -1      8376    7    0    1
 -2       931      4397      1472
 -1      8377    7    0    1
 -2      3372      3373      3365
 -1      8378    7    0    1
 -2      3240      3241      3233
 -1      8379    7    0    1
 -2      3639      3640      3635
 -1      8380    7    0    1
 -2      4044      4055      4049
 -1      8381    7    0    1
 -2      1080      4601        36
 -1      8382    7    0    1
 -2      5066      5072      5064
 -1      8383    7    0    1
 -2      3709      3716      3707
 -1      8384    7    0    1
 -2      1649      5665      1657
 -1      8385    7    0    1
 -2      4096      4116      4097
 -1      8386    7    0    1
 -2      4153      4180      4171
 -1      8387    7    0    1
 -2      4151      4153      4152
 -1      8388    7    0    1
 -2      5558      5559      5058
 -1      8389    7    0    1
 -2      4177      4234      4233
 -1      8390    7    0    1
 -2      3459      3460      3457
 -1      8391    7    0    1
 -2      3801      3807      3789
 -1      8392    7    0    1
 -2      3750      3762      3748
 -1      8393    7    0    1
 -2      4171      2166      2165
 -1      8394    7    0    1
 -2      2377      5565      5564
 -1      8395    7    0    1
 -2      2835      2836      2834
 -1      8396    7    0    1
 -2        37      4418      1153
 -1      8397    7    0    1
 -2      5056      5078      5054
 -1      8398    7    0    1
 -2      4205      5632      4202
 -1      8399    7    0    1
 -2      3839      5620      3873
 -1      8400    7    0    1
 -2      4218      4229      2156
 -1      8401    7    0    1
 -2      3893      3932      3894
 -1      8402    7    0    1
 -2      3715      3777      3679
 -1      8403    7    0    1
 -2      3718      3771      3711
 -1      8404    7    0    1
 -2      2646      2647      2645
 -1      8405    7    0    1
 -2      2648      2650      2649
 -1      8406    7    0    1
 -2      3977      3979      3978
 -1      8407    7    0    1
 -2      1081      4420      1080
 -1      8408    7    0    1
 -2      1531      6114      5480
 -1      8409    7    0    1
 -2      3872      5620      3834
 -1      8410    7    0    1
 -2      4091      2415      4092
 -1      8411    7    0    1
 -2      2833      2834      2832
 -1      8412    7    0    1
 -2      1363      4248      4178
 -1      8413    7    0    1
 -2      5073      5076      5070
 -1      8414    7    0    1
 -2      3836      5620      3839
 -1      8415    7    0    1
 -2      3098      3099      3097
 -1      8416    7    0    1
 -2      3091      3093      3092
 -1      8417    7    0    1
 -2      1473      4456       932
 -1      8418    7    0    1
 -2      3913      3951      3911
 -1      8419    7    0    1
 -2      4065      2161      4136
 -1      8420    7    0    1
 -2      4643      4645      4642
 -1      8421    7    0    1
 -2      2163      4550      2164
 -1      8422    7    0    1
 -2      4582      4643      4642
 -1      8423    7    0    1
 -2      3734      3783      3732
 -1      8424    7    0    1
 -2      2133      2134      2028
 -1      8425    7    0    1
 -2      1984      2132      2131
 -1      8426    7    0    1
 -2      4040      5656      4041
 -1      8427    7    0    1
 -2      4843      4844      2638
 -1      8428    7    0    1
 -2      2628      4848      4847
 -1      8429    7    0    1
 -2      1113      4389      1476
 -1      8430    7    0    1
 -2      4516      4520      4519
 -1      8431    7    0    1
 -2      2635      2637      2636
 -1      8432    7    0    1
 -2      2626      2627      2625
 -1      8433    7    0    1
 -2      4071      4139      4072
 -1      8434    7    0    1
 -2      5570      5638      3842
 -1      8435    7    0    1
 -2      3756      3765      3754
 -1      8436    7    0    1
 -2      4475      4760      4472
 -1      8437    7    0    1
 -2      2161      2163      2162
 -1      8438    7    0    1
 -2      1978      1981      1977
 -1      8439    7    0    1
 -2      2021      2025      2022
 -1      8440    7    0    1
 -2      3857      5641      3855
 -1      8441    7    0    1
 -2      3777      5636      3679
 -1      8442    7    0    1
 -2      1005      4405      1474
 -1      8443    7    0    1
 -2      4071      2157      4139
 -1      8444    7    0    1
 -2      3730      3773      3728
 -1      8445    7    0    1
 -2      1369      4499      1367
 -1      8446    7    0    1
 -2      3788      3875      3874
 -1      8447    7    0    1
 -2      1119      4393      1528
 -1      8448    7    0    1
 -2      1153      4423      1152
 -1      8449    7    0    1
 -2      3943      3970      3941
 -1      8450    7    0    1
 -2      3875      4515      3876
 -1      8451    7    0    1
 -2      5552      5619      4221
 -1      8452    7    0    1
 -2      4503      5681      3807
 -1      8453    7    0    1
 -2      2217      5615       393
 -1      8454    7    0    1
 -2      4210      5633      4207
 -1      8455    7    0    1
 -2      4623      4626      4625
 -1      8456    7    0    1
 -2      3724      3768      3722
 -1      8457    7    0    1
 -2      2157      2159      2158
 -1      8458    7    0    1
 -2      3760      3776      3758
 -1      8459    7    0    1
 -2      5856      5911      5502
 -1      8460    7    0    1
 -2      4556      4753      4225
 -1      8461    7    0    1
 -2      4548      4832      4549
 -1      8462    7    0    1
 -2      4027      5628      4029
 -1      8463    7    0    1
 -2      4017      4144      4019
 -1      8464    7    0    1
 -2      3246      4861      3245
 -1      8465    7    0    1
 -2      3378      4859      3377
 -1      8466    7    0    1
 -2      3529      4877      3528
 -1      8467    7    0    1
 -2      3808      3966      3807
 -1      8468    7    0    1
 -2      4111      5693      4115
 -1      8469    7    0    1
 -2      4041      5656      4044
 -1      8470    7    0    1
 -2      3861      3863      3862
 -1      8471    7    0    1
 -2      4118      4146      4116
 -1      8472    7    0    1
 -2      3778      3788      3777
 -1      8473    7    0    1
 -2      4623      4625      4624
 -1      8474    7    0    1
 -2       787      4579       786
 -1      8475    7    0    1
 -2      3667      5682      3664
 -1      8476    7    0    1
 -2      1912      5761      2263
 -1      8477    7    0    1
 -2      2666      2900      2899
 -1      8478    7    0    1
 -2      4147      4177      4146
 -1      8479    7    0    1
 -2      2390      5561      2391
 -1      8480    7    0    1
 -2      2156      5633      4214
 -1      8481    7    0    1
 -2      1558      4453      4452
 -1      8482    7    0    1
 -2      4372      4869      1427
 -1      8483    7    0    1
 -2      2195      5618      5567
 -1      8484    7    0    1
 -2      2169      5487      5240
 -1      8485    7    0    1
 -2      1223      1891      1222
 -1      8486    7    0    1
 -2      1159      1892      1158
 -1      8487    7    0    1
 -2      4151      4152      4121
 -1      8488    7    0    1
 -2      1301      4415      1572
 -1      8489    7    0    1
 -2      4153      4171      4152
 -1      8490    7    0    1
 -2      4013      4167      4015
 -1      8491    7    0    1
 -2      2395      5707      2398
 -1      8492    7    0    1
 -2      2381      5706      2378
 -1      8493    7    0    1
 -2      1222      4425      1221
 -1      8494    7    0    1
 -2      1697      5455      1702
 -1      8495    7    0    1
 -2      2163      2164      2162
 -1      8496    7    0    1
 -2      4745      7410      4801
 -1      8497    7    0    1
 -2      4142      5688      4166
 -1      8498    7    0    1
 -2      3923      3924      3865
 -1      8499    7    0    1
 -2      4550      4552      2164
 -1      8500    7    0    1
 -2      4499      5651      1367
 -1      8501    7    0    1
 -2      2161      2162      4136
 -1      8502    7    0    1
 -2      5600      5640      5592
 -1      8503    7    0    1
 -2      4228      5763      5560
 -1      8504    7    0    1
 -2      4373      4380      1420
 -1      8505    7    0    1
 -2      4107      5694      4109
 -1      8506    7    0    1
 -2      4023      5643      4025
 -1      8507    7    0    1
 -2      3977      3980      3979
 -1      8508    7    0    1
 -2      5451      5663      3820
 -1      8509    7    0    1
 -2      2027      2028      2026
 -1      8510    7    0    1
 -2      1982      1984      1983
 -1      8511    7    0    1
 -2      1299      4412      1532
 -1      8512    7    0    1
 -2      3646      3649      3648
 -1      8513    7    0    1
 -2      1117      4631      1617
 -1      8514    7    0    1
 -2      2934      2936      2935
 -1      8515    7    0    1
 -2      1229      4413      1571
 -1      8516    7    0    1
 -2      2159      1357      2158
 -1      8517    7    0    1
 -2      2864      2865      2863
 -1      8518    7    0    1
 -2      4159      1358      1350
 -1      8519    7    0    1
 -2      4113      4150      4124
 -1      8520    7    0    1
 -2      4150      5694      4231
 -1      8521    7    0    1
 -2      4622      4623      1426
 -1      8522    7    0    1
 -2      4407      4409      4408
 -1      8523    7    0    1
 -2      3864      3865      3862
 -1      8524    7    0    1
 -2      3989      3996      3991
 -1      8525    7    0    1
 -2      3818      3819      3640
 -1      8526    7    0    1
 -2       818      4436       817
 -1      8527    7    0    1
 -2      4092      2415      4096
 -1      8528    7    0    1
 -2      2140      2359      2314
 -1      8529    7    0    1
 -2      2315      2360      2141
 -1      8530    7    0    1
 -2      2157      2158      4139
 -1      8531    7    0    1
 -2      3863      3866      3864
 -1      8532    7    0    1
 -2      3896      5703      3903
 -1      8533    7    0    1
 -2       516      2248       515
 -1      8534    7    0    1
 -2       608      2249       607
 -1      8535    7    0    1
 -2       560      2246       559
 -1      8536    7    0    1
 -2       468      2250       467
 -1      8537    7    0    1
 -2       652      2247       651
 -1      8538    7    0    1
 -2      4214      5633      4210
 -1      8539    7    0    1
 -2      3418      3419      3417
 -1      8540    7    0    1
 -2      2591      2595      2589
 -1      8541    7    0    1
 -2      2546      2552      2548
 -1      8542    7    0    1
 -2      3675      5801      3672
 -1      8543    7    0    1
 -2      3851      5638      3936
 -1      8544    7    0    1
 -2      4150      4159      4158
 -1      8545    7    0    1
 -2      3997      4173      3999
 -1      8546    7    0    1
 -2      5616      5763      4228
 -1      8547    7    0    1
 -2      4754      4755      1571
 -1      8548    7    0    1
 -2      1385      1336      1384
 -1      8549    7    0    1
 -2      1340      1342      1341
 -1      8550    7    0    1
 -2      3859      3860      3858
 -1      8551    7    0    1
 -2      2815      2817      2816
 -1      8552    7    0    1
 -2      2806      2807      2805
 -1      8553    7    0    1
 -2      3932      5662      3894
 -1      8554    7    0    1
 -2      4124      5692      4125
 -1      8555    7    0    1
 -2      4009      4181      4011
 -1      8556    7    0    1
 -2      4099      5639      4101
 -1      8557    7    0    1
 -2      3286      3287      3285
 -1      8558    7    0    1
 -2      3154      3155      3153
 -1      8559    7    0    1
 -2      5762      5871      1913
 -1      8560    7    0    1
 -2      3934      5664      3685
 -1      8561    7    0    1
 -2      4364      4730      1498
 -1      8562    7    0    1
 -2      3664      5682      3663
 -1      8563    7    0    1
 -2      2490      2773      2772
 -1      8564    7    0    1
 -2      2776      2777      2481
 -1      8565    7    0    1
 -2      4207      5633      4217
 -1      8566    7    0    1
 -2      3924      3964      3926
 -1      8567    7    0    1
 -2      3874      5749      5636
 -1      8568    7    0    1
 -2      3532      5812      4711
 -1      8569    7    0    1
 -2      4001      4004      4003
 -1      8570    7    0    1
 -2      3810      5655      3808
 -1      8571    7    0    1
 -2      3663      4459      4458
 -1      8572    7    0    1
 -2      2655      3064      2654
 -1      8573    7    0    1
 -2      2657      3062      2658
 -1      8574    7    0    1
 -2      4394      4395      1528
 -1      8575    7    0    1
 -2      3673      5896      3674
 -1      8576    7    0    1
 -2      4217      5632      4205
 -1      8577    7    0    1
 -2      3669      3806      3667
 -1      8578    7    0    1
 -2      2829      2830      2664
 -1      8579    7    0    1
 -2      3983      3986      3984
 -1      8580    7    0    1
 -2       819      1415       818
 -1      8581    7    0    1
 -2       786      2142       785
 -1      8582    7    0    1
 -2      2940      2943      2941
 -1      8583    7    0    1
 -2      5729      5731      5730
 -1      8584    7    0    1
 -2      5725      5726      5724
 -1      8585    7    0    1
 -2      4166      5688      2169
 -1      8586    7    0    1
 -2      1224      4616      1223
 -1      8587    7    0    1
 -2      1158      4615      1157
 -1      8588    7    0    1
 -2      4602      4603      1473
 -1      8589    7    0    1
 -2      2870      2872      2869
 -1      8590    7    0    1
 -2      3095      6158      4904
 -1      8591    7    0    1
 -2      3642      3644      3643
 -1      8592    7    0    1
 -2      2196      2648      2409
 -1      8593    7    0    1
 -2      2410      2645      2197
 -1      8594    7    0    1
 -2      4150      4158      4124
 -1      8595    7    0    1
 -2      4121      1812      5866
 -1      8596    7    0    1
 -2      4060      5644      4062
 -1      8597    7    0    1
 -2      3879      5660      3816
 -1      8598    7    0    1
 -2      3814      5658      3812
 -1      8599    7    0    1
 -2      5632      5856      5543
 -1      8600    7    0    1
 -2      4066      5642      4068
 -1      8601    7    0    1
 -2      3049      3052      3051
 -1      8602    7    0    1
 -2      3027      3028      3025
 -1      8603    7    0    1
 -2      3986      3988      3987
 -1      8604    7    0    1
 -2      1786      1787      1785
 -1      8605    7    0    1
 -2      1777      1779      1778
 -1      8606    7    0    1
 -2      2502      2670      2267
 -1      8607    7    0    1
 -2      2266      2669      2501
 -1      8608    7    0    1
 -2      2643      5880      2218
 -1      8609    7    0    1
 -2      2219      5881      2644
 -1      8610    7    0    1
 -2      4029      5628      4047
 -1      8611    7    0    1
 -2       785      4427       784
 -1      8612    7    0    1
 -2      2515      5468      2517
 -1      8613    7    0    1
 -2      2147      4226      1374
 -1      8614    7    0    1
 -2      4681      4684      4683
 -1      8615    7    0    1
 -2      1358      4533      1350
 -1      8616    7    0    1
 -2        28      2257       820
 -1      8617    7    0    1
 -2      4159      1350      4158
 -1      8618    7    0    1
 -2      4217      5856      5632
 -1      8619    7    0    1
 -2        38      2204      1190
 -1      8620    7    0    1
 -2      1191      2205        39
 -1      8621    7    0    1
 -2      1193      2107      1192
 -1      8622    7    0    1
 -2      1189      2108      1188
 -1      8623    7    0    1
 -2      1822      1824      1823
 -1      8624    7    0    1
 -2      1831      1832      1830
 -1      8625    7    0    1
 -2      3962      3963      3648
 -1      8626    7    0    1
 -2      3981      5778      3979
 -1      8627    7    0    1
 -2      4072      5657      4074
 -1      8628    7    0    1
 -2      5588      5640      5612
 -1      8629    7    0    1
 -2      5561      5562      2394
 -1      8630    7    0    1
 -2      2158      5673      2160
 -1      8631    7    0    1
 -2      5070      5666      5068
 -1      8632    7    0    1
 -2      4109      5694      4113
 -1      8633    7    0    1
 -2      2938      2940      2939
 -1      8634    7    0    1
 -2      2868      2869      2867
 -1      8635    7    0    1
 -2      4405      4407      1474
 -1      8636    7    0    1
 -2      3133      3136      3135
 -1      8637    7    0    1
 -2      3397      3400      3399
 -1      8638    7    0    1
 -2      3265      3268      3267
 -1      8639    7    0    1
 -2      2480      2776      2481
 -1      8640    7    0    1
 -2      2490      2772      2489
 -1      8641    7    0    1
 -2      2794      5532      2318
 -1      8642    7    0    1
 -2      4019      5670      4021
 -1      8643    7    0    1
 -2      1759      1800      1760
 -1      8644    7    0    1
 -2      1763      1761      1762
 -1      8645    7    0    1
 -2      4056      5628      4027
 -1      8646    7    0    1
 -2      5934      6009      4230
 -1      8647    7    0    1
 -2      4247      5905      2154
 -1      8648    7    0    1
 -2      2318      5532      1382
 -1      8649    7    0    1
 -2      1865      1866      1864
 -1      8650    7    0    1
 -2      1850      1852      1851
 -1      8651    7    0    1
 -2      1975      1977      1974
 -1      8652    7    0    1
 -2      2018      2021      2019
 -1      8653    7    0    1
 -2      3715      5676      3778
 -1      8654    7    0    1
 -2      1518      1653      1649
 -1      8655    7    0    1
 -2      1690      1691      1688
 -1      8656    7    0    1
 -2      5687      5691      1351
 -1      8657    7    0    1
 -2      4162      4168      4163
 -1      8658    7    0    1
 -2      3877      3969      3920
 -1      8659    7    0    1
 -2      2013      2018      2017
 -1      8660    7    0    1
 -2      1973      1974      1969
 -1      8661    7    0    1
 -2      4044      5656      4055
 -1      8662    7    0    1
 -2      1350      5686      1351
 -1      8663    7    0    1
 -2      1826      1828      1827
 -1      8664    7    0    1
 -2      1835      1836      1834
 -1      8665    7    0    1
 -2      4136      5642      4066
 -1      8666    7    0    1
 -2      3855      5641      5575
 -1      8667    7    0    1
 -2      3980      3982      3981
 -1      8668    7    0    1
 -2      3871      5755      5754
 -1      8669    7    0    1
 -2      1846      1848      1847
 -1      8670    7    0    1
 -2      1861      1862      1860
 -1      8671    7    0    1
 -2      1157      2282      1156
 -1      8672    7    0    1
 -2      1225      2281      1224
 -1      8673    7    0    1
 -2      2378      5706      2377
 -1      8674    7    0    1
 -2      2394      5707      2395
 -1      8675    7    0    1
 -2      2949      2953      2952
 -1      8676    7    0    1
 -2      2163      5857      4551
 -1      8677    7    0    1
 -2      2831      2832      2830
 -1      8678    7    0    1
 -2      2391      5561      2394
 -1      8679    7    0    1
 -2      4096      2415      4118
 -1      8680    7    0    1
 -2      1193      4457      2107
 -1      8681    7    0    1
 -2      3861      3862      3860
 -1      8682    7    0    1
 -2      2480      2778      2776
 -1      8683    7    0    1
 -2      2772      2774      2489
 -1      8684    7    0    1
 -2      4025      5643      4056
 -1      8685    7    0    1
 -2      5068      5668      5066
 -1      8686    7    0    1
 -2      1187      4417      1558
 -1      8687    7    0    1
 -2      2881      2882      2878
 -1      8688    7    0    1
 -2      4028      5935      4026
 -1      8689    7    0    1
 -2      1351      5692      4158
 -1      8690    7    0    1
 -2      1159      4426      1892
 -1      8691    7    0    1
 -2      3874      5636      3777
 -1      8692    7    0    1
 -2      3996      5621      3997
 -1      8693    7    0    1
 -2      1879      1880      1878
 -1      8694    7    0    1
 -2      1874      1876      1875
 -1      8695    7    0    1
 -2      5596      5667      5594
 -1      8696    7    0    1
 -2      3663      4458      3661
 -1      8697    7    0    1
 -2      3808      5655      3966
 -1      8698    7    0    1
 -2      1190      4443      1189
 -1      8699    7    0    1
 -2      2542      2556      2544
 -1      8700    7    0    1
 -2      2587      2599      2585
 -1      8701    7    0    1
 -2      2773      4996      2772
 -1      8702    7    0    1
 -2      2776      4995      2777
 -1      8703    7    0    1
 -2      3205      3207      3206
 -1      8704    7    0    1
 -2      3337      3339      3338
 -1      8705    7    0    1
 -2      4674      3493      4663
 -1      8706    7    0    1
 -2      2577      4978      2576
 -1      8707    7    0    1
 -2      2619      4982      2620
 -1      8708    7    0    1
 -2      4139      5657      4072
 -1      8709    7    0    1
 -2      4135      5644      4060
 -1      8710    7    0    1
 -2      3923      5631      3924
 -1      8711    7    0    1
 -2      4878      5016      4877
 -1      8712    7    0    1
 -2      4862      5098      4861
 -1      8713    7    0    1
 -2      4860      5099      4859
 -1      8714    7    0    1
 -2      3982      3985      3983
 -1      8715    7    0    1
 -2      4101      5639      4104
 -1      8716    7    0    1
 -2      4004      4006      4005
 -1      8717    7    0    1
 -2      3653      3906      3651
 -1      8718    7    0    1
 -2      3646      3648      3644
 -1      8719    7    0    1
 -2      3444      3446      3445
 -1      8720    7    0    1
 -2      2390      5563      5561
 -1      8721    7    0    1
 -2      2902      2904      2903
 -1      8722    7    0    1
 -2      5564      5566      2373
 -1      8723    7    0    1
 -2      3954      5093      4566
 -1      8724    7    0    1
 -2      4006      4243      4007
 -1      8725    7    0    1
 -2      1708      1762      1707
 -1      8726    7    0    1
 -2      1669      1759      1670
 -1      8727    7    0    1
 -2      2603      2604      2598
 -1      8728    7    0    1
 -2      2555      2561      2560
 -1      8729    7    0    1
 -2      3659      3889      3657
 -1      8730    7    0    1
 -2      3642      3643      3638
 -1      8731    7    0    1
 -2      3868      3871      3866
 -1      8732    7    0    1
 -2      4168      4222      4169
 -1      8733    7    0    1
 -2      4393      4394      1528
 -1      8734    7    0    1
 -2      4499      5652      5651
 -1      8735    7    0    1
 -2      4162      1356      4168
 -1      8736    7    0    1
 -2      5064      5677      5062
 -1      8737    7    0    1
 -2      5062      5677      5558
 -1      8738    7    0    1
 -2      2436      2438      2437
 -1      8739    7    0    1
 -2      3986      3995      3988
 -1      8740    7    0    1
 -2      3864      3923      3865
 -1      8741    7    0    1
 -2      4015      5680      4017
 -1      8742    7    0    1
 -2      5662      5703      3896
 -1      8743    7    0    1
 -2      2361      2463      2291
 -1      8744    7    0    1
 -2      2293      2464      2363
 -1      8745    7    0    1
 -2      4004      4246      4006
 -1      8746    7    0    1
 -2      4131      5643      4023
 -1      8747    7    0    1
 -2      4194      5758      4197
 -1      8748    7    0    1
 -2      5511      5874      3847
 -1      8749    7    0    1
 -2      3639      3877      3818
 -1      8750    7    0    1
 -2      1788      1789      1787
 -1      8751    7    0    1
 -2      1779      1781      1780
 -1      8752    7    0    1
 -2      3980      3981      3979
 -1      8753    7    0    1
 -2      4068      5642      4071
 -1      8754    7    0    1
 -2      2213      2323      2221
 -1      8755    7    0    1
 -2      2226      2322      2215
 -1      8756    7    0    1
 -2      3993      3994      3985
 -1      8757    7    0    1
 -2      4062      5644      4065
 -1      8758    7    0    1
 -2      3424      3425      3419
 -1      8759    7    0    1
 -2      1662      1669      1665
 -1      8760    7    0    1
 -2      1703      1707      1700
 -1      8761    7    0    1
 -2      3971      5655      3810
 -1      8762    7    0    1
 -2      3806      5682      3667
 -1      8763    7    0    1
 -2      5960      6055      1358
 -1      8764    7    0    1
 -2      3160      3161      3155
 -1      8765    7    0    1
 -2      3292      3293      3287
 -1      8766    7    0    1
 -2      2029      2624      2623
 -1      8767    7    0    1
 -2      2633      2634      1985
 -1      8768    7    0    1
 -2      2383      2421      2381
 -1      8769    7    0    1
 -2      2398      2423      2400
 -1      8770    7    0    1
 -2      2025      2026      2022
 -1      8771    7    0    1
 -2      1978      1982      1981
 -1      8772    7    0    1
 -2      3180      3182      3181
 -1      8773    7    0    1
 -2      3312      3314      3313
 -1      8774    7    0    1
 -2      2580      5634      2012
 -1      8775    7    0    1
 -2      2611      2657      2656
 -1      8776    7    0    1
 -2      2653      2654      2568
 -1      8777    7    0    1
 -2      3863      3864      3862
 -1      8778    7    0    1
 -2      3636      3639      3635
 -1      8779    7    0    1
 -2      3338      6045      3336
 -1      8780    7    0    1
 -2      3206      6046      3204
 -1      8781    7    0    1
 -2      1227      2420      1226
 -1      8782    7    0    1
 -2      1155      2419      1154
 -1      8783    7    0    1
 -2      4521      5658      3814
 -1      8784    7    0    1
 -2      4125      5692      4137
 -1      8785    7    0    1
 -2      3816      5660      4521
 -1      8786    7    0    1
 -2      3812      5658      3971
 -1      8787    7    0    1
 -2      1731      1737      1736
 -1      8788    7    0    1
 -2      1732      1733      1408
 -1      8789    7    0    1
 -2      3807      5681      3789
 -1      8790    7    0    1
 -2      4614      5660      3879
 -1      8791    7    0    1
 -2      2403      2698      2405
 -1      8792    7    0    1
 -2      2388      2697      2386
 -1      8793    7    0    1
 -2      4104      5639      4151
 -1      8794    7    0    1
 -2      4248      5675      4178
 -1      8795    7    0    1
 -2      1534      6118      3776
 -1      8796    7    0    1
 -2      3996      5623      5621
 -1      8797    7    0    1
 -2      2655      3065      3064
 -1      8798    7    0    1
 -2      3062      3063      2658
 -1      8799    7    0    1
 -2      3789      5681      3788
 -1      8800    7    0    1
 -2      3334      3337      3336
 -1      8801    7    0    1
 -2      3202      3205      3204
 -1      8802    7    0    1
 -2      4074      5657      4123
 -1      8803    7    0    1
 -2        39      4437      1227
 -1      8804    7    0    1
 -2      4415      4416      1572
 -1      8805    7    0    1
 -2      4181      5685      5684
 -1      8806    7    0    1
 -2      4178      5675      4177
 -1      8807    7    0    1
 -2      2924      2926      2925
 -1      8808    7    0    1
 -2      2900      2902      2901
 -1      8809    7    0    1
 -2       421      2102       420
 -1      8810    7    0    1
 -2       701      2101       700
 -1      8811    7    0    1
 -2      4136      5844      5642
 -1      8812    7    0    1
 -2      1681      1683      1682
 -1      8813    7    0    1
 -2      1643      1644      1642
 -1      8814    7    0    1
 -2      1690      1692      1691
 -1      8815    7    0    1
 -2      1653      1654      1649
 -1      8816    7    0    1
 -2      3454      3455      3452
 -1      8817    7    0    1
 -2      4413      4754      1571
 -1      8818    7    0    1
 -2      3441      3444      3443
 -1      8819    7    0    1
 -2      3207      3209      3208
 -1      8820    7    0    1
 -2      3339      3341      3340
 -1      8821    7    0    1
 -2      2438      2440      2439
 -1      8822    7    0    1
 -2      2263      5761      2494
 -1      8823    7    0    1
 -2      2112      5712      2183
 -1      8824    7    0    1
 -2      3819      4463      3957
 -1      8825    7    0    1
 -2      2169      5688      5487
 -1      8826    7    0    1
 -2      5594      5667      5600
 -1      8827    7    0    1
 -2      2943      2945      2944
 -1      8828    7    0    1
 -2      3138      3140      3139
 -1      8829    7    0    1
 -2      3402      3404      3403
 -1      8830    7    0    1
 -2      3270      3272      3271
 -1      8831    7    0    1
 -2       470      5795       469
 -1      8832    7    0    1
 -2      4754      5100      4755
 -1      8833    7    0    1
 -2      2118      5714      2191
 -1      8834    7    0    1
 -2      3644      5654      3643
 -1      8835    7    0    1
 -2      2116      5713      2187
 -1      8836    7    0    1
 -2      2114      5715      2179
 -1      8837    7    0    1
 -2      4180      5678      4171
 -1      8838    7    0    1
 -2      3639      3818      3640
 -1      8839    7    0    1
 -2      3934      5865      5527
 -1      8840    7    0    1
 -2      4011      5683      4013
 -1      8841    7    0    1
 -2      3995      1362      3988
 -1      8842    7    0    1
 -2      3962      4558      3963
 -1      8843    7    0    1
 -2      2854      2855      2853
 -1      8844    7    0    1
 -2      5076      5666      5070
 -1      8845    7    0    1
 -2      3649      3962      3648
 -1      8846    7    0    1
 -2      1867      1868      1866
 -1      8847    7    0    1
 -2      1852      1854      1853
 -1      8848    7    0    1
 -2      1684      5485      1699
 -1      8849    7    0    1
 -2      5749      5801      3675
 -1      8850    7    0    1
 -2      3672      5801      3671
 -1      8851    7    0    1
 -2      5066      5668      5072
 -1      8852    7    0    1
 -2      2583      5699      2611
 -1      8853    7    0    1
 -2      2568      5700      2540
 -1      8854    7    0    1
 -2      3982      3983      3981
 -1      8855    7    0    1
 -2      5668      5669      5072
 -1      8856    7    0    1
 -2      2028      2237      2026
 -1      8857    7    0    1
 -2      1982      2236      1984
 -1      8858    7    0    1
 -2      4021      5670      4131
 -1      8859    7    0    1
 -2      4135      5857      5644
 -1      8860    7    0    1
 -2      2398      5707      2423
 -1      8861    7    0    1
 -2      2421      5706      2381
 -1      8862    7    0    1
 -2      1657      1662      1660
 -1      8863    7    0    1
 -2      1698      1700      1695
 -1      8864    7    0    1
 -2      3924      5631      3964
 -1      8865    7    0    1
 -2      3926      5695      3938
 -1      8866    7    0    1
 -2      2463      5736      5735
 -1      8867    7    0    1
 -2      5738      5739      2464
 -1      8868    7    0    1
 -2      4113      5694      4150
 -1      8869    7    0    1
 -2      3701      6089      5481
 -1      8870    7    0    1
 -2      2539      2653      2568
 -1      8871    7    0    1
 -2      2611      2656      2582
 -1      8872    7    0    1
 -2      4065      5644      2161
 -1      8873    7    0    1
 -2      5072      5677      5064
 -1      8874    7    0    1
 -2      3997      5621      4173
 -1      8875    7    0    1
 -2      3663      5682      4459
 -1      8876    7    0    1
 -2      1357      5673      2158
 -1      8877    7    0    1
 -2      2873      2874      2872
 -1      8878    7    0    1
 -2      5678      5679      2166
 -1      8879    7    0    1
 -2      4071      5642      2157
 -1      8880    7    0    1
 -2      1654      5665      1649
 -1      8881    7    0    1
 -2      4177      5675      4234
 -1      8882    7    0    1
 -2       652      5646      2247
 -1      8883    7    0    1
 -2       468      5645      2250
 -1      8884    7    0    1
 -2      2996      6193      2995
 -1      8885    7    0    1
 -2      2988      6194      2989
 -1      8886    7    0    1
 -2      3969      4769      3920
 -1      8887    7    0    1
 -2      1967      1968      1966
 -1      8888    7    0    1
 -2      2010      2012      2011
 -1      8889    7    0    1
 -2      3954      4566      3870
 -1      8890    7    0    1
 -2      4655      4656      4652
 -1      8891    7    0    1
 -2      3876      5749      3874
 -1      8892    7    0    1
 -2      3343      3345      3344
 -1      8893    7    0    1
 -2      3211      3213      3212
 -1      8894    7    0    1
 -2      2442      2443      2445
 -1      8895    7    0    1
 -2      5730      5733      5732
 -1      8896    7    0    1
 -2      5727      5728      5725
 -1      8897    7    0    1
 -2      4057      6141      6019
 -1      8898    7    0    1
 -2      2922      2924      2923
 -1      8899    7    0    1
 -2      2262      5762      1913
 -1      8900    7    0    1
 -2      2182      5906      2344
 -1      8901    7    0    1
 -2      2322      5727      5725
 -1      8902    7    0    1
 -2      5730      5732      2323
 -1      8903    7    0    1
 -2      1729      1408      1668
 -1      8904    7    0    1
 -2      1706      1731      1730
 -1      8905    7    0    1
 -2      1895      1896      1880
 -1      8906    7    0    1
 -2      1876      1900      1899
 -1      8907    7    0    1
 -2      3919      5791      5451
 -1      8908    7    0    1
 -2       819      4428      1415
 -1      8909    7    0    1
 -2      2263      2494      2493
 -1      8910    7    0    1
 -2      2491      2492      2262
 -1      8911    7    0    1
 -2      1357      5674      5673
 -1      8912    7    0    1
 -2      1688      5893      1686
 -1      8913    7    0    1
 -2      1647      5894      1518
 -1      8914    7    0    1
 -2      4158      5692      4124
 -1      8915    7    0    1
 -2      2852      2853      2851
 -1      8916    7    0    1
 -2      4045      5763      5616
 -1      8917    7    0    1
 -2      3959      5791      3919
 -1      8918    7    0    1
 -2      4144      5670      4019
 -1      8919    7    0    1
 -2      3877      3920      3818
 -1      8920    7    0    1
 -2      3788      5681      3875
 -1      8921    7    0    1
 -2      5366      5791      3959
 -1      8922    7    0    1
 -2      4171      5678      2166
 -1      8923    7    0    1
 -2      4116      5834      4097
 -1      8924    7    0    1
 -2      4843      4845      4844
 -1      8925    7    0    1
 -2      4848      4849      4847
 -1      8926    7    0    1
 -2      2005      2007      2006
 -1      8927    7    0    1
 -2      1962      1963      1961
 -1      8928    7    0    1
 -2      4135      6019      5576
 -1      8929    7    0    1
 -2      4116      5918      5834
 -1      8930    7    0    1
 -2      2955      2957      2956
 -1      8931    7    0    1
 -2      3400      3402      3401
 -1      8932    7    0    1
 -2      3268      3270      3269
 -1      8933    7    0    1
 -2      3136      3138      3137
 -1      8934    7    0    1
 -2       452      1452       451
 -1      8935    7    0    1
 -2       670      1451       669
 -1      8936    7    0    1
 -2      3272      5948      3274
 -1      8937    7    0    1
 -2      3140      5950      3142
 -1      8938    7    0    1
 -2      3404      5952      3406
 -1      8939    7    0    1
 -2      4007      5698      4009
 -1      8940    7    0    1
 -2      2021      2022      2019
 -1      8941    7    0    1
 -2      1975      1978      1977
 -1      8942    7    0    1
 -2      2271      5831      1908
 -1      8943    7    0    1
 -2      1909      5832      2270
 -1      8944    7    0    1
 -2      3984      5778      3981
 -1      8945    7    0    1
 -2      1888      1338      1337
 -1      8946    7    0    1
 -2      1382      1383      1886
 -1      8947    7    0    1
 -2      5666      5668      5068
 -1      8948    7    0    1
 -2      5621      5622      4173
 -1      8949    7    0    1
 -2      2344      2739      2738
 -1      8950    7    0    1
 -2      2348      2751      2750
 -1      8951    7    0    1
 -2      2350      2747      2746
 -1      8952    7    0    1
 -2      2346      2743      2742
 -1      8953    7    0    1
 -2      3277      3284      3283
 -1      8954    7    0    1
 -2      3145      3152      3151
 -1      8955    7    0    1
 -2      3409      3416      3415
 -1      8956    7    0    1
 -2      4051      5802      4143
 -1      8957    7    0    1
 -2      3671      5710      3669
 -1      8958    7    0    1
 -2      1382      5532      1383
 -1      8959    7    0    1
 -2      3537      3538      3509
 -1      8960    7    0    1
 -2      3254      3255      3227
 -1      8961    7    0    1
 -2      3386      3387      3359
 -1      8962    7    0    1
 -2       399      5114       398
 -1      8963    7    0    1
 -2      3209      3211      3210
 -1      8964    7    0    1
 -2      3341      3343      3342
 -1      8965    7    0    1
 -2      2440      2442      2441
 -1      8966    7    0    1
 -2      1686      5893      5485
 -1      8967    7    0    1
 -2      3871      4518      5755
 -1      8968    7    0    1
 -2      2487      2532      2485
 -1      8969    7    0    1
 -2      2476      2531      2478
 -1      8970    7    0    1
 -2      2107      4460      1192
 -1      8971    7    0    1
 -2      2140      6011      2359
 -1      8972    7    0    1
 -2      2360      6012      2141
 -1      8973    7    0    1
 -2      4909      4930      4908
 -1      8974    7    0    1
 -2      4946      4968      4947
 -1      8975    7    0    1
 -2      1992      1995      1994
 -1      8976    7    0    1
 -2      1950      1951      1948
 -1      8977    7    0    1
 -2      3988      5759      3989
 -1      8978    7    0    1
 -2      4017      5680      4144
 -1      8979    7    0    1
 -2      3989      5759      3996
 -1      8980    7    0    1
 -2      2715      2716      2312
 -1      8981    7    0    1
 -2      2313      2718      2717
 -1      8982    7    0    1
 -2      3272      3274      3273
 -1      8983    7    0    1
 -2      3140      3142      3141
 -1      8984    7    0    1
 -2      3404      3406      3405
 -1      8985    7    0    1
 -2      4814      6554      2106
 -1      8986    7    0    1
 -2      4167      5680      4015
 -1      8987    7    0    1
 -2      2653      2655      2654
 -1      8988    7    0    1
 -2      2657      2658      2656
 -1      8989    7    0    1
 -2      4533      5686      1350
 -1      8990    7    0    1
 -2      2635      2636      2634
 -1      8991    7    0    1
 -2      2624      2626      2625
 -1      8992    7    0    1
 -2      5639      5834      4232
 -1      8993    7    0    1
 -2       559      5649       558
 -1      8994    7    0    1
 -2       609      5799       608
 -1      8995    7    0    1
 -2       517      5798       516
 -1      8996    7    0    1
 -2       651      5800       650
 -1      8997    7    0    1
 -2      4943      4946      4945
 -1      8998    7    0    1
 -2      4907      4908      4905
 -1      8999    7    0    1
 -2       422      5690       421
 -1      9000    7    0    1
 -2       700      5689       699
 -1      9001    7    0    1
 -2      4462      4886      2281
 -1      9002    7    0    1
 -2      2022      2234      2019
 -1      9003    7    0    1
 -2      1975      2235      1978
 -1      9004    7    0    1
 -2      1965      1966      1963
 -1      9005    7    0    1
 -2      2007      2010      2009
 -1      9006    7    0    1
 -2      4848      1549      4850
 -1      9007    7    0    1
 -2      4846      1564      4844
 -1      9008    7    0    1
 -2      1829      5835      2175
 -1      9009    7    0    1
 -2      4055      6232      6206
 -1      9010    7    0    1
 -2      2132      5729      2213
 -1      9011    7    0    1
 -2      2215      5724      2134
 -1      9012    7    0    1
 -2      2352      5618      2195
 -1      9013    7    0    1
 -2      5644      5857      2161
 -1      9014    7    0    1
 -2      4517      5801      5749
 -1      9015    7    0    1
 -2      2492      5762      2262
 -1      9016    7    0    1
 -2       673      1320       672
 -1      9017    7    0    1
 -2       449      1310       448
 -1      9018    7    0    1
 -2      2219      2644      2458
 -1      9019    7    0    1
 -2      2457      2643      2218
 -1      9020    7    0    1
 -2      4679      4681      4680
 -1      9021    7    0    1
 -2      3999      5708      4001
 -1      9022    7    0    1
 -2      4121      5866      4105
 -1      9023    7    0    1
 -2      2291      5734      2228
 -1      9024    7    0    1
 -2      2223      5737      2293
 -1      9025    7    0    1
 -2      5518      5792      5637
 -1      9026    7    0    1
 -2      2377      5706      5565
 -1      9027    7    0    1
 -2       423      1329         9
 -1      9028    7    0    1
 -2        21      1327       698
 -1      9029    7    0    1
 -2      2984      3114      2682
 -1      9030    7    0    1
 -2      2680      3115      2981
 -1      9031    7    0    1
 -2        38      4633      2204
 -1      9032    7    0    1
 -2      1702      1706      1705
 -1      9033    7    0    1
 -2      1667      1668      1664
 -1      9034    7    0    1
 -2      2329      6058      6057
 -1      9035    7    0    1
 -2      2957      2959      2958
 -1      9036    7    0    1
 -2      2887      6406      4879
 -1      9037    7    0    1
 -2      2473      6148      3003
 -1      9038    7    0    1
 -2      3004      6149      2482
 -1      9039    7    0    1
 -2      2953      2955      2954
 -1      9040    7    0    1
 -2       697      2120       696
 -1      9041    7    0    1
 -2       425      2119       424
 -1      9042    7    0    1
 -2      3648      5654      3644
 -1      9043    7    0    1
 -2      3655      5722      3653
 -1      9044    7    0    1
 -2      2165      1812      4152
 -1      9045    7    0    1
 -2      4243      5698      4007
 -1      9046    7    0    1
 -2      4137      5877      4138
 -1      9047    7    0    1
 -2      5642      5844      2157
 -1      9048    7    0    1
 -2      4013      5683      4167
 -1      9049    7    0    1
 -2      1697      1702      1701
 -1      9050    7    0    1
 -2      1663      1664      1659
 -1      9051    7    0    1
 -2      1225      4461      2281
 -1      9052    7    0    1
 -2       427      1332       426
 -1      9053    7    0    1
 -2       695      1391       694
 -1      9054    7    0    1
 -2      1692      1694      1693
 -1      9055    7    0    1
 -2      1655      1656      1654
 -1      9056    7    0    1
 -2      5562      5707      2394
 -1      9057    7    0    1
 -2      5021      5878      5020
 -1      9058    7    0    1
 -2      5018      5879      5019
 -1      9059    7    0    1
 -2      3996      5759      5623
 -1      9060    7    0    1
 -2      2788      5847      2773
 -1      9061    7    0    1
 -2      3113      5618      2352
 -1      9062    7    0    1
 -2      2777      5848      2789
 -1      9063    7    0    1
 -2      5543      5856      5503
 -1      9064    7    0    1
 -2      2875      2877      2874
 -1      9065    7    0    1
 -2      1694      1697      1696
 -1      9066    7    0    1
 -2      1658      1659      1656
 -1      9067    7    0    1
 -2       429      1917       428
 -1      9068    7    0    1
 -2       693      1915       692
 -1      9069    7    0    1
 -2      3964      5695      3926
 -1      9070    7    0    1
 -2      1968      5635      2537
 -1      9071    7    0    1
 -2      3651      5721      3649
 -1      9072    7    0    1
 -2      2885      2887      2884
 -1      9073    7    0    1
 -2      2266      6036      2669
 -1      9074    7    0    1
 -2      2670      6035      2267
 -1      9075    7    0    1
 -2      1801      1888      1887
 -1      9076    7    0    1
 -2      1885      1886      1412
 -1      9077    7    0    1
 -2      4169      5716      2147
 -1      9078    7    0    1
 -2      2640      2684      2637
 -1      9079    7    0    1
 -2      2627      2683      2630
 -1      9080    7    0    1
 -2      2018      2019      2017
 -1      9081    7    0    1
 -2      1973      1975      1974
 -1      9082    7    0    1
 -2       431      1335       430
 -1      9083    7    0    1
 -2       691      1419       690
 -1      9084    7    0    1
 -2      3657      5740      3655
 -1      9085    7    0    1
 -2      2443      3497      2444
 -1      9086    7    0    1
 -2      1155      4449      2419
 -1      9087    7    0    1
 -2      3213      3215      3214
 -1      9088    7    0    1
 -2      3345      3347      3346
 -1      9089    7    0    1
 -2      3871      5754      5753
 -1      9090    7    0    1
 -2      4099      5834      5639
 -1      9091    7    0    1
 -2      3818      5822      3819
 -1      9092    7    0    1
 -2      4022      6027      4020
 -1      9093    7    0    1
 -2      2945      2948      2946
 -1      9094    7    0    1
 -2      5083      5092      2791
 -1      9095    7    0    1
 -2      2790      5091      5085
 -1      9096    7    0    1
 -2      4181      5683      4011
 -1      9097    7    0    1
 -2       432      5746       431
 -1      9098    7    0    1
 -2       690      5747       689
 -1      9099    7    0    1
 -2      5710      5711      3806
 -1      9100    7    0    1
 -2      3853      7317      4581
 -1      9101    7    0    1
 -2      3963      5654      3648
 -1      9102    7    0    1
 -2      4097      5834      4099
 -1      9103    7    0    1
 -2       433      1920       432
 -1      9104    7    0    1
 -2       689      1916       688
 -1      9105    7    0    1
 -2      2883      2884      2882
 -1      9106    7    0    1
 -2       674      5719       673
 -1      9107    7    0    1
 -2       448      5720       447
 -1      9108    7    0    1
 -2       455      1525       454
 -1      9109    7    0    1
 -2       667      1526       666
 -1      9110    7    0    1
 -2      3687      5865      3934
 -1      9111    7    0    1
 -2      2989      2990      2987
 -1      9112    7    0    1
 -2      2994      2997      2996
 -1      9113    7    0    1
 -2      2850      2851      2849
 -1      9114    7    0    1
 -2      3701      5865      3689
 -1      9115    7    0    1
 -2      3500      3505      3502
 -1      9116    7    0    1
 -2      1657      5665      5475
 -1      9117    7    0    1
 -2      3350      3355      3352
 -1      9118    7    0    1
 -2      3218      3223      3220
 -1      9119    7    0    1
 -2       434      5748       433
 -1      9120    7    0    1
 -2       688      5751       687
 -1      9121    7    0    1
 -2      4222      5716      4169
 -1      9122    7    0    1
 -2      1954      1955      1953
 -1      9123    7    0    1
 -2      1997      1999      1998
 -1      9124    7    0    1
 -2      1974      5635      1969
 -1      9125    7    0    1
 -2      3669      5710      3806
 -1      9126    7    0    1
 -2       469      5795      5645
 -1      9127    7    0    1
 -2      3044      3045      3043
 -1      9128    7    0    1
 -2      3019      3021      3020
 -1      9129    7    0    1
 -2       435      1392       434
 -1      9130    7    0    1
 -2       687      1433       686
 -1      9131    7    0    1
 -2      3046      3047      3045
 -1      9132    7    0    1
 -2      3021      3023      3022
 -1      9133    7    0    1
 -2      4656      5956      4659
 -1      9134    7    0    1
 -2       300      5955      1482
 -1      9135    7    0    1
 -2      1481      5954        79
 -1      9136    7    0    1
 -2      1435      5957        87
 -1      9137    7    0    1
 -2       292      5958      1434
 -1      9138    7    0    1
 -2       436      5760       435
 -1      9139    7    0    1
 -2       686      5750       685
 -1      9140    7    0    1
 -2      3353      3370      3361
 -1      9141    7    0    1
 -2      3221      3238      3229
 -1      9142    7    0    1
 -2      4519      5975      4517
 -1      9143    7    0    1
 -2      3503      3519      3511
 -1      9144    7    0    1
 -2      3661      5756      3659
 -1      9145    7    0    1
 -2      2812      2813      2811
 -1      9146    7    0    1
 -2      2821      2823      2822
 -1      9147    7    0    1
 -2      4009      5698      4181
 -1      9148    7    0    1
 -2      2285      4450      2419
 -1      9149    7    0    1
 -2      1956      1957      1955
 -1      9150    7    0    1
 -2      1999      2001      2000
 -1      9151    7    0    1
 -2       437      2137       436
 -1      9152    7    0    1
 -2       685      2139       684
 -1      9153    7    0    1
 -2      5650      5849      3764
 -1      9154    7    0    1
 -2      2789      5138      5136
 -1      9155    7    0    1
 -2      3866      5753      3864
 -1      9156    7    0    1
 -2      1958      1959      1957
 -1      9157    7    0    1
 -2      2001      2003      2002
 -1      9158    7    0    1
 -2      2453      5742      2388
 -1      9159    7    0    1
 -2      2405      5744      2454
 -1      9160    7    0    1
 -2         9      1315       422
 -1      9161    7    0    1
 -2       699      1314        21
 -1      9162    7    0    1
 -2      2605      2606      2604
 -1      9163    7    0    1
 -2      2112      2183      2182
 -1      9164    7    0    1
 -2      2118      2191      2190
 -1      9165    7    0    1
 -2      2116      2187      2186
 -1      9166    7    0    1
 -2      2114      2179      2178
 -1      9167    7    0    1
 -2      2561      2563      2562
 -1      9168    7    0    1
 -2      1692      5821      1694
 -1      9169    7    0    1
 -2      4107      5866      5694
 -1      9170    7    0    1
 -2      3464      2434      2433
 -1      9171    7    0    1
 -2       447      5779       446
 -1      9172    7    0    1
 -2       675      5780       674
 -1      9173    7    0    1
 -2      2042      5955       299
 -1      9174    7    0    1
 -2        80      5954      2041
 -1      9175    7    0    1
 -2       439      1448       438
 -1      9176    7    0    1
 -2       683      1447       682
 -1      9177    7    0    1
 -2      3701      6015      5865
 -1      9178    7    0    1
 -2      3775      5855      3747
 -1      9179    7    0    1
 -2      4181      5684      5683
 -1      9180    7    0    1
 -2      4173      5708      3999
 -1      9181    7    0    1
 -2      3899      5895      3901
 -1      9182    7    0    1
 -2      4818      5919      2164
 -1      9183    7    0    1
 -2      3274      3279      3275
 -1      9184    7    0    1
 -2      3142      3147      3143
 -1      9185    7    0    1
 -2      3406      3411      3407
 -1      9186    7    0    1
 -2      2780      5041      5039
 -1      9187    7    0    1
 -2      4233      5918      4146
 -1      9188    7    0    1
 -2      3871      5753      3866
 -1      9189    7    0    1
 -2      2434      2436      2435
 -1      9190    7    0    1
 -2      2012      2013      2011
 -1      9191    7    0    1
 -2      1967      1969      1968
 -1      9192    7    0    1
 -2      3649      5721      3962
 -1      9193    7    0    1
 -2      5637      5792      3893
 -1      9194    7    0    1
 -2       550      1590       549
 -1      9195    7    0    1
 -2       596      1587       595
 -1      9196    7    0    1
 -2       526      1592       525
 -1      9197    7    0    1
 -2       572      1591       571
 -1      9198    7    0    1
 -2       618      1593       617
 -1      9199    7    0    1
 -2       504      1588       503
 -1      9200    7    0    1
 -2       642      1589       641
 -1      9201    7    0    1
 -2       480      1586       479
 -1      9202    7    0    1
 -2      2959      4505      4504
 -1      9203    7    0    1
 -2      6009      6068      4230
 -1      9204    7    0    1
 -2      4942      6166      3101
 -1      9205    7    0    1
 -2      2909      2910      2908
 -1      9206    7    0    1
 -2      2920      2922      2921
 -1      9207    7    0    1
 -2      3178      3180      3179
 -1      9208    7    0    1
 -2      3310      3312      3311
 -1      9209    7    0    1
 -2      3412      3433      3423
 -1      9210    7    0    1
 -2      3148      3169      3159
 -1      9211    7    0    1
 -2      3280      3301      3291
 -1      9212    7    0    1
 -2       298      6064      2042
 -1      9213    7    0    1
 -2      2041      6066        81
 -1      9214    7    0    1
 -2      3994      5741      3985
 -1      9215    7    0    1
 -2      4001      5708      4004
 -1      9216    7    0    1
 -2      5866      1812      4231
 -1      9217    7    0    1
 -2      4503      5869      5681
 -1      9218    7    0    1
 -2      5158      5898      5570
 -1      9219    7    0    1
 -2      2221      5764      2223
 -1      9220    7    0    1
 -2      2228      5765      2226
 -1      9221    7    0    1
 -2       680      1460       679
 -1      9222    7    0    1
 -2       442      1459       441
 -1      9223    7    0    1
 -2      1485      6065       296
 -1      9224    7    0    1
 -2        83      6067      1484
 -1      9225    7    0    1
 -2      3638      1513      3636
 -1      9226    7    0    1
 -2      3985      5741      3983
 -1      9227    7    0    1
 -2      2552      2569      2553
 -1      9228    7    0    1
 -2      2596      2612      2595
 -1      9229    7    0    1
 -2      4726      7065      6978
 -1      9230    7    0    1
 -2      3847      5874      5624
 -1      9231    7    0    1
 -2      5691      5877      4137
 -1      9232    7    0    1
 -2       549      5773       548
 -1      9233    7    0    1
 -2       595      5774       594
 -1      9234    7    0    1
 -2       503      5772       502
 -1      9235    7    0    1
 -2      2009      2032      2006
 -1      9236    7    0    1
 -2      1962      1988      1965
 -1      9237    7    0    1
 -2      2804      6220      5671
 -1      9238    7    0    1
 -2      5672      6221      2814
 -1      9239    7    0    1
 -2      6044      6116      2710
 -1      9240    7    0    1
 -2      2707      6117      6043
 -1      9241    7    0    1
 -2      2607      2608      2606
 -1      9242    7    0    1
 -2       446      1454        10
 -1      9243    7    0    1
 -2        20      1453       675
 -1      9244    7    0    1
 -2      2373      5767      2361
 -1      9245    7    0    1
 -2      2363      5766      2390
 -1      9246    7    0    1
 -2      2628      5841      4848
 -1      9247    7    0    1
 -2      4844      5843      2638
 -1      9248    7    0    1
 -2      2632      2806      2805
 -1      9249    7    0    1
 -2      2815      2816      2642
 -1      9250    7    0    1
 -2      3893      5792      3932
 -1      9251    7    0    1
 -2      2103      6137      6025
 -1      9252    7    0    1
 -2      6026      6138      2104
 -1      9253    7    0    1
 -2      2386      5768      2383
 -1      9254    7    0    1
 -2      2400      5770      2403
 -1      9255    7    0    1
 -2      3100      5882      3097
 -1      9256    7    0    1
 -2      3091      5883      3094
 -1      9257    7    0    1
 -2       575      1514       574
 -1      9258    7    0    1
 -2       532      1567       531
 -1      9259    7    0    1
 -2       501      1509       500
 -1      9260    7    0    1
 -2       486      1570       485
 -1      9261    7    0    1
 -2       547      1507       546
 -1      9262    7    0    1
 -2       593      1508       592
 -1      9263    7    0    1
 -2       483      1512       482
 -1      9264    7    0    1
 -2       621      1515       620
 -1      9265    7    0    1
 -2       544      1562       543
 -1      9266    7    0    1
 -2       498      1563       497
 -1      9267    7    0    1
 -2       590      1566       589
 -1      9268    7    0    1
 -2       636      1565       635
 -1      9269    7    0    1
 -2       639      1510       638
 -1      9270    7    0    1
 -2       529      1516       528
 -1      9271    7    0    1
 -2       578      1568       577
 -1      9272    7    0    1
 -2       624      1569       623
 -1      9273    7    0    1
 -2      3305      3308      3307
 -1      9274    7    0    1
 -2      3173      3176      3175
 -1      9275    7    0    1
 -2      2563      2565      2564
 -1      9276    7    0    1
 -2      2390      5766      5563
 -1      9277    7    0    1
 -2      4181      5698      5685
 -1      9278    7    0    1
 -2      2844      2845      2842
 -1      9279    7    0    1
 -2      2012      5634      2013
 -1      9280    7    0    1
 -2      2609      2663      2608
 -1      9281    7    0    1
 -2      1777      1778      1765
 -1      9282    7    0    1
 -2      1767      1786      1785
 -1      9283    7    0    1
 -2      1469      5966       304
 -1      9284    7    0    1
 -2        75      5967      1468
 -1      9285    7    0    1
 -2      5694      5866      4231
 -1      9286    7    0    1
 -2      2013      5634      2018
 -1      9287    7    0    1
 -2      1661      5486      1645
 -1      9288    7    0    1
 -2      2013      2016      2011
 -1      9289    7    0    1
 -2      1967      1972      1969
 -1      9290    7    0    1
 -2      3983      5741      3986
 -1      9291    7    0    1
 -2      2565      2665      2566
 -1      9292    7    0    1
 -2      1946      2253      1453
 -1      9293    7    0    1
 -2      1454      2254      1990
 -1      9294    7    0    1
 -2      2322      5724      2215
 -1      9295    7    0    1
 -2      2213      5729      2323
 -1      9296    7    0    1
 -2      3677      6186      5521
 -1      9297    7    0    1
 -2      3508      3514      3513
 -1      9298    7    0    1
 -2      2463      5734      2291
 -1      9299    7    0    1
 -2      2293      5737      2464
 -1      9300    7    0    1
 -2      2005      2006      2003
 -1      9301    7    0    1
 -2      1959      1962      1961
 -1      9302    7    0    1
 -2      3226      3232      3231
 -1      9303    7    0    1
 -2      3358      3364      3363
 -1      9304    7    0    1
 -2      2107      4839      4460
 -1      9305    7    0    1
 -2       445      1394       444
 -1      9306    7    0    1
 -2       677      1467       676
 -1      9307    7    0    1
 -2       457      1918       456
 -1      9308    7    0    1
 -2       665      1919       664
 -1      9309    7    0    1
 -2       571      5775       570
 -1      9310    7    0    1
 -2       479      5777       478
 -1      9311    7    0    1
 -2      4955      5381      4956
 -1      9312    7    0    1
 -2      4105      5866      4107
 -1      9313    7    0    1
 -2      2912      2915      2914
 -1      9314    7    0    1
 -2      2147      5716      4226
 -1      9315    7    0    1
 -2      2823      5002      4588
 -1      9316    7    0    1
 -2      4586      5005      2813
 -1      9317    7    0    1
 -2      3870      4518      3868
 -1      9318    7    0    1
 -2        88      5957      2039
 -1      9319    7    0    1
 -2      2040      5958       291
 -1      9320    7    0    1
 -2      2017      2029      2016
 -1      9321    7    0    1
 -2      1972      1985      1973
 -1      9322    7    0    1
 -2      1822      1823      1783
 -1      9323    7    0    1
 -2      1791      1831      1830
 -1      9324    7    0    1
 -2      3689      5865      3687
 -1      9325    7    0    1
 -2      3986      5741      3995
 -1      9326    7    0    1
 -2      2517      5468      2782
 -1      9327    7    0    1
 -2      6061      6062      2049
 -1      9328    7    0    1
 -2      2624      2628      2626
 -1      9329    7    0    1
 -2      2636      2638      2634
 -1      9330    7    0    1
 -2      4091      5934      5557
 -1      9331    7    0    1
 -2      1952      1953      1951
 -1      9332    7    0    1
 -2      1995      1997      1996
 -1      9333    7    0    1
 -2      3653      5722      3906
 -1      9334    7    0    1
 -2      2134      5781      2028
 -1      9335    7    0    1
 -2      1984      5782      2132
 -1      9336    7    0    1
 -2      3692      6104      5510
 -1      9337    7    0    1
 -2      1362      5759      3988
 -1      9338    7    0    1
 -2       643      5807       642
 -1      9339    7    0    1
 -2       525      5776       524
 -1      9340    7    0    1
 -2       617      5809       616
 -1      9341    7    0    1
 -2      3937      6075      3925
 -1      9342    7    0    1
 -2      3864      5753      3923
 -1      9343    7    0    1
 -2      3906      5721      3651
 -1      9344    7    0    1
 -2       533      5785       532
 -1      9345    7    0    1
 -2       579      5787       578
 -1      9346    7    0    1
 -2       625      5783       624
 -1      9347    7    0    1
 -2       543      5789       542
 -1      9348    7    0    1
 -2       497      5805       496
 -1      9349    7    0    1
 -2       589      1521       588
 -1      9350    7    0    1
 -2       635      5806       634
 -1      9351    7    0    1
 -2      2157      5844      2159
 -1      9352    7    0    1
 -2      2322      5765      5727
 -1      9353    7    0    1
 -2      5732      5764      2323
 -1      9354    7    0    1
 -2      3295      3304      3303
 -1      9355    7    0    1
 -2      3163      3172      3171
 -1      9356    7    0    1
 -2      2587      5932      2599
 -1      9357    7    0    1
 -2      2556      5931      2544
 -1      9358    7    0    1
 -2       305      5966      1343
 -1      9359    7    0    1
 -2      1344      5967        74
 -1      9360    7    0    1
 -2      2162      5844      4136
 -1      9361    7    0    1
 -2      5729      5782      5731
 -1      9362    7    0    1
 -2      5726      5781      5724
 -1      9363    7    0    1
 -2      5681      5869      3875
 -1      9364    7    0    1
 -2      3889      5740      3657
 -1      9365    7    0    1
 -2      2463      5767      5736
 -1      9366    7    0    1
 -2      5739      5766      2464
 -1      9367    7    0    1
 -2      2637      5867      2636
 -1      9368    7    0    1
 -2      2626      5868      2627
 -1      9369    7    0    1
 -2      1366      6068      1368
 -1      9370    7    0    1
 -2      2463      5735      5734
 -1      9371    7    0    1
 -2      5737      5738      2464
 -1      9372    7    0    1
 -2      1972      1973      1969
 -1      9373    7    0    1
 -2      2013      2017      2016
 -1      9374    7    0    1
 -2      1832      1835      1834
 -1      9375    7    0    1
 -2      1826      1827      1824
 -1      9376    7    0    1
 -2      3524      3527      3526
 -1      9377    7    0    1
 -2      2007      2009      2006
 -1      9378    7    0    1
 -2      1962      1965      1963
 -1      9379    7    0    1
 -2      2628      4847      2824
 -1      9380    7    0    1
 -2      2825      4843      2638
 -1      9381    7    0    1
 -2      4458      5756      3661
 -1      9382    7    0    1
 -2      3241      3244      3243
 -1      9383    7    0    1
 -2      3373      3376      3375
 -1      9384    7    0    1
 -2      3497      3499      3498
 -1      9385    7    0    1
 -2      2010      2011      2009
 -1      9386    7    0    1
 -2      1965      1967      1966
 -1      9387    7    0    1
 -2      3920      5822      3818
 -1      9388    7    0    1
 -2       570      1922       569
 -1      9389    7    0    1
 -2       598      1923       597
 -1      9390    7    0    1
 -2       478      1926       477
 -1      9391    7    0    1
 -2       506      1942       505
 -1      9392    7    0    1
 -2      3347      3349      3348
 -1      9393    7    0    1
 -2      3215      3217      3216
 -1      9394    7    0    1
 -2      2671      2730      2365
 -1      9395    7    0    1
 -2      2366      2732      2672
 -1      9396    7    0    1
 -2      4004      5708      4246
 -1      9397    7    0    1
 -2      3274      5948      3280
 -1      9398    7    0    1
 -2      3142      5950      3148
 -1      9399    7    0    1
 -2      3406      5952      3412
 -1      9400    7    0    1
 -2      1834      5752      1833
 -1      9401    7    0    1
 -2       563      1557       562
 -1      9402    7    0    1
 -2       471      1399       470
 -1      9403    7    0    1
 -2       513      1554       512
 -1      9404    7    0    1
 -2       605      1555       604
 -1      9405    7    0    1
 -2       655      1556       654
 -1      9406    7    0    1
 -2      1836      1861      1860
 -1      9407    7    0    1
 -2      1846      1847      1828
 -1      9408    7    0    1
 -2      3659      5756      3889
 -1      9409    7    0    1
 -2      1862      1865      1864
 -1      9410    7    0    1
 -2      1850      1851      1848
 -1      9411    7    0    1
 -2      1987      5846      5635
 -1      9412    7    0    1
 -2      3015      3017      3016
 -1      9413    7    0    1
 -2      3040      3041      3039
 -1      9414    7    0    1
 -2      2991      4381      2990
 -1      9415    7    0    1
 -2      2997      4382      2998
 -1      9416    7    0    1
 -2      2732      3096      2733
 -1      9417    7    0    1
 -2      2731      3090      2730
 -1      9418    7    0    1
 -2      1872      1879      1878
 -1      9419    7    0    1
 -2      1874      1875      1858
 -1      9420    7    0    1
 -2      3819      5822      4463
 -1      9421    7    0    1
 -2      5722      5723      3906
 -1      9422    7    0    1
 -2      5998      6073      4180
 -1      9423    7    0    1
 -2      4959      4961      4960
 -1      9424    7    0    1
 -2      4922      4923      4921
 -1      9425    7    0    1
 -2      5566      5767      2373
 -1      9426    7    0    1
 -2       610      1747       609
 -1      9427    7    0    1
 -2       518      1746       517
 -1      9428    7    0    1
 -2       650      1744       649
 -1      9429    7    0    1
 -2       558      1745       557
 -1      9430    7    0    1
 -2       466      1743       465
 -1      9431    7    0    1
 -2      2323      5764      2221
 -1      9432    7    0    1
 -2      2226      5765      2322
 -1      9433    7    0    1
 -2      3091      3092      3090
 -1      9434    7    0    1
 -2      3096      3098      3097
 -1      9435    7    0    1
 -2      3872      5861      5620
 -1      9436    7    0    1
 -2        73      5980      1344
 -1      9437    7    0    1
 -2      1343      5981       306
 -1      9438    7    0    1
 -2      3427      3436      3435
 -1      9439    7    0    1
 -2      3639      1513      3877
 -1      9440    7    0    1
 -2      2322      5725      5724
 -1      9441    7    0    1
 -2      5729      5730      2323
 -1      9442    7    0    1
 -2      3308      3310      3309
 -1      9443    7    0    1
 -2      3176      3178      3177
 -1      9444    7    0    1
 -2      1689      1698      1695
 -1      9445    7    0    1
 -2      1657      1660      1648
 -1      9446    7    0    1
 -2      2361      5767      2463
 -1      9447    7    0    1
 -2      2464      5766      2363
 -1      9448    7    0    1
 -2      2848      2849      2847
 -1      9449    7    0    1
 -2      1969      5635      1968
 -1      9450    7    0    1
 -2      2789      5848      5138
 -1      9451    7    0    1
 -2      2315      2366      2360
 -1      9452    7    0    1
 -2      2359      2365      2314
 -1      9453    7    0    1
 -2      2773      5847      4996
 -1      9454    7    0    1
 -2      4510      6148      2475
 -1      9455    7    0    1
 -2      2484      6149      4511
 -1      9456    7    0    1
 -2      5756      5757      3889
 -1      9457    7    0    1
 -2      2636      2825      2638
 -1      9458    7    0    1
 -2      2628      2824      2626
 -1      9459    7    0    1
 -2      5768      5769      2421
 -1      9460    7    0    1
 -2      2423      5771      5770
 -1      9461    7    0    1
 -2      4995      5848      2777
 -1      9462    7    0    1
 -2       307      5981      1455
 -1      9463    7    0    1
 -2      1431      5980        72
 -1      9464    7    0    1
 -2       472      5810       471
 -1      9465    7    0    1
 -2      3643      1513      3638
 -1      9466    7    0    1
 -2      5742      5743      2697
 -1      9467    7    0    1
 -2      2698      5745      5744
 -1      9468    7    0    1
 -2       542      1929       541
 -1      9469    7    0    1
 -2       588      1931       587
 -1      9470    7    0    1
 -2       496      1930       495
 -1      9471    7    0    1
 -2       634      1928       633
 -1      9472    7    0    1
 -2      2987      5625      2986
 -1      9473    7    0    1
 -2      2388      5742      2697
 -1      9474    7    0    1
 -2      2698      5744      2405
 -1      9475    7    0    1
 -2      2161      5857      2163
 -1      9476    7    0    1
 -2      4088      5934      4091
 -1      9477    7    0    1
 -2      1337      5533      2319
 -1      9478    7    0    1
 -2      5938      5939      5726
 -1      9479    7    0    1
 -2      5731      5944      5943
 -1      9480    7    0    1
 -2      2682      5825      2453
 -1      9481    7    0    1
 -2      2454      5826      2680
 -1      9482    7    0    1
 -2       477      5824       476
 -1      9483    7    0    1
 -2       599      5793       598
 -1      9484    7    0    1
 -2       569      5823       568
 -1      9485    7    0    1
 -2       507      5794       506
 -1      9486    7    0    1
 -2      2383      5768      2421
 -1      9487    7    0    1
 -2      2423      5770      2400
 -1      9488    7    0    1
 -2      2646      2993      2647
 -1      9489    7    0    1
 -2      2650      2986      2649
 -1      9490    7    0    1
 -2      1678      2138      1676
 -1      9491    7    0    1
 -2      1637      6090      1639
 -1      9492    7    0    1
 -2      4119      7065      4726
 -1      9493    7    0    1
 -2       616      1921       615
 -1      9494    7    0    1
 -2       552      1927       551
 -1      9495    7    0    1
 -2       644      1924       643
 -1      9496    7    0    1
 -2       524      1925       523
 -1      9497    7    0    1
 -2      2403      5770      2698
 -1      9498    7    0    1
 -2      2697      5768      2386
 -1      9499    7    0    1
 -2      4651      4652      4650
 -1      9500    7    0    1
 -2      2039      5983        89
 -1      9501    7    0    1
 -2       290      5982      2040
 -1      9502    7    0    1
 -2      3688      6123      3692
 -1      9503    7    0    1
 -2       657      1944       656
 -1      9504    7    0    1
 -2       540      5818       539
 -1      9505    7    0    1
 -2       586      5819       585
 -1      9506    7    0    1
 -2       494      5820       493
 -1      9507    7    0    1
 -2      1945      2662      1947
 -1      9508    7    0    1
 -2      1991      2661      1989
 -1      9509    7    0    1
 -2      5620      5861      3873
 -1      9510    7    0    1
 -2      3093      4881      3092
 -1      9511    7    0    1
 -2      3098      4882      3099
 -1      9512    7    0    1
 -2      3868      4518      3871
 -1      9513    7    0    1
 -2       703      1422       702
 -1      9514    7    0    1
 -2       419      1423       418
 -1      9515    7    0    1
 -2      1856      2173      1854
 -1      9516    7    0    1
 -2      1868      1347      1870
 -1      9517    7    0    1
 -2       511      1933       510
 -1      9518    7    0    1
 -2       603      1932       602
 -1      9519    7    0    1
 -2       565      1936       564
 -1      9520    7    0    1
 -2       473      1934       472
 -1      9521    7    0    1
 -2       489      1793       488
 -1      9522    7    0    1
 -2       581      1795       580
 -1      9523    7    0    1
 -2       535      1796       534
 -1      9524    7    0    1
 -2       627      1794       626
 -1      9525    7    0    1
 -2      5796      5797      4243
 -1      9526    7    0    1
 -2      3875      5869      4515
 -1      9527    7    0    1
 -2       553      5808       552
 -1      9528    7    0    1
 -2      3712      6134      6130
 -1      9529    7    0    1
 -2      5834      5918      4232
 -1      9530    7    0    1
 -2       662      1620       661
 -1      9531    7    0    1
 -2       460      1621       459
 -1      9532    7    0    1
 -2      4246      5796      4006
 -1      9533    7    0    1
 -2      5624      5874      3872
 -1      9534    7    0    1
 -2      2237      5814      5813
 -1      9535    7    0    1
 -2      5815      5816      2236
 -1      9536    7    0    1
 -2      5627      5849      3860
 -1      9537    7    0    1
 -2      1356      5803      4168
 -1      9538    7    0    1
 -2      2028      5781      2237
 -1      9539    7    0    1
 -2      2236      5782      1984
 -1      9540    7    0    1
 -2       416      1491       415
 -1      9541    7    0    1
 -2       706      1490       705
 -1      9542    7    0    1
 -2      3933      5888      5158
 -1      9543    7    0    1
 -2       539      1755       538
 -1      9544    7    0    1
 -2       585      1756       584
 -1      9545    7    0    1
 -2       493      1754       492
 -1      9546    7    0    1
 -2       631      1753       630
 -1      9547    7    0    1
 -2      2648      2649      2409
 -1      9548    7    0    1
 -2      2410      2646      2645
 -1      9549    7    0    1
 -2      2764      2765      2763
 -1      9550    7    0    1
 -2      2758      2760      2759
 -1      9551    7    0    1
 -2      2165      6055      5960
 -1      9552    7    0    1
 -2      3655      5740      5722
 -1      9553    7    0    1
 -2      2917      2920      2918
 -1      9554    7    0    1
 -2      5803      5804      4222
 -1      9555    7    0    1
 -2      2505      5850      2084
 -1      9556    7    0    1
 -2      3057      3061      3060
 -1      9557    7    0    1
 -2      3036      3037      3033
 -1      9558    7    0    1
 -2       554      5830       553
 -1      9559    7    0    1
 -2       600      1768       599
 -1      9560    7    0    1
 -2       476      1771       475
 -1      9561    7    0    1
 -2       508      1769       507
 -1      9562    7    0    1
 -2       568      1770       567
 -1      9563    7    0    1
 -2      2193      5617      2354
 -1      9564    7    0    1
 -2      3636      1513      3639
 -1      9565    7    0    1
 -2      5734      5765      2228
 -1      9566    7    0    1
 -2      2223      5764      5737
 -1      9567    7    0    1
 -2      3320      3326      3325
 -1      9568    7    0    1
 -2      3188      3194      3193
 -1      9569    7    0    1
 -2      4461      4462      2281
 -1      9570    7    0    1
 -2      5479      6114      3935
 -1      9571    7    0    1
 -2      5634      5845      2031
 -1      9572    7    0    1
 -2       490      5811       489
 -1      9573    7    0    1
 -2       491      5827       490
 -1      9574    7    0    1
 -2        14      1720       537
 -1      9575    7    0    1
 -2        16      1717       583
 -1      9576    7    0    1
 -2        12      1718       491
 -1      9577    7    0    1
 -2        18      1719       629
 -1      9578    7    0    1
 -2      2915      2917      2916
 -1      9579    7    0    1
 -2      2194      2268      2203
 -1      9580    7    0    1
 -2      2202      2269      2192
 -1      9581    7    0    1
 -2      3416      3418      3417
 -1      9582    7    0    1
 -2       659      1799       658
 -1      9583    7    0    1
 -2      2089      2090      2024
 -1      9584    7    0    1
 -2      1980      2096      2095
 -1      9585    7    0    1
 -2      1898      2109      2086
 -1      9586    7    0    1
 -2      2084      2110      1651
 -1      9587    7    0    1
 -2       613      1725       612
 -1      9588    7    0    1
 -2       521      1724       520
 -1      9589    7    0    1
 -2       463      1722       462
 -1      9590    7    0    1
 -2       647      1723       646
 -1      9591    7    0    1
 -2       555      1721       554
 -1      9592    7    0    1
 -2      4698      4701      4700
 -1      9593    7    0    1
 -2      2669      3108      2501
 -1      9594    7    0    1
 -2      2502      3110      2670
 -1      9595    7    0    1
 -2      2760      4536      2761
 -1      9596    7    0    1
 -2      2766      4537      2765
 -1      9597    7    0    1
 -2      1971      1980      1979
 -1      9598    7    0    1
 -2      2023      2024      2015
 -1      9599    7    0    1
 -2      2132      5782      5729
 -1      9600    7    0    1
 -2      5724      5781      2134
 -1      9601    7    0    1
 -2      3284      3286      3285
 -1      9602    7    0    1
 -2      3152      3154      3153
 -1      9603    7    0    1
 -2      4949      6030      4952
 -1      9604    7    0    1
 -2      4914      6031      4911
 -1      9605    7    0    1
 -2      1958      5704      1959
 -1      9606    7    0    1
 -2      2003      5705      2002
 -1      9607    7    0    1
 -2      3806      5889      5682
 -1      9608    7    0    1
 -2      3111      6169      2670
 -1      9609    7    0    1
 -2      2669      6168      3109
 -1      9610    7    0    1
 -2      3872      5874      5861
 -1      9611    7    0    1
 -2      4006      5796      4243
 -1      9612    7    0    1
 -2      2489      5817      2487
 -1      9613    7    0    1
 -2      2268      2342      2341
 -1      9614    7    0    1
 -2      2339      2340      2269
 -1      9615    7    0    1
 -2      3674      5896      3677
 -1      9616    7    0    1
 -2      4162      5877      1356
 -1      9617    7    0    1
 -2      4153      5998      4180
 -1      9618    7    0    1
 -2      2647      6128      2645
 -1      9619    7    0    1
 -2      2648      6129      2650
 -1      9620    7    0    1
 -2      3301      3389      3291
 -1      9621    7    0    1
 -2      3169      3257      3159
 -1      9622    7    0    1
 -2      3433      3542      3423
 -1      9623    7    0    1
 -2      2806      4480      2807
 -1      9624    7    0    1
 -2      2817      4479      2816
 -1      9625    7    0    1
 -2      2582      5845      2580
 -1      9626    7    0    1
 -2      2537      5846      2539
 -1      9627    7    0    1
 -2        65      5988      2045
 -1      9628    7    0    1
 -2      2044      5987       314
 -1      9629    7    0    1
 -2      2086      1941      2506
 -1      9630    7    0    1
 -2      4058      6019      4135
 -1      9631    7    0    1
 -2      4172      6143      3490
 -1      9632    7    0    1
 -2      4168      5803      4222
 -1      9633    7    0    1
 -2      2247      5800       651
 -1      9634    7    0    1
 -2       608      5799      2249
 -1      9635    7    0    1
 -2      2246      5649       559
 -1      9636    7    0    1
 -2       516      5798      2248
 -1      9637    7    0    1
 -2      1436      5988        64
 -1      9638    7    0    1
 -2       315      5987      1437
 -1      9639    7    0    1
 -2      2993      5626      2994
 -1      9640    7    0    1
 -2      2686      2688      2687
 -1      9641    7    0    1
 -2      2693      2694      2692
 -1      9642    7    0    1
 -2      1949      1971      1970
 -1      9643    7    0    1
 -2      2014      2015      1993
 -1      9644    7    0    1
 -2      2737      2740      2343
 -1      9645    7    0    1
 -2      2745      2748      2349
 -1      9646    7    0    1
 -2      2749      2752      2347
 -1      9647    7    0    1
 -2      2741      2744      2345
 -1      9648    7    0    1
 -2      1437      5989       316
 -1      9649    7    0    1
 -2        63      5990      1436
 -1      9650    7    0    1
 -2      4566      4518      3870
 -1      9651    7    0    1
 -2       317      5989      2123
 -1      9652    7    0    1
 -2      2124      5990        62
 -1      9653    7    0    1
 -2      2126      5995        58
 -1      9654    7    0    1
 -2       321      5994      2125
 -1      9655    7    0    1
 -2      1319      5982       289
 -1      9656    7    0    1
 -2        90      5983      1316
 -1      9657    7    0    1
 -2      1786      1788      1787
 -1      9658    7    0    1
 -2      1779      1780      1778
 -1      9659    7    0    1
 -2      3438      3440      3439
 -1      9660    7    0    1
 -2      4138      5877      4162
 -1      9661    7    0    1
 -2      2123      5997       318
 -1      9662    7    0    1
 -2        61      5996      2124
 -1      9663    7    0    1
 -2      3858      5849      5650
 -1      9664    7    0    1
 -2      4159      5960      1358
 -1      9665    7    0    1
 -2      3936      5895      3899
 -1      9666    7    0    1
 -2      2026      5813      2022
 -1      9667    7    0    1
 -2      1978      5815      1982
 -1      9668    7    0    1
 -2      2418      6116      6044
 -1      9669    7    0    1
 -2      6043      6117      2417
 -1      9670    7    0    1
 -2      3683      6161      3695
 -1      9671    7    0    1
 -2      2990      5625      2987
 -1      9672    7    0    1
 -2      4449      2285      2419
 -1      9673    7    0    1
 -2      6105      6127      3479
 -1      9674    7    0    1
 -2        59      5995      1429
 -1      9675    7    0    1
 -2      1428      5994       320
 -1      9676    7    0    1
 -2      6130      6134      3935
 -1      9677    7    0    1
 -2       319      5997      1428
 -1      9678    7    0    1
 -2      1429      5996        60
 -1      9679    7    0    1
 -2      5849      6075      3764
 -1      9680    7    0    1
 -2      2154      5905      4240
 -1      9681    7    0    1
 -2      2188      2189      2117
 -1      9682    7    0    1
 -2      2176      2177      2113
 -1      9683    7    0    1
 -2      2180      2181      2111
 -1      9684    7    0    1
 -2      2184      2185      2115
 -1      9685    7    0    1
 -2      3198      3201      3199
 -1      9686    7    0    1
 -2      3330      3333      3331
 -1      9687    7    0    1
 -2      6025      6137      2667
 -1      9688    7    0    1
 -2      2668      6138      6026
 -1      9689    7    0    1
 -2      1788      1913      1789
 -1      9690    7    0    1
 -2      1781      1912      1780
 -1      9691    7    0    1
 -2      2237      5813      2026
 -1      9692    7    0    1
 -2      1982      5815      2236
 -1      9693    7    0    1
 -2      1681      1682      1680
 -1      9694    7    0    1
 -2      1641      1643      1642
 -1      9695    7    0    1
 -2      3076      3077      2742
 -1      9696    7    0    1
 -2      3072      3073      2750
 -1      9697    7    0    1
 -2      3074      3075      2746
 -1      9698    7    0    1
 -2      3078      3079      2738
 -1      9699    7    0    1
 -2      3291      3392      3290
 -1      9700    7    0    1
 -2      3159      3260      3158
 -1      9701    7    0    1
 -2      3423      3546      3422
 -1      9702    7    0    1
 -2      3229      3235      3234
 -1      9703    7    0    1
 -2      3361      3367      3366
 -1      9704    7    0    1
 -2      3511      3518      3517
 -1      9705    7    0    1
 -2      3455      3459      3457
 -1      9706    7    0    1
 -2      1737      1805      1736
 -1      9707    7    0    1
 -2      1732      1804      1733
 -1      9708    7    0    1
 -2      5521      6178      3714
 -1      9709    7    0    1
 -2      3376      3378      3377
 -1      9710    7    0    1
 -2      3244      3246      3245
 -1      9711    7    0    1
 -2      3527      3529      3528
 -1      9712    7    0    1
 -2      2494      3070      2493
 -1      9713    7    0    1
 -2      2491      3068      2492
 -1      9714    7    0    1
 -2      3505      3509      3506
 -1      9715    7    0    1
 -2      2836      2838      2837
 -1      9716    7    0    1
 -2      3223      3227      3224
 -1      9717    7    0    1
 -2      3355      3359      3356
 -1      9718    7    0    1
 -2      4664      4674      4663
 -1      9719    7    0    1
 -2      5486      5894      1647
 -1      9720    7    0    1
 -2      5682      5889      4459
 -1      9721    7    0    1
 -2      4112      6105      3479
 -1      9722    7    0    1
 -2      1729      1732      1408
 -1      9723    7    0    1
 -2      1731      1736      1730
 -1      9724    7    0    1
 -2      1831      5696      1832
 -1      9725    7    0    1
 -2      1824      5697      1823
 -1      9726    7    0    1
 -2      2806      4630      4480
 -1      9727    7    0    1
 -2      4479      4629      2816
 -1      9728    7    0    1
 -2      2821      2822      2819
 -1      9729    7    0    1
 -2      2809      2812      2811
 -1      9730    7    0    1
 -2      4112      6009      4084
 -1      9731    7    0    1
 -2      3450      3454      3452
 -1      9732    7    0    1
 -2      4497      5836      2984
 -1      9733    7    0    1
 -2      2981      5838      4498
 -1      9734    7    0    1
 -2      1956      1958      1957
 -1      9735    7    0    1
 -2      2001      2002      2000
 -1      9736    7    0    1
 -2      1954      1956      1955
 -1      9737    7    0    1
 -2      1999      2000      1998
 -1      9738    7    0    1
 -2      1865      1867      1866
 -1      9739    7    0    1
 -2      1852      1853      1851
 -1      9740    7    0    1
 -2      1959      5704      1962
 -1      9741    7    0    1
 -2      2006      5705      2003
 -1      9742    7    0    1
 -2      2022      5813      2234
 -1      9743    7    0    1
 -2      2235      5815      1978
 -1      9744    7    0    1
 -2      5446      6016      2524
 -1      9745    7    0    1
 -2      5769      5908      5907
 -1      9746    7    0    1
 -2      5903      5904      5771
 -1      9747    7    0    1
 -2      4173      5970      5708
 -1      9748    7    0    1
 -2      5570      5898      5638
 -1      9749    7    0    1
 -2      3378      4860      4859
 -1      9750    7    0    1
 -2      3246      4862      4861
 -1      9751    7    0    1
 -2      2937      2938      2936
 -1      9752    7    0    1
 -2      3529      4878      4877
 -1      9753    7    0    1
 -2      2865      2867      2866
 -1      9754    7    0    1
 -2      5638      5898      3936
 -1      9755    7    0    1
 -2      5466      5926      3673
 -1      9756    7    0    1
 -2      3860      5849      3858
 -1      9757    7    0    1
 -2      2162      5919      5844
 -1      9758    7    0    1
 -2      5865      6015      5527
 -1      9759    7    0    1
 -2      3514      3523      3515
 -1      9760    7    0    1
 -2      1307      6008        51
 -1      9761    7    0    1
 -2       328      6007      1308
 -1      9762    7    0    1
 -2      5728      5938      5725
 -1      9763    7    0    1
 -2      5730      5943      5733
 -1      9764    7    0    1
 -2      3232      3240      3233
 -1      9765    7    0    1
 -2      3364      3372      3365
 -1      9766    7    0    1
 -2      1768      6644      4884
 -1      9767    7    0    1
 -2      1769      6645      4885
 -1      9768    7    0    1
 -2       676      5891        20
 -1      9769    7    0    1
 -2        10      5890       445
 -1      9770    7    0    1
 -2      4684      4685      4683
 -1      9771    7    0    1
 -2      1835      5701      1836
 -1      9772    7    0    1
 -2      1828      5702      1827
 -1      9773    7    0    1
 -2      3280      3290      3279
 -1      9774    7    0    1
 -2      3148      3158      3147
 -1      9775    7    0    1
 -2      3412      3422      3411
 -1      9776    7    0    1
 -2      3436      3438      3437
 -1      9777    7    0    1
 -2      1520      6097      6096
 -1      9778    7    0    1
 -2      2453      5825      5742
 -1      9779    7    0    1
 -2      5744      5826      2454
 -1      9780    7    0    1
 -2      3114      5825      2682
 -1      9781    7    0    1
 -2      2680      5826      3115
 -1      9782    7    0    1
 -2        52      6008      2047
 -1      9783    7    0    1
 -2      2046      6007       327
 -1      9784    7    0    1
 -2      2684      5867      2637
 -1      9785    7    0    1
 -2      2627      5868      2683
 -1      9786    7    0    1
 -2      4152      1812      4121
 -1      9787    7    0    1
 -2       708      1938       707
 -1      9788    7    0    1
 -2       414      1940       413
 -1      9789    7    0    1
 -2      2774      5817      2489
 -1      9790    7    0    1
 -2      1692      1693      1691
 -1      9791    7    0    1
 -2      1653      1655      1654
 -1      9792    7    0    1
 -2      5844      5919      2159
 -1      9793    7    0    1
 -2      2715      4793      2716
 -1      9794    7    0    1
 -2      2718      4796      2717
 -1      9795    7    0    1
 -2      5502      6109      4034
 -1      9796    7    0    1
 -2      2656      5845      2582
 -1      9797    7    0    1
 -2      2539      5846      2653
 -1      9798    7    0    1
 -2      5103      6034      2171
 -1      9799    7    0    1
 -2      1876      1899      1875
 -1      9800    7    0    1
 -2      1879      1895      1880
 -1      9801    7    0    1
 -2      2846      2847      2845
 -1      9802    7    0    1
 -2      2336      2358      2357
 -1      9803    7    0    1
 -2      2355      2356      2334
 -1      9804    7    0    1
 -2       421      5690      2102
 -1      9805    7    0    1
 -2      2101      5689       700
 -1      9806    7    0    1
 -2      1997      1998      1996
 -1      9807    7    0    1
 -2      1952      1954      1953
 -1      9808    7    0    1
 -2      2747      3074      2746
 -1      9809    7    0    1
 -2      2751      3072      2750
 -1      9810    7    0    1
 -2      2743      3076      2742
 -1      9811    7    0    1
 -2      2739      3078      2738
 -1      9812    7    0    1
 -2      5711      5889      3806
 -1      9813    7    0    1
 -2      2619      5035      4982
 -1      9814    7    0    1
 -2      4978      5034      2576
 -1      9815    7    0    1
 -2      3412      3423      3422
 -1      9816    7    0    1
 -2      3280      3291      3290
 -1      9817    7    0    1
 -2      3148      3159      3158
 -1      9818    7    0    1
 -2      4218      6024      4229
 -1      9819    7    0    1
 -2      1693      2251      1691
 -1      9820    7    0    1
 -2      1653      2252      1655
 -1      9821    7    0    1
 -2      5801      5975      3671
 -1      9822    7    0    1
 -2      2580      5845      5634
 -1      9823    7    0    1
 -2      1954      1976      1956
 -1      9824    7    0    1
 -2      2000      2020      1998
 -1      9825    7    0    1
 -2      5633      5911      4217
 -1      9826    7    0    1
 -2      1895      2218      1896
 -1      9827    7    0    1
 -2      1900      2219      1899
 -1      9828    7    0    1
 -2      1046      5924      1045
 -1      9829    7    0    1
 -2      1667      1729      1668
 -1      9830    7    0    1
 -2      1706      1730      1705
 -1      9831    7    0    1
 -2      1648      5833      1517
 -1      9832    7    0    1
 -2      3459      3463      3460
 -1      9833    7    0    1
 -2      2552      2756      2569
 -1      9834    7    0    1
 -2      2612      2755      2595
 -1      9835    7    0    1
 -2      2457      2826      2643
 -1      9836    7    0    1
 -2      2644      2827      2458
 -1      9837    7    0    1
 -2      2938      2942      2940
 -1      9838    7    0    1
 -2      2869      2871      2867
 -1      9839    7    0    1
 -2      3196      3198      3197
 -1      9840    7    0    1
 -2      3328      3330      3329
 -1      9841    7    0    1
 -2       288      6029      1319
 -1      9842    7    0    1
 -2      1316      6028        91
 -1      9843    7    0    1
 -2      1702      1705      1701
 -1      9844    7    0    1
 -2      1663      1667      1664
 -1      9845    7    0    1
 -2      3274      3280      3279
 -1      9846    7    0    1
 -2      3142      3148      3147
 -1      9847    7    0    1
 -2      3406      3412      3411
 -1      9848    7    0    1
 -2      3411      1937      3407
 -1      9849    7    0    1
 -2      3147      1939      3143
 -1      9850    7    0    1
 -2      3279      1935      3275
 -1      9851    7    0    1
 -2      1658      1663      1659
 -1      9852    7    0    1
 -2      1697      1701      1696
 -1      9853    7    0    1
 -2      2483      1553      5444
 -1      9854    7    0    1
 -2      1655      1658      1656
 -1      9855    7    0    1
 -2      1694      1696      1693
 -1      9856    7    0    1
 -2      4968      6030      4947
 -1      9857    7    0    1
 -2      4909      6031      4930
 -1      9858    7    0    1
 -2      4034      5935      4028
 -1      9859    7    0    1
 -2      4588      4589      2822
 -1      9860    7    0    1
 -2      2812      4587      4586
 -1      9861    7    0    1
 -2      2572      6069      2571
 -1      9862    7    0    1
 -2      1691      5893      1688
 -1      9863    7    0    1
 -2      1518      5894      1653
 -1      9864    7    0    1
 -2      2764      4604      2766
 -1      9865    7    0    1
 -2      2761      4605      2759
 -1      9866    7    0    1
 -2      1800      1412      1760
 -1      9867    7    0    1
 -2      1763      1801      1761
 -1      9868    7    0    1
 -2      5708      5970      4246
 -1      9869    7    0    1
 -2      2019      5840      2017
 -1      9870    7    0    1
 -2      1973      5842      1975
 -1      9871    7    0    1
 -2      3326      3328      3327
 -1      9872    7    0    1
 -2      3194      3196      3195
 -1      9873    7    0    1
 -2      2614      1438      2615
 -1      9874    7    0    1
 -2      4086      5934      4088
 -1      9875    7    0    1
 -2      1912      2141      1780
 -1      9876    7    0    1
 -2      1788      2140      1913
 -1      9877    7    0    1
 -2      2196      5910      2648
 -1      9878    7    0    1
 -2      2645      5909      2197
 -1      9879    7    0    1
 -2      6144      6153      5441
 -1      9880    7    0    1
 -2      3070      3071      2493
 -1      9881    7    0    1
 -2      2491      3069      3068
 -1      9882    7    0    1
 -2      2984      5836      3114
 -1      9883    7    0    1
 -2      3115      5838      2981
 -1      9884    7    0    1
 -2      2994      5626      2997
 -1      9885    7    0    1
 -2      3094      6158      3095
 -1      9886    7    0    1
 -2      2634      5843      1985
 -1      9887    7    0    1
 -2      2029      5841      2624
 -1      9888    7    0    1
 -2      2636      5867      2825
 -1      9889    7    0    1
 -2      2824      5868      2626
 -1      9890    7    0    1
 -2      2630      1943      2632
 -1      9891    7    0    1
 -2      2642      5851      2640
 -1      9892    7    0    1
 -2      4146      5918      4116
 -1      9893    7    0    1
 -2      3407      1937      3409
 -1      9894    7    0    1
 -2      3143      1939      3145
 -1      9895    7    0    1
 -2      3275      1935      3277
 -1      9896    7    0    1
 -2      2202      2659      2339
 -1      9897    7    0    1
 -2      2341      2660      2203
 -1      9898    7    0    1
 -2      4924      4932      4923
 -1      9899    7    0    1
 -2      4961      4970      4962
 -1      9900    7    0    1
 -2      1867      5922      1868
 -1      9901    7    0    1
 -2      1854      5923      1853
 -1      9902    7    0    1
 -2      5635      5846      2537
 -1      9903    7    0    1
 -2      4662      4663      4661
 -1      9904    7    0    1
 -2      5877      6041      1356
 -1      9905    7    0    1
 -2      2156      5911      5633
 -1      9906    7    0    1
 -2      2234      5840      2019
 -1      9907    7    0    1
 -2      1975      5842      2235
 -1      9908    7    0    1
 -2      2032      5705      2006
 -1      9909    7    0    1
 -2      1962      5704      1988
 -1      9910    7    0    1
 -2      2487      5817      2532
 -1      9911    7    0    1
 -2      2017      5840      2029
 -1      9912    7    0    1
 -2      1985      5842      1973
 -1      9913    7    0    1
 -2      2758      2759      2342
 -1      9914    7    0    1
 -2      2340      2764      2763
 -1      9915    7    0    1
 -2      3361      3366      3360
 -1      9916    7    0    1
 -2      3229      3234      3228
 -1      9917    7    0    1
 -2      2730      4525      2365
 -1      9918    7    0    1
 -2      2366      4526      2732
 -1      9919    7    0    1
 -2      2164      5919      2162
 -1      9920    7    0    1
 -2      3511      3517      3510
 -1      9921    7    0    1
 -2      2236      5985      5782
 -1      9922    7    0    1
 -2      5781      5986      2237
 -1      9923    7    0    1
 -2      1729      1893      1732
 -1      9924    7    0    1
 -2      1736      1894      1730
 -1      9925    7    0    1
 -2      5627      6075      5849
 -1      9926    7    0    1
 -2      4122      6144      5441
 -1      9927    7    0    1
 -2      3286      3292      3287
 -1      9928    7    0    1
 -2      3154      3160      3155
 -1      9929    7    0    1
 -2      3418      3424      3419
 -1      9930    7    0    1
 -2      1832      5696      1835
 -1      9931    7    0    1
 -2      1827      5697      1824
 -1      9932    7    0    1
 -2      1848      5909      1847
 -1      9933    7    0    1
 -2      1861      5910      1862
 -1      9934    7    0    1
 -2      3221      3228      3217
 -1      9935    7    0    1
 -2      3353      3360      3349
 -1      9936    7    0    1
 -2      3503      3510      3499
 -1      9937    7    0    1
 -2      2589      5932      2587
 -1      9938    7    0    1
 -2      2544      5931      2546
 -1      9939    7    0    1
 -2      3343      3380      3345
 -1      9940    7    0    1
 -2      3211      3248      3213
 -1      9941    7    0    1
 -2      1853      2197      1851
 -1      9942    7    0    1
 -2      1865      2196      1867
 -1      9943    7    0    1
 -2      2442      3530      2443
 -1      9944    7    0    1
 -2       492      5914        12
 -1      9945    7    0    1
 -2       584      5916        16
 -1      9946    7    0    1
 -2       538      5915        14
 -1      9947    7    0    1
 -2       630      5917        18
 -1      9948    7    0    1
 -2      1370      6127      1372
 -1      9949    7    0    1
 -2      2659      2975      2704
 -1      9950    7    0    1
 -2      2703      2974      2660
 -1      9951    7    0    1
 -2      2715      4794      4793
 -1      9952    7    0    1
 -2      4796      4797      2717
 -1      9953    7    0    1
 -2      1658      1666      1663
 -1      9954    7    0    1
 -2      1701      1704      1696
 -1      9955    7    0    1
 -2      3215      3221      3217
 -1      9956    7    0    1
 -2      3347      3353      3349
 -1      9957    7    0    1
 -2      3497      3503      3499
 -1      9958    7    0    1
 -2      1836      5701      1861
 -1      9959    7    0    1
 -2      1847      5702      1828
 -1      9960    7    0    1
 -2      3692      6123      6104
 -1      9961    7    0    1
 -2      1950      1952      1951
 -1      9962    7    0    1
 -2      1995      1996      1994
 -1      9963    7    0    1
 -2      2646      4709      2993
 -1      9964    7    0    1
 -2      2986      4708      2649
 -1      9965    7    0    1
 -2      2194      2203      2099
 -1      9966    7    0    1
 -2      2093      2202      2192
 -1      9967    7    0    1
 -2      2140      2314      2262
 -1      9968    7    0    1
 -2      2263      2315      2141
 -1      9969    7    0    1
 -2      3877      6010      3969
 -1      9970    7    0    1
 -2      1708      1763      1762
 -1      9971    7    0    1
 -2      1759      1760      1670
 -1      9972    7    0    1
 -2      3350      5928      3355
 -1      9973    7    0    1
 -2      3218      5929      3223
 -1      9974    7    0    1
 -2      3500      5930      3505
 -1      9975    7    0    1
 -2      2934      2937      2936
 -1      9976    7    0    1
 -2      2865      2866      2863
 -1      9977    7    0    1
 -2      3878      6134      3880
 -1      9978    7    0    1
 -2      1698      1703      1700
 -1      9979    7    0    1
 -2      1662      1665      1660
 -1      9980    7    0    1
 -2      2354      5617      3112
 -1      9981    7    0    1
 -2      2708      2709      2668
 -1      9982    7    0    1
 -2      2667      2706      2705
 -1      9983    7    0    1
 -2      3353      3361      3360
 -1      9984    7    0    1
 -2      3221      3229      3228
 -1      9985    7    0    1
 -2      2812      4586      2813
 -1      9986    7    0    1
 -2      2823      4588      2822
 -1      9987    7    0    1
 -2      3503      3511      3510
 -1      9988    7    0    1
 -2      1718      6110      5827
 -1      9989    7    0    1
 -2      5725      5938      5726
 -1      9990    7    0    1
 -2      5731      5943      5730
 -1      9991    7    0    1
 -2      5516      6125      1987
 -1      9992    7    0    1
 -2      2031      6126      5517
 -1      9993    7    0    1
 -2      2219      2267      1899
 -1      9994    7    0    1
 -2      1895      2266      2218
 -1      9995    7    0    1
 -2       673      5719      1320
 -1      9996    7    0    1
 -2      1310      5720       448
 -1      9997    7    0    1
 -2      1339      2667      2283
 -1      9998    7    0    1
 -2      2284      2668      1386
 -1      9999    7    0    1
 -2      3603      7309      3601
 -1     10000    7    0    1
 -2      1669      1670      1665
 -1     10001    7    0    1
 -2      1703      1708      1707
 -1     10002    7    0    1
 -2      2256      6037       261
 -1     10003    7    0    1
 -2       118      6038      2255
 -1     10004    7    0    1
 -2      3691      6089      3701
 -1     10005    7    0    1
 -2      1912      2263      2141
 -1     10006    7    0    1
 -2      2140      2262      1913
 -1     10007    7    0    1
 -2      1683      1802      1685
 -1     10008    7    0    1
 -2      1646      1803      1644
 -1     10009    7    0    1
 -2       260      6039      2256
 -1     10010    7    0    1
 -2       712      5884       711
 -1     10011    7    0    1
 -2       410      5886       409
 -1     10012    7    0    1
 -2       411      1594       410
 -1     10013    7    0    1
 -2       711      1595       710
 -1     10014    7    0    1
 -2      2095      2097      1979
 -1     10015    7    0    1
 -2      2023      2091      2089
 -1     10016    7    0    1
 -2      3184      3190      3186
 -1     10017    7    0    1
 -2      3316      3322      3318
 -1     10018    7    0    1
 -2      2196      2409      2312
 -1     10019    7    0    1
 -2      2313      2410      2197
 -1     10020    7    0    1
 -2      2263      2493      2315
 -1     10021    7    0    1
 -2      2314      2491      2262
 -1     10022    7    0    1
 -2       262      6037      2231
 -1     10023    7    0    1
 -2      2230      6038       117
 -1     10024    7    0    1
 -2      2906      2909      2908
 -1     10025    7    0    1
 -2      3032      3036      3033
 -1     10026    7    0    1
 -2      3057      3060      3056
 -1     10027    7    0    1
 -2      1992      1994      1993
 -1     10028    7    0    1
 -2      1949      1950      1948
 -1     10029    7    0    1
 -2      1315      5690       422
 -1     10030    7    0    1
 -2       699      5689      1314
 -1     10031    7    0    1
 -2      1951      5864      1948
 -1     10032    7    0    1
 -2      2319      5533      2795
 -1     10033    7    0    1
 -2      4217      5911      5856
 -1     10034    7    0    1
 -2      2328      6039       259
 -1     10035    7    0    1
 -2      1765      5873      1739
 -1     10036    7    0    1
 -2      1735      5872      1767
 -1     10037    7    0    1
 -2      2423      5903      5771
 -1     10038    7    0    1
 -2      3400      3430      3402
 -1     10039    7    0    1
 -2      3136      3166      3138
 -1     10040    7    0    1
 -2      3268      3298      3270
 -1     10041    7    0    1
 -2      1851      5909      1848
 -1     10042    7    0    1
 -2      1862      5910      1865
 -1     10043    7    0    1
 -2       431      5746      1335
 -1     10044    7    0    1
 -2      1419      5747       690
 -1     10045    7    0    1
 -2      4917      4931      4929
 -1     10046    7    0    1
 -2      4967      4969      4955
 -1     10047    7    0    1
 -2      4457      7485      5709
 -1     10048    7    0    1
 -2       713      5885       712
 -1     10049    7    0    1
 -2       409      5887       408
 -1     10050    7    0    1
 -2      1783      5870      1781
 -1     10051    7    0    1
 -2      1789      5871      1791
 -1     10052    7    0    1
 -2      3643      6010      1513
 -1     10053    7    0    1
 -2      1399      5795       470
 -1     10054    7    0    1
 -2      1992      5863      1995
 -1     10055    7    0    1
 -2      4917      5382      4931
 -1     10056    7    0    1
 -2      5691      6041      5877
 -1     10057    7    0    1
 -2       720      1601       719
 -1     10058    7    0    1
 -2       402      1602       401
 -1     10059    7    0    1
 -2      2624      5841      2628
 -1     10060    7    0    1
 -2      2638      5843      2634
 -1     10061    7    0    1
 -2      3355      3385      3359
 -1     10062    7    0    1
 -2      3223      3253      3227
 -1     10063    7    0    1
 -2      3505      3535      3509
 -1     10064    7    0    1
 -2      1920      5746       432
 -1     10065    7    0    1
 -2       689      5747      1916
 -1     10066    7    0    1
 -2      2813      5901      2811
 -1     10067    7    0    1
 -2      2821      5902      2823
 -1     10068    7    0    1
 -2      5769      5907      2421
 -1     10069    7    0    1
 -2      2254      5863      1990
 -1     10070    7    0    1
 -2      4517      5975      5801
 -1     10071    7    0    1
 -2      2930      2950      2932
 -1     10072    7    0    1
 -2      2874      2886      2872
 -1     10073    7    0    1
 -2      1990      1992      1991
 -1     10074    7    0    1
 -2      1947      1948      1946
 -1     10075    7    0    1
 -2      2861      2879      2859
 -1     10076    7    0    1
 -2      2344      5906      2739
 -1     10077    7    0    1
 -2      1916      5751       688
 -1     10078    7    0    1
 -2       433      5748      1920
 -1     10079    7    0    1
 -2      1644      5829      1642
 -1     10080    7    0    1
 -2      1681      5828      1683
 -1     10081    7    0    1
 -2      2764      2766      2765
 -1     10082    7    0    1
 -2      2760      2761      2759
 -1     10083    7    0    1
 -2      2266      2501      2457
 -1     10084    7    0    1
 -2      2458      2502      2267
 -1     10085    7    0    1
 -2      2943      2960      2945
 -1     10086    7    0    1
 -2      3349      5928      3350
 -1     10087    7    0    1
 -2      3217      5929      3218
 -1     10088    7    0    1
 -2      3499      5930      3500
 -1     10089    7    0    1
 -2      1853      2313      2197
 -1     10090    7    0    1
 -2      2196      2312      1867
 -1     10091    7    0    1
 -2      5576      6019      5577
 -1     10092    7    0    1
 -2       408      1808       407
 -1     10093    7    0    1
 -2       714      1809       713
 -1     10094    7    0    1
 -2      1392      5748       434
 -1     10095    7    0    1
 -2       687      5751      1433
 -1     10096    7    0    1
 -2      1946      5864      2253
 -1     10097    7    0    1
 -2      1381      6029       287
 -1     10098    7    0    1
 -2        92      6028      1380
 -1     10099    7    0    1
 -2      5939      5986      5726
 -1     10100    7    0    1
 -2      5731      5985      5944
 -1     10101    7    0    1
 -2      3702      1531      3697
 -1     10102    7    0    1
 -2       258      6056      2328
 -1     10103    7    0    1
 -2      2329      6057       121
 -1     10104    7    0    1
 -2      2313      2717      2410
 -1     10105    7    0    1
 -2      2409      2715      2312
 -1     10106    7    0    1
 -2       435      5760      1392
 -1     10107    7    0    1
 -2      1433      5750       686
 -1     10108    7    0    1
 -2      2640      5851      2684
 -1     10109    7    0    1
 -2      2683      1943      2630
 -1     10110    7    0    1
 -2      3446      3461      3448
 -1     10111    7    0    1
 -2      2202      2339      2269
 -1     10112    7    0    1
 -2      2268      2341      2203
 -1     10113    7    0    1
 -2       674      5780      5719
 -1     10114    7    0    1
 -2      5720      5779       447
 -1     10115    7    0    1
 -2      1517      5858      1646
 -1     10116    7    0    1
 -2      4233      5998      5918
 -1     10117    7    0    1
 -2       685      5750      2139
 -1     10118    7    0    1
 -2      2137      5760       436
 -1     10119    7    0    1
 -2      3506      5852      3508
 -1     10120    7    0    1
 -2      3145      1939      3152
 -1     10121    7    0    1
 -2      3409      1937      3416
 -1     10122    7    0    1
 -2      3277      1935      3284
 -1     10123    7    0    1
 -2      3224      5853      3226
 -1     10124    7    0    1
 -2      3356      5854      3358
 -1     10125    7    0    1
 -2       717      1727       716
 -1     10126    7    0    1
 -2       405      1726       404
 -1     10127    7    0    1
 -2      1549      6145      4850
 -1     10128    7    0    1
 -2      4846      6146      1564
 -1     10129    7    0    1
 -2      2096      2233      2095
 -1     10130    7    0    1
 -2      2089      2232      2090
 -1     10131    7    0    1
 -2      5577      6141      5579
 -1     10132    7    0    1
 -2      2023      2089      2024
 -1     10133    7    0    1
 -2      1980      2095      1979
 -1     10134    7    0    1
 -2      1513      6010      3877
 -1     10135    7    0    1
 -2      5006      6338      5901
 -1     10136    7    0    1
 -2      5902      6339      5003
 -1     10137    7    0    1
 -2      2836      2837      2834
 -1     10138    7    0    1
 -2      2910      5839      2912
 -1     10139    7    0    1
 -2      4233      6073      5998
 -1     10140    7    0    1
 -2      1971      1979      1970
 -1     10141    7    0    1
 -2      2014      2023      2015
 -1     10142    7    0    1
 -2      5707      5903      2423
 -1     10143    7    0    1
 -2      2219      2458      2267
 -1     10144    7    0    1
 -2      2266      2457      2218
 -1     10145    7    0    1
 -2      2909      2966      2910
 -1     10146    7    0    1
 -2      2313      5923      2718
 -1     10147    7    0    1
 -2      2716      5922      2312
 -1     10148    7    0    1
 -2      4231      5960      4159
 -1     10149    7    0    1
 -2      5782      5985      5731
 -1     10150    7    0    1
 -2      5726      5986      5781
 -1     10151    7    0    1
 -2      2524      6016      2780
 -1     10152    7    0    1
 -2      1781      5870      1912
 -1     10153    7    0    1
 -2      1913      5871      1789
 -1     10154    7    0    1
 -2      3154      3251      3160
 -1     10155    7    0    1
 -2      3286      3383      3292
 -1     10156    7    0    1
 -2      3418      3533      3424
 -1     10157    7    0    1
 -2       190      6060      2128
 -1     10158    7    0    1
 -2      2127      6060       189
 -1     10159    7    0    1
 -2       558      5649      1745
 -1     10160    7    0    1
 -2      1747      5799       609
 -1     10161    7    0    1
 -2      1746      5798       517
 -1     10162    7    0    1
 -2       650      5800      1744
 -1     10163    7    0    1
 -2      1870      5875      1872
 -1     10164    7    0    1
 -2      1858      5876      1856
 -1     10165    7    0    1
 -2      3760      1534      3776
 -1     10166    7    0    1
 -2      4232      5998      4153
 -1     10167    7    0    1
 -2      5743      6022      2697
 -1     10168    7    0    1
 -2      2698      6023      5745
 -1     10169    7    0    1
 -2      2128      6061       191
 -1     10170    7    0    1
 -2       188      6063      2127
 -1     10171    7    0    1
 -2      2421      5907      5706
 -1     10172    7    0    1
 -2      4082      6105      4112
 -1     10173    7    0    1
 -2      2008      6101      5434
 -1     10174    7    0    1
 -2      4122      6105      4080
 -1     10175    7    0    1
 -2      2052      6056       257
 -1     10176    7    0    1
 -2       122      6057      2050
 -1     10177    7    0    1
 -2      1985      5843      5842
 -1     10178    7    0    1
 -2      5840      5841      2029
 -1     10179    7    0    1
 -2      4641      6497      3485
 -1     10180    7    0    1
 -2      3385      3386      3359
 -1     10181    7    0    1
 -2      3253      3254      3227
 -1     10182    7    0    1
 -2      3535      3537      3509
 -1     10183    7    0    1
 -2      1339      1340      1338
 -1     10184    7    0    1
 -2      1383      1384      1386
 -1     10185    7    0    1
 -2      4679      4680      4677
 -1     10186    7    0    1
 -2       299      5955       300
 -1     10187    7    0    1
 -2      3318      5862      3320
 -1     10188    7    0    1
 -2        79      5954        80
 -1     10189    7    0    1
 -2      4694      5925      4689
 -1     10190    7    0    1
 -2      2165      5960      1812
 -1     10191    7    0    1
 -2       446      5779      1454
 -1     10192    7    0    1
 -2      1453      5780       675
 -1     10193    7    0    1
 -2      1639      6090      1914
 -1     10194    7    0    1
 -2      1413      2138      1678
 -1     10195    7    0    1
 -2      4689      4690      4687
 -1     10196    7    0    1
 -2      4947      6030      4949
 -1     10197    7    0    1
 -2      4911      6031      4909
 -1     10198    7    0    1
 -2      4604      4761      2766
 -1     10199    7    0    1
 -2      2761      4762      4605
 -1     10200    7    0    1
 -2      3207      3236      3209
 -1     10201    7    0    1
 -2      3339      3368      3341
 -1     10202    7    0    1
 -2      2438      3516      2440
 -1     10203    7    0    1
 -2      3524      5993      3527
 -1     10204    7    0    1
 -2      3373      5991      3376
 -1     10205    7    0    1
 -2      3241      5992      3244
 -1     10206    7    0    1
 -2      4086      6009      5934
 -1     10207    7    0    1
 -2      2341      2703      2660
 -1     10208    7    0    1
 -2      2659      2704      2339
 -1     10209    7    0    1
 -2      4084      6009      4086
 -1     10210    7    0    1
 -2        87      5957        88
 -1     10211    7    0    1
 -2       291      5958       292
 -1     10212    7    0    1
 -2      1590      5773       549
 -1     10213    7    0    1
 -2      1588      5772       503
 -1     10214    7    0    1
 -2      1587      5774       595
 -1     10215    7    0    1
 -2      1896      5880      1898
 -1     10216    7    0    1
 -2      1651      5881      1900
 -1     10217    7    0    1
 -2      2284      2710      2708
 -1     10218    7    0    1
 -2      2705      2707      2283
 -1     10219    7    0    1
 -2      4659      5956      4662
 -1     10220    7    0    1
 -2       296      6065       297
 -1     10221    7    0    1
 -2        82      6067        83
 -1     10222    7    0    1
 -2      5521      6186      6178
 -1     10223    7    0    1
 -2      2604      6013      2598
 -1     10224    7    0    1
 -2      2555      6014      2561
 -1     10225    7    0    1
 -2      2009      5892      2032
 -1     10226    7    0    1
 -2      1988      1810      1965
 -1     10227    7    0    1
 -2       192      6061      2049
 -1     10228    7    0    1
 -2      2048      6063       187
 -1     10229    7    0    1
 -2       297      6064       298
 -1     10230    7    0    1
 -2        81      6066        82
 -1     10231    7    0    1
 -2      5562      5903      5707
 -1     10232    7    0    1
 -2      2632      1943      2806
 -1     10233    7    0    1
 -2      2816      5851      2642
 -1     10234    7    0    1
 -2      5472      6070      2264
 -1     10235    7    0    1
 -2      5527      6015      5483
 -1     10236    7    0    1
 -2      1868      5922      1347
 -1     10237    7    0    1
 -2      2173      5923      1854
 -1     10238    7    0    1
 -2      2598      6013      2596
 -1     10239    7    0    1
 -2      2553      6014      2555
 -1     10240    7    0    1
 -2      5622      5970      4173
 -1     10241    7    0    1
 -2      3466      1496      1964
 -1     10242    7    0    1
 -2      2596      6013      2612
 -1     10243    7    0    1
 -2      2569      6014      2553
 -1     10244    7    0    1
 -2      2485      1553      2483
 -1     10245    7    0    1
 -2      2819      5899      2817
 -1     10246    7    0    1
 -2      2807      5900      2809
 -1     10247    7    0    1
 -2       304      5966       305
 -1     10248    7    0    1
 -2        74      5967        75
 -1     10249    7    0    1
 -2      3312      3391      3314
 -1     10250    7    0    1
 -2      3180      3259      3182
 -1     10251    7    0    1
 -2      1586      5777       479
 -1     10252    7    0    1
 -2      1591      5775       571
 -1     10253    7    0    1
 -2      3569      6326      3568
 -1     10254    7    0    1
 -2      4480      5900      2807
 -1     10255    7    0    1
 -2      2817      5899      4479
 -1     10256    7    0    1
 -2      1454      1989        10
 -1     10257    7    0    1
 -2        20      1945      1453
 -1     10258    7    0    1
 -2      3882      6147      3884
 -1     10259    7    0    1
 -2      2016      5892      2011
 -1     10260    7    0    1
 -2      1967      1810      1972
 -1     10261    7    0    1
 -2      2344      2738      2737
 -1     10262    7    0    1
 -2      2350      2746      2745
 -1     10263    7    0    1
 -2      2346      2742      2741
 -1     10264    7    0    1
 -2      2348      2750      2749
 -1     10265    7    0    1
 -2      3937      6118      1534
 -1     10266    7    0    1
 -2      5706      5907      5565
 -1     10267    7    0    1
 -2      5861      6104      3873
 -1     10268    7    0    1
 -2      4624      6120      1426
 -1     10269    7    0    1
 -2      3101      6166      3100
 -1     10270    7    0    1
 -2      4057      6019      4058
 -1     10271    7    0    1
 -2      1949      1970      1950
 -1     10272    7    0    1
 -2      1994      2014      1993
 -1     10273    7    0    1
 -2      1593      5809       617
 -1     10274    7    0    1
 -2      1592      5776       525
 -1     10275    7    0    1
 -2       642      5807      1589
 -1     10276    7    0    1
 -2      3957      6277      4840
 -1     10277    7    0    1
 -2      2049      1456       193
 -1     10278    7    0    1
 -2       186      6071      2048
 -1     10279    7    0    1
 -2       306      5981       307
 -1     10280    7    0    1
 -2        72      5980        73
 -1     10281    7    0    1
 -2      4519      6074      5975
 -1     10282    7    0    1
 -2      1947      1949      1948
 -1     10283    7    0    1
 -2      1992      1993      1991
 -1     10284    7    0    1
 -2      3703      6130      3702
 -1     10285    7    0    1
 -2      4919      5225      5224
 -1     10286    7    0    1
 -2       256      6072      2052
 -1     10287    7    0    1
 -2      2561      2770      2563
 -1     10288    7    0    1
 -2      2606      2769      2604
 -1     10289    7    0    1
 -2      3671      5975      5710
 -1     10290    7    0    1
 -2      2710      3089      3088
 -1     10291    7    0    1
 -2      3086      3087      2707
 -1     10292    7    0    1
 -2      4048      6027      4022
 -1     10293    7    0    1
 -2       624      5783      1569
 -1     10294    7    0    1
 -2       532      5785      1567
 -1     10295    7    0    1
 -2       578      5787      1568
 -1     10296    7    0    1
 -2      3336      6045      4507
 -1     10297    7    0    1
 -2      3204      6046      4508
 -1     10298    7    0    1
 -2      1565      5806       635
 -1     10299    7    0    1
 -2      1563      5805       497
 -1     10300    7    0    1
 -2      1562      5789       543
 -1     10301    7    0    1
 -2      1566      1521       589
 -1     10302    7    0    1
 -2      2011      5892      2009
 -1     10303    7    0    1
 -2      1965      1810      1967
 -1     10304    7    0    1
 -2      2113      6110      1718
 -1     10305    7    0    1
 -2      2832      3116      2830
 -1     10306    7    0    1
 -2       289      5982       290
 -1     10307    7    0    1
 -2        89      5983        90
 -1     10308    7    0    1
 -2      2902      2964      2904
 -1     10309    7    0    1
 -2      2084      5850      2110
 -1     10310    7    0    1
 -2      1990      5863      1992
 -1     10311    7    0    1
 -2      5734      6020      5765
 -1     10312    7    0    1
 -2      5764      6021      5737
 -1     10313    7    0    1
 -2      5687      6042      6041
 -1     10314    7    0    1
 -2      2546      5931      2552
 -1     10315    7    0    1
 -2      2595      5932      2589
 -1     10316    7    0    1
 -2      2167      6024      4218
 -1     10317    7    0    1
 -2        64      5988        65
 -1     10318    7    0    1
 -2       314      5987       315
 -1     10319    7    0    1
 -2      3353      5962      3370
 -1     10320    7    0    1
 -2      3221      5961      3238
 -1     10321    7    0    1
 -2      3503      5963      3519
 -1     10322    7    0    1
 -2       316      5989       317
 -1     10323    7    0    1
 -2        62      5990        63
 -1     10324    7    0    1
 -2      1948      5864      1946
 -1     10325    7    0    1
 -2      3509      5852      3506
 -1     10326    7    0    1
 -2      2764      6001      4604
 -1     10327    7    0    1
 -2      4605      6000      2759
 -1     10328    7    0    1
 -2      4234      1441      6073
 -1     10329    7    0    1
 -2      2171      6034      2167
 -1     10330    7    0    1
 -2      3227      5853      3224
 -1     10331    7    0    1
 -2      3359      5854      3356
 -1     10332    7    0    1
 -2       194      1456      1806
 -1     10333    7    0    1
 -2      1807      6071       185
 -1     10334    7    0    1
 -2       570      5775      1922
 -1     10335    7    0    1
 -2       478      5777      1926
 -1     10336    7    0    1
 -2        58      5995        59
 -1     10337    7    0    1
 -2       320      5994       321
 -1     10338    7    0    1
 -2      2109      1941      2086
 -1     10339    7    0    1
 -2       318      5997       319
 -1     10340    7    0    1
 -2        60      5996        61
 -1     10341    7    0    1
 -2      1990      1991      1989
 -1     10342    7    0    1
 -2      1945      1947      1946
 -1     10343    7    0    1
 -2      2218      5880      1896
 -1     10344    7    0    1
 -2      1900      5881      2219
 -1     10345    7    0    1
 -2      5765      6020      5727
 -1     10346    7    0    1
 -2      5732      6021      5764
 -1     10347    7    0    1
 -2      1778      5873      1765
 -1     10348    7    0    1
 -2      1767      5872      1786
 -1     10349    7    0    1
 -2      1823      5870      1783
 -1     10350    7    0    1
 -2      1791      5871      1831
 -1     10351    7    0    1
 -2      6395      6696      3946
 -1     10352    7    0    1
 -2      2356      2693      2692
 -1     10353    7    0    1
 -2      2686      2687      2358
 -1     10354    7    0    1
 -2      1642      1650      1640
 -1     10355    7    0    1
 -2      1679      1652      1681
 -1     10356    7    0    1
 -2      2957      2976      2959
 -1     10357    7    0    1
 -2      5911      6109      5502
 -1     10358    7    0    1
 -2      1751      6072       255
 -1     10359    7    0    1
 -2      3412      5952      3433
 -1     10360    7    0    1
 -2      3280      5948      3301
 -1     10361    7    0    1
 -2      3148      5950      3169
 -1     10362    7    0    1
 -2      2182      2344      2343
 -1     10363    7    0    1
 -2      2190      2348      2347
 -1     10364    7    0    1
 -2      2186      2350      2349
 -1     10365    7    0    1
 -2      2178      2346      2345
 -1     10366    7    0    1
 -2      3372      5991      3373
 -1     10367    7    0    1
 -2      3240      5992      3241
 -1     10368    7    0    1
 -2      3523      5993      3524
 -1     10369    7    0    1
 -2      3545      5013      3440
 -1     10370    7    0    1
 -2      5510      6104      5861
 -1     10371    7    0    1
 -2        51      6008        52
 -1     10372    7    0    1
 -2       327      6007       328
 -1     10373    7    0    1
 -2      3355      5928      3385
 -1     10374    7    0    1
 -2      3223      5929      3253
 -1     10375    7    0    1
 -2      3505      5930      3535
 -1     10376    7    0    1
 -2      1945      1946      1453
 -1     10377    7    0    1
 -2      1454      1990      1989
 -1     10378    7    0    1
 -2      5816      5985      2236
 -1     10379    7    0    1
 -2      2237      5986      5814
 -1     10380    7    0    1
 -2      3527      3531      3529
 -1     10381    7    0    1
 -2      3376      3382      3378
 -1     10382    7    0    1
 -2      3244      3250      3246
 -1     10383    7    0    1
 -2       542      5789      1929
 -1     10384    7    0    1
 -2       588      1521      1931
 -1     10385    7    0    1
 -2       496      5805      1930
 -1     10386    7    0    1
 -2       634      5806      1928
 -1     10387    7    0    1
 -2      1653      5894      2252
 -1     10388    7    0    1
 -2      2251      5893      1691
 -1     10389    7    0    1
 -2      2663      2784      2608
 -1     10390    7    0    1
 -2      2565      2785      2665
 -1     10391    7    0    1
 -2      5654      6010      3643
 -1     10392    7    0    1
 -2      2344      2737      2343
 -1     10393    7    0    1
 -2      2346      2741      2345
 -1     10394    7    0    1
 -2      2350      2745      2349
 -1     10395    7    0    1
 -2      2348      2749      2347
 -1     10396    7    0    1
 -2      1924      5807       643
 -1     10397    7    0    1
 -2       524      5776      1925
 -1     10398    7    0    1
 -2       616      5809      1921
 -1     10399    7    0    1
 -2      2167      6034      6024
 -1     10400    7    0    1
 -2       471      5810      1399
 -1     10401    7    0    1
 -2      2696      3040      3039
 -1     10402    7    0    1
 -2      3015      3016      2690
 -1     10403    7    0    1
 -2       254      6095      1751
 -1     10404    7    0    1
 -2      5918      5998      4232
 -1     10405    7    0    1
 -2      1926      5824       477
 -1     10406    7    0    1
 -2       598      5793      1923
 -1     10407    7    0    1
 -2      1922      5823       569
 -1     10408    7    0    1
 -2       506      5794      1942
 -1     10409    7    0    1
 -2      3041      3044      3043
 -1     10410    7    0    1
 -2      3019      3020      3017
 -1     10411    7    0    1
 -2      3448      5897      3450
 -1     10412    7    0    1
 -2      4681      4683      4680
 -1     10413    7    0    1
 -2      3508      5852      3514
 -1     10414    7    0    1
 -2      3226      5853      3232
 -1     10415    7    0    1
 -2      3358      5854      3364
 -1     10416    7    0    1
 -2      4224      6153      4235
 -1     10417    7    0    1
 -2      3186      6053      3188
 -1     10418    7    0    1
 -2      4659      4662      4661
 -1     10419    7    0    1
 -2      2853      3007      2851
 -1     10420    7    0    1
 -2      1888      1339      1338
 -1     10421    7    0    1
 -2      1383      1386      1886
 -1     10422    7    0    1
 -2      4230      6068      1366
 -1     10423    7    0    1
 -2      2264      6159      5516
 -1     10424    7    0    1
 -2      5517      6160      2265
 -1     10425    7    0    1
 -2      1412      2104      1760
 -1     10426    7    0    1
 -2      1763      2103      1801
 -1     10427    7    0    1
 -2      1872      5875      1879
 -1     10428    7    0    1
 -2      1875      5876      1858
 -1     10429    7    0    1
 -2       287      6029       288
 -1     10430    7    0    1
 -2        91      6028        92
 -1     10431    7    0    1
 -2      1934      5810       472
 -1     10432    7    0    1
 -2      5948      5949      3301
 -1     10433    7    0    1
 -2      5950      5951      3169
 -1     10434    7    0    1
 -2      5952      5953      3433
 -1     10435    7    0    1
 -2      2053      6077       104
 -1     10436    7    0    1
 -2       275      6078      2054
 -1     10437    7    0    1
 -2      1856      5876      2173
 -1     10438    7    0    1
 -2      1347      5875      1870
 -1     10439    7    0    1
 -2      2156      6109      5911
 -1     10440    7    0    1
 -2      2806      1943      4630
 -1     10441    7    0    1
 -2      4629      5851      2816
 -1     10442    7    0    1
 -2       105      6077      1538
 -1     10443    7    0    1
 -2      1539      6078       274
 -1     10444    7    0    1
 -2      2966      5839      2910
 -1     10445    7    0    1
 -2      1520      6096       252
 -1     10446    7    0    1
 -2      4952      6030      4967
 -1     10447    7    0    1
 -2      4929      6031      4914
 -1     10448    7    0    1
 -2      2197      5909      1851
 -1     10449    7    0    1
 -2      1865      5910      2196
 -1     10450    7    0    1
 -2      4808      6899      1500
 -1     10451    7    0    1
 -2      2327      2355      2334
 -1     10452    7    0    1
 -2      2336      2357      2325
 -1     10453    7    0    1
 -2       261      6037       262
 -1     10454    7    0    1
 -2       117      6038       118
 -1     10455    7    0    1
 -2      2917      3000      2920
 -1     10456    7    0    1
 -2       552      5808      1927
 -1     10457    7    0    1
 -2       259      6039       260
 -1     10458    7    0    1
 -2      1561      6079       137
 -1     10459    7    0    1
 -2       539      5818      1755
 -1     10460    7    0    1
 -2       585      5819      1756
 -1     10461    7    0    1
 -2       493      5820      1754
 -1     10462    7    0    1
 -2      2912      5839      2915
 -1     10463    7    0    1
 -2      1768      5793       599
 -1     10464    7    0    1
 -2       568      5823      1770
 -1     10465    7    0    1
 -2      1769      5794       507
 -1     10466    7    0    1
 -2       476      5824      1771
 -1     10467    7    0    1
 -2      4952      4967      4955
 -1     10468    7    0    1
 -2      4917      4929      4914
 -1     10469    7    0    1
 -2      3438      3545      3440
 -1     10470    7    0    1
 -2      4495      6686      1401
 -1     10471    7    0    1
 -2      1853      5923      2313
 -1     10472    7    0    1
 -2      2312      5922      1867
 -1     10473    7    0    1
 -2      2847      2893      2845
 -1     10474    7    0    1
 -2        18      2036      1719
 -1     10475    7    0    1
 -2        16      2035      1717
 -1     10476    7    0    1
 -2        12      2033      1718
 -1     10477    7    0    1
 -2        14      2034      1720
 -1     10478    7    0    1
 -2      4655      5956      4656
 -1     10479    7    0    1
 -2       138      6079      2055
 -1     10480    7    0    1
 -2      1342      2417      2275
 -1     10481    7    0    1
 -2      2273      2418      1336
 -1     10482    7    0    1
 -2      2435      6047      3467
 -1     10483    7    0    1
 -2       553      5830      5808
 -1     10484    7    0    1
 -2      1812      5960      4231
 -1     10485    7    0    1
 -2      5735      6020      5734
 -1     10486    7    0    1
 -2      5737      6021      5738
 -1     10487    7    0    1
 -2      3910      6163      3912
 -1     10488    7    0    1
 -2      2110      5881      1651
 -1     10489    7    0    1
 -2      1898      5880      2109
 -1     10490    7    0    1
 -2       489      5811      1793
 -1     10491    7    0    1
 -2      3194      4492      3196
 -1     10492    7    0    1
 -2      2662      5964      1947
 -1     10493    7    0    1
 -2      1991      5965      2661
 -1     10494    7    0    1
 -2      2055      6080       139
 -1     10495    7    0    1
 -2      2780      6016      5041
 -1     10496    7    0    1
 -2      1670      1798      1665
 -1     10497    7    0    1
 -2      1703      1797      1708
 -1     10498    7    0    1
 -2       257      6056       258
 -1     10499    7    0    1
 -2       121      6057       122
 -1     10500    7    0    1
 -2      2166      6055      2165
 -1     10501    7    0    1
 -2       140      6080      1494
 -1     10502    7    0    1
 -2      3100      6245      5882
 -1     10503    7    0    1
 -2      5883      6244      3094
 -1     10504    7    0    1
 -2       445      5890      1394
 -1     10505    7    0    1
 -2      1467      5891       676
 -1     10506    7    0    1
 -2       189      6060       190
 -1     10507    7    0    1
 -2      2284      2708      2668
 -1     10508    7    0    1
 -2      2667      2705      2283
 -1     10509    7    0    1
 -2       490      5827      5811
 -1     10510    7    0    1
 -2      1718      5827       491
 -1     10511    7    0    1
 -2      1721      5830       554
 -1     10512    7    0    1
 -2      1642      5829      1650
 -1     10513    7    0    1
 -2      1652      5828      1681
 -1     10514    7    0    1
 -2      2178      2345      2176
 -1     10515    7    0    1
 -2      2190      2347      2188
 -1     10516    7    0    1
 -2      2186      2349      2184
 -1     10517    7    0    1
 -2      2182      2343      2180
 -1     10518    7    0    1
 -2      3937      1534      6075
 -1     10519    7    0    1
 -2      1660      5833      1648
 -1     10520    7    0    1
 -2      1803      5829      1644
 -1     10521    7    0    1
 -2      1683      5828      1802
 -1     10522    7    0    1
 -2       191      6061       192
 -1     10523    7    0    1
 -2       187      6063       188
 -1     10524    7    0    1
 -2      2253      5780      1453
 -1     10525    7    0    1
 -2      1454      5779      2254
 -1     10526    7    0    1
 -2      2552      5931      2756
 -1     10527    7    0    1
 -2      2755      5932      2595
 -1     10528    7    0    1
 -2      2365      5912      2314
 -1     10529    7    0    1
 -2      2315      5913      2366
 -1     10530    7    0    1
 -2      5656      6250      6232
 -1     10531    7    0    1
 -2      2904      5927      2906
 -1     10532    7    0    1
 -2      1442      1493       179
 -1     10533    7    0    1
 -2       200      1585      1443
 -1     10534    7    0    1
 -2       297      6065      6064
 -1     10535    7    0    1
 -2      6066      6067        82
 -1     10536    7    0    1
 -2      2112      2182      2180
 -1     10537    7    0    1
 -2      2114      2178      2176
 -1     10538    7    0    1
 -2      2118      2190      2188
 -1     10539    7    0    1
 -2      2116      2186      2184
 -1     10540    7    0    1
 -2      4662      4664      4663
 -1     10541    7    0    1
 -2       158      6100      1449
 -1     10542    7    0    1
 -2      3429      6050      1937
 -1     10543    7    0    1
 -2      4514      7285      1087
 -1     10544    7    0    1
 -2      3165      6051      1939
 -1     10545    7    0    1
 -2      3297      6052      1935
 -1     10546    7    0    1
 -2      3705      6142      3712
 -1     10547    7    0    1
 -2      3320      5862      3326
 -1     10548    7    0    1
 -2      5656      6232      4055
 -1     10549    7    0    1
 -2       193      1456       194
 -1     10550    7    0    1
 -2       185      6071       186
 -1     10551    7    0    1
 -2      2576      6069      2572
 -1     10552    7    0    1
 -2      3182      5936      3184
 -1     10553    7    0    1
 -2      3314      5937      3316
 -1     10554    7    0    1
 -2      1949      5964      1971
 -1     10555    7    0    1
 -2      2015      5965      1993
 -1     10556    7    0    1
 -2      3716      6142      3707
 -1     10557    7    0    1
 -2      2685      6323      5145
 -1     10558    7    0    1
 -2       178      2051      1442
 -1     10559    7    0    1
 -2       255      6072       256
 -1     10560    7    0    1
 -2       235      6091      1424
 -1     10561    7    0    1
 -2      1425      6092       144
 -1     10562    7    0    1
 -2      2063      2051       177
 -1     10563    7    0    1
 -2      2705      3086      2707
 -1     10564    7    0    1
 -2      2710      3088      2708
 -1     10565    7    0    1
 -2      5759      5999      5623
 -1     10566    7    0    1
 -2      2075      7005      4765
 -1     10567    7    0    1
 -2      2058      6093       226
 -1     10568    7    0    1
 -2       153      6094      2057
 -1     10569    7    0    1
 -2      2201      7292      4571
 -1     10570    7    0    1
 -2      4651      4655      4652
 -1     10571    7    0    1
 -2      3021      3022      3020
 -1     10572    7    0    1
 -2      3044      3046      3045
 -1     10573    7    0    1
 -2      4123      6144      4076
 -1     10574    7    0    1
 -2      4078      6144      4122
 -1     10575    7    0    1
 -2      5146      6324      2691
 -1     10576    7    0    1
 -2      4234      6073      4233
 -1     10577    7    0    1
 -2      2059      6091       234
 -1     10578    7    0    1
 -2       145      6092      2070
 -1     10579    7    0    1
 -2      2410      5920      2646
 -1     10580    7    0    1
 -2      2649      5921      2409
 -1     10581    7    0    1
 -2      2615      1438      2619
 -1     10582    7    0    1
 -2      1339      2283      1340
 -1     10583    7    0    1
 -2      1384      2284      1386
 -1     10584    7    0    1
 -2       227      6093      1323
 -1     10585    7    0    1
 -2      1322      6094       152
 -1     10586    7    0    1
 -2      2822      5899      2819
 -1     10587    7    0    1
 -2      2809      5900      2812
 -1     10588    7    0    1
 -2      2176      5976      2177
 -1     10589    7    0    1
 -2      2184      5977      2185
 -1     10590    7    0    1
 -2      2188      5978      2189
 -1     10591    7    0    1
 -2      2180      5979      2181
 -1     10592    7    0    1
 -2      5687      6041      5691
 -1     10593    7    0    1
 -2      2748      5977      2349
 -1     10594    7    0    1
 -2      2752      5978      2347
 -1     10595    7    0    1
 -2      2744      5976      2345
 -1     10596    7    0    1
 -2      2740      5979      2343
 -1     10597    7    0    1
 -2      5851      6122      2684
 -1     10598    7    0    1
 -2      2683      6121      1943
 -1     10599    7    0    1
 -2      3031      3035      3029
 -1     10600    7    0    1
 -2      3053      3059      3055
 -1     10601    7    0    1
 -2      3228      5929      3217
 -1     10602    7    0    1
 -2      3360      5928      3349
 -1     10603    7    0    1
 -2      3510      5930      3499
 -1     10604    7    0    1
 -2      2090      5971      2093
 -1     10605    7    0    1
 -2      2099      5972      2096
 -1     10606    7    0    1
 -2       233      6098      2059
 -1     10607    7    0    1
 -2      2070      6099       146
 -1     10608    7    0    1
 -2       253      6095       254
 -1     10609    7    0    1
 -2      1362      5999      5759
 -1     10610    7    0    1
 -2      3071      5913      2493
 -1     10611    7    0    1
 -2      2491      5912      3069
 -1     10612    7    0    1
 -2      5021      6285      5878
 -1     10613    7    0    1
 -2      5879      6286      5019
 -1     10614    7    0    1
 -2      4648      4651      4650
 -1     10615    7    0    1
 -2       252      6096       253
 -1     10616    7    0    1
 -2      2114      2176      2113
 -1     10617    7    0    1
 -2      2112      2180      2111
 -1     10618    7    0    1
 -2      2116      2184      2115
 -1     10619    7    0    1
 -2      2118      2188      2117
 -1     10620    7    0    1
 -2      2493      5913      2315
 -1     10621    7    0    1
 -2      2314      5912      2491
 -1     10622    7    0    1
 -2      1305      6098       232
 -1     10623    7    0    1
 -2       147      6099      1306
 -1     10624    7    0    1
 -2       104      6077       105
 -1     10625    7    0    1
 -2       274      6078       275
 -1     10626    7    0    1
 -2      2932      5969      2934
 -1     10627    7    0    1
 -2      2863      5968      2861
 -1     10628    7    0    1
 -2      5768      6022      5769
 -1     10629    7    0    1
 -2      5771      6023      5770
 -1     10630    7    0    1
 -2      2455      7313      4292
 -1     10631    7    0    1
 -2      2759      6000      2342
 -1     10632    7    0    1
 -2      2340      6001      2764
 -1     10633    7    0    1
 -2       137      6079       138
 -1     10634    7    0    1
 -2      3213      5961      3215
 -1     10635    7    0    1
 -2      3345      5962      3347
 -1     10636    7    0    1
 -2      2443      5963      3497
 -1     10637    7    0    1
 -2      3694      6089      3691
 -1     10638    7    0    1
 -2      2284      6044      2710
 -1     10639    7    0    1
 -2      2707      6043      2283
 -1     10640    7    0    1
 -2       139      6080       140
 -1     10641    7    0    1
 -2       179      1493       180
 -1     10642    7    0    1
 -2      2339      6001      2340
 -1     10643    7    0    1
 -2      2342      6000      2341
 -1     10644    7    0    1
 -2       199      1585       200
 -1     10645    7    0    1
 -2      2036      5917      5712
 -1     10646    7    0    1
 -2      2034      5915      5714
 -1     10647    7    0    1
 -2      2035      5916      5713
 -1     10648    7    0    1
 -2      2033      5914      5715
 -1     10649    7    0    1
 -2      5710      6074      5711
 -1     10650    7    0    1
 -2      3188      6053      3194
 -1     10651    7    0    1
 -2      2232      5971      2090
 -1     10652    7    0    1
 -2      2096      5972      2233
 -1     10653    7    0    1
 -2       157      6100       158
 -1     10654    7    0    1
 -2      2715      5921      4794
 -1     10655    7    0    1
 -2      4797      5920      2717
 -1     10656    7    0    1
 -2       177      2051       178
 -1     10657    7    0    1
 -2      1566      6513      5236
 -1     10658    7    0    1
 -2      1563      6514      5235
 -1     10659    7    0    1
 -2       234      6091       235
 -1     10660    7    0    1
 -2       144      6092       145
 -1     10661    7    0    1
 -2      2409      5921      2715
 -1     10662    7    0    1
 -2      2717      5920      2410
 -1     10663    7    0    1
 -2      2697      6022      5768
 -1     10664    7    0    1
 -2      5770      6023      2698
 -1     10665    7    0    1
 -2       226      6093       227
 -1     10666    7    0    1
 -2       152      6094       153
 -1     10667    7    0    1
 -2      2812      5900      4587
 -1     10668    7    0    1
 -2      4589      5899      2822
 -1     10669    7    0    1
 -2      2769      6013      2604
 -1     10670    7    0    1
 -2      2561      6014      2770
 -1     10671    7    0    1
 -2      1615      7324      6588
 -1     10672    7    0    1
 -2      1612      7323      6587
 -1     10673    7    0    1
 -2      4525      5912      2365
 -1     10674    7    0    1
 -2      2366      5913      4526
 -1     10675    7    0    1
 -2        20      5891      1945
 -1     10676    7    0    1
 -2      1989      5890        10
 -1     10677    7    0    1
 -2       232      6098       233
 -1     10678    7    0    1
 -2      4956      5381      4959
 -1     10679    7    0    1
 -2       146      6099       147
 -1     10680    7    0    1
 -2      5034      6069      2576
 -1     10681    7    0    1
 -2      3925      6075      5627
 -1     10682    7    0    1
 -2      1698      6059      1703
 -1     10683    7    0    1
 -2      5464      6162      2474
 -1     10684    7    0    1
 -2      2661      5890      1989
 -1     10685    7    0    1
 -2      1945      5891      2662
 -1     10686    7    0    1
 -2      5846      6125      2653
 -1     10687    7    0    1
 -2      2656      6126      5845
 -1     10688    7    0    1
 -2      2619      1438      5035
 -1     10689    7    0    1
 -2      3450      5897      3454
 -1     10690    7    0    1
 -2      3209      6005      3211
 -1     10691    7    0    1
 -2      3341      6006      3343
 -1     10692    7    0    1
 -2      2440      6004      2442
 -1     10693    7    0    1
 -2      1754      5914       492
 -1     10694    7    0    1
 -2      1755      5915       538
 -1     10695    7    0    1
 -2      1756      5916       584
 -1     10696    7    0    1
 -2      1753      5917       630
 -1     10697    7    0    1
 -2      5975      6074      5710
 -1     10698    7    0    1
 -2      3527      5993      3531
 -1     10699    7    0    1
 -2      2834      5984      2832
 -1     10700    7    0    1
 -2      2693      3001      2694
 -1     10701    7    0    1
 -2      2688      3002      2687
 -1     10702    7    0    1
 -2      3376      5991      3382
 -1     10703    7    0    1
 -2      3244      5992      3250
 -1     10704    7    0    1
 -2      2034      2118      2117
 -1     10705    7    0    1
 -2      2035      2116      2115
 -1     10706    7    0    1
 -2      2033      2114      2113
 -1     10707    7    0    1
 -2      2036      2112      2111
 -1     10708    7    0    1
 -2      4967      4976      4969
 -1     10709    7    0    1
 -2      4931      4938      4929
 -1     10710    7    0    1
 -2      3032      3033      3031
 -1     10711    7    0    1
 -2      3055      3057      3056
 -1     10712    7    0    1
 -2      5833      5858      1517
 -1     10713    7    0    1
 -2      3709      6157      3716
 -1     10714    7    0    1
 -2      3771      6157      3711
 -1     10715    7    0    1
 -2      2646      5920      4709
 -1     10716    7    0    1
 -2      4708      5921      2649
 -1     10717    7    0    1
 -2      3248      5961      3213
 -1     10718    7    0    1
 -2      3380      5962      3345
 -1     10719    7    0    1
 -2      3530      5963      2443
 -1     10720    7    0    1
 -2      3322      5862      3318
 -1     10721    7    0    1
 -2      3697      1531      3694
 -1     10722    7    0    1
 -2        13      6170       514
 -1     10723    7    0    1
 -2        17      6171       606
 -1     10724    7    0    1
 -2      3764      1534      3760
 -1     10725    7    0    1
 -2      6604      6740      5646
 -1     10726    7    0    1
 -2      3028      3030      3029
 -1     10727    7    0    1
 -2      3053      3054      3052
 -1     10728    7    0    1
 -2      2778      6150      3472
 -1     10729    7    0    1
 -2      2501      5973      2457
 -1     10730    7    0    1
 -2      2458      5974      2502
 -1     10731    7    0    1
 -2      3694      1531      6089
 -1     10732    7    0    1
 -2      1693      6003      2251
 -1     10733    7    0    1
 -2      2252      6002      1655
 -1     10734    7    0    1
 -2      5928      6112      3385
 -1     10735    7    0    1
 -2      5929      6111      3253
 -1     10736    7    0    1
 -2      5930      6113      3535
 -1     10737    7    0    1
 -2      1646      5858      1803
 -1     10738    7    0    1
 -2      2457      5973      2826
 -1     10739    7    0    1
 -2      2827      5974      2458
 -1     10740    7    0    1
 -2      1788      6011      2140
 -1     10741    7    0    1
 -2      2141      6012      1780
 -1     10742    7    0    1
 -2      3347      5962      3353
 -1     10743    7    0    1
 -2      3215      5961      3221
 -1     10744    7    0    1
 -2      3497      5963      3503
 -1     10745    7    0    1
 -2      2202      5971      2659
 -1     10746    7    0    1
 -2      2660      5972      2203
 -1     10747    7    0    1
 -2      2851      6018      2849
 -1     10748    7    0    1
 -2      3940      6185      3942
 -1     10749    7    0    1
 -2      6010      6115      3969
 -1     10750    7    0    1
 -2      2480      6150      2778
 -1     10751    7    0    1
 -2      4629      6122      5851
 -1     10752    7    0    1
 -2      1943      6121      4630
 -1     10753    7    0    1
 -2      1845      6154      6016
 -1     10754    7    0    1
 -2      6180      6201      1805
 -1     10755    7    0    1
 -2      1804      6202      6179
 -1     10756    7    0    1
 -2      3610      6660      2201
 -1     10757    7    0    1
 -2      2033      2113      1718
 -1     10758    7    0    1
 -2      2036      2111      1719
 -1     10759    7    0    1
 -2      2035      2115      1717
 -1     10760    7    0    1
 -2      2034      2117      1720
 -1     10761    7    0    1
 -2      3436      6054      3438
 -1     10762    7    0    1
 -2      1658      6002      1666
 -1     10763    7    0    1
 -2      1704      6003      1696
 -1     10764    7    0    1
 -2      4080      6105      4082
 -1     10765    7    0    1
 -2      3873      6104      3933
 -1     10766    7    0    1
 -2      1786      6011      1788
 -1     10767    7    0    1
 -2      1780      6012      1778
 -1     10768    7    0    1
 -2      2877      6017      2874
 -1     10769    7    0    1
 -2      3190      6053      3186
 -1     10770    7    0    1
 -2      3461      5897      3448
 -1     10771    7    0    1
 -2      1947      5964      1949
 -1     10772    7    0    1
 -2      1993      5965      1991
 -1     10773    7    0    1
 -2      2093      5971      2202
 -1     10774    7    0    1
 -2      2203      5972      2099
 -1     10775    7    0    1
 -2      3228      6111      5929
 -1     10776    7    0    1
 -2      3360      6112      5928
 -1     10777    7    0    1
 -2      3510      6113      5930
 -1     10778    7    0    1
 -2      1339      6025      2667
 -1     10779    7    0    1
 -2      2668      6026      1386
 -1     10780    7    0    1
 -2      2532      1553      2485
 -1     10781    7    0    1
 -2      4730      6688      1498
 -1     10782    7    0    1
 -2      1638      6152      2207
 -1     10783    7    0    1
 -2      2206      6151      1677
 -1     10784    7    0    1
 -2      4687      5959      4685
 -1     10785    7    0    1
 -2      1537      6765       366
 -1     10786    7    0    1
 -2       750      6766      1536
 -1     10787    7    0    1
 -2      2906      5927      2909
 -1     10788    7    0    1
 -2      2855      6040      2853
 -1     10789    7    0    1
 -2      5480      6114      5479
 -1     10790    7    0    1
 -2      2474      6162      2476
 -1     10791    7    0    1
 -2      1696      6003      1693
 -1     10792    7    0    1
 -2      1655      6002      1658
 -1     10793    7    0    1
 -2      5895      6178      3901
 -1     10794    7    0    1
 -2      4689      5925      4690
 -1     10795    7    0    1
 -2      5898      6161      3936
 -1     10796    7    0    1
 -2      2191      6643      4877
 -1     10797    7    0    1
 -2      2934      5969      2937
 -1     10798    7    0    1
 -2      2866      5968      2863
 -1     10799    7    0    1
 -2      4986      6449      1725
 -1     10800    7    0    1
 -2      4988      6450      1724
 -1     10801    7    0    1
 -2      2531      6150      2478
 -1     10802    7    0    1
 -2      3049      3053      3052
 -1     10803    7    0    1
 -2      3028      3029      3025
 -1     10804    7    0    1
 -2      3184      5936      3190
 -1     10805    7    0    1
 -2      3316      5937      3322
 -1     10806    7    0    1
 -2        16      5916      2035
 -1     10807    7    0    1
 -2        14      5915      2034
 -1     10808    7    0    1
 -2        12      5914      2033
 -1     10809    7    0    1
 -2        18      5917      2036
 -1     10810    7    0    1
 -2      3270      1326      3272
 -1     10811    7    0    1
 -2      3138      6076      3140
 -1     10812    7    0    1
 -2      3402      1328      3404
 -1     10813    7    0    1
 -2      3343      6006      3380
 -1     10814    7    0    1
 -2      3211      6005      3248
 -1     10815    7    0    1
 -2      2442      6004      3530
 -1     10816    7    0    1
 -2      2677      6199      1633
 -1     10817    7    0    1
 -2      1672      6200      2678
 -1     10818    7    0    1
 -2      3055      3056      3054
 -1     10819    7    0    1
 -2      3030      3032      3031
 -1     10820    7    0    1
 -2      5967      6809      1468
 -1     10821    7    0    1
 -2      1469      6808      5966
 -1     10822    7    0    1
 -2      1886      6026      1412
 -1     10823    7    0    1
 -2      1801      6025      1888
 -1     10824    7    0    1
 -2      1340      6043      1342
 -1     10825    7    0    1
 -2      1336      6044      1384
 -1     10826    7    0    1
 -2      2704      6001      2339
 -1     10827    7    0    1
 -2      2341      6000      2703
 -1     10828    7    0    1
 -2      2349      5977      2184
 -1     10829    7    0    1
 -2      2345      5976      2176
 -1     10830    7    0    1
 -2      2347      5978      2188
 -1     10831    7    0    1
 -2      2343      5979      2180
 -1     10832    7    0    1
 -2      1987      6125      5846
 -1     10833    7    0    1
 -2      5845      6126      2031
 -1     10834    7    0    1
 -2      2267      6035      1899
 -1     10835    7    0    1
 -2      1895      6036      2266
 -1     10836    7    0    1
 -2      1640      6152      1638
 -1     10837    7    0    1
 -2      1677      6151      1679
 -1     10838    7    0    1
 -2      3718      6172      3771
 -1     10839    7    0    1
 -2      2950      5969      2932
 -1     10840    7    0    1
 -2      2861      5968      2879
 -1     10841    7    0    1
 -2      3259      5936      3182
 -1     10842    7    0    1
 -2      3391      5937      3314
 -1     10843    7    0    1
 -2      5516      6159      6125
 -1     10844    7    0    1
 -2      6126      6160      5517
 -1     10845    7    0    1
 -2      4077      6196      4075
 -1     10846    7    0    1
 -2      6114      6130      3935
 -1     10847    7    0    1
 -2      4229      6109      2156
 -1     10848    7    0    1
 -2      2275      6032      2327
 -1     10849    7    0    1
 -2      2325      6033      2273
 -1     10850    7    0    1
 -2      6104      6123      3933
 -1     10851    7    0    1
 -2      5872      6011      1786
 -1     10852    7    0    1
 -2      1778      6012      5873
 -1     10853    7    0    1
 -2      2248      6170       515
 -1     10854    7    0    1
 -2      2249      6171       607
 -1     10855    7    0    1
 -2      1899      6035      1875
 -1     10856    7    0    1
 -2      1879      6036      1895
 -1     10857    7    0    1
 -2      2874      6017      2886
 -1     10858    7    0    1
 -2      5946      6139      5947
 -1     10859    7    0    1
 -2      5942      6140      5941
 -1     10860    7    0    1
 -2       711      5884      1595
 -1     10861    7    0    1
 -2      1594      5886       410
 -1     10862    7    0    1
 -2      4049      6177      4057
 -1     10863    7    0    1
 -2      5703      6108      3903
 -1     10864    7    0    1
 -2      5654      6115      6010
 -1     10865    7    0    1
 -2      2608      6048      2606
 -1     10866    7    0    1
 -2      3166      6076      3138
 -1     10867    7    0    1
 -2      3430      1328      3402
 -1     10868    7    0    1
 -2      3298      1326      3270
 -1     10869    7    0    1
 -2      1426      6120      1002
 -1     10870    7    0    1
 -2      2563      6049      2565
 -1     10871    7    0    1
 -2       712      5885      5884
 -1     10872    7    0    1
 -2      5886      5887       409
 -1     10873    7    0    1
 -2      5007      6106      5006
 -1     10874    7    0    1
 -2      5003      6107      5004
 -1     10875    7    0    1
 -2      3516      6004      2440
 -1     10876    7    0    1
 -2      3236      6005      3209
 -1     10877    7    0    1
 -2      3368      6006      3341
 -1     10878    7    0    1
 -2      5948      1326      5949
 -1     10879    7    0    1
 -2      5952      1328      5953
 -1     10880    7    0    1
 -2      5950      6076      5951
 -1     10881    7    0    1
 -2      3938      6118      3937
 -1     10882    7    0    1
 -2      3416      6050      3418
 -1     10883    7    0    1
 -2      3152      6051      3154
 -1     10884    7    0    1
 -2      3284      6052      3286
 -1     10885    7    0    1
 -2      2964      5927      2904
 -1     10886    7    0    1
 -2      2837      5984      2834
 -1     10887    7    0    1
 -2      3768      6181      3722
 -1     10888    7    0    1
 -2      4180      6156      5678
 -1     10889    7    0    1
 -2      1894      6166      5648
 -1     10890    7    0    1
 -2      3479      6127      1370
 -1     10891    7    0    1
 -2      5186      6661      5188
 -1     10892    7    0    1
 -2      5177      6662      5179
 -1     10893    7    0    1
 -2      6075      1534      3764
 -1     10894    7    0    1
 -2      1809      5885       713
 -1     10895    7    0    1
 -2       408      5887      1808
 -1     10896    7    0    1
 -2      5168      6663      5170
 -1     10897    7    0    1
 -2      3272      1326      5948
 -1     10898    7    0    1
 -2      3404      1328      5952
 -1     10899    7    0    1
 -2      3140      6076      5950
 -1     10900    7    0    1
 -2      3702      6130      6114
 -1     10901    7    0    1
 -2      3695      6161      5898
 -1     10902    7    0    1
 -2      2832      5984      3116
 -1     10903    7    0    1
 -2      3154      6051      3251
 -1     10904    7    0    1
 -2      3286      6052      3383
 -1     10905    7    0    1
 -2      1937      6050      3416
 -1     10906    7    0    1
 -2      1939      6051      3152
 -1     10907    7    0    1
 -2      1935      6052      3284
 -1     10908    7    0    1
 -2      3418      6050      3533
 -1     10909    7    0    1
 -2      1443      6155       201
 -1     10910    7    0    1
 -2      3030      3031      3029
 -1     10911    7    0    1
 -2      3053      3055      3054
 -1     10912    7    0    1
 -2       202      6155      2062
 -1     10913    7    0    1
 -2      3194      6053      4492
 -1     10914    7    0    1
 -2      1416      5042       343
 -1     10915    7    0    1
 -2      5647      6158      1893
 -1     10916    7    0    1
 -2      4055      6206      6177
 -1     10917    7    0    1
 -2      1875      6035      5876
 -1     10918    7    0    1
 -2      5875      6036      1879
 -1     10919    7    0    1
 -2      2849      2043      2847
 -1     10920    7    0    1
 -2      1703      6059      1797
 -1     10921    7    0    1
 -2      2671      6202      2731
 -1     10922    7    0    1
 -2      2733      6201      2672
 -1     10923    7    0    1
 -2      3111      6208      6169
 -1     10924    7    0    1
 -2      6168      6207      3109
 -1     10925    7    0    1
 -2      1384      6044      2284
 -1     10926    7    0    1
 -2      2283      6043      1340
 -1     10927    7    0    1
 -2       253      6096      6095
 -1     10928    7    0    1
 -2      3935      6134      3878
 -1     10929    7    0    1
 -2      5841      1549      4848
 -1     10930    7    0    1
 -2      4844      1564      5843
 -1     10931    7    0    1
 -2      3712      6130      3703
 -1     10932    7    0    1
 -2      5124      6378      5123
 -1     10933    7    0    1
 -2      5118      6377      5119
 -1     10934    7    0    1
 -2      5909      6128      1847
 -1     10935    7    0    1
 -2      1861      6129      5910
 -1     10936    7    0    1
 -2      4471      3474      4473
 -1     10937    7    0    1
 -2      3963      6115      5654
 -1     10938    7    0    1
 -2      2177      6110      2113
 -1     10939    7    0    1
 -2      2653      6125      2655
 -1     10940    7    0    1
 -2      2658      6126      2656
 -1     10941    7    0    1
 -2      4040      6250      5656
 -1     10942    7    0    1
 -2      4806      7297      1471
 -1     10943    7    0    1
 -2      4690      5959      4687
 -1     10944    7    0    1
 -2      3714      6178      5895
 -1     10945    7    0    1
 -2      5582      6206      5583
 -1     10946    7    0    1
 -2      2606      6048      2769
 -1     10947    7    0    1
 -2      2770      6049      2563
 -1     10948    7    0    1
 -2      5814      6145      5813
 -1     10949    7    0    1
 -2      5815      6146      5816
 -1     10950    7    0    1
 -2      1695      6205      1690
 -1     10951    7    0    1
 -2      1412      6026      2104
 -1     10952    7    0    1
 -2      2103      6025      1801
 -1     10953    7    0    1
 -2       771      7158      6333
 -1     10954    7    0    1
 -2      1888      6025      1339
 -1     10955    7    0    1
 -2      1386      6026      1886
 -1     10956    7    0    1
 -2      5840      1549      5841
 -1     10957    7    0    1
 -2      5843      1564      5842
 -1     10958    7    0    1
 -2       344      1416       343
 -1     10959    7    0    1
 -2       778      1375       777
 -1     10960    7    0    1
 -2      3007      6018      2851
 -1     10961    7    0    1
 -2      1635      1407      1637
 -1     10962    7    0    1
 -2      1676      1728      1674
 -1     10963    7    0    1
 -2      2234      1549      5840
 -1     10964    7    0    1
 -2      5842      1564      2235
 -1     10965    7    0    1
 -2      3366      6112      3360
 -1     10966    7    0    1
 -2      3234      6111      3228
 -1     10967    7    0    1
 -2      3517      6113      3510
 -1     10968    7    0    1
 -2      4683      4696      4680
 -1     10969    7    0    1
 -2      5903      6119      5904
 -1     10970    7    0    1
 -2      4904      6158      5647
 -1     10971    7    0    1
 -2      3438      6054      3545
 -1     10972    7    0    1
 -2      1679      1681      1680
 -1     10973    7    0    1
 -2      1641      1642      1640
 -1     10974    7    0    1
 -2      4057      6177      6141
 -1     10975    7    0    1
 -2      3538      6081      5852
 -1     10976    7    0    1
 -2      3387      6082      5854
 -1     10977    7    0    1
 -2      3255      6083      5853
 -1     10978    7    0    1
 -2      2784      6048      2608
 -1     10979    7    0    1
 -2      2565      6049      2785
 -1     10980    7    0    1
 -2      3933      6123      5888
 -1     10981    7    0    1
 -2      2853      6040      3007
 -1     10982    7    0    1
 -2      3724      6192      3768
 -1     10983    7    0    1
 -2      2915      6086      2917
 -1     10984    7    0    1
 -2      3514      6081      3523
 -1     10985    7    0    1
 -2      3364      6082      3372
 -1     10986    7    0    1
 -2      3232      6083      3240
 -1     10987    7    0    1
 -2      5579      6141      5582
 -1     10988    7    0    1
 -2      6299      6321      2091
 -1     10989    7    0    1
 -2      2097      6322      6300
 -1     10990    7    0    1
 -2      5908      6124      5907
 -1     10991    7    0    1
 -2      1737      6180      1805
 -1     10992    7    0    1
 -2      1804      6179      1733
 -1     10993    7    0    1
 -2      5041      6154      5439
 -1     10994    7    0    1
 -2      1342      6043      2417
 -1     10995    7    0    1
 -2      2418      6044      1336
 -1     10996    7    0    1
 -2       345      6085       344
 -1     10997    7    0    1
 -2       777      6084       776
 -1     10998    7    0    1
 -2      1847      6128      5702
 -1     10999    7    0    1
 -2      5701      6129      1861
 -1     11000    7    0    1
 -2      2234      6145      1549
 -1     11001    7    0    1
 -2      1564      6146      2235
 -1     11002    7    0    1
 -2      1248      6131      1247
 -1     11003    7    0    1
 -2      1303      6790      4502
 -1     11004    7    0    1
 -2      1708      6087      1763
 -1     11005    7    0    1
 -2      1760      6088      1670
 -1     11006    7    0    1
 -2      3773      6198      3728
 -1     11007    7    0    1
 -2      2847      2043      2893
 -1     11008    7    0    1
 -2      3490      6143      5494
 -1     11009    7    0    1
 -2      3707      6142      3705
 -1     11010    7    0    1
 -2      5562      6119      5903
 -1     11011    7    0    1
 -2      4795      6483      4793
 -1     11012    7    0    1
 -2      4796      6484      4798
 -1     11013    7    0    1
 -2      2917      6086      3000
 -1     11014    7    0    1
 -2      2645      6128      5909
 -1     11015    7    0    1
 -2      5910      6129      2648
 -1     11016    7    0    1
 -2      2643      6132      5880
 -1     11017    7    0    1
 -2      5881      6133      2644
 -1     11018    7    0    1
 -2      2327      6032      2355
 -1     11019    7    0    1
 -2      2357      6033      2325
 -1     11020    7    0    1
 -2      4476      6223      5010
 -1     11021    7    0    1
 -2      2273      6033      2418
 -1     11022    7    0    1
 -2      2417      6032      2275
 -1     11023    7    0    1
 -2      5852      6081      3514
 -1     11024    7    0    1
 -2      5853      6083      3232
 -1     11025    7    0    1
 -2      5854      6082      3364
 -1     11026    7    0    1
 -2      5657      6167      4123
 -1     11027    7    0    1
 -2      2710      6116      3089
 -1     11028    7    0    1
 -2      3087      6117      2707
 -1     11029    7    0    1
 -2       346      2310       345
 -1     11030    7    0    1
 -2       776      2311       775
 -1     11031    7    0    1
 -2      4076      6144      4078
 -1     11032    7    0    1
 -2      2104      6088      1760
 -1     11033    7    0    1
 -2      1763      6087      2103
 -1     11034    7    0    1
 -2      4941      6191      4943
 -1     11035    7    0    1
 -2       779      1488        27
 -1     11036    7    0    1
 -2         3      1489       342
 -1     11037    7    0    1
 -2      6521      6542      1699
 -1     11038    7    0    1
 -2      2475      6148      2473
 -1     11039    7    0    1
 -2      2482      6149      2484
 -1     11040    7    0    1
 -2      5907      6124      5565
 -1     11041    7    0    1
 -2      5839      6086      2915
 -1     11042    7    0    1
 -2       250      6176       251
 -1     11043    7    0    1
 -2      4583      6276      1607
 -1     11044    7    0    1
 -2      1797      6087      1708
 -1     11045    7    0    1
 -2      1670      6088      1798
 -1     11046    7    0    1
 -2      5151      6147      3882
 -1     11047    7    0    1
 -2      1633      6199      1635
 -1     11048    7    0    1
 -2      1674      6200      1672
 -1     11049    7    0    1
 -2      5348      6336      5117
 -1     11050    7    0    1
 -2      5122      6337      5346
 -1     11051    7    0    1
 -2       349      2467       348
 -1     11052    7    0    1
 -2       773      2468       772
 -1     11053    7    0    1
 -2      6018      2043      2849
 -1     11054    7    0    1
 -2       722      5106      5105
 -1     11055    7    0    1
 -2      1639      1641      1640
 -1     11056    7    0    1
 -2      1679      1680      1678
 -1     11057    7    0    1
 -2      5648      6166      4942
 -1     11058    7    0    1
 -2      1462      6956      6260
 -1     11059    7    0    1
 -2      3593      6547      6398
 -1     11060    7    0    1
 -2      2667      6137      2706
 -1     11061    7    0    1
 -2      2709      6138      2668
 -1     11062    7    0    1
 -2      2160      6167      5657
 -1     11063    7    0    1
 -2      1661      6544      6518
 -1     11064    7    0    1
 -2      1692      6205      5821
 -1     11065    7    0    1
 -2      3783      6211      3732
 -1     11066    7    0    1
 -2      5880      6132      2109
 -1     11067    7    0    1
 -2      2110      6133      5881
 -1     11068    7    0    1
 -2      3730      6211      3773
 -1     11069    7    0    1
 -2      1735      6179      5872
 -1     11070    7    0    1
 -2      5873      6180      1739
 -1     11071    7    0    1
 -2      2159      6203      1357
 -1     11072    7    0    1
 -2      2079      6992      4752
 -1     11073    7    0    1
 -2      6286      6300      5019
 -1     11074    7    0    1
 -2      5021      6299      6285
 -1     11075    7    0    1
 -2      5109      6229      5790
 -1     11076    7    0    1
 -2      4977      6191      4941
 -1     11077    7    0    1
 -2      2478      6150      2480
 -1     11078    7    0    1
 -2      2160      6204      6167
 -1     11079    7    0    1
 -2       733      7245        24
 -1     11080    7    0    1
 -2         6      7246       383
 -1     11081    7    0    1
 -2      5109      5114       399
 -1     11082    7    0    1
 -2      5441      6153      4224
 -1     11083    7    0    1
 -2      6125      6159      2655
 -1     11084    7    0    1
 -2      2658      6160      6126
 -1     11085    7    0    1
 -2      1441      6156      6073
 -1     11086    7    0    1
 -2      5813      6145      2234
 -1     11087    7    0    1
 -2      2235      6146      5815
 -1     11088    7    0    1
 -2       210      6195      1321
 -1     11089    7    0    1
 -2      2065      6195       209
 -1     11090    7    0    1
 -2      1675      2206      1677
 -1     11091    7    0    1
 -2      1638      2207      1636
 -1     11092    7    0    1
 -2       201      6155       202
 -1     11093    7    0    1
 -2      4391      7256      3477
 -1     11094    7    0    1
 -2      3711      6157      3709
 -1     11095    7    0    1
 -2      5489      6239      5060
 -1     11096    7    0    1
 -2       780      6103       779
 -1     11097    7    0    1
 -2       342      6102       341
 -1     11098    7    0    1
 -2      4417      6212      1558
 -1     11099    7    0    1
 -2      3737      6230      3736
 -1     11100    7    0    1
 -2      3734      6227      3783
 -1     11101    7    0    1
 -2      5061      6239      5080
 -1     11102    7    0    1
 -2      2231      6222       263
 -1     11103    7    0    1
 -2      5132      6163      3910
 -1     11104    7    0    1
 -2      5065      6248      5515
 -1     11105    7    0    1
 -2      5666      6466      1334
 -1     11106    7    0    1
 -2      6234      6270      5761
 -1     11107    7    0    1
 -2      5762      6269      6235
 -1     11108    7    0    1
 -2       264      6222      2135
 -1     11109    7    0    1
 -2      6153      6167      4235
 -1     11110    7    0    1
 -2      2655      6159      3065
 -1     11111    7    0    1
 -2      3063      6160      2658
 -1     11112    7    0    1
 -2      4818      6203      5919
 -1     11113    7    0    1
 -2      3741      6236      3740
 -1     11114    7    0    1
 -2      6016      6154      5041
 -1     11115    7    0    1
 -2       515      6170        13
 -1     11116    7    0    1
 -2       607      6171        17
 -1     11117    7    0    1
 -2      5080      6248      5063
 -1     11118    7    0    1
 -2      5872      6179      2800
 -1     11119    7    0    1
 -2      2801      6180      5873
 -1     11120    7    0    1
 -2      5702      6193      1827
 -1     11121    7    0    1
 -2      1835      6194      5701
 -1     11122    7    0    1
 -2      2476      6162      2531
 -1     11123    7    0    1
 -2      6555      7204      3060
 -1     11124    7    0    1
 -2      6036      6168      2669
 -1     11125    7    0    1
 -2      2670      6169      6035
 -1     11126    7    0    1
 -2      4921      6182      5382
 -1     11127    7    0    1
 -2       781      2067       780
 -1     11128    7    0    1
 -2       341      2068       340
 -1     11129    7    0    1
 -2      1677      1679      1678
 -1     11130    7    0    1
 -2      1639      1640      1638
 -1     11131    7    0    1
 -2       429      6224      1917
 -1     11132    7    0    1
 -2      1335      6224       430
 -1     11133    7    0    1
 -2      6167      6204      4235
 -1     11134    7    0    1
 -2      3772      6236      3744
 -1     11135    7    0    1
 -2      3936      6161      5895
 -1     11136    7    0    1
 -2      1087      7285      6465
 -1     11137    7    0    1
 -2      6371      6392      2975
 -1     11138    7    0    1
 -2      2974      6393      6372
 -1     11139    7    0    1
 -2      3720      6172      3718
 -1     11140    7    0    1
 -2      1614      7293      6564
 -1     11141    7    0    1
 -2      5671      6220      2002
 -1     11142    7    0    1
 -2      1958      6221      5672
 -1     11143    7    0    1
 -2      1650      6152      1640
 -1     11144    7    0    1
 -2      1679      6151      1652
 -1     11145    7    0    1
 -2      4047      6242      4031
 -1     11146    7    0    1
 -2      4710      6819      2511
 -1     11147    7    0    1
 -2      4932      4935      4923
 -1     11148    7    0    1
 -2      4961      4973      4970
 -1     11149    7    0    1
 -2       400      6229      5109
 -1     11150    7    0    1
 -2      6279      7162      4468
 -1     11151    7    0    1
 -2      2002      6220      2000
 -1     11152    7    0    1
 -2      1956      6221      1958
 -1     11153    7    0    1
 -2       251      6176      1520
 -1     11154    7    0    1
 -2      5071      6258      5079
 -1     11155    7    0    1
 -2      6264      6296      5591
 -1     11156    7    0    1
 -2      5075      6258      5069
 -1     11157    7    0    1
 -2      3746      6246      3772
 -1     11158    7    0    1
 -2      6073      6156      4180
 -1     11159    7    0    1
 -2      3762      6246      3748
 -1     11160    7    0    1
 -2      4785      7001      3044
 -1     11161    7    0    1
 -2      3020      7002      4786
 -1     11162    7    0    1
 -2      4055      6177      4049
 -1     11163    7    0    1
 -2      6179      6202      2800
 -1     11164    7    0    1
 -2      2801      6201      6180
 -1     11165    7    0    1
 -2      1637      1639      1638
 -1     11166    7    0    1
 -2      1677      1678      1676
 -1     11167    7    0    1
 -2      6228      6293      5460
 -1     11168    7    0    1
 -2      1894      6225      1730
 -1     11169    7    0    1
 -2      5141      7149      4576
 -1     11170    7    0    1
 -2      4578      7150      5142
 -1     11171    7    0    1
 -2      2654      6253      2768
 -1     11172    7    0    1
 -2      2767      6254      2657
 -1     11173    7    0    1
 -2      3722      6181      3720
 -1     11174    7    0    1
 -2      1733      6179      1735
 -1     11175    7    0    1
 -2      1739      6180      1737
 -1     11176    7    0    1
 -2      3901      6178      3905
 -1     11177    7    0    1
 -2      3720      6181      6172
 -1     11178    7    0    1
 -2      4235      6204      4556
 -1     11179    7    0    1
 -2      1729      6228      1893
 -1     11180    7    0    1
 -2      2995      6193      5702
 -1     11181    7    0    1
 -2      5701      6194      2988
 -1     11182    7    0    1
 -2      4781      7174      2753
 -1     11183    7    0    1
 -2        22      5105       721
 -1     11184    7    0    1
 -2      4123      6167      6153
 -1     11185    7    0    1
 -2      2753      6892      4781
 -1     11186    7    0    1
 -2      2754      6893      4782
 -1     11187    7    0    1
 -2      4782      6896      2754
 -1     11188    7    0    1
 -2      2225      6267      2735
 -1     11189    7    0    1
 -2      2651      6894      4783
 -1     11190    7    0    1
 -2      2652      6895      4784
 -1     11191    7    0    1
 -2      4784      6897      2652
 -1     11192    7    0    1
 -2      5876      6169      2173
 -1     11193    7    0    1
 -2      1347      6168      5875
 -1     11194    7    0    1
 -2      5720      6164      5779
 -1     11195    7    0    1
 -2      5780      6165      5719
 -1     11196    7    0    1
 -2      3945      6185      3940
 -1     11197    7    0    1
 -2      2261      6267      2214
 -1     11198    7    0    1
 -2      2673      6274      4875
 -1     11199    7    0    1
 -2      4876      6275      2674
 -1     11200    7    0    1
 -2      2662      6215      5377
 -1     11201    7    0    1
 -2      5374      6216      2661
 -1     11202    7    0    1
 -2      5076      6466      5666
 -1     11203    7    0    1
 -2      3750      6251      3762
 -1     11204    7    0    1
 -2      4524      6318      3027
 -1     11205    7    0    1
 -2      3051      6319      4523
 -1     11206    7    0    1
 -2      6178      6186      3905
 -1     11207    7    0    1
 -2      5457      6292      6225
 -1     11208    7    0    1
 -2      5875      6168      6036
 -1     11209    7    0    1
 -2      6035      6169      5876
 -1     11210    7    0    1
 -2      1000      6187      1312
 -1     11211    7    0    1
 -2      2246      6726      5032
 -1     11212    7    0    1
 -2      5648      6225      1894
 -1     11213    7    0    1
 -2      3905      6186      3930
 -1     11214    7    0    1
 -2      3765      6252      3754
 -1     11215    7    0    1
 -2      1394      6237       444
 -1     11216    7    0    1
 -2      5156      6324      5157
 -1     11217    7    0    1
 -2      1488      2677      1633
 -1     11218    7    0    1
 -2      1672      2678      1489
 -1     11219    7    0    1
 -2      1893      6228      5647
 -1     11220    7    0    1
 -2      6259      6966      1461
 -1     11221    7    0    1
 -2      5537      7088      6687
 -1     11222    7    0    1
 -2      1915      6247       692
 -1     11223    7    0    1
 -2       677      6241      1467
 -1     11224    7    0    1
 -2       691      6247      1419
 -1     11225    7    0    1
 -2       340      6136       339
 -1     11226    7    0    1
 -2       782      6135       781
 -1     11227    7    0    1
 -2      6141      6177      5582
 -1     11228    7    0    1
 -2      1831      6235      5696
 -1     11229    7    0    1
 -2      5697      6234      1823
 -1     11230    7    0    1
 -2       246      6243       247
 -1     11231    7    0    1
 -2      3756      6261      3765
 -1     11232    7    0    1
 -2      3776      6261      3758
 -1     11233    7    0    1
 -2      3888      6290      5476
 -1     11234    7    0    1
 -2      6095      7459      6474
 -1     11235    7    0    1
 -2      4943      6191      4946
 -1     11236    7    0    1
 -2      3726      6192      3724
 -1     11237    7    0    1
 -2      1675      1677      1676
 -1     11238    7    0    1
 -2      1637      1638      1636
 -1     11239    7    0    1
 -2      4075      6196      4140
 -1     11240    7    0    1
 -2      5762      6235      5871
 -1     11241    7    0    1
 -2      4036      6272      4040
 -1     11242    7    0    1
 -2      1732      6244      1804
 -1     11243    7    0    1
 -2      1805      6245      1736
 -1     11244    7    0    1
 -2       209      6195       210
 -1     11245    7    0    1
 -2      5882      6245      1805
 -1     11246    7    0    1
 -2      1804      6244      5883
 -1     11247    7    0    1
 -2      5779      6164      2254
 -1     11248    7    0    1
 -2      2253      6165      5780
 -1     11249    7    0    1
 -2      5870      6234      5761
 -1     11250    7    0    1
 -2      5381      6183      4959
 -1     11251    7    0    1
 -2      4328      6820      1505
 -1     11252    7    0    1
 -2      2999      6234      5697
 -1     11253    7    0    1
 -2      5696      6235      2992
 -1     11254    7    0    1
 -2      1840      7126      4841
 -1     11255    7    0    1
 -2      3728      6198      3726
 -1     11256    7    0    1
 -2      3726      6198      6192
 -1     11257    7    0    1
 -2      5923      6208      2718
 -1     11258    7    0    1
 -2      2716      6207      5922
 -1     11259    7    0    1
 -2       442      6256      1459
 -1     11260    7    0    1
 -2      1460      6255       679
 -1     11261    7    0    1
 -2      6169      6208      2173
 -1     11262    7    0    1
 -2      1347      6207      6168
 -1     11263    7    0    1
 -2      2800      6202      2671
 -1     11264    7    0    1
 -2      2672      6201      2801
 -1     11265    7    0    1
 -2      1827      6193      5697
 -1     11266    7    0    1
 -2      5696      6194      1835
 -1     11267    7    0    1
 -2      5803      7219      5804
 -1     11268    7    0    1
 -2      1635      1637      1636
 -1     11269    7    0    1
 -2      1675      1676      1674
 -1     11270    7    0    1
 -2      4040      6272      6250
 -1     11271    7    0    1
 -2      6316      7128      5760
 -1     11272    7    0    1
 -2      5750      7129      6317
 -1     11273    7    0    1
 -2      2102      6268       420
 -1     11274    7    0    1
 -2      1602      6229       401
 -1     11275    7    0    1
 -2       330      6259       331
 -1     11276    7    0    1
 -2        48      6260        49
 -1     11277    7    0    1
 -2      1375      6084       777
 -1     11278    7    0    1
 -2       344      6085      1416
 -1     11279    7    0    1
 -2      2869      6257      2871
 -1     11280    7    0    1
 -2      4474      3474      4471
 -1     11281    7    0    1
 -2      5684      6266      5683
 -1     11282    7    0    1
 -2      3552      6209      1582
 -1     11283    7    0    1
 -2      1690      6205      1692
 -1     11284    7    0    1
 -2      5583      6206      5586
 -1     11285    7    0    1
 -2      4773      6710      4266
 -1     11286    7    0    1
 -2      5673      6204      2160
 -1     11287    7    0    1
 -2      5962      6189      3370
 -1     11288    7    0    1
 -2      5961      6188      3238
 -1     11289    7    0    1
 -2      5963      6190      3519
 -1     11290    7    0    1
 -2      4923      6182      4921
 -1     11291    7    0    1
 -2      4959      6183      4961
 -1     11292    7    0    1
 -2      6062      7279      5029
 -1     11293    7    0    1
 -2      2886      6257      2872
 -1     11294    7    0    1
 -2      3248      6188      5961
 -1     11295    7    0    1
 -2      3380      6189      5962
 -1     11296    7    0    1
 -2      3530      6190      5963
 -1     11297    7    0    1
 -2       419      6268      1423
 -1     11298    7    0    1
 -2      2310      6085       345
 -1     11299    7    0    1
 -2       776      6084      2311
 -1     11300    7    0    1
 -2      5919      6203      2159
 -1     11301    7    0    1
 -2      1130      7250      4531
 -1     11302    7    0    1
 -2      3190      6184      6053
 -1     11303    7    0    1
 -2      1634      2105      1632
 -1     11304    7    0    1
 -2      1671      2106      1673
 -1     11305    7    0    1
 -2       720      6240      1601
 -1     11306    7    0    1
 -2       701      6278      2101
 -1     11307    7    0    1
 -2      3732      6211      3730
 -1     11308    7    0    1
 -2       401      6229       400
 -1     11309    7    0    1
 -2      5647      6228      5460
 -1     11310    7    0    1
 -2      1558      6212      4453
 -1     11311    7    0    1
 -2       708      6265      1938
 -1     11312    7    0    1
 -2      1546      6217      4821
 -1     11313    7    0    1
 -2      1547      6218      4822
 -1     11314    7    0    1
 -2      1545      6219      4820
 -1     11315    7    0    1
 -2      4318      6213      4316
 -1     11316    7    0    1
 -2      4226      6567      4227
 -1     11317    7    0    1
 -2      6701      6757      3198
 -1     11318    7    0    1
 -2      4420      6821      4601
 -1     11319    7    0    1
 -2      2999      6270      6234
 -1     11320    7    0    1
 -2      2533      6316      3009
 -1     11321    7    0    1
 -2      3010      6317      2535
 -1     11322    7    0    1
 -2      3776      6348      6261
 -1     11323    7    0    1
 -2      5922      6207      1347
 -1     11324    7    0    1
 -2      2173      6208      5923
 -1     11325    7    0    1
 -2      1940      6271       413
 -1     11326    7    0    1
 -2      6206      6232      5586
 -1     11327    7    0    1
 -2       430      6224       429
 -1     11328    7    0    1
 -2      6235      6269      2992
 -1     11329    7    0    1
 -2      5457      6225      5648
 -1     11330    7    0    1
 -2      5607      6380      6266
 -1     11331    7    0    1
 -2      5087      6223      4476
 -1     11332    7    0    1
 -2      5192      6323      5191
 -1     11333    7    0    1
 -2      1422      6278       702
 -1     11334    7    0    1
 -2      6053      6184      4492
 -1     11335    7    0    1
 -2      5046      6226      4298
 -1     11336    7    0    1
 -2      1673      1675      1674
 -1     11337    7    0    1
 -2      1635      1636      1634
 -1     11338    7    0    1
 -2      5088      7247      1378
 -1     11339    7    0    1
 -2       263      6222       264
 -1     11340    7    0    1
 -2      1446      6294       312
 -1     11341    7    0    1
 -2        67      6295      1393
 -1     11342    7    0    1
 -2       313      6294      2044
 -1     11343    7    0    1
 -2      2045      6295        66
 -1     11344    7    0    1
 -2      2000      6220      2020
 -1     11345    7    0    1
 -2      1976      6221      1956
 -1     11346    7    0    1
 -2      4251      6363      4534
 -1     11347    7    0    1
 -2       779      6103      1488
 -1     11348    7    0    1
 -2      1489      6102       342
 -1     11349    7    0    1
 -2      1611      6867      4770
 -1     11350    7    0    1
 -2      3571      6868      4771
 -1     11351    7    0    1
 -2      3570      6869      4772
 -1     11352    7    0    1
 -2      1730      6225      1705
 -1     11353    7    0    1
 -2      1467      6215      5891
 -1     11354    7    0    1
 -2      5890      6216      1394
 -1     11355    7    0    1
 -2      5982      6648      6122
 -1     11356    7    0    1
 -2      6121      6647      5983
 -1     11357    7    0    1
 -2      5609      6264      5590
 -1     11358    7    0    1
 -2      3736      6227      3734
 -1     11359    7    0    1
 -2      2661      6216      5890
 -1     11360    7    0    1
 -2      5891      6215      2662
 -1     11361    7    0    1
 -2       332      6283       333
 -1     11362    7    0    1
 -2        46      6284        47
 -1     11363    7    0    1
 -2      2290      7241      4565
 -1     11364    7    0    1
 -2      1667      6228      1729
 -1     11365    7    0    1
 -2      2166      6287      6055
 -1     11366    7    0    1
 -2      4424      7014      1631
 -1     11367    7    0    1
 -2      1488      1632        27
 -1     11368    7    0    1
 -2         3      1671      1489
 -1     11369    7    0    1
 -2      1673      1674      1672
 -1     11370    7    0    1
 -2      1633      1635      1634
 -1     11371    7    0    1
 -2      1635      6199      1407
 -1     11372    7    0    1
 -2      1728      6200      1674
 -1     11373    7    0    1
 -2       721      6240       720
 -1     11374    7    0    1
 -2      4935      6182      4923
 -1     11375    7    0    1
 -2      4961      6183      4973
 -1     11376    7    0    1
 -2      1996      6285      1994
 -1     11377    7    0    1
 -2      1950      6286      1952
 -1     11378    7    0    1
 -2      3740      6230      3737
 -1     11379    7    0    1
 -2      6518      6544      4928
 -1     11380    7    0    1
 -2      1511      6319      3052
 -1     11381    7    0    1
 -2      5878      6285      1996
 -1     11382    7    0    1
 -2      1952      6286      5879
 -1     11383    7    0    1
 -2      5586      6232      5608
 -1     11384    7    0    1
 -2      3543      7284      5463
 -1     11385    7    0    1
 -2      4375      6727      4377
 -1     11386    7    0    1
 -2      4966      6542      6521
 -1     11387    7    0    1
 -2       444      6237       443
 -1     11388    7    0    1
 -2      2811      6321      2810
 -1     11389    7    0    1
 -2      2820      6322      2821
 -1     11390    7    0    1
 -2      4047      6296      6264
 -1     11391    7    0    1
 -2      4712      7225       884
 -1     11392    7    0    1
 -2       341      6102      2068
 -1     11393    7    0    1
 -2      2067      6103       780
 -1     11394    7    0    1
 -2      5238      6386      3302
 -1     11395    7    0    1
 -2      5239      6387      3170
 -1     11396    7    0    1
 -2      6072      7008      4750
 -1     11397    7    0    1
 -2      1705      6292      1701
 -1     11398    7    0    1
 -2      1663      6293      1667
 -1     11399    7    0    1
 -2      3744      6236      3741
 -1     11400    7    0    1
 -2      6001      6262      4604
 -1     11401    7    0    1
 -2      4605      6263      6000
 -1     11402    7    0    1
 -2      2676      6337      2803
 -1     11403    7    0    1
 -2      2802      6336      2675
 -1     11404    7    0    1
 -2       678      6241       677
 -1     11405    7    0    1
 -2      5590      6264      5591
 -1     11406    7    0    1
 -2      6880      7290      4564
 -1     11407    7    0    1
 -2      6881      7291      4562
 -1     11408    7    0    1
 -2      6879      7289      4560
 -1     11409    7    0    1
 -2      5060      6239      5061
 -1     11410    7    0    1
 -2      3047      6288      3049
 -1     11411    7    0    1
 -2      3025      6289      3023
 -1     11412    7    0    1
 -2      3053      6288      3059
 -1     11413    7    0    1
 -2      3035      6289      3029
 -1     11414    7    0    1
 -2       572      6305      1591
 -1     11415    7    0    1
 -2       618      6306      1593
 -1     11416    7    0    1
 -2       526      6307      1592
 -1     11417    7    0    1
 -2      6232      6250      5608
 -1     11418    7    0    1
 -2      6747      6790      1303
 -1     11419    7    0    1
 -2      4031      6242      4033
 -1     11420    7    0    1
 -2      1823      6234      5870
 -1     11421    7    0    1
 -2      5871      6235      1831
 -1     11422    7    0    1
 -2      2254      6301      5863
 -1     11423    7    0    1
 -2      5459      6342      5461
 -1     11424    7    0    1
 -2      5864      5082      2253
 -1     11425    7    0    1
 -2      1597      6243       246
 -1     11426    7    0    1
 -2      1535      6273       758
 -1     11427    7    0    1
 -2       692      6247       691
 -1     11428    7    0    1
 -2      3881      6325      4614
 -1     11429    7    0    1
 -2      4825      6325      3883
 -1     11430    7    0    1
 -2      3748      6246      3746
 -1     11431    7    0    1
 -2      4290      7248      5905
 -1     11432    7    0    1
 -2       449      6312      1310
 -1     11433    7    0    1
 -2      1320      6313       672
 -1     11434    7    0    1
 -2      2023      6299      2091
 -1     11435    7    0    1
 -2      2097      6300      1979
 -1     11436    7    0    1
 -2      1576      7055      5623
 -1     11437    7    0    1
 -2      5458      6345      5456
 -1     11438    7    0    1
 -2      1448      7433      5408
 -1     11439    7    0    1
 -2       331      6259      1461
 -1     11440    7    0    1
 -2      1462      6260        48
 -1     11441    7    0    1
 -2      5539      6332      5540
 -1     11442    7    0    1
 -2      6098      7355      5667
 -1     11443    7    0    1
 -2      1671      1673      1672
 -1     11444    7    0    1
 -2      1633      1634      1632
 -1     11445    7    0    1
 -2      2721      7254      6341
 -1     11446    7    0    1
 -2      4981      5082      5864
 -1     11447    7    0    1
 -2      5863      6301      4985
 -1     11448    7    0    1
 -2      5927      6291      2909
 -1     11449    7    0    1
 -2      4654      6379      4649
 -1     11450    7    0    1
 -2      2207      6210      1636
 -1     11451    7    0    1
 -2      5390      5610      2531
 -1     11452    7    0    1
 -2      5063      6248      5065
 -1     11453    7    0    1
 -2      1893      6244      1732
 -1     11454    7    0    1
 -2      1736      6245      1894
 -1     11455    7    0    1
 -2      2078      6214      6213
 -1     11456    7    0    1
 -2      4666      6358      4658
 -1     11457    7    0    1
 -2      5107      6240      5105
 -1     11458    7    0    1
 -2      1562      6546      5237
 -1     11459    7    0    1
 -2      1488      1633      1632
 -1     11460    7    0    1
 -2      1671      1672      1489
 -1     11461    7    0    1
 -2      2681      6733      4831
 -1     11462    7    0    1
 -2      1452      6327       451
 -1     11463    7    0    1
 -2       670      6328      1451
 -1     11464    7    0    1
 -2      2980      6249      2679
 -1     11465    7    0    1
 -2       612      6334       611
 -1     11466    7    0    1
 -2       520      6335       519
 -1     11467    7    0    1
 -2      4600      6863      2456
 -1     11468    7    0    1
 -2      1492      7216      5605
 -1     11469    7    0    1
 -2      6095      6474      1751
 -1     11470    7    0    1
 -2      5608      6250      5609
 -1     11471    7    0    1
 -2      4813      6565      1497
 -1     11472    7    0    1
 -2      2978      6368      2719
 -1     11473    7    0    1
 -2      5615      6340       392
 -1     11474    7    0    1
 -2       391      6340      2412
 -1     11475    7    0    1
 -2      3752      6251      3750
 -1     11476    7    0    1
 -2      5045      6476      3012
 -1     11477    7    0    1
 -2      3013      6477      5044
 -1     11478    7    0    1
 -2      4879      6406      4880
 -1     11479    7    0    1
 -2      3518      6538      3517
 -1     11480    7    0    1
 -2      6237      6256       443
 -1     11481    7    0    1
 -2      2068      6136       340
 -1     11482    7    0    1
 -2       781      6135      2067
 -1     11483    7    0    1
 -2       679      6255       678
 -1     11484    7    0    1
 -2       443      6256       442
 -1     11485    7    0    1
 -2      5341      7210      3040
 -1     11486    7    0    1
 -2      3016      7211      5342
 -1     11487    7    0    1
 -2      6031      6314      4930
 -1     11488    7    0    1
 -2      4968      6315      6030
 -1     11489    7    0    1
 -2      1327      6329       698
 -1     11490    7    0    1
 -2       697      6329      2120
 -1     11491    7    0    1
 -2       678      6255      6241
 -1     11492    7    0    1
 -2      3754      6252      3752
 -1     11493    7    0    1
 -2      1488      6103      2677
 -1     11494    7    0    1
 -2      2678      6102      1489
 -1     11495    7    0    1
 -2      3752      6252      6251
 -1     11496    7    0    1
 -2      3064      6253      2654
 -1     11497    7    0    1
 -2      2657      6254      3062
 -1     11498    7    0    1
 -2      6138      7224      4694
 -1     11499    7    0    1
 -2      4869      6848      1359
 -1     11500    7    0    1
 -2      6196      7344      4140
 -1     11501    7    0    1
 -2      6375      6380      5606
 -1     11502    7    0    1
 -2      5021      6321      6299
 -1     11503    7    0    1
 -2      6300      6322      5019
 -1     11504    7    0    1
 -2      2720      6369      2979
 -1     11505    7    0    1
 -2      4581      7317      4335
 -1     11506    7    0    1
 -2      6242      6272      4033
 -1     11507    7    0    1
 -2      5069      6258      5071
 -1     11508    7    0    1
 -2      4342      6599      4343
 -1     11509    7    0    1
 -2      2992      6269      2991
 -1     11510    7    0    1
 -2      5105      6240       721
 -1     11511    7    0    1
 -2      4933      6356      4932
 -1     11512    7    0    1
 -2      4970      6357      4971
 -1     11513    7    0    1
 -2      2872      6257      2869
 -1     11514    7    0    1
 -2       219      6331       220
 -1     11515    7    0    1
 -2      2998      6270      2999
 -1     11516    7    0    1
 -2       709      6265       708
 -1     11517    7    0    1
 -2      5609      6272      6242
 -1     11518    7    0    1
 -2      2769      6923      4584
 -1     11519    7    0    1
 -2      4585      6924      2770
 -1     11520    7    0    1
 -2      3758      6261      3756
 -1     11521    7    0    1
 -2      5720      6297      6164
 -1     11522    7    0    1
 -2      6165      6298      5719
 -1     11523    7    0    1
 -2      3927      6382      3632
 -1     11524    7    0    1
 -2       413      6271       412
 -1     11525    7    0    1
 -2      5463      6384      3434
 -1     11526    7    0    1
 -2      1415      7111      4436
 -1     11527    7    0    1
 -2      4721      6731      6703
 -1     11528    7    0    1
 -2      5079      6348      5074
 -1     11529    7    0    1
 -2      2734      6362      2220
 -1     11530    7    0    1
 -2      4892      7163      3559
 -1     11531    7    0    1
 -2      3560      7164      4893
 -1     11532    7    0    1
 -2      4047      6264      6242
 -1     11533    7    0    1
 -2       420      6268       419
 -1     11534    7    0    1
 -2      2531      5610      6150
 -1     11535    7    0    1
 -2      2212      6362      2260
 -1     11536    7    0    1
 -2      5901      6338      2091
 -1     11537    7    0    1
 -2      2097      6339      5902
 -1     11538    7    0    1
 -2      4827      7185      1904
 -1     11539    7    0    1
 -2      2447      7188      4593
 -1     11540    7    0    1
 -2      1905      7189      4594
 -1     11541    7    0    1
 -2      2446      7186      4592
 -1     11542    7    0    1
 -2      4282      7190      1907
 -1     11543    7    0    1
 -2      1903      7187      4826
 -1     11544    7    0    1
 -2      4596      7191      2449
 -1     11545    7    0    1
 -2      4781      6892      2700
 -1     11546    7    0    1
 -2      4782      6893      2699
 -1     11547    7    0    1
 -2      4485      6892      2753
 -1     11548    7    0    1
 -2      4486      6893      2754
 -1     11549    7    0    1
 -2      4783      6894      2723
 -1     11550    7    0    1
 -2      4784      6895      2724
 -1     11551    7    0    1
 -2      2754      6896      4490
 -1     11552    7    0    1
 -2      4487      6894      2651
 -1     11553    7    0    1
 -2      4488      6895      2652
 -1     11554    7    0    1
 -2      1902      6896      4782
 -1     11555    7    0    1
 -2      2652      6897      4489
 -1     11556    7    0    1
 -2      4291      6897      4784
 -1     11557    7    0    1
 -2      2091      6338      2089
 -1     11558    7    0    1
 -2      2095      6339      2097
 -1     11559    7    0    1
 -2      4804      7056      2857
 -1     11560    7    0    1
 -2      4853      7050      3531
 -1     11561    7    0    1
 -2      6269      6282      2991
 -1     11562    7    0    1
 -2      1605      6374      4855
 -1     11563    7    0    1
 -2      2214      6267      2225
 -1     11564    7    0    1
 -2      6131      7114      1581
 -1     11565    7    0    1
 -2      5074      6360      5077
 -1     11566    7    0    1
 -2      3131      6351      3133
 -1     11567    7    0    1
 -2      3395      6350      3397
 -1     11568    7    0    1
 -2      3263      6352      3265
 -1     11569    7    0    1
 -2      1418      7234      4867
 -1     11570    7    0    1
 -2      5683      6266      4167
 -1     11571    7    0    1
 -2      1936      7205      5327
 -1     11572    7    0    1
 -2      2998      6281      6270
 -1     11573    7    0    1
 -2      1636      6210      1634
 -1     11574    7    0    1
 -2      4370      6552      4582
 -1     11575    7    0    1
 -2      4033      6272      4036
 -1     11576    7    0    1
 -2      2042      6638      5955
 -1     11577    7    0    1
 -2      5954      6639      2041
 -1     11578    7    0    1
 -2      1607      6276      3547
 -1     11579    7    0    1
 -2      5248      6413      5247
 -1     11580    7    0    1
 -2       452      6354      1452
 -1     11581    7    0    1
 -2      1451      6355       669
 -1     11582    7    0    1
 -2      5251      6412      5252
 -1     11583    7    0    1
 -2       423      6353      1329
 -1     11584    7    0    1
 -2      2119      6353       424
 -1     11585    7    0    1
 -2      2798      6274      2673
 -1     11586    7    0    1
 -2      2674      6275      2799
 -1     11587    7    0    1
 -2      3044      7210      4785
 -1     11588    7    0    1
 -2      4786      7211      3020
 -1     11589    7    0    1
 -2      4938      6314      4929
 -1     11590    7    0    1
 -2      4967      6315      4976
 -1     11591    7    0    1
 -2      6360      6366      5077
 -1     11592    7    0    1
 -2      1634      6210      2105
 -1     11593    7    0    1
 -2      6000      6263      2703
 -1     11594    7    0    1
 -2      2704      6262      6001
 -1     11595    7    0    1
 -2      2431      7174      4781
 -1     11596    7    0    1
 -2      6575      7250      1130
 -1     11597    7    0    1
 -2      4832      7424      2461
 -1     11598    7    0    1
 -2      2492      6269      5762
 -1     11599    7    0    1
 -2      5761      6270      2494
 -1     11600    7    0    1
 -2      2712      6412      5124
 -1     11601    7    0    1
 -2      5119      6413      2711
 -1     11602    7    0    1
 -2      2492      6282      6269
 -1     11603    7    0    1
 -2      4963      6389      5458
 -1     11604    7    0    1
 -2      5461      6388      4925
 -1     11605    7    0    1
 -2      6270      6281      2494
 -1     11606    7    0    1
 -2      6242      6264      5609
 -1     11607    7    0    1
 -2      6250      6272      5609
 -1     11608    7    0    1
 -2      5033      6279      1613
 -1     11609    7    0    1
 -2      5607      6697      1492
 -1     11610    7    0    1
 -2      4867      7234      3592
 -1     11611    7    0    1
 -2      1792      7035      3565
 -1     11612    7    0    1
 -2       702      6278       701
 -1     11613    7    0    1
 -2      4382      6281      2998
 -1     11614    7    0    1
 -2      2991      6282      4381
 -1     11615    7    0    1
 -2      2741      6374      2744
 -1     11616    7    0    1
 -2      3136      6351      3166
 -1     11617    7    0    1
 -2      3400      6350      3430
 -1     11618    7    0    1
 -2      3268      6352      3298
 -1     11619    7    0    1
 -2      1461      6283       332
 -1     11620    7    0    1
 -2        47      6284      1462
 -1     11621    7    0    1
 -2      6261      6348      5079
 -1     11622    7    0    1
 -2      1525      6364       454
 -1     11623    7    0    1
 -2       667      6365      1526
 -1     11624    7    0    1
 -2      4463      6277      3957
 -1     11625    7    0    1
 -2      2659      6371      2975
 -1     11626    7    0    1
 -2      2974      6372      2660
 -1     11627    7    0    1
 -2      2725      6920      4600
 -1     11628    7    0    1
 -2      2736      6920      4599
 -1     11629    7    0    1
 -2      6435      6818      4618
 -1     11630    7    0    1
 -2      1439      6367       165
 -1     11631    7    0    1
 -2       166      6367      2060
 -1     11632    7    0    1
 -2      6150      5610      3472
 -1     11633    7    0    1
 -2      2387      6383      2512
 -1     11634    7    0    1
 -2      5072      6376      5677
 -1     11635    7    0    1
 -2      3637      6382      3647
 -1     11636    7    0    1
 -2      2385      6383      2384
 -1     11637    7    0    1
 -2      5458      6389      6345
 -1     11638    7    0    1
 -2      6342      6388      5461
 -1     11639    7    0    1
 -2      4678      6407      4695
 -1     11640    7    0    1
 -2      2494      6281      3070
 -1     11641    7    0    1
 -2      3068      6282      2492
 -1     11642    7    0    1
 -2      1361      6390      4244
 -1     11643    7    0    1
 -2      5591      6296      5593
 -1     11644    7    0    1
 -2      1472      7253      4883
 -1     11645    7    0    1
 -2      5116      6377      5115
 -1     11646    7    0    1
 -2      5120      6378      5121
 -1     11647    7    0    1
 -2      4803      6396      1619
 -1     11648    7    0    1
 -2       382      7381       381
 -1     11649    7    0    1
 -2      6348      6360      5074
 -1     11650    7    0    1
 -2      5830      6681      3522
 -1     11651    7    0    1
 -2       884      7225      6650
 -1     11652    7    0    1
 -2      5679      6287      2166
 -1     11653    7    0    1
 -2      1891      6996      4831
 -1     11654    7    0    1
 -2      4167      6380      5680
 -1     11655    7    0    1
 -2      6423      7511      3122
 -1     11656    7    0    1
 -2      4310      7512      6426
 -1     11657    7    0    1
 -2      4289      7514      6425
 -1     11658    7    0    1
 -2      4294      7513      6427
 -1     11659    7    0    1
 -2      6428      7515      3121
 -1     11660    7    0    1
 -2      4856      6640      1302
 -1     11661    7    0    1
 -2      5229      6422      5546
 -1     11662    7    0    1
 -2      5476      6290      4540
 -1     11663    7    0    1
 -2      3632      6382      3634
 -1     11664    7    0    1
 -2      3125      6609      4815
 -1     11665    7    0    1
 -2      4816      6610      3126
 -1     11666    7    0    1
 -2      1994      6285      2014
 -1     11667    7    0    1
 -2      1970      6286      1950
 -1     11668    7    0    1
 -2      4140      6405      5484
 -1     11669    7    0    1
 -2      2842      6391      2840
 -1     11670    7    0    1
 -2      5528      7317      3853
 -1     11671    7    0    1
 -2      2857      7137      4804
 -1     11672    7    0    1
 -2      1560      6576      5685
 -1     11673    7    0    1
 -2      2066      6385       230
 -1     11674    7    0    1
 -2       231      6385      1305
 -1     11675    7    0    1
 -2       175      6381       176
 -1     11676    7    0    1
 -2      6564      7036       913
 -1     11677    7    0    1
 -2      3298      7320      6632
 -1     11678    7    0    1
 -2      3430      7318      6631
 -1     11679    7    0    1
 -2      3166      7319      6630
 -1     11680    7    0    1
 -2      3049      6288      3053
 -1     11681    7    0    1
 -2      3029      6289      3025
 -1     11682    7    0    1
 -2      4190      6405      4192
 -1     11683    7    0    1
 -2      3947      6408      3907
 -1     11684    7    0    1
 -2      2909      6291      2966
 -1     11685    7    0    1
 -2      6443      6652      3948
 -1     11686    7    0    1
 -2      5628      6296      4047
 -1     11687    7    0    1
 -2       312      6294       313
 -1     11688    7    0    1
 -2        66      6295        67
 -1     11689    7    0    1
 -2      1701      6292      1704
 -1     11690    7    0    1
 -2      1666      6293      1663
 -1     11691    7    0    1
 -2       704      6403       703
 -1     11692    7    0    1
 -2       418      6404       417
 -1     11693    7    0    1
 -2      6296      6303      5593
 -1     11694    7    0    1
 -2      5804      7219       196
 -1     11695    7    0    1
 -2      1310      6297      5720
 -1     11696    7    0    1
 -2      5719      6298      1320
 -1     11697    7    0    1
 -2      2691      6324      5156
 -1     11698    7    0    1
 -2      2125      6409       322
 -1     11699    7    0    1
 -2        57      6410      2126
 -1     11700    7    0    1
 -2      5593      6303      5595
 -1     11701    7    0    1
 -2      3367      6535      3366
 -1     11702    7    0    1
 -2      6492      6914      1379
 -1     11703    7    0    1
 -2      4333      6915      6490
 -1     11704    7    0    1
 -2      6752      6756      2256
 -1     11705    7    0    1
 -2      2232      6371      5971
 -1     11706    7    0    1
 -2      5972      6372      2233
 -1     11707    7    0    1
 -2      1526      6401       666
 -1     11708    7    0    1
 -2       455      6402      1525
 -1     11709    7    0    1
 -2      2893      6391      2845
 -1     11710    7    0    1
 -2      5246      6460      5245
 -1     11711    7    0    1
 -2      5249      6461      5250
 -1     11712    7    0    1
 -2      6491      6911      5924
 -1     11713    7    0    1
 -2      3129      7333      3252
 -1     11714    7    0    1
 -2      3393      7334      3534
 -1     11715    7    0    1
 -2      3261      7332      3384
 -1     11716    7    0    1
 -2       665      6401      1919
 -1     11717    7    0    1
 -2      1918      6402       456
 -1     11718    7    0    1
 -2      5628      6303      6296
 -1     11719    7    0    1
 -2      6285      6299      2014
 -1     11720    7    0    1
 -2      1970      6300      6286
 -1     11721    7    0    1
 -2       573      6305       572
 -1     11722    7    0    1
 -2       619      6306       618
 -1     11723    7    0    1
 -2       527      6307       526
 -1     11724    7    0    1
 -2      5951      6630      1504
 -1     11725    7    0    1
 -2      5953      6631      1503
 -1     11726    7    0    1
 -2      5949      6632      1499
 -1     11727    7    0    1
 -2      6106      6371      2232
 -1     11728    7    0    1
 -2      2233      6372      6107
 -1     11729    7    0    1
 -2      2828      6460      5430
 -1     11730    7    0    1
 -2      2172      6308      4174
 -1     11731    7    0    1
 -2      3542      6415      3423
 -1     11732    7    0    1
 -2      3257      6414      3159
 -1     11733    7    0    1
 -2      3389      6416      3291
 -1     11734    7    0    1
 -2      3323      6449      3309
 -1     11735    7    0    1
 -2      3191      6450      3177
 -1     11736    7    0    1
 -2      5191      6323      2685
 -1     11737    7    0    1
 -2      2014      6299      2023
 -1     11738    7    0    1
 -2      1979      6300      1970
 -1     11739    7    0    1
 -2      4056      6303      5628
 -1     11740    7    0    1
 -2      5273      6487      5275
 -1     11741    7    0    1
 -2      5285      6488      5287
 -1     11742    7    0    1
 -2      4935      7495      6182
 -1     11743    7    0    1
 -2      6183      7496      4973
 -1     11744    7    0    1
 -2       207      6411       208
 -1     11745    7    0    1
 -2      4883      7033      1389
 -1     11746    7    0    1
 -2      4624      7020      6120
 -1     11747    7    0    1
 -2      2737      6309      2740
 -1     11748    7    0    1
 -2      2749      6311      2752
 -1     11749    7    0    1
 -2      2745      6310      2748
 -1     11750    7    0    1
 -2      6587      7061      1135
 -1     11751    7    0    1
 -2      6588      7062       950
 -1     11752    7    0    1
 -2      3307      6449      4986
 -1     11753    7    0    1
 -2      3175      6450      4988
 -1     11754    7    0    1
 -2      5427      6461      2898
 -1     11755    7    0    1
 -2      3892      6443      5534
 -1     11756    7    0    1
 -2      5344      6403      5023
 -1     11757    7    0    1
 -2      5026      6404      5343
 -1     11758    7    0    1
 -2      4601      7249      1616
 -1     11759    7    0    1
 -2      4415      7217      6445
 -1     11760    7    0    1
 -2      6748      7340      4583
 -1     11761    7    0    1
 -2      1378      7247      6807
 -1     11762    7    0    1
 -2      4348      6431      4345
 -1     11763    7    0    1
 -2      6303      6320      5595
 -1     11764    7    0    1
 -2       450      6312       449
 -1     11765    7    0    1
 -2       672      6313       671
 -1     11766    7    0    1
 -2      4633      6944      4445
 -1     11767    7    0    1
 -2      3012      6316      2533
 -1     11768    7    0    1
 -2      2535      6317      3013
 -1     11769    7    0    1
 -2      6106      6392      6371
 -1     11770    7    0    1
 -2      6372      6393      6107
 -1     11771    7    0    1
 -2      4340      7196      6507
 -1     11772    7    0    1
 -2      4964      6420      4963
 -1     11773    7    0    1
 -2      4925      6421      4926
 -1     11774    7    0    1
 -2      4191      7296      6649
 -1     11775    7    0    1
 -2      4056      6320      6303
 -1     11776    7    0    1
 -2      1466      7209      4735
 -1     11777    7    0    1
 -2      4775      7481      2422
 -1     11778    7    0    1
 -2      4379      7067      4378
 -1     11779    7    0    1
 -2      3794      6442      3719
 -1     11780    7    0    1
 -2      3721      6442      3798
 -1     11781    7    0    1
 -2      6346      7301      2500
 -1     11782    7    0    1
 -2      6347      7302      2495
 -1     11783    7    0    1
 -2      5595      6320      5597
 -1     11784    7    0    1
 -2      4746      6664      4745
 -1     11785    7    0    1
 -2      2302      6972      6423
 -1     11786    7    0    1
 -2      6427      6975      2297
 -1     11787    7    0    1
 -2      6425      6973      2298
 -1     11788    7    0    1
 -2      6426      6974      2299
 -1     11789    7    0    1
 -2      2304      6976      6424
 -1     11790    7    0    1
 -2      3908      6443      3948
 -1     11791    7    0    1
 -2      3586      7509      3589
 -1     11792    7    0    1
 -2      6120      7020      3955
 -1     11793    7    0    1
 -2      6302      7321      4731
 -1     11794    7    0    1
 -2       427      6429      1332
 -1     11795    7    0    1
 -2      1391      6430       694
 -1     11796    7    0    1
 -2      1917      6429       428
 -1     11797    7    0    1
 -2       693      6430      1915
 -1     11798    7    0    1
 -2      3559      7163      1388
 -1     11799    7    0    1
 -2      1317      7164      3560
 -1     11800    7    0    1
 -2      7053      7297      3065
 -1     11801    7    0    1
 -2      2810      6321      5021
 -1     11802    7    0    1
 -2      5019      6322      2820
 -1     11803    7    0    1
 -2      6249      6995      1892
 -1     11804    7    0    1
 -2      3616      7311      6992
 -1     11805    7    0    1
 -2      6379      7419      4653
 -1     11806    7    0    1
 -2      2139      6432       684
 -1     11807    7    0    1
 -2       683      6432      1447
 -1     11808    7    0    1
 -2      4929      6314      6031
 -1     11809    7    0    1
 -2      6030      6315      4967
 -1     11810    7    0    1
 -2      3589      7509      3585
 -1     11811    7    0    1
 -2      1915      7184      5037
 -1     11812    7    0    1
 -2      5564      6441      5566
 -1     11813    7    0    1
 -2      5643      6320      4056
 -1     11814    7    0    1
 -2      3040      6436      5341
 -1     11815    7    0    1
 -2      5342      6437      3016
 -1     11816    7    0    1
 -2      1919      6433       664
 -1     11817    7    0    1
 -2       457      6434      1918
 -1     11818    7    0    1
 -2      5261      6520      5263
 -1     11819    7    0    1
 -2       451      6327       450
 -1     11820    7    0    1
 -2       671      6328       670
 -1     11821    7    0    1
 -2      5563      6439      5561
 -1     11822    7    0    1
 -2       450      6327      6312
 -1     11823    7    0    1
 -2      6313      6328       671
 -1     11824    7    0    1
 -2      3883      6325      3881
 -1     11825    7    0    1
 -2      3027      6318      3028
 -1     11826    7    0    1
 -2      3052      6319      3051
 -1     11827    7    0    1
 -2      5709      6887      4457
 -1     11828    7    0    1
 -2      4865      7073      3250
 -1     11829    7    0    1
 -2      4866      7074      3382
 -1     11830    7    0    1
 -2      6164      6301      2254
 -1     11831    7    0    1
 -2      2253      5082      6165
 -1     11832    7    0    1
 -2       181      6438      1548
 -1     11833    7    0    1
 -2      2961      6485      5292
 -1     11834    7    0    1
 -2       155      6444      1463
 -1     11835    7    0    1
 -2      2057      6444       154
 -1     11836    7    0    1
 -2      3576      6394      3577
 -1     11837    7    0    1
 -2       214      6448      1440
 -1     11838    7    0    1
 -2      2061      6448       213
 -1     11839    7    0    1
 -2       698      6329       697
 -1     11840    7    0    1
 -2      5790      7115      5114
 -1     11841    7    0    1
 -2      1621      6446       459
 -1     11842    7    0    1
 -2       662      6447      1620
 -1     11843    7    0    1
 -2      5643      6330      6320
 -1     11844    7    0    1
 -2      2280      7008      6474
 -1     11845    7    0    1
 -2      6100      6782      1449
 -1     11846    7    0    1
 -2       757      7325       756
 -1     11847    7    0    1
 -2      4836      6883      1614
 -1     11848    7    0    1
 -2      5271      6487      5270
 -1     11849    7    0    1
 -2      5283      6488      5282
 -1     11850    7    0    1
 -2      4963      6420      6389
 -1     11851    7    0    1
 -2      6388      6421      4925
 -1     11852    7    0    1
 -2      2675      6336      5348
 -1     11853    7    0    1
 -2      5346      6337      2676
 -1     11854    7    0    1
 -2      5186      7529      1515
 -1     11855    7    0    1
 -2      5177      7530      1516
 -1     11856    7    0    1
 -2      3965      6568      3897
 -1     11857    7    0    1
 -2      5168      7531      1514
 -1     11858    7    0    1
 -2      3459      6774      4841
 -1     11859    7    0    1
 -2      6320      6330      5597
 -1     11860    7    0    1
 -2      5562      6439      6119
 -1     11861    7    0    1
 -2      6283      7495      4935
 -1     11862    7    0    1
 -2      4973      7496      6284
 -1     11863    7    0    1
 -2      5597      6330      5599
 -1     11864    7    0    1
 -2       220      6331      1450
 -1     11865    7    0    1
 -2      6124      6441      5565
 -1     11866    7    0    1
 -2       425      6453      2119
 -1     11867    7    0    1
 -2      2120      6454       696
 -1     11868    7    0    1
 -2      1332      6453       426
 -1     11869    7    0    1
 -2       695      6454      1391
 -1     11870    7    0    1
 -2      3001      6436      2694
 -1     11871    7    0    1
 -2      2688      6437      3002
 -1     11872    7    0    1
 -2      4793      6483      2716
 -1     11873    7    0    1
 -2      2718      6484      4796
 -1     11874    7    0    1
 -2      4312      6641      4311
 -1     11875    7    0    1
 -2      4131      6330      5643
 -1     11876    7    0    1
 -2      3852      6332      5539
 -1     11877    7    0    1
 -2      4837      7423      4407
 -1     11878    7    0    1
 -2      4871      6569      5361
 -1     11879    7    0    1
 -2       437      6455      2137
 -1     11880    7    0    1
 -2      1448      6455       438
 -1     11881    7    0    1
 -2      4527      6687      4422
 -1     11882    7    0    1
 -2       207      6715      6411
 -1     11883    7    0    1
 -2      1493      6438       180
 -1     11884    7    0    1
 -2      3011      6506      2888
 -1     11885    7    0    1
 -2      2696      6436      3040
 -1     11886    7    0    1
 -2      3016      6437      2690
 -1     11887    7    0    1
 -2       392      6340       391
 -1     11888    7    0    1
 -2      2714      6517      5372
 -1     11889    7    0    1
 -2      4872      6509      2903
 -1     11890    7    0    1
 -2      1725      6334       612
 -1     11891    7    0    1
 -2      1724      6335       520
 -1     11892    7    0    1
 -2      2971      6508      2831
 -1     11893    7    0    1
 -2      2901      6509      2970
 -1     11894    7    0    1
 -2      2833      6508      4870
 -1     11895    7    0    1
 -2       975      6341       974
 -1     11896    7    0    1
 -2      4002      6479      4000
 -1     11897    7    0    1
 -2      1583      6463       101
 -1     11898    7    0    1
 -2       278      6464      1584
 -1     11899    7    0    1
 -2      5413      6513      5414
 -1     11900    7    0    1
 -2      5411      6514      5412
 -1     11901    7    0    1
 -2      3592      7234      6565
 -1     11902    7    0    1
 -2      4946      6457      4968
 -1     11903    7    0    1
 -2      5236      6513      3369
 -1     11904    7    0    1
 -2      5235      6514      3237
 -1     11905    7    0    1
 -2      4603      6471      1473
 -1     11906    7    0    1
 -2      2089      6338      2232
 -1     11907    7    0    1
 -2      2233      6339      2095
 -1     11908    7    0    1
 -2       174      6466       175
 -1     11909    7    0    1
 -2      5185      7529      5186
 -1     11910    7    0    1
 -2      5176      7530      5177
 -1     11911    7    0    1
 -2      3324      6561      5209
 -1     11912    7    0    1
 -2      3192      6562      5216
 -1     11913    7    0    1
 -2      5167      7531      5168
 -1     11914    7    0    1
 -2      5139      6525      4691
 -1     11915    7    0    1
 -2      4131      6344      6330
 -1     11916    7    0    1
 -2      2962      6551      5243
 -1     11917    7    0    1
 -2      6330      6344      5599
 -1     11918    7    0    1
 -2      5244      6553      2889
 -1     11919    7    0    1
 -2      5599      6344      5602
 -1     11920    7    0    1
 -2      5259      6520      5258
 -1     11921    7    0    1
 -2      5371      6516      2713
 -1     11922    7    0    1
 -2       460      6472      1621
 -1     11923    7    0    1
 -2      5456      6345      5457
 -1     11924    7    0    1
 -2      1620      6473       661
 -1     11925    7    0    1
 -2      5460      6342      5459
 -1     11926    7    0    1
 -2      4799      7231      3903
 -1     11927    7    0    1
 -2      6830      7162      2953
 -1     11928    7    0    1
 -2      5047      6945      3063
 -1     11929    7    0    1
 -2      5404      7425      1447
 -1     11930    7    0    1
 -2      6124      6857      1538
 -1     11931    7    0    1
 -2      5359      6545      2907
 -1     11932    7    0    1
 -2      3064      7297      4806
 -1     11933    7    0    1
 -2      4964      6467      6420
 -1     11934    7    0    1
 -2      6421      6468      4926
 -1     11935    7    0    1
 -2      1539      6858      6119
 -1     11936    7    0    1
 -2       891      6346       890
 -1     11937    7    0    1
 -2      1076      6347      1075
 -1     11938    7    0    1
 -2      5670      6344      4131
 -1     11939    7    0    1
 -2      5486      6468      5894
 -1     11940    7    0    1
 -2      5528      7233      4281
 -1     11941    7    0    1
 -2       567      6478       566
 -1     11942    7    0    1
 -2      2766      6481      4537
 -1     11943    7    0    1
 -2      4536      6480      2761
 -1     11944    7    0    1
 -2      5415      6546      5416
 -1     11945    7    0    1
 -2      5893      6467      5485
 -1     11946    7    0    1
 -2      4704      7287      2427
 -1     11947    7    0    1
 -2      5368      6524      5201
 -1     11948    7    0    1
 -2      2905      6545      4872
 -1     11949    7    0    1
 -2      5237      6546      3520
 -1     11950    7    0    1
 -2      5512      6349      1352
 -1     11951    7    0    1
 -2       286      6504      1381
 -1     11952    7    0    1
 -2      1380      6505        93
 -1     11953    7    0    1
 -2       424      6353       423
 -1     11954    7    0    1
 -2      6584      7201      3308
 -1     11955    7    0    1
 -2      6583      7200      3176
 -1     11956    7    0    1
 -2      5602      6359      5604
 -1     11957    7    0    1
 -2      5613      6706      5584
 -1     11958    7    0    1
 -2       659      6493      1799
 -1     11959    7    0    1
 -2       453      6354       452
 -1     11960    7    0    1
 -2       669      6355       668
 -1     11961    7    0    1
 -2      1722      6494       462
 -1     11962    7    0    1
 -2        94      6505      1444
 -1     11963    7    0    1
 -2      1445      6504       285
 -1     11964    7    0    1
 -2      4526      6495      2732
 -1     11965    7    0    1
 -2      2730      6496      4525
 -1     11966    7    0    1
 -2      3133      6351      3136
 -1     11967    7    0    1
 -2      3397      6350      3400
 -1     11968    7    0    1
 -2      3265      6352      3268
 -1     11969    7    0    1
 -2      3034      6511      3032
 -1     11970    7    0    1
 -2      3056      6512      3058
 -1     11971    7    0    1
 -2      6344      6359      5602
 -1     11972    7    0    1
 -2      3654      6531      3805
 -1     11973    7    0    1
 -2      3916      6531      3652
 -1     11974    7    0    1
 -2      4777      7347      2937
 -1     11975    7    0    1
 -2      2210      6605      4284
 -1     11976    7    0    1
 -2      5195      6519      5198
 -1     11977    7    0    1
 -2      4857      6921      1612
 -1     11978    7    0    1
 -2      4858      6922      1615
 -1     11979    7    0    1
 -2      5670      6359      6344
 -1     11980    7    0    1
 -2      6810      7391      3590
 -1     11981    7    0    1
 -2      4658      6358      4657
 -1     11982    7    0    1
 -2      4937      6356      4933
 -1     11983    7    0    1
 -2      4971      6357      4975
 -1     11984    7    0    1
 -2      5743      6741      6022
 -1     11985    7    0    1
 -2      6023      6742      5745
 -1     11986    7    0    1
 -2      6118      6348      3776
 -1     11987    7    0    1
 -2       718      6458       717
 -1     11988    7    0    1
 -2       404      6459       403
 -1     11989    7    0    1
 -2      4830      7171      3116
 -1     11990    7    0    1
 -2      4823      7223      4655
 -1     11991    7    0    1
 -2      2963      6603      5323
 -1     11992    7    0    1
 -2      2719      6368      5371
 -1     11993    7    0    1
 -2      5541      6543      4756
 -1     11994    7    0    1
 -2      5358      6577      5359
 -1     11995    7    0    1
 -2      5357      6577      5356
 -1     11996    7    0    1
 -2      4884      6644      5316
 -1     11997    7    0    1
 -2      4885      6645      5317
 -1     11998    7    0    1
 -2      1304      6795      5959
 -1     11999    7    0    1
 -2      5362      6561      3325
 -1     12000    7    0    1
 -2      5364      6562      3193
 -1     12001    7    0    1
 -2       453      6364      6354
 -1     12002    7    0    1
 -2      6355      6365       668
 -1     12003    7    0    1
 -2      5604      6375      5606
 -1     12004    7    0    1
 -2      6359      6375      5604
 -1     12005    7    0    1
 -2       454      6364       453
 -1     12006    7    0    1
 -2       668      6365       667
 -1     12007    7    0    1
 -2      2220      6362      2212
 -1     12008    7    0    1
 -2      4144      6359      5670
 -1     12009    7    0    1
 -2      6022      6741      1530
 -1     12010    7    0    1
 -2      1529      6742      6023
 -1     12011    7    0    1
 -2      4244      6543      1360
 -1     12012    7    0    1
 -2      5372      6369      2720
 -1     12013    7    0    1
 -2      4236      6539      2172
 -1     12014    7    0    1
 -2      3938      6366      6360
 -1     12015    7    0    1
 -2      4543      6736      3476
 -1     12016    7    0    1
 -2      6118      6360      6348
 -1     12017    7    0    1
 -2      4156      6552      4155
 -1     12018    7    0    1
 -2       165      6367       166
 -1     12019    7    0    1
 -2      5351      6569      5352
 -1     12020    7    0    1
 -2      4240      6370      4239
 -1     12021    7    0    1
 -2      5695      6366      3938
 -1     12022    7    0    1
 -2       463      6526      1722
 -1     12023    7    0    1
 -2       657      6529      1944
 -1     12024    7    0    1
 -2      1799      6529       658
 -1     12025    7    0    1
 -2       160      6532       161
 -1     12026    7    0    1
 -2      1666      6388      6342
 -1     12027    7    0    1
 -2      6345      6389      1704
 -1     12028    7    0    1
 -2      4649      6379      4653
 -1     12029    7    0    1
 -2      6062      6567      2049
 -1     12030    7    0    1
 -2      3485      6497      3484
 -1     12031    7    0    1
 -2       295      6556      1485
 -1     12032    7    0    1
 -2      1484      6557        84
 -1     12033    7    0    1
 -2      4144      6375      6359
 -1     12034    7    0    1
 -2       333      6549       334
 -1     12035    7    0    1
 -2        45      6550        46
 -1     12036    7    0    1
 -2      5241      6619      2890
 -1     12037    7    0    1
 -2      5352      6608      2891
 -1     12038    7    0    1
 -2      4519      6548      6074
 -1     12039    7    0    1
 -2      4267      6373      2721
 -1     12040    7    0    1
 -2       134      6541       135
 -1     12041    7    0    1
 -2      3377      6601      5505
 -1     12042    7    0    1
 -2      3245      6602      5506
 -1     12043    7    0    1
 -2      5495      6573      5497
 -1     12044    7    0    1
 -2      1743      6540       465
 -1     12045    7    0    1
 -2      3938      6360      6118
 -1     12046    7    0    1
 -2      4930      6469      4908
 -1     12047    7    0    1
 -2      2919      6620      5369
 -1     12048    7    0    1
 -2      4409      6534      4408
 -1     12049    7    0    1
 -2      3561      6374      1605
 -1     12050    7    0    1
 -2      2677      6581      6572
 -1     12051    7    0    1
 -2      6571      6580      2678
 -1     12052    7    0    1
 -2      5115      6377      5118
 -1     12053    7    0    1
 -2      5123      6378      5120
 -1     12054    7    0    1
 -2      5027      6613      1491
 -1     12055    7    0    1
 -2      1490      6614      5024
 -1     12056    7    0    1
 -2      3200      6645      5365
 -1     12057    7    0    1
 -2      3332      6644      5363
 -1     12058    7    0    1
 -2      5680      6375      4144
 -1     12059    7    0    1
 -2      5551      6599      3837
 -1     12060    7    0    1
 -2      6474      7459      4852
 -1     12061    7    0    1
 -2      2422      7481      6361
 -1     12062    7    0    1
 -2      1661      6518      5486
 -1     12063    7    0    1
 -2      5669      6376      5072
 -1     12064    7    0    1
 -2      5485      6521      1699
 -1     12065    7    0    1
 -2      5971      6371      2659
 -1     12066    7    0    1
 -2      2660      6372      5972
 -1     12067    7    0    1
 -2       655      6563      1556
 -1     12068    7    0    1
 -2      5715      6602      2179
 -1     12069    7    0    1
 -2      5713      6601      2187
 -1     12070    7    0    1
 -2      3909      6579      4825
 -1     12071    7    0    1
 -2      1944      6563       656
 -1     12072    7    0    1
 -2      3951      6579      3911
 -1     12073    7    0    1
 -2      5942      7501      1444
 -1     12074    7    0    1
 -2      1445      7502      5947
 -1     12075    7    0    1
 -2      6370      6915      4333
 -1     12076    7    0    1
 -2      4555      7409      3949
 -1     12077    7    0    1
 -2      5012      6595      5011
 -1     12078    7    0    1
 -2      5499      7498      5046
 -1     12079    7    0    1
 -2       582      6927      5301
 -1     12080    7    0    1
 -2       536      6926      5315
 -1     12081    7    0    1
 -2       628      6925      5308
 -1     12082    7    0    1
 -2      6589      7322      1906
 -1     12083    7    0    1
 -2      4208      6611      4203
 -1     12084    7    0    1
 -2      5839      6533      6086
 -1     12085    7    0    1
 -2       242      6576      1560
 -1     12086    7    0    1
 -2      2056      6576       241
 -1     12087    7    0    1
 -2      2250      6582       467
 -1     12088    7    0    1
 -2      5078      6595      5054
 -1     12089    7    0    1
 -2      6607      7405      4700
 -1     12090    7    0    1
 -2      6782      6889      1449
 -1     12091    7    0    1
 -2      4402      7100      5471
 -1     12092    7    0    1
 -2      3173      6583      3176
 -1     12093    7    0    1
 -2      3305      6584      3308
 -1     12094    7    0    1
 -2      3111      6673      6484
 -1     12095    7    0    1
 -2      6483      6672      3109
 -1     12096    7    0    1
 -2       653      6604      5646
 -1     12097    7    0    1
 -2       466      6582      1743
 -1     12098    7    0    1
 -2      4510      7226      6148
 -1     12099    7    0    1
 -2      6149      7227      4511
 -1     12100    7    0    1
 -2      3528      6643      5504
 -1     12101    7    0    1
 -2       110      6596       111
 -1     12102    7    0    1
 -2       268      6597       269
 -1     12103    7    0    1
 -2      3530      6530      6190
 -1     12104    7    0    1
 -2       176      6381      2063
 -1     12105    7    0    1
 -2      6665      6960      4347
 -1     12106    7    0    1
 -2      3634      6382      3637
 -1     12107    7    0    1
 -2      6287      6699      6055
 -1     12108    7    0    1
 -2      3947      6875      6408
 -1     12109    7    0    1
 -2      2384      6383      2387
 -1     12110    7    0    1
 -2      5486      6518      6468
 -1     12111    7    0    1
 -2      1556      6604       654
 -1     12112    7    0    1
 -2       439      6609      1448
 -1     12113    7    0    1
 -2      1447      6610       682
 -1     12114    7    0    1
 -2       230      6385       231
 -1     12115    7    0    1
 -2      3869      6636      3953
 -1     12116    7    0    1
 -2      6243      6653       247
 -1     12117    7    0    1
 -2      3593      6398      3587
 -1     12118    7    0    1
 -2      5492      6390      1361
 -1     12119    7    0    1
 -2      2945      6600      2948
 -1     12120    7    0    1
 -2      5714      6643      2191
 -1     12121    7    0    1
 -2      3434      6384      3462
 -1     12122    7    0    1
 -2      3302      6386      3381
 -1     12123    7    0    1
 -2      3170      6387      3249
 -1     12124    7    0    1
 -2      3977      6618      3980
 -1     12125    7    0    1
 -2      4191      6649      5450
 -1     12126    7    0    1
 -2      1491      6613       415
 -1     12127    7    0    1
 -2       706      6614      1490
 -1     12128    7    0    1
 -2      6467      6521      5485
 -1     12129    7    0    1
 -2      3577      6394      4802
 -1     12130    7    0    1
 -2       116      6628      2230
 -1     12131    7    0    1
 -2      1409      6622       112
 -1     12132    7    0    1
 -2       267      6623      1740
 -1     12133    7    0    1
 -2      4852      6702      3994
 -1     12134    7    0    1
 -2      2136      6628       115
 -1     12135    7    0    1
 -2       414      6613      1940
 -1     12136    7    0    1
 -2      1938      6614       707
 -1     12137    7    0    1
 -2      2845      6391      2842
 -1     12138    7    0    1
 -2      4613      7217      4366
 -1     12139    7    0    1
 -2       131      6621       132
 -1     12140    7    0    1
 -2      4561      7431      7273
 -1     12141    7    0    1
 -2      4563      7432      7272
 -1     12142    7    0    1
 -2      4559      7430      7271
 -1     12143    7    0    1
 -2      5775      6384      1922
 -1     12144    7    0    1
 -2      5048      6945      5047
 -1     12145    7    0    1
 -2      3079      7167      6826
 -1     12146    7    0    1
 -2      3073      7168      6827
 -1     12147    7    0    1
 -2      1666      6342      6293
 -1     12148    7    0    1
 -2      6148      7226      1329
 -1     12149    7    0    1
 -2      1327      7227      6149
 -1     12150    7    0    1
 -2      4384      6503      4383
 -1     12151    7    0    1
 -2      6292      6345      1704
 -1     12152    7    0    1
 -2      5809      6386      1921
 -1     12153    7    0    1
 -2      5776      6387      1925
 -1     12154    7    0    1
 -2      6002      6388      1666
 -1     12155    7    0    1
 -2      1704      6389      6003
 -1     12156    7    0    1
 -2      4682      6407      4678
 -1     12157    7    0    1
 -2      1675      6554      2206
 -1     12158    7    0    1
 -2      3077      6660      4776
 -1     12159    7    0    1
 -2      3000      6606      2920
 -1     12160    7    0    1
 -2      3248      6558      6188
 -1     12161    7    0    1
 -2      3380      6559      6189
 -1     12162    7    0    1
 -2      4189      6649      4245
 -1     12163    7    0    1
 -2      1353      6400      1355
 -1     12164    7    0    1
 -2      4928      6544      5224
 -1     12165    7    0    1
 -2      6675      6731      4722
 -1     12166    7    0    1
 -2      2143      6864      4795
 -1     12167    7    0    1
 -2      4798      6865      2144
 -1     12168    7    0    1
 -2      2126      6495      5995
 -1     12169    7    0    1
 -2      5994      6496      2125
 -1     12170    7    0    1
 -2      2385      7424      4832
 -1     12171    7    0    1
 -2      3012      7128      6316
 -1     12172    7    0    1
 -2      6317      7129      3013
 -1     12173    7    0    1
 -2       389      7356         7
 -1     12174    7    0    1
 -2        23      7359       732
 -1     12175    7    0    1
 -2      5457      6345      6292
 -1     12176    7    0    1
 -2      3587      6398      4867
 -1     12177    7    0    1
 -2      1343      6718      5981
 -1     12178    7    0    1
 -2      5980      6719      1344
 -1     12179    7    0    1
 -2      2229      6666      2466
 -1     12180    7    0    1
 -2      6293      6342      5460
 -1     12181    7    0    1
 -2      5252      6412      2712
 -1     12182    7    0    1
 -2      2711      6413      5248
 -1     12183    7    0    1
 -2      2735      6666      2227
 -1     12184    7    0    1
 -2      5357      6740      6604
 -1     12185    7    0    1
 -2      5596      6655      5667
 -1     12186    7    0    1
 -2       248      6653      1576
 -1     12187    7    0    1
 -2      7024      7359      6418
 -1     12188    7    0    1
 -2      4739      6674      4738
 -1     12189    7    0    1
 -2       730      6664       729
 -1     12190    7    0    1
 -2       406      6657       405
 -1     12191    7    0    1
 -2       716      6658       715
 -1     12192    7    0    1
 -2       666      6401       665
 -1     12193    7    0    1
 -2       456      6402       455
 -1     12194    7    0    1
 -2      5484      6405      4190
 -1     12195    7    0    1
 -2      5007      6392      6106
 -1     12196    7    0    1
 -2      6107      6393      5004
 -1     12197    7    0    1
 -2      5227      6542      4966
 -1     12198    7    0    1
 -2      4340      6400      1842
 -1     12199    7    0    1
 -2      1356      6651      5803
 -1     12200    7    0    1
 -2      5443      6406      2887
 -1     12201    7    0    1
 -2      4119      6682      4098
 -1     12202    7    0    1
 -2      5537      6687      3645
 -1     12203    7    0    1
 -2      4274      7369      3081
 -1     12204    7    0    1
 -2      3080      7368      4268
 -1     12205    7    0    1
 -2      4293      7370      3084
 -1     12206    7    0    1
 -2      4320      7371      3085
 -1     12207    7    0    1
 -2      6042      6651      6041
 -1     12208    7    0    1
 -2      5107      7110      3034
 -1     12209    7    0    1
 -2      4225      6677      4223
 -1     12210    7    0    1
 -2      4094      6682      4093
 -1     12211    7    0    1
 -2      3907      6408      5545
 -1     12212    7    0    1
 -2      5622      6653      6243
 -1     12213    7    0    1
 -2       621      6661      1515
 -1     12214    7    0    1
 -2       529      6662      1516
 -1     12215    7    0    1
 -2       575      6663      1514
 -1     12216    7    0    1
 -2       703      6403      1422
 -1     12217    7    0    1
 -2      1423      6404       418
 -1     12218    7    0    1
 -2      1459      6913      4815
 -1     12219    7    0    1
 -2      4816      6912      1460
 -1     12220    7    0    1
 -2      6419      7356      7011
 -1     12221    7    0    1
 -2      5674      6669      5673
 -1     12222    7    0    1
 -2      4402      7314      4400
 -1     12223    7    0    1
 -2      6687      7088      4422
 -1     12224    7    0    1
 -2       365      6765      6527
 -1     12225    7    0    1
 -2      6528      6766       751
 -1     12226    7    0    1
 -2      5897      6839      6209
 -1     12227    7    0    1
 -2      4277      6686      4278
 -1     12228    7    0    1
 -2       322      6409       323
 -1     12229    7    0    1
 -2        56      6410        57
 -1     12230    7    0    1
 -2      4314      6688      4315
 -1     12231    7    0    1
 -2      6833      7057      4494
 -1     12232    7    0    1
 -2      6122      6648      2684
 -1     12233    7    0    1
 -2      2683      6647      6121
 -1     12234    7    0    1
 -2      4662      6640      4664
 -1     12235    7    0    1
 -2      2355      6675      2356
 -1     12236    7    0    1
 -2       208      6411      2065
 -1     12237    7    0    1
 -2      6533      7114      6086
 -1     12238    7    0    1
 -2      1594      7298      5157
 -1     12239    7    0    1
 -2      5096      7353      2503
 -1     12240    7    0    1
 -2      2504      7354      5097
 -1     12241    7    0    1
 -2      3918      6694      3958
 -1     12242    7    0    1
 -2      1882      6904      4351
 -1     12243    7    0    1
 -2      6632      7320      4546
 -1     12244    7    0    1
 -2      6631      7318      4545
 -1     12245    7    0    1
 -2      6630      7319      4544
 -1     12246    7    0    1
 -2      2106      6554      1673
 -1     12247    7    0    1
 -2      4819      7215      2976
 -1     12248    7    0    1
 -2      4226      6850      6567
 -1     12249    7    0    1
 -2      3159      6414      3260
 -1     12250    7    0    1
 -2      3423      6415      3546
 -1     12251    7    0    1
 -2      3291      6416      3392
 -1     12252    7    0    1
 -2      3007      6574      6018
 -1     12253    7    0    1
 -2      6100      6705      3951
 -1     12254    7    0    1
 -2      2990      6684      5625
 -1     12255    7    0    1
 -2      5626      6683      2997
 -1     12256    7    0    1
 -2      3058      7115      5790
 -1     12257    7    0    1
 -2      3392      7429      4820
 -1     12258    7    0    1
 -2      3546      7427      4821
 -1     12259    7    0    1
 -2      3260      7428      4822
 -1     12260    7    0    1
 -2      5192      7288      1595
 -1     12261    7    0    1
 -2      5037      7184      3103
 -1     12262    7    0    1
 -2      3477      7048      4391
 -1     12263    7    0    1
 -2      6266      6380      4167
 -1     12264    7    0    1
 -2       128      6693       129
 -1     12265    7    0    1
 -2      4430      6627      4429
 -1     12266    7    0    1
 -2      1324      7242      4881
 -1     12267    7    0    1
 -2      4882      7243      1325
 -1     12268    7    0    1
 -2      3166      6630      6076
 -1     12269    7    0    1
 -2      3430      6631      1328
 -1     12270    7    0    1
 -2      3298      6632      1326
 -1     12271    7    0    1
 -2      1325      6955      4977
 -1     12272    7    0    1
 -2      5227      6594      6542
 -1     12273    7    0    1
 -2      4726      6978      4377
 -1     12274    7    0    1
 -2      6002      6421      6388
 -1     12275    7    0    1
 -2      6389      6420      6003
 -1     12276    7    0    1
 -2       240      6697      2056
 -1     12277    7    0    1
 -2      1492      6697       239
 -1     12278    7    0    1
 -2      4829      6652      6443
 -1     12279    7    0    1
 -2      1424      6698       236
 -1     12280    7    0    1
 -2      4237      6747      5229
 -1     12281    7    0    1
 -2      2976      7375      4819
 -1     12282    7    0    1
 -2      6087      6654      2103
 -1     12283    7    0    1
 -2      2133      6709      2261
 -1     12284    7    0    1
 -2      5581      6706      5580
 -1     12285    7    0    1
 -2      2265      6709      2027
 -1     12286    7    0    1
 -2      5221      6750      5222
 -1     12287    7    0    1
 -2      5219      6751      5220
 -1     12288    7    0    1
 -2      1358      6699      4533
 -1     12289    7    0    1
 -2      5788      6798      3432
 -1     12290    7    0    1
 -2      5784      6799      3300
 -1     12291    7    0    1
 -2      5786      6797      3168
 -1     12292    7    0    1
 -2      5209      7040      1555
 -1     12293    7    0    1
 -2      5216      7041      1554
 -1     12294    7    0    1
 -2      5008      6785      3425
 -1     12295    7    0    1
 -2      1309      6930      5559
 -1     12296    7    0    1
 -2      2046      6469      6007
 -1     12297    7    0    1
 -2      1687      6707      1689
 -1     12298    7    0    1
 -2      5546      6422      4247
 -1     12299    7    0    1
 -2      2062      6699      6287
 -1     12300    7    0    1
 -2      6411      6715      1441
 -1     12301    7    0    1
 -2      2796      6476      5045
 -1     12302    7    0    1
 -2      5044      6477      2797
 -1     12303    7    0    1
 -2      3069      6851      5997
 -1     12304    7    0    1
 -2      5996      6852      3071
 -1     12305    7    0    1
 -2      4851      6474      4852
 -1     12306    7    0    1
 -2      1463      6705       156
 -1     12307    7    0    1
 -2       428      6429       427
 -1     12308    7    0    1
 -2       694      6430       693
 -1     12309    7    0    1
 -2      3075      6946      4628
 -1     12310    7    0    1
 -2      2982      7476      6995
 -1     12311    7    0    1
 -2      2702      7187      3117
 -1     12312    7    0    1
 -2      3119      7185      2301
 -1     12313    7    0    1
 -2       909      6423       908
 -1     12314    7    0    1
 -2       946      6424       945
 -1     12315    7    0    1
 -2       881      6425       880
 -1     12316    7    0    1
 -2       992      6427       991
 -1     12317    7    0    1
 -2      1103      6426      1102
 -1     12318    7    0    1
 -2      1630      6451      5014
 -1     12319    7    0    1
 -2       854      6428       853
 -1     12320    7    0    1
 -2      5073      6716      5076
 -1     12321    7    0    1
 -2      1794      6799      5784
 -1     12322    7    0    1
 -2      1795      6798      5788
 -1     12323    7    0    1
 -2      1796      6797      5786
 -1     12324    7    0    1
 -2      1725      6932      4986
 -1     12325    7    0    1
 -2      1724      6933      4988
 -1     12326    7    0    1
 -2      4345      6431      1523
 -1     12327    7    0    1
 -2      5741      6702      3995
 -1     12328    7    0    1
 -2      3522      6681      2432
 -1     12329    7    0    1
 -2      4400      7314      6233
 -1     12330    7    0    1
 -2      2255      6717       119
 -1     12331    7    0    1
 -2      3257      7152      6414
 -1     12332    7    0    1
 -2      3542      7151      6415
 -1     12333    7    0    1
 -2       120      6717      2329
 -1     12334    7    0    1
 -2       684      6432       683
 -1     12335    7    0    1
 -2       717      6458      1727
 -1     12336    7    0    1
 -2      1726      6459       404
 -1     12337    7    0    1
 -2      6003      6420      2251
 -1     12338    7    0    1
 -2      2252      6421      6002
 -1     12339    7    0    1
 -2      1514      7531      5166
 -1     12340    7    0    1
 -2      3888      6855      6290
 -1     12341    7    0    1
 -2      3476      6736      3990
 -1     12342    7    0    1
 -2       664      6433       663
 -1     12343    7    0    1
 -2       458      6434       457
 -1     12344    7    0    1
 -2      1515      7529      5184
 -1     12345    7    0    1
 -2      1516      7530      5175
 -1     12346    7    0    1
 -2      4338      6783      4339
 -1     12347    7    0    1
 -2      1333      6715       206
 -1     12348    7    0    1
 -2      5536      6884      4363
 -1     12349    7    0    1
 -2      4390      6497      4641
 -1     12350    7    0    1
 -2       596      6711      1587
 -1     12351    7    0    1
 -2       504      6712      1588
 -1     12352    7    0    1
 -2      3196      6701      3198
 -1     12353    7    0    1
 -2      5205      6750      3379
 -1     12354    7    0    1
 -2      5212      6751      3247
 -1     12355    7    0    1
 -2      6544      6578      5224
 -1     12356    7    0    1
 -2      1923      6711       597
 -1     12357    7    0    1
 -2      1942      6712       505
 -1     12358    7    0    1
 -2      5408      7433      5406
 -1     12359    7    0    1
 -2      4257      6435      4254
 -1     12360    7    0    1
 -2      1931      6713       587
 -1     12361    7    0    1
 -2      1930      6714       495
 -1     12362    7    0    1
 -2      6391      6951      2840
 -1     12363    7    0    1
 -2      4482      6723      4411
 -1     12364    7    0    1
 -2       586      6713      5819
 -1     12365    7    0    1
 -2       494      6714      5820
 -1     12366    7    0    1
 -2      4549      6820      4307
 -1     12367    7    0    1
 -2      6263      6638      2703
 -1     12368    7    0    1
 -2      2704      6639      6262
 -1     12369    7    0    1
 -2      5472      6723      6070
 -1     12370    7    0    1
 -2      2512      6733      2389
 -1     12371    7    0    1
 -2      5040      7183      1917
 -1     12372    7    0    1
 -2       561      6726        15
 -1     12373    7    0    1
 -2      6207      6483      3109
 -1     12374    7    0    1
 -2      3111      6484      6208
 -1     12375    7    0    1
 -2      2311      6679       775
 -1     12376    7    0    1
 -2       346      6680      2310
 -1     12377    7    0    1
 -2      5497      7526      5498
 -1     12378    7    0    1
 -2      6213      6866      4334
 -1     12379    7    0    1
 -2       157      6705      6100
 -1     12380    7    0    1
 -2      5145      7147      3026
 -1     12381    7    0    1
 -2      3050      7148      5146
 -1     12382    7    0    1
 -2      5128      6828      2429
 -1     12383    7    0    1
 -2      2430      6829      5129
 -1     12384    7    0    1
 -2      6040      6659      3007
 -1     12385    7    0    1
 -2      4790      6418      2729
 -1     12386    7    0    1
 -2      1698      6707      6059
 -1     12387    7    0    1
 -2       560      6726      2246
 -1     12388    7    0    1
 -2      3108      6718      2501
 -1     12389    7    0    1
 -2      2502      6719      3110
 -1     12390    7    0    1
 -2      4156      7119      4644
 -1     12391    7    0    1
 -2       550      6724      1590
 -1     12392    7    0    1
 -2      1623      6440      4819
 -1     12393    7    0    1
 -2      6008      6457      2047
 -1     12394    7    0    1
 -2       782      6590      6135
 -1     12395    7    0    1
 -2      6136      6592       339
 -1     12396    7    0    1
 -2      1927      6724       551
 -1     12397    7    0    1
 -2      6694      7033      3958
 -1     12398    7    0    1
 -2      1583      7258      6020
 -1     12399    7    0    1
 -2      6021      7259      1584
 -1     12400    7    0    1
 -2      4700      6452      4699
 -1     12401    7    0    1
 -2      6347      6807      4326
 -1     12402    7    0    1
 -2      5106      7110      5107
 -1     12403    7    0    1
 -2      4937      6634      6591
 -1     12404    7    0    1
 -2      6593      6633      4975
 -1     12405    7    0    1
 -2      5301      7399       582
 -1     12406    7    0    1
 -2      5308      7400       628
 -1     12407    7    0    1
 -2      5315      7398       536
 -1     12408    7    0    1
 -2      5134      7282      3066
 -1     12409    7    0    1
 -2      2261      7493      6267
 -1     12410    7    0    1
 -2      5254      6525      5858
 -1     12411    7    0    1
 -2      5465      6445      2462
 -1     12412    7    0    1
 -2      4407      7423      4409
 -1     12413    7    0    1
 -2      6433      6447       663
 -1     12414    7    0    1
 -2       458      6446      6434
 -1     12415    7    0    1
 -2      4714      7312      6333
 -1     12416    7    0    1
 -2       180      6438       181
 -1     12417    7    0    1
 -2      4908      6469      5051
 -1     12418    7    0    1
 -2       459      6446       458
 -1     12419    7    0    1
 -2       663      6447       662
 -1     12420    7    0    1
 -2      3432      6798      3431
 -1     12421    7    0    1
 -2      3168      6797      3167
 -1     12422    7    0    1
 -2      3300      6799      3299
 -1     12423    7    0    1
 -2      3719      6442      3721
 -1     12424    7    0    1
 -2      1363      6739      4248
 -1     12425    7    0    1
 -2      5534      6443      3908
 -1     12426    7    0    1
 -2      2694      6436      2696
 -1     12427    7    0    1
 -2      2690      6437      2688
 -1     12428    7    0    1
 -2      5561      6439      5562
 -1     12429    7    0    1
 -2      5652      6739      5651
 -1     12430    7    0    1
 -2      5565      6441      5564
 -1     12431    7    0    1
 -2       154      6444       155
 -1     12432    7    0    1
 -2      2059      6655      6091
 -1     12433    7    0    1
 -2      5645      6734      2250
 -1     12434    7    0    1
 -2      6661      6982      5188
 -1     12435    7    0    1
 -2      6662      6983      5179
 -1     12436    7    0    1
 -2      6663      6984      5170
 -1     12437    7    0    1
 -2      4415      6445      4416
 -1     12438    7    0    1
 -2      1929      6732       541
 -1     12439    7    0    1
 -2       540      6732      5818
 -1     12440    7    0    1
 -2      6277      6847      4840
 -1     12441    7    0    1
 -2      3923      6744      5631
 -1     12442    7    0    1
 -2       125      6738       126
 -1     12443    7    0    1
 -2      4552      6775      4818
 -1     12444    7    0    1
 -2      4936      6634      4937
 -1     12445    7    0    1
 -2      4975      6633      4974
 -1     12446    7    0    1
 -2       213      6448       214
 -1     12447    7    0    1
 -2      7005      7390      3367
 -1     12448    7    0    1
 -2      3309      6449      3307
 -1     12449    7    0    1
 -2      3177      6450      3175
 -1     12450    7    0    1
 -2       109      6741       110
 -1     12451    7    0    1
 -2       269      6742       270
 -1     12452    7    0    1
 -2      6136      6633      6593
 -1     12453    7    0    1
 -2      6591      6634      6135
 -1     12454    7    0    1
 -2      5754      6744      5753
 -1     12455    7    0    1
 -2      2882      6748      2878
 -1     12456    7    0    1
 -2      4317      6838      4318
 -1     12457    7    0    1
 -2      5550      6763      5551
 -1     12458    7    0    1
 -2      3951      6782      6100
 -1     12459    7    0    1
 -2      6398      6547      3631
 -1     12460    7    0    1
 -2      6420      6467      2251
 -1     12461    7    0    1
 -2      2252      6468      6421
 -1     12462    7    0    1
 -2      4766      7456      2155
 -1     12463    7    0    1
 -2      2417      6703      6032
 -1     12464    7    0    1
 -2      6033      6704      2418
 -1     12465    7    0    1
 -2      5226      6594      5227
 -1     12466    7    0    1
 -2      4512      6458      4524
 -1     12467    7    0    1
 -2      4523      6459      4513
 -1     12468    7    0    1
 -2       388      6419       387
 -1     12469    7    0    1
 -2      4576      6658      4575
 -1     12470    7    0    1
 -2      4577      6657      4578
 -1     12471    7    0    1
 -2      2964      7299      4891
 -1     12472    7    0    1
 -2       768      6418       767
 -1     12473    7    0    1
 -2      5046      6796      3792
 -1     12474    7    0    1
 -2      2060      6759       167
 -1     12475    7    0    1
 -2       168      6759      1309
 -1     12476    7    0    1
 -2       426      6453       425
 -1     12477    7    0    1
 -2       696      6454       695
 -1     12478    7    0    1
 -2       438      6455       437
 -1     12479    7    0    1
 -2      2143      6771       310
 -1     12480    7    0    1
 -2        69      6772      2144
 -1     12481    7    0    1
 -2       311      6771      1446
 -1     12482    7    0    1
 -2      1393      6772        68
 -1     12483    7    0    1
 -2      6204      6669      4556
 -1     12484    7    0    1
 -2      5086      7328      3106
 -1     12485    7    0    1
 -2       563      6760      1557
 -1     12486    7    0    1
 -2      1936      6760       564
 -1     12487    7    0    1
 -2      6404      7180       417
 -1     12488    7    0    1
 -2       704      7179      6403
 -1     12489    7    0    1
 -2      5245      6460      2828
 -1     12490    7    0    1
 -2      2898      6461      5249
 -1     12491    7    0    1
 -2       250      6767      6176
 -1     12492    7    0    1
 -2       806      6456       805
 -1     12493    7    0    1
 -2       163      6762       164
 -1     12494    7    0    1
 -2      4795      6672      6483
 -1     12495    7    0    1
 -2      6484      6673      4798
 -1     12496    7    0    1
 -2      1576      6767       249
 -1     12497    7    0    1
 -2      3006      7072      4763
 -1     12498    7    0    1
 -2      4790      7024      6418
 -1     12499    7    0    1
 -2      2728      6419      4792
 -1     12500    7    0    1
 -2      5774      7489      5275
 -1     12501    7    0    1
 -2      5772      7490      5287
 -1     12502    7    0    1
 -2       562      6777       561
 -1     12503    7    0    1
 -2      4836      7378      3531
 -1     12504    7    0    1
 -2      6419      7011      4792
 -1     12505    7    0    1
 -2      4999      6462      1757
 -1     12506    7    0    1
 -2      6649      7296      4603
 -1     12507    7    0    1
 -2      5224      6578      5223
 -1     12508    7    0    1
 -2      2922      6753      2924
 -1     12509    7    0    1
 -2      5372      7265      6369
 -1     12510    7    0    1
 -2      4361      6776      4477
 -1     12511    7    0    1
 -2      3913      6782      3951
 -1     12512    7    0    1
 -2      1450      6775       221
 -1     12513    7    0    1
 -2      4280      7233      5540
 -1     12514    7    0    1
 -2      4429      6627      4432
 -1     12515    7    0    1
 -2      6176      6767      5999
 -1     12516    7    0    1
 -2      6368      7266      5371
 -1     12517    7    0    1
 -2      2406      6804      2511
 -1     12518    7    0    1
 -2       648      6787       647
 -1     12519    7    0    1
 -2      6282      6500      4381
 -1     12520    7    0    1
 -2      4382      6501      6281
 -1     12521    7    0    1
 -2      3455      6774      3459
 -1     12522    7    0    1
 -2       101      6463       102
 -1     12523    7    0    1
 -2       277      6464       278
 -1     12524    7    0    1
 -2      1086      6465      2290
 -1     12525    7    0    1
 -2      1334      6466       174
 -1     12526    7    0    1
 -2      4324      6470      4322
 -1     12527    7    0    1
 -2      3425      6785      3427
 -1     12528    7    0    1
 -2      3484      6497      4170
 -1     12529    7    0    1
 -2      5559      7090      1309
 -1     12530    7    0    1
 -2      4223      6537      1371
 -1     12531    7    0    1
 -2      1744      6781       649
 -1     12532    7    0    1
 -2      5773      7499      5263
 -1     12533    7    0    1
 -2      5046      7498      6226
 -1     12534    7    0    1
 -2      4927      6617      5090
 -1     12535    7    0    1
 -2      3917      6722      3475
 -1     12536    7    0    1
 -2      6267      7493      4355
 -1     12537    7    0    1
 -2      5049      6871      3952
 -1     12538    7    0    1
 -2      5024      6828      5022
 -1     12539    7    0    1
 -2      5025      6829      5027
 -1     12540    7    0    1
 -2      6209      6839      1582
 -1     12541    7    0    1
 -2      4238      6821      4002
 -1     12542    7    0    1
 -2      4875      6912      2973
 -1     12543    7    0    1
 -2      2972      6913      4876
 -1     12544    7    0    1
 -2      7368      7517      4268
 -1     12545    7    0    1
 -2      4274      7516      7369
 -1     12546    7    0    1
 -2      4320      7518      7371
 -1     12547    7    0    1
 -2      1359      6848      5318
 -1     12548    7    0    1
 -2      2511      6819      2404
 -1     12549    7    0    1
 -2      1436      6683      5988
 -1     12550    7    0    1
 -2      5987      6684      1437
 -1     12551    7    0    1
 -2      5050      7196      2722
 -1     12552    7    0    1
 -2      2412      7011       390
 -1     12553    7    0    1
 -2      2401      6819      2402
 -1     12554    7    0    1
 -2       461      6472       460
 -1     12555    7    0    1
 -2      5263      7499      5262
 -1     12556    7    0    1
 -2       661      6473       660
 -1     12557    7    0    1
 -2      2251      6467      5893
 -1     12558    7    0    1
 -2      5894      6468      2252
 -1     12559    7    0    1
 -2       475      6811       474
 -1     12560    7    0    1
 -2      4991      6729      4990
 -1     12561    7    0    1
 -2      1473      6471      4456
 -1     12562    7    0    1
 -2      3900      6817      3898
 -1     12563    7    0    1
 -2      6191      6457      4946
 -1     12564    7    0    1
 -2      4965      6625      5226
 -1     12565    7    0    1
 -2       731      7024      2411
 -1     12566    7    0    1
 -2      6578      6626      5223
 -1     12567    7    0    1
 -2      5287      7490      5286
 -1     12568    7    0    1
 -2      5275      7489      5274
 -1     12569    7    0    1
 -2       473      6800      1934
 -1     12570    7    0    1
 -2      6376      7362      5677
 -1     12571    7    0    1
 -2      5294      6950      3543
 -1     12572    7    0    1
 -2      5226      6625      6594
 -1     12573    7    0    1
 -2      3436      6785      6054
 -1     12574    7    0    1
 -2      1770      6478       567
 -1     12575    7    0    1
 -2      6408      6875      1402
 -1     12576    7    0    1
 -2      2887      7449      2884
 -1     12577    7    0    1
 -2      2053      6890      5736
 -1     12578    7    0    1
 -2      5739      6891      2054
 -1     12579    7    0    1
 -2      3580      6757      6701
 -1     12580    7    0    1
 -2      1352      6833      4164
 -1     12581    7    0    1
 -2      3618      7202      6424
 -1     12582    7    0    1
 -2      5028      6586      5029
 -1     12583    7    0    1
 -2      4222      6823      5716
 -1     12584    7    0    1
 -2      6290      6855      4419
 -1     12585    7    0    1
 -2      5685      7106      1560
 -1     12586    7    0    1
 -2      4805      6478      3541
 -1     12587    7    0    1
 -2      5234      6485      2961
 -1     12588    7    0    1
 -2      6682      6940      4093
 -1     12589    7    0    1
 -2      2358      6656      2357
 -1     12590    7    0    1
 -2      4974      6580      6571
 -1     12591    7    0    1
 -2      6572      6581      4936
 -1     12592    7    0    1
 -2       280      6668       281
 -1     12593    7    0    1
 -2        98      6667        99
 -1     12594    7    0    1
 -2      6039      6752      2256
 -1     12595    7    0    1
 -2      1585      6954      6042
 -1     12596    7    0    1
 -2      4000      6479      4250
 -1     12597    7    0    1
 -2      3494      7209      1466
 -1     12598    7    0    1
 -2      5979      7289      2181
 -1     12599    7    0    1
 -2      5978      7290      2189
 -1     12600    7    0    1
 -2      5977      7291      2185
 -1     12601    7    0    1
 -2      6404      7283      5343
 -1     12602    7    0    1
 -2      5344      7282      6403
 -1     12603    7    0    1
 -2      2949      6830      2953
 -1     12604    7    0    1
 -2      3565      6874      3566
 -1     12605    7    0    1
 -2      5022      6828      2794
 -1     12606    7    0    1
 -2      2795      6829      5025
 -1     12607    7    0    1
 -2      7411      7460      4439
 -1     12608    7    0    1
 -2      5270      6487      5273
 -1     12609    7    0    1
 -2      5282      6488      5285
 -1     12610    7    0    1
 -2       461      6494      6472
 -1     12611    7    0    1
 -2      6473      6493       660
 -1     12612    7    0    1
 -2       645      6837       644
 -1     12613    7    0    1
 -2      5959      6795      4685
 -1     12614    7    0    1
 -2      5223      6626      4927
 -1     12615    7    0    1
 -2      1434      6845       293
 -1     12616    7    0    1
 -2        86      6846      1435
 -1     12617    7    0    1
 -2      4183      6848      4185
 -1     12618    7    0    1
 -2      2708      6816      2709
 -1     12619    7    0    1
 -2       660      6493       659
 -1     12620    7    0    1
 -2      2761      6480      4762
 -1     12621    7    0    1
 -2      4761      6481      2766
 -1     12622    7    0    1
 -2       462      6494       461
 -1     12623    7    0    1
 -2      1723      6825       646
 -1     12624    7    0    1
 -2      1319      6648      5982
 -1     12625    7    0    1
 -2      5983      6647      1316
 -1     12626    7    0    1
 -2      5858      6525      1803
 -1     12627    7    0    1
 -2      4404      6736      4543
 -1     12628    7    0    1
 -2      1039      6490      1038
 -1     12629    7    0    1
 -2      1047      6491      1046
 -1     12630    7    0    1
 -2      1010      6492      1009
 -1     12631    7    0    1
 -2      2042      6917      6638
 -1     12632    7    0    1
 -2      6639      6918      2041
 -1     12633    7    0    1
 -2      6116      6793      3089
 -1     12634    7    0    1
 -2      3087      6792      6117
 -1     12635    7    0    1
 -2      4683      6795      4696
 -1     12636    7    0    1
 -2      2732      6495      3096
 -1     12637    7    0    1
 -2      3090      6496      2730
 -1     12638    7    0    1
 -2      2760      6986      4536
 -1     12639    7    0    1
 -2      4537      6987      2765
 -1     12640    7    0    1
 -2      6370      7023      4239
 -1     12641    7    0    1
 -2      4339      6783      6507
 -1     12642    7    0    1
 -2      4990      6729      1414
 -1     12643    7    0    1
 -2      5089      6629      4965
 -1     12644    7    0    1
 -2      4501      7201      6584
 -1     12645    7    0    1
 -2      4500      7200      6583
 -1     12646    7    0    1
 -2      4432      6695      4431
 -1     12647    7    0    1
 -2      4900      7461      3161
 -1     12648    7    0    1
 -2      4901      7462      3293
 -1     12649    7    0    1
 -2        99      6843       100
 -1     12650    7    0    1
 -2       279      6844       280
 -1     12651    7    0    1
 -2      6581      6634      4936
 -1     12652    7    0    1
 -2      4974      6633      6580
 -1     12653    7    0    1
 -2      2888      6506      5322
 -1     12654    7    0    1
 -2      1515      6840       620
 -1     12655    7    0    1
 -2      1516      6841       528
 -1     12656    7    0    1
 -2      1514      6842       574
 -1     12657    7    0    1
 -2      3848      6871      3885
 -1     12658    7    0    1
 -2      1455      6864       308
 -1     12659    7    0    1
 -2        71      6865      1431
 -1     12660    7    0    1
 -2       309      6864      2143
 -1     12661    7    0    1
 -2      2144      6865        70
 -1     12662    7    0    1
 -2      3952      6871      3850
 -1     12663    7    0    1
 -2      3978      7241      3976
 -1     12664    7    0    1
 -2      4374      7457      4373
 -1     12665    7    0    1
 -2      1652      6794      5828
 -1     12666    7    0    1
 -2      4387      6503      4384
 -1     12667    7    0    1
 -2      5535      6884      5536
 -1     12668    7    0    1
 -2      2612      6498      2755
 -1     12669    7    0    1
 -2      2756      6499      2569
 -1     12670    7    0    1
 -2      1538      6857       106
 -1     12671    7    0    1
 -2       273      6858      1539
 -1     12672    7    0    1
 -2      6397      7157       384
 -1     12673    7    0    1
 -2       285      6504       286
 -1     12674    7    0    1
 -2        93      6505        94
 -1     12675    7    0    1
 -2      2050      6847      6277
 -1     12676    7    0    1
 -2       219      7078      6331
 -1     12677    7    0    1
 -2       602      6872       601
 -1     12678    7    0    1
 -2       510      6873       509
 -1     12679    7    0    1
 -2      1841      6652      4829
 -1     12680    7    0    1
 -2      3482      6910      2375
 -1     12681    7    0    1
 -2      4299      6796      5046
 -1     12682    7    0    1
 -2      4606      6884      1354
 -1     12683    7    0    1
 -2      4835      6510      3551
 -1     12684    7    0    1
 -2      2716      6483      6207
 -1     12685    7    0    1
 -2      6208      6484      2718
 -1     12686    7    0    1
 -2      4335      7317      4495
 -1     12687    7    0    1
 -2      2678      6580      6102
 -1     12688    7    0    1
 -2      6103      6581      2677
 -1     12689    7    0    1
 -2      5306      6879      5303
 -1     12690    7    0    1
 -2      5313      6880      5310
 -1     12691    7    0    1
 -2      5299      6881      5296
 -1     12692    7    0    1
 -2      2903      6509      2901
 -1     12693    7    0    1
 -2      2831      6508      2833
 -1     12694    7    0    1
 -2      4273      6612      6486
 -1     12695    7    0    1
 -2       499      6885       498
 -1     12696    7    0    1
 -2       591      6886       590
 -1     12697    7    0    1
 -2      3970      6889      3941
 -1     12698    7    0    1
 -2      2740      7430      5979
 -1     12699    7    0    1
 -2      2748      7431      5977
 -1     12700    7    0    1
 -2      2752      7432      5978
 -1     12701    7    0    1
 -2      6054      7523      6769
 -1     12702    7    0    1
 -2      2506      6936      2209
 -1     12703    7    0    1
 -2      2208      6935      2505
 -1     12704    7    0    1
 -2      4612      7316      3619
 -1     12705    7    0    1
 -2      5797      6773       244
 -1     12706    7    0    1
 -2      2066      7235      5613
 -1     12707    7    0    1
 -2      3369      6513      5413
 -1     12708    7    0    1
 -2      3237      6514      5411
 -1     12709    7    0    1
 -2      6335      7239       519
 -1     12710    7    0    1
 -2      6334      7238       611
 -1     12711    7    0    1
 -2       103      6890      2053
 -1     12712    7    0    1
 -2      2054      6891       276
 -1     12713    7    0    1
 -2      5130      7393      4577
 -1     12714    7    0    1
 -2      4575      7392      5131
 -1     12715    7    0    1
 -2      6249      6804      2679
 -1     12716    7    0    1
 -2       718      7357      6458
 -1     12717    7    0    1
 -2      6459      7358       403
 -1     12718    7    0    1
 -2      2107      6887      4839
 -1     12719    7    0    1
 -2      3032      6511      3036
 -1     12720    7    0    1
 -2      3060      6512      3056
 -1     12721    7    0    1
 -2      5600      6903      5640
 -1     12722    7    0    1
 -2      3980      6919      3982
 -1     12723    7    0    1
 -2       545      6907       544
 -1     12724    7    0    1
 -2      2884      7449      6276
 -1     12725    7    0    1
 -2      2713      6516      2796
 -1     12726    7    0    1
 -2      2797      6517      2714
 -1     12727    7    0    1
 -2      5196      6519      5195
 -1     12728    7    0    1
 -2      4926      6518      4928
 -1     12729    7    0    1
 -2      5275      6993      5774
 -1     12730    7    0    1
 -2      5287      6994      5772
 -1     12731    7    0    1
 -2      2461      7286      4832
 -1     12732    7    0    1
 -2      6769      7523      1714
 -1     12733    7    0    1
 -2      1302      7223      4823
 -1     12734    7    0    1
 -2      6523      7508      4445
 -1     12735    7    0    1
 -2      5258      6520      5261
 -1     12736    7    0    1
 -2      1589      6906       641
 -1     12737    7    0    1
 -2      5559      6930      5058
 -1     12738    7    0    1
 -2       583      6927       582
 -1     12739    7    0    1
 -2       629      6925       628
 -1     12740    7    0    1
 -2       537      6926       536
 -1     12741    7    0    1
 -2      5056      6930      5078
 -1     12742    7    0    1
 -2      4966      6521      4964
 -1     12743    7    0    1
 -2       480      6908      1586
 -1     12744    7    0    1
 -2      5292      7054      2977
 -1     12745    7    0    1
 -2      4894      7193      3073
 -1     12746    7    0    1
 -2      4895      7192      3079
 -1     12747    7    0    1
 -2      4211      6960      5491
 -1     12748    7    0    1
 -2      3531      7378      4853
 -1     12749    7    0    1
 -2       640      6937       639
 -1     12750    7    0    1
 -2      2767      7401      4893
 -1     12751    7    0    1
 -2      4892      7402      2768
 -1     12752    7    0    1
 -2       592      6941       591
 -1     12753    7    0    1
 -2       500      6942       499
 -1     12754    7    0    1
 -2       482      6943       481
 -1     12755    7    0    1
 -2      6468      6518      4926
 -1     12756    7    0    1
 -2      4721      6792      1537
 -1     12757    7    0    1
 -2      1536      6793      4724
 -1     12758    7    0    1
 -2      4691      6525      5254
 -1     12759    7    0    1
 -2      4711      7032      5218
 -1     12760    7    0    1
 -2      4525      6851      5912
 -1     12761    7    0    1
 -2      5913      6852      4526
 -1     12762    7    0    1
 -2      4964      6521      6467
 -1     12763    7    0    1
 -2      5355      7017      3532
 -1     12764    7    0    1
 -2      5201      6524      5202
 -1     12765    7    0    1
 -2      4307      6746      4305
 -1     12766    7    0    1
 -2      3915      6692      3904
 -1     12767    7    0    1
 -2      3123      7080      3124
 -1     12768    7    0    1
 -2      4640      7390      7005
 -1     12769    7    0    1
 -2      6260      7142        49
 -1     12770    7    0    1
 -2       330      7141      6259
 -1     12771    7    0    1
 -2      4965      6629      6625
 -1     12772    7    0    1
 -2      3301      6934      3389
 -1     12773    7    0    1
 -2      7268      7379      2784
 -1     12774    7    0    1
 -2      1332      7465      6453
 -1     12775    7    0    1
 -2      2785      7380      7269
 -1     12776    7    0    1
 -2      5200      7013      3011
 -1     12777    7    0    1
 -2       546      6949       545
 -1     12778    7    0    1
 -2      6454      7466      1391
 -1     12779    7    0    1
 -2      5076      6716      6381
 -1     12780    7    0    1
 -2      2047      6955        53
 -1     12781    7    0    1
 -2        54      6955      1325
 -1     12782    7    0    1
 -2      3161      6948      4900
 -1     12783    7    0    1
 -2      3293      6947      4901
 -1     12784    7    0    1
 -2      3970      7028      6889
 -1     12785    7    0    1
 -2       464      6526       463
 -1     12786    7    0    1
 -2      3556      7089      1578
 -1     12787    7    0    1
 -2       658      6529       657
 -1     12788    7    0    1
 -2       613      6932      1725
 -1     12789    7    0    1
 -2       521      6933      1724
 -1     12790    7    0    1
 -2      6414      7152      3626
 -1     12791    7    0    1
 -2      6415      7151      3623
 -1     12792    7    0    1
 -2      6081      6883      3523
 -1     12793    7    0    1
 -2      5298      7025      5301
 -1     12794    7    0    1
 -2      5312      7026      5315
 -1     12795    7    0    1
 -2      5305      7027      5308
 -1     12796    7    0    1
 -2      6057      6847      2050
 -1     12797    7    0    1
 -2      1716      7056      4804
 -1     12798    7    0    1
 -2      1550      6954       198
 -1     12799    7    0    1
 -2      2079      7364      6992
 -1     12800    7    0    1
 -2       365      6527       364
 -1     12801    7    0    1
 -2       752      6528       751
 -1     12802    7    0    1
 -2      4927      6626      6617
 -1     12803    7    0    1
 -2      2503      7353      6591
 -1     12804    7    0    1
 -2      6593      7354      2504
 -1     12805    7    0    1
 -2      3652      6531      3654
 -1     12806    7    0    1
 -2      4939      7012      1324
 -1     12807    7    0    1
 -2      5139      6813      6525
 -1     12808    7    0    1
 -2      2328      6523      6039
 -1     12809    7    0    1
 -2      3954      6695      5093
 -1     12810    7    0    1
 -2       161      6532      1479
 -1     12811    7    0    1
 -2      3799      7007      5467
 -1     12812    7    0    1
 -2      3128      6951      6391
 -1     12813    7    0    1
 -2      5198      6953      2968
 -1     12814    7    0    1
 -2      4972      6615      5089
 -1     12815    7    0    1
 -2      5093      6598      2048
 -1     12816    7    0    1
 -2        27      7198      5043
 -1     12817    7    0    1
 -2      2826      6986      2643
 -1     12818    7    0    1
 -2      2644      6987      2827
 -1     12819    7    0    1
 -2      5233      7101      5234
 -1     12820    7    0    1
 -2       483      6971      1512
 -1     12821    7    0    1
 -2      5321      7071      3123
 -1     12822    7    0    1
 -2      2466      7064      3482
 -1     12823    7    0    1
 -2      4622      7000      4623
 -1     12824    7    0    1
 -2      6720      7337      4671
 -1     12825    7    0    1
 -2      2993      6968      5626
 -1     12826    7    0    1
 -2       509      6988       508
 -1     12827    7    0    1
 -2       601      6989       600
 -1     12828    7    0    1
 -2      2966      6533      5839
 -1     12829    7    0    1
 -2      2977      7031      3008
 -1     12830    7    0    1
 -2      1269      6536      1268
 -1     12831    7    0    1
 -2      5625      6967      2986
 -1     12832    7    0    1
 -2      3008      7021      5194
 -1     12833    7    0    1
 -2      1548      6985       182
 -1     12834    7    0    1
 -2      6083      6921      3240
 -1     12835    7    0    1
 -2      6082      6922      3372
 -1     12836    7    0    1
 -2      5319      6578      6544
 -1     12837    7    0    1
 -2      1510      6980       638
 -1     12838    7    0    1
 -2      1794      7027      6799
 -1     12839    7    0    1
 -2      1796      7026      6797
 -1     12840    7    0    1
 -2      1795      7025      6798
 -1     12841    7    0    1
 -2      6042      7306      1585
 -1     12842    7    0    1
 -2      5263      7010      5773
 -1     12843    7    0    1
 -2       464      6540      6526
 -1     12844    7    0    1
 -2       485      7004       484
 -1     12845    7    0    1
 -2      1569      6982       623
 -1     12846    7    0    1
 -2      1567      6983       531
 -1     12847    7    0    1
 -2      1568      6984       577
 -1     12848    7    0    1
 -2      6590      6591      6135
 -1     12849    7    0    1
 -2      6136      6593      6592
 -1     12850    7    0    1
 -2      3856      7020      3857
 -1     12851    7    0    1
 -2      6004      6530      3530
 -1     12852    7    0    1
 -2      4483      7165      5149
 -1     12853    7    0    1
 -2      4484      7166      5150
 -1     12854    7    0    1
 -2      3520      6546      5415
 -1     12855    7    0    1
 -2       199      6954      1585
 -1     12856    7    0    1
 -2       465      6540       464
 -1     12857    7    0    1
 -2       326      7012      2046
 -1     12858    7    0    1
 -2      1324      7012       325
 -1     12859    7    0    1
 -2      2907      6545      2905
 -1     12860    7    0    1
 -2      2062      7003       203
 -1     12861    7    0    1
 -2       637      7009       636
 -1     12862    7    0    1
 -2      3102      7183      5040
 -1     12863    7    0    1
 -2      6542      6594      5320
 -1     12864    7    0    1
 -2      1596      6541       134
 -1     12865    7    0    1
 -2      5774      6993       594
 -1     12866    7    0    1
 -2      5772      6994       502
 -1     12867    7    0    1
 -2       593      6993      1508
 -1     12868    7    0    1
 -2       501      6994      1509
 -1     12869    7    0    1
 -2      1360      6543      5541
 -1     12870    7    0    1
 -2      4493      7203      5148
 -1     12871    7    0    1
 -2       334      6549      1843
 -1     12872    7    0    1
 -2      1844      6550        45
 -1     12873    7    0    1
 -2      1699      6542      5320
 -1     12874    7    0    1
 -2       387      2728       386
 -1     12875    7    0    1
 -2       769      2729       768
 -1     12876    7    0    1
 -2      5319      6544      1661
 -1     12877    7    0    1
 -2      4638      7466      5384
 -1     12878    7    0    1
 -2      4077      7212      6196
 -1     12879    7    0    1
 -2      3104      6551      2962
 -1     12880    7    0    1
 -2      5210      6834      5207
 -1     12881    7    0    1
 -2      5217      6835      5214
 -1     12882    7    0    1
 -2      4128      7067      5500
 -1     12883    7    0    1
 -2      6498      7442      4584
 -1     12884    7    0    1
 -2      4585      7443      6499
 -1     12885    7    0    1
 -2      4520      6548      4519
 -1     12886    7    0    1
 -2      2889      6553      3105
 -1     12887    7    0    1
 -2      2897      6957      5368
 -1     12888    7    0    1
 -2      6176      6969      1520
 -1     12889    7    0    1
 -2      3477      7256      4172
 -1     12890    7    0    1
 -2      5773      7010       548
 -1     12891    7    0    1
 -2       547      7010      1507
 -1     12892    7    0    1
 -2      5931      6959      2756
 -1     12893    7    0    1
 -2      2755      6958      5932
 -1     12894    7    0    1
 -2      4100      7065      4119
 -1     12895    7    0    1
 -2      3592      6565      4767
 -1     12896    7    0    1
 -2      5778      7034      4249
 -1     12897    7    0    1
 -2      3044      7001      3046
 -1     12898    7    0    1
 -2      3022      7002      3020
 -1     12899    7    0    1
 -2      4155      6552      2170
 -1     12900    7    0    1
 -2      4234      7029      1441
 -1     12901    7    0    1
 -2      6209      6774      3454
 -1     12902    7    0    1
 -2      4974      6571      4972
 -1     12903    7    0    1
 -2      4934      6572      4936
 -1     12904    7    0    1
 -2      5383      7465      4637
 -1     12905    7    0    1
 -2      7080      7095      3124
 -1     12906    7    0    1
 -2      6182      6966      5382
 -1     12907    7    0    1
 -2      5327      7205      5326
 -1     12908    7    0    1
 -2      4764      7092      3005
 -1     12909    7    0    1
 -2       486      7022      1570
 -1     12910    7    0    1
 -2       159      7028       160
 -1     12911    7    0    1
 -2       556      7047      5812
 -1     12912    7    0    1
 -2      4263      6824      6308
 -1     12913    7    0    1
 -2       557      7047       556
 -1     12914    7    0    1
 -2      3540      7205      4805
 -1     12915    7    0    1
 -2      3068      6500      6282
 -1     12916    7    0    1
 -2      6281      6501      3070
 -1     12917    7    0    1
 -2      6308      6824      4174
 -1     12918    7    0    1
 -2      4538      6586      5028
 -1     12919    7    0    1
 -2      3063      7077      5047
 -1     12920    7    0    1
 -2      6259      7141      4938
 -1     12921    7    0    1
 -2      4976      7142      6260
 -1     12922    7    0    1
 -2      6160      6945      2265
 -1     12923    7    0    1
 -2      4722      6731      4721
 -1     12924    7    0    1
 -2      2465      7262      5100
 -1     12925    7    0    1
 -2      1424      7099      5601
 -1     12926    7    0    1
 -2       114      7058      2136
 -1     12927    7    0    1
 -2      2135      7059       265
 -1     12928    7    0    1
 -2      4450      6756      6752
 -1     12929    7    0    1
 -2      1555      7040       604
 -1     12930    7    0    1
 -2      1554      7041       512
 -1     12931    7    0    1
 -2      5471      7100      5470
 -1     12932    7    0    1
 -2      2109      7015      1941
 -1     12933    7    0    1
 -2       603      7040      1932
 -1     12934    7    0    1
 -2       511      7041      1933
 -1     12935    7    0    1
 -2      5850      7016      2110
 -1     12936    7    0    1
 -2      5381      6956      6183
 -1     12937    7    0    1
 -2      2310      7480      7349
 -1     12938    7    0    1
 -2      3325      6561      3324
 -1     12939    7    0    1
 -2      3193      6562      3192
 -1     12940    7    0    1
 -2      5402      7425      5404
 -1     12941    7    0    1
 -2        84      6557        85
 -1     12942    7    0    1
 -2       294      6556       295
 -1     12943    7    0    1
 -2      4377      6978      4376
 -1     12944    7    0    1
 -2      7113      7127      6079
 -1     12945    7    0    1
 -2      2871      7052      2867
 -1     12946    7    0    1
 -2      6358      6794      4657
 -1     12947    7    0    1
 -2       656      6563       655
 -1     12948    7    0    1
 -2      6184      7089      3556
 -1     12949    7    0    1
 -2      6385      6903      1305
 -1     12950    7    0    1
 -2      6816      7478      2709
 -1     12951    7    0    1
 -2      1928      7060       633
 -1     12952    7    0    1
 -2      2857      7056      2855
 -1     12953    7    0    1
 -2      4729      6831      1773
 -1     12954    7    0    1
 -2      1774      6832      4728
 -1     12955    7    0    1
 -2      1793      7063       488
 -1     12956    7    0    1
 -2      2054      7342      5739
 -1     12957    7    0    1
 -2      2064      7362      6376
 -1     12958    7    0    1
 -2      2687      6656      2358
 -1     12959    7    0    1
 -2      5026      7180      6404
 -1     12960    7    0    1
 -2      6403      7179      5023
 -1     12961    7    0    1
 -2      1581      7114      6533
 -1     12962    7    0    1
 -2      1914      6578      5319
 -1     12963    7    0    1
 -2      5736      7343      2053
 -1     12964    7    0    1
 -2       914      6564       913
 -1     12965    7    0    1
 -2      2977      7054      7031
 -1     12966    7    0    1
 -2      1478      7078       218
 -1     12967    7    0    1
 -2      5361      6569      5351
 -1     12968    7    0    1
 -2      1455      7294      6672
 -1     12969    7    0    1
 -2      6673      7295      1431
 -1     12970    7    0    1
 -2      1756      6964      5916
 -1     12971    7    0    1
 -2      1754      6965      5914
 -1     12972    7    0    1
 -2      3008      7031      7021
 -1     12973    7    0    1
 -2      6671      6735      6670
 -1     12974    7    0    1
 -2      1423      7283      6404
 -1     12975    7    0    1
 -2      6403      7282      1422
 -1     12976    7    0    1
 -2      5530      7119      4117
 -1     12977    7    0    1
 -2      3593      7434      6547
 -1     12978    7    0    1
 -2      1487      6635      4994
 -1     12979    7    0    1
 -2      3531      7050      3529
 -1     12980    7    0    1
 -2      3107      7329      5084
 -1     12981    7    0    1
 -2      6005      6558      3248
 -1     12982    7    0    1
 -2      6006      6559      3380
 -1     12983    7    0    1
 -2      3943      7103      3970
 -1     12984    7    0    1
 -2      6196      7212      4478
 -1     12985    7    0    1
 -2      4132      7119      4156
 -1     12986    7    0    1
 -2      6331      7078      5674
 -1     12987    7    0    1
 -2      6079      7127      2055
 -1     12988    7    0    1
 -2      4269      7517      6490
 -1     12989    7    0    1
 -2      6491      7516      4275
 -1     12990    7    0    1
 -2      6492      7518      4321
 -1     12991    7    0    1
 -2      3130      7333      3129
 -1     12992    7    0    1
 -2      3394      7334      3393
 -1     12993    7    0    1
 -2      3262      7332      3261
 -1     12994    7    0    1
 -2      1309      7090       169
 -1     12995    7    0    1
 -2      4764      7018      5689
 -1     12996    7    0    1
 -2      5690      7019      4763
 -1     12997    7    0    1
 -2       170      7090      2064
 -1     12998    7    0    1
 -2      1308      7141       329
 -1     12999    7    0    1
 -2        50      7142      1307
 -1     13000    7    0    1
 -2      7071      7080      3123
 -1     13001    7    0    1
 -2      1942      7144      6712
 -1     13002    7    0    1
 -2      1923      7143      6711
 -1     13003    7    0    1
 -2      5797      7106      4243
 -1     13004    7    0    1
 -2      1542      7391      1253
 -1     13005    7    0    1
 -2      6200      6571      2678
 -1     13006    7    0    1
 -2      2677      6572      6199
 -1     13007    7    0    1
 -2       631      7083      1753
 -1     13008    7    0    1
 -2       573      6842      6305
 -1     13009    7    0    1
 -2       619      6840      6306
 -1     13010    7    0    1
 -2       527      6841      6307
 -1     13011    7    0    1
 -2       212      7104      2061
 -1     13012    7    0    1
 -2      3779      6573      5495
 -1     13013    7    0    1
 -2      1321      7104       211
 -1     13014    7    0    1
 -2      1673      6554      1675
 -1     13015    7    0    1
 -2      5320      6594      1413
 -1     13016    7    0    1
 -2      5757      7109      3889
 -1     13017    7    0    1
 -2      1755      6981      5915
 -1     13018    7    0    1
 -2      4126      7212      4079
 -1     13019    7    0    1
 -2       783      6590       782
 -1     13020    7    0    1
 -2       339      6592       338
 -1     13021    7    0    1
 -2      4736      7046      3582
 -1     13022    7    0    1
 -2      2230      6566      6038
 -1     13023    7    0    1
 -2      4755      6928      6730
 -1     13024    7    0    1
 -2      3846      7233      5528
 -1     13025    7    0    1
 -2      3250      7073      3246
 -1     13026    7    0    1
 -2      3382      7074      3378
 -1     13027    7    0    1
 -2      2392      7262      2364
 -1     13028    7    0    1
 -2      5234      7083      7060
 -1     13029    7    0    1
 -2      2041      6918      6066
 -1     13030    7    0    1
 -2      6064      6917      2042
 -1     13031    7    0    1
 -2      2305      6575      1131
 -1     13032    7    0    1
 -2      2294      7262      2465
 -1     13033    7    0    1
 -2      5356      6577      5358
 -1     13034    7    0    1
 -2      2049      6567      1456
 -1     13035    7    0    1
 -2      2382      7424      2385
 -1     13036    7    0    1
 -2      5090      6616      4934
 -1     13037    7    0    1
 -2      5742      7116      5743
 -1     13038    7    0    1
 -2      5745      7117      5744
 -1     13039    7    0    1
 -2      1281      6574      1280
 -1     13040    7    0    1
 -2      2664      7171      2663
 -1     13041    7    0    1
 -2      4857      7377      3250
 -1     13042    7    0    1
 -2      4858      7376      3382
 -1     13043    7    0    1
 -2      2665      7172      2666
 -1     13044    7    0    1
 -2       135      7133       136
 -1     13045    7    0    1
 -2       301      7521       302
 -1     13046    7    0    1
 -2        77      7520        78
 -1     13047    7    0    1
 -2       216      7131       217
 -1     13048    7    0    1
 -2      5698      7106      5685
 -1     13049    7    0    1
 -2      2461      7424      2380
 -1     13050    7    0    1
 -2      1494      7140       141
 -1     13051    7    0    1
 -2      6440      6721      4505
 -1     13052    7    0    1
 -2      1793      7071      7063
 -1     13053    7    0    1
 -2       241      6576       242
 -1     13054    7    0    1
 -2      6110      7122      7095
 -1     13055    7    0    1
 -2      4541      7440      3967
 -1     13056    7    0    1
 -2      5756      7121      5757
 -1     13057    7    0    1
 -2       715      7149       714
 -1     13058    7    0    1
 -2       407      7150       406
 -1     13059    7    0    1
 -2      3965      7247      5088
 -1     13060    7    0    1
 -2      6047      7170      3467
 -1     13061    7    0    1
 -2      3911      6579      3909
 -1     13062    7    0    1
 -2      3619      7316      2082
 -1     13063    7    0    1
 -2      1585      7306      1443
 -1     13064    7    0    1
 -2       729      7458       728
 -1     13065    7    0    1
 -2      1468      7277        76
 -1     13066    7    0    1
 -2       303      7278      1469
 -1     13067    7    0    1
 -2       467      6582       466
 -1     13068    7    0    1
 -2       324      7242      1324
 -1     13069    7    0    1
 -2      1325      7243        55
 -1     13070    7    0    1
 -2      3254      7181      7061
 -1     13071    7    0    1
 -2      3386      7182      7062
 -1     13072    7    0    1
 -2      1444      7501        95
 -1     13073    7    0    1
 -2       284      7502      1445
 -1     13074    7    0    1
 -2      7127      7132      2055
 -1     13075    7    0    1
 -2      1506      6667        98
 -1     13076    7    0    1
 -2       281      6668      1396
 -1     13077    7    0    1
 -2      5699      7401      2767
 -1     13078    7    0    1
 -2      2768      7402      5700
 -1     13079    7    0    1
 -2       384      7157         4
 -1     13080    7    0    1
 -2        26      7158       771
 -1     13081    7    0    1
 -2      2859      7137      2857
 -1     13082    7    0    1
 -2      4472      7257      4470
 -1     13083    7    0    1
 -2         4      7157       349
 -1     13084    7    0    1
 -2       772      7158        26
 -1     13085    7    0    1
 -2      2980      6995      6249
 -1     13086    7    0    1
 -2      2055      7132      6080
 -1     13087    7    0    1
 -2      5740      7173      5722
 -1     13088    7    0    1
 -2      5723      7208      3906
 -1     13089    7    0    1
 -2      3073      7193      2750
 -1     13090    7    0    1
 -2      3079      7192      2738
 -1     13091    7    0    1
 -2       238      7216      1492
 -1     13092    7    0    1
 -2      2185      7475      2115
 -1     13093    7    0    1
 -2      2181      7473      2111
 -1     13094    7    0    1
 -2      2189      7474      2117
 -1     13095    7    0    1
 -2      3172      6583      3173
 -1     13096    7    0    1
 -2      3304      6584      3305
 -1     13097    7    0    1
 -2      1490      7179       705
 -1     13098    7    0    1
 -2       416      7180      1491
 -1     13099    7    0    1
 -2      1685      7251      1687
 -1     13100    7    0    1
 -2      5623      7055      5621
 -1     13101    7    0    1
 -2      5558      7362      5559
 -1     13102    7    0    1
 -2       142      7206       143
 -1     13103    7    0    1
 -2      4755      7403      1571
 -1     13104    7    0    1
 -2      6138      7038      2104
 -1     13105    7    0    1
 -2       196      7219       197
 -1     13106    7    0    1
 -2       223      7229      1464
 -1     13107    7    0    1
 -2      5721      7270      3962
 -1     13108    7    0    1
 -2      5925      7478      6814
 -1     13109    7    0    1
 -2      1379      6914      6470
 -1     13110    7    0    1
 -2       184      7276      1807
 -1     13111    7    0    1
 -2      1323      7235       228
 -1     13112    7    0    1
 -2       229      7235      2066
 -1     13113    7    0    1
 -2      5687      7306      6042
 -1     13114    7    0    1
 -2      5220      7239      6335
 -1     13115    7    0    1
 -2      5222      7238      6334
 -1     13116    7    0    1
 -2       536      7398       535
 -1     13117    7    0    1
 -2       582      7399       581
 -1     13118    7    0    1
 -2       628      7400       627
 -1     13119    7    0    1
 -2      4752      7066      3583
 -1     13120    7    0    1
 -2       111      6596      1409
 -1     13121    7    0    1
 -2      1740      6597       268
 -1     13122    7    0    1
 -2      1136      6587      1135
 -1     13123    7    0    1
 -2       951      6588       950
 -1     13124    7    0    1
 -2      3837      6599      5538
 -1     13125    7    0    1
 -2      2331      6818      6435
 -1     13126    7    0    1
 -2      5338      6603      2963
 -1     13127    7    0    1
 -2         9      7226      1315
 -1     13128    7    0    1
 -2      1314      7227        21
 -1     13129    7    0    1
 -2      6226      7498      4399
 -1     13130    7    0    1
 -2      1561      7121      7113
 -1     13131    7    0    1
 -2      5042      7195         3
 -1     13132    7    0    1
 -2       108      7330      1530
 -1     13133    7    0    1
 -2      1529      7331       271
 -1     13134    7    0    1
 -2      5054      6595      5012
 -1     13135    7    0    1
 -2      4558      7386      3963
 -1     13136    7    0    1
 -2      5938      6667      1506
 -1     13137    7    0    1
 -2      1396      6668      5943
 -1     13138    7    0    1
 -2      3293      7462      3295
 -1     13139    7    0    1
 -2      3161      7461      3163
 -1     13140    7    0    1
 -2      1561      7113      6079
 -1     13141    7    0    1
 -2      7121      7133      5757
 -1     13142    7    0    1
 -2       610      7238      1747
 -1     13143    7    0    1
 -2       518      7239      1746
 -1     13144    7    0    1
 -2      6113      7175      7145
 -1     13145    7    0    1
 -2      6074      7153      5711
 -1     13146    7    0    1
 -2      4759      7469      4288
 -1     13147    7    0    1
 -2      2891      6608      2892
 -1     13148    7    0    1
 -2      1925      7464       523
 -1     13149    7    0    1
 -2      1921      7463       615
 -1     13150    7    0    1
 -2      2467      7039       348
 -1     13151    7    0    1
 -2      4859      6601      3377
 -1     13152    7    0    1
 -2      4861      6602      3245
 -1     13153    7    0    1
 -2       204      7387       205
 -1     13154    7    0    1
 -2       773      7042      2468
 -1     13155    7    0    1
 -2      6137      6654      3493
 -1     13156    7    0    1
 -2      4348      6963      6431
 -1     13157    7    0    1
 -2       654      6604       653
 -1     13158    7    0    1
 -2      2964      6780      5927
 -1     13159    7    0    1
 -2      6045      7143      4507
 -1     13160    7    0    1
 -2      6046      7144      4508
 -1     13161    7    0    1
 -2      3116      7171      2830
 -1     13162    7    0    1
 -2      1927      7170      6724
 -1     13163    7    0    1
 -2      2967      6876      5339
 -1     13164    7    0    1
 -2      2938      7347      2942
 -1     13165    7    0    1
 -2      6110      7095      5827
 -1     13166    7    0    1
 -2      7022      7063      5322
 -1     13167    7    0    1
 -2      2959      7215      4505
 -1     13168    7    0    1
 -2      2955      7486      2957
 -1     13169    7    0    1
 -2      4255      6605      4257
 -1     13170    7    0    1
 -2      2960      6600      2945
 -1     13171    7    0    1
 -2       440      6609       439
 -1     13172    7    0    1
 -2       682      6610       681
 -1     13173    7    0    1
 -2      6170      6835      5217
 -1     13174    7    0    1
 -2      6171      6834      5210
 -1     13175    7    0    1
 -2      4246      7374      5796
 -1     13176    7    0    1
 -2      1914      6626      6578
 -1     13177    7    0    1
 -2      2048      6598      6063
 -1     13178    7    0    1
 -2      4644      6940      4751
 -1     13179    7    0    1
 -2       415      6613       414
 -1     13180    7    0    1
 -2       707      6614       706
 -1     13181    7    0    1
 -2      3310      7453      3312
 -1     13182    7    0    1
 -2      3178      7452      3180
 -1     13183    7    0    1
 -2      5739      7342      5766
 -1     13184    7    0    1
 -2      4203      6611      4216
 -1     13185    7    0    1
 -2      3041      7210      3044
 -1     13186    7    0    1
 -2      3020      7211      3017
 -1     13187    7    0    1
 -2      5767      7343      5736
 -1     13188    7    0    1
 -2       798      6612       797
 -1     13189    7    0    1
 -2      1595      7288       710
 -1     13190    7    0    1
 -2      2920      6606      2922
 -1     13191    7    0    1
 -2       411      7298      1594
 -1     13192    7    0    1
 -2      2890      6619      5332
 -1     13193    7    0    1
 -2      5979      7430      7289
 -1     13194    7    0    1
 -2      5978      7432      7290
 -1     13195    7    0    1
 -2      5977      7431      7291
 -1     13196    7    0    1
 -2      2693      6675      6238
 -1     13197    7    0    1
 -2      3446      7363      3461
 -1     13198    7    0    1
 -2      2902      7299      2964
 -1     13199    7    0    1
 -2      6594      6625      1413
 -1     13200    7    0    1
 -2      1601      7357       719
 -1     13201    7    0    1
 -2       402      7358      1602
 -1     13202    7    0    1
 -2      6287      7003      2062
 -1     13203    7    0    1
 -2      5325      6620      2919
 -1     13204    7    0    1
 -2      4386      7344      4478
 -1     13205    7    0    1
 -2      6113      7145      3535
 -1     13206    7    0    1
 -2      2052      6789      6056
 -1     13207    7    0    1
 -2      1407      6617      6090
 -1     13208    7    0    1
 -2      6115      7418      3969
 -1     13209    7    0    1
 -2      4349      6788      2287
 -1     13210    7    0    1
 -2      5716      6850      4226
 -1     13211    7    0    1
 -2      4628      6946      2198
 -1     13212    7    0    1
 -2      5161      6878      2896
 -1     13213    7    0    1
 -2      3948      6652      3950
 -1     13214    7    0    1
 -2      4692      6813      5139
 -1     13215    7    0    1
 -2      4584      6923      1573
 -1     13216    7    0    1
 -2      1575      6924      4585
 -1     13217    7    0    1
 -2      3974      6618      3977
 -1     13218    7    0    1
 -2      6119      6858      5904
 -1     13219    7    0    1
 -2      6615      6629      5089
 -1     13220    7    0    1
 -2      3190      7089      6184
 -1     13221    7    0    1
 -2      6111      7181      3253
 -1     13222    7    0    1
 -2      6112      7182      3385
 -1     13223    7    0    1
 -2      5908      6857      6124
 -1     13224    7    0    1
 -2      4750      7008      2280
 -1     13225    7    0    1
 -2      1577      6621       131
 -1     13226    7    0    1
 -2      4589      7177      5899
 -1     13227    7    0    1
 -2      5900      7176      4587
 -1     13228    7    0    1
 -2      6097      7459      6096
 -1     13229    7    0    1
 -2      5243      6902      2967
 -1     13230    7    0    1
 -2      3493      6654      4665
 -1     13231    7    0    1
 -2      5090      6617      6616
 -1     13232    7    0    1
 -2      4385      6624      4464
 -1     13233    7    0    1
 -2      5141      7044      1809
 -1     13234    7    0    1
 -2      1808      7045      5142
 -1     13235    7    0    1
 -2      6238      6675      4722
 -1     13236    7    0    1
 -2       112      6622       113
 -1     13237    7    0    1
 -2       266      6623       267
 -1     13238    7    0    1
 -2      6102      6580      2068
 -1     13239    7    0    1
 -2      2067      6581      6103
 -1     13240    7    0    1
 -2      6112      7199      7182
 -1     13241    7    0    1
 -2      6617      6626      6090
 -1     13242    7    0    1
 -2      2896      6905      5244
 -1     13243    7    0    1
 -2      2769      7442      6013
 -1     13244    7    0    1
 -2      6014      7443      2770
 -1     13245    7    0    1
 -2      3488      7178      2459
 -1     13246    7    0    1
 -2      6200      6615      6571
 -1     13247    7    0    1
 -2      6572      6616      6199
 -1     13248    7    0    1
 -2      2138      6629      1728
 -1     13249    7    0    1
 -2       115      6628       116
 -1     13250    7    0    1
 -2      4435      6627      4430
 -1     13251    7    0    1
 -2      6061      7279      6062
 -1     13252    7    0    1
 -2      2172      6539      6308
 -1     13253    7    0    1
 -2      2329      7105      6058
 -1     13254    7    0    1
 -2      3250      7377      4865
 -1     13255    7    0    1
 -2      3382      7376      4866
 -1     13256    7    0    1
 -2      5667      7355      5600
 -1     13257    7    0    1
 -2      1375      6607      6084
 -1     13258    7    0    1
 -2      3537      7145      7036
 -1     13259    7    0    1
 -2      4247      7220      5905
 -1     13260    7    0    1
 -2      6625      6629      2138
 -1     13261    7    0    1
 -2      6087      6979      6654
 -1     13262    7    0    1
 -2      3067      7283      5137
 -1     13263    7    0    1
 -2      5317      6645      3200
 -1     13264    7    0    1
 -2      5316      6644      3332
 -1     13265    7    0    1
 -2      6458      7357      4524
 -1     13266    7    0    1
 -2      4523      7358      6459
 -1     13267    7    0    1
 -2       244      6773       245
 -1     13268    7    0    1
 -2      5905      7220      1598
 -1     13269    7    0    1
 -2      4478      7344      6196
 -1     13270    7    0    1
 -2      5498      7526      6779
 -1     13271    7    0    1
 -2      1413      6625      2138
 -1     13272    7    0    1
 -2      6090      6626      1914
 -1     13273    7    0    1
 -2      6400      6507      1355
 -1     13274    7    0    1
 -2      3585      7509      3584
 -1     13275    7    0    1
 -2      4540      6636      3869
 -1     13276    7    0    1
 -2      1409      7116      5825
 -1     13277    7    0    1
 -2      5826      7117      1740
 -1     13278    7    0    1
 -2      3366      7199      6112
 -1     13279    7    0    1
 -2      4725      6642      1742
 -1     13280    7    0    1
 -2      1328      6631      5953
 -1     13281    7    0    1
 -2      6076      6630      5951
 -1     13282    7    0    1
 -2      1326      6632      5949
 -1     13283    7    0    1
 -2      5536      6901      4154
 -1     13284    7    0    1
 -2      4268      7517      4269
 -1     13285    7    0    1
 -2      4275      7516      4274
 -1     13286    7    0    1
 -2      4321      7518      4320
 -1     13287    7    0    1
 -2      6616      6617      1407
 -1     13288    7    0    1
 -2      5556      7247      3965
 -1     13289    7    0    1
 -2      2895      6859      5161
 -1     13290    7    0    1
 -2      5709      7485      3633
 -1     13291    7    0    1
 -2      6527      7467      1466
 -1     13292    7    0    1
 -2      4468      7162      6830
 -1     13293    7    0    1
 -2      6279      7486      2955
 -1     13294    7    0    1
 -2      6316      7130      3009
 -1     13295    7    0    1
 -2      2703      6638      2974
 -1     13296    7    0    1
 -2      2975      6639      2704
 -1     13297    7    0    1
 -2      4877      6643      3528
 -1     13298    7    0    1
 -2      4354      7493      5048
 -1     13299    7    0    1
 -2      5553      7519      4208
 -1     13300    7    0    1
 -2      5450      6649      4189
 -1     13301    7    0    1
 -2      5330      6849      2895
 -1     13302    7    0    1
 -2      4515      7255      4516
 -1     13303    7    0    1
 -2      5339      6856      5337
 -1     13304    7    0    1
 -2      2969      6740      5357
 -1     13305    7    0    1
 -2      1632      7198        27
 -1     13306    7    0    1
 -2      1728      6629      6615
 -1     13307    7    0    1
 -2      6598      6695      4432
 -1     13308    7    0    1
 -2         3      7195      1671
 -1     13309    7    0    1
 -2      4340      6507      6400
 -1     13310    7    0    1
 -2      5956      6640      4662
 -1     13311    7    0    1
 -2      6056      7508      2328
 -1     13312    7    0    1
 -2      3172      7461      4873
 -1     13313    7    0    1
 -2      3304      7462      4874
 -1     13314    7    0    1
 -2      2432      6681      5355
 -1     13315    7    0    1
 -2      4134      6776      3489
 -1     13316    7    0    1
 -2      2894      6784      5241
 -1     13317    7    0    1
 -2      5331      6836      5330
 -1     13318    7    0    1
 -2      3160      6948      3161
 -1     13319    7    0    1
 -2      3292      6947      3293
 -1     13320    7    0    1
 -2       883      6650      2701
 -1     13321    7    0    1
 -2      5369      6768      2965
 -1     13322    7    0    1
 -2      5997      6851      1428
 -1     13323    7    0    1
 -2      1429      6852      5996
 -1     13324    7    0    1
 -2      2967      6902      6876
 -1     13325    7    0    1
 -2      1728      6615      6200
 -1     13326    7    0    1
 -2      6199      6616      1407
 -1     13327    7    0    1
 -2      4432      6791      6598
 -1     13328    7    0    1
 -2      6571      6615      4972
 -1     13329    7    0    1
 -2      4934      6616      6572
 -1     13330    7    0    1
 -2      5340      6770      2894
 -1     13331    7    0    1
 -2      2965      6754      2969
 -1     13332    7    0    1
 -2      5775      6860      6384
 -1     13333    7    0    1
 -2      2684      6648      5867
 -1     13334    7    0    1
 -2      5868      6647      2683
 -1     13335    7    0    1
 -2      5809      6861      6386
 -1     13336    7    0    1
 -2      5776      6862      6387
 -1     13337    7    0    1
 -2      1748      6685      5049
 -1     13338    7    0    1
 -2      2930      7352      2950
 -1     13339    7    0    1
 -2      6878      6905      2896
 -1     13340    7    0    1
 -2       132      7207       133
 -1     13341    7    0    1
 -2       247      6653       248
 -1     13342    7    0    1
 -2       709      7288      6265
 -1     13343    7    0    1
 -2      4773      6812      6710
 -1     13344    7    0    1
 -2      6271      7298       412
 -1     13345    7    0    1
 -2      5323      6815      5324
 -1     13346    7    0    1
 -2      4240      7248      4817
 -1     13347    7    0    1
 -2      6041      6651      1356
 -1     13348    7    0    1
 -2      3010      7136      6317
 -1     13349    7    0    1
 -2      5598      6655      5596
 -1     13350    7    0    1
 -2      4552      7229      6775
 -1     13351    7    0    1
 -2      2892      6755      5340
 -1     13352    7    0    1
 -2      5906      6721      2739
 -1     13353    7    0    1
 -2      2068      6633      6136
 -1     13354    7    0    1
 -2      6135      6634      2067
 -1     13355    7    0    1
 -2      3517      7175      6113
 -1     13356    7    0    1
 -2      4515      7310      7255
 -1     13357    7    0    1
 -2      6384      6860      3462
 -1     13358    7    0    1
 -2      6386      6861      3381
 -1     13359    7    0    1
 -2      6387      6862      3249
 -1     13360    7    0    1
 -2      6453      7465      4529
 -1     13361    7    0    1
 -2      1652      7154      6794
 -1     13362    7    0    1
 -2      4530      7466      6454
 -1     13363    7    0    1
 -2      2103      6654      6137
 -1     13364    7    0    1
 -2      1280      6659      1279
 -1     13365    7    0    1
 -2      4630      7527      4480
 -1     13366    7    0    1
 -2      4479      7528      4629
 -1     13367    7    0    1
 -2       622      6661       621
 -1     13368    7    0    1
 -2       530      6662       529
 -1     13369    7    0    1
 -2       576      6663       575
 -1     13370    7    0    1
 -2       405      6657      1726
 -1     13371    7    0    1
 -2      1727      6658       716
 -1     13372    7    0    1
 -2      5967      7237      6809
 -1     13373    7    0    1
 -2      6808      7236      5966
 -1     13374    7    0    1
 -2      6507      6783      1355
 -1     13375    7    0    1
 -2      2073      6671      6670
 -1     13376    7    0    1
 -2      5951      7134      3169
 -1     13377    7    0    1
 -2      5953      7135      3433
 -1     13378    7    0    1
 -2      6859      6878      5161
 -1     13379    7    0    1
 -2      2411      6664       730
 -1     13380    7    0    1
 -2      2227      6666      2229
 -1     13381    7    0    1
 -2      2250      6734      6608
 -1     13382    7    0    1
 -2      5969      7230      2937
 -1     13383    7    0    1
 -2      4346      6665      4347
 -1     13384    7    0    1
 -2      2969      6754      6740
 -1     13385    7    0    1
 -2       337      7305         2
 -1     13386    7    0    1
 -2         1      7304        42
 -1     13387    7    0    1
 -2      4286      6863      2736
 -1     13388    7    0    1
 -2      3328      7049      5147
 -1     13389    7    0    1
 -2      6580      6633      2068
 -1     13390    7    0    1
 -2      2067      6634      6581
 -1     13391    7    0    1
 -2      2073      6670      3630
 -1     13392    7    0    1
 -2      5728      6667      5938
 -1     13393    7    0    1
 -2      5943      6668      5733
 -1     13394    7    0    1
 -2      2357      6656      6502
 -1     13395    7    0    1
 -2      3973      6931      3975
 -1     13396    7    0    1
 -2      2744      7448      5976
 -1     13397    7    0    1
 -2      6849      6859      2895
 -1     13398    7    0    1
 -2      6522      6817      3900
 -1     13399    7    0    1
 -2      4738      6674      4812
 -1     13400    7    0    1
 -2      5917      7123      5712
 -1     13401    7    0    1
 -2      1806      7228       195
 -1     13402    7    0    1
 -2      5612      6903      6385
 -1     13403    7    0    1
 -2      6226      7482      4298
 -1     13404    7    0    1
 -2      4840      7460      7411
 -1     13405    7    0    1
 -2      5229      6747      6422
 -1     13406    7    0    1
 -2      3109      6672      3108
 -1     13407    7    0    1
 -2      3110      6673      3111
 -1     13408    7    0    1
 -2       775      6679       774
 -1     13409    7    0    1
 -2       347      6680       346
 -1     13410    7    0    1
 -2      5315      6926      5314
 -1     13411    7    0    1
 -2      5301      6927      5300
 -1     13412    7    0    1
 -2      5308      6925      5307
 -1     13413    7    0    1
 -2      7123      7161      5712
 -1     13414    7    0    1
 -2      5339      6876      6856
 -1     13415    7    0    1
 -2      2737      7192      6309
 -1     13416    7    0    1
 -2      2749      7193      6311
 -1     13417    7    0    1
 -2      2965      6768      6754
 -1     13418    7    0    1
 -2      4753      6677      4225
 -1     13419    7    0    1
 -2      1374      6678      1373
 -1     13420    7    0    1
 -2      5869      7310      4515
 -1     13421    7    0    1
 -2      2356      6675      2693
 -1     13422    7    0    1
 -2      1441      7029      6411
 -1     13423    7    0    1
 -2      6734      6755      2892
 -1     13424    7    0    1
 -2      6836      6849      5330
 -1     13425    7    0    1
 -2      4887      6722      3917
 -1     13426    7    0    1
 -2      2256      6756      6037
 -1     13427    7    0    1
 -2      6665      7300      5492
 -1     13428    7    0    1
 -2      6655      7099      6091
 -1     13429    7    0    1
 -2      4367      7220      6422
 -1     13430    7    0    1
 -2      2739      6721      4899
 -1     13431    7    0    1
 -2      3645      6687      3486
 -1     13432    7    0    1
 -2      1319      6939      6648
 -1     13433    7    0    1
 -2      6647      6938      1316
 -1     13434    7    0    1
 -2      6755      6770      5340
 -1     13435    7    0    1
 -2      4098      6682      4094
 -1     13436    7    0    1
 -2      4278      6686      4281
 -1     13437    7    0    1
 -2      4404      7034      6736
 -1     13438    7    0    1
 -2      6081      7293      6883
 -1     13439    7    0    1
 -2      4315      6688      4319
 -1     13440    7    0    1
 -2      2997      6683      4382
 -1     13441    7    0    1
 -2      4381      6684      2990
 -1     13442    7    0    1
 -2      5567      6802      2757
 -1     13443    7    0    1
 -2      2762      6801      5568
 -1     13444    7    0    1
 -2      2053      7343      6077
 -1     13445    7    0    1
 -2      6078      7342      2054
 -1     13446    7    0    1
 -2      6770      6784      2894
 -1     13447    7    0    1
 -2      1721      6681      5830
 -1     13448    7    0    1
 -2      5465      6910      6445
 -1     13449    7    0    1
 -2      2177      7122      6110
 -1     13450    7    0    1
 -2      6445      6910      4416
 -1     13451    7    0    1
 -2      6222      7240      2135
 -1     13452    7    0    1
 -2      3600      6735      3599
 -1     13453    7    0    1
 -2      6082      7324      6922
 -1     13454    7    0    1
 -2      6083      7323      6921
 -1     13455    7    0    1
 -2      6148      7081      3003
 -1     13456    7    0    1
 -2      4295      7469      4759
 -1     13457    7    0    1
 -2      2122      6696      5127
 -1     13458    7    0    1
 -2      5673      6669      6204
 -1     13459    7    0    1
 -2      1436      7384      6683
 -1     13460    7    0    1
 -2      6684      7383      1437
 -1     13461    7    0    1
 -2      4388      6692      1475
 -1     13462    7    0    1
 -2      6457      7213      4968
 -1     13463    7    0    1
 -2      5568      6801      5617
 -1     13464    7    0    1
 -2      6085      6676      1416
 -1     13465    7    0    1
 -2      5712      7161      2183
 -1     13466    7    0    1
 -2      1519      6693       128
 -1     13467    7    0    1
 -2      2127      7112      6060
 -1     13468    7    0    1
 -2      4503      7365      5869
 -1     13469    7    0    1
 -2      2449      7511      3620
 -1     13470    7    0    1
 -2      3625      7513      2447
 -1     13471    7    0    1
 -2      3628      7512      1905
 -1     13472    7    0    1
 -2      3622      7514      2446
 -1     13473    7    0    1
 -2      1907      7515      4256
 -1     13474    7    0    1
 -2      4303      6761      4309
 -1     13475    7    0    1
 -2       196      7228      5804
 -1     13476    7    0    1
 -2      4986      6932      4987
 -1     13477    7    0    1
 -2      4988      6933      4989
 -1     13478    7    0    1
 -2      6620      6781      1744
 -1     13479    7    0    1
 -2      5545      6694      3918
 -1     13480    7    0    1
 -2      1389      7033      6694
 -1     13481    7    0    1
 -2      5618      6802      5567
 -1     13482    7    0    1
 -2      3004      7085      6149
 -1     13483    7    0    1
 -2      7161      7197      2183
 -1     13484    7    0    1
 -2      3482      7064      6910
 -1     13485    7    0    1
 -2      5040      7124      2978
 -1     13486    7    0    1
 -2      2137      7130      6316
 -1     13487    7    0    1
 -2      6814      7478      4734
 -1     13488    7    0    1
 -2      1329      7081      6148
 -1     13489    7    0    1
 -2      2838      6951      4834
 -1     13490    7    0    1
 -2      3786      6870      3487
 -1     13491    7    0    1
 -2      4775      7240      6222
 -1     13492    7    0    1
 -2      3370      7252      4765
 -1     13493    7    0    1
 -2      5207      6834      5206
 -1     13494    7    0    1
 -2      5214      6835      5213
 -1     13495    7    0    1
 -2      4454      7096      1480
 -1     13496    7    0    1
 -2      1395      7097      4455
 -1     13497    7    0    1
 -2      3014      7044      5141
 -1     13498    7    0    1
 -2      5142      7045      3038
 -1     13499    7    0    1
 -2       245      6773      1597
 -1     13500    7    0    1
 -2      2126      7275      6495
 -1     13501    7    0    1
 -2      6496      7274      2125
 -1     13502    7    0    1
 -2      5147      7470      3328
 -1     13503    7    0    1
 -2       239      6697       240
 -1     13504    7    0    1
 -2      1934      6800      6619
 -1     13505    7    0    1
 -2      4765      7252      3594
 -1     13506    7    0    1
 -2      3234      6803      6111
 -1     13507    7    0    1
 -2      6463      6890       102
 -1     13508    7    0    1
 -2       277      6891      6464
 -1     13509    7    0    1
 -2      5925      6814      4690
 -1     13510    7    0    1
 -2      3549      6753      1837
 -1     13511    7    0    1
 -2       236      6698       237
 -1     13512    7    0    1
 -2      5869      7365      7310
 -1     13513    7    0    1
 -2      4399      6779      4398
 -1     13514    7    0    1
 -2      4369      7303      4370
 -1     13515    7    0    1
 -2      4395      7007      3478
 -1     13516    7    0    1
 -2      1770      6950      6478
 -1     13517    7    0    1
 -2      4503      7422      7365
 -1     13518    7    0    1
 -2      2310      7349      6085
 -1     13519    7    0    1
 -2      6603      6825      1723
 -1     13520    7    0    1
 -2      4279      6911      4276
 -1     13521    7    0    1
 -2      6274      6912      4875
 -1     13522    7    0    1
 -2      4876      6913      6275
 -1     13523    7    0    1
 -2      5108      7169      5107
 -1     13524    7    0    1
 -2      6149      7085      1327
 -1     13525    7    0    1
 -2      1110      6700      1109
 -1     13526    7    0    1
 -2      4394      7007      4395
 -1     13527    7    0    1
 -2      1546      6689      6217
 -1     13528    7    0    1
 -2      1547      6690      6218
 -1     13529    7    0    1
 -2      1545      6691      6219
 -1     13530    7    0    1
 -2      5234      7060      6485
 -1     13531    7    0    1
 -2         2      7305       783
 -1     13532    7    0    1
 -2       338      7304         1
 -1     13533    7    0    1
 -2      6551      6906      1589
 -1     13534    7    0    1
 -2      6390      6728      1410
 -1     13535    7    0    1
 -2      5277      7489      1587
 -1     13536    7    0    1
 -2      5289      7490      1588
 -1     13537    7    0    1
 -2      3326      7049      3328
 -1     13538    7    0    1
 -2      6055      6699      1358
 -1     13539    7    0    1
 -2      6317      7136      2139
 -1     13540    7    0    1
 -2      5924      6911      4279
 -1     13541    7    0    1
 -2      1586      6908      6553
 -1     13542    7    0    1
 -2      4505      7215      6440
 -1     13543    7    0    1
 -2      6519      6980      1510
 -1     13544    7    0    1
 -2      2183      7197      5906
 -1     13545    7    0    1
 -2      1512      6971      6524
 -1     13546    7    0    1
 -2      3994      6702      5741
 -1     13547    7    0    1
 -2      6478      6950      3541
 -1     13548    7    0    1
 -2      4492      6701      3196
 -1     13549    7    0    1
 -2      5492      7300      6390
 -1     13550    7    0    1
 -2       156      6705       157
 -1     13551    7    0    1
 -2      4873      7461      4900
 -1     13552    7    0    1
 -2      4874      7462      4901
 -1     13553    7    0    1
 -2      1570      7022      6506
 -1     13554    7    0    1
 -2      5584      6706      5581
 -1     13555    7    0    1
 -2      6485      7060      1928
 -1     13556    7    0    1
 -2      3461      7363      6451
 -1     13557    7    0    1
 -2      6117      6703      2417
 -1     13558    7    0    1
 -2      2418      6704      6116
 -1     13559    7    0    1
 -2      4670      6720      4671
 -1     13560    7    0    1
 -2      4868      6963      4216
 -1     13561    7    0    1
 -2      2450      7202      3618
 -1     13562    7    0    1
 -2      5422      7018      4764
 -1     13563    7    0    1
 -2      4763      7019      5424
 -1     13564    7    0    1
 -2      1689      6707      1698
 -1     13565    7    0    1
 -2      6431      6963      4868
 -1     13566    7    0    1
 -2      6481      7277      1468
 -1     13567    7    0    1
 -2      1469      7278      6480
 -1     13568    7    0    1
 -2      2073      7421      6671
 -1     13569    7    0    1
 -2      2027      6709      2133
 -1     13570    7    0    1
 -2      5748      7506      1920
 -1     13571    7    0    1
 -2      1916      7507      5751
 -1     13572    7    0    1
 -2      4192      6624      6471
 -1     13573    7    0    1
 -2       597      6711       596
 -1     13574    7    0    1
 -2       505      6712       504
 -1     13575    7    0    1
 -2       587      6713       586
 -1     13576    7    0    1
 -2       495      6714       494
 -1     13577    7    0    1
 -2      6855      7440      1486
 -1     13578    7    0    1
 -2       206      6715       207
 -1     13579    7    0    1
 -2      6723      7160      4411
 -1     13580    7    0    1
 -2      3330      6758      3333
 -1     13581    7    0    1
 -2      3198      6757      3201
 -1     13582    7    0    1
 -2      5927      6780      6291
 -1     13583    7    0    1
 -2      5077      6716      5073
 -1     13584    7    0    1
 -2      3966      7422      4503
 -1     13585    7    0    1
 -2      3960      7033      4883
 -1     13586    7    0    1
 -2      6557      6846        85
 -1     13587    7    0    1
 -2       294      6845      6556
 -1     13588    7    0    1
 -2      5324      6815      5325
 -1     13589    7    0    1
 -2      6506      7022      5322
 -1     13590    7    0    1
 -2      5578      6729      4991
 -1     13591    7    0    1
 -2      6458      7392      1727
 -1     13592    7    0    1
 -2      1726      7393      6459
 -1     13593    7    0    1
 -2       119      6717       120
 -1     13594    7    0    1
 -2      6525      6813      1803
 -1     13595    7    0    1
 -2      6409      7242       323
 -1     13596    7    0    1
 -2        56      7243      6410
 -1     13597    7    0    1
 -2      4262      6824      4263
 -1     13598    7    0    1
 -2      3970      7103      6532
 -1     13599    7    0    1
 -2      6598      6791      6063
 -1     13600    7    0    1
 -2      2260      6723      5472
 -1     13601    7    0    1
 -2      4281      7233      4280
 -1     13602    7    0    1
 -2      4930      7214      6469
 -1     13603    7    0    1
 -2      2501      6718      5973
 -1     13604    7    0    1
 -2      5974      6719      2502
 -1     13605    7    0    1
 -2       551      6724       550
 -1     13606    7    0    1
 -2      6390      7300      6728
 -1     13607    7    0    1
 -2      4751      6940      6682
 -1     13608    7    0    1
 -2      3599      6735      3602
 -1     13609    7    0    1
 -2      3328      7470      3330
 -1     13610    7    0    1
 -2      6541      7109      5757
 -1     13611    7    0    1
 -2      5471      7314      4402
 -1     13612    7    0    1
 -2      6601      6964      5505
 -1     13613    7    0    1
 -2      6602      6965      5506
 -1     13614    7    0    1
 -2      4186      6725      5548
 -1     13615    7    0    1
 -2      4323      6728      4324
 -1     13616    7    0    1
 -2        15      6726       560
 -1     13617    7    0    1
 -2      4438      7105      4442
 -1     13618    7    0    1
 -2      4002      6821      6479
 -1     13619    7    0    1
 -2      6548      7140      1494
 -1     13620    7    0    1
 -2      5014      7363      3444
 -1     13621    7    0    1
 -2      6197      6997      4490
 -1     13622    7    0    1
 -2      2429      6737      5152
 -1     13623    7    0    1
 -2      6650      7155      2701
 -1     13624    7    0    1
 -2      6431      7438      1523
 -1     13625    7    0    1
 -2      4642      6727      4371
 -1     13626    7    0    1
 -2      5196      6980      6519
 -1     13627    7    0    1
 -2      3075      7492      4854
 -1     13628    7    0    1
 -2      2460      6730      3495
 -1     13629    7    0    1
 -2      1440      7051       215
 -1     13630    7    0    1
 -2      6858      7331      5904
 -1     13631    7    0    1
 -2      5905      7248      4240
 -1     13632    7    0    1
 -2      5908      7330      6857
 -1     13633    7    0    1
 -2      5265      7499      1590
 -1     13634    7    0    1
 -2      5655      7487      3966
 -1     13635    7    0    1
 -2      5529      6963      4348
 -1     13636    7    0    1
 -2       129      7367       130
 -1     13637    7    0    1
 -2      5790      7107      1511
 -1     13638    7    0    1
 -2       541      6732       540
 -1     13639    7    0    1
 -2      5684      7068      6266
 -1     13640    7    0    1
 -2      6567      6850      1456
 -1     13641    7    0    1
 -2      4692      7079      6813
 -1     13642    7    0    1
 -2      1616      7249      5494
 -1     13643    7    0    1
 -2      2389      6733      2681
 -1     13644    7    0    1
 -2      5332      6836      5331
 -1     13645    7    0    1
 -2      3990      6736      5514
 -1     13646    7    0    1
 -2      5154      6743      2430
 -1     13647    7    0    1
 -2      4512      7392      6458
 -1     13648    7    0    1
 -2      6459      7393      4513
 -1     13649    7    0    1
 -2      4625      6870      3492
 -1     13650    7    0    1
 -2      1414      6729      2058
 -1     13651    7    0    1
 -2      5795      6734      5645
 -1     13652    7    0    1
 -2      5743      7116      6596
 -1     13653    7    0    1
 -2      6597      7117      5745
 -1     13654    7    0    1
 -2      2311      7479      6679
 -1     13655    7    0    1
 -2      6680      7480      2310
 -1     13656    7    0    1
 -2      1752      6738       125
 -1     13657    7    0    1
 -2      4843      7264      1381
 -1     13658    7    0    1
 -2      1380      7263      4847
 -1     13659    7    0    1
 -2      6524      6971      5202
 -1     13660    7    0    1
 -2      3966      7487      7422
 -1     13661    7    0    1
 -2      1530      6741       109
 -1     13662    7    0    1
 -2       270      6742      1529
 -1     13663    7    0    1
 -2      5651      6739      1363
 -1     13664    7    0    1
 -2      4448      6789      4447
 -1     13665    7    0    1
 -2      5107      7169      6240
 -1     13666    7    0    1
 -2      6152      7420      4695
 -1     13667    7    0    1
 -2      5646      6740      2247
 -1     13668    7    0    1
 -2      3390      7446      5819
 -1     13669    7    0    1
 -2      3258      7447      5820
 -1     13670    7    0    1
 -2      6032      6731      2355
 -1     13671    7    0    1
 -2      1755      7477      6981
 -1     13672    7    0    1
 -2      6621      7208      5723
 -1     13673    7    0    1
 -2      6435      7445      2331
 -1     13674    7    0    1
 -2      4305      6761      4303
 -1     13675    7    0    1
 -2      1883      6745       892
 -1     13676    7    0    1
 -2      6643      6981      5504
 -1     13677    7    0    1
 -2      6530      7335      3597
 -1     13678    7    0    1
 -2      6343      7303      4369
 -1     13679    7    0    1
 -2      5753      6744      3923
 -1     13680    7    0    1
 -2      3379      6750      5221
 -1     13681    7    0    1
 -2      3247      6751      5219
 -1     13682    7    0    1
 -2      4367      6747      1303
 -1     13683    7    0    1
 -2      2878      6748      2877
 -1     13684    7    0    1
 -2      4713      7267       350
 -1     13685    7    0    1
 -2      5795      6755      6734
 -1     13686    7    0    1
 -2      6291      6780      1629
 -1     13687    7    0    1
 -2      4272      6812      4773
 -1     13688    7    0    1
 -2      6740      6754      2247
 -1     13689    7    0    1
 -2      5032      7336      5031
 -1     13690    7    0    1
 -2      6381      6716      2063
 -1     13691    7    0    1
 -2      5812      7047      4711
 -1     13692    7    0    1
 -2       387      6419      2728
 -1     13693    7    0    1
 -2      2729      6418       768
 -1     13694    7    0    1
 -2      4538      7497      6586
 -1     13695    7    0    1
 -2      6586      7497      4227
 -1     13696    7    0    1
 -2      2976      7486      5033
 -1     13697    7    0    1
 -2      3492      6870      3786
 -1     13698    7    0    1
 -2       564      6760       563
 -1     13699    7    0    1
 -2      2247      6754      5800
 -1     13700    7    0    1
 -2      1754      7447      6965
 -1     13701    7    0    1
 -2      1756      7446      6964
 -1     13702    7    0    1
 -2       167      6759       168
 -1     13703    7    0    1
 -2      5679      7003      6287
 -1     13704    7    0    1
 -2      2285      6756      4450
 -1     13705    7    0    1
 -2      6559      7361      3596
 -1     13706    7    0    1
 -2      6558      7360      3595
 -1     13707    7    0    1
 -2      6065      7260      6064
 -1     13708    7    0    1
 -2      6066      7261      6067
 -1     13709    7    0    1
 -2      1399      6755      5795
 -1     13710    7    0    1
 -2      2503      6591      6590
 -1     13711    7    0    1
 -2      6592      6593      2504
 -1     13712    7    0    1
 -2      6693      7386      4558
 -1     13713    7    0    1
 -2       164      6762      1439
 -1     13714    7    0    1
 -2      3897      6763      5550
 -1     13715    7    0    1
 -2      6716      6900      2063
 -1     13716    7    0    1
 -2       835      6769      1714
 -1     13717    7    0    1
 -2      2612      7442      6498
 -1     13718    7    0    1
 -2      6499      7443      2569
 -1     13719    7    0    1
 -2      6224      7124      5040
 -1     13720    7    0    1
 -2      6495      7275      3096
 -1     13721    7    0    1
 -2      3090      7274      6496
 -1     13722    7    0    1
 -2      1587      7489      5774
 -1     13723    7    0    1
 -2      1588      7490      5772
 -1     13724    7    0    1
 -2      6644      6989      5363
 -1     13725    7    0    1
 -2      6645      6988      5365
 -1     13726    7    0    1
 -2      4330      7456      4766
 -1     13727    7    0    1
 -2      3104      6906      6551
 -1     13728    7    0    1
 -2       366      6765       365
 -1     13729    7    0    1
 -2       751      6766       750
 -1     13730    7    0    1
 -2      6660      7292      2201
 -1     13731    7    0    1
 -2      6648      6939      5867
 -1     13732    7    0    1
 -2      5868      6938      6647
 -1     13733    7    0    1
 -2      3547      7449      4879
 -1     13734    7    0    1
 -2       249      6767       250
 -1     13735    7    0    1
 -2      6754      6768      5800
 -1     13736    7    0    1
 -2      4634      7379      7268
 -1     13737    7    0    1
 -2      7269      7380      4635
 -1     13738    7    0    1
 -2      4398      6779      4401
 -1     13739    7    0    1
 -2      4093      6940      5530
 -1     13740    7    0    1
 -2      6553      6908      3105
 -1     13741    7    0    1
 -2      3068      7345      6500
 -1     13742    7    0    1
 -2      6501      7346      3070
 -1     13743    7    0    1
 -2      2784      7379      5291
 -1     13744    7    0    1
 -2      1399      6770      6755
 -1     13745    7    0    1
 -2      5293      7380      2785
 -1     13746    7    0    1
 -2       310      6771       311
 -1     13747    7    0    1
 -2        68      6772        69
 -1     13748    7    0    1
 -2      5000      7102      3579
 -1     13749    7    0    1
 -2      5937      6764      3322
 -1     13750    7    0    1
 -2      4392      7256      4391
 -1     13751    7    0    1
 -2      2230      6749      6566
 -1     13752    7    0    1
 -2      5800      6768      1744
 -1     13753    7    0    1
 -2      6229      7107      5790
 -1     13754    7    0    1
 -2      4308      6778      5203
 -1     13755    7    0    1
 -2      3779      7100      6573
 -1     13756    7    0    1
 -2      5810      6770      1399
 -1     13757    7    0    1
 -2      5796      6773      5797
 -1     13758    7    0    1
 -2      5443      7146      6406
 -1     13759    7    0    1
 -2      1590      7499      5773
 -1     13760    7    0    1
 -2      6093      7138      5580
 -1     13761    7    0    1
 -2      4373      7457      4380
 -1     13762    7    0    1
 -2      4186      6833      6725
 -1     13763    7    0    1
 -2      2979      7120      5037
 -1     13764    7    0    1
 -2      4864      6832      1774
 -1     13765    7    0    1
 -2      1773      6831      4863
 -1     13766    7    0    1
 -2      4606      7348      6884
 -1     13767    7    0    1
 -2      1629      6780      3553
 -1     13768    7    0    1
 -2      4417      7194      6212
 -1     13769    7    0    1
 -2       221      6775       222
 -1     13770    7    0    1
 -2      6422      6747      4367
 -1     13771    7    0    1
 -2      4467      6776      4361
 -1     13772    7    0    1
 -2      3454      6774      3455
 -1     13773    7    0    1
 -2      6465      6931      2290
 -1     13774    7    0    1
 -2      4520      7140      6548
 -1     13775    7    0    1
 -2      6054      6769      3545
 -1     13776    7    0    1
 -2      3167      6797      5311
 -1     13777    7    0    1
 -2      3431      6798      5297
 -1     13778    7    0    1
 -2      3299      6799      5304
 -1     13779    7    0    1
 -2      5337      6856      5338
 -1     13780    7    0    1
 -2      1596      7109      6541
 -1     13781    7    0    1
 -2      5500      7087      4102
 -1     13782    7    0    1
 -2      1557      6777       562
 -1     13783    7    0    1
 -2      6502      6656      4725
 -1     13784    7    0    1
 -2       622      6982      6661
 -1     13785    7    0    1
 -2       530      6983      6662
 -1     13786    7    0    1
 -2       576      6984      6663
 -1     13787    7    0    1
 -2      4336      7057      6349
 -1     13788    7    0    1
 -2       649      6781       648
 -1     13789    7    0    1
 -2      3574      6786      3575
 -1     13790    7    0    1
 -2      6622      7058       113
 -1     13791    7    0    1
 -2       266      7059      6623
 -1     13792    7    0    1
 -2      6008      7213      6457
 -1     13793    7    0    1
 -2      4276      6911      4275
 -1     13794    7    0    1
 -2      1355      6783      4606
 -1     13795    7    0    1
 -2      5810      6784      6770
 -1     13796    7    0    1
 -2      3939      6782      3913
 -1     13797    7    0    1
 -2      6640      7223      1302
 -1     13798    7    0    1
 -2      4322      6914      4321
 -1     13799    7    0    1
 -2      1313      6817      6522
 -1     13800    7    0    1
 -2      4269      6915      4817
 -1     13801    7    0    1
 -2      6513      6886      5414
 -1     13802    7    0    1
 -2      6514      6885      5412
 -1     13803    7    0    1
 -2      4301      6796      4299
 -1     13804    7    0    1
 -2      3427      6785      3436
 -1     13805    7    0    1
 -2       162      7472       163
 -1     13806    7    0    1
 -2      1934      6784      5810
 -1     13807    7    0    1
 -2      3610      7232      6660
 -1     13808    7    0    1
 -2      6918      7261      6066
 -1     13809    7    0    1
 -2      6064      7260      6917
 -1     13810    7    0    1
 -2      2426      7030      4707
 -1     13811    7    0    1
 -2       647      6787      1723
 -1     13812    7    0    1
 -2      4657      6794      5435
 -1     13813    7    0    1
 -2      4220      6790      4237
 -1     13814    7    0    1
 -2      6712      7144      5290
 -1     13815    7    0    1
 -2      6711      7143      5278
 -1     13816    7    0    1
 -2      6004      7335      6530
 -1     13817    7    0    1
 -2      1818      7001      4785
 -1     13818    7    0    1
 -2      4786      7002      1820
 -1     13819    7    0    1
 -2      6697      7068      2056
 -1     13820    7    0    1
 -2      4850      6961      4849
 -1     13821    7    0    1
 -2      4845      6962      4846
 -1     13822    7    0    1
 -2      2796      7506      6476
 -1     13823    7    0    1
 -2      6477      7507      2797
 -1     13824    7    0    1
 -2      6143      7256      4392
 -1     13825    7    0    1
 -2      6671      7102      6735
 -1     13826    7    0    1
 -2      4170      7048      3477
 -1     13827    7    0    1
 -2      3929      6997      6197
 -1     13828    7    0    1
 -2      6683      7384      4382
 -1     13829    7    0    1
 -2      4381      7383      6684
 -1     13830    7    0    1
 -2      6654      6979      4665
 -1     13831    7    0    1
 -2      3956      6887      5709
 -1     13832    7    0    1
 -2      2877      6748      6326
 -1     13833    7    0    1
 -2      4288      7469      4287
 -1     13834    7    0    1
 -2      6926      7474      5314
 -1     13835    7    0    1
 -2      6927      7475      5300
 -1     13836    7    0    1
 -2      6925      7473      5307
 -1     13837    7    0    1
 -2      5077      6900      6716
 -1     13838    7    0    1
 -2      3975      6931      6465
 -1     13839    7    0    1
 -2      6212      7194      1348
 -1     13840    7    0    1
 -2      6063      6791      2127
 -1     13841    7    0    1
 -2      3792      6796      5490
 -1     13842    7    0    1
 -2      3572      6805      5104
 -1     13843    7    0    1
 -2       474      6800       473
 -1     13844    7    0    1
 -2      6536      6898      4309
 -1     13845    7    0    1
 -2      6546      6907      5416
 -1     13846    7    0    1
 -2      2679      6804      2406
 -1     13847    7    0    1
 -2      4734      7478      6816
 -1     13848    7    0    1
 -2      4685      6795      4683
 -1     13849    7    0    1
 -2      2505      6801      5850
 -1     13850    7    0    1
 -2      1941      6802      2506
 -1     13851    7    0    1
 -2      1797      6979      6087
 -1     13852    7    0    1
 -2      6636      7111      3953
 -1     13853    7    0    1
 -2      6005      7360      6558
 -1     13854    7    0    1
 -2      6006      7361      6559
 -1     13855    7    0    1
 -2      4732      6814      4734
 -1     13856    7    0    1
 -2      6676      7030      4672
 -1     13857    7    0    1
 -2      6453      7328      2119
 -1     13858    7    0    1
 -2      2120      7329      6454
 -1     13859    7    0    1
 -2      3598      6806      2305
 -1     13860    7    0    1
 -2      6932      7463      4987
 -1     13861    7    0    1
 -2      6933      7464      4989
 -1     13862    7    0    1
 -2      5598      7099      6655
 -1     13863    7    0    1
 -2      4326      6807      4327
 -1     13864    7    0    1
 -2      2794      6828      5128
 -1     13865    7    0    1
 -2      5129      6829      2795
 -1     13866    7    0    1
 -2      4808      7309      2886
 -1     13867    7    0    1
 -2      5037      7120      6247
 -1     13868    7    0    1
 -2      6469      7214      6007
 -1     13869    7    0    1
 -2      6608      6734      2892
 -1     13870    7    0    1
 -2      1771      6811       475
 -1     13871    7    0    1
 -2      1316      6938      6028
 -1     13872    7    0    1
 -2      6029      6939      1319
 -1     13873    7    0    1
 -2      6834      7350      5206
 -1     13874    7    0    1
 -2      6835      7351      5213
 -1     13875    7    0    1
 -2      3544      7477      5818
 -1     13876    7    0    1
 -2      4792      6822      4791
 -1     13877    7    0    1
 -2      5338      6825      6603
 -1     13878    7    0    1
 -2       347      7039      6680
 -1     13879    7    0    1
 -2      6679      7042       774
 -1     13880    7    0    1
 -2      5033      7375      2976
 -1     13881    7    0    1
 -2      1803      6813      5829
 -1     13882    7    0    1
 -2      2950      6810      5969
 -1     13883    7    0    1
 -2      6724      7170      5266
 -1     13884    7    0    1
 -2      5956      7223      6640
 -1     13885    7    0    1
 -2      6685      7108      3887
 -1     13886    7    0    1
 -2      3898      6817      3952
 -1     13887    7    0    1
 -2      3533      6867      3424
 -1     13888    7    0    1
 -2      2404      6819      2401
 -1     13889    7    0    1
 -2      3383      6869      3292
 -1     13890    7    0    1
 -2      3251      6868      3160
 -1     13891    7    0    1
 -2      6730      6928      3495
 -1     13892    7    0    1
 -2      4270      6818      2331
 -1     13893    7    0    1
 -2      1920      7506      6516
 -1     13894    7    0    1
 -2      6517      7507      1916
 -1     13895    7    0    1
 -2      6309      7271      2740
 -1     13896    7    0    1
 -2      6310      7273      2748
 -1     13897    7    0    1
 -2      6311      7272      2752
 -1     13898    7    0    1
 -2      6638      6917      2974
 -1     13899    7    0    1
 -2      2975      6918      6639
 -1     13900    7    0    1
 -2      3078      7167      3079
 -1     13901    7    0    1
 -2      3072      7168      3073
 -1     13902    7    0    1
 -2      2402      6882      3488
 -1     13903    7    0    1
 -2      4174      6824      5512
 -1     13904    7    0    1
 -2      1375      7405      6607
 -1     13905    7    0    1
 -2      3088      6816      2708
 -1     13906    7    0    1
 -2      6275      6913      1459
 -1     13907    7    0    1
 -2      1460      6912      6274
 -1     13908    7    0    1
 -2      5804      6823      4222
 -1     13909    7    0    1
 -2      6676      7337      1416
 -1     13910    7    0    1
 -2      6442      7423      3798
 -1     13911    7    0    1
 -2      6294      6967      2044
 -1     13912    7    0    1
 -2      2045      6968      6295
 -1     13913    7    0    1
 -2       646      6825       645
 -1     13914    7    0    1
 -2      3611      6826      2200
 -1     13915    7    0    1
 -2      3612      6827      2199
 -1     13916    7    0    1
 -2      6151      7532      7154
 -1     13917    7    0    1
 -2      5325      6781      6620
 -1     13918    7    0    1
 -2      4863      6831      6288
 -1     13919    7    0    1
 -2      6289      6832      4864
 -1     13920    7    0    1
 -2      6619      6800      5332
 -1     13921    7    0    1
 -2      6470      6914      4322
 -1     13922    7    0    1
 -2      1594      7148      5886
 -1     13923    7    0    1
 -2      5884      7147      1595
 -1     13924    7    0    1
 -2      2948      6830      2949
 -1     13925    7    0    1
 -2      4164      6833      4186
 -1     13926    7    0    1
 -2      3939      6889      6782
 -1     13927    7    0    1
 -2      6899      7394      1500
 -1     13928    7    0    1
 -2         7      7356       388
 -1     13929    7    0    1
 -2       767      7359        23
 -1     13930    7    0    1
 -2      5442      7079      4692
 -1     13931    7    0    1
 -2      5318      6848      4183
 -1     13932    7    0    1
 -2      2305      7311      6575
 -1     13933    7    0    1
 -2      3621      7504      3623
 -1     13934    7    0    1
 -2      3624      7503      3626
 -1     13935    7    0    1
 -2      3627      7505      3629
 -1     13936    7    0    1
 -2      2942      7347      6888
 -1     13937    7    0    1
 -2      2249      6834      6171
 -1     13938    7    0    1
 -2      2248      6835      6170
 -1     13939    7    0    1
 -2       644      6837      1924
 -1     13940    7    0    1
 -2      6736      7034      5514
 -1     13941    7    0    1
 -2      6333      7158      2468
 -1     13942    7    0    1
 -2      4883      7253      3960
 -1     13943    7    0    1
 -2       350      7267         5
 -1     13944    7    0    1
 -2      4370      7303      6552
 -1     13945    7    0    1
 -2      6607      7435      6084
 -1     13946    7    0    1
 -2      6288      6831      3059
 -1     13947    7    0    1
 -2      3035      6832      6289
 -1     13948    7    0    1
 -2      6397      7267      4713
 -1     13949    7    0    1
 -2      6048      6923      2769
 -1     13950    7    0    1
 -2      2770      6924      6049
 -1     13951    7    0    1
 -2       100      6843      1583
 -1     13952    7    0    1
 -2      1584      6844       279
 -1     13953    7    0    1
 -2      1374      7497      6678
 -1     13954    7    0    1
 -2      3974      7483      6618
 -1     13955    7    0    1
 -2       620      6840       619
 -1     13956    7    0    1
 -2       528      6841       527
 -1     13957    7    0    1
 -2       574      6842       573
 -1     13958    7    0    1
 -2       293      6845       294
 -1     13959    7    0    1
 -2        85      6846        86
 -1     13960    7    0    1
 -2      3620      6972      4612
 -1     13961    7    0    1
 -2      3629      6974      3628
 -1     13962    7    0    1
 -2      3626      6975      3625
 -1     13963    7    0    1
 -2      3623      6973      3622
 -1     13964    7    0    1
 -2      3618      6976      4640
 -1     13965    7    0    1
 -2      6627      6791      4432
 -1     13966    7    0    1
 -2      4932      7307      4935
 -1     13967    7    0    1
 -2      4973      7308      4970
 -1     13968    7    0    1
 -2      4385      7484      6624
 -1     13969    7    0    1
 -2      6737      7082      5152
 -1     13970    7    0    1
 -2      6058      6847      6057
 -1     13971    7    0    1
 -2      1447      7425      6610
 -1     13972    7    0    1
 -2      6609      7433      1448
 -1     13973    7    0    1
 -2      5341      6998      1405
 -1     13974    7    0    1
 -2      1709      6999      5342
 -1     13975    7    0    1
 -2      3462      6860      5163
 -1     13976    7    0    1
 -2      3381      6861      5181
 -1     13977    7    0    1
 -2      3249      6862      5172
 -1     13978    7    0    1
 -2      5093      6695      6598
 -1     13979    7    0    1
 -2      5425      7019      1315
 -1     13980    7    0    1
 -2      1314      7018      5423
 -1     13981    7    0    1
 -2      2063      6900      2051
 -1     13982    7    0    1
 -2      3461      6839      5897
 -1     13983    7    0    1
 -2      5154      7084      6743
 -1     13984    7    0    1
 -2      6698      7216       237
 -1     13985    7    0    1
 -2      4343      6763      6568
 -1     13986    7    0    1
 -2      6568      6763      3897
 -1     13987    7    0    1
 -2      3480      7043      4414
 -1     13988    7    0    1
 -2      1771      6849      6836
 -1     13989    7    0    1
 -2      5824      6849      1771
 -1     13990    7    0    1
 -2      1456      6850      1806
 -1     13991    7    0    1
 -2      5819      7446      1756
 -1     13992    7    0    1
 -2      5820      7447      1754
 -1     13993    7    0    1
 -2      5549      6855      3888
 -1     13994    7    0    1
 -2      5166      7531      5167
 -1     13995    7    0    1
 -2      6470      7366      1379
 -1     13996    7    0    1
 -2      5184      7529      5185
 -1     13997    7    0    1
 -2      5175      7530      5176
 -1     13998    7    0    1
 -2      5578      7138      6729
 -1     13999    7    0    1
 -2      5912      6851      3069
 -1     14000    7    0    1
 -2      3071      6852      5913
 -1     14001    7    0    1
 -2       106      6857       107
 -1     14002    7    0    1
 -2       272      6858       273
 -1     14003    7    0    1
 -2      4801      7410      6854
 -1     14004    7    0    1
 -2      4439      7460      6058
 -1     14005    7    0    1
 -2      5033      7486      6279
 -1     14006    7    0    1
 -2      4832      7286      4549
 -1     14007    7    0    1
 -2      2978      7124      6368
 -1     14008    7    0    1
 -2      4445      6944      6523
 -1     14009    7    0    1
 -2      2950      7352      6805
 -1     14010    7    0    1
 -2      6369      7120      2979
 -1     14011    7    0    1
 -2      4801      6854      4789
 -1     14012    7    0    1
 -2      6278      7092      2101
 -1     14013    7    0    1
 -2       308      6864       309
 -1     14014    7    0    1
 -2        70      6865        71
 -1     14015    7    0    1
 -2      6797      7026      5311
 -1     14016    7    0    1
 -2      6798      7025      5297
 -1     14017    7    0    1
 -2      6799      7027      5304
 -1     14018    7    0    1
 -2      5824      6859      6849
 -1     14019    7    0    1
 -2      6664      7410      4745
 -1     14020    7    0    1
 -2      1837      6753      6606
 -1     14021    7    0    1
 -2      4789      6854      4790
 -1     14022    7    0    1
 -2      4626      6870      4625
 -1     14023    7    0    1
 -2      6479      6821      4420
 -1     14024    7    0    1
 -2      2866      7052      6394
 -1     14025    7    0    1
 -2      1591      6860      5775
 -1     14026    7    0    1
 -2      5084      7085      3004
 -1     14027    7    0    1
 -2      3850      6871      3848
 -1     14028    7    0    1
 -2      1593      6861      5809
 -1     14029    7    0    1
 -2      1592      6862      5776
 -1     14030    7    0    1
 -2      6534      7000      4408
 -1     14031    7    0    1
 -2      1926      6859      5824
 -1     14032    7    0    1
 -2      4440      6909      4441
 -1     14033    7    0    1
 -2      4708      6967      6294
 -1     14034    7    0    1
 -2      6295      6968      4709
 -1     14035    7    0    1
 -2      4318      6866      6213
 -1     14036    7    0    1
 -2      5467      6970      3931
 -1     14037    7    0    1
 -2      5600      7355      6903
 -1     14038    7    0    1
 -2      3949      6875      3947
 -1     14039    7    0    1
 -2      5424      7019      5425
 -1     14040    7    0    1
 -2      5423      7018      5422
 -1     14041    7    0    1
 -2      1932      6872       602
 -1     14042    7    0    1
 -2      1933      6873       510
 -1     14043    7    0    1
 -2      1940      7084      6271
 -1     14044    7    0    1
 -2      5303      6879      3281
 -1     14045    7    0    1
 -2      5310      6880      3149
 -1     14046    7    0    1
 -2      5296      6881      3413
 -1     14047    7    0    1
 -2      2753      7174      4514
 -1     14048    7    0    1
 -2      3255      7323      6083
 -1     14049    7    0    1
 -2      3387      7324      6082
 -1     14050    7    0    1
 -2      4462      6977      6749
 -1     14051    7    0    1
 -2      6324      7148      1594
 -1     14052    7    0    1
 -2      1595      7147      6323
 -1     14053    7    0    1
 -2      6856      6876      1924
 -1     14054    7    0    1
 -2      1354      6884      5535
 -1     14055    7    0    1
 -2      1926      6878      6859
 -1     14056    7    0    1
 -2      4319      6882      4317
 -1     14057    7    0    1
 -2      6729      7138      2058
 -1     14058    7    0    1
 -2      6265      7082      1938
 -1     14059    7    0    1
 -2      4154      6901      5478
 -1     14060    7    0    1
 -2      6276      7449      3547
 -1     14061    7    0    1
 -2      5478      6901      4477
 -1     14062    7    0    1
 -2      2260      7160      6723
 -1     14063    7    0    1
 -2      6749      6977      6566
 -1     14064    7    0    1
 -2      1924      6876      5807
 -1     14065    7    0    1
 -2         5      7267       385
 -1     14066    7    0    1
 -2      5818      7477      1755
 -1     14067    7    0    1
 -2      2837      6874      5984
 -1     14068    7    0    1
 -2      6889      7028      1449
 -1     14069    7    0    1
 -2      5777      6878      1926
 -1     14070    7    0    1
 -2       102      6890       103
 -1     14071    7    0    1
 -2       276      6891       277
 -1     14072    7    0    1
 -2      4457      6887      2107
 -1     14073    7    0    1
 -2      6795      7325      4696
 -1     14074    7    0    1
 -2      3958      7033      3960
 -1     14075    7    0    1
 -2      3941      6889      3939
 -1     14076    7    0    1
 -2      3538      7293      6081
 -1     14077    7    0    1
 -2       498      6885      1563
 -1     14078    7    0    1
 -2       590      6886      1566
 -1     14079    7    0    1
 -2      5143      7200      4500
 -1     14080    7    0    1
 -2      5144      7201      4501
 -1     14081    7    0    1
 -2        25      7312       766
 -1     14082    7    0    1
 -2      2968      6953      3104
 -1     14083    7    0    1
 -2      2102      7072      6268
 -1     14084    7    0    1
 -2      3523      6883      5993
 -1     14085    7    0    1
 -2      3038      7045      3050
 -1     14086    7    0    1
 -2      3026      7044      3014
 -1     14087    7    0    1
 -2      3105      6957      2897
 -1     14088    7    0    1
 -2      6151      7154      1652
 -1     14089    7    0    1
 -2      4477      6901      4360
 -1     14090    7    0    1
 -2      1493      7450      3964
 -1     14091    7    0    1
 -2      6474      7008      1751
 -1     14092    7    0    1
 -2      7026      7398      5315
 -1     14093    7    0    1
 -2      7025      7399      5301
 -1     14094    7    0    1
 -2      7027      7400      5308
 -1     14095    7    0    1
 -2      4280      6904      4279
 -1     14096    7    0    1
 -2      5640      6903      5612
 -1     14097    7    0    1
 -2      3108      7294      6718
 -1     14098    7    0    1
 -2      6719      7295      3110
 -1     14099    7    0    1
 -2      1577      7208      6621
 -1     14100    7    0    1
 -2       215      7051       216
 -1     14101    7    0    1
 -2      1797      7407      6979
 -1     14102    7    0    1
 -2      6876      6902      5807
 -1     14103    7    0    1
 -2       641      6906       640
 -1     14104    7    0    1
 -2      6532      7103      1479
 -1     14105    7    0    1
 -2      6452      7198      2105
 -1     14106    7    0    1
 -2      5777      6905      6878
 -1     14107    7    0    1
 -2       481      6908       480
 -1     14108    7    0    1
 -2      6950      7284      3543
 -1     14109    7    0    1
 -2      7349      7480      4707
 -1     14110    7    0    1
 -2      3798      7423      4837
 -1     14111    7    0    1
 -2      5807      6902      1589
 -1     14112    7    0    1
 -2      2375      6910      5465
 -1     14113    7    0    1
 -2      7034      7382      4249
 -1     14114    7    0    1
 -2      2973      6912      4816
 -1     14115    7    0    1
 -2      4815      6913      2972
 -1     14116    7    0    1
 -2       544      6907      1562
 -1     14117    7    0    1
 -2      3495      6928      2392
 -1     14118    7    0    1
 -2      1586      6905      5777
 -1     14119    7    0    1
 -2      5733      7259      5732
 -1     14120    7    0    1
 -2      5727      7258      5728
 -1     14121    7    0    1
 -2      6794      7154      5435
 -1     14122    7    0    1
 -2      6703      6792      4721
 -1     14123    7    0    1
 -2      4724      6793      6704
 -1     14124    7    0    1
 -2      3976      6931      3973
 -1     14125    7    0    1
 -2      3982      6919      3992
 -1     14126    7    0    1
 -2      5885      7044      3026
 -1     14127    7    0    1
 -2      3050      7045      5887
 -1     14128    7    0    1
 -2      3961      7314      5471
 -1     14129    7    0    1
 -2      4241      6929      4242
 -1     14130    7    0    1
 -2      6823      7228      1806
 -1     14131    7    0    1
 -2      5100      6928      4755
 -1     14132    7    0    1
 -2      4741      7159      4740
 -1     14133    7    0    1
 -2      2074      7504      3621
 -1     14134    7    0    1
 -2      2072      7503      3624
 -1     14135    7    0    1
 -2      2071      7505      3627
 -1     14136    7    0    1
 -2      5404      7136      3010
 -1     14137    7    0    1
 -2      5058      6930      5056
 -1     14138    7    0    1
 -2      1719      6925       629
 -1     14139    7    0    1
 -2      1720      6926       537
 -1     14140    7    0    1
 -2      1717      6927       583
 -1     14141    7    0    1
 -2      6938      7263      6028
 -1     14142    7    0    1
 -2      6029      7264      6939
 -1     14143    7    0    1
 -2      2371      6935      2208
 -1     14144    7    0    1
 -2      2209      6936      2372
 -1     14145    7    0    1
 -2      6848      7494      4185
 -1     14146    7    0    1
 -2       614      6932       613
 -1     14147    7    0    1
 -2       522      6933       521
 -1     14148    7    0    1
 -2      3240      6921      5992
 -1     14149    7    0    1
 -2      3372      6922      5991
 -1     14150    7    0    1
 -2      6523      6752      6039
 -1     14151    7    0    1
 -2      3584      7509      3586
 -1     14152    7    0    1
 -2      1511      7107      6319
 -1     14153    7    0    1
 -2      6813      7079      5829
 -1     14154    7    0    1
 -2      3541      6950      5294
 -1     14155    7    0    1
 -2      2886      7309      6257
 -1     14156    7    0    1
 -2      5134      7092      6278
 -1     14157    7    0    1
 -2      4895      7524      3606
 -1     14158    7    0    1
 -2      4894      7525      3608
 -1     14159    7    0    1
 -2       639      6937      1510
 -1     14160    7    0    1
 -2      5137      7072      3006
 -1     14161    7    0    1
 -2      5949      6934      3301
 -1     14162    7    0    1
 -2      1508      6941       592
 -1     14163    7    0    1
 -2      1509      6942       500
 -1     14164    7    0    1
 -2      1512      6943       482
 -1     14165    7    0    1
 -2      4391      7048      4390
 -1     14166    7    0    1
 -2      6847      7460      4840
 -1     14167    7    0    1
 -2      2465      7043      3480
 -1     14168    7    0    1
 -2      4216      6963      5529
 -1     14169    7    0    1
 -2      5867      6939      2825
 -1     14170    7    0    1
 -2      2824      6938      5868
 -1     14171    7    0    1
 -2      5713      6964      6601
 -1     14172    7    0    1
 -2      5715      6965      6602
 -1     14173    7    0    1
 -2      6775      7229       222
 -1     14174    7    0    1
 -2      7287      7435      6607
 -1     14175    7    0    1
 -2      6271      7084      5155
 -1     14176    7    0    1
 -2      5572      7204      2129
 -1     14177    7    0    1
 -2      1599      7037      6708
 -1     14178    7    0    1
 -2      6020      7258      5727
 -1     14179    7    0    1
 -2      5732      7259      6021
 -1     14180    7    0    1
 -2      4969      6956      5381
 -1     14181    7    0    1
 -2      1626      6990      2043
 -1     14182    7    0    1
 -2      6318      7169      5108
 -1     14183    7    0    1
 -2      5153      7082      6265
 -1     14184    7    0    1
 -2      3074      6946      3075
 -1     14185    7    0    1
 -2      5442      7420      7079
 -1     14186    7    0    1
 -2       198      6954       199
 -1     14187    7    0    1
 -2      1507      6949       546
 -1     14188    7    0    1
 -2      2840      6951      2838
 -1     14189    7    0    1
 -2        53      6955        54
 -1     14190    7    0    1
 -2      3555      7049      5862
 -1     14191    7    0    1
 -2      3602      7102      5000
 -1     14192    7    0    1
 -2      6676      7349      7030
 -1     14193    7    0    1
 -2      3000      7114      6131
 -1     14194    7    0    1
 -2      4365      7222      4364
 -1     14195    7    0    1
 -2      5491      6960      5492
 -1     14196    7    0    1
 -2      5862      7049      3326
 -1     14197    7    0    1
 -2      5932      6958      2599
 -1     14198    7    0    1
 -2      2556      6959      5931
 -1     14199    7    0    1
 -2      6769      7385      3545
 -1     14200    7    0    1
 -2      4706      7480      6680
 -1     14201    7    0    1
 -2      6679      7479      4703
 -1     14202    7    0    1
 -2      6268      7072      5137
 -1     14203    7    0    1
 -2      6860      7341      5163
 -1     14204    7    0    1
 -2      6861      7338      5181
 -1     14205    7    0    1
 -2      6862      7339      5172
 -1     14206    7    0    1
 -2      4665      6979      5370
 -1     14207    7    0    1
 -2       770      7312        25
 -1     14208    7    0    1
 -2      3063      6945      6160
 -1     14209    7    0    1
 -2      3931      6970      3473
 -1     14210    7    0    1
 -2      6677      7051      1440
 -1     14211    7    0    1
 -2      6606      6753      2922
 -1     14212    7    0    1
 -2      1591      7341      6860
 -1     14213    7    0    1
 -2      1593      7338      6861
 -1     14214    7    0    1
 -2      1592      7339      6862
 -1     14215    7    0    1
 -2      1520      6969      6097
 -1     14216    7    0    1
 -2      2768      7163      4892
 -1     14217    7    0    1
 -2      4893      7164      2767
 -1     14218    7    0    1
 -2      5382      6966      4931
 -1     14219    7    0    1
 -2       484      6971       483
 -1     14220    7    0    1
 -2      4338      7118      6783
 -1     14221    7    0    1
 -2      2986      6967      4708
 -1     14222    7    0    1
 -2      4709      6968      2993
 -1     14223    7    0    1
 -2      6091      7099      1424
 -1     14224    7    0    1
 -2      5916      6964      5713
 -1     14225    7    0    1
 -2      5914      6965      5715
 -1     14226    7    0    1
 -2      7029      7468      2065
 -1     14227    7    0    1
 -2      4529      7328      6453
 -1     14228    7    0    1
 -2      6454      7329      4530
 -1     14229    7    0    1
 -2      4314      7439      6688
 -1     14230    7    0    1
 -2      6670      6735      3600
 -1     14231    7    0    1
 -2      4277      7436      6686
 -1     14232    7    0    1
 -2      6140      6961      4850
 -1     14233    7    0    1
 -2      4846      6962      6139
 -1     14234    7    0    1
 -2      2130      7098      5574
 -1     14235    7    0    1
 -2      4376      6978      4379
 -1     14236    7    0    1
 -2      3013      7129      6477
 -1     14237    7    0    1
 -2      6476      7128      3012
 -1     14238    7    0    1
 -2      4461      6977      4462
 -1     14239    7    0    1
 -2      3003      7081      5086
 -1     14240    7    0    1
 -2       638      6980       637
 -1     14241    7    0    1
 -2      1552      7382      4404
 -1     14242    7    0    1
 -2       623      6982       622
 -1     14243    7    0    1
 -2       531      6983       530
 -1     14244    7    0    1
 -2       577      6984       576
 -1     14245    7    0    1
 -2      4353      6991      4355
 -1     14246    7    0    1
 -2      1917      7183      6429
 -1     14247    7    0    1
 -2      6430      7184      1915
 -1     14248    7    0    1
 -2      6257      7309      3603
 -1     14249    7    0    1
 -2       182      6985       183
 -1     14250    7    0    1
 -2      5202      7013      5200
 -1     14251    7    0    1
 -2      1811      7110      5106
 -1     14252    7    0    1
 -2      2249      7350      6834
 -1     14253    7    0    1
 -2      2248      7351      6835
 -1     14254    7    0    1
 -2      2982      6995      2980
 -1     14255    7    0    1
 -2      2983      6996      2985
 -1     14256    7    0    1
 -2      6411      7029      2065
 -1     14257    7    0    1
 -2      6497      7048      4170
 -1     14258    7    0    1
 -2      7154      7532      4654
 -1     14259    7    0    1
 -2       594      6993       593
 -1     14260    7    0    1
 -2       502      6994       501
 -1     14261    7    0    1
 -2      5915      6981      5714
 -1     14262    7    0    1
 -2      5747      7265      1916
 -1     14263    7    0    1
 -2      4490      6997      1198
 -1     14264    7    0    1
 -2      1920      7266      5746
 -1     14265    7    0    1
 -2      2709      7224      6138
 -1     14266    7    0    1
 -2      4409      7423      6442
 -1     14267    7    0    1
 -2       508      6988      1769
 -1     14268    7    0    1
 -2       600      6989      1768
 -1     14269    7    0    1
 -2      4623      7000      4626
 -1     14270    7    0    1
 -2       203      7003       204
 -1     14271    7    0    1
 -2      6480      7278      4762
 -1     14272    7    0    1
 -2      4761      7277      6481
 -1     14273    7    0    1
 -2      5205      7350      5799
 -1     14274    7    0    1
 -2      5212      7351      5798
 -1     14275    7    0    1
 -2      6349      6877      1883
 -1     14276    7    0    1
 -2      1419      7120      6369
 -1     14277    7    0    1
 -2       390      7011       389
 -1     14278    7    0    1
 -2      2051      7139      1442
 -1     14279    7    0    1
 -2      5194      7021      5196
 -1     14280    7    0    1
 -2      3001      6998      6436
 -1     14281    7    0    1
 -2      6437      6999      3002
 -1     14282    7    0    1
 -2      2503      7305       337
 -1     14283    7    0    1
 -2        42      7304      2504
 -1     14284    7    0    1
 -2      6368      7124      1335
 -1     14285    7    0    1
 -2      1570      7004       485
 -1     14286    7    0    1
 -2      1566      6886      6513
 -1     14287    7    0    1
 -2      1563      6885      6514
 -1     14288    7    0    1
 -2      7429      7505      2071
 -1     14289    7    0    1
 -2      7427      7504      2074
 -1     14290    7    0    1
 -2      7428      7503      2072
 -1     14291    7    0    1
 -2      6356      7307      4932
 -1     14292    7    0    1
 -2      4970      7308      6357
 -1     14293    7    0    1
 -2      6503      7218      4362
 -1     14294    7    0    1
 -2      3478      7007      3799
 -1     14295    7    0    1
 -2      5714      6981      6643
 -1     14296    7    0    1
 -2      2043      6990      2893
 -1     14297    7    0    1
 -2      2467      7157      6397
 -1     14298    7    0    1
 -2      5218      7032      3536
 -1     14299    7    0    1
 -2       732      7024       731
 -1     14300    7    0    1
 -2       325      7012       326
 -1     14301    7    0    1
 -2       548      7010       547
 -1     14302    7    0    1
 -2      6319      7107      1602
 -1     14303    7    0    1
 -2      4674      7209      3494
 -1     14304    7    0    1
 -2      2643      6986      6132
 -1     14305    7    0    1
 -2      6133      6987      2644
 -1     14306    7    0    1
 -2       636      7009      1565
 -1     14307    7    0    1
 -2      5297      7025      5298
 -1     14308    7    0    1
 -2      5311      7026      5312
 -1     14309    7    0    1
 -2      5304      7027      5305
 -1     14310    7    0    1
 -2      1601      7169      6318
 -1     14311    7    0    1
 -2      2953      7162      2955
 -1     14312    7    0    1
 -2      3955      7020      3856
 -1     14313    7    0    1
 -2      1751      7008      6072
 -1     14314    7    0    1
 -2      4937      7353      6356
 -1     14315    7    0    1
 -2      6357      7354      4975
 -1     14316    7    0    1
 -2       487      7022       486
 -1     14317    7    0    1
 -2      5549      7440      6855
 -1     14318    7    0    1
 -2      4390      7048      6497
 -1     14319    7    0    1
 -2      3532      7017      5812
 -1     14320    7    0    1
 -2      1449      7028       159
 -1     14321    7    0    1
 -2      3606      7524      4553
 -1     14322    7    0    1
 -2      3608      7525      4554
 -1     14323    7    0    1
 -2      5689      7018      1314
 -1     14324    7    0    1
 -2      1315      7019      5690
 -1     14325    7    0    1
 -2      6366      6900      5077
 -1     14326    7    0    1
 -2      5328      7336      1557
 -1     14327    7    0    1
 -2      6857      7330       107
 -1     14328    7    0    1
 -2       272      7331      6858
 -1     14329    7    0    1
 -2      6523      6944      6752
 -1     14330    7    0    1
 -2      4411      7160      4580
 -1     14331    7    0    1
 -2      6547      7434      2452
 -1     14332    7    0    1
 -2      5675      7029      4234
 -1     14333    7    0    1
 -2      1883      6877      6745
 -1     14334    7    0    1
 -2      6132      7015      2109
 -1     14335    7    0    1
 -2      2110      7016      6133
 -1     14336    7    0    1
 -2      5514      7034      5778
 -1     14337    7    0    1
 -2      6879      7332      3281
 -1     14338    7    0    1
 -2      6881      7334      3413
 -1     14339    7    0    1
 -2      6880      7333      3149
 -1     14340    7    0    1
 -2      3620      7511      6423
 -1     14341    7    0    1
 -2      6426      7512      3628
 -1     14342    7    0    1
 -2      6427      7513      3625
 -1     14343    7    0    1
 -2      6425      7514      3622
 -1     14344    7    0    1
 -2      4256      7515      6428
 -1     14345    7    0    1
 -2      5147      7049      3555
 -1     14346    7    0    1
 -2      3009      7130      5408
 -1     14347    7    0    1
 -2      6653      7055      1576
 -1     14348    7    0    1
 -2      6883      7293      1614
 -1     14349    7    0    1
 -2      5621      7055      5622
 -1     14350    7    0    1
 -2       913      7036       912
 -1     14351    7    0    1
 -2      2309      6761      6746
 -1     14352    7    0    1
 -2       604      7040       603
 -1     14353    7    0    1
 -2       512      7041       511
 -1     14354    7    0    1
 -2      6746      6761      4305
 -1     14355    7    0    1
 -2      4258      7301      4259
 -1     14356    7    0    1
 -2      4325      7302      4326
 -1     14357    7    0    1
 -2       348      7039       347
 -1     14358    7    0    1
 -2       774      7042       773
 -1     14359    7    0    1
 -2      4968      7213      6315
 -1     14360    7    0    1
 -2      6314      7214      4930
 -1     14361    7    0    1
 -2      7021      7031      1565
 -1     14362    7    0    1
 -2      1565      7031      5806
 -1     14363    7    0    1
 -2       487      7063      7022
 -1     14364    7    0    1
 -2      5016      7417      2751
 -1     14365    7    0    1
 -2      6436      6998      5341
 -1     14366    7    0    1
 -2      5342      6999      6437
 -1     14367    7    0    1
 -2      4695      7420      5442
 -1     14368    7    0    1
 -2      4888      7232      3610
 -1     14369    7    0    1
 -2      4879      7449      2887
 -1     14370    7    0    1
 -2      1745      7047       557
 -1     14371    7    0    1
 -2      7020      7500      3857
 -1     14372    7    0    1
 -2      3950      7254      4555
 -1     14373    7    0    1
 -2      5031      7336      5328
 -1     14374    7    0    1
 -2      3529      7050      4878
 -1     14375    7    0    1
 -2      1562      6907      6546
 -1     14376    7    0    1
 -2      6452      7405      5043
 -1     14377    7    0    1
 -2      2867      7052      2866
 -1     14378    7    0    1
 -2       113      7058       114
 -1     14379    7    0    1
 -2       265      7059       266
 -1     14380    7    0    1
 -2      1768      6989      6644
 -1     14381    7    0    1
 -2      1769      6988      6645
 -1     14382    7    0    1
 -2      1135      7061      1134
 -1     14383    7    0    1
 -2       950      7062       949
 -1     14384    7    0    1
 -2      7069      7322      3118
 -1     14385    7    0    1
 -2      4263      7451      5017
 -1     14386    7    0    1
 -2       633      7060       632
 -1     14387    7    0    1
 -2      7031      7054      5806
 -1     14388    7    0    1
 -2      4791      7381       382
 -1     14389    7    0    1
 -2      4102      7065      4100
 -1     14390    7    0    1
 -2       488      7063       487
 -1     14391    7    0    1
 -2      2125      7274      6409
 -1     14392    7    0    1
 -2      6410      7275      2126
 -1     14393    7    0    1
 -2      2104      7038      6088
 -1     14394    7    0    1
 -2      1809      7044      5885
 -1     14395    7    0    1
 -2      5887      7045      1808
 -1     14396    7    0    1
 -2      2824      7263      6938
 -1     14397    7    0    1
 -2      6939      7264      2825
 -1     14398    7    0    1
 -2      5325      6815      6787
 -1     14399    7    0    1
 -2      5548      7067      4128
 -1     14400    7    0    1
 -2      4880      7426      7412
 -1     14401    7    0    1
 -2      5806      7054      1928
 -1     14402    7    0    1
 -2      6672      7294      3108
 -1     14403    7    0    1
 -2      3110      7295      6673
 -1     14404    7    0    1
 -2      5322      7071      5321
 -1     14405    7    0    1
 -2      5262      7499      5265
 -1     14406    7    0    1
 -2      5114      7115      1813
 -1     14407    7    0    1
 -2      6922      7324      1615
 -1     14408    7    0    1
 -2      6921      7323      1612
 -1     14409    7    0    1
 -2      5286      7490      5289
 -1     14410    7    0    1
 -2      5274      7489      5277
 -1     14411    7    0    1
 -2      4840      7411      4839
 -1     14412    7    0    1
 -2      2855      7056      6040
 -1     14413    7    0    1
 -2      2767      7164      6254
 -1     14414    7    0    1
 -2      6253      7163      2768
 -1     14415    7    0    1
 -2      6394      7052      4802
 -1     14416    7    0    1
 -2      4275      6911      6491
 -1     14417    7    0    1
 -2      6329      7085      5084
 -1     14418    7    0    1
 -2      4321      6914      6492
 -1     14419    7    0    1
 -2      6490      6915      4269
 -1     14420    7    0    1
 -2      6807      7510      4327
 -1     14421    7    0    1
 -2      1466      7467      3494
 -1     14422    7    0    1
 -2      6777      7336      5032
 -1     14423    7    0    1
 -2      4854      7492      3607
 -1     14424    7    0    1
 -2      6392      6918      2975
 -1     14425    7    0    1
 -2      2974      6917      6393
 -1     14426    7    0    1
 -2      7095      7122      3124
 -1     14427    7    0    1
 -2       614      7463      6932
 -1     14428    7    0    1
 -2       522      7464      6933
 -1     14429    7    0    1
 -2      5206      7350      5205
 -1     14430    7    0    1
 -2      5213      7351      5212
 -1     14431    7    0    1
 -2      5155      7084      5154
 -1     14432    7    0    1
 -2      5152      7082      5153
 -1     14433    7    0    1
 -2      6323      7147      5145
 -1     14434    7    0    1
 -2      7060      7083       632
 -1     14435    7    0    1
 -2      3062      7077      3063
 -1     14436    7    0    1
 -2      2955      7162      6279
 -1     14437    7    0    1
 -2      5146      7148      6324
 -1     14438    7    0    1
 -2      4935      7307      6549
 -1     14439    7    0    1
 -2      6550      7308      4973
 -1     14440    7    0    1
 -2      4667      7407      6059
 -1     14441    7    0    1
 -2      4634      7268      4830
 -1     14442    7    0    1
 -2      4636      7269      4635
 -1     14443    7    0    1
 -2      7063      7071      5322
 -1     14444    7    0    1
 -2      6190      7046      3519
 -1     14445    7    0    1
 -2       218      7078       219
 -1     14446    7    0    1
 -2      6958      7401      2599
 -1     14447    7    0    1
 -2      2556      7402      6959
 -1     14448    7    0    1
 -2      1719      7473      6925
 -1     14449    7    0    1
 -2      1720      7474      6926
 -1     14450    7    0    1
 -2      1717      7475      6927
 -1     14451    7    0    1
 -2      2231      7481      6222
 -1     14452    7    0    1
 -2      3246      7073      4862
 -1     14453    7    0    1
 -2      3378      7074      4860
 -1     14454    7    0    1
 -2      4211      7408      6960
 -1     14455    7    0    1
 -2      6362      7160      2260
 -1     14456    7    0    1
 -2      3034      7110      6511
 -1     14457    7    0    1
 -2      6440      7215      4819
 -1     14458    7    0    1
 -2      6979      7407      5370
 -1     14459    7    0    1
 -2      6489      6991      1532
 -1     14460    7    0    1
 -2      6512      7115      3058
 -1     14461    7    0    1
 -2       632      7083       631
 -1     14462    7    0    1
 -2      5829      7079      1650
 -1     14463    7    0    1
 -2      3922      7088      5537
 -1     14464    7    0    1
 -2      6985      7276       183
 -1     14465    7    0    1
 -2      6353      7081      1329
 -1     14466    7    0    1
 -2      7139      7450      1442
 -1     14467    7    0    1
 -2      3581      7470      5147
 -1     14468    7    0    1
 -2      4506      7101      5233
 -1     14469    7    0    1
 -2      3005      7092      5134
 -1     14470    7    0    1
 -2       169      7090       170
 -1     14471    7    0    1
 -2      6566      6977      4441
 -1     14472    7    0    1
 -2      3169      7134      3257
 -1     14473    7    0    1
 -2      3433      7135      3542
 -1     14474    7    0    1
 -2      4436      7111      6636
 -1     14475    7    0    1
 -2      6182      7495      6966
 -1     14476    7    0    1
 -2      1327      7085      6329
 -1     14477    7    0    1
 -2      5811      7080      1793
 -1     14478    7    0    1
 -2      6515      7111      1415
 -1     14479    7    0    1
 -2      6060      7086      2128
 -1     14480    7    0    1
 -2      6188      7066      3238
 -1     14481    7    0    1
 -2      2743      7415      4897
 -1     14482    7    0    1
 -2      2747      7416      4898
 -1     14483    7    0    1
 -2      2751      7417      4896
 -1     14484    7    0    1
 -2      5470      7100      3779
 -1     14485    7    0    1
 -2      1793      7080      7071
 -1     14486    7    0    1
 -2      5601      7099      5598
 -1     14487    7    0    1
 -2      3079      7524      4895
 -1     14488    7    0    1
 -2      3073      7525      4894
 -1     14489    7    0    1
 -2      4896      7406      1624
 -1     14490    7    0    1
 -2      4259      7301      6346
 -1     14491    7    0    1
 -2      4326      7302      6347
 -1     14492    7    0    1
 -2      2412      7159      6822
 -1     14493    7    0    1
 -2      6349      7057      1352
 -1     14494    7    0    1
 -2      5580      7138      5578
 -1     14495    7    0    1
 -2       211      7104       212
 -1     14496    7    0    1
 -2      4470      7103      3943
 -1     14497    7    0    1
 -2      5811      7095      7080
 -1     14498    7    0    1
 -2      5936      7089      3190
 -1     14499    7    0    1
 -2      4897      7454      1622
 -1     14500    7    0    1
 -2      4898      7455      1625
 -1     14501    7    0    1
 -2      6308      7451      4263
 -1     14502    7    0    1
 -2      6222      7481      4775
 -1     14503    7    0    1
 -2      6956      7496      6183
 -1     14504    7    0    1
 -2      6028      7263      1380
 -1     14505    7    0    1
 -2      1381      7264      6029
 -1     14506    7    0    1
 -2      5827      7095      5811
 -1     14507    7    0    1
 -2      3124      7122      5443
 -1     14508    7    0    1
 -2      1753      7123      5917
 -1     14509    7    0    1
 -2      5968      7091      2879
 -1     14510    7    0    1
 -2      5149      7165      4465
 -1     14511    7    0    1
 -2      5150      7166      4466
 -1     14512    7    0    1
 -2      4243      7106      5698
 -1     14513    7    0    1
 -2      5043      7198      6452
 -1     14514    7    0    1
 -2      5435      7154      4654
 -1     14515    7    0    1
 -2      5607      7068      6697
 -1     14516    7    0    1
 -2      4459      7113      4458
 -1     14517    7    0    1
 -2      6117      6792      6703
 -1     14518    7    0    1
 -2      6704      6793      6116
 -1     14519    7    0    1
 -2      4117      7119      4132
 -1     14520    7    0    1
 -2      4740      7159      6340
 -1     14521    7    0    1
 -2      3889      7109      5740
 -1     14522    7    0    1
 -2      4700      7405      6452
 -1     14523    7    0    1
 -2      6811      6836      5332
 -1     14524    7    0    1
 -2      4626      7000      6534
 -1     14525    7    0    1
 -2      7113      7121      4458
 -1     14526    7    0    1
 -2       217      7131      1478
 -1     14527    7    0    1
 -2      4459      7127      7113
 -1     14528    7    0    1
 -2       136      7133      1561
 -1     14529    7    0    1
 -2      5825      7116      5742
 -1     14530    7    0    1
 -2      5744      7117      5826
 -1     14531    7    0    1
 -2      6455      7130      2137
 -1     14532    7    0    1
 -2      2879      7091      6786
 -1     14533    7    0    1
 -2      4777      7230      3590
 -1     14534    7    0    1
 -2      5086      7081      6353
 -1     14535    7    0    1
 -2      4506      7161      7123
 -1     14536    7    0    1
 -2      6315      7213      1307
 -1     14537    7    0    1
 -2      1308      7214      6314
 -1     14538    7    0    1
 -2      7145      7175      1502
 -1     14539    7    0    1
 -2      4458      7121      5756
 -1     14540    7    0    1
 -2      6423      6972      3620
 -1     14541    7    0    1
 -2      3628      6974      6426
 -1     14542    7    0    1
 -2      3625      6975      6427
 -1     14543    7    0    1
 -2      3622      6973      6425
 -1     14544    7    0    1
 -2      6424      6976      3618
 -1     14545    7    0    1
 -2      5675      7468      7029
 -1     14546    7    0    1
 -2      6610      7425      3126
 -1     14547    7    0    1
 -2      5889      7127      4459
 -1     14548    7    0    1
 -2      6247      7120      1419
 -1     14549    7    0    1
 -2      5148      7203      4481
 -1     14550    7    0    1
 -2       329      7141       330
 -1     14551    7    0    1
 -2        49      7142        50
 -1     14552    7    0    1
 -2       141      7140       142
 -1     14553    7    0    1
 -2      3125      7433      6609
 -1     14554    7    0    1
 -2      2139      7136      6432
 -1     14555    7    0    1
 -2      1335      7124      6224
 -1     14556    7    0    1
 -2      5711      7132      5889
 -1     14557    7    0    1
 -2      6564      7293      3538
 -1     14558    7    0    1
 -2      5760      7128      1392
 -1     14559    7    0    1
 -2      1433      7129      5750
 -1     14560    7    0    1
 -2      6266      7068      5607
 -1     14561    7    0    1
 -2      5098      7415      2743
 -1     14562    7    0    1
 -2      5099      7416      2747
 -1     14563    7    0    1
 -2      4504      7161      4506
 -1     14564    7    0    1
 -2      5889      7132      7127
 -1     14565    7    0    1
 -2      7086      7279      2128
 -1     14566    7    0    1
 -2      6451      7363      5014
 -1     14567    7    0    1
 -2      1519      7386      6693
 -1     14568    7    0    1
 -2      6587      7323      3255
 -1     14569    7    0    1
 -2      6588      7324      3387
 -1     14570    7    0    1
 -2      6086      7114      3000
 -1     14571    7    0    1
 -2      2879      7137      2859
 -1     14572    7    0    1
 -2      4739      7221      6674
 -1     14573    7    0    1
 -2      5326      7205      3540
 -1     14574    7    0    1
 -2      1561      7133      7121
 -1     14575    7    0    1
 -2       133      7207      1596
 -1     14576    7    0    1
 -2      3086      7467      6527
 -1     14577    7    0    1
 -2      5278      7143      6045
 -1     14578    7    0    1
 -2      5290      7144      6046
 -1     14579    7    0    1
 -2      1602      7107      6229
 -1     14580    7    0    1
 -2      4362      7218      4467
 -1     14581    7    0    1
 -2      6340      7159      2412
 -1     14582    7    0    1
 -2      2058      7138      6093
 -1     14583    7    0    1
 -2       195      7228       196
 -1     14584    7    0    1
 -2      3535      7145      3537
 -1     14585    7    0    1
 -2      1502      7175      1483
 -1     14586    7    0    1
 -2      4637      7183      3102
 -1     14587    7    0    1
 -2      3103      7184      4638
 -1     14588    7    0    1
 -2      5976      7146      2177
 -1     14589    7    0    1
 -2      4504      7197      7161
 -1     14590    7    0    1
 -2      6059      7407      1797
 -1     14591    7    0    1
 -2      6080      7153      1494
 -1     14592    7    0    1
 -2      1714      7523      5008
 -1     14593    7    0    1
 -2      5104      7352      2928
 -1     14594    7    0    1
 -2       714      7149      1809
 -1     14595    7    0    1
 -2      1808      7150       407
 -1     14596    7    0    1
 -2      1437      7383      5989
 -1     14597    7    0    1
 -2      5990      7384      1436
 -1     14598    7    0    1
 -2      5722      7173      5723
 -1     14599    7    0    1
 -2      6517      7265      5372
 -1     14600    7    0    1
 -2      5266      7170      6047
 -1     14601    7    0    1
 -2       705      7179       704
 -1     14602    7    0    1
 -2       417      7180       416
 -1     14603    7    0    1
 -2      2217      7221      5615
 -1     14604    7    0    1
 -2      2728      7246       386
 -1     14605    7    0    1
 -2       769      7245      2729
 -1     14606    7    0    1
 -2      2666      7172      2900
 -1     14607    7    0    1
 -2      2830      7171      2664
 -1     14608    7    0    1
 -2      6910      7064      4416
 -1     14609    7    0    1
 -2      3955      7373      6120
 -1     14610    7    0    1
 -2      2065      7468      6195
 -1     14611    7    0    1
 -2      1501      7199      1574
 -1     14612    7    0    1
 -2      3615      7250      6575
 -1     14613    7    0    1
 -2      5371      7266      6516
 -1     14614    7    0    1
 -2      3887      7510      5556
 -1     14615    7    0    1
 -2      4480      7176      5900
 -1     14616    7    0    1
 -2      5899      7177      4479
 -1     14617    7    0    1
 -2      4505      7197      4504
 -1     14618    7    0    1
 -2      3253      7181      3254
 -1     14619    7    0    1
 -2      3385      7182      3386
 -1     14620    7    0    1
 -2       130      7367      1577
 -1     14621    7    0    1
 -2      7038      7388      6088
 -1     14622    7    0    1
 -2      4583      7340      6276
 -1     14623    7    0    1
 -2       143      7206      1425
 -1     14624    7    0    1
 -2      1442      7450      1493
 -1     14625    7    0    1
 -2      2750      7193      2749
 -1     14626    7    0    1
 -2      2738      7192      2737
 -1     14627    7    0    1
 -2      1843      7307      6356
 -1     14628    7    0    1
 -2      6357      7308      1844
 -1     14629    7    0    1
 -2       349      7157      2467
 -1     14630    7    0    1
 -2      2468      7158       772
 -1     14631    7    0    1
 -2      6341      7254      3950
 -1     14632    7    0    1
 -2      4079      7212      4077
 -1     14633    7    0    1
 -2      7079      7420      1650
 -1     14634    7    0    1
 -2       237      7216       238
 -1     14635    7    0    1
 -2      4516      7255      4520
 -1     14636    7    0    1
 -2       197      7219      1550
 -1     14637    7    0    1
 -2      4878      7417      5016
 -1     14638    7    0    1
 -2      6735      7102      3602
 -1     14639    7    0    1
 -2      4546      7320      4611
 -1     14640    7    0    1
 -2      4544      7319      4610
 -1     14641    7    0    1
 -2      4545      7318      4609
 -1     14642    7    0    1
 -2      3176      7200      3178
 -1     14643    7    0    1
 -2      3308      7201      3310
 -1     14644    7    0    1
 -2      5494      7249      4238
 -1     14645    7    0    1
 -2      3906      7208      5721
 -1     14646    7    0    1
 -2      6187      7373      3955
 -1     14647    7    0    1
 -2      1671      7195      2106
 -1     14648    7    0    1
 -2      2105      7198      1632
 -1     14649    7    0    1
 -2      6429      7183      4637
 -1     14650    7    0    1
 -2      4638      7184      6430
 -1     14651    7    0    1
 -2       222      7229       223
 -1     14652    7    0    1
 -2      1307      7213      6008
 -1     14653    7    0    1
 -2      6007      7214      1308
 -1     14654    7    0    1
 -2      3903      7231      3902
 -1     14655    7    0    1
 -2      5540      7233      3846
 -1     14656    7    0    1
 -2      6240      7169      1601
 -1     14657    7    0    1
 -2      6554      7419      2206
 -1     14658    7    0    1
 -2      7182      7199      1501
 -1     14659    7    0    1
 -2       228      7235       229
 -1     14660    7    0    1
 -2      3040      7210      3041
 -1     14661    7    0    1
 -2      3017      7211      3016
 -1     14662    7    0    1
 -2      1479      7472       162
 -1     14663    7    0    1
 -2       323      7242       324
 -1     14664    7    0    1
 -2        55      7243        56
 -1     14665    7    0    1
 -2      4172      7256      6143
 -1     14666    7    0    1
 -2      2976      7215      2959
 -1     14667    7    0    1
 -2      1329      7226         9
 -1     14668    7    0    1
 -2        21      7227      1327
 -1     14669    7    0    1
 -2      6195      7468      4248
 -1     14670    7    0    1
 -2      4694      7224      5925
 -1     14671    7    0    1
 -2       611      7238       610
 -1     14672    7    0    1
 -2       519      7239       518
 -1     14673    7    0    1
 -2      2106      7195      6720
 -1     14674    7    0    1
 -2      4192      7296      4191
 -1     14675    7    0    1
 -2      4298      7482      1884
 -1     14676    7    0    1
 -2      1457      7484      4385
 -1     14677    7    0    1
 -2      2121      7483      3974
 -1     14678    7    0    1
 -2      2205      7488      4439
 -1     14679    7    0    1
 -2      3066      7282      5344
 -1     14680    7    0    1
 -2      5343      7283      3067
 -1     14681    7    0    1
 -2      4441      7491      2420
 -1     14682    7    0    1
 -2      6786      7137      2879
 -1     14683    7    0    1
 -2      6900      7139      2051
 -1     14684    7    0    1
 -2      6267      7372      2735
 -1     14685    7    0    1
 -2      7172      7299      2900
 -1     14686    7    0    1
 -2      3633      7485      1559
 -1     14687    7    0    1
 -2      2364      7262      2294
 -1     14688    7    0    1
 -2      4760      7257      4472
 -1     14689    7    0    1
 -2      4655      7223      5956
 -1     14690    7    0    1
 -2      6498      7096      2755
 -1     14691    7    0    1
 -2      2756      7097      6499
 -1     14692    7    0    1
 -2      4654      7532      6379
 -1     14693    7    0    1
 -2        76      7277        77
 -1     14694    7    0    1
 -2       302      7278       303
 -1     14695    7    0    1
 -2      1802      7251      1685
 -1     14696    7    0    1
 -2       183      7276       184
 -1     14697    7    0    1
 -2      4560      7430      4559
 -1     14698    7    0    1
 -2      4562      7431      4561
 -1     14699    7    0    1
 -2      4564      7432      4563
 -1     14700    7    0    1
 -2      6535      7390      2304
 -1     14701    7    0    1
 -2      3962      7270      4558
 -1     14702    7    0    1
 -2      5973      7236      2826
 -1     14703    7    0    1
 -2      2827      7237      5974
 -1     14704    7    0    1
 -2      4880      7412      1816
 -1     14705    7    0    1
 -2      4847      7263      2824
 -1     14706    7    0    1
 -2      2825      7264      4843
 -1     14707    7    0    1
 -2      4603      7296      6471
 -1     14708    7    0    1
 -2      6233      7253      1472
 -1     14709    7    0    1
 -2      4862      7415      5098
 -1     14710    7    0    1
 -2      4860      7416      5099
 -1     14711    7    0    1
 -2      6538      7389      2302
 -1     14712    7    0    1
 -2      5181      7338      5183
 -1     14713    7    0    1
 -2      5172      7339      5174
 -1     14714    7    0    1
 -2      5163      7341      5165
 -1     14715    7    0    1
 -2      6507      7196      4339
 -1     14716    7    0    1
 -2      3092      7274      3090
 -1     14717    7    0    1
 -2      3096      7275      3098
 -1     14718    7    0    1
 -2      2206      7532      6151
 -1     14719    7    0    1
 -2      2663      7268      2784
 -1     14720    7    0    1
 -2       710      7288       709
 -1     14721    7    0    1
 -2      2785      7269      2665
 -1     14722    7    0    1
 -2       756      7325      1304
 -1     14723    7    0    1
 -2      6475      7098      2130
 -1     14724    7    0    1
 -2      3106      7328      4529
 -1     14725    7    0    1
 -2      4530      7329      3107
 -1     14726    7    0    1
 -2      6489      7372      6991
 -1     14727    7    0    1
 -2       412      7298       411
 -1     14728    7    0    1
 -2      4372      7494      4869
 -1     14729    7    0    1
 -2      2082      7316      4736
 -1     14730    7    0    1
 -2      1416      7337      5042
 -1     14731    7    0    1
 -2      2128      7279      6061
 -1     14732    7    0    1
 -2      7255      7310      1425
 -1     14733    7    0    1
 -2      5686      7306      5687
 -1     14734    7    0    1
 -2      5981      7294      1455
 -1     14735    7    0    1
 -2      1431      7295      5980
 -1     14736    7    0    1
 -2      3902      7321      3895
 -1     14737    7    0    1
 -2      6785      7523      6054
 -1     14738    7    0    1
 -2      2928      7352      2930
 -1     14739    7    0    1
 -2      6570      7088      3922
 -1     14740    7    0    1
 -2      2216      7315      5614
 -1     14741    7    0    1
 -2      6981      7477      5504
 -1     14742    7    0    1
 -2      3281      7332      3262
 -1     14743    7    0    1
 -2      3149      7333      3130
 -1     14744    7    0    1
 -2      3413      7334      3394
 -1     14745    7    0    1
 -2      4620      7456      4330
 -1     14746    7    0    1
 -2       107      7330       108
 -1     14747    7    0    1
 -2       271      7331       272
 -1     14748    7    0    1
 -2      2900      7299      2902
 -1     14749    7    0    1
 -2      5823      7284      1770
 -1     14750    7    0    1
 -2      6254      7164      1317
 -1     14751    7    0    1
 -2      1388      7163      6253
 -1     14752    7    0    1
 -2      4464      7344      4386
 -1     14753    7    0    1
 -2      4529      7465      5383
 -1     14754    7    0    1
 -2      5695      7450      7139
 -1     14755    7    0    1
 -2      6573      7526      5497
 -1     14756    7    0    1
 -2      2129      7204      6555
 -1     14757    7    0    1
 -2      6374      7426      2744
 -1     14758    7    0    1
 -2      6432      7136      5404
 -1     14759    7    0    1
 -2      1435      7527      5957
 -1     14760    7    0    1
 -2      5958      7528      1434
 -1     14761    7    0    1
 -2      1425      7310      6092
 -1     14762    7    0    1
 -2      5131      7392      4512
 -1     14763    7    0    1
 -2      4513      7393      5130
 -1     14764    7    0    1
 -2      5766      7342      5563
 -1     14765    7    0    1
 -2      5566      7343      5767
 -1     14766    7    0    1
 -2       719      7357       718
 -1     14767    7    0    1
 -2       403      7358       402
 -1     14768    7    0    1
 -2      3126      7425      5402
 -1     14769    7    0    1
 -2      3616      7364      3614
 -1     14770    7    0    1
 -2      2884      7340      2882
 -1     14771    7    0    1
 -2      3069      7345      3068
 -1     14772    7    0    1
 -2      3070      7346      3071
 -1     14773    7    0    1
 -2      2937      7347      2938
 -1     14774    7    0    1
 -2      5384      7466      4530
 -1     14775    7    0    1
 -2      4344      7366      4346
 -1     14776    7    0    1
 -2      6350      7318      3430
 -1     14777    7    0    1
 -2      6351      7319      3166
 -1     14778    7    0    1
 -2      6352      7320      3298
 -1     14779    7    0    1
 -2      5043      7405      1375
 -1     14780    7    0    1
 -2      5799      7350      2249
 -1     14781    7    0    1
 -2      5798      7351      2248
 -1     14782    7    0    1
 -2      5338      6856      6837
 -1     14783    7    0    1
 -2      5677      7362      5558
 -1     14784    7    0    1
 -2      6307      7339      1592
 -1     14785    7    0    1
 -2      6306      7338      1593
 -1     14786    7    0    1
 -2      6305      7341      1591
 -1     14787    7    0    1
 -2      3590      7391      1542
 -1     14788    7    0    1
 -2       205      7387      1333
 -1     14789    7    0    1
 -2      1500      7394      1210
 -1     14790    7    0    1
 -2      5370      7407      4667
 -1     14791    7    0    1
 -2      1305      7355      6098
 -1     14792    7    0    1
 -2      4580      7160      6362
 -1     14793    7    0    1
 -2      6189      7252      3370
 -1     14794    7    0    1
 -2      3444      7363      3446
 -1     14795    7    0    1
 -2      6965      7447      5506
 -1     14796    7    0    1
 -2      6964      7446      5505
 -1     14797    7    0    1
 -2      5505      7446      3390
 -1     14798    7    0    1
 -2      5506      7447      3258
 -1     14799    7    0    1
 -2      3516      7335      6004
 -1     14800    7    0    1
 -2      5406      7433      3125
 -1     14801    7    0    1
 -2      6409      7274      3092
 -1     14802    7    0    1
 -2      3098      7275      6410
 -1     14803    7    0    1
 -2      7365      7422      2070
 -1     14804    7    0    1
 -2      5700      7402      2556
 -1     14805    7    0    1
 -2      2599      7401      5699
 -1     14806    7    0    1
 -2      1916      7265      6517
 -1     14807    7    0    1
 -2      4347      7408      4348
 -1     14808    7    0    1
 -2      1571      7403      1228
 -1     14809    7    0    1
 -2      4378      7457      4374
 -1     14810    7    0    1
 -2      6516      7266      1920
 -1     14811    7    0    1
 -2      2380      7424      2382
 -1     14812    7    0    1
 -2      5970      7374      4246
 -1     14813    7    0    1
 -2      1274      7421      2073
 -1     14814    7    0    1
 -2      5504      7477      3544
 -1     14815    7    0    1
 -2      4355      7493      4354
 -1     14816    7    0    1
 -2      6092      7365      2070
 -1     14817    7    0    1
 -2      3967      7440      5549
 -1     14818    7    0    1
 -2      4387      7218      6503
 -1     14819    7    0    1
 -2      2452      7434      1257
 -1     14820    7    0    1
 -2      3236      7360      6005
 -1     14821    7    0    1
 -2      3368      7361      6006
 -1     14822    7    0    1
 -2      3969      7418      4769
 -1     14823    7    0    1
 -2      4839      7411      4460
 -1     14824    7    0    1
 -2      1401      7436       997
 -1     14825    7    0    1
 -2      1410      7437      1108
 -1     14826    7    0    1
 -2      1523      7438      1006
 -1     14827    7    0    1
 -2       535      7398      1796
 -1     14828    7    0    1
 -2       581      7399      1795
 -1     14829    7    0    1
 -2       627      7400      1794
 -1     14830    7    0    1
 -2      1498      7439      1263
 -1     14831    7    0    1
 -2      3545      7385      5013
 -1     14832    7    0    1
 -2      6787      6815      1723
 -1     14833    7    0    1
 -2      1616      7441      1116
 -1     14834    7    0    1
 -2      6752      6944      4450
 -1     14835    7    0    1
 -2      6390      7522      4244
 -1     14836    7    0    1
 -2        78      7520      1481
 -1     14837    7    0    1
 -2      1482      7521       301
 -1     14838    7    0    1
 -2      4427      7444       784
 -1     14839    7    0    1
 -2       728      7458      2216
 -1     14840    7    0    1
 -2      6366      7139      6900
 -1     14841    7    0    1
 -2      2155      7519      5553
 -1     14842    7    0    1
 -2       615      7463       614
 -1     14843    7    0    1
 -2       523      7464       522
 -1     14844    7    0    1
 -2      5498      7498      5499
 -1     14845    7    0    1
 -2      3964      7450      5695
 -1     14846    7    0    1
 -2      6013      7442      2612
 -1     14847    7    0    1
 -2      2569      7443      6014
 -1     14848    7    0    1
 -2      4227      7497      1374
 -1     14849    7    0    1
 -2      3895      7321      6302
 -1     14850    7    0    1
 -2      4248      7468      5675
 -1     14851    7    0    1
 -2      3963      7386      6115
 -1     14852    7    0    1
 -2        95      7501        96
 -1     14853    7    0    1
 -2       283      7502       284
 -1     14854    7    0    1
 -2      4625      7500      4624
 -1     14855    7    0    1
 -2      6088      7388      1798
 -1     14856    7    0    1
 -2      2070      7422      6099
 -1     14857    7    0    1
 -2      3180      7452      3259
 -1     14858    7    0    1
 -2      3312      7453      3391
 -1     14859    7    0    1
 -2      6392      7261      6918
 -1     14860    7    0    1
 -2      6917      7260      6393
 -1     14861    7    0    1
 -2      3163      7461      3172
 -1     14862    7    0    1
 -2      3295      7462      3304
 -1     14863    7    0    1
 -2      2111      7473      1719
 -1     14864    7    0    1
 -2      2117      7474      1720
 -1     14865    7    0    1
 -2      2115      7475      1717
 -1     14866    7    0    1
 -2      6096      7459      6095
 -1     14867    7    0    1
 -2      7310      7365      6092
 -1     14868    7    0    1
 -2      2957      7486      2976
 -1     14869    7    0    1
 -2      6233      7314      3961
 -1     14870    7    0    1
 -2      6099      7487      1306
 -1     14871    7    0    1
 -2      6276      7340      2884
 -1     14872    7    0    1
 -2      6173      7397      3539
 -1     14873    7    0    1
 -2      6174      7395      3388
 -1     14874    7    0    1
 -2      6175      7396      3256
 -1     14875    7    0    1
 -2      6552      7303      2170
 -1     14876    7    0    1
 -2      1650      7420      6152
 -1     14877    7    0    1
 -2      5695      7139      6366
 -1     14878    7    0    1
 -2      5408      7130      6455
 -1     14879    7    0    1
 -2      3579      7102      6671
 -1     14880    7    0    1
 -2      6884      7348      4363
 -1     14881    7    0    1
 -2      7422      7487      6099
 -1     14882    7    0    1
 -2      1771      6836      6811
 -1     14883    7    0    1
 -2      3518      7389      6538
 -1     14884    7    0    1
 -2      4439      7488      7411
 -1     14885    7    0    1
 -2       386      7246         6
 -1     14886    7    0    1
 -2        24      7245       769
 -1     14887    7    0    1
 -2      6084      7435      2311
 -1     14888    7    0    1
 -2      4355      7372      6267
 -1     14889    7    0    1
 -2      4346      7366      6470
 -1     14890    7    0    1
 -2      2206      7419      6379
 -1     14891    7    0    1
 -2      6718      7294      5981
 -1     14892    7    0    1
 -2      5980      7295      6719
 -1     14893    7    0    1
 -2      3367      7390      6535
 -1     14894    7    0    1
 -2      6838      6882      2402
 -1     14895    7    0    1
 -2      6333      7312       770
 -1     14896    7    0    1
 -2      6991      7372      4355
 -1     14897    7    0    1
 -2      5165      7341      6305
 -1     14898    7    0    1
 -2      5183      7338      6306
 -1     14899    7    0    1
 -2      5174      7339      6307
 -1     14900    7    0    1
 -2      4611      7320      6352
 -1     14901    7    0    1
 -2      4610      7319      6351
 -1     14902    7    0    1
 -2      4609      7318      6350
 -1     14903    7    0    1
 -2      6686      7436      1401
 -1     14904    7    0    1
 -2      6688      7439      1498
 -1     14905    7    0    1
 -2      6627      7112      6791
 -1     14906    7    0    1
 -2      6379      7532      2206
 -1     14907    7    0    1
 -2      7369      7516      2498
 -1     14908    7    0    1
 -2      2499      7517      7368
 -1     14909    7    0    1
 -2      7371      7518      2496
 -1     14910    7    0    1
 -2      2170      7303      6343
 -1     14911    7    0    1
 -2      1461      7495      6283
 -1     14912    7    0    1
 -2      6284      7496      1462
 -1     14913    7    0    1
 -2      6837      6856      1924
 -1     14914    7    0    1
 -2       385      7267      6397
 -1     14915    7    0    1
 -2      1392      7128      6476
 -1     14916    7    0    1
 -2      6477      7129      1433
 -1     14917    7    0    1
 -2      6511      7110      1811
 -1     14918    7    0    1
 -2      7289      7430      4560
 -1     14919    7    0    1
 -2      7290      7432      4564
 -1     14920    7    0    1
 -2      7291      7431      4562
 -1     14921    7    0    1
 -2      6596      7116      1409
 -1     14922    7    0    1
 -2      1740      7117      6597
 -1     14923    7    0    1
 -2      1813      7115      6512
 -1     14924    7    0    1
 -2      1304      7325      6795
 -1     14925    7    0    1
 -2      5007      7261      6392
 -1     14926    7    0    1
 -2      6393      7260      5004
 -1     14927    7    0    1
 -2      5622      7055      6653
 -1     14928    7    0    1
 -2      3571      6948      6868
 -1     14929    7    0    1
 -2      3570      6947      6869
 -1     14930    7    0    1
 -2      6422      7220      4247
 -1     14931    7    0    1
 -2      4317      6882      6838
 -1     14932    7    0    1
 -2      3953      7111      6515
 -1     14933    7    0    1
 -2      3561      7426      6374
 -1     14934    7    0    1
 -2      3463      7126      6510
 -1     14935    7    0    1
 -2      6500      7383      4381
 -1     14936    7    0    1
 -2      4382      7384      6501
 -1     14937    7    0    1
 -2      2411      7410      6664
 -1     14938    7    0    1
 -2      6844      7259      5733
 -1     14939    7    0    1
 -2      5728      7258      6843
 -1     14940    7    0    1
 -2      6445      7217      2462
 -1     14941    7    0    1
 -2      7011      7356       389
 -1     14942    7    0    1
 -2      6591      7353      4937
 -1     14943    7    0    1
 -2      4975      7354      6593
 -1     14944    7    0    1
 -2      4753      7051      6677
 -1     14945    7    0    1
 -2      6406      7448      4880
 -1     14946    7    0    1
 -2       732      7359      7024
 -1     14947    7    0    1
 -2      3629      7125      6974
 -1     14948    7    0    1
 -2      3607      7492      6646
 -1     14949    7    0    1
 -2      5989      7383      6500
 -1     14950    7    0    1
 -2      6501      7384      5990
 -1     14951    7    0    1
 -2      6973      7151      2298
 -1     14952    7    0    1
 -2      6975      7152      2297
 -1     14953    7    0    1
 -2      2504      7304      6592
 -1     14954    7    0    1
 -2      6590      7305      2503
 -1     14955    7    0    1
 -2      6361      7481      2231
 -1     14956    7    0    1
 -2      6650      7225      4265
 -1     14957    7    0    1
 -2      6854      7410      2411
 -1     14958    7    0    1
 -2      6708      7037      4301
 -1     14959    7    0    1
 -2      6471      7296      4192
 -1     14960    7    0    1
 -2      6465      7285      3975
 -1     14961    7    0    1
 -2      3104      6953      6937
 -1     14962    7    0    1
 -2      4435      7112      6627
 -1     14963    7    0    1
 -2      2298      7151      7094
 -1     14964    7    0    1
 -2      2297      7152      7093
 -1     14965    7    0    1
 -2      6943      6957      3105
 -1     14966    7    0    1
 -2      1410      7522      6390
 -1     14967    7    0    1
 -2      2735      7372      6489
 -1     14968    7    0    1
 -2      6868      6948      3160
 -1     14969    7    0    1
 -2      6869      6947      3292
 -1     14970    7    0    1
 -2      4731      7321      7244
 -1     14971    7    0    1
 -2      7244      7321      3902
 -1     14972    7    0    1
 -2      6903      7355      1305
 -1     14973    7    0    1
 -2      1313      7471      6817
 -1     14974    7    0    1
 -2      6822      7159      4741
 -1     14975    7    0    1
 -2       388      7356      6419
 -1     14976    7    0    1
 -2      6418      7359       767
 -1     14977    7    0    1
 -2      4257      7445      6435
 -1     14978    7    0    1
 -2      2302      7389      6972
 -1     14979    7    0    1
 -2      2304      7390      6976
 -1     14980    7    0    1
 -2      4869      7494      6848
 -1     14981    7    0    1
 -2      3626      7503      6414
 -1     14982    7    0    1
 -2      3623      7504      6415
 -1     14983    7    0    1
 -2      3629      7505      6416
 -1     14984    7    0    1
 -2      6456      7445      4257
 -1     14985    7    0    1
 -2      6937      6953      1510
 -1     14986    7    0    1
 -2      6822      7381      4791
 -1     14987    7    0    1
 -2      1512      6957      6943
 -1     14988    7    0    1
 -2      6549      7307      1843
 -1     14989    7    0    1
 -2      1844      7308      6550
 -1     14990    7    0    1
 -2      1403      7348      7118
 -1     14991    7    0    1
 -2      7118      7348      4606
 -1     14992    7    0    1
 -2      6637      7315      2216
 -1     14993    7    0    1
 -2      6674      7221      2217
 -1     14994    7    0    1
 -2      4324      7300      6665
 -1     14995    7    0    1
 -2      6730      7222      4365
 -1     14996    7    0    1
 -2      2460      7222      6730
 -1     14997    7    0    1
 -2      6592      7304       338
 -1     14998    7    0    1
 -2       783      7305      6590
 -1     14999    7    0    1
 -2      6916      7218      4387
 -1     15000    7    0    1
 -2      4102      7087      7065
 -1     15001    7    0    1
 -2      3604      7322      6589
 -1     15002    7    0    1
 -2      6783      7118      4606
 -1     15003    7    0    1
 -2      6660      7232      4776
 -1     15004    7    0    1
 -2      4701      7287      6607
 -1     15005    7    0    1
 -2      6791      7112      2127
 -1     15006    7    0    1
 -2      6758      7470      3581
 -1     15007    7    0    1
 -2      7030      7349      4707
 -1     15008    7    0    1
 -2      6516      7506      2796
 -1     15009    7    0    1
 -2      2797      7507      6517
 -1     15010    7    0    1
 -2      7004      7013      5202
 -1     15011    7    0    1
 -2      4814      7419      6554
 -1     15012    7    0    1
 -2      2328      7508      6523
 -1     15013    7    0    1
 -2      4401      7526      6573
 -1     15014    7    0    1
 -2      6809      7237      2827
 -1     15015    7    0    1
 -2      2826      7236      6808
 -1     15016    7    0    1
 -2      6085      7349      6676
 -1     15017    7    0    1
 -2      1570      7013      7004
 -1     15018    7    0    1
 -2      4323      7437      6728
 -1     15019    7    0    1
 -2      6728      7437      1410
 -1     15020    7    0    1
 -2      5196      7021      7009
 -1     15021    7    0    1
 -2      7156      7370      4591
 -1     15022    7    0    1
 -2      3084      7370      7156
 -1     15023    7    0    1
 -2      4741      7381      6822
 -1     15024    7    0    1
 -2      7009      7021      1565
 -1     15025    7    0    1
 -2      1770      7284      6950
 -1     15026    7    0    1
 -2      3590      7230      6810
 -1     15027    7    0    1
 -2      4404      7382      7034
 -1     15028    7    0    1
 -2      1794      7400      7027
 -1     15029    7    0    1
 -2      1796      7398      7026
 -1     15030    7    0    1
 -2      1795      7399      7025
 -1     15031    7    0    1
 -2      6728      7300      4324
 -1     15032    7    0    1
 -2      6826      7167      2200
 -1     15033    7    0    1
 -2      6827      7168      2199
 -1     15034    7    0    1
 -2      7075      7301      4258
 -1     15035    7    0    1
 -2      7076      7302      4325
 -1     15036    7    0    1
 -2      1471      7297      7053
 -1     15037    7    0    1
 -2      6888      7347      4777
 -1     15038    7    0    1
 -2      3117      7187      6898
 -1     15039    7    0    1
 -2      6898      7187      1903
 -1     15040    7    0    1
 -2      6978      7087      4379
 -1     15041    7    0    1
 -2      6810      7230      5969
 -1     15042    7    0    1
 -2      7174      7404      4514
 -1     15043    7    0    1
 -2      5804      7228      6823
 -1     15044    7    0    1
 -2      6977      7491      4441
 -1     15045    7    0    1
 -2      7191      7511      2449
 -1     15046    7    0    1
 -2      1905      7512      7189
 -1     15047    7    0    1
 -2      2447      7513      7188
 -1     15048    7    0    1
 -2      2446      7514      7186
 -1     15049    7    0    1
 -2      7190      7515      1907
 -1     15050    7    0    1
 -2      1557      7336      6777
 -1     15051    7    0    1
 -2      2431      7404      7174
 -1     15052    7    0    1
 -2      6974      7125      2299
 -1     15053    7    0    1
 -2      6806      7311      2305
 -1     15054    7    0    1
 -2      4244      7522      6700
 -1     15055    7    0    1
 -2      6843      7258      1583
 -1     15056    7    0    1
 -2      1584      7259      6844
 -1     15057    7    0    1
 -2      6992      7364      3616
 -1     15058    7    0    1
 -2      3626      7152      6975
 -1     15059    7    0    1
 -2      3623      7151      6973
 -1     15060    7    0    1
 -2      6805      7352      5104
 -1     15061    7    0    1
 -2      3569      7394      6899
 -1     15062    7    0    1
 -2      3257      7134      7093
 -1     15063    7    0    1
 -2      3542      7135      7094
 -1     15064    7    0    1
 -2      4467      7218      6916
 -1     15065    7    0    1
 -2      3330      7470      6758
 -1     15066    7    0    1
 -2      7101      7123      1753
 -1     15067    7    0    1
 -2      4704      7435      7287
 -1     15068    7    0    1
 -2      6817      7471      3952
 -1     15069    7    0    1
 -2      7406      7417      4878
 -1     15070    7    0    1
 -2      7093      7152      3257
 -1     15071    7    0    1
 -2      7094      7151      3542
 -1     15072    7    0    1
 -2      4896      7417      7406
 -1     15073    7    0    1
 -2      4862      7454      7415
 -1     15074    7    0    1
 -2      4860      7455      7416
 -1     15075    7    0    1
 -2      7415      7454      4897
 -1     15076    7    0    1
 -2      7416      7455      4898
 -1     15077    7    0    1
 -2      4535      7244      7231
 -1     15078    7    0    1
 -2      7231      7244      3902
 -1     15079    7    0    1
 -2      4506      7123      7101
 -1     15080    7    0    1
 -2      7050      7406      4878
 -1     15081    7    0    1
 -2      7094      7135      1579
 -1     15082    7    0    1
 -2      7093      7134      3605
 -1     15083    7    0    1
 -2      5008      7523      6785
 -1     15084    7    0    1
 -2      7073      7454      4862
 -1     15085    7    0    1
 -2      7074      7455      4860
 -1     15086    7    0    1
 -2      6952      7494      4372
 -1     15087    7    0    1
 -2      6779      7526      4401
 -1     15088    7    0    1
 -2      6058      7460      6847
 -1     15089    7    0    1
 -2      7132      7153      6080
 -1     15090    7    0    1
 -2      1462      7496      6956
 -1     15091    7    0    1
 -2      6966      7495      1461
 -1     15092    7    0    1
 -2      5711      7153      7132
 -1     15093    7    0    1
 -2      7108      7510      3887
 -1     15094    7    0    1
 -2      6960      7408      4347
 -1     15095    7    0    1
 -2      1596      7207      7173
 -1     15096    7    0    1
 -2      4624      7500      7020
 -1     15097    7    0    1
 -2      4461      7491      6977
 -1     15098    7    0    1
 -2      6972      7389      4612
 -1     15099    7    0    1
 -2      6976      7390      4640
 -1     15100    7    0    1
 -2      7173      7207      5723
 -1     15101    7    0    1
 -2      2500      7301      7075
 -1     15102    7    0    1
 -2      2495      7302      7076
 -1     15103    7    0    1
 -2      4520      7255      7206
 -1     15104    7    0    1
 -2      1577      7367      7270
 -1     15105    7    0    1
 -2      7206      7255      1425
 -1     15106    7    0    1
 -2      7257      7472      1479
 -1     15107    7    0    1
 -2      7146      7448      6406
 -1     15108    7    0    1
 -2      4185      7494      6952
 -1     15109    7    0    1
 -2      7435      7479      2311
 -1     15110    7    0    1
 -2      7176      7527      1435
 -1     15111    7    0    1
 -2      1434      7528      7177
 -1     15112    7    0    1
 -2      4704      7479      7435
 -1     15113    7    0    1
 -2      4514      7404      7285
 -1     15114    7    0    1
 -2      7270      7367      4558
 -1     15115    7    0    1
 -2      5976      7448      7146
 -1     15116    7    0    1
 -2      7285      7404      3975
 -1     15117    7    0    1
 -2      7411      7488      4460
 -1     15118    7    0    1
 -2      4327      7510      7108
 -1     15119    7    0    1
 -2      7224      7478      5925
 -1     15120    7    0    1
 -2      2709      7478      7224
 -1     15121    7    0    1
 -2      4760      7472      7257
 -1     15122    7    0    1
 -2      3122      7511      7191
 -1     15123    7    0    1
 -2      7188      7513      4294
 -1     15124    7    0    1
 -2      7186      7514      4289
 -1     15125    7    0    1
 -2      7189      7512      4310
 -1     15126    7    0    1
 -2      3121      7515      7190
 -1     15127    7    0    1
 -2      4480      7527      7176
 -1     15128    7    0    1
 -2      7177      7528      4479
 -1     15129    7    0    1
 -2      7412      7426      3561
 -1     15130    7    0    1
 -2      7456      7519      2155
 -1     15131    7    0    1
 -2      4620      7519      7456
 -3
    1PSTEP                         1           1           1          
  100CL  101 1.000000000        7532                     0    1           1
 -4  DISP        4    1
 -5  D1          1    2    1    0
 -5  D2          1    2    2    0
 -5  D3          1    2    3    0
 -5  ALL         1    2    0    0    1ALL
 -1         1 0.00000E+00 0.00000E+00 0.00000E+00
 -1         2 0.00000E+00 0.00000E+00 0.00000E+00
 -1         3 0.00000E+00 0.00000E+00 0.00000E+00
 -1         4 0.00000E+00 0.00000E+00 0.00000E+00
 -1         5 0.00000E+00 0.00000E+00 0.00000E+00
 -1         6 0.00000E+00 0.00000E+00 0.00000E+00
 -1         7 0.00000E+00 0.00000E+00 0.00000E+00
 -1         8 0.00000E+00 0.00000E+00 0.00000E+00
 -1         9 0.00000E+00 0.00000E+00 0.00000E+00
 -1        10 0.00000E+00 0.00000E+00 0.00000E+00
 -1        11 0.00000E+00 0.00000E+00 0.00000E+00
 -1        12 0.00000E+00 0.00000E+00 0.00000E+00
 -1        13 0.00000E+00 0.00000E+00 0.00000E+00
 -1        14 0.00000E+00 0.00000E+00 0.00000E+00
 -1        15 0.00000E+00 0.00000E+00 0.00000E+00
 -1        16 0.00000E+00 0.00000E+00 0.00000E+00
 -1        17 0.00000E+00 0.00000E+00 0.00000E+00
 -1        18 0.00000E+00 0.00000E+00 0.00000E+00
 -1        19 0.00000E+00 0.00000E+00 0.00000E+00
 -1        20 0.00000E+00 0.00000E+00 0.00000E+00
 -1        21 0.00000E+00 0.00000E+00 0.00000E+00
 -1        22 0.00000E+00 0.00000E+00 0.00000E+00
 -1        23 0.00000E+00 0.00000E+00 0.00000E+00
 -1        24 0.00000E+00 0.00000E+00 0.00000E+00
 -1        25 0.00000E+00 0.00000E+00 0.00000E+00
 -1        26 0.00000E+00 0.00000E+00 0.00000E+00
 -1        27 0.00000E+00 0.00000E+00 0.00000E+00
 -1        28 0.00000E+00 0.00000E+00 0.00000E+00
 -1        29 0.00000E+00 0.00000E+00 0.00000E+00
 -1        30 0.00000E+00 0.00000E+00 0.00000E+00
 -1        31 0.00000E+00 0.00000E+00 0.00000E+00
 -1        32 0.00000E+00 0.00000E+00 0.00000E+00
 -1        33 0.00000E+00 0.00000E+00 0.00000E+00
 -1        34 0.00000E+00 0.00000E+00 0.00000E+00
 -1        35 0.00000E+00 0.00000E+00 0.00000E+00
 -1        36 0.00000E+00 0.00000E+00 0.00000E+00
 -1        37 0.00000E+00 0.00000E+00 0.00000E+00
 -1        38 0.00000E+00 0.00000E+00 0.00000E+00
 -1        39 0.00000E+00 0.00000E+00 0.00000E+00
 -1        40 0.00000E+00 0.00000E+00 0.00000E+00
 -1        41 0.00000E+00 0.00000E+00 0.00000E+00
 -1        42 0.00000E+00 0.00000E+00 0.00000E+00
 -1        43 0.00000E+00 0.00000E+00 0.00000E+00
 -1        44 0.00000E+00 0.00000E+00 0.00000E+00
 -1        45 0.00000E+00 0.00000E+00 0.00000E+00
 -1        46 0.00000E+00 0.00000E+00 0.00000E+00
 -1        47 0.00000E+00 0.00000E+00 0.00000E+00
 -1        48 0.00000E+00 0.00000E+00 0.00000E+00
 -1        49 0.00000E+00 0.00000E+00 0.00000E+00
 -1        50 0.00000E+00 0.00000E+00 0.00000E+00
 -1        51 0.00000E+00 0.00000E+00 0.00000E+00
 -1        52 0.00000E+00 0.00000E+00 0.00000E+00
 -1        53 0.00000E+00 0.00000E+00 0.00000E+00
 -1        54 0.00000E+00 0.00000E+00 0.00000E+00
 -1        55 0.00000E+00 0.00000E+00 0.00000E+00
 -1        56 0.00000E+00 0.00000E+00 0.00000E+00
 -1        57 0.00000E+00 0.00000E+00 0.00000E+00
 -1        58 0.00000E+00 0.00000E+00 0.00000E+00
 -1        59 0.00000E+00 0.00000E+00 0.00000E+00
 -1        60 0.00000E+00 0.00000E+00 0.00000E+00
 -1        61 0.00000E+00 0.00000E+00 0.00000E+00
 -1        62 0.00000E+00 0.00000E+00 0.00000E+00
 -1        63 0.00000E+00 0.00000E+00 0.00000E+00
 -1        64 0.00000E+00 0.00000E+00 0.00000E+00
 -1        65 0.00000E+00 0.00000E+00 0.00000E+00
 -1        66 0.00000E+00 0.00000E+00 0.00000E+00
 -1        67 0.00000E+00 0.00000E+00 0.00000E+00
 -1        68 0.00000E+00 0.00000E+00 0.00000E+00
 -1        69 0.00000E+00 0.00000E+00 0.00000E+00
 -1        70 0.00000E+00 0.00000E+00 0.00000E+00
 -1        71 0.00000E+00 0.00000E+00 0.00000E+00
 -1        72 0.00000E+00 0.00000E+00 0.00000E+00
 -1        73 0.00000E+00 0.00000E+00 0.00000E+00
 -1        74 0.00000E+00 0.00000E+00 0.00000E+00
 -1        75 0.00000E+00 0.00000E+00 0.00000E+00
 -1        76 0.00000E+00 0.00000E+00 0.00000E+00
 -1        77 0.00000E+00 0.00000E+00 0.00000E+00
 -1        78 0.00000E+00 0.00000E+00 0.00000E+00
 -1        79 0.00000E+00 0.00000E+00 0.00000E+00
 -1        80 0.00000E+00 0.00000E+00 0.00000E+00
 -1        81 0.00000E+00 0.00000E+00 0.00000E+00
 -1        82 0.00000E+00 0.00000E+00 0.00000E+00
 -1        83 0.00000E+00 0.00000E+00 0.00000E+00
 -1        84 0.00000E+00 0.00000E+00 0.00000E+00
 -1        85 0.00000E+00 0.00000E+00 0.00000E+00
 -1        86 0.00000E+00 0.00000E+00 0.00000E+00
 -1        87 0.00000E+00 0.00000E+00 0.00000E+00
 -1        88 0.00000E+00 0.00000E+00 0.00000E+00
 -1        89 0.00000E+00 0.00000E+00 0.00000E+00
 -1        90 0.00000E+00 0.00000E+00 0.00000E+00
 -1        91 0.00000E+00 0.00000E+00 0.00000E+00
 -1        92 0.00000E+00 0.00000E+00 0.00000E+00
 -1        93 0.00000E+00 0.00000E+00 0.00000E+00
 -1        94 0.00000E+00 0.00000E+00 0.00000E+00
 -1        95 0.00000E+00 0.00000E+00 0.00000E+00
 -1        96 0.00000E+00 0.00000E+00 0.00000E+00
 -1        97 0.00000E+00 0.00000E+00 0.00000E+00
 -1        98 0.00000E+00 0.00000E+00 0.00000E+00
 -1        99 0.00000E+00 0.00000E+00 0.00000E+00
 -1       100 0.00000E+00 0.00000E+00 0.00000E+00
 -1       101 0.00000E+00 0.00000E+00 0.00000E+00
 -1       102 0.00000E+00 0.00000E+00 0.00000E+00
 -1       103 0.00000E+00 0.00000E+00 0.00000E+00
 -1       104 0.00000E+00 0.00000E+00 0.00000E+00
 -1       105 0.00000E+00 0.00000E+00 0.00000E+00
 -1       106 0.00000E+00 0.00000E+00 0.00000E+00
 -1       107 0.00000E+00 0.00000E+00 0.00000E+00
 -1       108 0.00000E+00 0.00000E+00 0.00000E+00
 -1       109 0.00000E+00 0.00000E+00 0.00000E+00
 -1       110 0.00000E+00 0.00000E+00 0.00000E+00
 -1       111 0.00000E+00 0.00000E+00 0.00000E+00
 -1       112 0.00000E+00 0.00000E+00 0.00000E+00
 -1       113 0.00000E+00 0.00000E+00 0.00000E+00
 -1       114 0.00000E+00 0.00000E+00 0.00000E+00
 -1       115 0.00000E+00 0.00000E+00 0.00000E+00
 -1       116 0.00000E+00 0.00000E+00 0.00000E+00
 -1       117 0.00000E+00 0.00000E+00 0.00000E+00
 -1       118 0.00000E+00 0.00000E+00 0.00000E+00
 -1       119 0.00000E+00 0.00000E+00 0.00000E+00
 -1       120 0.00000E+00 0.00000E+00 0.00000E+00
 -1       121 0.00000E+00 0.00000E+00 0.00000E+00
 -1       122 0.00000E+00 0.00000E+00 0.00000E+00
 -1       123 0.00000E+00 0.00000E+00 0.00000E+00
 -1       124 0.00000E+00 0.00000E+00 0.00000E+00
 -1       125 0.00000E+00 0.00000E+00 0.00000E+00
 -1       126 0.00000E+00 0.00000E+00 0.00000E+00
 -1       127 0.00000E+00 0.00000E+00 0.00000E+00
 -1       128 0.00000E+00 0.00000E+00 0.00000E+00
 -1       129 0.00000E+00 0.00000E+00 0.00000E+00
 -1       130 0.00000E+00 0.00000E+00 0.00000E+00
 -1       131 0.00000E+00 0.00000E+00 0.00000E+00
 -1       132 0.00000E+00 0.00000E+00 0.00000E+00
 -1       133 0.00000E+00 0.00000E+00 0.00000E+00
 -1       134 0.00000E+00 0.00000E+00 0.00000E+00
 -1       135 0.00000E+00 0.00000E+00 0.00000E+00
 -1       136 0.00000E+00 0.00000E+00 0.00000E+00
 -1       137 0.00000E+00 0.00000E+00 0.00000E+00
 -1       138 0.00000E+00 0.00000E+00 0.00000E+00
 -1       139 0.00000E+00 0.00000E+00 0.00000E+00
 -1       140 0.00000E+00 0.00000E+00 0.00000E+00
 -1       141 0.00000E+00 0.00000E+00 0.00000E+00
 -1       142 0.00000E+00 0.00000E+00 0.00000E+00
 -1       143 0.00000E+00 0.00000E+00 0.00000E+00
 -1       144 0.00000E+00 0.00000E+00 0.00000E+00
 -1       145 0.00000E+00 0.00000E+00 0.00000E+00
 -1       146 0.00000E+00 0.00000E+00 0.00000E+00
 -1       147 0.00000E+00 0.00000E+00 0.00000E+00
 -1       148 0.00000E+00 0.00000E+00 0.00000E+00
 -1       149 0.00000E+00 0.00000E+00 0.00000E+00
 -1       150 0.00000E+00 0.00000E+00 0.00000E+00
 -1       151 0.00000E+00 0.00000E+00 0.00000E+00
 -1       152 0.00000E+00 0.00000E+00 0.00000E+00
 -1       153 0.00000E+00 0.00000E+00 0.00000E+00
 -1       154 0.00000E+00 0.00000E+00 0.00000E+00
 -1       155 0.00000E+00 0.00000E+00 0.00000E+00
 -1       156 0.00000E+00 0.00000E+00 0.00000E+00
 -1       157 0.00000E+00 0.00000E+00 0.00000E+00
 -1       158 0.00000E+00 0.00000E+00 0.00000E+00
 -1       159 0.00000E+00 0.00000E+00 0.00000E+00
 -1       160 0.00000E+00 0.00000E+00 0.00000E+00
 -1       161 0.00000E+00 0.00000E+00 0.00000E+00
 -1       162 0.00000E+00 0.00000E+00 0.00000E+00
 -1       163 0.00000E+00 0.00000E+00 0.00000E+00
 -1       164 0.00000E+00 0.00000E+00 0.00000E+00
 -1       165 0.00000E+00 0.00000E+00 0.00000E+00
 -1       166 0.00000E+00 0.00000E+00 0.00000E+00
 -1       167 0.00000E+00 0.00000E+00 0.00000E+00
 -1       168 0.00000E+00 0.00000E+00 0.00000E+00
 -1       169 0.00000E+00 0.00000E+00 0.00000E+00
 -1       170 0.00000E+00 0.00000E+00 0.00000E+00
 -1       171 0.00000E+00 0.00000E+00 0.00000E+00
 -1       172 0.00000E+00 0.00000E+00 0.00000E+00
 -1       173 0.00000E+00 0.00000E+00 0.00000E+00
 -1       174 0.00000E+00 0.00000E+00 0.00000E+00
 -1       175 0.00000E+00 0.00000E+00 0.00000E+00
 -1       176 0.00000E+00 0.00000E+00 0.00000E+00
 -1       177 0.00000E+00 0.00000E+00 0.00000E+00
 -1       178 0.00000E+00 0.00000E+00 0.00000E+00
 -1       179 0.00000E+00 0.00000E+00 0.00000E+00
 -1       180 0.00000E+00 0.00000E+00 0.00000E+00
 -1       181 0.00000E+00 0.00000E+00 0.00000E+00
 -1       182 0.00000E+00 0.00000E+00 0.00000E+00
 -1       183 0.00000E+00 0.00000E+00 0.00000E+00
 -1       184 0.00000E+00 0.00000E+00 0.00000E+00
 -1       185 0.00000E+00 0.00000E+00 0.00000E+00
 -1       186 0.00000E+00 0.00000E+00 0.00000E+00
 -1       187 0.00000E+00 0.00000E+00 0.00000E+00
 -1       188 0.00000E+00 0.00000E+00 0.00000E+00
 -1       189 0.00000E+00 0.00000E+00 0.00000E+00
 -1       190 0.00000E+00 0.00000E+00 0.00000E+00
 -1       191 0.00000E+00 0.00000E+00 0.00000E+00
 -1       192 0.00000E+00 0.00000E+00 0.00000E+00
 -1       193 0.00000E+00 0.00000E+00 0.00000E+00
 -1       194 0.00000E+00 0.00000E+00 0.00000E+00
 -1       195 0.00000E+00 0.00000E+00 0.00000E+00
 -1       196 0.00000E+00 0.00000E+00 0.00000E+00
 -1       197 0.00000E+00 0.00000E+00 0.00000E+00
 -1       198 0.00000E+00 0.00000E+00 0.00000E+00
 -1       199 0.00000E+00 0.00000E+00 0.00000E+00
 -1       200 0.00000E+00 0.00000E+00 0.00000E+00
 -1       201 0.00000E+00 0.00000E+00 0.00000E+00
 -1       202 0.00000E+00 0.00000E+00 0.00000E+00
 -1       203 0.00000E+00 0.00000E+00 0.00000E+00
 -1       204 0.00000E+00 0.00000E+00 0.00000E+00
 -1       205 0.00000E+00 0.00000E+00 0.00000E+00
 -1       206 0.00000E+00 0.00000E+00 0.00000E+00
 -1       207 0.00000E+00 0.00000E+00 0.00000E+00
 -1       208 0.00000E+00 0.00000E+00 0.00000E+00
 -1       209 0.00000E+00 0.00000E+00 0.00000E+00
 -1       210 0.00000E+00 0.00000E+00 0.00000E+00
 -1       211 0.00000E+00 0.00000E+00 0.00000E+00
 -1       212 0.00000E+00 0.00000E+00 0.00000E+00
 -1       213 0.00000E+00 0.00000E+00 0.00000E+00
 -1       214 0.00000E+00 0.00000E+00 0.00000E+00
 -1       215 0.00000E+00 0.00000E+00 0.00000E+00
 -1       216 0.00000E+00 0.00000E+00 0.00000E+00
 -1       217 0.00000E+00 0.00000E+00 0.00000E+00
 -1       218 0.00000E+00 0.00000E+00 0.00000E+00
 -1       219 0.00000E+00 0.00000E+00 0.00000E+00
 -1       220 0.00000E+00 0.00000E+00 0.00000E+00
 -1       221 0.00000E+00 0.00000E+00 0.00000E+00
 -1       222 0.00000E+00 0.00000E+00 0.00000E+00
 -1       223 0.00000E+00 0.00000E+00 0.00000E+00
 -1       224 0.00000E+00 0.00000E+00 0.00000E+00
 -1       225 0.00000E+00 0.00000E+00 0.00000E+00
 -1       226 0.00000E+00 0.00000E+00 0.00000E+00
 -1       227 0.00000E+00 0.00000E+00 0.00000E+00
 -1       228 0.00000E+00 0.00000E+00 0.00000E+00
 -1       229 0.00000E+00 0.00000E+00 0.00000E+00
 -1       230 0.00000E+00 0.00000E+00 0.00000E+00
 -1       231 0.00000E+00 0.00000E+00 0.00000E+00
 -1       232 0.00000E+00 0.00000E+00 0.00000E+00
 -1       233 0.00000E+00 0.00000E+00 0.00000E+00
 -1       234 0.00000E+00 0.00000E+00 0.00000E+00
 -1       235 0.00000E+00 0.00000E+00 0.00000E+00
 -1       236 0.00000E+00 0.00000E+00 0.00000E+00
 -1       237 0.00000E+00 0.00000E+00 0.00000E+00
 -1       238 0.00000E+00 0.00000E+00 0.00000E+00
 -1       239 0.00000E+00 0.00000E+00 0.00000E+00
 -1       240 0.00000E+00 0.00000E+00 0.00000E+00
 -1       241 0.00000E+00 0.00000E+00 0.00000E+00
 -1       242 0.00000E+00 0.00000E+00 0.00000E+00
 -1       243 0.00000E+00 0.00000E+00 0.00000E+00
 -1       244 0.00000E+00 0.00000E+00 0.00000E+00
 -1       245 0.00000E+00 0.00000E+00 0.00000E+00
 -1       246 0.00000E+00 0.00000E+00 0.00000E+00
 -1       247 0.00000E+00 0.00000E+00 0.00000E+00
 -1       248 0.00000E+00 0.00000E+00 0.00000E+00
 -1       249 0.00000E+00 0.00000E+00 0.00000E+00
 -1       250 0.00000E+00 0.00000E+00 0.00000E+00
 -1       251 0.00000E+00 0.00000E+00 0.00000E+00
 -1       252 0.00000E+00 0.00000E+00 0.00000E+00
 -1       253 0.00000E+00 0.00000E+00 0.00000E+00
 -1       254 0.00000E+00 0.00000E+00 0.00000E+00
 -1       255 0.00000E+00 0.00000E+00 0.00000E+00
 -1       256 0.00000E+00 0.00000E+00 0.00000E+00
 -1       257 0.00000E+00 0.00000E+00 0.00000E+00
 -1       258 0.00000E+00 0.00000E+00 0.00000E+00
 -1       259 0.00000E+00 0.00000E+00 0.00000E+00
 -1       260 0.00000E+00 0.00000E+00 0.00000E+00
 -1       261 0.00000E+00 0.00000E+00 0.00000E+00
 -1       262 0.00000E+00 0.00000E+00 0.00000E+00
 -1       263 0.00000E+00 0.00000E+00 0.00000E+00
 -1       264 0.00000E+00 0.00000E+00 0.00000E+00
 -1       265 0.00000E+00 0.00000E+00 0.00000E+00
 -1       266 0.00000E+00 0.00000E+00 0.00000E+00
 -1       267 0.00000E+00 0.00000E+00 0.00000E+00
 -1       268 0.00000E+00 0.00000E+00 0.00000E+00
 -1       269 0.00000E+00 0.00000E+00 0.00000E+00
 -1       270 0.00000E+00 0.00000E+00 0.00000E+00
 -1       271 0.00000E+00 0.00000E+00 0.00000E+00
 -1       272 0.00000E+00 0.00000E+00 0.00000E+00
 -1       273 0.00000E+00 0.00000E+00 0.00000E+00
 -1       274 0.00000E+00 0.00000E+00 0.00000E+00
 -1       275 0.00000E+00 0.00000E+00 0.00000E+00
 -1       276 0.00000E+00 0.00000E+00 0.00000E+00
 -1       277 0.00000E+00 0.00000E+00 0.00000E+00
 -1       278 0.00000E+00 0.00000E+00 0.00000E+00
 -1       279 0.00000E+00 0.00000E+00 0.00000E+00
 -1       280 0.00000E+00 0.00000E+00 0.00000E+00
 -1       281 0.00000E+00 0.00000E+00 0.00000E+00
 -1       282 0.00000E+00 0.00000E+00 0.00000E+00
 -1       283 0.00000E+00 0.00000E+00 0.00000E+00
 -1       284 0.00000E+00 0.00000E+00 0.00000E+00
 -1       285 0.00000E+00 0.00000E+00 0.00000E+00
 -1       286 0.00000E+00 0.00000E+00 0.00000E+00
 -1       287 0.00000E+00 0.00000E+00 0.00000E+00
 -1       288 0.00000E+00 0.00000E+00 0.00000E+00
 -1       289 0.00000E+00 0.00000E+00 0.00000E+00
 -1       290 0.00000E+00 0.00000E+00 0.00000E+00
 -1       291 0.00000E+00 0.00000E+00 0.00000E+00
 -1       292 0.00000E+00 0.00000E+00 0.00000E+00
 -1       293 0.00000E+00 0.00000E+00 0.00000E+00
 -1       294 0.00000E+00 0.00000E+00 0.00000E+00
 -1       295 0.00000E+00 0.00000E+00 0.00000E+00
 -1       296 0.00000E+00 0.00000E+00 0.00000E+00
 -1       297 0.00000E+00 0.00000E+00 0.00000E+00
 -1       298 0.00000E+00 0.00000E+00 0.00000E+00
 -1       299 0.00000E+00 0.00000E+00 0.00000E+00
 -1       300 0.00000E+00 0.00000E+00 0.00000E+00
 -1       301 0.00000E+00 0.00000E+00 0.00000E+00
 -1       302 0.00000E+00 0.00000E+00 0.00000E+00
 -1       303 0.00000E+00 0.00000E+00 0.00000E+00
 -1       304 0.00000E+00 0.00000E+00 0.00000E+00
 -1       305 0.00000E+00 0.00000E+00 0.00000E+00
 -1       306 0.00000E+00 0.00000E+00 0.00000E+00
 -1       307 0.00000E+00 0.00000E+00 0.00000E+00
 -1       308 0.00000E+00 0.00000E+00 0.00000E+00
 -1       309 0.00000E+00 0.00000E+00 0.00000E+00
 -1       310 0.00000E+00 0.00000E+00 0.00000E+00
 -1       311 0.00000E+00 0.00000E+00 0.00000E+00
 -1       312 0.00000E+00 0.00000E+00 0.00000E+00
 -1       313 0.00000E+00 0.00000E+00 0.00000E+00
 -1       314 0.00000E+00 0.00000E+00 0.00000E+00
 -1       315 0.00000E+00 0.00000E+00 0.00000E+00
 -1       316 0.00000E+00 0.00000E+00 0.00000E+00
 -1       317 0.00000E+00 0.00000E+00 0.00000E+00
 -1       318 0.00000E+00 0.00000E+00 0.00000E+00
 -1       319 0.00000E+00 0.00000E+00 0.00000E+00
 -1       320 0.00000E+00 0.00000E+00 0.00000E+00
 -1       321 0.00000E+00 0.00000E+00 0.00000E+00
 -1       322 0.00000E+00 0.00000E+00 0.00000E+00
 -1       323 0.00000E+00 0.00000E+00 0.00000E+00
 -1       324 0.00000E+00 0.00000E+00 0.00000E+00
 -1       325 0.00000E+00 0.00000E+00 0.00000E+00
 -1       326 0.00000E+00 0.00000E+00 0.00000E+00
 -1       327 0.00000E+00 0.00000E+00 0.00000E+00
 -1       328 0.00000E+00 0.00000E+00 0.00000E+00
 -1       329 0.00000E+00 0.00000E+00 0.00000E+00
 -1       330 0.00000E+00 0.00000E+00 0.00000E+00
 -1       331 0.00000E+00 0.00000E+00 0.00000E+00
 -1       332 0.00000E+00 0.00000E+00 0.00000E+00
 -1       333 0.00000E+00 0.00000E+00 0.00000E+00
 -1       334 0.00000E+00 0.00000E+00 0.00000E+00
 -1       335 0.00000E+00 0.00000E+00 0.00000E+00
 -1       336 0.00000E+00 0.00000E+00 0.00000E+00
 -1       337 0.00000E+00 0.00000E+00 0.00000E+00
 -1       338 0.00000E+00 0.00000E+00 0.00000E+00
 -1       339 0.00000E+00 0.00000E+00 0.00000E+00
 -1       340 0.00000E+00 0.00000E+00 0.00000E+00
 -1       341 0.00000E+00 0.00000E+00 0.00000E+00
 -1       342 0.00000E+00 0.00000E+00 0.00000E+00
 -1       343 0.00000E+00 0.00000E+00 0.00000E+00
 -1       344 0.00000E+00 0.00000E+00 0.00000E+00
 -1       345 0.00000E+00 0.00000E+00 0.00000E+00
 -1       346 0.00000E+00 0.00000E+00 0.00000E+00
 -1       347 0.00000E+00 0.00000E+00 0.00000E+00
 -1       348 0.00000E+00 0.00000E+00 0.00000E+00
 -1       349 0.00000E+00 0.00000E+00 0.00000E+00
 -1       350 0.00000E+00 0.00000E+00 0.00000E+00
 -1       351 0.00000E+00 0.00000E+00 0.00000E+00
 -1       352 0.00000E+00 0.00000E+00 0.00000E+00
 -1       353 0.00000E+00 0.00000E+00 0.00000E+00
 -1       354 0.00000E+00 0.00000E+00 0.00000E+00
 -1       355 0.00000E+00 0.00000E+00 0.00000E+00
 -1       356 0.00000E+00 0.00000E+00 0.00000E+00
 -1       357 0.00000E+00 0.00000E+00 0.00000E+00
 -1       358 0.00000E+00 0.00000E+00 0.00000E+00
 -1       359 0.00000E+00 0.00000E+00 0.00000E+00
 -1       360 0.00000E+00 0.00000E+00 0.00000E+00
 -1       361 0.00000E+00 0.00000E+00 0.00000E+00
 -1       362 0.00000E+00 0.00000E+00 0.00000E+00
 -1       363 0.00000E+00 0.00000E+00 0.00000E+00
 -1       364 0.00000E+00 0.00000E+00 0.00000E+00
 -1       365 0.00000E+00 0.00000E+00 0.00000E+00
 -1       366 0.00000E+00 0.00000E+00 0.00000E+00
 -1       367 0.00000E+00 0.00000E+00 0.00000E+00
 -1       368 0.00000E+00 0.00000E+00 0.00000E+00
 -1       369 0.00000E+00 0.00000E+00 0.00000E+00
 -1       370 0.00000E+00 0.00000E+00 0.00000E+00
 -1       371 0.00000E+00 0.00000E+00 0.00000E+00
 -1       372 0.00000E+00 0.00000E+00 0.00000E+00
 -1       373 0.00000E+00 0.00000E+00 0.00000E+00
 -1       374 0.00000E+00 0.00000E+00 0.00000E+00
 -1       375 0.00000E+00 0.00000E+00 0.00000E+00
 -1       376 0.00000E+00 0.00000E+00 0.00000E+00
 -1       377 0.00000E+00 0.00000E+00 0.00000E+00
 -1       378 0.00000E+00 0.00000E+00 0.00000E+00
 -1       379 0.00000E+00 0.00000E+00 0.00000E+00
 -1       380 0.00000E+00 0.00000E+00 0.00000E+00
 -1       381 0.00000E+00 0.00000E+00 0.00000E+00
 -1       382 0.00000E+00 0.00000E+00 0.00000E+00
 -1       383 0.00000E+00 0.00000E+00 0.00000E+00
 -1       384 0.00000E+00 0.00000E+00 0.00000E+00
 -1       385 0.00000E+00 0.00000E+00 0.00000E+00
 -1       386 0.00000E+00 0.00000E+00 0.00000E+00
 -1       387 0.00000E+00 0.00000E+00 0.00000E+00
 -1       388 0.00000E+00 0.00000E+00 0.00000E+00
 -1       389 0.00000E+00 0.00000E+00 0.00000E+00
 -1       390 0.00000E+00 0.00000E+00 0.00000E+00
 -1       391 0.00000E+00 0.00000E+00 0.00000E+00
 -1       392 0.00000E+00 0.00000E+00 0.00000E+00
 -1       393 0.00000E+00 0.00000E+00 0.00000E+00
 -1       394 0.00000E+00 0.00000E+00 0.00000E+00
 -1       395 0.00000E+00 0.00000E+00 0.00000E+00
 -1       396 0.00000E+00 0.00000E+00 0.00000E+00
 -1       397 0.00000E+00 0.00000E+00 0.00000E+00
 -1       398 0.00000E+00 0.00000E+00 0.00000E+00
 -1       399 0.00000E+00 0.00000E+00 0.00000E+00
 -1       400 0.00000E+00 0.00000E+00 0.00000E+00
 -1       401 0.00000E+00 0.00000E+00 0.00000E+00
 -1       402 0.00000E+00 0.00000E+00 0.00000E+00
 -1       403 0.00000E+00 0.00000E+00 0.00000E+00
 -1       404 0.00000E+00 0.00000E+00 0.00000E+00
 -1       405 0.00000E+00 0.00000E+00 0.00000E+00
 -1       406 0.00000E+00 0.00000E+00 0.00000E+00
 -1       407 0.00000E+00 0.00000E+00 0.00000E+00
 -1       408 0.00000E+00 0.00000E+00 0.00000E+00
 -1       409 0.00000E+00 0.00000E+00 0.00000E+00
 -1       410 0.00000E+00 0.00000E+00 0.00000E+00
 -1       411 0.00000E+00 0.00000E+00 0.00000E+00
 -1       412 0.00000E+00 0.00000E+00 0.00000E+00
 -1       413 0.00000E+00 0.00000E+00 0.00000E+00
 -1       414 0.00000E+00 0.00000E+00 0.00000E+00
 -1       415 0.00000E+00 0.00000E+00 0.00000E+00
 -1       416 0.00000E+00 0.00000E+00 0.00000E+00
 -1       417 0.00000E+00 0.00000E+00 0.00000E+00
 -1       418 0.00000E+00 0.00000E+00 0.00000E+00
 -1       419 0.00000E+00 0.00000E+00 0.00000E+00
 -1       420 0.00000E+00 0.00000E+00 0.00000E+00
 -1       421 0.00000E+00 0.00000E+00 0.00000E+00
 -1       422 0.00000E+00 0.00000E+00 0.00000E+00
 -1       423 0.00000E+00 0.00000E+00 0.00000E+00
 -1       424 0.00000E+00 0.00000E+00 0.00000E+00
 -1       425 0.00000E+00 0.00000E+00 0.00000E+00
 -1       426 0.00000E+00 0.00000E+00 0.00000E+00
 -1       427 0.00000E+00 0.00000E+00 0.00000E+00
 -1       428 0.00000E+00 0.00000E+00 0.00000E+00
 -1       429 0.00000E+00 0.00000E+00 0.00000E+00
 -1       430 0.00000E+00 0.00000E+00 0.00000E+00
 -1       431 0.00000E+00 0.00000E+00 0.00000E+00
 -1       432 0.00000E+00 0.00000E+00 0.00000E+00
 -1       433 0.00000E+00 0.00000E+00 0.00000E+00
 -1       434 0.00000E+00 0.00000E+00 0.00000E+00
 -1       435 0.00000E+00 0.00000E+00 0.00000E+00
 -1       436 0.00000E+00 0.00000E+00 0.00000E+00
 -1       437 0.00000E+00 0.00000E+00 0.00000E+00
 -1       438 0.00000E+00 0.00000E+00 0.00000E+00
 -1       439 0.00000E+00 0.00000E+00 0.00000E+00
 -1       440 0.00000E+00 0.00000E+00 0.00000E+00
 -1       441 0.00000E+00 0.00000E+00 0.00000E+00
 -1       442 0.00000E+00 0.00000E+00 0.00000E+00
 -1       443 0.00000E+00 0.00000E+00 0.00000E+00
 -1       444 0.00000E+00 0.00000E+00 0.00000E+00
 -1       445 0.00000E+00 0.00000E+00 0.00000E+00
 -1       446 0.00000E+00 0.00000E+00 0.00000E+00
 -1       447 0.00000E+00 0.00000E+00 0.00000E+00
 -1       448 0.00000E+00 0.00000E+00 0.00000E+00
 -1       449 0.00000E+00 0.00000E+00 0.00000E+00
 -1       450 0.00000E+00 0.00000E+00 0.00000E+00
 -1       451 0.00000E+00 0.00000E+00 0.00000E+00
 -1       452 0.00000E+00 0.00000E+00 0.00000E+00
 -1       453 0.00000E+00 0.00000E+00 0.00000E+00
 -1       454 0.00000E+00 0.00000E+00 0.00000E+00
 -1       455 0.00000E+00 0.00000E+00 0.00000E+00
 -1       456 0.00000E+00 0.00000E+00 0.00000E+00
 -1       457 0.00000E+00 0.00000E+00 0.00000E+00
 -1       458 0.00000E+00 0.00000E+00 0.00000E+00
 -1       459 0.00000E+00 0.00000E+00 0.00000E+00
 -1       460 0.00000E+00 0.00000E+00 0.00000E+00
 -1       461 0.00000E+00 0.00000E+00 0.00000E+00
 -1       462 0.00000E+00 0.00000E+00 0.00000E+00
 -1       463 0.00000E+00 0.00000E+00 0.00000E+00
 -1       464 0.00000E+00 0.00000E+00 0.00000E+00
 -1       465 0.00000E+00 0.00000E+00 0.00000E+00
 -1       466 0.00000E+00 0.00000E+00 0.00000E+00
 -1       467 0.00000E+00 0.00000E+00 0.00000E+00
 -1       468 0.00000E+00 0.00000E+00 0.00000E+00
 -1       469 0.00000E+00 0.00000E+00 0.00000E+00
 -1       470 0.00000E+00 0.00000E+00 0.00000E+00
 -1       471 0.00000E+00 0.00000E+00 0.00000E+00
 -1       472 0.00000E+00 0.00000E+00 0.00000E+00
 -1       473 0.00000E+00 0.00000E+00 0.00000E+00
 -1       474 0.00000E+00 0.00000E+00 0.00000E+00
 -1       475 0.00000E+00 0.00000E+00 0.00000E+00
 -1       476 0.00000E+00 0.00000E+00 0.00000E+00
 -1       477 0.00000E+00 0.00000E+00 0.00000E+00
 -1       478 0.00000E+00 0.00000E+00 0.00000E+00
 -1       479 0.00000E+00 0.00000E+00 0.00000E+00
 -1       480 0.00000E+00 0.00000E+00 0.00000E+00
 -1       481 0.00000E+00 0.00000E+00 0.00000E+00
 -1       482 0.00000E+00 0.00000E+00 0.00000E+00
 -1       483 0.00000E+00 0.00000E+00 0.00000E+00
 -1       484 0.00000E+00 0.00000E+00 0.00000E+00
 -1       485 0.00000E+00 0.00000E+00 0.00000E+00
 -1       486 0.00000E+00 0.00000E+00 0.00000E+00
 -1       487 0.00000E+00 0.00000E+00 0.00000E+00
 -1       488 0.00000E+00 0.00000E+00 0.00000E+00
 -1       489 0.00000E+00 0.00000E+00 0.00000E+00
 -1       490 0.00000E+00 0.00000E+00 0.00000E+00
 -1       491 0.00000E+00 0.00000E+00 0.00000E+00
 -1       492 0.00000E+00 0.00000E+00 0.00000E+00
 -1       493 0.00000E+00 0.00000E+00 0.00000E+00
 -1       494 0.00000E+00 0.00000E+00 0.00000E+00
 -1       495 0.00000E+00 0.00000E+00 0.00000E+00
 -1       496 0.00000E+00 0.00000E+00 0.00000E+00
 -1       497 0.00000E+00 0.00000E+00 0.00000E+00
 -1       498 0.00000E+00 0.00000E+00 0.00000E+00
 -1       499 0.00000E+00 0.00000E+00 0.00000E+00
 -1       500 0.00000E+00 0.00000E+00 0.00000E+00
 -1       501 0.00000E+00 0.00000E+00 0.00000E+00
 -1       502 0.00000E+00 0.00000E+00 0.00000E+00
 -1       503 0.00000E+00 0.00000E+00 0.00000E+00
 -1       504 0.00000E+00 0.00000E+00 0.00000E+00
 -1       505 0.00000E+00 0.00000E+00 0.00000E+00
 -1       506 0.00000E+00 0.00000E+00 0.00000E+00
 -1       507 0.00000E+00 0.00000E+00 0.00000E+00
 -1       508 0.00000E+00 0.00000E+00 0.00000E+00
 -1       509 0.00000E+00 0.00000E+00 0.00000E+00
 -1       510 0.00000E+00 0.00000E+00 0.00000E+00
 -1       511 0.00000E+00 0.00000E+00 0.00000E+00
 -1       512 0.00000E+00 0.00000E+00 0.00000E+00
 -1       513 0.00000E+00 0.00000E+00 0.00000E+00
 -1       514 0.00000E+00 0.00000E+00 0.00000E+00
 -1       515 0.00000E+00 0.00000E+00 0.00000E+00
 -1       516 0.00000E+00 0.00000E+00 0.00000E+00
 -1       517 0.00000E+00 0.00000E+00 0.00000E+00
 -1       518 0.00000E+00 0.00000E+00 0.00000E+00
 -1       519 0.00000E+00 0.00000E+00 0.00000E+00
 -1       520 0.00000E+00 0.00000E+00 0.00000E+00
 -1       521 0.00000E+00 0.00000E+00 0.00000E+00
 -1       522 0.00000E+00 0.00000E+00 0.00000E+00
 -1       523 0.00000E+00 0.00000E+00 0.00000E+00
 -1       524 0.00000E+00 0.00000E+00 0.00000E+00
 -1       525 0.00000E+00 0.00000E+00 0.00000E+00
 -1       526 0.00000E+00 0.00000E+00 0.00000E+00
 -1       527 0.00000E+00 0.00000E+00 0.00000E+00
 -1       528 0.00000E+00 0.00000E+00 0.00000E+00
 -1       529 0.00000E+00 0.00000E+00 0.00000E+00
 -1       530 0.00000E+00 0.00000E+00 0.00000E+00
 -1       531 0.00000E+00 0.00000E+00 0.00000E+00
 -1       532 0.00000E+00 0.00000E+00 0.00000E+00
 -1       533 0.00000E+00 0.00000E+00 0.00000E+00
 -1       534 0.00000E+00 0.00000E+00 0.00000E+00
 -1       535 0.00000E+00 0.00000E+00 0.00000E+00
 -1       536 0.00000E+00 0.00000E+00 0.00000E+00
 -1       537 0.00000E+00 0.00000E+00 0.00000E+00
 -1       538 0.00000E+00 0.00000E+00 0.00000E+00
 -1       539 0.00000E+00 0.00000E+00 0.00000E+00
 -1       540 0.00000E+00 0.00000E+00 0.00000E+00
 -1       541 0.00000E+00 0.00000E+00 0.00000E+00
 -1       542 0.00000E+00 0.00000E+00 0.00000E+00
 -1       543 0.00000E+00 0.00000E+00 0.00000E+00
 -1       544 0.00000E+00 0.00000E+00 0.00000E+00
 -1       545 0.00000E+00 0.00000E+00 0.00000E+00
 -1       546 0.00000E+00 0.00000E+00 0.00000E+00
 -1       547 0.00000E+00 0.00000E+00 0.00000E+00
 -1       548 0.00000E+00 0.00000E+00 0.00000E+00
 -1       549 0.00000E+00 0.00000E+00 0.00000E+00
 -1       550 0.00000E+00 0.00000E+00 0.00000E+00
 -1       551 0.00000E+00 0.00000E+00 0.00000E+00
 -1       552 0.00000E+00 0.00000E+00 0.00000E+00
 -1       553 0.00000E+00 0.00000E+00 0.00000E+00
 -1       554 0.00000E+00 0.00000E+00 0.00000E+00
 -1       555 0.00000E+00 0.00000E+00 0.00000E+00
 -1       556 0.00000E+00 0.00000E+00 0.00000E+00
 -1       557 0.00000E+00 0.00000E+00 0.00000E+00
 -1       558 0.00000E+00 0.00000E+00 0.00000E+00
 -1       559 0.00000E+00 0.00000E+00 0.00000E+00
 -1       560 0.00000E+00 0.00000E+00 0.00000E+00
 -1       561 0.00000E+00 0.00000E+00 0.00000E+00
 -1       562 0.00000E+00 0.00000E+00 0.00000E+00
 -1       563 0.00000E+00 0.00000E+00 0.00000E+00
 -1       564 0.00000E+00 0.00000E+00 0.00000E+00
 -1       565 0.00000E+00 0.00000E+00 0.00000E+00
 -1       566 0.00000E+00 0.00000E+00 0.00000E+00
 -1       567 0.00000E+00 0.00000E+00 0.00000E+00
 -1       568 0.00000E+00 0.00000E+00 0.00000E+00
 -1       569 0.00000E+00 0.00000E+00 0.00000E+00
 -1       570 0.00000E+00 0.00000E+00 0.00000E+00
 -1       571 0.00000E+00 0.00000E+00 0.00000E+00
 -1       572 0.00000E+00 0.00000E+00 0.00000E+00
 -1       573 0.00000E+00 0.00000E+00 0.00000E+00
 -1       574 0.00000E+00 0.00000E+00 0.00000E+00
 -1       575 0.00000E+00 0.00000E+00 0.00000E+00
 -1       576 0.00000E+00 0.00000E+00 0.00000E+00
 -1       577 0.00000E+00 0.00000E+00 0.00000E+00
 -1       578 0.00000E+00 0.00000E+00 0.00000E+00
 -1       579 0.00000E+00 0.00000E+00 0.00000E+00
 -1       580 0.00000E+00 0.00000E+00 0.00000E+00
 -1       581 0.00000E+00 0.00000E+00 0.00000E+00
 -1       582 0.00000E+00 0.00000E+00 0.00000E+00
 -1       583 0.00000E+00 0.00000E+00 0.00000E+00
 -1       584 0.00000E+00 0.00000E+00 0.00000E+00
 -1       585 0.00000E+00 0.00000E+00 0.00000E+00
 -1       586 0.00000E+00 0.00000E+00 0.00000E+00
 -1       587 0.00000E+00 0.00000E+00 0.00000E+00
 -1       588 0.00000E+00 0.00000E+00 0.00000E+00
 -1       589 0.00000E+00 0.00000E+00 0.00000E+00
 -1       590 0.00000E+00 0.00000E+00 0.00000E+00
 -1       591 0.00000E+00 0.00000E+00 0.00000E+00
 -1       592 0.00000E+00 0.00000E+00 0.00000E+00
 -1       593 0.00000E+00 0.00000E+00 0.00000E+00
 -1       594 0.00000E+00 0.00000E+00 0.00000E+00
 -1       595 0.00000E+00 0.00000E+00 0.00000E+00
 -1       596 0.00000E+00 0.00000E+00 0.00000E+00
 -1       597 0.00000E+00 0.00000E+00 0.00000E+00
 -1       598 0.00000E+00 0.00000E+00 0.00000E+00
 -1       599 0.00000E+00 0.00000E+00 0.00000E+00
 -1       600 0.00000E+00 0.00000E+00 0.00000E+00
 -1       601 0.00000E+00 0.00000E+00 0.00000E+00
 -1       602 0.00000E+00 0.00000E+00 0.00000E+00
 -1       603 0.00000E+00 0.00000E+00 0.00000E+00
 -1       604 0.00000E+00 0.00000E+00 0.00000E+00
 -1       605 0.00000E+00 0.00000E+00 0.00000E+00
 -1       606 0.00000E+00 0.00000E+00 0.00000E+00
 -1       607 0.00000E+00 0.00000E+00 0.00000E+00
 -1       608 0.00000E+00 0.00000E+00 0.00000E+00
 -1       609 0.00000E+00 0.00000E+00 0.00000E+00
 -1       610 0.00000E+00 0.00000E+00 0.00000E+00
 -1       611 0.00000E+00 0.00000E+00 0.00000E+00
 -1       612 0.00000E+00 0.00000E+00 0.00000E+00
 -1       613 0.00000E+00 0.00000E+00 0.00000E+00
 -1       614 0.00000E+00 0.00000E+00 0.00000E+00
 -1       615 0.00000E+00 0.00000E+00 0.00000E+00
 -1       616 0.00000E+00 0.00000E+00 0.00000E+00
 -1       617 0.00000E+00 0.00000E+00 0.00000E+00
 -1       618 0.00000E+00 0.00000E+00 0.00000E+00
 -1       619 0.00000E+00 0.00000E+00 0.00000E+00
 -1       620 0.00000E+00 0.00000E+00 0.00000E+00
 -1       621 0.00000E+00 0.00000E+00 0.00000E+00
 -1       622 0.00000E+00 0.00000E+00 0.00000E+00
 -1       623 0.00000E+00 0.00000E+00 0.00000E+00
 -1       624 0.00000E+00 0.00000E+00 0.00000E+00
 -1       625 0.00000E+00 0.00000E+00 0.00000E+00
 -1       626 0.00000E+00 0.00000E+00 0.00000E+00
 -1       627 0.00000E+00 0.00000E+00 0.00000E+00
 -1       628 0.00000E+00 0.00000E+00 0.00000E+00
 -1       629 0.00000E+00 0.00000E+00 0.00000E+00
 -1       630 0.00000E+00 0.00000E+00 0.00000E+00
 -1       631 0.00000E+00 0.00000E+00 0.00000E+00
 -1       632 0.00000E+00 0.00000E+00 0.00000E+00
 -1       633 0.00000E+00 0.00000E+00 0.00000E+00
 -1       634 0.00000E+00 0.00000E+00 0.00000E+00
 -1       635 0.00000E+00 0.00000E+00 0.00000E+00
 -1       636 0.00000E+00 0.00000E+00 0.00000E+00
 -1       637 0.00000E+00 0.00000E+00 0.00000E+00
 -1       638 0.00000E+00 0.00000E+00 0.00000E+00
 -1       639 0.00000E+00 0.00000E+00 0.00000E+00
 -1       640 0.00000E+00 0.00000E+00 0.00000E+00
 -1       641 0.00000E+00 0.00000E+00 0.00000E+00
 -1       642 0.00000E+00 0.00000E+00 0.00000E+00
 -1       643 0.00000E+00 0.00000E+00 0.00000E+00
 -1       644 0.00000E+00 0.00000E+00 0.00000E+00
 -1       645 0.00000E+00 0.00000E+00 0.00000E+00
 -1       646 0.00000E+00 0.00000E+00 0.00000E+00
 -1       647 0.00000E+00 0.00000E+00 0.00000E+00
 -1       648 0.00000E+00 0.00000E+00 0.00000E+00
 -1       649 0.00000E+00 0.00000E+00 0.00000E+00
 -1       650 0.00000E+00 0.00000E+00 0.00000E+00
 -1       651 0.00000E+00 0.00000E+00 0.00000E+00
 -1       652 0.00000E+00 0.00000E+00 0.00000E+00
 -1       653 0.00000E+00 0.00000E+00 0.00000E+00
 -1       654 0.00000E+00 0.00000E+00 0.00000E+00
 -1       655 0.00000E+00 0.00000E+00 0.00000E+00
 -1       656 0.00000E+00 0.00000E+00 0.00000E+00
 -1       657 0.00000E+00 0.00000E+00 0.00000E+00
 -1       658 0.00000E+00 0.00000E+00 0.00000E+00
 -1       659 0.00000E+00 0.00000E+00 0.00000E+00
 -1       660 0.00000E+00 0.00000E+00 0.00000E+00
 -1       661 0.00000E+00 0.00000E+00 0.00000E+00
 -1       662 0.00000E+00 0.00000E+00 0.00000E+00
 -1       663 0.00000E+00 0.00000E+00 0.00000E+00
 -1       664 0.00000E+00 0.00000E+00 0.00000E+00
 -1       665 0.00000E+00 0.00000E+00 0.00000E+00
 -1       666 0.00000E+00 0.00000E+00 0.00000E+00
 -1       667 0.00000E+00 0.00000E+00 0.00000E+00
 -1       668 0.00000E+00 0.00000E+00 0.00000E+00
 -1       669 0.00000E+00 0.00000E+00 0.00000E+00
 -1       670 0.00000E+00 0.00000E+00 0.00000E+00
 -1       671 0.00000E+00 0.00000E+00 0.00000E+00
 -1       672 0.00000E+00 0.00000E+00 0.00000E+00
 -1       673 0.00000E+00 0.00000E+00 0.00000E+00
 -1       674 0.00000E+00 0.00000E+00 0.00000E+00
 -1       675 0.00000E+00 0.00000E+00 0.00000E+00
 -1       676 0.00000E+00 0.00000E+00 0.00000E+00
 -1       677 0.00000E+00 0.00000E+00 0.00000E+00
 -1       678 0.00000E+00 0.00000E+00 0.00000E+00
 -1       679 0.00000E+00 0.00000E+00 0.00000E+00
 -1       680 0.00000E+00 0.00000E+00 0.00000E+00
 -1       681 0.00000E+00 0.00000E+00 0.00000E+00
 -1       682 0.00000E+00 0.00000E+00 0.00000E+00
 -1       683 0.00000E+00 0.00000E+00 0.00000E+00
 -1       684 0.00000E+00 0.00000E+00 0.00000E+00
 -1       685 0.00000E+00 0.00000E+00 0.00000E+00
 -1       686 0.00000E+00 0.00000E+00 0.00000E+00
 -1       687 0.00000E+00 0.00000E+00 0.00000E+00
 -1       688 0.00000E+00 0.00000E+00 0.00000E+00
 -1       689 0.00000E+00 0.00000E+00 0.00000E+00
 -1       690 0.00000E+00 0.00000E+00 0.00000E+00
 -1       691 0.00000E+00 0.00000E+00 0.00000E+00
 -1       692 0.00000E+00 0.00000E+00 0.00000E+00
 -1       693 0.00000E+00 0.00000E+00 0.00000E+00
 -1       694 0.00000E+00 0.00000E+00 0.00000E+00
 -1       695 0.00000E+00 0.00000E+00 0.00000E+00
 -1       696 0.00000E+00 0.00000E+00 0.00000E+00
 -1       697 0.00000E+00 0.00000E+00 0.00000E+00
 -1       698 0.00000E+00 0.00000E+00 0.00000E+00
 -1       699 0.00000E+00 0.00000E+00 0.00000E+00
 -1       700 0.00000E+00 0.00000E+00 0.00000E+00
 -1       701 0.00000E+00 0.00000E+00 0.00000E+00
 -1       702 0.00000E+00 0.00000E+00 0.00000E+00
 -1       703 0.00000E+00 0.00000E+00 0.00000E+00
 -1       704 0.00000E+00 0.00000E+00 0.00000E+00
 -1       705 0.00000E+00 0.00000E+00 0.00000E+00
 -1       706 0.00000E+00 0.00000E+00 0.00000E+00
 -1       707 0.00000E+00 0.00000E+00 0.00000E+00
 -1       708 0.00000E+00 0.00000E+00 0.00000E+00
 -1       709 0.00000E+00 0.00000E+00 0.00000E+00
 -1       710 0.00000E+00 0.00000E+00 0.00000E+00
 -1       711 0.00000E+00 0.00000E+00 0.00000E+00
 -1       712 0.00000E+00 0.00000E+00 0.00000E+00
 -1       713 0.00000E+00 0.00000E+00 0.00000E+00
 -1       714 0.00000E+00 0.00000E+00 0.00000E+00
 -1       715 0.00000E+00 0.00000E+00 0.00000E+00
 -1       716 0.00000E+00 0.00000E+00 0.00000E+00
 -1       717 0.00000E+00 0.00000E+00 0.00000E+00
 -1       718 0.00000E+00 0.00000E+00 0.00000E+00
 -1       719 0.00000E+00 0.00000E+00 0.00000E+00
 -1       720 0.00000E+00 0.00000E+00 0.00000E+00
 -1       721 0.00000E+00 0.00000E+00 0.00000E+00
 -1       722 0.00000E+00 0.00000E+00 0.00000E+00
 -1       723 0.00000E+00 0.00000E+00 0.00000E+00
 -1       724 0.00000E+00 0.00000E+00 0.00000E+00
 -1       725 0.00000E+00 0.00000E+00 0.00000E+00
 -1       726 0.00000E+00 0.00000E+00 0.00000E+00
 -1       727 0.00000E+00 0.00000E+00 0.00000E+00
 -1       728 0.00000E+00 0.00000E+00 0.00000E+00
 -1       729 0.00000E+00 0.00000E+00 0.00000E+00
 -1       730 0.00000E+00 0.00000E+00 0.00000E+00
 -1       731 0.00000E+00 0.00000E+00 0.00000E+00
 -1       732 0.00000E+00 0.00000E+00 0.00000E+00
 -1       733 0.00000E+00 0.00000E+00 0.00000E+00
 -1       734 0.00000E+00 0.00000E+00 0.00000E+00
 -1       735 0.00000E+00 0.00000E+00 0.00000E+00
 -1       736 0.00000E+00 0.00000E+00 0.00000E+00
 -1       737 0.00000E+00 0.00000E+00 0.00000E+00
 -1       738 0.00000E+00 0.00000E+00 0.00000E+00
 -1       739 0.00000E+00 0.00000E+00 0.00000E+00
 -1       740 0.00000E+00 0.00000E+00 0.00000E+00
 -1       741 0.00000E+00 0.00000E+00 0.00000E+00
 -1       742 0.00000E+00 0.00000E+00 0.00000E+00
 -1       743 0.00000E+00 0.00000E+00 0.00000E+00
 -1       744 0.00000E+00 0.00000E+00 0.00000E+00
 -1       745 0.00000E+00 0.00000E+00 0.00000E+00
 -1       746 0.00000E+00 0.00000E+00 0.00000E+00
 -1       747 0.00000E+00 0.00000E+00 0.00000E+00
 -1       748 0.00000E+00 0.00000E+00 0.00000E+00
 -1       749 0.00000E+00 0.00000E+00 0.00000E+00
 -1       750 0.00000E+00 0.00000E+00 0.00000E+00
 -1       751 0.00000E+00 0.00000E+00 0.00000E+00
 -1       752 0.00000E+00 0.00000E+00 0.00000E+00
 -1       753 0.00000E+00 0.00000E+00 0.00000E+00
 -1       754 0.00000E+00 0.00000E+00 0.00000E+00
 -1       755 0.00000E+00 0.00000E+00 0.00000E+00
 -1       756 0.00000E+00 0.00000E+00 0.00000E+00
 -1       757 0.00000E+00 0.00000E+00 0.00000E+00
 -1       758 0.00000E+00 0.00000E+00 0.00000E+00
 -1       759 0.00000E+00 0.00000E+00 0.00000E+00
 -1       760 0.00000E+00 0.00000E+00 0.00000E+00
 -1       761 0.00000E+00 0.00000E+00 0.00000E+00
 -1       762 0.00000E+00 0.00000E+00 0.00000E+00
 -1       763 0.00000E+00 0.00000E+00 0.00000E+00
 -1       764 0.00000E+00 0.00000E+00 0.00000E+00
 -1       765 0.00000E+00 0.00000E+00 0.00000E+00
 -1       766 0.00000E+00 0.00000E+00 0.00000E+00
 -1       767 0.00000E+00 0.00000E+00 0.00000E+00
 -1       768 0.00000E+00 0.00000E+00 0.00000E+00
 -1       769 0.00000E+00 0.00000E+00 0.00000E+00
 -1       770 0.00000E+00 0.00000E+00 0.00000E+00
 -1       771 0.00000E+00 0.00000E+00 0.00000E+00
 -1       772 0.00000E+00 0.00000E+00 0.00000E+00
 -1       773 0.00000E+00 0.00000E+00 0.00000E+00
 -1       774 0.00000E+00 0.00000E+00 0.00000E+00
 -1       775 0.00000E+00 0.00000E+00 0.00000E+00
 -1       776 0.00000E+00 0.00000E+00 0.00000E+00
 -1       777 0.00000E+00 0.00000E+00 0.00000E+00
 -1       778 0.00000E+00 0.00000E+00 0.00000E+00
 -1       779 0.00000E+00 0.00000E+00 0.00000E+00
 -1       780 0.00000E+00 0.00000E+00 0.00000E+00
 -1       781 0.00000E+00 0.00000E+00 0.00000E+00
 -1       782 0.00000E+00 0.00000E+00 0.00000E+00
 -1       783 0.00000E+00 0.00000E+00 0.00000E+00
 -1       784 0.00000E+00 0.00000E+00 0.00000E+00
 -1       785 0.00000E+00 0.00000E+00 0.00000E+00
 -1       786 0.00000E+00 0.00000E+00 0.00000E+00
 -1       787 0.00000E+00 0.00000E+00 0.00000E+00
 -1       788 0.00000E+00 0.00000E+00 0.00000E+00
 -1       789 0.00000E+00 0.00000E+00 0.00000E+00
 -1       790 0.00000E+00 0.00000E+00 0.00000E+00
 -1       791 0.00000E+00 0.00000E+00 0.00000E+00
 -1       792 0.00000E+00 0.00000E+00 0.00000E+00
 -1       793 0.00000E+00 0.00000E+00 0.00000E+00
 -1       794 0.00000E+00 0.00000E+00 0.00000E+00
 -1       795 0.00000E+00 0.00000E+00 0.00000E+00
 -1       796 0.00000E+00 0.00000E+00 0.00000E+00
 -1       797 0.00000E+00 0.00000E+00 0.00000E+00
 -1       798 0.00000E+00 0.00000E+00 0.00000E+00
 -1       799 0.00000E+00 0.00000E+00 0.00000E+00
 -1       800 0.00000E+00 0.00000E+00 0.00000E+00
 -1       801 0.00000E+00 0.00000E+00 0.00000E+00
 -1       802 0.00000E+00 0.00000E+00 0.00000E+00
 -1       803 0.00000E+00 0.00000E+00 0.00000E+00
 -1       804 0.00000E+00 0.00000E+00 0.00000E+00
 -1       805 0.00000E+00 0.00000E+00 0.00000E+00
 -1       806 0.00000E+00 0.00000E+00 0.00000E+00
 -1       807 0.00000E+00 0.00000E+00 0.00000E+00
 -1       808 0.00000E+00 0.00000E+00 0.00000E+00
 -1       809 0.00000E+00 0.00000E+00 0.00000E+00
 -1       810 0.00000E+00 0.00000E+00 0.00000E+00
 -1       811 0.00000E+00 0.00000E+00 0.00000E+00
 -1       812 0.00000E+00 0.00000E+00 0.00000E+00
 -1       813 0.00000E+00 0.00000E+00 0.00000E+00
 -1       814 0.00000E+00 0.00000E+00 0.00000E+00
 -1       815 0.00000E+00 0.00000E+00 0.00000E+00
 -1       816 0.00000E+00 0.00000E+00 0.00000E+00
 -1       817 0.00000E+00 0.00000E+00 0.00000E+00
 -1       818 0.00000E+00 0.00000E+00 0.00000E+00
 -1       819 0.00000E+00 0.00000E+00 0.00000E+00
 -1       820 0.00000E+00 0.00000E+00 0.00000E+00
 -1       821 0.00000E+00 0.00000E+00 0.00000E+00
 -1       822 0.00000E+00 0.00000E+00 0.00000E+00
 -1       823 0.00000E+00 0.00000E+00 0.00000E+00
 -1       824 0.00000E+00 0.00000E+00 0.00000E+00
 -1       825 0.00000E+00 0.00000E+00 0.00000E+00
 -1       826 0.00000E+00 0.00000E+00 0.00000E+00
 -1       827 0.00000E+00 0.00000E+00 0.00000E+00
 -1       828 0.00000E+00 0.00000E+00 0.00000E+00
 -1       829 0.00000E+00 0.00000E+00 0.00000E+00
 -1       830 0.00000E+00 0.00000E+00 0.00000E+00
 -1       831 0.00000E+00 0.00000E+00 0.00000E+00
 -1       832 0.00000E+00 0.00000E+00 0.00000E+00
 -1       833 0.00000E+00 0.00000E+00 0.00000E+00
 -1       834 0.00000E+00 0.00000E+00 0.00000E+00
 -1       835 0.00000E+00 0.00000E+00 0.00000E+00
 -1       836 0.00000E+00 0.00000E+00 0.00000E+00
 -1       837 0.00000E+00 0.00000E+00 0.00000E+00
 -1       838 0.00000E+00 0.00000E+00 0.00000E+00
 -1       839 0.00000E+00 0.00000E+00 0.00000E+00
 -1       840 0.00000E+00 0.00000E+00 0.00000E+00
 -1       841 0.00000E+00 0.00000E+00 0.00000E+00
 -1       842 0.00000E+00 0.00000E+00 0.00000E+00
 -1       843 0.00000E+00 0.00000E+00 0.00000E+00
 -1       844 0.00000E+00 0.00000E+00 0.00000E+00
 -1       845 0.00000E+00 0.00000E+00 0.00000E+00
 -1       846 0.00000E+00 0.00000E+00 0.00000E+00
 -1       847 0.00000E+00 0.00000E+00 0.00000E+00
 -1       848 0.00000E+00 0.00000E+00 0.00000E+00
 -1       849 0.00000E+00 0.00000E+00 0.00000E+00
 -1       850 0.00000E+00 0.00000E+00 0.00000E+00
 -1       851 0.00000E+00 0.00000E+00 0.00000E+00
 -1       852 0.00000E+00 0.00000E+00 0.00000E+00
 -1       853 0.00000E+00 0.00000E+00 0.00000E+00
 -1       854 0.00000E+00 0.00000E+00 0.00000E+00
 -1       855 0.00000E+00 0.00000E+00 0.00000E+00
 -1       856 0.00000E+00 0.00000E+00 0.00000E+00
 -1       857 0.00000E+00 0.00000E+00 0.00000E+00
 -1       858 0.00000E+00 0.00000E+00 0.00000E+00
 -1       859 0.00000E+00 0.00000E+00 0.00000E+00
 -1       860 0.00000E+00 0.00000E+00 0.00000E+00
 -1       861 0.00000E+00 0.00000E+00 0.00000E+00
 -1       862 0.00000E+00 0.00000E+00 0.00000E+00
 -1       863 0.00000E+00 0.00000E+00 0.00000E+00
 -1       864 0.00000E+00 0.00000E+00 0.00000E+00
 -1       865 0.00000E+00 0.00000E+00 0.00000E+00
 -1       866 0.00000E+00 0.00000E+00 0.00000E+00
 -1       867 0.00000E+00 0.00000E+00 0.00000E+00
 -1       868 0.00000E+00 0.00000E+00 0.00000E+00
 -1       869 0.00000E+00 0.00000E+00 0.00000E+00
 -1       870 0.00000E+00 0.00000E+00 0.00000E+00
 -1       871 0.00000E+00 0.00000E+00 0.00000E+00
 -1       872 0.00000E+00 0.00000E+00 0.00000E+00
 -1       873 0.00000E+00 0.00000E+00 0.00000E+00
 -1       874 0.00000E+00 0.00000E+00 0.00000E+00
 -1       875 0.00000E+00 0.00000E+00 0.00000E+00
 -1       876 0.00000E+00 0.00000E+00 0.00000E+00
 -1       877 0.00000E+00 0.00000E+00 0.00000E+00
 -1       878 0.00000E+00 0.00000E+00 0.00000E+00
 -1       879 0.00000E+00 0.00000E+00 0.00000E+00
 -1       880 0.00000E+00 0.00000E+00 0.00000E+00
 -1       881 0.00000E+00 0.00000E+00 0.00000E+00
 -1       882 0.00000E+00 0.00000E+00 0.00000E+00
 -1       883 0.00000E+00 0.00000E+00 0.00000E+00
 -1       884 0.00000E+00 0.00000E+00 0.00000E+00
 -1       885 0.00000E+00 0.00000E+00 0.00000E+00
 -1       886 0.00000E+00 0.00000E+00 0.00000E+00
 -1       887 0.00000E+00 0.00000E+00 0.00000E+00
 -1       888 0.00000E+00 0.00000E+00 0.00000E+00
 -1       889 0.00000E+00 0.00000E+00 0.00000E+00
 -1       890 0.00000E+00 0.00000E+00 0.00000E+00
 -1       891 0.00000E+00 0.00000E+00 0.00000E+00
 -1       892 0.00000E+00 0.00000E+00 0.00000E+00
 -1       893 0.00000E+00 0.00000E+00 0.00000E+00
 -1       894 0.00000E+00 0.00000E+00 0.00000E+00
 -1       895 0.00000E+00 0.00000E+00 0.00000E+00
 -1       896 0.00000E+00 0.00000E+00 0.00000E+00
 -1       897 0.00000E+00 0.00000E+00 0.00000E+00
 -1       898 0.00000E+00 0.00000E+00 0.00000E+00
 -1       899 0.00000E+00 0.00000E+00 0.00000E+00
 -1       900 0.00000E+00 0.00000E+00 0.00000E+00
 -1       901 0.00000E+00 0.00000E+00 0.00000E+00
 -1       902 0.00000E+00 0.00000E+00 0.00000E+00
 -1       903 0.00000E+00 0.00000E+00 0.00000E+00
 -1       904 0.00000E+00 0.00000E+00 0.00000E+00
 -1       905 0.00000E+00 0.00000E+00 0.00000E+00
 -1       906 0.00000E+00 0.00000E+00 0.00000E+00
 -1       907 0.00000E+00 0.00000E+00 0.00000E+00
 -1       908 0.00000E+00 0.00000E+00 0.00000E+00
 -1       909 0.00000E+00 0.00000E+00 0.00000E+00
 -1       910 0.00000E+00 0.00000E+00 0.00000E+00
 -1       911 0.00000E+00 0.00000E+00 0.00000E+00
 -1       912 0.00000E+00 0.00000E+00 0.00000E+00
 -1       913 0.00000E+00 0.00000E+00 0.00000E+00
 -1       914 0.00000E+00 0.00000E+00 0.00000E+00
 -1       915 0.00000E+00 0.00000E+00 0.00000E+00
 -1       916 0.00000E+00 0.00000E+00 0.00000E+00
 -1       917 0.00000E+00 0.00000E+00 0.00000E+00
 -1       918 0.00000E+00 0.00000E+00 0.00000E+00
 -1       919 0.00000E+00 0.00000E+00 0.00000E+00
 -1       920 0.00000E+00 0.00000E+00 0.00000E+00
 -1       921 0.00000E+00 0.00000E+00 0.00000E+00
 -1       922 0.00000E+00 0.00000E+00 0.00000E+00
 -1       923 0.00000E+00 0.00000E+00 0.00000E+00
 -1       924 0.00000E+00 0.00000E+00 0.00000E+00
 -1       925 0.00000E+00 0.00000E+00 0.00000E+00
 -1       926 0.00000E+00 0.00000E+00 0.00000E+00
 -1       927 0.00000E+00 0.00000E+00 0.00000E+00
 -1       928 0.00000E+00 0.00000E+00 0.00000E+00
 -1       929 0.00000E+00 0.00000E+00 0.00000E+00
 -1       930 0.00000E+00 0.00000E+00 0.00000E+00
 -1       931 0.00000E+00 0.00000E+00 0.00000E+00
 -1       932 0.00000E+00 0.00000E+00 0.00000E+00
 -1       933 0.00000E+00 0.00000E+00 0.00000E+00
 -1       934 0.00000E+00 0.00000E+00 0.00000E+00
 -1       935 0.00000E+00 0.00000E+00 0.00000E+00
 -1       936 0.00000E+00 0.00000E+00 0.00000E+00
 -1       937 0.00000E+00 0.00000E+00 0.00000E+00
 -1       938 0.00000E+00 0.00000E+00 0.00000E+00
 -1       939 0.00000E+00 0.00000E+00 0.00000E+00
 -1       940 0.00000E+00 0.00000E+00 0.00000E+00
 -1       941 0.00000E+00 0.00000E+00 0.00000E+00
 -1       942 0.00000E+00 0.00000E+00 0.00000E+00
 -1       943 0.00000E+00 0.00000E+00 0.00000E+00
 -1       944 0.00000E+00 0.00000E+00 0.00000E+00
 -1       945 0.00000E+00 0.00000E+00 0.00000E+00
 -1       946 0.00000E+00 0.00000E+00 0.00000E+00
 -1       947 0.00000E+00 0.00000E+00 0.00000E+00
 -1       948 0.00000E+00 0.00000E+00 0.00000E+00
 -1       949 0.00000E+00 0.00000E+00 0.00000E+00
 -1       950 0.00000E+00 0.00000E+00 0.00000E+00
 -1       951 0.00000E+00 0.00000E+00 0.00000E+00
 -1       952 0.00000E+00 0.00000E+00 0.00000E+00
 -1       953 0.00000E+00 0.00000E+00 0.00000E+00
 -1       954 0.00000E+00 0.00000E+00 0.00000E+00
 -1       955 0.00000E+00 0.00000E+00 0.00000E+00
 -1       956 0.00000E+00 0.00000E+00 0.00000E+00
 -1       957 0.00000E+00 0.00000E+00 0.00000E+00
 -1       958 0.00000E+00 0.00000E+00 0.00000E+00
 -1       959 0.00000E+00 0.00000E+00 0.00000E+00
 -1       960 0.00000E+00 0.00000E+00 0.00000E+00
 -1       961 0.00000E+00 0.00000E+00 0.00000E+00
 -1       962 0.00000E+00 0.00000E+00 0.00000E+00
 -1       963 0.00000E+00 0.00000E+00 0.00000E+00
 -1       964 0.00000E+00 0.00000E+00 0.00000E+00
 -1       965 0.00000E+00 0.00000E+00 0.00000E+00
 -1       966 0.00000E+00 0.00000E+00 0.00000E+00
 -1       967 0.00000E+00 0.00000E+00 0.00000E+00
 -1       968 0.00000E+00 0.00000E+00 0.00000E+00
 -1       969 0.00000E+00 0.00000E+00 0.00000E+00
 -1       970 0.00000E+00 0.00000E+00 0.00000E+00
 -1       971 0.00000E+00 0.00000E+00 0.00000E+00
 -1       972 0.00000E+00 0.00000E+00 0.00000E+00
 -1       973 0.00000E+00 0.00000E+00 0.00000E+00
 -1       974 0.00000E+00 0.00000E+00 0.00000E+00
 -1       975 0.00000E+00 0.00000E+00 0.00000E+00
 -1       976 0.00000E+00 0.00000E+00 0.00000E+00
 -1       977 0.00000E+00 0.00000E+00 0.00000E+00
 -1       978 0.00000E+00 0.00000E+00 0.00000E+00
 -1       979 0.00000E+00 0.00000E+00 0.00000E+00
 -1       980 0.00000E+00 0.00000E+00 0.00000E+00
 -1       981 0.00000E+00 0.00000E+00 0.00000E+00
 -1       982 0.00000E+00 0.00000E+00 0.00000E+00
 -1       983 0.00000E+00 0.00000E+00 0.00000E+00
 -1       984 0.00000E+00 0.00000E+00 0.00000E+00
 -1       985 0.00000E+00 0.00000E+00 0.00000E+00
 -1       986 0.00000E+00 0.00000E+00 0.00000E+00
 -1       987 0.00000E+00 0.00000E+00 0.00000E+00
 -1       988 0.00000E+00 0.00000E+00 0.00000E+00
 -1       989 0.00000E+00 0.00000E+00 0.00000E+00
 -1       990 0.00000E+00 0.00000E+00 0.00000E+00
 -1       991 0.00000E+00 0.00000E+00 0.00000E+00
 -1       992 0.00000E+00 0.00000E+00 0.00000E+00
 -1       993 0.00000E+00 0.00000E+00 0.00000E+00
 -1       994 0.00000E+00 0.00000E+00 0.00000E+00
 -1       995 0.00000E+00 0.00000E+00 0.00000E+00
 -1       996 0.00000E+00 0.00000E+00 0.00000E+00
 -1       997 0.00000E+00 0.00000E+00 0.00000E+00
 -1       998 0.00000E+00 0.00000E+00 0.00000E+00
 -1       999 0.00000E+00 0.00000E+00 0.00000E+00
 -1      1000 0.00000E+00 0.00000E+00 0.00000E+00
 -1      1001 0.00000E+00 0.00000E+00 0.00000E+00
 -1      1002 0.00000E+00 0.00000E+00 0.00000E+00
 -1      1003 0.00000E+00 0.00000E+00 0.00000E+00
 -1      1004 0.00000E+00 0.00000E+00 0.00000E+00
 -1      1005 0.00000E+00 0.00000E+00 0.00000E+00
 -1      1006 0.00000E+00 0.00000E+00 0.00000E+00
 -1      1007 0.00000E+00 0.00000E+00 0.00000E+00
 -1      1008 0.00000E+00 0.00000E+00 0.00000E+00
 -1      1009 0.00000E+00 0.00000E+00 0.00000E+00
 -1      1010 0.00000E+00 0.00000E+00 0.00000E+00
 -1      1011 0.00000E+00 0.00000E+00 0.00000E+00
 -1      1012 0.00000E+00 0.00000E+00 0.00000E+00
 -1      1013 0.00000E+00 0.00000E+00 0.00000E+00
 -1      1014 0.00000E+00 0.00000E+00 0.00000E+00
 -1      1015 0.00000E+00 0.00000E+00 0.00000E+00
 -1      1016 0.00000E+00 0.00000E+00 0.00000E+00
 -1      1017 0.00000E+00 0.00000E+00 0.00000E+00
 -1      1018 0.00000E+00 0.00000E+00 0.00000E+00
 -1      1019 0.00000E+00 0.00000E+00 0.00000E+00
 -1      1020 0.00000E+00 0.00000E+00 0.00000E+00
 -1      1021 0.00000E+00 0.00000E+00 0.00000E+00
 -1      1022 0.00000E+00 0.00000E+00 0.00000E+00
 -1      1023 0.00000E+00 0.00000E+00 0.00000E+00
 -1      1024 0.00000E+00 0.00000E+00 0.00000E+00
 -1      1025 0.00000E+00 0.00000E+00 0.00000E+00
 -1      1026 0.00000E+00 0.00000E+00 0.00000E+00
 -1      1027 0.00000E+00 0.00000E+00 0.00000E+00
 -1      1028 0.00000E+00 0.00000E+00 0.00000E+00
 -1      1029 0.00000E+00 0.00000E+00 0.00000E+00
 -1      1030 0.00000E+00 0.00000E+00 0.00000E+00
 -1      1031 0.00000E+00 0.00000E+00 0.00000E+00
 -1      1032 0.00000E+00 0.00000E+00 0.00000E+00
 -1      1033 0.00000E+00 0.00000E+00 0.00000E+00
 -1      1034 0.00000E+00 0.00000E+00 0.00000E+00
 -1      1035 0.00000E+00 0.00000E+00 0.00000E+00
 -1      1036 0.00000E+00 0.00000E+00 0.00000E+00
 -1      1037 0.00000E+00 0.00000E+00 0.00000E+00
 -1      1038 0.00000E+00 0.00000E+00 0.00000E+00
 -1      1039 0.00000E+00 0.00000E+00 0.00000E+00
 -1      1040 0.00000E+00 0.00000E+00 0.00000E+00
 -1      1041 0.00000E+00 0.00000E+00 0.00000E+00
 -1      1042 0.00000E+00 0.00000E+00 0.00000E+00
 -1      1043 0.00000E+00 0.00000E+00 0.00000E+00
 -1      1044 0.00000E+00 0.00000E+00 0.00000E+00
 -1      1045 0.00000E+00 0.00000E+00 0.00000E+00
 -1      1046 0.00000E+00 0.00000E+00 0.00000E+00
 -1      1047 0.00000E+00 0.00000E+00 0.00000E+00
 -1      1048 0.00000E+00 0.00000E+00 0.00000E+00
 -1      1049 0.00000E+00 0.00000E+00 0.00000E+00
 -1      1050 0.00000E+00 0.00000E+00 0.00000E+00
 -1      1051 0.00000E+00 0.00000E+00 0.00000E+00
 -1      1052 0.00000E+00 0.00000E+00 0.00000E+00
 -1      1053 0.00000E+00 0.00000E+00 0.00000E+00
 -1      1054 0.00000E+00 0.00000E+00 0.00000E+00
 -1      1055 0.00000E+00 0.00000E+00 0.00000E+00
 -1      1056 0.00000E+00 0.00000E+00 0.00000E+00
 -1      1057 0.00000E+00 0.00000E+00 0.00000E+00
 -1      1058 0.00000E+00 0.00000E+00 0.00000E+00
 -1      1059 0.00000E+00 0.00000E+00 0.00000E+00
 -1      1060 0.00000E+00 0.00000E+00 0.00000E+00
 -1      1061 0.00000E+00 0.00000E+00 0.00000E+00
 -1      1062 0.00000E+00 0.00000E+00 0.00000E+00
 -1      1063 0.00000E+00 0.00000E+00 0.00000E+00
 -1      1064 0.00000E+00 0.00000E+00 0.00000E+00
 -1      1065 0.00000E+00 0.00000E+00 0.00000E+00
 -1      1066 0.00000E+00 0.00000E+00 0.00000E+00
 -1      1067 0.00000E+00 0.00000E+00 0.00000E+00
 -1      1068 0.00000E+00 0.00000E+00 0.00000E+00
 -1      1069 0.00000E+00 0.00000E+00 0.00000E+00
 -1      1070 0.00000E+00 0.00000E+00 0.00000E+00
 -1      1071 0.00000E+00 0.00000E+00 0.00000E+00
 -1      1072 0.00000E+00 0.00000E+00 0.00000E+00
 -1      1073 0.00000E+00 0.00000E+00 0.00000E+00
 -1      1074 0.00000E+00 0.00000E+00 0.00000E+00
 -1      1075 0.00000E+00 0.00000E+00 0.00000E+00
 -1      1076 0.00000E+00 0.00000E+00 0.00000E+00
 -1      1077 0.00000E+00 0.00000E+00 0.00000E+00
 -1      1078 0.00000E+00 0.00000E+00 0.00000E+00
 -1      1079 0.00000E+00 0.00000E+00 0.00000E+00
 -1      1080 0.00000E+00 0.00000E+00 0.00000E+00
 -1      1081 0.00000E+00 0.00000E+00 0.00000E+00
 -1      1082 0.00000E+00 0.00000E+00 0.00000E+00
 -1      1083 0.00000E+00 0.00000E+00 0.00000E+00
 -1      1084 0.00000E+00 0.00000E+00 0.00000E+00
 -1      1085 0.00000E+00 0.00000E+00 0.00000E+00
 -1      1086 0.00000E+00 0.00000E+00 0.00000E+00
 -1      1087 0.00000E+00 0.00000E+00 0.00000E+00
 -1      1088 0.00000E+00 0.00000E+00 0.00000E+00
 -1      1089 0.00000E+00 0.00000E+00 0.00000E+00
 -1      1090 0.00000E+00 0.00000E+00 0.00000E+00
 -1      1091 0.00000E+00 0.00000E+00 0.00000E+00
 -1      1092 0.00000E+00 0.00000E+00 0.00000E+00
 -1      1093 0.00000E+00 0.00000E+00 0.00000E+00
 -1      1094 0.00000E+00 0.00000E+00 0.00000E+00
 -1      1095 0.00000E+00 0.00000E+00 0.00000E+00
 -1      1096 0.00000E+00 0.00000E+00 0.00000E+00
 -1      1097 0.00000E+00 0.00000E+00 0.00000E+00
 -1      1098 0.00000E+00 0.00000E+00 0.00000E+00
 -1      1099 0.00000E+00 0.00000E+00 0.00000E+00
 -1      1100 0.00000E+00 0.00000E+00 0.00000E+00
 -1      1101 0.00000E+00 0.00000E+00 0.00000E+00
 -1      1102 0.00000E+00 0.00000E+00 0.00000E+00
 -1      1103 0.00000E+00 0.00000E+00 0.00000E+00
 -1      1104 0.00000E+00 0.00000E+00 0.00000E+00
 -1      1105 0.00000E+00 0.00000E+00 0.00000E+00
 -1      1106 0.00000E+00 0.00000E+00 0.00000E+00
 -1      1107 0.00000E+00 0.00000E+00 0.00000E+00
 -1      1108 0.00000E+00 0.00000E+00 0.00000E+00
 -1      1109 0.00000E+00 0.00000E+00 0.00000E+00
 -1      1110 0.00000E+00 0.00000E+00 0.00000E+00
 -1      1111 0.00000E+00 0.00000E+00 0.00000E+00
 -1      1112 0.00000E+00 0.00000E+00 0.00000E+00
 -1      1113 0.00000E+00 0.00000E+00 0.00000E+00
 -1      1114 0.00000E+00 0.00000E+00 0.00000E+00
 -1      1115 0.00000E+00 0.00000E+00 0.00000E+00
 -1      1116 0.00000E+00 0.00000E+00 0.00000E+00
 -1      1117 0.00000E+00 0.00000E+00 0.00000E+00
 -1      1118 0.00000E+00 0.00000E+00 0.00000E+00
 -1      1119 0.00000E+00 0.00000E+00 0.00000E+00
 -1      1120 0.00000E+00 0.00000E+00 0.00000E+00
 -1      1121 0.00000E+00 0.00000E+00 0.00000E+00
 -1      1122 0.00000E+00 0.00000E+00 0.00000E+00
 -1      1123 0.00000E+00 0.00000E+00 0.00000E+00
 -1      1124 0.00000E+00 0.00000E+00 0.00000E+00
 -1      1125 0.00000E+00 0.00000E+00 0.00000E+00
 -1      1126 0.00000E+00 0.00000E+00 0.00000E+00
 -1      1127 0.00000E+00 0.00000E+00 0.00000E+00
 -1      1128 0.00000E+00 0.00000E+00 0.00000E+00
 -1      1129 0.00000E+00 0.00000E+00 0.00000E+00
 -1      1130 0.00000E+00 0.00000E+00 0.00000E+00
 -1      1131 0.00000E+00 0.00000E+00 0.00000E+00
 -1      1132 0.00000E+00 0.00000E+00 0.00000E+00
 -1      1133 0.00000E+00 0.00000E+00 0.00000E+00
 -1      1134 0.00000E+00 0.00000E+00 0.00000E+00
 -1      1135 0.00000E+00 0.00000E+00 0.00000E+00
 -1      1136 0.00000E+00 0.00000E+00 0.00000E+00
 -1      1137 0.00000E+00 0.00000E+00 0.00000E+00
 -1      1138 0.00000E+00 0.00000E+00 0.00000E+00
 -1      1139 0.00000E+00 0.00000E+00 0.00000E+00
 -1      1140 0.00000E+00 0.00000E+00 0.00000E+00
 -1      1141 0.00000E+00 0.00000E+00 0.00000E+00
 -1      1142 0.00000E+00 0.00000E+00 0.00000E+00
 -1      1143 0.00000E+00 0.00000E+00 0.00000E+00
 -1      1144 0.00000E+00 0.00000E+00 0.00000E+00
 -1      1145 0.00000E+00 0.00000E+00 0.00000E+00
 -1      1146 0.00000E+00 0.00000E+00 0.00000E+00
 -1      1147 0.00000E+00 0.00000E+00 0.00000E+00
 -1      1148 0.00000E+00 0.00000E+00 0.00000E+00
 -1      1149 0.00000E+00 0.00000E+00 0.00000E+00
 -1      1150 0.00000E+00 0.00000E+00 0.00000E+00
 -1      1151 0.00000E+00 0.00000E+00 0.00000E+00
 -1      1152 0.00000E+00 0.00000E+00 0.00000E+00
 -1      1153 0.00000E+00 0.00000E+00 0.00000E+00
 -1      1154 0.00000E+00 0.00000E+00 0.00000E+00
 -1      1155 0.00000E+00 0.00000E+00 0.00000E+00
 -1      1156 0.00000E+00 0.00000E+00 0.00000E+00
 -1      1157 0.00000E+00 0.00000E+00 0.00000E+00
 -1      1158 0.00000E+00 0.00000E+00 0.00000E+00
 -1      1159 0.00000E+00 0.00000E+00 0.00000E+00
 -1      1160 0.00000E+00 0.00000E+00 0.00000E+00
 -1      1161 0.00000E+00 0.00000E+00 0.00000E+00
 -1      1162 0.00000E+00 0.00000E+00 0.00000E+00
 -1      1163 0.00000E+00 0.00000E+00 0.00000E+00
 -1      1164 0.00000E+00 0.00000E+00 0.00000E+00
 -1      1165 0.00000E+00 0.00000E+00 0.00000E+00
 -1      1166 0.00000E+00 0.00000E+00 0.00000E+00
 -1      1167 0.00000E+00 0.00000E+00 0.00000E+00
 -1      1168 0.00000E+00 0.00000E+00 0.00000E+00
 -1      1169 0.00000E+00 0.00000E+00 0.00000E+00
 -1      1170 0.00000E+00 0.00000E+00 0.00000E+00
 -1      1171 0.00000E+00 0.00000E+00 0.00000E+00
 -1      1172 0.00000E+00 0.00000E+00 0.00000E+00
 -1      1173 0.00000E+00 0.00000E+00 0.00000E+00
 -1      1174 0.00000E+00 0.00000E+00 0.00000E+00
 -1      1175 0.00000E+00 0.00000E+00 0.00000E+00
 -1      1176 0.00000E+00 0.00000E+00 0.00000E+00
 -1      1177 0.00000E+00 0.00000E+00 0.00000E+00
 -1      1178 0.00000E+00 0.00000E+00 0.00000E+00
 -1      1179 0.00000E+00 0.00000E+00 0.00000E+00
 -1      1180 0.00000E+00 0.00000E+00 0.00000E+00
 -1      1181 0.00000E+00 0.00000E+00 0.00000E+00
 -1      1182 0.00000E+00 0.00000E+00 0.00000E+00
 -1      1183 0.00000E+00 0.00000E+00 0.00000E+00
 -1      1184 0.00000E+00 0.00000E+00 0.00000E+00
 -1      1185 0.00000E+00 0.00000E+00 0.00000E+00
 -1      1186 0.00000E+00 0.00000E+00 0.00000E+00
 -1      1187 0.00000E+00 0.00000E+00 0.00000E+00
 -1      1188 0.00000E+00 0.00000E+00 0.00000E+00
 -1      1189 0.00000E+00 0.00000E+00 0.00000E+00
 -1      1190 0.00000E+00 0.00000E+00 0.00000E+00
 -1      1191 0.00000E+00 0.00000E+00 0.00000E+00
 -1      1192 0.00000E+00 0.00000E+00 0.00000E+00
 -1      1193 0.00000E+00 0.00000E+00 0.00000E+00
 -1      1194 0.00000E+00 0.00000E+00 0.00000E+00
 -1      1195 0.00000E+00 0.00000E+00 0.00000E+00
 -1      1196 0.00000E+00 0.00000E+00 0.00000E+00
 -1      1197 0.00000E+00 0.00000E+00 0.00000E+00
 -1      1198 0.00000E+00 0.00000E+00 0.00000E+00
 -1      1199 0.00000E+00 0.00000E+00 0.00000E+00
 -1      1200 0.00000E+00 0.00000E+00 0.00000E+00
 -1      1201 0.00000E+00 0.00000E+00 0.00000E+00
 -1      1202 0.00000E+00 0.00000E+00 0.00000E+00
 -1      1203 0.00000E+00 0.00000E+00 0.00000E+00
 -1      1204 0.00000E+00 0.00000E+00 0.00000E+00
 -1      1205 0.00000E+00 0.00000E+00 0.00000E+00
 -1      1206 0.00000E+00 0.00000E+00 0.00000E+00
 -1      1207 0.00000E+00 0.00000E+00 0.00000E+00
 -1      1208 0.00000E+00 0.00000E+00 0.00000E+00
 -1      1209 0.00000E+00 0.00000E+00 0.00000E+00
 -1      1210 0.00000E+00 0.00000E+00 0.00000E+00
 -1      1211 0.00000E+00 0.00000E+00 0.00000E+00
 -1      1212 0.00000E+00 0.00000E+00 0.00000E+00
 -1      1213 0.00000E+00 0.00000E+00 0.00000E+00
 -1      1214 0.00000E+00 0.00000E+00 0.00000E+00
 -1      1215 0.00000E+00 0.00000E+00 0.00000E+00
 -1      1216 0.00000E+00 0.00000E+00 0.00000E+00
 -1      1217 0.00000E+00 0.00000E+00 0.00000E+00
 -1      1218 0.00000E+00 0.00000E+00 0.00000E+00
 -1      1219 0.00000E+00 0.00000E+00 0.00000E+00
 -1      1220 0.00000E+00 0.00000E+00 0.00000E+00
 -1      1221 0.00000E+00 0.00000E+00 0.00000E+00
 -1      1222 0.00000E+00 0.00000E+00 0.00000E+00
 -1      1223 0.00000E+00 0.00000E+00 0.00000E+00
 -1      1224 0.00000E+00 0.00000E+00 0.00000E+00
 -1      1225 0.00000E+00 0.00000E+00 0.00000E+00
 -1      1226 0.00000E+00 0.00000E+00 0.00000E+00
 -1      1227 0.00000E+00 0.00000E+00 0.00000E+00
 -1      1228 0.00000E+00 0.00000E+00 0.00000E+00
 -1      1229 0.00000E+00 0.00000E+00 0.00000E+00
 -1      1230 0.00000E+00 0.00000E+00 0.00000E+00
 -1      1231 0.00000E+00 0.00000E+00 0.00000E+00
 -1      1232 0.00000E+00 0.00000E+00 0.00000E+00
 -1      1233 0.00000E+00 0.00000E+00 0.00000E+00
 -1      1234 0.00000E+00 0.00000E+00 0.00000E+00
 -1      1235 0.00000E+00 0.00000E+00 0.00000E+00
 -1      1236 0.00000E+00 0.00000E+00 0.00000E+00
 -1      1237 0.00000E+00 0.00000E+00 0.00000E+00
 -1      1238 0.00000E+00 0.00000E+00 0.00000E+00
 -1      1239 0.00000E+00 0.00000E+00 0.00000E+00
 -1      1240 0.00000E+00 0.00000E+00 0.00000E+00
 -1      1241 0.00000E+00 0.00000E+00 0.00000E+00
 -1      1242 0.00000E+00 0.00000E+00 0.00000E+00
 -1      1243 0.00000E+00 0.00000E+00 0.00000E+00
 -1      1244 0.00000E+00 0.00000E+00 0.00000E+00
 -1      1245 0.00000E+00 0.00000E+00 0.00000E+00
 -1      1246 0.00000E+00 0.00000E+00 0.00000E+00
 -1      1247 0.00000E+00 0.00000E+00 0.00000E+00
 -1      1248 0.00000E+00 0.00000E+00 0.00000E+00
 -1      1249 0.00000E+00 0.00000E+00 0.00000E+00
 -1      1250 0.00000E+00 0.00000E+00 0.00000E+00
 -1      1251 0.00000E+00 0.00000E+00 0.00000E+00
 -1      1252 0.00000E+00 0.00000E+00 0.00000E+00
 -1      1253 0.00000E+00 0.00000E+00 0.00000E+00
 -1      1254 0.00000E+00 0.00000E+00 0.00000E+00
 -1      1255 0.00000E+00 0.00000E+00 0.00000E+00
 -1      1256 0.00000E+00 0.00000E+00 0.00000E+00
 -1      1257 0.00000E+00 0.00000E+00 0.00000E+00
 -1      1258 0.00000E+00 0.00000E+00 0.00000E+00
 -1      1259 0.00000E+00 0.00000E+00 0.00000E+00
 -1      1260 0.00000E+00 0.00000E+00 0.00000E+00
 -1      1261 0.00000E+00 0.00000E+00 0.00000E+00
 -1      1262 0.00000E+00 0.00000E+00 0.00000E+00
 -1      1263 0.00000E+00 0.00000E+00 0.00000E+00
 -1      1264 0.00000E+00 0.00000E+00 0.00000E+00
 -1      1265 0.00000E+00 0.00000E+00 0.00000E+00
 -1      1266 0.00000E+00 0.00000E+00 0.00000E+00
 -1      1267 0.00000E+00 0.00000E+00 0.00000E+00
 -1      1268 0.00000E+00 0.00000E+00 0.00000E+00
 -1      1269 0.00000E+00 0.00000E+00 0.00000E+00
 -1      1270 0.00000E+00 0.00000E+00 0.00000E+00
 -1      1271 0.00000E+00 0.00000E+00 0.00000E+00
 -1      1272 0.00000E+00 0.00000E+00 0.00000E+00
 -1      1273 0.00000E+00 0.00000E+00 0.00000E+00
 -1      1274 0.00000E+00 0.00000E+00 0.00000E+00
 -1      1275 0.00000E+00 0.00000E+00 0.00000E+00
 -1      1276 0.00000E+00 0.00000E+00 0.00000E+00
 -1      1277 0.00000E+00 0.00000E+00 0.00000E+00
 -1      1278 0.00000E+00 0.00000E+00 0.00000E+00
 -1      1279 0.00000E+00 0.00000E+00 0.00000E+00
 -1      1280 0.00000E+00 0.00000E+00 0.00000E+00
 -1      1281 0.00000E+00 0.00000E+00 0.00000E+00
 -1      1282 0.00000E+00 0.00000E+00 0.00000E+00
 -1      1283 0.00000E+00 0.00000E+00 0.00000E+00
 -1      1284 0.00000E+00 0.00000E+00 0.00000E+00
 -1      1285 0.00000E+00 0.00000E+00 0.00000E+00
 -1      1286 0.00000E+00 0.00000E+00 0.00000E+00
 -1      1287 0.00000E+00 0.00000E+00 0.00000E+00
 -1      1288 0.00000E+00 0.00000E+00 0.00000E+00
 -1      1289 0.00000E+00 0.00000E+00 0.00000E+00
 -1      1290 0.00000E+00 0.00000E+00 0.00000E+00
 -1      1291 0.00000E+00 0.00000E+00 0.00000E+00
 -1      1292 0.00000E+00 0.00000E+00 0.00000E+00
 -1      1293 0.00000E+00 0.00000E+00 0.00000E+00
 -1      1294 0.00000E+00 0.00000E+00 0.00000E+00
 -1      1295 0.00000E+00 0.00000E+00 0.00000E+00
 -1      1296 0.00000E+00 0.00000E+00 0.00000E+00
 -1      1297 0.00000E+00 0.00000E+00 0.00000E+00
 -1      1298 0.00000E+00 0.00000E+00 0.00000E+00
 -1      1299 0.00000E+00 0.00000E+00 0.00000E+00
 -1      1300 0.00000E+00 0.00000E+00 0.00000E+00
 -1      1301 0.00000E+00 0.00000E+00 0.00000E+00
 -1      1302 0.00000E+00 0.00000E+00 0.00000E+00
 -1      1303 0.00000E+00 0.00000E+00 0.00000E+00
 -1      1304 0.00000E+00 0.00000E+00 0.00000E+00
 -1      1305 0.00000E+00 0.00000E+00 0.00000E+00
 -1      1306 0.00000E+00 0.00000E+00 0.00000E+00
 -1      1307 0.00000E+00 0.00000E+00 0.00000E+00
 -1      1308 0.00000E+00 0.00000E+00 0.00000E+00
 -1      1309 0.00000E+00 0.00000E+00 0.00000E+00
 -1      1310 0.00000E+00 0.00000E+00 0.00000E+00
 -1      1311 0.00000E+00 0.00000E+00 0.00000E+00
 -1      1312 0.00000E+00 0.00000E+00 0.00000E+00
 -1      1313 0.00000E+00 0.00000E+00 0.00000E+00
 -1      1314 0.00000E+00 0.00000E+00 0.00000E+00
 -1      1315 0.00000E+00 0.00000E+00 0.00000E+00
 -1      1316 0.00000E+00 0.00000E+00 0.00000E+00
 -1      1317 0.00000E+00 0.00000E+00 0.00000E+00
 -1      1318 0.00000E+00 0.00000E+00 0.00000E+00
 -1      1319 0.00000E+00 0.00000E+00 0.00000E+00
 -1      1320 0.00000E+00 0.00000E+00 0.00000E+00
 -1      1321 0.00000E+00 0.00000E+00 0.00000E+00
 -1      1322 0.00000E+00 0.00000E+00 0.00000E+00
 -1      1323 0.00000E+00 0.00000E+00 0.00000E+00
 -1      1324 0.00000E+00 0.00000E+00 0.00000E+00
 -1      1325 0.00000E+00 0.00000E+00 0.00000E+00
 -1      1326 0.00000E+00 0.00000E+00 0.00000E+00
 -1      1327 0.00000E+00 0.00000E+00 0.00000E+00
 -1      1328 0.00000E+00 0.00000E+00 0.00000E+00
 -1      1329 0.00000E+00 0.00000E+00 0.00000E+00
 -1      1330 0.00000E+00 0.00000E+00 0.00000E+00
 -1      1331 0.00000E+00 0.00000E+00 0.00000E+00
 -1      1332 0.00000E+00 0.00000E+00 0.00000E+00
 -1      1333 0.00000E+00 0.00000E+00 0.00000E+00
 -1      1334 0.00000E+00 0.00000E+00 0.00000E+00
 -1      1335 0.00000E+00 0.00000E+00 0.00000E+00
 -1      1336 0.00000E+00 0.00000E+00 0.00000E+00
 -1      1337 0.00000E+00 0.00000E+00 0.00000E+00
 -1      1338 0.00000E+00 0.00000E+00 0.00000E+00
 -1      1339 0.00000E+00 0.00000E+00 0.00000E+00
 -1      1340 0.00000E+00 0.00000E+00 0.00000E+00
 -1      1341 0.00000E+00 0.00000E+00 0.00000E+00
 -1      1342 0.00000E+00 0.00000E+00 0.00000E+00
 -1      1343 0.00000E+00 0.00000E+00 0.00000E+00
 -1      1344 0.00000E+00 0.00000E+00 0.00000E+00
 -1      1345 0.00000E+00 0.00000E+00 0.00000E+00
 -1      1346 0.00000E+00 0.00000E+00 0.00000E+00
 -1      1347 0.00000E+00 0.00000E+00 0.00000E+00
 -1      1348 0.00000E+00 0.00000E+00 0.00000E+00
 -1      1349 0.00000E+00 0.00000E+00 0.00000E+00
 -1      1350 0.00000E+00 0.00000E+00 0.00000E+00
 -1      1351 0.00000E+00 0.00000E+00 0.00000E+00
 -1      1352 0.00000E+00 0.00000E+00 0.00000E+00
 -1      1353 0.00000E+00 0.00000E+00 0.00000E+00
 -1      1354 0.00000E+00 0.00000E+00 0.00000E+00
 -1      1355 0.00000E+00 0.00000E+00 0.00000E+00
 -1      1356 0.00000E+00 0.00000E+00 0.00000E+00
 -1      1357 0.00000E+00 0.00000E+00 0.00000E+00
 -1      1358 0.00000E+00 0.00000E+00 0.00000E+00
 -1      1359 0.00000E+00 0.00000E+00 0.00000E+00
 -1      1360 0.00000E+00 0.00000E+00 0.00000E+00
 -1      1361 0.00000E+00 0.00000E+00 0.00000E+00
 -1      1362 0.00000E+00 0.00000E+00 0.00000E+00
 -1      1363 0.00000E+00 0.00000E+00 0.00000E+00
 -1      1364 0.00000E+00 0.00000E+00 0.00000E+00
 -1      1365 0.00000E+00 0.00000E+00 0.00000E+00
 -1      1366 0.00000E+00 0.00000E+00 0.00000E+00
 -1      1367 0.00000E+00 0.00000E+00 0.00000E+00
 -1      1368 0.00000E+00 0.00000E+00 0.00000E+00
 -1      1369 0.00000E+00 0.00000E+00 0.00000E+00
 -1      1370 0.00000E+00 0.00000E+00 0.00000E+00
 -1      1371 0.00000E+00 0.00000E+00 0.00000E+00
 -1      1372 0.00000E+00 0.00000E+00 0.00000E+00
 -1      1373 0.00000E+00 0.00000E+00 0.00000E+00
 -1      1374 0.00000E+00 0.00000E+00 0.00000E+00
 -1      1375 0.00000E+00 0.00000E+00 0.00000E+00
 -1      1376 0.00000E+00 0.00000E+00 0.00000E+00
 -1      1377 0.00000E+00 0.00000E+00 0.00000E+00
 -1      1378 0.00000E+00 0.00000E+00 0.00000E+00
 -1      1379 0.00000E+00 0.00000E+00 0.00000E+00
 -1      1380 0.00000E+00 0.00000E+00 0.00000E+00
 -1      1381 0.00000E+00 0.00000E+00 0.00000E+00
 -1      1382 0.00000E+00 0.00000E+00 0.00000E+00
 -1      1383 0.00000E+00 0.00000E+00 0.00000E+00
 -1      1384 0.00000E+00 0.00000E+00 0.00000E+00
 -1      1385 0.00000E+00 0.00000E+00 0.00000E+00
 -1      1386 0.00000E+00 0.00000E+00 0.00000E+00
 -1      1387 0.00000E+00 0.00000E+00 0.00000E+00
 -1      1388 0.00000E+00 0.00000E+00 0.00000E+00
 -1      1389 0.00000E+00 0.00000E+00 0.00000E+00
 -1      1390 0.00000E+00 0.00000E+00 0.00000E+00
 -1      1391 0.00000E+00 0.00000E+00 0.00000E+00
 -1      1392 0.00000E+00 0.00000E+00 0.00000E+00
 -1      1393 0.00000E+00 0.00000E+00 0.00000E+00
 -1      1394 0.00000E+00 0.00000E+00 0.00000E+00
 -1      1395 0.00000E+00 0.00000E+00 0.00000E+00
 -1      1396 0.00000E+00 0.00000E+00 0.00000E+00
 -1      1397 0.00000E+00 0.00000E+00 0.00000E+00
 -1      1398 0.00000E+00 0.00000E+00 0.00000E+00
 -1      1399 0.00000E+00 0.00000E+00 0.00000E+00
 -1      1400 0.00000E+00 0.00000E+00 0.00000E+00
 -1      1401 0.00000E+00 0.00000E+00 0.00000E+00
 -1      1402 0.00000E+00 0.00000E+00 0.00000E+00
 -1      1403 0.00000E+00 0.00000E+00 0.00000E+00
 -1      1404 0.00000E+00 0.00000E+00 0.00000E+00
 -1      1405 0.00000E+00 0.00000E+00 0.00000E+00
 -1      1406 0.00000E+00 0.00000E+00 0.00000E+00
 -1      1407 0.00000E+00 0.00000E+00 0.00000E+00
 -1      1408 0.00000E+00 0.00000E+00 0.00000E+00
 -1      1409 0.00000E+00 0.00000E+00 0.00000E+00
 -1      1410 0.00000E+00 0.00000E+00 0.00000E+00
 -1      1411 0.00000E+00 0.00000E+00 0.00000E+00
 -1      1412 0.00000E+00 0.00000E+00 0.00000E+00
 -1      1413 0.00000E+00 0.00000E+00 0.00000E+00
 -1      1414 0.00000E+00 0.00000E+00 0.00000E+00
 -1      1415 0.00000E+00 0.00000E+00 0.00000E+00
 -1      1416 0.00000E+00 0.00000E+00 0.00000E+00
 -1      1417 0.00000E+00 0.00000E+00 0.00000E+00
 -1      1418 0.00000E+00 0.00000E+00 0.00000E+00
 -1      1419 0.00000E+00 0.00000E+00 0.00000E+00
 -1      1420 0.00000E+00 0.00000E+00 0.00000E+00
 -1      1421 0.00000E+00 0.00000E+00 0.00000E+00
 -1      1422 0.00000E+00 0.00000E+00 0.00000E+00
 -1      1423 0.00000E+00 0.00000E+00 0.00000E+00
 -1      1424 0.00000E+00 0.00000E+00 0.00000E+00
 -1      1425 0.00000E+00 0.00000E+00 0.00000E+00
 -1      1426 0.00000E+00 0.00000E+00 0.00000E+00
 -1      1427 0.00000E+00 0.00000E+00 0.00000E+00
 -1      1428 0.00000E+00 0.00000E+00 0.00000E+00
 -1      1429 0.00000E+00 0.00000E+00 0.00000E+00
 -1      1430 0.00000E+00 0.00000E+00 0.00000E+00
 -1      1431 0.00000E+00 0.00000E+00 0.00000E+00
 -1      1432 0.00000E+00 0.00000E+00 0.00000E+00
 -1      1433 0.00000E+00 0.00000E+00 0.00000E+00
 -1      1434 0.00000E+00 0.00000E+00 0.00000E+00
 -1      1435 0.00000E+00 0.00000E+00 0.00000E+00
 -1      1436 0.00000E+00 0.00000E+00 0.00000E+00
 -1      1437 0.00000E+00 0.00000E+00 0.00000E+00
 -1      1438 0.00000E+00 0.00000E+00 0.00000E+00
 -1      1439 0.00000E+00 0.00000E+00 0.00000E+00
 -1      1440 0.00000E+00 0.00000E+00 0.00000E+00
 -1      1441 0.00000E+00 0.00000E+00 0.00000E+00
 -1      1442 0.00000E+00 0.00000E+00 0.00000E+00
 -1      1443 0.00000E+00 0.00000E+00 0.00000E+00
 -1      1444 0.00000E+00 0.00000E+00 0.00000E+00
 -1      1445 0.00000E+00 0.00000E+00 0.00000E+00
 -1      1446 0.00000E+00 0.00000E+00 0.00000E+00
 -1      1447 0.00000E+00 0.00000E+00 0.00000E+00
 -1      1448 0.00000E+00 0.00000E+00 0.00000E+00
 -1      1449 0.00000E+00 0.00000E+00 0.00000E+00
 -1      1450 0.00000E+00 0.00000E+00 0.00000E+00
 -1      1451 0.00000E+00 0.00000E+00 0.00000E+00
 -1      1452 0.00000E+00 0.00000E+00 0.00000E+00
 -1      1453 0.00000E+00 0.00000E+00 0.00000E+00
 -1      1454 0.00000E+00 0.00000E+00 0.00000E+00
 -1      1455 0.00000E+00 0.00000E+00 0.00000E+00
 -1      1456 0.00000E+00 0.00000E+00 0.00000E+00
 -1      1457 0.00000E+00 0.00000E+00 0.00000E+00
 -1      1458 0.00000E+00 0.00000E+00 0.00000E+00
 -1      1459 0.00000E+00 0.00000E+00 0.00000E+00
 -1      1460 0.00000E+00 0.00000E+00 0.00000E+00
 -1      1461 0.00000E+00 0.00000E+00 0.00000E+00
 -1      1462 0.00000E+00 0.00000E+00 0.00000E+00
 -1      1463 0.00000E+00 0.00000E+00 0.00000E+00
 -1      1464 0.00000E+00 0.00000E+00 0.00000E+00
 -1      1465 0.00000E+00 0.00000E+00 0.00000E+00
 -1      1466 0.00000E+00 0.00000E+00 0.00000E+00
 -1      1467 0.00000E+00 0.00000E+00 0.00000E+00
 -1      1468 0.00000E+00 0.00000E+00 0.00000E+00
 -1      1469 0.00000E+00 0.00000E+00 0.00000E+00
 -1      1470 0.00000E+00 0.00000E+00 0.00000E+00
 -1      1471 0.00000E+00 0.00000E+00 0.00000E+00
 -1      1472 0.00000E+00 0.00000E+00 0.00000E+00
 -1      1473 0.00000E+00 0.00000E+00 0.00000E+00
 -1      1474 0.00000E+00 0.00000E+00 0.00000E+00
 -1      1475 0.00000E+00 0.00000E+00 0.00000E+00
 -1      1476 0.00000E+00 0.00000E+00 0.00000E+00
 -1      1477 0.00000E+00 0.00000E+00 0.00000E+00
 -1      1478 0.00000E+00 0.00000E+00 0.00000E+00
 -1      1479 0.00000E+00 0.00000E+00 0.00000E+00
 -1      1480 0.00000E+00 0.00000E+00 0.00000E+00
 -1      1481 0.00000E+00 0.00000E+00 0.00000E+00
 -1      1482 0.00000E+00 0.00000E+00 0.00000E+00
 -1      1483 0.00000E+00 0.00000E+00 0.00000E+00
 -1      1484 0.00000E+00 0.00000E+00 0.00000E+00
 -1      1485 0.00000E+00 0.00000E+00 0.00000E+00
 -1      1486 0.00000E+00 0.00000E+00 0.00000E+00
 -1      1487 0.00000E+00 0.00000E+00 0.00000E+00
 -1      1488 0.00000E+00 0.00000E+00 0.00000E+00
 -1      1489 0.00000E+00 0.00000E+00 0.00000E+00
 -1      1490 0.00000E+00 0.00000E+00 0.00000E+00
 -1      1491 0.00000E+00 0.00000E+00 0.00000E+00
 -1      1492 0.00000E+00 0.00000E+00 0.00000E+00
 -1      1493 0.00000E+00 0.00000E+00 0.00000E+00
 -1      1494 0.00000E+00 0.00000E+00 0.00000E+00
 -1      1495 0.00000E+00 0.00000E+00 0.00000E+00
 -1      1496 0.00000E+00 0.00000E+00 0.00000E+00
 -1      1497 0.00000E+00 0.00000E+00 0.00000E+00
 -1      1498 0.00000E+00 0.00000E+00 0.00000E+00
 -1      1499 0.00000E+00 0.00000E+00 0.00000E+00
 -1      1500 0.00000E+00 0.00000E+00 0.00000E+00
 -1      1501 0.00000E+00 0.00000E+00 0.00000E+00
 -1      1502 0.00000E+00 0.00000E+00 0.00000E+00
 -1      1503 0.00000E+00 0.00000E+00 0.00000E+00
 -1      1504 0.00000E+00 0.00000E+00 0.00000E+00
 -1      1505 0.00000E+00 0.00000E+00 0.00000E+00
 -1      1506 0.00000E+00 0.00000E+00 0.00000E+00
 -1      1507 0.00000E+00 0.00000E+00 0.00000E+00
 -1      1508 0.00000E+00 0.00000E+00 0.00000E+00
 -1      1509 0.00000E+00 0.00000E+00 0.00000E+00
 -1      1510 0.00000E+00 0.00000E+00 0.00000E+00
 -1      1511 0.00000E+00 0.00000E+00 0.00000E+00
 -1      1512 0.00000E+00 0.00000E+00 0.00000E+00
 -1      1513 0.00000E+00 0.00000E+00 0.00000E+00
 -1      1514 0.00000E+00 0.00000E+00 0.00000E+00
 -1      1515 0.00000E+00 0.00000E+00 0.00000E+00
 -1      1516 0.00000E+00 0.00000E+00 0.00000E+00
 -1      1517 0.00000E+00 0.00000E+00 0.00000E+00
 -1      1518 0.00000E+00 0.00000E+00 0.00000E+00
 -1      1519 0.00000E+00 0.00000E+00 0.00000E+00
 -1      1520 0.00000E+00 0.00000E+00 0.00000E+00
 -1      1521 0.00000E+00 0.00000E+00 0.00000E+00
 -1      1522 0.00000E+00 0.00000E+00 0.00000E+00
 -1      1523 0.00000E+00 0.00000E+00 0.00000E+00
 -1      1524 0.00000E+00 0.00000E+00 0.00000E+00
 -1      1525 0.00000E+00 0.00000E+00 0.00000E+00
 -1      1526 0.00000E+00 0.00000E+00 0.00000E+00
 -1      1527 0.00000E+00 0.00000E+00 0.00000E+00
 -1      1528 0.00000E+00 0.00000E+00 0.00000E+00
 -1      1529 0.00000E+00 0.00000E+00 0.00000E+00
 -1      1530 0.00000E+00 0.00000E+00 0.00000E+00
 -1      1531 0.00000E+00 0.00000E+00 0.00000E+00
 -1      1532 0.00000E+00 0.00000E+00 0.00000E+00
 -1      1533 0.00000E+00 0.00000E+00 0.00000E+00
 -1      1534 0.00000E+00 0.00000E+00 0.00000E+00
 -1      1535 0.00000E+00 0.00000E+00 0.00000E+00
 -1      1536 0.00000E+00 0.00000E+00 0.00000E+00
 -1      1537 0.00000E+00 0.00000E+00 0.00000E+00
 -1      1538 0.00000E+00 0.00000E+00 0.00000E+00
 -1      1539 0.00000E+00 0.00000E+00 0.00000E+00
 -1      1540 0.00000E+00 0.00000E+00 0.00000E+00
 -1      1541 0.00000E+00 0.00000E+00 0.00000E+00
 -1      1542 0.00000E+00 0.00000E+00 0.00000E+00
 -1      1543 0.00000E+00 0.00000E+00 0.00000E+00
 -1      1544 0.00000E+00 0.00000E+00 0.00000E+00
 -1      1545 0.00000E+00 0.00000E+00 0.00000E+00
 -1      1546 0.00000E+00 0.00000E+00 0.00000E+00
 -1      1547 0.00000E+00 0.00000E+00 0.00000E+00
 -1      1548 0.00000E+00 0.00000E+00 0.00000E+00
 -1      1549 0.00000E+00 0.00000E+00 0.00000E+00
 -1      1550 0.00000E+00 0.00000E+00 0.00000E+00
 -1      1551 0.00000E+00 0.00000E+00 0.00000E+00
 -1      1552 0.00000E+00 0.00000E+00 0.00000E+00
 -1      1553 0.00000E+00 0.00000E+00 0.00000E+00
 -1      1554 0.00000E+00 0.00000E+00 0.00000E+00
 -1      1555 0.00000E+00 0.00000E+00 0.00000E+00
 -1      1556 0.00000E+00 0.00000E+00 0.00000E+00
 -1      1557 0.00000E+00 0.00000E+00 0.00000E+00
 -1      1558 0.00000E+00 0.00000E+00 0.00000E+00
 -1      1559 0.00000E+00 0.00000E+00 0.00000E+00
 -1      1560 0.00000E+00 0.00000E+00 0.00000E+00
 -1      1561 0.00000E+00 0.00000E+00 0.00000E+00
 -1      1562 0.00000E+00 0.00000E+00 0.00000E+00
 -1      1563 0.00000E+00 0.00000E+00 0.00000E+00
 -1      1564 0.00000E+00 0.00000E+00 0.00000E+00
 -1      1565 0.00000E+00 0.00000E+00 0.00000E+00
 -1      1566 0.00000E+00 0.00000E+00 0.00000E+00
 -1      1567 0.00000E+00 0.00000E+00 0.00000E+00
 -1      1568 0.00000E+00 0.00000E+00 0.00000E+00
 -1      1569 0.00000E+00 0.00000E+00 0.00000E+00
 -1      1570 0.00000E+00 0.00000E+00 0.00000E+00
 -1      1571 0.00000E+00 0.00000E+00 0.00000E+00
 -1      1572 0.00000E+00 0.00000E+00 0.00000E+00
 -1      1573 0.00000E+00 0.00000E+00 0.00000E+00
 -1      1574 0.00000E+00 0.00000E+00 0.00000E+00
 -1      1575 0.00000E+00 0.00000E+00 0.00000E+00
 -1      1576 0.00000E+00 0.00000E+00 0.00000E+00
 -1      1577 0.00000E+00 0.00000E+00 0.00000E+00
 -1      1578 0.00000E+00 0.00000E+00 0.00000E+00
 -1      1579 0.00000E+00 0.00000E+00 0.00000E+00
 -1      1580 0.00000E+00 0.00000E+00 0.00000E+00
 -1      1581 0.00000E+00 0.00000E+00 0.00000E+00
 -1      1582 0.00000E+00 0.00000E+00 0.00000E+00
 -1      1583 0.00000E+00 0.00000E+00 0.00000E+00
 -1      1584 0.00000E+00 0.00000E+00 0.00000E+00
 -1      1585 0.00000E+00 0.00000E+00 0.00000E+00
 -1      1586 0.00000E+00 0.00000E+00 0.00000E+00
 -1      1587 0.00000E+00 0.00000E+00 0.00000E+00
 -1      1588 0.00000E+00 0.00000E+00 0.00000E+00
 -1      1589 0.00000E+00 0.00000E+00 0.00000E+00
 -1      1590 0.00000E+00 0.00000E+00 0.00000E+00
 -1      1591 0.00000E+00 0.00000E+00 0.00000E+00
 -1      1592 0.00000E+00 0.00000E+00 0.00000E+00
 -1      1593 0.00000E+00 0.00000E+00 0.00000E+00
 -1      1594 0.00000E+00 0.00000E+00 0.00000E+00
 -1      1595 0.00000E+00 0.00000E+00 0.00000E+00
 -1      1596 0.00000E+00 0.00000E+00 0.00000E+00
 -1      1597 0.00000E+00 0.00000E+00 0.00000E+00
 -1      1598 0.00000E+00 0.00000E+00 0.00000E+00
 -1      1599 0.00000E+00 0.00000E+00 0.00000E+00
 -1      1600 0.00000E+00 0.00000E+00 0.00000E+00
 -1      1601 0.00000E+00 0.00000E+00 0.00000E+00
 -1      1602 0.00000E+00 0.00000E+00 0.00000E+00
 -1      1603 0.00000E+00 0.00000E+00 0.00000E+00
 -1      1604 0.00000E+00 0.00000E+00 0.00000E+00
 -1      1605 0.00000E+00 0.00000E+00 0.00000E+00
 -1      1606 0.00000E+00 0.00000E+00 0.00000E+00
 -1      1607 0.00000E+00 0.00000E+00 0.00000E+00
 -1      1608 0.00000E+00 0.00000E+00 0.00000E+00
 -1      1609 0.00000E+00 0.00000E+00 0.00000E+00
 -1      1610 0.00000E+00 0.00000E+00 0.00000E+00
 -1      1611 0.00000E+00 0.00000E+00 0.00000E+00
 -1      1612 0.00000E+00 0.00000E+00 0.00000E+00
 -1      1613 0.00000E+00 0.00000E+00 0.00000E+00
 -1      1614 0.00000E+00 0.00000E+00 0.00000E+00
 -1      1615 0.00000E+00 0.00000E+00 0.00000E+00
 -1      1616 0.00000E+00 0.00000E+00 0.00000E+00
 -1      1617 0.00000E+00 0.00000E+00 0.00000E+00
 -1      1618 0.00000E+00 0.00000E+00 0.00000E+00
 -1      1619 0.00000E+00 0.00000E+00 0.00000E+00
 -1      1620 0.00000E+00 0.00000E+00 0.00000E+00
 -1      1621 0.00000E+00 0.00000E+00 0.00000E+00
 -1      1622 0.00000E+00 0.00000E+00 0.00000E+00
 -1      1623 0.00000E+00 0.00000E+00 0.00000E+00
 -1      1624 0.00000E+00 0.00000E+00 0.00000E+00
 -1      1625 0.00000E+00 0.00000E+00 0.00000E+00
 -1      1626 0.00000E+00 0.00000E+00 0.00000E+00
 -1      1627 0.00000E+00 0.00000E+00 0.00000E+00
 -1      1628 0.00000E+00 0.00000E+00 0.00000E+00
 -1      1629 0.00000E+00 0.00000E+00 0.00000E+00
 -1      1630 0.00000E+00 0.00000E+00 0.00000E+00
 -1      1631 0.00000E+00 0.00000E+00 0.00000E+00
 -1      1632 0.00000E+00 0.00000E+00 0.00000E+00
 -1      1633 0.00000E+00 0.00000E+00 0.00000E+00
 -1      1634 0.00000E+00 0.00000E+00 0.00000E+00
 -1      1635 0.00000E+00 0.00000E+00 0.00000E+00
 -1      1636 0.00000E+00 0.00000E+00 0.00000E+00
 -1      1637 0.00000E+00 0.00000E+00 0.00000E+00
 -1      1638 0.00000E+00 0.00000E+00 0.00000E+00
 -1      1639 0.00000E+00 0.00000E+00 0.00000E+00
 -1      1640 0.00000E+00 0.00000E+00 0.00000E+00
 -1      1641 0.00000E+00 0.00000E+00 0.00000E+00
 -1      1642 0.00000E+00 0.00000E+00 0.00000E+00
 -1      1643 0.00000E+00 0.00000E+00 0.00000E+00
 -1      1644 0.00000E+00 0.00000E+00 0.00000E+00
 -1      1645 0.00000E+00 0.00000E+00 0.00000E+00
 -1      1646 0.00000E+00 0.00000E+00 0.00000E+00
 -1      1647 0.00000E+00 0.00000E+00 0.00000E+00
 -1      1648 0.00000E+00 0.00000E+00 0.00000E+00
 -1      1649 0.00000E+00 0.00000E+00 0.00000E+00
 -1      1650 0.00000E+00 0.00000E+00 0.00000E+00
 -1      1651 0.00000E+00 0.00000E+00 0.00000E+00
 -1      1652 0.00000E+00 0.00000E+00 0.00000E+00
 -1      1653 0.00000E+00 0.00000E+00 0.00000E+00
 -1      1654 0.00000E+00 0.00000E+00 0.00000E+00
 -1      1655 0.00000E+00 0.00000E+00 0.00000E+00
 -1      1656 0.00000E+00 0.00000E+00 0.00000E+00
 -1      1657 0.00000E+00 0.00000E+00 0.00000E+00
 -1      1658 0.00000E+00 0.00000E+00 0.00000E+00
 -1      1659 0.00000E+00 0.00000E+00 0.00000E+00
 -1      1660 0.00000E+00 0.00000E+00 0.00000E+00
 -1      1661 0.00000E+00 0.00000E+00 0.00000E+00
 -1      1662 0.00000E+00 0.00000E+00 0.00000E+00
 -1      1663 0.00000E+00 0.00000E+00 0.00000E+00
 -1      1664 0.00000E+00 0.00000E+00 0.00000E+00
 -1      1665 0.00000E+00 0.00000E+00 0.00000E+00
 -1      1666 0.00000E+00 0.00000E+00 0.00000E+00
 -1      1667 0.00000E+00 0.00000E+00 0.00000E+00
 -1      1668 0.00000E+00 0.00000E+00 0.00000E+00
 -1      1669 0.00000E+00 0.00000E+00 0.00000E+00
 -1      1670 0.00000E+00 0.00000E+00 0.00000E+00
 -1      1671 0.00000E+00 0.00000E+00 0.00000E+00
 -1      1672 0.00000E+00 0.00000E+00 0.00000E+00
 -1      1673 0.00000E+00 0.00000E+00 0.00000E+00
 -1      1674 0.00000E+00 0.00000E+00 0.00000E+00
 -1      1675 0.00000E+00 0.00000E+00 0.00000E+00
 -1      1676 0.00000E+00 0.00000E+00 0.00000E+00
 -1      1677 0.00000E+00 0.00000E+00 0.00000E+00
 -1      1678 0.00000E+00 0.00000E+00 0.00000E+00
 -1      1679 0.00000E+00 0.00000E+00 0.00000E+00
 -1      1680 0.00000E+00 0.00000E+00 0.00000E+00
 -1      1681 0.00000E+00 0.00000E+00 0.00000E+00
 -1      1682 0.00000E+00 0.00000E+00 0.00000E+00
 -1      1683 0.00000E+00 0.00000E+00 0.00000E+00
 -1      1684 0.00000E+00 0.00000E+00 0.00000E+00
 -1      1685 0.00000E+00 0.00000E+00 0.00000E+00
 -1      1686 0.00000E+00 0.00000E+00 0.00000E+00
 -1      1687 0.00000E+00 0.00000E+00 0.00000E+00
 -1      1688 0.00000E+00 0.00000E+00 0.00000E+00
 -1      1689 0.00000E+00 0.00000E+00 0.00000E+00
 -1      1690 0.00000E+00 0.00000E+00 0.00000E+00
 -1      1691 0.00000E+00 0.00000E+00 0.00000E+00
 -1      1692 0.00000E+00 0.00000E+00 0.00000E+00
 -1      1693 0.00000E+00 0.00000E+00 0.00000E+00
 -1      1694 0.00000E+00 0.00000E+00 0.00000E+00
 -1      1695 0.00000E+00 0.00000E+00 0.00000E+00
 -1      1696 0.00000E+00 0.00000E+00 0.00000E+00
 -1      1697 0.00000E+00 0.00000E+00 0.00000E+00
 -1      1698 0.00000E+00 0.00000E+00 0.00000E+00
 -1      1699 0.00000E+00 0.00000E+00 0.00000E+00
 -1      1700 0.00000E+00 0.00000E+00 0.00000E+00
 -1      1701 0.00000E+00 0.00000E+00 0.00000E+00
 -1      1702 0.00000E+00 0.00000E+00 0.00000E+00
 -1      1703 0.00000E+00 0.00000E+00 0.00000E+00
 -1      1704 0.00000E+00 0.00000E+00 0.00000E+00
 -1      1705 0.00000E+00 0.00000E+00 0.00000E+00
 -1      1706 0.00000E+00 0.00000E+00 0.00000E+00
 -1      1707 0.00000E+00 0.00000E+00 0.00000E+00
 -1      1708 0.00000E+00 0.00000E+00 0.00000E+00
 -1      1709 0.00000E+00 0.00000E+00 0.00000E+00
 -1      1710 0.00000E+00 0.00000E+00 0.00000E+00
 -1      1711 0.00000E+00 0.00000E+00 0.00000E+00
 -1      1712 0.00000E+00 0.00000E+00 0.00000E+00
 -1      1713 0.00000E+00 0.00000E+00 0.00000E+00
 -1      1714 0.00000E+00 0.00000E+00 0.00000E+00
 -1      1715 0.00000E+00 0.00000E+00 0.00000E+00
 -1      1716 0.00000E+00 0.00000E+00 0.00000E+00
 -1      1717 0.00000E+00 0.00000E+00 0.00000E+00
 -1      1718 0.00000E+00 0.00000E+00 0.00000E+00
 -1      1719 0.00000E+00 0.00000E+00 0.00000E+00
 -1      1720 0.00000E+00 0.00000E+00 0.00000E+00
 -1      1721 0.00000E+00 0.00000E+00 0.00000E+00
 -1      1722 0.00000E+00 0.00000E+00 0.00000E+00
 -1      1723 0.00000E+00 0.00000E+00 0.00000E+00
 -1      1724 0.00000E+00 0.00000E+00 0.00000E+00
 -1      1725 0.00000E+00 0.00000E+00 0.00000E+00
 -1      1726 0.00000E+00 0.00000E+00 0.00000E+00
 -1      1727 0.00000E+00 0.00000E+00 0.00000E+00
 -1      1728 0.00000E+00 0.00000E+00 0.00000E+00
 -1      1729 0.00000E+00 0.00000E+00 0.00000E+00
 -1      1730 0.00000E+00 0.00000E+00 0.00000E+00
 -1      1731 0.00000E+00 0.00000E+00 0.00000E+00
 -1      1732 0.00000E+00 0.00000E+00 0.00000E+00
 -1      1733 0.00000E+00 0.00000E+00 0.00000E+00
 -1      1734 0.00000E+00 0.00000E+00 0.00000E+00
 -1      1735 0.00000E+00 0.00000E+00 0.00000E+00
 -1      1736 0.00000E+00 0.00000E+00 0.00000E+00
 -1      1737 0.00000E+00 0.00000E+00 0.00000E+00
 -1      1738 0.00000E+00 0.00000E+00 0.00000E+00
 -1      1739 0.00000E+00 0.00000E+00 0.00000E+00
 -1      1740 0.00000E+00 0.00000E+00 0.00000E+00
 -1      1741 0.00000E+00 0.00000E+00 0.00000E+00
 -1      1742 0.00000E+00 0.00000E+00 0.00000E+00
 -1      1743 0.00000E+00 0.00000E+00 0.00000E+00
 -1      1744 0.00000E+00 0.00000E+00 0.00000E+00
 -1      1745 0.00000E+00 0.00000E+00 0.00000E+00
 -1      1746 0.00000E+00 0.00000E+00 0.00000E+00
 -1      1747 0.00000E+00 0.00000E+00 0.00000E+00
 -1      1748 0.00000E+00 0.00000E+00 0.00000E+00
 -1      1749 0.00000E+00 0.00000E+00 0.00000E+00
 -1      1750 0.00000E+00 0.00000E+00 0.00000E+00
 -1      1751 0.00000E+00 0.00000E+00 0.00000E+00
 -1      1752 0.00000E+00 0.00000E+00 0.00000E+00
 -1      1753 0.00000E+00 0.00000E+00 0.00000E+00
 -1      1754 0.00000E+00 0.00000E+00 0.00000E+00
 -1      1755 0.00000E+00 0.00000E+00 0.00000E+00
 -1      1756 0.00000E+00 0.00000E+00 0.00000E+00
 -1      1757 0.00000E+00 0.00000E+00 0.00000E+00
 -1      1758 0.00000E+00 0.00000E+00 0.00000E+00
 -1      1759 0.00000E+00 0.00000E+00 0.00000E+00
 -1      1760 0.00000E+00 0.00000E+00 0.00000E+00
 -1      1761 0.00000E+00 0.00000E+00 0.00000E+00
 -1      1762 0.00000E+00 0.00000E+00 0.00000E+00
 -1      1763 0.00000E+00 0.00000E+00 0.00000E+00
 -1      1764 0.00000E+00 0.00000E+00 0.00000E+00
 -1      1765 0.00000E+00 0.00000E+00 0.00000E+00
 -1      1766 0.00000E+00 0.00000E+00 0.00000E+00
 -1      1767 0.00000E+00 0.00000E+00 0.00000E+00
 -1      1768 0.00000E+00 0.00000E+00 0.00000E+00
 -1      1769 0.00000E+00 0.00000E+00 0.00000E+00
 -1      1770 0.00000E+00 0.00000E+00 0.00000E+00
 -1      1771 0.00000E+00 0.00000E+00 0.00000E+00
 -1      1772 0.00000E+00 0.00000E+00 0.00000E+00
 -1      1773 0.00000E+00 0.00000E+00 0.00000E+00
 -1      1774 0.00000E+00 0.00000E+00 0.00000E+00
 -1      1775 0.00000E+00 0.00000E+00 0.00000E+00
 -1      1776 0.00000E+00 0.00000E+00 0.00000E+00
 -1      1777 0.00000E+00 0.00000E+00 0.00000E+00
 -1      1778 0.00000E+00 0.00000E+00 0.00000E+00
 -1      1779 0.00000E+00 0.00000E+00 0.00000E+00
 -1      1780 0.00000E+00 0.00000E+00 0.00000E+00
 -1      1781 0.00000E+00 0.00000E+00 0.00000E+00
 -1      1782 0.00000E+00 0.00000E+00 0.00000E+00
 -1      1783 0.00000E+00 0.00000E+00 0.00000E+00
 -1      1784 0.00000E+00 0.00000E+00 0.00000E+00
 -1      1785 0.00000E+00 0.00000E+00 0.00000E+00
 -1      1786 0.00000E+00 0.00000E+00 0.00000E+00
 -1      1787 0.00000E+00 0.00000E+00 0.00000E+00
 -1      1788 0.00000E+00 0.00000E+00 0.00000E+00
 -1      1789 0.00000E+00 0.00000E+00 0.00000E+00
 -1      1790 0.00000E+00 0.00000E+00 0.00000E+00
 -1      1791 0.00000E+00 0.00000E+00 0.00000E+00
 -1      1792 0.00000E+00 0.00000E+00 0.00000E+00
 -1      1793 0.00000E+00 0.00000E+00 0.00000E+00
 -1      1794 0.00000E+00 0.00000E+00 0.00000E+00
 -1      1795 0.00000E+00 0.00000E+00 0.00000E+00
 -1      1796 0.00000E+00 0.00000E+00 0.00000E+00
 -1      1797 0.00000E+00 0.00000E+00 0.00000E+00
 -1      1798 0.00000E+00 0.00000E+00 0.00000E+00
 -1      1799 0.00000E+00 0.00000E+00 0.00000E+00
 -1      1800 0.00000E+00 0.00000E+00 0.00000E+00
 -1      1801 0.00000E+00 0.00000E+00 0.00000E+00
 -1      1802 0.00000E+00 0.00000E+00 0.00000E+00
 -1      1803 0.00000E+00 0.00000E+00 0.00000E+00
 -1      1804 0.00000E+00 0.00000E+00 0.00000E+00
 -1      1805 0.00000E+00 0.00000E+00 0.00000E+00
 -1      1806 0.00000E+00 0.00000E+00 0.00000E+00
 -1      1807 0.00000E+00 0.00000E+00 0.00000E+00
 -1      1808 0.00000E+00 0.00000E+00 0.00000E+00
 -1      1809 0.00000E+00 0.00000E+00 0.00000E+00
 -1      1810 0.00000E+00 0.00000E+00 0.00000E+00
 -1      1811 0.00000E+00 0.00000E+00 0.00000E+00
 -1      1812 0.00000E+00 0.00000E+00 0.00000E+00
 -1      1813 0.00000E+00 0.00000E+00 0.00000E+00
 -1      1814 0.00000E+00 0.00000E+00 0.00000E+00
 -1      1815 0.00000E+00 0.00000E+00 0.00000E+00
 -1      1816 0.00000E+00 0.00000E+00 0.00000E+00
 -1      1817 0.00000E+00 0.00000E+00 0.00000E+00
 -1      1818 0.00000E+00 0.00000E+00 0.00000E+00
 -1      1819 0.00000E+00 0.00000E+00 0.00000E+00
 -1      1820 0.00000E+00 0.00000E+00 0.00000E+00
 -1      1821 0.00000E+00 0.00000E+00 0.00000E+00
 -1      1822 0.00000E+00 0.00000E+00 0.00000E+00
 -1      1823 0.00000E+00 0.00000E+00 0.00000E+00
 -1      1824 0.00000E+00 0.00000E+00 0.00000E+00
 -1      1825 0.00000E+00 0.00000E+00 0.00000E+00
 -1      1826 0.00000E+00 0.00000E+00 0.00000E+00
 -1      1827 0.00000E+00 0.00000E+00 0.00000E+00
 -1      1828 0.00000E+00 0.00000E+00 0.00000E+00
 -1      1829 0.00000E+00 0.00000E+00 0.00000E+00
 -1      1830 0.00000E+00 0.00000E+00 0.00000E+00
 -1      1831 0.00000E+00 0.00000E+00 0.00000E+00
 -1      1832 0.00000E+00 0.00000E+00 0.00000E+00
 -1      1833 0.00000E+00 0.00000E+00 0.00000E+00
 -1      1834 0.00000E+00 0.00000E+00 0.00000E+00
 -1      1835 0.00000E+00 0.00000E+00 0.00000E+00
 -1      1836 0.00000E+00 0.00000E+00 0.00000E+00
 -1      1837 0.00000E+00 0.00000E+00 0.00000E+00
 -1      1838 0.00000E+00 0.00000E+00 0.00000E+00
 -1      1839 0.00000E+00 0.00000E+00 0.00000E+00
 -1      1840 0.00000E+00 0.00000E+00 0.00000E+00
 -1      1841 0.00000E+00 0.00000E+00 0.00000E+00
 -1      1842 0.00000E+00 0.00000E+00 0.00000E+00
 -1      1843 0.00000E+00 0.00000E+00 0.00000E+00
 -1      1844 0.00000E+00 0.00000E+00 0.00000E+00
 -1      1845 0.00000E+00 0.00000E+00 0.00000E+00
 -1      1846 0.00000E+00 0.00000E+00 0.00000E+00
 -1      1847 0.00000E+00 0.00000E+00 0.00000E+00
 -1      1848 0.00000E+00 0.00000E+00 0.00000E+00
 -1      1849 0.00000E+00 0.00000E+00 0.00000E+00
 -1      1850 0.00000E+00 0.00000E+00 0.00000E+00
 -1      1851 0.00000E+00 0.00000E+00 0.00000E+00
 -1      1852 0.00000E+00 0.00000E+00 0.00000E+00
 -1      1853 0.00000E+00 0.00000E+00 0.00000E+00
 -1      1854 0.00000E+00 0.00000E+00 0.00000E+00
 -1      1855 0.00000E+00 0.00000E+00 0.00000E+00
 -1      1856 0.00000E+00 0.00000E+00 0.00000E+00
 -1      1857 0.00000E+00 0.00000E+00 0.00000E+00
 -1      1858 0.00000E+00 0.00000E+00 0.00000E+00
 -1      1859 0.00000E+00 0.00000E+00 0.00000E+00
 -1      1860 0.00000E+00 0.00000E+00 0.00000E+00
 -1      1861 0.00000E+00 0.00000E+00 0.00000E+00
 -1      1862 0.00000E+00 0.00000E+00 0.00000E+00
 -1      1863 0.00000E+00 0.00000E+00 0.00000E+00
 -1      1864 0.00000E+00 0.00000E+00 0.00000E+00
 -1      1865 0.00000E+00 0.00000E+00 0.00000E+00
 -1      1866 0.00000E+00 0.00000E+00 0.00000E+00
 -1      1867 0.00000E+00 0.00000E+00 0.00000E+00
 -1      1868 0.00000E+00 0.00000E+00 0.00000E+00
 -1      1869 0.00000E+00 0.00000E+00 0.00000E+00
 -1      1870 0.00000E+00 0.00000E+00 0.00000E+00
 -1      1871 0.00000E+00 0.00000E+00 0.00000E+00
 -1      1872 0.00000E+00 0.00000E+00 0.00000E+00
 -1      1873 0.00000E+00 0.00000E+00 0.00000E+00
 -1      1874 0.00000E+00 0.00000E+00 0.00000E+00
 -1      1875 0.00000E+00 0.00000E+00 0.00000E+00
 -1      1876 0.00000E+00 0.00000E+00 0.00000E+00
 -1      1877 0.00000E+00 0.00000E+00 0.00000E+00
 -1      1878 0.00000E+00 0.00000E+00 0.00000E+00
 -1      1879 0.00000E+00 0.00000E+00 0.00000E+00
 -1      1880 0.00000E+00 0.00000E+00 0.00000E+00
 -1      1881 0.00000E+00 0.00000E+00 0.00000E+00
 -1      1882 0.00000E+00 0.00000E+00 0.00000E+00
 -1      1883 0.00000E+00 0.00000E+00 0.00000E+00
 -1      1884 0.00000E+00 0.00000E+00 0.00000E+00
 -1      1885 0.00000E+00 0.00000E+00 0.00000E+00
 -1      1886 0.00000E+00 0.00000E+00 0.00000E+00
 -1      1887 0.00000E+00 0.00000E+00 0.00000E+00
 -1      1888 0.00000E+00 0.00000E+00 0.00000E+00
 -1      1889 0.00000E+00 0.00000E+00 0.00000E+00
 -1      1890 0.00000E+00 0.00000E+00 0.00000E+00
 -1      1891 0.00000E+00 0.00000E+00 0.00000E+00
 -1      1892 0.00000E+00 0.00000E+00 0.00000E+00
 -1      1893 0.00000E+00 0.00000E+00 0.00000E+00
 -1      1894 0.00000E+00 0.00000E+00 0.00000E+00
 -1      1895 0.00000E+00 0.00000E+00 0.00000E+00
 -1      1896 0.00000E+00 0.00000E+00 0.00000E+00
 -1      1897 0.00000E+00 0.00000E+00 0.00000E+00
 -1      1898 0.00000E+00 0.00000E+00 0.00000E+00
 -1      1899 0.00000E+00 0.00000E+00 0.00000E+00
 -1      1900 0.00000E+00 0.00000E+00 0.00000E+00
 -1      1901 0.00000E+00 0.00000E+00 0.00000E+00
 -1      1902 0.00000E+00 0.00000E+00 0.00000E+00
 -1      1903 0.00000E+00 0.00000E+00 0.00000E+00
 -1      1904 0.00000E+00 0.00000E+00 0.00000E+00
 -1      1905 0.00000E+00 0.00000E+00 0.00000E+00
 -1      1906 0.00000E+00 0.00000E+00 0.00000E+00
 -1      1907 0.00000E+00 0.00000E+00 0.00000E+00
 -1      1908 0.00000E+00 0.00000E+00 0.00000E+00
 -1      1909 0.00000E+00 0.00000E+00 0.00000E+00
 -1      1910 0.00000E+00 0.00000E+00 0.00000E+00
 -1      1911 0.00000E+00 0.00000E+00 0.00000E+00
 -1      1912 0.00000E+00 0.00000E+00 0.00000E+00
 -1      1913 0.00000E+00 0.00000E+00 0.00000E+00
 -1      1914 0.00000E+00 0.00000E+00 0.00000E+00
 -1      1915 0.00000E+00 0.00000E+00 0.00000E+00
 -1      1916 0.00000E+00 0.00000E+00 0.00000E+00
 -1      1917 0.00000E+00 0.00000E+00 0.00000E+00
 -1      1918 0.00000E+00 0.00000E+00 0.00000E+00
 -1      1919 0.00000E+00 0.00000E+00 0.00000E+00
 -1      1920 0.00000E+00 0.00000E+00 0.00000E+00
 -1      1921 0.00000E+00 0.00000E+00 0.00000E+00
 -1      1922 0.00000E+00 0.00000E+00 0.00000E+00
 -1      1923 0.00000E+00 0.00000E+00 0.00000E+00
 -1      1924 0.00000E+00 0.00000E+00 0.00000E+00
 -1      1925 0.00000E+00 0.00000E+00 0.00000E+00
 -1      1926 0.00000E+00 0.00000E+00 0.00000E+00
 -1      1927 0.00000E+00 0.00000E+00 0.00000E+00
 -1      1928 0.00000E+00 0.00000E+00 0.00000E+00
 -1      1929 0.00000E+00 0.00000E+00 0.00000E+00
 -1      1930 0.00000E+00 0.00000E+00 0.00000E+00
 -1      1931 0.00000E+00 0.00000E+00 0.00000E+00
 -1      1932 0.00000E+00 0.00000E+00 0.00000E+00
 -1      1933 0.00000E+00 0.00000E+00 0.00000E+00
 -1      1934 0.00000E+00 0.00000E+00 0.00000E+00
 -1      1935 0.00000E+00 0.00000E+00 0.00000E+00
 -1      1936 0.00000E+00 0.00000E+00 0.00000E+00
 -1      1937 0.00000E+00 0.00000E+00 0.00000E+00
 -1      1938 0.00000E+00 0.00000E+00 0.00000E+00
 -1      1939 0.00000E+00 0.00000E+00 0.00000E+00
 -1      1940 0.00000E+00 0.00000E+00 0.00000E+00
 -1      1941 0.00000E+00 0.00000E+00 0.00000E+00
 -1      1942 0.00000E+00 0.00000E+00 0.00000E+00
 -1      1943 0.00000E+00 0.00000E+00 0.00000E+00
 -1      1944 0.00000E+00 0.00000E+00 0.00000E+00
 -1      1945 0.00000E+00 0.00000E+00 0.00000E+00
 -1      1946 0.00000E+00 0.00000E+00 0.00000E+00
 -1      1947 0.00000E+00 0.00000E+00 0.00000E+00
 -1      1948 0.00000E+00 0.00000E+00 0.00000E+00
 -1      1949 0.00000E+00 0.00000E+00 0.00000E+00
 -1      1950 0.00000E+00 0.00000E+00 0.00000E+00
 -1      1951 0.00000E+00 0.00000E+00 0.00000E+00
 -1      1952 0.00000E+00 0.00000E+00 0.00000E+00
 -1      1953 0.00000E+00 0.00000E+00 0.00000E+00
 -1      1954 0.00000E+00 0.00000E+00 0.00000E+00
 -1      1955 0.00000E+00 0.00000E+00 0.00000E+00
 -1      1956 0.00000E+00 0.00000E+00 0.00000E+00
 -1      1957 0.00000E+00 0.00000E+00 0.00000E+00
 -1      1958 0.00000E+00 0.00000E+00 0.00000E+00
 -1      1959 0.00000E+00 0.00000E+00 0.00000E+00
 -1      1960 0.00000E+00 0.00000E+00 0.00000E+00
 -1      1961 0.00000E+00 0.00000E+00 0.00000E+00
 -1      1962 0.00000E+00 0.00000E+00 0.00000E+00
 -1      1963 0.00000E+00 0.00000E+00 0.00000E+00
 -1      1964 0.00000E+00 0.00000E+00 0.00000E+00
 -1      1965 0.00000E+00 0.00000E+00 0.00000E+00
 -1      1966 0.00000E+00 0.00000E+00 0.00000E+00
 -1      1967 0.00000E+00 0.00000E+00 0.00000E+00
 -1      1968 0.00000E+00 0.00000E+00 0.00000E+00
 -1      1969 0.00000E+00 0.00000E+00 0.00000E+00
 -1      1970 0.00000E+00 0.00000E+00 0.00000E+00
 -1      1971 0.00000E+00 0.00000E+00 0.00000E+00
 -1      1972 0.00000E+00 0.00000E+00 0.00000E+00
 -1      1973 0.00000E+00 0.00000E+00 0.00000E+00
 -1      1974 0.00000E+00 0.00000E+00 0.00000E+00
 -1      1975 0.00000E+00 0.00000E+00 0.00000E+00
 -1      1976 0.00000E+00 0.00000E+00 0.00000E+00
 -1      1977 0.00000E+00 0.00000E+00 0.00000E+00
 -1      1978 0.00000E+00 0.00000E+00 0.00000E+00
 -1      1979 0.00000E+00 0.00000E+00 0.00000E+00
 -1      1980 0.00000E+00 0.00000E+00 0.00000E+00
 -1      1981 0.00000E+00 0.00000E+00 0.00000E+00
 -1      1982 0.00000E+00 0.00000E+00 0.00000E+00
 -1      1983 0.00000E+00 0.00000E+00 0.00000E+00
 -1      1984 0.00000E+00 0.00000E+00 0.00000E+00
 -1      1985 0.00000E+00 0.00000E+00 0.00000E+00
 -1      1986 0.00000E+00 0.00000E+00 0.00000E+00
 -1      1987 0.00000E+00 0.00000E+00 0.00000E+00
 -1      1988 0.00000E+00 0.00000E+00 0.00000E+00
 -1      1989 0.00000E+00 0.00000E+00 0.00000E+00
 -1      1990 0.00000E+00 0.00000E+00 0.00000E+00
 -1      1991 0.00000E+00 0.00000E+00 0.00000E+00
 -1      1992 0.00000E+00 0.00000E+00 0.00000E+00
 -1      1993 0.00000E+00 0.00000E+00 0.00000E+00
 -1      1994 0.00000E+00 0.00000E+00 0.00000E+00
 -1      1995 0.00000E+00 0.00000E+00 0.00000E+00
 -1      1996 0.00000E+00 0.00000E+00 0.00000E+00
 -1      1997 0.00000E+00 0.00000E+00 0.00000E+00
 -1      1998 0.00000E+00 0.00000E+00 0.00000E+00
 -1      1999 0.00000E+00 0.00000E+00 0.00000E+00
 -1      2000 0.00000E+00 0.00000E+00 0.00000E+00
 -1      2001 0.00000E+00 0.00000E+00 0.00000E+00
 -1      2002 0.00000E+00 0.00000E+00 0.00000E+00
 -1      2003 0.00000E+00 0.00000E+00 0.00000E+00
 -1      2004 0.00000E+00 0.00000E+00 0.00000E+00
 -1      2005 0.00000E+00 0.00000E+00 0.00000E+00
 -1      2006 0.00000E+00 0.00000E+00 0.00000E+00
 -1      2007 0.00000E+00 0.00000E+00 0.00000E+00
 -1      2008 0.00000E+00 0.00000E+00 0.00000E+00
 -1      2009 0.00000E+00 0.00000E+00 0.00000E+00
 -1      2010 0.00000E+00 0.00000E+00 0.00000E+00
 -1      2011 0.00000E+00 0.00000E+00 0.00000E+00
 -1      2012 0.00000E+00 0.00000E+00 0.00000E+00
 -1      2013 0.00000E+00 0.00000E+00 0.00000E+00
 -1      2014 0.00000E+00 0.00000E+00 0.00000E+00
 -1      2015 0.00000E+00 0.00000E+00 0.00000E+00
 -1      2016 0.00000E+00 0.00000E+00 0.00000E+00
 -1      2017 0.00000E+00 0.00000E+00 0.00000E+00
 -1      2018 0.00000E+00 0.00000E+00 0.00000E+00
 -1      2019 0.00000E+00 0.00000E+00 0.00000E+00
 -1      2020 0.00000E+00 0.00000E+00 0.00000E+00
 -1      2021 0.00000E+00 0.00000E+00 0.00000E+00
 -1      2022 0.00000E+00 0.00000E+00 0.00000E+00
 -1      2023 0.00000E+00 0.00000E+00 0.00000E+00
 -1      2024 0.00000E+00 0.00000E+00 0.00000E+00
 -1      2025 0.00000E+00 0.00000E+00 0.00000E+00
 -1      2026 0.00000E+00 0.00000E+00 0.00000E+00
 -1      2027 0.00000E+00 0.00000E+00 0.00000E+00
 -1      2028 0.00000E+00 0.00000E+00 0.00000E+00
 -1      2029 0.00000E+00 0.00000E+00 0.00000E+00
 -1      2030 0.00000E+00 0.00000E+00 0.00000E+00
 -1      2031 0.00000E+00 0.00000E+00 0.00000E+00
 -1      2032 0.00000E+00 0.00000E+00 0.00000E+00
 -1      2033 0.00000E+00 0.00000E+00 0.00000E+00
 -1      2034 0.00000E+00 0.00000E+00 0.00000E+00
 -1      2035 0.00000E+00 0.00000E+00 0.00000E+00
 -1      2036 0.00000E+00 0.00000E+00 0.00000E+00
 -1      2037 0.00000E+00 0.00000E+00 0.00000E+00
 -1      2038 0.00000E+00 0.00000E+00 0.00000E+00
 -1      2039 0.00000E+00 0.00000E+00 0.00000E+00
 -1      2040 0.00000E+00 0.00000E+00 0.00000E+00
 -1      2041 0.00000E+00 0.00000E+00 0.00000E+00
 -1      2042 0.00000E+00 0.00000E+00 0.00000E+00
 -1      2043 0.00000E+00 0.00000E+00 0.00000E+00
 -1      2044 0.00000E+00 0.00000E+00 0.00000E+00
 -1      2045 0.00000E+00 0.00000E+00 0.00000E+00
 -1      2046 0.00000E+00 0.00000E+00 0.00000E+00
 -1      2047 0.00000E+00 0.00000E+00 0.00000E+00
 -1      2048 0.00000E+00 0.00000E+00 0.00000E+00
 -1      2049 0.00000E+00 0.00000E+00 0.00000E+00
 -1      2050 0.00000E+00 0.00000E+00 0.00000E+00
 -1      2051 0.00000E+00 0.00000E+00 0.00000E+00
 -1      2052 0.00000E+00 0.00000E+00 0.00000E+00
 -1      2053 0.00000E+00 0.00000E+00 0.00000E+00
 -1      2054 0.00000E+00 0.00000E+00 0.00000E+00
 -1      2055 0.00000E+00 0.00000E+00 0.00000E+00
 -1      2056 0.00000E+00 0.00000E+00 0.00000E+00
 -1      2057 0.00000E+00 0.00000E+00 0.00000E+00
 -1      2058 0.00000E+00 0.00000E+00 0.00000E+00
 -1      2059 0.00000E+00 0.00000E+00 0.00000E+00
 -1      2060 0.00000E+00 0.00000E+00 0.00000E+00
 -1      2061 0.00000E+00 0.00000E+00 0.00000E+00
 -1      2062 0.00000E+00 0.00000E+00 0.00000E+00
 -1      2063 0.00000E+00 0.00000E+00 0.00000E+00
 -1      2064 0.00000E+00 0.00000E+00 0.00000E+00
 -1      2065 0.00000E+00 0.00000E+00 0.00000E+00
 -1      2066 0.00000E+00 0.00000E+00 0.00000E+00
 -1      2067 0.00000E+00 0.00000E+00 0.00000E+00
 -1      2068 0.00000E+00 0.00000E+00 0.00000E+00
 -1      2069 0.00000E+00 0.00000E+00 0.00000E+00
 -1      2070 0.00000E+00 0.00000E+00 0.00000E+00
 -1      2071 0.00000E+00 0.00000E+00 0.00000E+00
 -1      2072 0.00000E+00 0.00000E+00 0.00000E+00
 -1      2073 0.00000E+00 0.00000E+00 0.00000E+00
 -1      2074 0.00000E+00 0.00000E+00 0.00000E+00
 -1      2075 0.00000E+00 0.00000E+00 0.00000E+00
 -1      2076 0.00000E+00 0.00000E+00 0.00000E+00
 -1      2077 0.00000E+00 0.00000E+00 0.00000E+00
 -1      2078 0.00000E+00 0.00000E+00 0.00000E+00
 -1      2079 0.00000E+00 0.00000E+00 0.00000E+00
 -1      2080 0.00000E+00 0.00000E+00 0.00000E+00
 -1      2081 0.00000E+00 0.00000E+00 0.00000E+00
 -1      2082 0.00000E+00 0.00000E+00 0.00000E+00
 -1      2083 0.00000E+00 0.00000E+00 0.00000E+00
 -1      2084 0.00000E+00 0.00000E+00 0.00000E+00
 -1      2085 0.00000E+00 0.00000E+00 0.00000E+00
 -1      2086 0.00000E+00 0.00000E+00 0.00000E+00
 -1      2087 0.00000E+00 0.00000E+00 0.00000E+00
 -1      2088 0.00000E+00 0.00000E+00 0.00000E+00
 -1      2089 0.00000E+00 0.00000E+00 0.00000E+00
 -1      2090 0.00000E+00 0.00000E+00 0.00000E+00
 -1      2091 0.00000E+00 0.00000E+00 0.00000E+00
 -1      2092 0.00000E+00 0.00000E+00 0.00000E+00
 -1      2093 0.00000E+00 0.00000E+00 0.00000E+00
 -1      2094 0.00000E+00 0.00000E+00 0.00000E+00
 -1      2095 0.00000E+00 0.00000E+00 0.00000E+00
 -1      2096 0.00000E+00 0.00000E+00 0.00000E+00
 -1      2097 0.00000E+00 0.00000E+00 0.00000E+00
 -1      2098 0.00000E+00 0.00000E+00 0.00000E+00
 -1      2099 0.00000E+00 0.00000E+00 0.00000E+00
 -1      2100 0.00000E+00 0.00000E+00 0.00000E+00
 -1      2101 0.00000E+00 0.00000E+00 0.00000E+00
 -1      2102 0.00000E+00 0.00000E+00 0.00000E+00
 -1      2103 0.00000E+00 0.00000E+00 0.00000E+00
 -1      2104 0.00000E+00 0.00000E+00 0.00000E+00
 -1      2105 0.00000E+00 0.00000E+00 0.00000E+00
 -1      2106 0.00000E+00 0.00000E+00 0.00000E+00
 -1      2107 0.00000E+00 0.00000E+00 0.00000E+00
 -1      2108 0.00000E+00 0.00000E+00 0.00000E+00
 -1      2109 0.00000E+00 0.00000E+00 0.00000E+00
 -1      2110 0.00000E+00 0.00000E+00 0.00000E+00
 -1      2111 0.00000E+00 0.00000E+00 0.00000E+00
 -1      2112 0.00000E+00 0.00000E+00 0.00000E+00
 -1      2113 0.00000E+00 0.00000E+00 0.00000E+00
 -1      2114 0.00000E+00 0.00000E+00 0.00000E+00
 -1      2115 0.00000E+00 0.00000E+00 0.00000E+00
 -1      2116 0.00000E+00 0.00000E+00 0.00000E+00
 -1      2117 0.00000E+00 0.00000E+00 0.00000E+00
 -1      2118 0.00000E+00 0.00000E+00 0.00000E+00
 -1      2119 0.00000E+00 0.00000E+00 0.00000E+00
 -1      2120 0.00000E+00 0.00000E+00 0.00000E+00
 -1      2121 0.00000E+00 0.00000E+00 0.00000E+00
 -1      2122 0.00000E+00 0.00000E+00 0.00000E+00
 -1      2123 0.00000E+00 0.00000E+00 0.00000E+00
 -1      2124 0.00000E+00 0.00000E+00 0.00000E+00
 -1      2125 0.00000E+00 0.00000E+00 0.00000E+00
 -1      2126 0.00000E+00 0.00000E+00 0.00000E+00
 -1      2127 0.00000E+00 0.00000E+00 0.00000E+00
 -1      2128 0.00000E+00 0.00000E+00 0.00000E+00
 -1      2129 0.00000E+00 0.00000E+00 0.00000E+00
 -1      2130 0.00000E+00 0.00000E+00 0.00000E+00
 -1      2131 0.00000E+00 0.00000E+00 0.00000E+00
 -1      2132 0.00000E+00 0.00000E+00 0.00000E+00
 -1      2133 0.00000E+00 0.00000E+00 0.00000E+00
 -1      2134 0.00000E+00 0.00000E+00 0.00000E+00
 -1      2135 0.00000E+00 0.00000E+00 0.00000E+00
 -1      2136 0.00000E+00 0.00000E+00 0.00000E+00
 -1      2137 0.00000E+00 0.00000E+00 0.00000E+00
 -1      2138 0.00000E+00 0.00000E+00 0.00000E+00
 -1      2139 0.00000E+00 0.00000E+00 0.00000E+00
 -1      2140 0.00000E+00 0.00000E+00 0.00000E+00
 -1      2141 0.00000E+00 0.00000E+00 0.00000E+00
 -1      2142 0.00000E+00 0.00000E+00 0.00000E+00
 -1      2143 0.00000E+00 0.00000E+00 0.00000E+00
 -1      2144 0.00000E+00 0.00000E+00 0.00000E+00
 -1      2145 0.00000E+00 0.00000E+00 0.00000E+00
 -1      2146 0.00000E+00 0.00000E+00 0.00000E+00
 -1      2147 0.00000E+00 0.00000E+00 0.00000E+00
 -1      2148 0.00000E+00 0.00000E+00 0.00000E+00
 -1      2149 0.00000E+00 0.00000E+00 0.00000E+00
 -1      2150 0.00000E+00 0.00000E+00 0.00000E+00
 -1      2151 0.00000E+00 0.00000E+00 0.00000E+00
 -1      2152 0.00000E+00 0.00000E+00 0.00000E+00
 -1      2153 0.00000E+00 0.00000E+00 0.00000E+00
 -1      2154 0.00000E+00 0.00000E+00 0.00000E+00
 -1      2155 0.00000E+00 0.00000E+00 0.00000E+00
 -1      2156 0.00000E+00 0.00000E+00 0.00000E+00
 -1      2157 0.00000E+00 0.00000E+00 0.00000E+00
 -1      2158 0.00000E+00 0.00000E+00 0.00000E+00
 -1      2159 0.00000E+00 0.00000E+00 0.00000E+00
 -1      2160 0.00000E+00 0.00000E+00 0.00000E+00
 -1      2161 0.00000E+00 0.00000E+00 0.00000E+00
 -1      2162 0.00000E+00 0.00000E+00 0.00000E+00
 -1      2163 0.00000E+00 0.00000E+00 0.00000E+00
 -1      2164 0.00000E+00 0.00000E+00 0.00000E+00
 -1      2165 0.00000E+00 0.00000E+00 0.00000E+00
 -1      2166 0.00000E+00 0.00000E+00 0.00000E+00
 -1      2167 0.00000E+00 0.00000E+00 0.00000E+00
 -1      2168 0.00000E+00 0.00000E+00 0.00000E+00
 -1      2169 0.00000E+00 0.00000E+00 0.00000E+00
 -1      2170 0.00000E+00 0.00000E+00 0.00000E+00
 -1      2171 0.00000E+00 0.00000E+00 0.00000E+00
 -1      2172 0.00000E+00 0.00000E+00 0.00000E+00
 -1      2173 0.00000E+00 0.00000E+00 0.00000E+00
 -1      2174 0.00000E+00 0.00000E+00 0.00000E+00
 -1      2175 0.00000E+00 0.00000E+00 0.00000E+00
 -1      2176 0.00000E+00 0.00000E+00 0.00000E+00
 -1      2177 0.00000E+00 0.00000E+00 0.00000E+00
 -1      2178 0.00000E+00 0.00000E+00 0.00000E+00
 -1      2179 0.00000E+00 0.00000E+00 0.00000E+00
 -1      2180 0.00000E+00 0.00000E+00 0.00000E+00
 -1      2181 0.00000E+00 0.00000E+00 0.00000E+00
 -1      2182 0.00000E+00 0.00000E+00 0.00000E+00
 -1      2183 0.00000E+00 0.00000E+00 0.00000E+00
 -1      2184 0.00000E+00 0.00000E+00 0.00000E+00
 -1      2185 0.00000E+00 0.00000E+00 0.00000E+00
 -1      2186 0.00000E+00 0.00000E+00 0.00000E+00
 -1      2187 0.00000E+00 0.00000E+00 0.00000E+00
 -1      2188 0.00000E+00 0.00000E+00 0.00000E+00
 -1      2189 0.00000E+00 0.00000E+00 0.00000E+00
 -1      2190 0.00000E+00 0.00000E+00 0.00000E+00
 -1      2191 0.00000E+00 0.00000E+00 0.00000E+00
 -1      2192 0.00000E+00 0.00000E+00 0.00000E+00
 -1      2193 0.00000E+00 0.00000E+00 0.00000E+00
 -1      2194 0.00000E+00 0.00000E+00 0.00000E+00
 -1      2195 0.00000E+00 0.00000E+00 0.00000E+00
 -1      2196 0.00000E+00 0.00000E+00 0.00000E+00
 -1      2197 0.00000E+00 0.00000E+00 0.00000E+00
 -1      2198 0.00000E+00 0.00000E+00 0.00000E+00
 -1      2199 0.00000E+00 0.00000E+00 0.00000E+00
 -1      2200 0.00000E+00 0.00000E+00 0.00000E+00
 -1      2201 0.00000E+00 0.00000E+00 0.00000E+00
 -1      2202 0.00000E+00 0.00000E+00 0.00000E+00
 -1      2203 0.00000E+00 0.00000E+00 0.00000E+00
 -1      2204 0.00000E+00 0.00000E+00 0.00000E+00
 -1      2205 0.00000E+00 0.00000E+00 0.00000E+00
 -1      2206 0.00000E+00 0.00000E+00 0.00000E+00
 -1      2207 0.00000E+00 0.00000E+00 0.00000E+00
 -1      2208 0.00000E+00 0.00000E+00 0.00000E+00
 -1      2209 0.00000E+00 0.00000E+00 0.00000E+00
 -1      2210 0.00000E+00 0.00000E+00 0.00000E+00
 -1      2211 0.00000E+00 0.00000E+00 0.00000E+00
 -1      2212 0.00000E+00 0.00000E+00 0.00000E+00
 -1      2213 0.00000E+00 0.00000E+00 0.00000E+00
 -1      2214 0.00000E+00 0.00000E+00 0.00000E+00
 -1      2215 0.00000E+00 0.00000E+00 0.00000E+00
 -1      2216 0.00000E+00 0.00000E+00 0.00000E+00
 -1      2217 0.00000E+00 0.00000E+00 0.00000E+00
 -1      2218 0.00000E+00 0.00000E+00 0.00000E+00
 -1      2219 0.00000E+00 0.00000E+00 0.00000E+00
 -1      2220 0.00000E+00 0.00000E+00 0.00000E+00
 -1      2221 0.00000E+00 0.00000E+00 0.00000E+00
 -1      2222 0.00000E+00 0.00000E+00 0.00000E+00
 -1      2223 0.00000E+00 0.00000E+00 0.00000E+00
 -1      2224 0.00000E+00 0.00000E+00 0.00000E+00
 -1      2225 0.00000E+00 0.00000E+00 0.00000E+00
 -1      2226 0.00000E+00 0.00000E+00 0.00000E+00
 -1      2227 0.00000E+00 0.00000E+00 0.00000E+00
 -1      2228 0.00000E+00 0.00000E+00 0.00000E+00
 -1      2229 0.00000E+00 0.00000E+00 0.00000E+00
 -1      2230 0.00000E+00 0.00000E+00 0.00000E+00
 -1      2231 0.00000E+00 0.00000E+00 0.00000E+00
 -1      2232 0.00000E+00 0.00000E+00 0.00000E+00
 -1      2233 0.00000E+00 0.00000E+00 0.00000E+00
 -1      2234 0.00000E+00 0.00000E+00 0.00000E+00
 -1      2235 0.00000E+00 0.00000E+00 0.00000E+00
 -1      2236 0.00000E+00 0.00000E+00 0.00000E+00
 -1      2237 0.00000E+00 0.00000E+00 0.00000E+00
 -1      2238 0.00000E+00 0.00000E+00 0.00000E+00
 -1      2239 0.00000E+00 0.00000E+00 0.00000E+00
 -1      2240 0.00000E+00 0.00000E+00 0.00000E+00
 -1      2241 0.00000E+00 0.00000E+00 0.00000E+00
 -1      2242 0.00000E+00 0.00000E+00 0.00000E+00
 -1      2243 0.00000E+00 0.00000E+00 0.00000E+00
 -1      2244 0.00000E+00 0.00000E+00 0.00000E+00
 -1      2245 0.00000E+00 0.00000E+00 0.00000E+00
 -1      2246 0.00000E+00 0.00000E+00 0.00000E+00
 -1      2247 0.00000E+00 0.00000E+00 0.00000E+00
 -1      2248 0.00000E+00 0.00000E+00 0.00000E+00
 -1      2249 0.00000E+00 0.00000E+00 0.00000E+00
 -1      2250 0.00000E+00 0.00000E+00 0.00000E+00
 -1      2251 0.00000E+00 0.00000E+00 0.00000E+00
 -1      2252 0.00000E+00 0.00000E+00 0.00000E+00
 -1      2253 0.00000E+00 0.00000E+00 0.00000E+00
 -1      2254 0.00000E+00 0.00000E+00 0.00000E+00
 -1      2255 0.00000E+00 0.00000E+00 0.00000E+00
 -1      2256 0.00000E+00 0.00000E+00 0.00000E+00
 -1      2257 0.00000E+00 0.00000E+00 0.00000E+00
 -1      2258 0.00000E+00 0.00000E+00 0.00000E+00
 -1      2259 0.00000E+00 0.00000E+00 0.00000E+00
 -1      2260 0.00000E+00 0.00000E+00 0.00000E+00
 -1      2261 0.00000E+00 0.00000E+00 0.00000E+00
 -1      2262 0.00000E+00 0.00000E+00 0.00000E+00
 -1      2263 0.00000E+00 0.00000E+00 0.00000E+00
 -1      2264 0.00000E+00 0.00000E+00 0.00000E+00
 -1      2265 0.00000E+00 0.00000E+00 0.00000E+00
 -1      2266 0.00000E+00 0.00000E+00 0.00000E+00
 -1      2267 0.00000E+00 0.00000E+00 0.00000E+00
 -1      2268 0.00000E+00 0.00000E+00 0.00000E+00
 -1      2269 0.00000E+00 0.00000E+00 0.00000E+00
 -1      2270 0.00000E+00 0.00000E+00 0.00000E+00
 -1      2271 0.00000E+00 0.00000E+00 0.00000E+00
 -1      2272 0.00000E+00 0.00000E+00 0.00000E+00
 -1      2273 0.00000E+00 0.00000E+00 0.00000E+00
 -1      2274 0.00000E+00 0.00000E+00 0.00000E+00
 -1      2275 0.00000E+00 0.00000E+00 0.00000E+00
 -1      2276 0.00000E+00 0.00000E+00 0.00000E+00
 -1      2277 0.00000E+00 0.00000E+00 0.00000E+00
 -1      2278 0.00000E+00 0.00000E+00 0.00000E+00
 -1      2279 0.00000E+00 0.00000E+00 0.00000E+00
 -1      2280 0.00000E+00 0.00000E+00 0.00000E+00
 -1      2281 0.00000E+00 0.00000E+00 0.00000E+00
 -1      2282 0.00000E+00 0.00000E+00 0.00000E+00
 -1      2283 0.00000E+00 0.00000E+00 0.00000E+00
 -1      2284 0.00000E+00 0.00000E+00 0.00000E+00
 -1      2285 0.00000E+00 0.00000E+00 0.00000E+00
 -1      2286 0.00000E+00 0.00000E+00 0.00000E+00
 -1      2287 0.00000E+00 0.00000E+00 0.00000E+00
 -1      2288 0.00000E+00 0.00000E+00 0.00000E+00
 -1      2289 0.00000E+00 0.00000E+00 0.00000E+00
 -1      2290 0.00000E+00 0.00000E+00 0.00000E+00
 -1      2291 0.00000E+00 0.00000E+00 0.00000E+00
 -1      2292 0.00000E+00 0.00000E+00 0.00000E+00
 -1      2293 0.00000E+00 0.00000E+00 0.00000E+00
 -1      2294 0.00000E+00 0.00000E+00 0.00000E+00
 -1      2295 0.00000E+00 0.00000E+00 0.00000E+00
 -1      2296 0.00000E+00 0.00000E+00 0.00000E+00
 -1      2297 0.00000E+00 0.00000E+00 0.00000E+00
 -1      2298 0.00000E+00 0.00000E+00 0.00000E+00
 -1      2299 0.00000E+00 0.00000E+00 0.00000E+00
 -1      2300 0.00000E+00 0.00000E+00 0.00000E+00
 -1      2301 0.00000E+00 0.00000E+00 0.00000E+00
 -1      2302 0.00000E+00 0.00000E+00 0.00000E+00
 -1      2303 0.00000E+00 0.00000E+00 0.00000E+00
 -1      2304 0.00000E+00 0.00000E+00 0.00000E+00
 -1      2305 0.00000E+00 0.00000E+00 0.00000E+00
 -1      2306 0.00000E+00 0.00000E+00 0.00000E+00
 -1      2307 0.00000E+00 0.00000E+00 0.00000E+00
 -1      2308 0.00000E+00 0.00000E+00 0.00000E+00
 -1      2309 0.00000E+00 0.00000E+00 0.00000E+00
 -1      2310 0.00000E+00 0.00000E+00 0.00000E+00
 -1      2311 0.00000E+00 0.00000E+00 0.00000E+00
 -1      2312 0.00000E+00 0.00000E+00 0.00000E+00
 -1      2313 0.00000E+00 0.00000E+00 0.00000E+00
 -1      2314 0.00000E+00 0.00000E+00 0.00000E+00
 -1      2315 0.00000E+00 0.00000E+00 0.00000E+00
 -1      2316 0.00000E+00 0.00000E+00 0.00000E+00
 -1      2317 0.00000E+00 0.00000E+00 0.00000E+00
 -1      2318 0.00000E+00 0.00000E+00 0.00000E+00
 -1      2319 0.00000E+00 0.00000E+00 0.00000E+00
 -1      2320 0.00000E+00 0.00000E+00 0.00000E+00
 -1      2321 0.00000E+00 0.00000E+00 0.00000E+00
 -1      2322 0.00000E+00 0.00000E+00 0.00000E+00
 -1      2323 0.00000E+00 0.00000E+00 0.00000E+00
 -1      2324 0.00000E+00 0.00000E+00 0.00000E+00
 -1      2325 0.00000E+00 0.00000E+00 0.00000E+00
 -1      2326 0.00000E+00 0.00000E+00 0.00000E+00
 -1      2327 0.00000E+00 0.00000E+00 0.00000E+00
 -1      2328 0.00000E+00 0.00000E+00 0.00000E+00
 -1      2329 0.00000E+00 0.00000E+00 0.00000E+00
 -1      2330 0.00000E+00 0.00000E+00 0.00000E+00
 -1      2331 0.00000E+00 0.00000E+00 0.00000E+00
 -1      2332 0.00000E+00 0.00000E+00 0.00000E+00
 -1      2333 0.00000E+00 0.00000E+00 0.00000E+00
 -1      2334 0.00000E+00 0.00000E+00 0.00000E+00
 -1      2335 0.00000E+00 0.00000E+00 0.00000E+00
 -1      2336 0.00000E+00 0.00000E+00 0.00000E+00
 -1      2337 0.00000E+00 0.00000E+00 0.00000E+00
 -1      2338 0.00000E+00 0.00000E+00 0.00000E+00
 -1      2339 0.00000E+00 0.00000E+00 0.00000E+00
 -1      2340 0.00000E+00 0.00000E+00 0.00000E+00
 -1      2341 0.00000E+00 0.00000E+00 0.00000E+00
 -1      2342 0.00000E+00 0.00000E+00 0.00000E+00
 -1      2343 0.00000E+00 0.00000E+00 0.00000E+00
 -1      2344 0.00000E+00 0.00000E+00 0.00000E+00
 -1      2345 0.00000E+00 0.00000E+00 0.00000E+00
 -1      2346 0.00000E+00 0.00000E+00 0.00000E+00
 -1      2347 0.00000E+00 0.00000E+00 0.00000E+00
 -1      2348 0.00000E+00 0.00000E+00 0.00000E+00
 -1      2349 0.00000E+00 0.00000E+00 0.00000E+00
 -1      2350 0.00000E+00 0.00000E+00 0.00000E+00
 -1      2351 0.00000E+00 0.00000E+00 0.00000E+00
 -1      2352 0.00000E+00 0.00000E+00 0.00000E+00
 -1      2353 0.00000E+00 0.00000E+00 0.00000E+00
 -1      2354 0.00000E+00 0.00000E+00 0.00000E+00
 -1      2355 0.00000E+00 0.00000E+00 0.00000E+00
 -1      2356 0.00000E+00 0.00000E+00 0.00000E+00
 -1      2357 0.00000E+00 0.00000E+00 0.00000E+00
 -1      2358 0.00000E+00 0.00000E+00 0.00000E+00
 -1      2359 0.00000E+00 0.00000E+00 0.00000E+00
 -1      2360 0.00000E+00 0.00000E+00 0.00000E+00
 -1      2361 0.00000E+00 0.00000E+00 0.00000E+00
 -1      2362 0.00000E+00 0.00000E+00 0.00000E+00
 -1      2363 0.00000E+00 0.00000E+00 0.00000E+00
 -1      2364 0.00000E+00 0.00000E+00 0.00000E+00
 -1      2365 0.00000E+00 0.00000E+00 0.00000E+00
 -1      2366 0.00000E+00 0.00000E+00 0.00000E+00
 -1      2367 0.00000E+00 0.00000E+00 0.00000E+00
 -1      2368 0.00000E+00 0.00000E+00 0.00000E+00
 -1      2369 0.00000E+00 0.00000E+00 0.00000E+00
 -1      2370 0.00000E+00 0.00000E+00 0.00000E+00
 -1      2371 0.00000E+00 0.00000E+00 0.00000E+00
 -1      2372 0.00000E+00 0.00000E+00 0.00000E+00
 -1      2373 0.00000E+00 0.00000E+00 0.00000E+00
 -1      2374 0.00000E+00 0.00000E+00 0.00000E+00
 -1      2375 0.00000E+00 0.00000E+00 0.00000E+00
 -1      2376 0.00000E+00 0.00000E+00 0.00000E+00
 -1      2377 0.00000E+00 0.00000E+00 0.00000E+00
 -1      2378 0.00000E+00 0.00000E+00 0.00000E+00
 -1      2379 0.00000E+00 0.00000E+00 0.00000E+00
 -1      2380 0.00000E+00 0.00000E+00 0.00000E+00
 -1      2381 0.00000E+00 0.00000E+00 0.00000E+00
 -1      2382 0.00000E+00 0.00000E+00 0.00000E+00
 -1      2383 0.00000E+00 0.00000E+00 0.00000E+00
 -1      2384 0.00000E+00 0.00000E+00 0.00000E+00
 -1      2385 0.00000E+00 0.00000E+00 0.00000E+00
 -1      2386 0.00000E+00 0.00000E+00 0.00000E+00
 -1      2387 0.00000E+00 0.00000E+00 0.00000E+00
 -1      2388 0.00000E+00 0.00000E+00 0.00000E+00
 -1      2389 0.00000E+00 0.00000E+00 0.00000E+00
 -1      2390 0.00000E+00 0.00000E+00 0.00000E+00
 -1      2391 0.00000E+00 0.00000E+00 0.00000E+00
 -1      2392 0.00000E+00 0.00000E+00 0.00000E+00
 -1      2393 0.00000E+00 0.00000E+00 0.00000E+00
 -1      2394 0.00000E+00 0.00000E+00 0.00000E+00
 -1      2395 0.00000E+00 0.00000E+00 0.00000E+00
 -1      2396 0.00000E+00 0.00000E+00 0.00000E+00
 -1      2397 0.00000E+00 0.00000E+00 0.00000E+00
 -1      2398 0.00000E+00 0.00000E+00 0.00000E+00
 -1      2399 0.00000E+00 0.00000E+00 0.00000E+00
 -1      2400 0.00000E+00 0.00000E+00 0.00000E+00
 -1      2401 0.00000E+00 0.00000E+00 0.00000E+00
 -1      2402 0.00000E+00 0.00000E+00 0.00000E+00
 -1      2403 0.00000E+00 0.00000E+00 0.00000E+00
 -1      2404 0.00000E+00 0.00000E+00 0.00000E+00
 -1      2405 0.00000E+00 0.00000E+00 0.00000E+00
 -1      2406 0.00000E+00 0.00000E+00 0.00000E+00
 -1      2407 0.00000E+00 0.00000E+00 0.00000E+00
 -1      2408 0.00000E+00 0.00000E+00 0.00000E+00
 -1      2409 0.00000E+00 0.00000E+00 0.00000E+00
 -1      2410 0.00000E+00 0.00000E+00 0.00000E+00
 -1      2411 0.00000E+00 0.00000E+00 0.00000E+00
 -1      2412 0.00000E+00 0.00000E+00 0.00000E+00
 -1      2413 0.00000E+00 0.00000E+00 0.00000E+00
 -1      2414 0.00000E+00 0.00000E+00 0.00000E+00
 -1      2415 0.00000E+00 0.00000E+00 0.00000E+00
 -1      2416 0.00000E+00 0.00000E+00 0.00000E+00
 -1      2417 0.00000E+00 0.00000E+00 0.00000E+00
 -1      2418 0.00000E+00 0.00000E+00 0.00000E+00
 -1      2419 0.00000E+00 0.00000E+00 0.00000E+00
 -1      2420 0.00000E+00 0.00000E+00 0.00000E+00
 -1      2421 0.00000E+00 0.00000E+00 0.00000E+00
 -1      2422 0.00000E+00 0.00000E+00 0.00000E+00
 -1      2423 0.00000E+00 0.00000E+00 0.00000E+00
 -1      2424 0.00000E+00 0.00000E+00 0.00000E+00
 -1      2425 0.00000E+00 0.00000E+00 0.00000E+00
 -1      2426 0.00000E+00 0.00000E+00 0.00000E+00
 -1      2427 0.00000E+00 0.00000E+00 0.00000E+00
 -1      2428 0.00000E+00 0.00000E+00 0.00000E+00
 -1      2429 0.00000E+00 0.00000E+00 0.00000E+00
 -1      2430 0.00000E+00 0.00000E+00 0.00000E+00
 -1      2431 0.00000E+00 0.00000E+00 0.00000E+00
 -1      2432 0.00000E+00 0.00000E+00 0.00000E+00
 -1      2433 0.00000E+00 0.00000E+00 0.00000E+00
 -1      2434 0.00000E+00 0.00000E+00 0.00000E+00
 -1      2435 0.00000E+00 0.00000E+00 0.00000E+00
 -1      2436 0.00000E+00 0.00000E+00 0.00000E+00
 -1      2437 0.00000E+00 0.00000E+00 0.00000E+00
 -1      2438 0.00000E+00 0.00000E+00 0.00000E+00
 -1      2439 0.00000E+00 0.00000E+00 0.00000E+00
 -1      2440 0.00000E+00 0.00000E+00 0.00000E+00
 -1      2441 0.00000E+00 0.00000E+00 0.00000E+00
 -1      2442 0.00000E+00 0.00000E+00 0.00000E+00
 -1      2443 0.00000E+00 0.00000E+00 0.00000E+00
 -1      2444 0.00000E+00 0.00000E+00 0.00000E+00
 -1      2445 0.00000E+00 0.00000E+00 0.00000E+00
 -1      2446 0.00000E+00 0.00000E+00 0.00000E+00
 -1      2447 0.00000E+00 0.00000E+00 0.00000E+00
 -1      2448 0.00000E+00 0.00000E+00 0.00000E+00
 -1      2449 0.00000E+00 0.00000E+00 0.00000E+00
 -1      2450 0.00000E+00 0.00000E+00 0.00000E+00
 -1      2451 0.00000E+00 0.00000E+00 0.00000E+00
 -1      2452 0.00000E+00 0.00000E+00 0.00000E+00
 -1      2453 0.00000E+00 0.00000E+00 0.00000E+00
 -1      2454 0.00000E+00 0.00000E+00 0.00000E+00
 -1      2455 0.00000E+00 0.00000E+00 0.00000E+00
 -1      2456 0.00000E+00 0.00000E+00 0.00000E+00
 -1      2457 0.00000E+00 0.00000E+00 0.00000E+00
 -1      2458 0.00000E+00 0.00000E+00 0.00000E+00
 -1      2459 0.00000E+00 0.00000E+00 0.00000E+00
 -1      2460 0.00000E+00 0.00000E+00 0.00000E+00
 -1      2461 0.00000E+00 0.00000E+00 0.00000E+00
 -1      2462 0.00000E+00 0.00000E+00 0.00000E+00
 -1      2463 0.00000E+00 0.00000E+00 0.00000E+00
 -1      2464 0.00000E+00 0.00000E+00 0.00000E+00
 -1      2465 0.00000E+00 0.00000E+00 0.00000E+00
 -1      2466 0.00000E+00 0.00000E+00 0.00000E+00
 -1      2467 0.00000E+00 0.00000E+00 0.00000E+00
 -1      2468 0.00000E+00 0.00000E+00 0.00000E+00
 -1      2469 0.00000E+00 0.00000E+00 0.00000E+00
 -1      2470 0.00000E+00 0.00000E+00 0.00000E+00
 -1      2471 0.00000E+00 0.00000E+00 0.00000E+00
 -1      2472 0.00000E+00 0.00000E+00 0.00000E+00
 -1      2473 0.00000E+00 0.00000E+00 0.00000E+00
 -1      2474 0.00000E+00 0.00000E+00 0.00000E+00
 -1      2475 0.00000E+00 0.00000E+00 0.00000E+00
 -1      2476 0.00000E+00 0.00000E+00 0.00000E+00
 -1      2477 0.00000E+00 0.00000E+00 0.00000E+00
 -1      2478 0.00000E+00 0.00000E+00 0.00000E+00
 -1      2479 0.00000E+00 0.00000E+00 0.00000E+00
 -1      2480 0.00000E+00 0.00000E+00 0.00000E+00
 -1      2481 0.00000E+00 0.00000E+00 0.00000E+00
 -1      2482 0.00000E+00 0.00000E+00 0.00000E+00
 -1      2483 0.00000E+00 0.00000E+00 0.00000E+00
 -1      2484 0.00000E+00 0.00000E+00 0.00000E+00
 -1      2485 0.00000E+00 0.00000E+00 0.00000E+00
 -1      2486 0.00000E+00 0.00000E+00 0.00000E+00
 -1      2487 0.00000E+00 0.00000E+00 0.00000E+00
 -1      2488 0.00000E+00 0.00000E+00 0.00000E+00
 -1      2489 0.00000E+00 0.00000E+00 0.00000E+00
 -1      2490 0.00000E+00 0.00000E+00 0.00000E+00
 -1      2491 0.00000E+00 0.00000E+00 0.00000E+00
 -1      2492 0.00000E+00 0.00000E+00 0.00000E+00
 -1      2493 0.00000E+00 0.00000E+00 0.00000E+00
 -1      2494 0.00000E+00 0.00000E+00 0.00000E+00
 -1      2495 0.00000E+00 0.00000E+00 0.00000E+00
 -1      2496 0.00000E+00 0.00000E+00 0.00000E+00
 -1      2497 0.00000E+00 0.00000E+00 0.00000E+00
 -1      2498 0.00000E+00 0.00000E+00 0.00000E+00
 -1      2499 0.00000E+00 0.00000E+00 0.00000E+00
 -1      2500 0.00000E+00 0.00000E+00 0.00000E+00
 -1      2501 0.00000E+00 0.00000E+00 0.00000E+00
 -1      2502 0.00000E+00 0.00000E+00 0.00000E+00
 -1      2503 0.00000E+00 0.00000E+00 0.00000E+00
 -1      2504 0.00000E+00 0.00000E+00 0.00000E+00
 -1      2505 0.00000E+00 0.00000E+00 0.00000E+00
 -1      2506 0.00000E+00 0.00000E+00 0.00000E+00
 -1      2507 0.00000E+00 0.00000E+00 0.00000E+00
 -1      2508 0.00000E+00 0.00000E+00 0.00000E+00
 -1      2509 0.00000E+00 0.00000E+00 0.00000E+00
 -1      2510 0.00000E+00 0.00000E+00 0.00000E+00
 -1      2511 0.00000E+00 0.00000E+00 0.00000E+00
 -1      2512 0.00000E+00 0.00000E+00 0.00000E+00
 -1      2513 0.00000E+00 0.00000E+00 0.00000E+00
 -1      2514 0.00000E+00 0.00000E+00 0.00000E+00
 -1      2515 0.00000E+00 0.00000E+00 0.00000E+00
 -1      2516 0.00000E+00 0.00000E+00 0.00000E+00
 -1      2517 0.00000E+00 0.00000E+00 0.00000E+00
 -1      2518 0.00000E+00 0.00000E+00 0.00000E+00
 -1      2519 0.00000E+00 0.00000E+00 0.00000E+00
 -1      2520 0.00000E+00 0.00000E+00 0.00000E+00
 -1      2521 0.00000E+00 0.00000E+00 0.00000E+00
 -1      2522 0.00000E+00 0.00000E+00 0.00000E+00
 -1      2523 0.00000E+00 0.00000E+00 0.00000E+00
 -1      2524 0.00000E+00 0.00000E+00 0.00000E+00
 -1      2525 0.00000E+00 0.00000E+00 0.00000E+00
 -1      2526 0.00000E+00 0.00000E+00 0.00000E+00
 -1      2527 0.00000E+00 0.00000E+00 0.00000E+00
 -1      2528 0.00000E+00 0.00000E+00 0.00000E+00
 -1      2529 0.00000E+00 0.00000E+00 0.00000E+00
 -1      2530 0.00000E+00 0.00000E+00 0.00000E+00
 -1      2531 0.00000E+00 0.00000E+00 0.00000E+00
 -1      2532 0.00000E+00 0.00000E+00 0.00000E+00
 -1      2533 0.00000E+00 0.00000E+00 0.00000E+00
 -1      2534 0.00000E+00 0.00000E+00 0.00000E+00
 -1      2535 0.00000E+00 0.00000E+00 0.00000E+00
 -1      2536 0.00000E+00 0.00000E+00 0.00000E+00
 -1      2537 0.00000E+00 0.00000E+00 0.00000E+00
 -1      2538 0.00000E+00 0.00000E+00 0.00000E+00
 -1      2539 0.00000E+00 0.00000E+00 0.00000E+00
 -1      2540 0.00000E+00 0.00000E+00 0.00000E+00
 -1      2541 0.00000E+00 0.00000E+00 0.00000E+00
 -1      2542 0.00000E+00 0.00000E+00 0.00000E+00
 -1      2543 0.00000E+00 0.00000E+00 0.00000E+00
 -1      2544 0.00000E+00 0.00000E+00 0.00000E+00
 -1      2545 0.00000E+00 0.00000E+00 0.00000E+00
 -1      2546 0.00000E+00 0.00000E+00 0.00000E+00
 -1      2547 0.00000E+00 0.00000E+00 0.00000E+00
 -1      2548 0.00000E+00 0.00000E+00 0.00000E+00
 -1      2549 0.00000E+00 0.00000E+00 0.00000E+00
 -1      2550 0.00000E+00 0.00000E+00 0.00000E+00
 -1      2551 0.00000E+00 0.00000E+00 0.00000E+00
 -1      2552 0.00000E+00 0.00000E+00 0.00000E+00
 -1      2553 0.00000E+00 0.00000E+00 0.00000E+00
 -1      2554 0.00000E+00 0.00000E+00 0.00000E+00
 -1      2555 0.00000E+00 0.00000E+00 0.00000E+00
 -1      2556 0.00000E+00 0.00000E+00 0.00000E+00
 -1      2557 0.00000E+00 0.00000E+00 0.00000E+00
 -1      2558 0.00000E+00 0.00000E+00 0.00000E+00
 -1      2559 0.00000E+00 0.00000E+00 0.00000E+00
 -1      2560 0.00000E+00 0.00000E+00 0.00000E+00
 -1      2561 0.00000E+00 0.00000E+00 0.00000E+00
 -1      2562 0.00000E+00 0.00000E+00 0.00000E+00
 -1      2563 0.00000E+00 0.00000E+00 0.00000E+00
 -1      2564 0.00000E+00 0.00000E+00 0.00000E+00
 -1      2565 0.00000E+00 0.00000E+00 0.00000E+00
 -1      2566 0.00000E+00 0.00000E+00 0.00000E+00
 -1      2567 0.00000E+00 0.00000E+00 0.00000E+00
 -1      2568 0.00000E+00 0.00000E+00 0.00000E+00
 -1      2569 0.00000E+00 0.00000E+00 0.00000E+00
 -1      2570 0.00000E+00 0.00000E+00 0.00000E+00
 -1      2571 0.00000E+00 0.00000E+00 0.00000E+00
 -1      2572 0.00000E+00 0.00000E+00 0.00000E+00
 -1      2573 0.00000E+00 0.00000E+00 0.00000E+00
 -1      2574 0.00000E+00 0.00000E+00 0.00000E+00
 -1      2575 0.00000E+00 0.00000E+00 0.00000E+00
 -1      2576 0.00000E+00 0.00000E+00 0.00000E+00
 -1      2577 0.00000E+00 0.00000E+00 0.00000E+00
 -1      2578 0.00000E+00 0.00000E+00 0.00000E+00
 -1      2579 0.00000E+00 0.00000E+00 0.00000E+00
 -1      2580 0.00000E+00 0.00000E+00 0.00000E+00
 -1      2581 0.00000E+00 0.00000E+00 0.00000E+00
 -1      2582 0.00000E+00 0.00000E+00 0.00000E+00
 -1      2583 0.00000E+00 0.00000E+00 0.00000E+00
 -1      2584 0.00000E+00 0.00000E+00 0.00000E+00
 -1      2585 0.00000E+00 0.00000E+00 0.00000E+00
 -1      2586 0.00000E+00 0.00000E+00 0.00000E+00
 -1      2587 0.00000E+00 0.00000E+00 0.00000E+00
 -1      2588 0.00000E+00 0.00000E+00 0.00000E+00
 -1      2589 0.00000E+00 0.00000E+00 0.00000E+00
 -1      2590 0.00000E+00 0.00000E+00 0.00000E+00
 -1      2591 0.00000E+00 0.00000E+00 0.00000E+00
 -1      2592 0.00000E+00 0.00000E+00 0.00000E+00
 -1      2593 0.00000E+00 0.00000E+00 0.00000E+00
 -1      2594 0.00000E+00 0.00000E+00 0.00000E+00
 -1      2595 0.00000E+00 0.00000E+00 0.00000E+00
 -1      2596 0.00000E+00 0.00000E+00 0.00000E+00
 -1      2597 0.00000E+00 0.00000E+00 0.00000E+00
 -1      2598 0.00000E+00 0.00000E+00 0.00000E+00
 -1      2599 0.00000E+00 0.00000E+00 0.00000E+00
 -1      2600 0.00000E+00 0.00000E+00 0.00000E+00
 -1      2601 0.00000E+00 0.00000E+00 0.00000E+00
 -1      2602 0.00000E+00 0.00000E+00 0.00000E+00
 -1      2603 0.00000E+00 0.00000E+00 0.00000E+00
 -1      2604 0.00000E+00 0.00000E+00 0.00000E+00
 -1      2605 0.00000E+00 0.00000E+00 0.00000E+00
 -1      2606 0.00000E+00 0.00000E+00 0.00000E+00
 -1      2607 0.00000E+00 0.00000E+00 0.00000E+00
 -1      2608 0.00000E+00 0.00000E+00 0.00000E+00
 -1      2609 0.00000E+00 0.00000E+00 0.00000E+00
 -1      2610 0.00000E+00 0.00000E+00 0.00000E+00
 -1      2611 0.00000E+00 0.00000E+00 0.00000E+00
 -1      2612 0.00000E+00 0.00000E+00 0.00000E+00
 -1      2613 0.00000E+00 0.00000E+00 0.00000E+00
 -1      2614 0.00000E+00 0.00000E+00 0.00000E+00
 -1      2615 0.00000E+00 0.00000E+00 0.00000E+00
 -1      2616 0.00000E+00 0.00000E+00 0.00000E+00
 -1      2617 0.00000E+00 0.00000E+00 0.00000E+00
 -1      2618 0.00000E+00 0.00000E+00 0.00000E+00
 -1      2619 0.00000E+00 0.00000E+00 0.00000E+00
 -1      2620 0.00000E+00 0.00000E+00 0.00000E+00
 -1      2621 0.00000E+00 0.00000E+00 0.00000E+00
 -1      2622 0.00000E+00 0.00000E+00 0.00000E+00
 -1      2623 0.00000E+00 0.00000E+00 0.00000E+00
 -1      2624 0.00000E+00 0.00000E+00 0.00000E+00
 -1      2625 0.00000E+00 0.00000E+00 0.00000E+00
 -1      2626 0.00000E+00 0.00000E+00 0.00000E+00
 -1      2627 0.00000E+00 0.00000E+00 0.00000E+00
 -1      2628 0.00000E+00 0.00000E+00 0.00000E+00
 -1      2629 0.00000E+00 0.00000E+00 0.00000E+00
 -1      2630 0.00000E+00 0.00000E+00 0.00000E+00
 -1      2631 0.00000E+00 0.00000E+00 0.00000E+00
 -1      2632 0.00000E+00 0.00000E+00 0.00000E+00
 -1      2633 0.00000E+00 0.00000E+00 0.00000E+00
 -1      2634 0.00000E+00 0.00000E+00 0.00000E+00
 -1      2635 0.00000E+00 0.00000E+00 0.00000E+00
 -1      2636 0.00000E+00 0.00000E+00 0.00000E+00
 -1      2637 0.00000E+00 0.00000E+00 0.00000E+00
 -1      2638 0.00000E+00 0.00000E+00 0.00000E+00
 -1      2639 0.00000E+00 0.00000E+00 0.00000E+00
 -1      2640 0.00000E+00 0.00000E+00 0.00000E+00
 -1      2641 0.00000E+00 0.00000E+00 0.00000E+00
 -1      2642 0.00000E+00 0.00000E+00 0.00000E+00
 -1      2643 0.00000E+00 0.00000E+00 0.00000E+00
 -1      2644 0.00000E+00 0.00000E+00 0.00000E+00
 -1      2645 0.00000E+00 0.00000E+00 0.00000E+00
 -1      2646 0.00000E+00 0.00000E+00 0.00000E+00
 -1      2647 0.00000E+00 0.00000E+00 0.00000E+00
 -1      2648 0.00000E+00 0.00000E+00 0.00000E+00
 -1      2649 0.00000E+00 0.00000E+00 0.00000E+00
 -1      2650 0.00000E+00 0.00000E+00 0.00000E+00
 -1      2651 0.00000E+00 0.00000E+00 0.00000E+00
 -1      2652 0.00000E+00 0.00000E+00 0.00000E+00
 -1      2653 0.00000E+00 0.00000E+00 0.00000E+00
 -1      2654 0.00000E+00 0.00000E+00 0.00000E+00
 -1      2655 0.00000E+00 0.00000E+00 0.00000E+00
 -1      2656 0.00000E+00 0.00000E+00 0.00000E+00
 -1      2657 0.00000E+00 0.00000E+00 0.00000E+00
 -1      2658 0.00000E+00 0.00000E+00 0.00000E+00
 -1      2659 0.00000E+00 0.00000E+00 0.00000E+00
 -1      2660 0.00000E+00 0.00000E+00 0.00000E+00
 -1      2661 0.00000E+00 0.00000E+00 0.00000E+00
 -1      2662 0.00000E+00 0.00000E+00 0.00000E+00
 -1      2663 0.00000E+00 0.00000E+00 0.00000E+00
 -1      2664 0.00000E+00 0.00000E+00 0.00000E+00
 -1      2665 0.00000E+00 0.00000E+00 0.00000E+00
 -1      2666 0.00000E+00 0.00000E+00 0.00000E+00
 -1      2667 0.00000E+00 0.00000E+00 0.00000E+00
 -1      2668 0.00000E+00 0.00000E+00 0.00000E+00
 -1      2669 0.00000E+00 0.00000E+00 0.00000E+00
 -1      2670 0.00000E+00 0.00000E+00 0.00000E+00
 -1      2671 0.00000E+00 0.00000E+00 0.00000E+00
 -1      2672 0.00000E+00 0.00000E+00 0.00000E+00
 -1      2673 0.00000E+00 0.00000E+00 0.00000E+00
 -1      2674 0.00000E+00 0.00000E+00 0.00000E+00
 -1      2675 0.00000E+00 0.00000E+00 0.00000E+00
 -1      2676 0.00000E+00 0.00000E+00 0.00000E+00
 -1      2677 0.00000E+00 0.00000E+00 0.00000E+00
 -1      2678 0.00000E+00 0.00000E+00 0.00000E+00
 -1      2679 0.00000E+00 0.00000E+00 0.00000E+00
 -1      2680 0.00000E+00 0.00000E+00 0.00000E+00
 -1      2681 0.00000E+00 0.00000E+00 0.00000E+00
 -1      2682 0.00000E+00 0.00000E+00 0.00000E+00
 -1      2683 0.00000E+00 0.00000E+00 0.00000E+00
 -1      2684 0.00000E+00 0.00000E+00 0.00000E+00
 -1      2685 0.00000E+00 0.00000E+00 0.00000E+00
 -1      2686 0.00000E+00 0.00000E+00 0.00000E+00
 -1      2687 0.00000E+00 0.00000E+00 0.00000E+00
 -1      2688 0.00000E+00 0.00000E+00 0.00000E+00
 -1      2689 0.00000E+00 0.00000E+00 0.00000E+00
 -1      2690 0.00000E+00 0.00000E+00 0.00000E+00
 -1      2691 0.00000E+00 0.00000E+00 0.00000E+00
 -1      2692 0.00000E+00 0.00000E+00 0.00000E+00
 -1      2693 0.00000E+00 0.00000E+00 0.00000E+00
 -1      2694 0.00000E+00 0.00000E+00 0.00000E+00
 -1      2695 0.00000E+00 0.00000E+00 0.00000E+00
 -1      2696 0.00000E+00 0.00000E+00 0.00000E+00
 -1      2697 0.00000E+00 0.00000E+00 0.00000E+00
 -1      2698 0.00000E+00 0.00000E+00 0.00000E+00
 -1      2699 0.00000E+00 0.00000E+00 0.00000E+00
 -1      2700 0.00000E+00 0.00000E+00 0.00000E+00
 -1      2701 0.00000E+00 0.00000E+00 0.00000E+00
 -1      2702 0.00000E+00 0.00000E+00 0.00000E+00
 -1      2703 0.00000E+00 0.00000E+00 0.00000E+00
 -1      2704 0.00000E+00 0.00000E+00 0.00000E+00
 -1      2705 0.00000E+00 0.00000E+00 0.00000E+00
 -1      2706 0.00000E+00 0.00000E+00 0.00000E+00
 -1      2707 0.00000E+00 0.00000E+00 0.00000E+00
 -1      2708 0.00000E+00 0.00000E+00 0.00000E+00
 -1      2709 0.00000E+00 0.00000E+00 0.00000E+00
 -1      2710 0.00000E+00 0.00000E+00 0.00000E+00
 -1      2711 0.00000E+00 0.00000E+00 0.00000E+00
 -1      2712 0.00000E+00 0.00000E+00 0.00000E+00
 -1      2713 0.00000E+00 0.00000E+00 0.00000E+00
 -1      2714 0.00000E+00 0.00000E+00 0.00000E+00
 -1      2715 0.00000E+00 0.00000E+00 0.00000E+00
 -1      2716 0.00000E+00 0.00000E+00 0.00000E+00
 -1      2717 0.00000E+00 0.00000E+00 0.00000E+00
 -1      2718 0.00000E+00 0.00000E+00 0.00000E+00
 -1      2719 0.00000E+00 0.00000E+00 0.00000E+00
 -1      2720 0.00000E+00 0.00000E+00 0.00000E+00
 -1      2721 0.00000E+00 0.00000E+00 0.00000E+00
 -1      2722 0.00000E+00 0.00000E+00 0.00000E+00
 -1      2723 0.00000E+00 0.00000E+00 0.00000E+00
 -1      2724 0.00000E+00 0.00000E+00 0.00000E+00
 -1      2725 0.00000E+00 0.00000E+00 0.00000E+00
 -1      2726 0.00000E+00 0.00000E+00 0.00000E+00
 -1      2727 0.00000E+00 0.00000E+00 0.00000E+00
 -1      2728 0.00000E+00 0.00000E+00 0.00000E+00
 -1      2729 0.00000E+00 0.00000E+00 0.00000E+00
 -1      2730 0.00000E+00 0.00000E+00 0.00000E+00
 -1      2731 0.00000E+00 0.00000E+00 0.00000E+00
 -1      2732 0.00000E+00 0.00000E+00 0.00000E+00
 -1      2733 0.00000E+00 0.00000E+00 0.00000E+00
 -1      2734 0.00000E+00 0.00000E+00 0.00000E+00
 -1      2735 0.00000E+00 0.00000E+00 0.00000E+00
 -1      2736 0.00000E+00 0.00000E+00 0.00000E+00
 -1      2737 0.00000E+00 0.00000E+00 0.00000E+00
 -1      2738 0.00000E+00 0.00000E+00 0.00000E+00
 -1      2739 0.00000E+00 0.00000E+00 0.00000E+00
 -1      2740 0.00000E+00 0.00000E+00 0.00000E+00
 -1      2741 0.00000E+00 0.00000E+00 0.00000E+00
 -1      2742 0.00000E+00 0.00000E+00 0.00000E+00
 -1      2743 0.00000E+00 0.00000E+00 0.00000E+00
 -1      2744 0.00000E+00 0.00000E+00 0.00000E+00
 -1      2745 0.00000E+00 0.00000E+00 0.00000E+00
 -1      2746 0.00000E+00 0.00000E+00 0.00000E+00
 -1      2747 0.00000E+00 0.00000E+00 0.00000E+00
 -1      2748 0.00000E+00 0.00000E+00 0.00000E+00
 -1      2749 0.00000E+00 0.00000E+00 0.00000E+00
 -1      2750 0.00000E+00 0.00000E+00 0.00000E+00
 -1      2751 0.00000E+00 0.00000E+00 0.00000E+00
 -1      2752 0.00000E+00 0.00000E+00 0.00000E+00
 -1      2753 0.00000E+00 0.00000E+00 0.00000E+00
 -1      2754 0.00000E+00 0.00000E+00 0.00000E+00
 -1      2755 0.00000E+00 0.00000E+00 0.00000E+00
 -1      2756 0.00000E+00 0.00000E+00 0.00000E+00
 -1      2757 0.00000E+00 0.00000E+00 0.00000E+00
 -1      2758 0.00000E+00 0.00000E+00 0.00000E+00
 -1      2759 0.00000E+00 0.00000E+00 0.00000E+00
 -1      2760 0.00000E+00 0.00000E+00 0.00000E+00
 -1      2761 0.00000E+00 0.00000E+00 0.00000E+00
 -1      2762 0.00000E+00 0.00000E+00 0.00000E+00
 -1      2763 0.00000E+00 0.00000E+00 0.00000E+00
 -1      2764 0.00000E+00 0.00000E+00 0.00000E+00
 -1      2765 0.00000E+00 0.00000E+00 0.00000E+00
 -1      2766 0.00000E+00 0.00000E+00 0.00000E+00
 -1      2767 0.00000E+00 0.00000E+00 0.00000E+00
 -1      2768 0.00000E+00 0.00000E+00 0.00000E+00
 -1      2769 0.00000E+00 0.00000E+00 0.00000E+00
 -1      2770 0.00000E+00 0.00000E+00 0.00000E+00
 -1      2771 0.00000E+00 0.00000E+00 0.00000E+00
 -1      2772 0.00000E+00 0.00000E+00 0.00000E+00
 -1      2773 0.00000E+00 0.00000E+00 0.00000E+00
 -1      2774 0.00000E+00 0.00000E+00 0.00000E+00
 -1      2775 0.00000E+00 0.00000E+00 0.00000E+00
 -1      2776 0.00000E+00 0.00000E+00 0.00000E+00
 -1      2777 0.00000E+00 0.00000E+00 0.00000E+00
 -1      2778 0.00000E+00 0.00000E+00 0.00000E+00
 -1      2779 0.00000E+00 0.00000E+00 0.00000E+00
 -1      2780 0.00000E+00 0.00000E+00 0.00000E+00
 -1      2781 0.00000E+00 0.00000E+00 0.00000E+00
 -1      2782 0.00000E+00 0.00000E+00 0.00000E+00
 -1      2783 0.00000E+00 0.00000E+00 0.00000E+00
 -1      2784 0.00000E+00 0.00000E+00 0.00000E+00
 -1      2785 0.00000E+00 0.00000E+00 0.00000E+00
 -1      2786 0.00000E+00 0.00000E+00 0.00000E+00
 -1      2787 0.00000E+00 0.00000E+00 0.00000E+00
 -1      2788 0.00000E+00 0.00000E+00 0.00000E+00
 -1      2789 0.00000E+00 0.00000E+00 0.00000E+00
 -1      2790 0.00000E+00 0.00000E+00 0.00000E+00
 -1      2791 0.00000E+00 0.00000E+00 0.00000E+00
 -1      2792 0.00000E+00 0.00000E+00 0.00000E+00
 -1      2793 0.00000E+00 0.00000E+00 0.00000E+00
 -1      2794 0.00000E+00 0.00000E+00 0.00000E+00
 -1      2795 0.00000E+00 0.00000E+00 0.00000E+00
 -1      2796 0.00000E+00 0.00000E+00 0.00000E+00
 -1      2797 0.00000E+00 0.00000E+00 0.00000E+00
 -1      2798 0.00000E+00 0.00000E+00 0.00000E+00
 -1      2799 0.00000E+00 0.00000E+00 0.00000E+00
 -1      2800 0.00000E+00 0.00000E+00 0.00000E+00
 -1      2801 0.00000E+00 0.00000E+00 0.00000E+00
 -1      2802 0.00000E+00 0.00000E+00 0.00000E+00
 -1      2803 0.00000E+00 0.00000E+00 0.00000E+00
 -1      2804 0.00000E+00 0.00000E+00 0.00000E+00
 -1      2805 0.00000E+00 0.00000E+00 0.00000E+00
 -1      2806 0.00000E+00 0.00000E+00 0.00000E+00
 -1      2807 0.00000E+00 0.00000E+00 0.00000E+00
 -1      2808 0.00000E+00 0.00000E+00 0.00000E+00
 -1      2809 0.00000E+00 0.00000E+00 0.00000E+00
 -1      2810 0.00000E+00 0.00000E+00 0.00000E+00
 -1      2811 0.00000E+00 0.00000E+00 0.00000E+00
 -1      2812 0.00000E+00 0.00000E+00 0.00000E+00
 -1      2813 0.00000E+00 0.00000E+00 0.00000E+00
 -1      2814 0.00000E+00 0.00000E+00 0.00000E+00
 -1      2815 0.00000E+00 0.00000E+00 0.00000E+00
 -1      2816 0.00000E+00 0.00000E+00 0.00000E+00
 -1      2817 0.00000E+00 0.00000E+00 0.00000E+00
 -1      2818 0.00000E+00 0.00000E+00 0.00000E+00
 -1      2819 0.00000E+00 0.00000E+00 0.00000E+00
 -1      2820 0.00000E+00 0.00000E+00 0.00000E+00
 -1      2821 0.00000E+00 0.00000E+00 0.00000E+00
 -1      2822 0.00000E+00 0.00000E+00 0.00000E+00
 -1      2823 0.00000E+00 0.00000E+00 0.00000E+00
 -1      2824 0.00000E+00 0.00000E+00 0.00000E+00
 -1      2825 0.00000E+00 0.00000E+00 0.00000E+00
 -1      2826 0.00000E+00 0.00000E+00 0.00000E+00
 -1      2827 0.00000E+00 0.00000E+00 0.00000E+00
 -1      2828 0.00000E+00 0.00000E+00 0.00000E+00
 -1      2829 0.00000E+00 0.00000E+00 0.00000E+00
 -1      2830 0.00000E+00 0.00000E+00 0.00000E+00
 -1      2831 0.00000E+00 0.00000E+00 0.00000E+00
 -1      2832 0.00000E+00 0.00000E+00 0.00000E+00
 -1      2833 0.00000E+00 0.00000E+00 0.00000E+00
 -1      2834 0.00000E+00 0.00000E+00 0.00000E+00
 -1      2835 0.00000E+00 0.00000E+00 0.00000E+00
 -1      2836 0.00000E+00 0.00000E+00 0.00000E+00
 -1      2837 0.00000E+00 0.00000E+00 0.00000E+00
 -1      2838 0.00000E+00 0.00000E+00 0.00000E+00
 -1      2839 0.00000E+00 0.00000E+00 0.00000E+00
 -1      2840 0.00000E+00 0.00000E+00 0.00000E+00
 -1      2841 0.00000E+00 0.00000E+00 0.00000E+00
 -1      2842 0.00000E+00 0.00000E+00 0.00000E+00
 -1      2843 0.00000E+00 0.00000E+00 0.00000E+00
 -1      2844 0.00000E+00 0.00000E+00 0.00000E+00
 -1      2845 0.00000E+00 0.00000E+00 0.00000E+00
 -1      2846 0.00000E+00 0.00000E+00 0.00000E+00
 -1      2847 0.00000E+00 0.00000E+00 0.00000E+00
 -1      2848 0.00000E+00 0.00000E+00 0.00000E+00
 -1      2849 0.00000E+00 0.00000E+00 0.00000E+00
 -1      2850 0.00000E+00 0.00000E+00 0.00000E+00
 -1      2851 0.00000E+00 0.00000E+00 0.00000E+00
 -1      2852 0.00000E+00 0.00000E+00 0.00000E+00
 -1      2853 0.00000E+00 0.00000E+00 0.00000E+00
 -1      2854 0.00000E+00 0.00000E+00 0.00000E+00
 -1      2855 0.00000E+00 0.00000E+00 0.00000E+00
 -1      2856 0.00000E+00 0.00000E+00 0.00000E+00
 -1      2857 0.00000E+00 0.00000E+00 0.00000E+00
 -1      2858 0.00000E+00 0.00000E+00 0.00000E+00
 -1      2859 0.00000E+00 0.00000E+00 0.00000E+00
 -1      2860 0.00000E+00 0.00000E+00 0.00000E+00
 -1      2861 0.00000E+00 0.00000E+00 0.00000E+00
 -1      2862 0.00000E+00 0.00000E+00 0.00000E+00
 -1      2863 0.00000E+00 0.00000E+00 0.00000E+00
 -1      2864 0.00000E+00 0.00000E+00 0.00000E+00
 -1      2865 0.00000E+00 0.00000E+00 0.00000E+00
 -1      2866 0.00000E+00 0.00000E+00 0.00000E+00
 -1      2867 0.00000E+00 0.00000E+00 0.00000E+00
 -1      2868 0.00000E+00 0.00000E+00 0.00000E+00
 -1      2869 0.00000E+00 0.00000E+00 0.00000E+00
 -1      2870 0.00000E+00 0.00000E+00 0.00000E+00
 -1      2871 0.00000E+00 0.00000E+00 0.00000E+00
 -1      2872 0.00000E+00 0.00000E+00 0.00000E+00
 -1      2873 0.00000E+00 0.00000E+00 0.00000E+00
 -1      2874 0.00000E+00 0.00000E+00 0.00000E+00
 -1      2875 0.00000E+00 0.00000E+00 0.00000E+00
 -1      2876 0.00000E+00 0.00000E+00 0.00000E+00
 -1      2877 0.00000E+00 0.00000E+00 0.00000E+00
 -1      2878 0.00000E+00 0.00000E+00 0.00000E+00
 -1      2879 0.00000E+00 0.00000E+00 0.00000E+00
 -1      2880 0.00000E+00 0.00000E+00 0.00000E+00
 -1      2881 0.00000E+00 0.00000E+00 0.00000E+00
 -1      2882 0.00000E+00 0.00000E+00 0.00000E+00
 -1      2883 0.00000E+00 0.00000E+00 0.00000E+00
 -1      2884 0.00000E+00 0.00000E+00 0.00000E+00
 -1      2885 0.00000E+00 0.00000E+00 0.00000E+00
 -1      2886 0.00000E+00 0.00000E+00 0.00000E+00
 -1      2887 0.00000E+00 0.00000E+00 0.00000E+00
 -1      2888 0.00000E+00 0.00000E+00 0.00000E+00
 -1      2889 0.00000E+00 0.00000E+00 0.00000E+00
 -1      2890 0.00000E+00 0.00000E+00 0.00000E+00
 -1      2891 0.00000E+00 0.00000E+00 0.00000E+00
 -1      2892 0.00000E+00 0.00000E+00 0.00000E+00
 -1      2893 0.00000E+00 0.00000E+00 0.00000E+00
 -1      2894 0.00000E+00 0.00000E+00 0.00000E+00
 -1      2895 0.00000E+00 0.00000E+00 0.00000E+00
 -1      2896 0.00000E+00 0.00000E+00 0.00000E+00
 -1      2897 0.00000E+00 0.00000E+00 0.00000E+00
 -1      2898 0.00000E+00 0.00000E+00 0.00000E+00
 -1      2899 0.00000E+00 0.00000E+00 0.00000E+00
 -1      2900 0.00000E+00 0.00000E+00 0.00000E+00
 -1      2901 0.00000E+00 0.00000E+00 0.00000E+00
 -1      2902 0.00000E+00 0.00000E+00 0.00000E+00
 -1      2903 0.00000E+00 0.00000E+00 0.00000E+00
 -1      2904 0.00000E+00 0.00000E+00 0.00000E+00
 -1      2905 0.00000E+00 0.00000E+00 0.00000E+00
 -1      2906 0.00000E+00 0.00000E+00 0.00000E+00
 -1      2907 0.00000E+00 0.00000E+00 0.00000E+00
 -1      2908 0.00000E+00 0.00000E+00 0.00000E+00
 -1      2909 0.00000E+00 0.00000E+00 0.00000E+00
 -1      2910 0.00000E+00 0.00000E+00 0.00000E+00
 -1      2911 0.00000E+00 0.00000E+00 0.00000E+00
 -1      2912 0.00000E+00 0.00000E+00 0.00000E+00
 -1      2913 0.00000E+00 0.00000E+00 0.00000E+00
 -1      2914 0.00000E+00 0.00000E+00 0.00000E+00
 -1      2915 0.00000E+00 0.00000E+00 0.00000E+00
 -1      2916 0.00000E+00 0.00000E+00 0.00000E+00
 -1      2917 0.00000E+00 0.00000E+00 0.00000E+00
 -1      2918 0.00000E+00 0.00000E+00 0.00000E+00
 -1      2919 0.00000E+00 0.00000E+00 0.00000E+00
 -1      2920 0.00000E+00 0.00000E+00 0.00000E+00
 -1      2921 0.00000E+00 0.00000E+00 0.00000E+00
 -1      2922 0.00000E+00 0.00000E+00 0.00000E+00
 -1      2923 0.00000E+00 0.00000E+00 0.00000E+00
 -1      2924 0.00000E+00 0.00000E+00 0.00000E+00
 -1      2925 0.00000E+00 0.00000E+00 0.00000E+00
 -1      2926 0.00000E+00 0.00000E+00 0.00000E+00
 -1      2927 0.00000E+00 0.00000E+00 0.00000E+00
 -1      2928 0.00000E+00 0.00000E+00 0.00000E+00
 -1      2929 0.00000E+00 0.00000E+00 0.00000E+00
 -1      2930 0.00000E+00 0.00000E+00 0.00000E+00
 -1      2931 0.00000E+00 0.00000E+00 0.00000E+00
 -1      2932 0.00000E+00 0.00000E+00 0.00000E+00
 -1      2933 0.00000E+00 0.00000E+00 0.00000E+00
 -1      2934 0.00000E+00 0.00000E+00 0.00000E+00
 -1      2935 0.00000E+00 0.00000E+00 0.00000E+00
 -1      2936 0.00000E+00 0.00000E+00 0.00000E+00
 -1      2937 0.00000E+00 0.00000E+00 0.00000E+00
 -1      2938 0.00000E+00 0.00000E+00 0.00000E+00
 -1      2939 0.00000E+00 0.00000E+00 0.00000E+00
 -1      2940 0.00000E+00 0.00000E+00 0.00000E+00
 -1      2941 0.00000E+00 0.00000E+00 0.00000E+00
 -1      2942 0.00000E+00 0.00000E+00 0.00000E+00
 -1      2943 0.00000E+00 0.00000E+00 0.00000E+00
 -1      2944 0.00000E+00 0.00000E+00 0.00000E+00
 -1      2945 0.00000E+00 0.00000E+00 0.00000E+00
 -1      2946 0.00000E+00 0.00000E+00 0.00000E+00
 -1      2947 0.00000E+00 0.00000E+00 0.00000E+00
 -1      2948 0.00000E+00 0.00000E+00 0.00000E+00
 -1      2949 0.00000E+00 0.00000E+00 0.00000E+00
 -1      2950 0.00000E+00 0.00000E+00 0.00000E+00
 -1      2951 0.00000E+00 0.00000E+00 0.00000E+00
 -1      2952 0.00000E+00 0.00000E+00 0.00000E+00
 -1      2953 0.00000E+00 0.00000E+00 0.00000E+00
 -1      2954 0.00000E+00 0.00000E+00 0.00000E+00
 -1      2955 0.00000E+00 0.00000E+00 0.00000E+00
 -1      2956 0.00000E+00 0.00000E+00 0.00000E+00
 -1      2957 0.00000E+00 0.00000E+00 0.00000E+00
 -1      2958 0.00000E+00 0.00000E+00 0.00000E+00
 -1      2959 0.00000E+00 0.00000E+00 0.00000E+00
 -1      2960 0.00000E+00 0.00000E+00 0.00000E+00
 -1      2961 0.00000E+00 0.00000E+00 0.00000E+00
 -1      2962 0.00000E+00 0.00000E+00 0.00000E+00
 -1      2963 0.00000E+00 0.00000E+00 0.00000E+00
 -1      2964 0.00000E+00 0.00000E+00 0.00000E+00
 -1      2965 0.00000E+00 0.00000E+00 0.00000E+00
 -1      2966 0.00000E+00 0.00000E+00 0.00000E+00
 -1      2967 0.00000E+00 0.00000E+00 0.00000E+00
 -1      2968 0.00000E+00 0.00000E+00 0.00000E+00
 -1      2969 0.00000E+00 0.00000E+00 0.00000E+00
 -1      2970 0.00000E+00 0.00000E+00 0.00000E+00
 -1      2971 0.00000E+00 0.00000E+00 0.00000E+00
 -1      2972 0.00000E+00 0.00000E+00 0.00000E+00
 -1      2973 0.00000E+00 0.00000E+00 0.00000E+00
 -1      2974 0.00000E+00 0.00000E+00 0.00000E+00
 -1      2975 0.00000E+00 0.00000E+00 0.00000E+00
 -1      2976 0.00000E+00 0.00000E+00 0.00000E+00
 -1      2977 0.00000E+00 0.00000E+00 0.00000E+00
 -1      2978 0.00000E+00 0.00000E+00 0.00000E+00
 -1      2979 0.00000E+00 0.00000E+00 0.00000E+00
 -1      2980 0.00000E+00 0.00000E+00 0.00000E+00
 -1      2981 0.00000E+00 0.00000E+00 0.00000E+00
 -1      2982 0.00000E+00 0.00000E+00 0.00000E+00
 -1      2983 0.00000E+00 0.00000E+00 0.00000E+00
 -1      2984 0.00000E+00 0.00000E+00 0.00000E+00
 -1      2985 0.00000E+00 0.00000E+00 0.00000E+00
 -1      2986 0.00000E+00 0.00000E+00 0.00000E+00
 -1      2987 0.00000E+00 0.00000E+00 0.00000E+00
 -1      2988 0.00000E+00 0.00000E+00 0.00000E+00
 -1      2989 0.00000E+00 0.00000E+00 0.00000E+00
 -1      2990 0.00000E+00 0.00000E+00 0.00000E+00
 -1      2991 0.00000E+00 0.00000E+00 0.00000E+00
 -1      2992 0.00000E+00 0.00000E+00 0.00000E+00
 -1      2993 0.00000E+00 0.00000E+00 0.00000E+00
 -1      2994 0.00000E+00 0.00000E+00 0.00000E+00
 -1      2995 0.00000E+00 0.00000E+00 0.00000E+00
 -1      2996 0.00000E+00 0.00000E+00 0.00000E+00
 -1      2997 0.00000E+00 0.00000E+00 0.00000E+00
 -1      2998 0.00000E+00 0.00000E+00 0.00000E+00
 -1      2999 0.00000E+00 0.00000E+00 0.00000E+00
 -1      3000 0.00000E+00 0.00000E+00 0.00000E+00
 -1      3001 0.00000E+00 0.00000E+00 0.00000E+00
 -1      3002 0.00000E+00 0.00000E+00 0.00000E+00
 -1      3003 0.00000E+00 0.00000E+00 0.00000E+00
 -1      3004 0.00000E+00 0.00000E+00 0.00000E+00
 -1      3005 0.00000E+00 0.00000E+00 0.00000E+00
 -1      3006 0.00000E+00 0.00000E+00 0.00000E+00
 -1      3007 0.00000E+00 0.00000E+00 0.00000E+00
 -1      3008 0.00000E+00 0.00000E+00 0.00000E+00
 -1      3009 0.00000E+00 0.00000E+00 0.00000E+00
 -1      3010 0.00000E+00 0.00000E+00 0.00000E+00
 -1      3011 0.00000E+00 0.00000E+00 0.00000E+00
 -1      3012 0.00000E+00 0.00000E+00 0.00000E+00
 -1      3013 0.00000E+00 0.00000E+00 0.00000E+00
 -1      3014 0.00000E+00 0.00000E+00 0.00000E+00
 -1      3015 0.00000E+00 0.00000E+00 0.00000E+00
 -1      3016 0.00000E+00 0.00000E+00 0.00000E+00
 -1      3017 0.00000E+00 0.00000E+00 0.00000E+00
 -1      3018 0.00000E+00 0.00000E+00 0.00000E+00
 -1      3019 0.00000E+00 0.00000E+00 0.00000E+00
 -1      3020 0.00000E+00 0.00000E+00 0.00000E+00
 -1      3021 0.00000E+00 0.00000E+00 0.00000E+00
 -1      3022 0.00000E+00 0.00000E+00 0.00000E+00
 -1      3023 0.00000E+00 0.00000E+00 0.00000E+00
 -1      3024 0.00000E+00 0.00000E+00 0.00000E+00
 -1      3025 0.00000E+00 0.00000E+00 0.00000E+00
 -1      3026 0.00000E+00 0.00000E+00 0.00000E+00
 -1      3027 0.00000E+00 0.00000E+00 0.00000E+00
 -1      3028 0.00000E+00 0.00000E+00 0.00000E+00
 -1      3029 0.00000E+00 0.00000E+00 0.00000E+00
 -1      3030 0.00000E+00 0.00000E+00 0.00000E+00
 -1      3031 0.00000E+00 0.00000E+00 0.00000E+00
 -1      3032 0.00000E+00 0.00000E+00 0.00000E+00
 -1      3033 0.00000E+00 0.00000E+00 0.00000E+00
 -1      3034 0.00000E+00 0.00000E+00 0.00000E+00
 -1      3035 0.00000E+00 0.00000E+00 0.00000E+00
 -1      3036 0.00000E+00 0.00000E+00 0.00000E+00
 -1      3037 0.00000E+00 0.00000E+00 0.00000E+00
 -1      3038 0.00000E+00 0.00000E+00 0.00000E+00
 -1      3039 0.00000E+00 0.00000E+00 0.00000E+00
 -1      3040 0.00000E+00 0.00000E+00 0.00000E+00
 -1      3041 0.00000E+00 0.00000E+00 0.00000E+00
 -1      3042 0.00000E+00 0.00000E+00 0.00000E+00
 -1      3043 0.00000E+00 0.00000E+00 0.00000E+00
 -1      3044 0.00000E+00 0.00000E+00 0.00000E+00
 -1      3045 0.00000E+00 0.00000E+00 0.00000E+00
 -1      3046 0.00000E+00 0.00000E+00 0.00000E+00
 -1      3047 0.00000E+00 0.00000E+00 0.00000E+00
 -1      3048 0.00000E+00 0.00000E+00 0.00000E+00
 -1      3049 0.00000E+00 0.00000E+00 0.00000E+00
 -1      3050 0.00000E+00 0.00000E+00 0.00000E+00
 -1      3051 0.00000E+00 0.00000E+00 0.00000E+00
 -1      3052 0.00000E+00 0.00000E+00 0.00000E+00
 -1      3053 0.00000E+00 0.00000E+00 0.00000E+00
 -1      3054 0.00000E+00 0.00000E+00 0.00000E+00
 -1      3055 0.00000E+00 0.00000E+00 0.00000E+00
 -1      3056 0.00000E+00 0.00000E+00 0.00000E+00
 -1      3057 0.00000E+00 0.00000E+00 0.00000E+00
 -1      3058 0.00000E+00 0.00000E+00 0.00000E+00
 -1      3059 0.00000E+00 0.00000E+00 0.00000E+00
 -1      3060 0.00000E+00 0.00000E+00 0.00000E+00
 -1      3061 0.00000E+00 0.00000E+00 0.00000E+00
 -1      3062 0.00000E+00 0.00000E+00 0.00000E+00
 -1      3063 0.00000E+00 0.00000E+00 0.00000E+00
 -1      3064 0.00000E+00 0.00000E+00 0.00000E+00
 -1      3065 0.00000E+00 0.00000E+00 0.00000E+00
 -1      3066 0.00000E+00 0.00000E+00 0.00000E+00
 -1      3067 0.00000E+00 0.00000E+00 0.00000E+00
 -1      3068 0.00000E+00 0.00000E+00 0.00000E+00
 -1      3069 0.00000E+00 0.00000E+00 0.00000E+00
 -1      3070 0.00000E+00 0.00000E+00 0.00000E+00
 -1      3071 0.00000E+00 0.00000E+00 0.00000E+00
 -1      3072 0.00000E+00 0.00000E+00 0.00000E+00
 -1      3073 0.00000E+00 0.00000E+00 0.00000E+00
 -1      3074 0.00000E+00 0.00000E+00 0.00000E+00
 -1      3075 0.00000E+00 0.00000E+00 0.00000E+00
 -1      3076 0.00000E+00 0.00000E+00 0.00000E+00
 -1      3077 0.00000E+00 0.00000E+00 0.00000E+00
 -1      3078 0.00000E+00 0.00000E+00 0.00000E+00
 -1      3079 0.00000E+00 0.00000E+00 0.00000E+00
 -1      3080 0.00000E+00 0.00000E+00 0.00000E+00
 -1      3081 0.00000E+00 0.00000E+00 0.00000E+00
 -1      3082 0.00000E+00 0.00000E+00 0.00000E+00
 -1      3083 0.00000E+00 0.00000E+00 0.00000E+00
 -1      3084 0.00000E+00 0.00000E+00 0.00000E+00
 -1      3085 0.00000E+00 0.00000E+00 0.00000E+00
 -1      3086 0.00000E+00 0.00000E+00 0.00000E+00
 -1      3087 0.00000E+00 0.00000E+00 0.00000E+00
 -1      3088 0.00000E+00 0.00000E+00 0.00000E+00
 -1      3089 0.00000E+00 0.00000E+00 0.00000E+00
 -1      3090 0.00000E+00 0.00000E+00 0.00000E+00
 -1      3091 0.00000E+00 0.00000E+00 0.00000E+00
 -1      3092 0.00000E+00 0.00000E+00 0.00000E+00
 -1      3093 0.00000E+00 0.00000E+00 0.00000E+00
 -1      3094 0.00000E+00 0.00000E+00 0.00000E+00
 -1      3095 0.00000E+00 0.00000E+00 0.00000E+00
 -1      3096 0.00000E+00 0.00000E+00 0.00000E+00
 -1      3097 0.00000E+00 0.00000E+00 0.00000E+00
 -1      3098 0.00000E+00 0.00000E+00 0.00000E+00
 -1      3099 0.00000E+00 0.00000E+00 0.00000E+00
 -1      3100 0.00000E+00 0.00000E+00 0.00000E+00
 -1      3101 0.00000E+00 0.00000E+00 0.00000E+00
 -1      3102 0.00000E+00 0.00000E+00 0.00000E+00
 -1      3103 0.00000E+00 0.00000E+00 0.00000E+00
 -1      3104 0.00000E+00 0.00000E+00 0.00000E+00
 -1      3105 0.00000E+00 0.00000E+00 0.00000E+00
 -1      3106 0.00000E+00 0.00000E+00 0.00000E+00
 -1      3107 0.00000E+00 0.00000E+00 0.00000E+00
 -1      3108 0.00000E+00 0.00000E+00 0.00000E+00
 -1      3109 0.00000E+00 0.00000E+00 0.00000E+00
 -1      3110 0.00000E+00 0.00000E+00 0.00000E+00
 -1      3111 0.00000E+00 0.00000E+00 0.00000E+00
 -1      3112 0.00000E+00 0.00000E+00 0.00000E+00
 -1      3113 0.00000E+00 0.00000E+00 0.00000E+00
 -1      3114 0.00000E+00 0.00000E+00 0.00000E+00
 -1      3115 0.00000E+00 0.00000E+00 0.00000E+00
 -1      3116 0.00000E+00 0.00000E+00 0.00000E+00
 -1      3117 0.00000E+00 0.00000E+00 0.00000E+00
 -1      3118 0.00000E+00 0.00000E+00 0.00000E+00
 -1      3119 0.00000E+00 0.00000E+00 0.00000E+00
 -1      3120 0.00000E+00 0.00000E+00 0.00000E+00
 -1      3121 0.00000E+00 0.00000E+00 0.00000E+00
 -1      3122 0.00000E+00 0.00000E+00 0.00000E+00
 -1      3123 0.00000E+00 0.00000E+00 0.00000E+00
 -1      3124 0.00000E+00 0.00000E+00 0.00000E+00
 -1      3125 0.00000E+00 0.00000E+00 0.00000E+00
 -1      3126 0.00000E+00 0.00000E+00 0.00000E+00
 -1      3127 0.00000E+00 0.00000E+00 0.00000E+00
 -1      3128 0.00000E+00 0.00000E+00 0.00000E+00
 -1      3129 0.00000E+00 0.00000E+00 0.00000E+00
 -1      3130 0.00000E+00 0.00000E+00 0.00000E+00
 -1      3131 0.00000E+00 0.00000E+00 0.00000E+00
 -1      3132 0.00000E+00 0.00000E+00 0.00000E+00
 -1      3133 0.00000E+00 0.00000E+00 0.00000E+00
 -1      3134 0.00000E+00 0.00000E+00 0.00000E+00
 -1      3135 0.00000E+00 0.00000E+00 0.00000E+00
 -1      3136 0.00000E+00 0.00000E+00 0.00000E+00
 -1      3137 0.00000E+00 0.00000E+00 0.00000E+00
 -1      3138 0.00000E+00 0.00000E+00 0.00000E+00
 -1      3139 0.00000E+00 0.00000E+00 0.00000E+00
 -1      3140 0.00000E+00 0.00000E+00 0.00000E+00
 -1      3141 0.00000E+00 0.00000E+00 0.00000E+00
 -1      3142 0.00000E+00 0.00000E+00 0.00000E+00
 -1      3143 0.00000E+00 0.00000E+00 0.00000E+00
 -1      3144 0.00000E+00 0.00000E+00 0.00000E+00
 -1      3145 0.00000E+00 0.00000E+00 0.00000E+00
 -1      3146 0.00000E+00 0.00000E+00 0.00000E+00
 -1      3147 0.00000E+00 0.00000E+00 0.00000E+00
 -1      3148 0.00000E+00 0.00000E+00 0.00000E+00
 -1      3149 0.00000E+00 0.00000E+00 0.00000E+00
 -1      3150 0.00000E+00 0.00000E+00 0.00000E+00
 -1      3151 0.00000E+00 0.00000E+00 0.00000E+00
 -1      3152 0.00000E+00 0.00000E+00 0.00000E+00
 -1      3153 0.00000E+00 0.00000E+00 0.00000E+00
 -1      3154 0.00000E+00 0.00000E+00 0.00000E+00
 -1      3155 0.00000E+00 0.00000E+00 0.00000E+00
 -1      3156 0.00000E+00 0.00000E+00 0.00000E+00
 -1      3157 0.00000E+00 0.00000E+00 0.00000E+00
 -1      3158 0.00000E+00 0.00000E+00 0.00000E+00
 -1      3159 0.00000E+00 0.00000E+00 0.00000E+00
 -1      3160 0.00000E+00 0.00000E+00 0.00000E+00
 -1      3161 0.00000E+00 0.00000E+00 0.00000E+00
 -1      3162 0.00000E+00 0.00000E+00 0.00000E+00
 -1      3163 0.00000E+00 0.00000E+00 0.00000E+00
 -1      3164 0.00000E+00 0.00000E+00 0.00000E+00
 -1      3165 0.00000E+00 0.00000E+00 0.00000E+00
 -1      3166 0.00000E+00 0.00000E+00 0.00000E+00
 -1      3167 0.00000E+00 0.00000E+00 0.00000E+00
 -1      3168 0.00000E+00 0.00000E+00 0.00000E+00
 -1      3169 0.00000E+00 0.00000E+00 0.00000E+00
 -1      3170 0.00000E+00 0.00000E+00 0.00000E+00
 -1      3171 0.00000E+00 0.00000E+00 0.00000E+00
 -1      3172 0.00000E+00 0.00000E+00 0.00000E+00
 -1      3173 0.00000E+00 0.00000E+00 0.00000E+00
 -1      3174 0.00000E+00 0.00000E+00 0.00000E+00
 -1      3175 0.00000E+00 0.00000E+00 0.00000E+00
 -1      3176 0.00000E+00 0.00000E+00 0.00000E+00
 -1      3177 0.00000E+00 0.00000E+00 0.00000E+00
 -1      3178 0.00000E+00 0.00000E+00 0.00000E+00
 -1      3179 0.00000E+00 0.00000E+00 0.00000E+00
 -1      3180 0.00000E+00 0.00000E+00 0.00000E+00
 -1      3181 0.00000E+00 0.00000E+00 0.00000E+00
 -1      3182 0.00000E+00 0.00000E+00 0.00000E+00
 -1      3183 0.00000E+00 0.00000E+00 0.00000E+00
 -1      3184 0.00000E+00 0.00000E+00 0.00000E+00
 -1      3185 0.00000E+00 0.00000E+00 0.00000E+00
 -1      3186 0.00000E+00 0.00000E+00 0.00000E+00
 -1      3187 0.00000E+00 0.00000E+00 0.00000E+00
 -1      3188 0.00000E+00 0.00000E+00 0.00000E+00
 -1      3189 0.00000E+00 0.00000E+00 0.00000E+00
 -1      3190 0.00000E+00 0.00000E+00 0.00000E+00
 -1      3191 0.00000E+00 0.00000E+00 0.00000E+00
 -1      3192 0.00000E+00 0.00000E+00 0.00000E+00
 -1      3193 0.00000E+00 0.00000E+00 0.00000E+00
 -1      3194 0.00000E+00 0.00000E+00 0.00000E+00
 -1      3195 0.00000E+00 0.00000E+00 0.00000E+00
 -1      3196 0.00000E+00 0.00000E+00 0.00000E+00
 -1      3197 0.00000E+00 0.00000E+00 0.00000E+00
 -1      3198 0.00000E+00 0.00000E+00 0.00000E+00
 -1      3199 0.00000E+00 0.00000E+00 0.00000E+00
 -1      3200 0.00000E+00 0.00000E+00 0.00000E+00
 -1      3201 0.00000E+00 0.00000E+00 0.00000E+00
 -1      3202 0.00000E+00 0.00000E+00 0.00000E+00
 -1      3203 0.00000E+00 0.00000E+00 0.00000E+00
 -1      3204 0.00000E+00 0.00000E+00 0.00000E+00
 -1      3205 0.00000E+00 0.00000E+00 0.00000E+00
 -1      3206 0.00000E+00 0.00000E+00 0.00000E+00
 -1      3207 0.00000E+00 0.00000E+00 0.00000E+00
 -1      3208 0.00000E+00 0.00000E+00 0.00000E+00
 -1      3209 0.00000E+00 0.00000E+00 0.00000E+00
 -1      3210 0.00000E+00 0.00000E+00 0.00000E+00
 -1      3211 0.00000E+00 0.00000E+00 0.00000E+00
 -1      3212 0.00000E+00 0.00000E+00 0.00000E+00
 -1      3213 0.00000E+00 0.00000E+00 0.00000E+00
 -1      3214 0.00000E+00 0.00000E+00 0.00000E+00
 -1      3215 0.00000E+00 0.00000E+00 0.00000E+00
 -1      3216 0.00000E+00 0.00000E+00 0.00000E+00
 -1      3217 0.00000E+00 0.00000E+00 0.00000E+00
 -1      3218 0.00000E+00 0.00000E+00 0.00000E+00
 -1      3219 0.00000E+00 0.00000E+00 0.00000E+00
 -1      3220 0.00000E+00 0.00000E+00 0.00000E+00
 -1      3221 0.00000E+00 0.00000E+00 0.00000E+00
 -1      3222 0.00000E+00 0.00000E+00 0.00000E+00
 -1      3223 0.00000E+00 0.00000E+00 0.00000E+00
 -1      3224 0.00000E+00 0.00000E+00 0.00000E+00
 -1      3225 0.00000E+00 0.00000E+00 0.00000E+00
 -1      3226 0.00000E+00 0.00000E+00 0.00000E+00
 -1      3227 0.00000E+00 0.00000E+00 0.00000E+00
 -1      3228 0.00000E+00 0.00000E+00 0.00000E+00
 -1      3229 0.00000E+00 0.00000E+00 0.00000E+00
 -1      3230 0.00000E+00 0.00000E+00 0.00000E+00
 -1      3231 0.00000E+00 0.00000E+00 0.00000E+00
 -1      3232 0.00000E+00 0.00000E+00 0.00000E+00
 -1      3233 0.00000E+00 0.00000E+00 0.00000E+00
 -1      3234 0.00000E+00 0.00000E+00 0.00000E+00
 -1      3235 0.00000E+00 0.00000E+00 0.00000E+00
 -1      3236 0.00000E+00 0.00000E+00 0.00000E+00
 -1      3237 0.00000E+00 0.00000E+00 0.00000E+00
 -1      3238 0.00000E+00 0.00000E+00 0.00000E+00
 -1      3239 0.00000E+00 0.00000E+00 0.00000E+00
 -1      3240 0.00000E+00 0.00000E+00 0.00000E+00
 -1      3241 0.00000E+00 0.00000E+00 0.00000E+00
 -1      3242 0.00000E+00 0.00000E+00 0.00000E+00
 -1      3243 0.00000E+00 0.00000E+00 0.00000E+00
 -1      3244 0.00000E+00 0.00000E+00 0.00000E+00
 -1      3245 0.00000E+00 0.00000E+00 0.00000E+00
 -1      3246 0.00000E+00 0.00000E+00 0.00000E+00
 -1      3247 0.00000E+00 0.00000E+00 0.00000E+00
 -1      3248 0.00000E+00 0.00000E+00 0.00000E+00
 -1      3249 0.00000E+00 0.00000E+00 0.00000E+00
 -1      3250 0.00000E+00 0.00000E+00 0.00000E+00
 -1      3251 0.00000E+00 0.00000E+00 0.00000E+00
 -1      3252 0.00000E+00 0.00000E+00 0.00000E+00
 -1      3253 0.00000E+00 0.00000E+00 0.00000E+00
 -1      3254 0.00000E+00 0.00000E+00 0.00000E+00
 -1      3255 0.00000E+00 0.00000E+00 0.00000E+00
 -1      3256 0.00000E+00 0.00000E+00 0.00000E+00
 -1      3257 0.00000E+00 0.00000E+00 0.00000E+00
 -1      3258 0.00000E+00 0.00000E+00 0.00000E+00
 -1      3259 0.00000E+00 0.00000E+00 0.00000E+00
 -1      3260 0.00000E+00 0.00000E+00 0.00000E+00
 -1      3261 0.00000E+00 0.00000E+00 0.00000E+00
 -1      3262 0.00000E+00 0.00000E+00 0.00000E+00
 -1      3263 0.00000E+00 0.00000E+00 0.00000E+00
 -1      3264 0.00000E+00 0.00000E+00 0.00000E+00
 -1      3265 0.00000E+00 0.00000E+00 0.00000E+00
 -1      3266 0.00000E+00 0.00000E+00 0.00000E+00
 -1      3267 0.00000E+00 0.00000E+00 0.00000E+00
 -1      3268 0.00000E+00 0.00000E+00 0.00000E+00
 -1      3269 0.00000E+00 0.00000E+00 0.00000E+00
 -1      3270 0.00000E+00 0.00000E+00 0.00000E+00
 -1      3271 0.00000E+00 0.00000E+00 0.00000E+00
 -1      3272 0.00000E+00 0.00000E+00 0.00000E+00
 -1      3273 0.00000E+00 0.00000E+00 0.00000E+00
 -1      3274 0.00000E+00 0.00000E+00 0.00000E+00
 -1      3275 0.00000E+00 0.00000E+00 0.00000E+00
 -1      3276 0.00000E+00 0.00000E+00 0.00000E+00
 -1      3277 0.00000E+00 0.00000E+00 0.00000E+00
 -1      3278 0.00000E+00 0.00000E+00 0.00000E+00
 -1      3279 0.00000E+00 0.00000E+00 0.00000E+00
 -1      3280 0.00000E+00 0.00000E+00 0.00000E+00
 -1      3281 0.00000E+00 0.00000E+00 0.00000E+00
 -1      3282 0.00000E+00 0.00000E+00 0.00000E+00
 -1      3283 0.00000E+00 0.00000E+00 0.00000E+00
 -1      3284 0.00000E+00 0.00000E+00 0.00000E+00
 -1      3285 0.00000E+00 0.00000E+00 0.00000E+00
 -1      3286 0.00000E+00 0.00000E+00 0.00000E+00
 -1      3287 0.00000E+00 0.00000E+00 0.00000E+00
 -1      3288 0.00000E+00 0.00000E+00 0.00000E+00
 -1      3289 0.00000E+00 0.00000E+00 0.00000E+00
 -1      3290 0.00000E+00 0.00000E+00 0.00000E+00
 -1      3291 0.00000E+00 0.00000E+00 0.00000E+00
 -1      3292 0.00000E+00 0.00000E+00 0.00000E+00
 -1      3293 0.00000E+00 0.00000E+00 0.00000E+00
 -1      3294 0.00000E+00 0.00000E+00 0.00000E+00
 -1      3295 0.00000E+00 0.00000E+00 0.00000E+00
 -1      3296 0.00000E+00 0.00000E+00 0.00000E+00
 -1      3297 0.00000E+00 0.00000E+00 0.00000E+00
 -1      3298 0.00000E+00 0.00000E+00 0.00000E+00
 -1      3299 0.00000E+00 0.00000E+00 0.00000E+00
 -1      3300 0.00000E+00 0.00000E+00 0.00000E+00
 -1      3301 0.00000E+00 0.00000E+00 0.00000E+00
 -1      3302 0.00000E+00 0.00000E+00 0.00000E+00
 -1      3303 0.00000E+00 0.00000E+00 0.00000E+00
 -1      3304 0.00000E+00 0.00000E+00 0.00000E+00
 -1      3305 0.00000E+00 0.00000E+00 0.00000E+00
 -1      3306 0.00000E+00 0.00000E+00 0.00000E+00
 -1      3307 0.00000E+00 0.00000E+00 0.00000E+00
 -1      3308 0.00000E+00 0.00000E+00 0.00000E+00
 -1      3309 0.00000E+00 0.00000E+00 0.00000E+00
 -1      3310 0.00000E+00 0.00000E+00 0.00000E+00
 -1      3311 0.00000E+00 0.00000E+00 0.00000E+00
 -1      3312 0.00000E+00 0.00000E+00 0.00000E+00
 -1      3313 0.00000E+00 0.00000E+00 0.00000E+00
 -1      3314 0.00000E+00 0.00000E+00 0.00000E+00
 -1      3315 0.00000E+00 0.00000E+00 0.00000E+00
 -1      3316 0.00000E+00 0.00000E+00 0.00000E+00
 -1      3317 0.00000E+00 0.00000E+00 0.00000E+00
 -1      3318 0.00000E+00 0.00000E+00 0.00000E+00
 -1      3319 0.00000E+00 0.00000E+00 0.00000E+00
 -1      3320 0.00000E+00 0.00000E+00 0.00000E+00
 -1      3321 0.00000E+00 0.00000E+00 0.00000E+00
 -1      3322 0.00000E+00 0.00000E+00 0.00000E+00
 -1      3323 0.00000E+00 0.00000E+00 0.00000E+00
 -1      3324 0.00000E+00 0.00000E+00 0.00000E+00
 -1      3325 0.00000E+00 0.00000E+00 0.00000E+00
 -1      3326 0.00000E+00 0.00000E+00 0.00000E+00
 -1      3327 0.00000E+00 0.00000E+00 0.00000E+00
 -1      3328 0.00000E+00 0.00000E+00 0.00000E+00
 -1      3329 0.00000E+00 0.00000E+00 0.00000E+00
 -1      3330 0.00000E+00 0.00000E+00 0.00000E+00
 -1      3331 0.00000E+00 0.00000E+00 0.00000E+00
 -1      3332 0.00000E+00 0.00000E+00 0.00000E+00
 -1      3333 0.00000E+00 0.00000E+00 0.00000E+00
 -1      3334 0.00000E+00 0.00000E+00 0.00000E+00
 -1      3335 0.00000E+00 0.00000E+00 0.00000E+00
 -1      3336 0.00000E+00 0.00000E+00 0.00000E+00
 -1      3337 0.00000E+00 0.00000E+00 0.00000E+00
 -1      3338 0.00000E+00 0.00000E+00 0.00000E+00
 -1      3339 0.00000E+00 0.00000E+00 0.00000E+00
 -1      3340 0.00000E+00 0.00000E+00 0.00000E+00
 -1      3341 0.00000E+00 0.00000E+00 0.00000E+00
 -1      3342 0.00000E+00 0.00000E+00 0.00000E+00
 -1      3343 0.00000E+00 0.00000E+00 0.00000E+00
 -1      3344 0.00000E+00 0.00000E+00 0.00000E+00
 -1      3345 0.00000E+00 0.00000E+00 0.00000E+00
 -1      3346 0.00000E+00 0.00000E+00 0.00000E+00
 -1      3347 0.00000E+00 0.00000E+00 0.00000E+00
 -1      3348 0.00000E+00 0.00000E+00 0.00000E+00
 -1      3349 0.00000E+00 0.00000E+00 0.00000E+00
 -1      3350 0.00000E+00 0.00000E+00 0.00000E+00
 -1      3351 0.00000E+00 0.00000E+00 0.00000E+00
 -1      3352 0.00000E+00 0.00000E+00 0.00000E+00
 -1      3353 0.00000E+00 0.00000E+00 0.00000E+00
 -1      3354 0.00000E+00 0.00000E+00 0.00000E+00
 -1      3355 0.00000E+00 0.00000E+00 0.00000E+00
 -1      3356 0.00000E+00 0.00000E+00 0.00000E+00
 -1      3357 0.00000E+00 0.00000E+00 0.00000E+00
 -1      3358 0.00000E+00 0.00000E+00 0.00000E+00
 -1      3359 0.00000E+00 0.00000E+00 0.00000E+00
 -1      3360 0.00000E+00 0.00000E+00 0.00000E+00
 -1      3361 0.00000E+00 0.00000E+00 0.00000E+00
 -1      3362 0.00000E+00 0.00000E+00 0.00000E+00
 -1      3363 0.00000E+00 0.00000E+00 0.00000E+00
 -1      3364 0.00000E+00 0.00000E+00 0.00000E+00
 -1      3365 0.00000E+00 0.00000E+00 0.00000E+00
 -1      3366 0.00000E+00 0.00000E+00 0.00000E+00
 -1      3367 0.00000E+00 0.00000E+00 0.00000E+00
 -1      3368 0.00000E+00 0.00000E+00 0.00000E+00
 -1      3369 0.00000E+00 0.00000E+00 0.00000E+00
 -1      3370 0.00000E+00 0.00000E+00 0.00000E+00
 -1      3371 0.00000E+00 0.00000E+00 0.00000E+00
 -1      3372 0.00000E+00 0.00000E+00 0.00000E+00
 -1      3373 0.00000E+00 0.00000E+00 0.00000E+00
 -1      3374 0.00000E+00 0.00000E+00 0.00000E+00
 -1      3375 0.00000E+00 0.00000E+00 0.00000E+00
 -1      3376 0.00000E+00 0.00000E+00 0.00000E+00
 -1      3377 0.00000E+00 0.00000E+00 0.00000E+00
 -1      3378 0.00000E+00 0.00000E+00 0.00000E+00
 -1      3379 0.00000E+00 0.00000E+00 0.00000E+00
 -1      3380 0.00000E+00 0.00000E+00 0.00000E+00
 -1      3381 0.00000E+00 0.00000E+00 0.00000E+00
 -1      3382 0.00000E+00 0.00000E+00 0.00000E+00
 -1      3383 0.00000E+00 0.00000E+00 0.00000E+00
 -1      3384 0.00000E+00 0.00000E+00 0.00000E+00
 -1      3385 0.00000E+00 0.00000E+00 0.00000E+00
 -1      3386 0.00000E+00 0.00000E+00 0.00000E+00
 -1      3387 0.00000E+00 0.00000E+00 0.00000E+00
 -1      3388 0.00000E+00 0.00000E+00 0.00000E+00
 -1      3389 0.00000E+00 0.00000E+00 0.00000E+00
 -1      3390 0.00000E+00 0.00000E+00 0.00000E+00
 -1      3391 0.00000E+00 0.00000E+00 0.00000E+00
 -1      3392 0.00000E+00 0.00000E+00 0.00000E+00
 -1      3393 0.00000E+00 0.00000E+00 0.00000E+00
 -1      3394 0.00000E+00 0.00000E+00 0.00000E+00
 -1      3395 0.00000E+00 0.00000E+00 0.00000E+00
 -1      3396 0.00000E+00 0.00000E+00 0.00000E+00
 -1      3397 0.00000E+00 0.00000E+00 0.00000E+00
 -1      3398 0.00000E+00 0.00000E+00 0.00000E+00
 -1      3399 0.00000E+00 0.00000E+00 0.00000E+00
 -1      3400 0.00000E+00 0.00000E+00 0.00000E+00
 -1      3401 0.00000E+00 0.00000E+00 0.00000E+00
 -1      3402 0.00000E+00 0.00000E+00 0.00000E+00
 -1      3403 0.00000E+00 0.00000E+00 0.00000E+00
 -1      3404 0.00000E+00 0.00000E+00 0.00000E+00
 -1      3405 0.00000E+00 0.00000E+00 0.00000E+00
 -1      3406 0.00000E+00 0.00000E+00 0.00000E+00
 -1      3407 0.00000E+00 0.00000E+00 0.00000E+00
 -1      3408 0.00000E+00 0.00000E+00 0.00000E+00
 -1      3409 0.00000E+00 0.00000E+00 0.00000E+00
 -1      3410 0.00000E+00 0.00000E+00 0.00000E+00
 -1      3411 0.00000E+00 0.00000E+00 0.00000E+00
 -1      3412 0.00000E+00 0.00000E+00 0.00000E+00
 -1      3413 0.00000E+00 0.00000E+00 0.00000E+00
 -1      3414 0.00000E+00 0.00000E+00 0.00000E+00
 -1      3415 0.00000E+00 0.00000E+00 0.00000E+00
 -1      3416 0.00000E+00 0.00000E+00 0.00000E+00
 -1      3417 0.00000E+00 0.00000E+00 0.00000E+00
 -1      3418 0.00000E+00 0.00000E+00 0.00000E+00
 -1      3419 0.00000E+00 0.00000E+00 0.00000E+00
 -1      3420 0.00000E+00 0.00000E+00 0.00000E+00
 -1      3421 0.00000E+00 0.00000E+00 0.00000E+00
 -1      3422 0.00000E+00 0.00000E+00 0.00000E+00
 -1      3423 0.00000E+00 0.00000E+00 0.00000E+00
 -1      3424 0.00000E+00 0.00000E+00 0.00000E+00
 -1      3425 0.00000E+00 0.00000E+00 0.00000E+00
 -1      3426 0.00000E+00 0.00000E+00 0.00000E+00
 -1      3427 0.00000E+00 0.00000E+00 0.00000E+00
 -1      3428 0.00000E+00 0.00000E+00 0.00000E+00
 -1      3429 0.00000E+00 0.00000E+00 0.00000E+00
 -1      3430 0.00000E+00 0.00000E+00 0.00000E+00
 -1      3431 0.00000E+00 0.00000E+00 0.00000E+00
 -1      3432 0.00000E+00 0.00000E+00 0.00000E+00
 -1      3433 0.00000E+00 0.00000E+00 0.00000E+00
 -1      3434 0.00000E+00 0.00000E+00 0.00000E+00
 -1      3435 0.00000E+00 0.00000E+00 0.00000E+00
 -1      3436 0.00000E+00 0.00000E+00 0.00000E+00
 -1      3437 0.00000E+00 0.00000E+00 0.00000E+00
 -1      3438 0.00000E+00 0.00000E+00 0.00000E+00
 -1      3439 0.00000E+00 0.00000E+00 0.00000E+00
 -1      3440 0.00000E+00 0.00000E+00 0.00000E+00
 -1      3441 0.00000E+00 0.00000E+00 0.00000E+00
 -1      3442 0.00000E+00 0.00000E+00 0.00000E+00
 -1      3443 0.00000E+00 0.00000E+00 0.00000E+00
 -1      3444 0.00000E+00 0.00000E+00 0.00000E+00
 -1      3445 0.00000E+00 0.00000E+00 0.00000E+00
 -1      3446 0.00000E+00 0.00000E+00 0.00000E+00
 -1      3447 0.00000E+00 0.00000E+00 0.00000E+00
 -1      3448 0.00000E+00 0.00000E+00 0.00000E+00
 -1      3449 0.00000E+00 0.00000E+00 0.00000E+00
 -1      3450 0.00000E+00 0.00000E+00 0.00000E+00
 -1      3451 0.00000E+00 0.00000E+00 0.00000E+00
 -1      3452 0.00000E+00 0.00000E+00 0.00000E+00
 -1      3453 0.00000E+00 0.00000E+00 0.00000E+00
 -1      3454 0.00000E+00 0.00000E+00 0.00000E+00
 -1      3455 0.00000E+00 0.00000E+00 0.00000E+00
 -1      3456 0.00000E+00 0.00000E+00 0.00000E+00
 -1      3457 0.00000E+00 0.00000E+00 0.00000E+00
 -1      3458 0.00000E+00 0.00000E+00 0.00000E+00
 -1      3459 0.00000E+00 0.00000E+00 0.00000E+00
 -1      3460 0.00000E+00 0.00000E+00 0.00000E+00
 -1      3461 0.00000E+00 0.00000E+00 0.00000E+00
 -1      3462 0.00000E+00 0.00000E+00 0.00000E+00
 -1      3463 0.00000E+00 0.00000E+00 0.00000E+00
 -1      3464 0.00000E+00 0.00000E+00 0.00000E+00
 -1      3465 0.00000E+00 0.00000E+00 0.00000E+00
 -1      3466 0.00000E+00 0.00000E+00 0.00000E+00
 -1      3467 0.00000E+00 0.00000E+00 0.00000E+00
 -1      3468 0.00000E+00 0.00000E+00 0.00000E+00
 -1      3469 0.00000E+00 0.00000E+00 0.00000E+00
 -1      3470 0.00000E+00 0.00000E+00 0.00000E+00
 -1      3471 0.00000E+00 0.00000E+00 0.00000E+00
 -1      3472 0.00000E+00 0.00000E+00 0.00000E+00
 -1      3473 0.00000E+00 0.00000E+00 0.00000E+00
 -1      3474 0.00000E+00 0.00000E+00 0.00000E+00
 -1      3475 0.00000E+00 0.00000E+00 0.00000E+00
 -1      3476 0.00000E+00 0.00000E+00 0.00000E+00
 -1      3477 0.00000E+00 0.00000E+00 0.00000E+00
 -1      3478 0.00000E+00 0.00000E+00 0.00000E+00
 -1      3479 0.00000E+00 0.00000E+00 0.00000E+00
 -1      3480 0.00000E+00 0.00000E+00 0.00000E+00
 -1      3481 0.00000E+00 0.00000E+00 0.00000E+00
 -1      3482 0.00000E+00 0.00000E+00 0.00000E+00
 -1      3483 0.00000E+00 0.00000E+00 0.00000E+00
 -1      3484 0.00000E+00 0.00000E+00 0.00000E+00
 -1      3485 0.00000E+00 0.00000E+00 0.00000E+00
 -1      3486 0.00000E+00 0.00000E+00 0.00000E+00
 -1      3487 0.00000E+00 0.00000E+00 0.00000E+00
 -1      3488 0.00000E+00 0.00000E+00 0.00000E+00
 -1      3489 0.00000E+00 0.00000E+00 0.00000E+00
 -1      3490 0.00000E+00 0.00000E+00 0.00000E+00
 -1      3491 0.00000E+00 0.00000E+00 0.00000E+00
 -1      3492 0.00000E+00 0.00000E+00 0.00000E+00
 -1      3493 0.00000E+00 0.00000E+00 0.00000E+00
 -1      3494 0.00000E+00 0.00000E+00 0.00000E+00
 -1      3495 0.00000E+00 0.00000E+00 0.00000E+00
 -1      3496 0.00000E+00 0.00000E+00 0.00000E+00
 -1      3497 0.00000E+00 0.00000E+00 0.00000E+00
 -1      3498 0.00000E+00 0.00000E+00 0.00000E+00
 -1      3499 0.00000E+00 0.00000E+00 0.00000E+00
 -1      3500 0.00000E+00 0.00000E+00 0.00000E+00
 -1      3501 0.00000E+00 0.00000E+00 0.00000E+00
 -1      3502 0.00000E+00 0.00000E+00 0.00000E+00
 -1      3503 0.00000E+00 0.00000E+00 0.00000E+00
 -1      3504 0.00000E+00 0.00000E+00 0.00000E+00
 -1      3505 0.00000E+00 0.00000E+00 0.00000E+00
 -1      3506 0.00000E+00 0.00000E+00 0.00000E+00
 -1      3507 0.00000E+00 0.00000E+00 0.00000E+00
 -1      3508 0.00000E+00 0.00000E+00 0.00000E+00
 -1      3509 0.00000E+00 0.00000E+00 0.00000E+00
 -1      3510 0.00000E+00 0.00000E+00 0.00000E+00
 -1      3511 0.00000E+00 0.00000E+00 0.00000E+00
 -1      3512 0.00000E+00 0.00000E+00 0.00000E+00
 -1      3513 0.00000E+00 0.00000E+00 0.00000E+00
 -1      3514 0.00000E+00 0.00000E+00 0.00000E+00
 -1      3515 0.00000E+00 0.00000E+00 0.00000E+00
 -1      3516 0.00000E+00 0.00000E+00 0.00000E+00
 -1      3517 0.00000E+00 0.00000E+00 0.00000E+00
 -1      3518 0.00000E+00 0.00000E+00 0.00000E+00
 -1      3519 0.00000E+00 0.00000E+00 0.00000E+00
 -1      3520 0.00000E+00 0.00000E+00 0.00000E+00
 -1      3521 0.00000E+00 0.00000E+00 0.00000E+00
 -1      3522 0.00000E+00 0.00000E+00 0.00000E+00
 -1      3523 0.00000E+00 0.00000E+00 0.00000E+00
 -1      3524 0.00000E+00 0.00000E+00 0.00000E+00
 -1      3525 0.00000E+00 0.00000E+00 0.00000E+00
 -1      3526 0.00000E+00 0.00000E+00 0.00000E+00
 -1      3527 0.00000E+00 0.00000E+00 0.00000E+00
 -1      3528 0.00000E+00 0.00000E+00 0.00000E+00
 -1      3529 0.00000E+00 0.00000E+00 0.00000E+00
 -1      3530 0.00000E+00 0.00000E+00 0.00000E+00
 -1      3531 0.00000E+00 0.00000E+00 0.00000E+00
 -1      3532 0.00000E+00 0.00000E+00 0.00000E+00
 -1      3533 0.00000E+00 0.00000E+00 0.00000E+00
 -1      3534 0.00000E+00 0.00000E+00 0.00000E+00
 -1      3535 0.00000E+00 0.00000E+00 0.00000E+00
 -1      3536 0.00000E+00 0.00000E+00 0.00000E+00
 -1      3537 0.00000E+00 0.00000E+00 0.00000E+00
 -1      3538 0.00000E+00 0.00000E+00 0.00000E+00
 -1      3539 0.00000E+00 0.00000E+00 0.00000E+00
 -1      3540 0.00000E+00 0.00000E+00 0.00000E+00
 -1      3541 0.00000E+00 0.00000E+00 0.00000E+00
 -1      3542 0.00000E+00 0.00000E+00 0.00000E+00
 -1      3543 0.00000E+00 0.00000E+00 0.00000E+00
 -1      3544 0.00000E+00 0.00000E+00 0.00000E+00
 -1      3545 0.00000E+00 0.00000E+00 0.00000E+00
 -1      3546 0.00000E+00 0.00000E+00 0.00000E+00
 -1      3547 0.00000E+00 0.00000E+00 0.00000E+00
 -1      3548 0.00000E+00 0.00000E+00 0.00000E+00
 -1      3549 0.00000E+00 0.00000E+00 0.00000E+00
 -1      3550 0.00000E+00 0.00000E+00 0.00000E+00
 -1      3551 0.00000E+00 0.00000E+00 0.00000E+00
 -1      3552 0.00000E+00 0.00000E+00 0.00000E+00
 -1      3553 0.00000E+00 0.00000E+00 0.00000E+00
 -1      3554 0.00000E+00 0.00000E+00 0.00000E+00
 -1      3555 0.00000E+00 0.00000E+00 0.00000E+00
 -1      3556 0.00000E+00 0.00000E+00 0.00000E+00
 -1      3557 0.00000E+00 0.00000E+00 0.00000E+00
 -1      3558 0.00000E+00 0.00000E+00 0.00000E+00
 -1      3559 0.00000E+00 0.00000E+00 0.00000E+00
 -1      3560 0.00000E+00 0.00000E+00 0.00000E+00
 -1      3561 0.00000E+00 0.00000E+00 0.00000E+00
 -1      3562 0.00000E+00 0.00000E+00 0.00000E+00
 -1      3563 0.00000E+00 0.00000E+00 0.00000E+00
 -1      3564 0.00000E+00 0.00000E+00 0.00000E+00
 -1      3565 0.00000E+00 0.00000E+00 0.00000E+00
 -1      3566 0.00000E+00 0.00000E+00 0.00000E+00
 -1      3567 0.00000E+00 0.00000E+00 0.00000E+00
 -1      3568 0.00000E+00 0.00000E+00 0.00000E+00
 -1      3569 0.00000E+00 0.00000E+00 0.00000E+00
 -1      3570 0.00000E+00 0.00000E+00 0.00000E+00
 -1      3571 0.00000E+00 0.00000E+00 0.00000E+00
 -1      3572 0.00000E+00 0.00000E+00 0.00000E+00
 -1      3573 0.00000E+00 0.00000E+00 0.00000E+00
 -1      3574 0.00000E+00 0.00000E+00 0.00000E+00
 -1      3575 0.00000E+00 0.00000E+00 0.00000E+00
 -1      3576 0.00000E+00 0.00000E+00 0.00000E+00
 -1      3577 0.00000E+00 0.00000E+00 0.00000E+00
 -1      3578 0.00000E+00 0.00000E+00 0.00000E+00
 -1      3579 0.00000E+00 0.00000E+00 0.00000E+00
 -1      3580 0.00000E+00 0.00000E+00 0.00000E+00
 -1      3581 0.00000E+00 0.00000E+00 0.00000E+00
 -1      3582 0.00000E+00 0.00000E+00 0.00000E+00
 -1      3583 0.00000E+00 0.00000E+00 0.00000E+00
 -1      3584 0.00000E+00 0.00000E+00 0.00000E+00
 -1      3585 0.00000E+00 0.00000E+00 0.00000E+00
 -1      3586 0.00000E+00 0.00000E+00 0.00000E+00
 -1      3587 0.00000E+00 0.00000E+00 0.00000E+00
 -1      3588 0.00000E+00 0.00000E+00 0.00000E+00
 -1      3589 0.00000E+00 0.00000E+00 0.00000E+00
 -1      3590 0.00000E+00 0.00000E+00 0.00000E+00
 -1      3591 0.00000E+00 0.00000E+00 0.00000E+00
 -1      3592 0.00000E+00 0.00000E+00 0.00000E+00
 -1      3593 0.00000E+00 0.00000E+00 0.00000E+00
 -1      3594 0.00000E+00 0.00000E+00 0.00000E+00
 -1      3595 0.00000E+00 0.00000E+00 0.00000E+00
 -1      3596 0.00000E+00 0.00000E+00 0.00000E+00
 -1      3597 0.00000E+00 0.00000E+00 0.00000E+00
 -1      3598 0.00000E+00 0.00000E+00 0.00000E+00
 -1      3599 0.00000E+00 0.00000E+00 0.00000E+00
 -1      3600 0.00000E+00 0.00000E+00 0.00000E+00
 -1      3601 0.00000E+00 0.00000E+00 0.00000E+00
 -1      3602 0.00000E+00 0.00000E+00 0.00000E+00
 -1      3603 0.00000E+00 0.00000E+00 0.00000E+00
 -1      3604 0.00000E+00 0.00000E+00 0.00000E+00
 -1      3605 0.00000E+00 0.00000E+00 0.00000E+00
 -1      3606 0.00000E+00 0.00000E+00 0.00000E+00
 -1      3607 0.00000E+00 0.00000E+00 0.00000E+00
 -1      3608 0.00000E+00 0.00000E+00 0.00000E+00
 -1      3609 0.00000E+00 0.00000E+00 0.00000E+00
 -1      3610 0.00000E+00 0.00000E+00 0.00000E+00
 -1      3611 0.00000E+00 0.00000E+00 0.00000E+00
 -1      3612 0.00000E+00 0.00000E+00 0.00000E+00
 -1      3613 0.00000E+00 0.00000E+00 0.00000E+00
 -1      3614 0.00000E+00 0.00000E+00 0.00000E+00
 -1      3615 0.00000E+00 0.00000E+00 0.00000E+00
 -1      3616 0.00000E+00 0.00000E+00 0.00000E+00
 -1      3617 0.00000E+00 0.00000E+00 0.00000E+00
 -1      3618 0.00000E+00 0.00000E+00 0.00000E+00
 -1      3619 0.00000E+00 0.00000E+00 0.00000E+00
 -1      3620 0.00000E+00 0.00000E+00 0.00000E+00
 -1      3621 0.00000E+00 0.00000E+00 0.00000E+00
 -1      3622 0.00000E+00 0.00000E+00 0.00000E+00
 -1      3623 0.00000E+00 0.00000E+00 0.00000E+00
 -1      3624 0.00000E+00 0.00000E+00 0.00000E+00
 -1      3625 0.00000E+00 0.00000E+00 0.00000E+00
 -1      3626 0.00000E+00 0.00000E+00 0.00000E+00
 -1      3627 0.00000E+00 0.00000E+00 0.00000E+00
 -1      3628 0.00000E+00 0.00000E+00 0.00000E+00
 -1      3629 0.00000E+00 0.00000E+00 0.00000E+00
 -1      3630 0.00000E+00 0.00000E+00 0.00000E+00
 -1      3631 0.00000E+00 0.00000E+00 0.00000E+00
 -1      3632 0.00000E+00 0.00000E+00 0.00000E+00
 -1      3633 0.00000E+00 0.00000E+00 0.00000E+00
 -1      3634 0.00000E+00 0.00000E+00 0.00000E+00
 -1      3635 0.00000E+00 0.00000E+00 0.00000E+00
 -1      3636 0.00000E+00 0.00000E+00 0.00000E+00
 -1      3637 0.00000E+00 0.00000E+00 0.00000E+00
 -1      3638 0.00000E+00 0.00000E+00 0.00000E+00
 -1      3639 0.00000E+00 0.00000E+00 0.00000E+00
 -1      3640 0.00000E+00 0.00000E+00 0.00000E+00
 -1      3641 0.00000E+00 0.00000E+00 0.00000E+00
 -1      3642 0.00000E+00 0.00000E+00 0.00000E+00
 -1      3643 0.00000E+00 0.00000E+00 0.00000E+00
 -1      3644 0.00000E+00 0.00000E+00 0.00000E+00
 -1      3645 0.00000E+00 0.00000E+00 0.00000E+00
 -1      3646 0.00000E+00 0.00000E+00 0.00000E+00
 -1      3647 0.00000E+00 0.00000E+00 0.00000E+00
 -1      3648 0.00000E+00 0.00000E+00 0.00000E+00
 -1      3649 0.00000E+00 0.00000E+00 0.00000E+00
 -1      3650 0.00000E+00 0.00000E+00 0.00000E+00
 -1      3651 0.00000E+00 0.00000E+00 0.00000E+00
 -1      3652 0.00000E+00 0.00000E+00 0.00000E+00
 -1      3653 0.00000E+00 0.00000E+00 0.00000E+00
 -1      3654 0.00000E+00 0.00000E+00 0.00000E+00
 -1      3655 0.00000E+00 0.00000E+00 0.00000E+00
 -1      3656 0.00000E+00 0.00000E+00 0.00000E+00
 -1      3657 0.00000E+00 0.00000E+00 0.00000E+00
 -1      3658 0.00000E+00 0.00000E+00 0.00000E+00
 -1      3659 0.00000E+00 0.00000E+00 0.00000E+00
 -1      3660 0.00000E+00 0.00000E+00 0.00000E+00
 -1      3661 0.00000E+00 0.00000E+00 0.00000E+00
 -1      3662 0.00000E+00 0.00000E+00 0.00000E+00
 -1      3663 0.00000E+00 0.00000E+00 0.00000E+00
 -1      3664 0.00000E+00 0.00000E+00 0.00000E+00
 -1      3665 0.00000E+00 0.00000E+00 0.00000E+00
 -1      3666 0.00000E+00 0.00000E+00 0.00000E+00
 -1      3667 0.00000E+00 0.00000E+00 0.00000E+00
 -1      3668 0.00000E+00 0.00000E+00 0.00000E+00
 -1      3669 0.00000E+00 0.00000E+00 0.00000E+00
 -1      3670 0.00000E+00 0.00000E+00 0.00000E+00
 -1      3671 0.00000E+00 0.00000E+00 0.00000E+00
 -1      3672 0.00000E+00 0.00000E+00 0.00000E+00
 -1      3673 0.00000E+00 0.00000E+00 0.00000E+00
 -1      3674 0.00000E+00 0.00000E+00 0.00000E+00
 -1      3675 0.00000E+00 0.00000E+00 0.00000E+00
 -1      3676 0.00000E+00 0.00000E+00 0.00000E+00
 -1      3677 0.00000E+00 0.00000E+00 0.00000E+00
 -1      3678 0.00000E+00 0.00000E+00 0.00000E+00
 -1      3679 0.00000E+00 0.00000E+00 0.00000E+00
 -1      3680 0.00000E+00 0.00000E+00 0.00000E+00
 -1      3681 0.00000E+00 0.00000E+00 0.00000E+00
 -1      3682 0.00000E+00 0.00000E+00 0.00000E+00
 -1      3683 0.00000E+00 0.00000E+00 0.00000E+00
 -1      3684 0.00000E+00 0.00000E+00 0.00000E+00
 -1      3685 0.00000E+00 0.00000E+00 0.00000E+00
 -1      3686 0.00000E+00 0.00000E+00 0.00000E+00
 -1      3687 0.00000E+00 0.00000E+00 0.00000E+00
 -1      3688 0.00000E+00 0.00000E+00 0.00000E+00
 -1      3689 0.00000E+00 0.00000E+00 0.00000E+00
 -1      3690 0.00000E+00 0.00000E+00 0.00000E+00
 -1      3691 0.00000E+00 0.00000E+00 0.00000E+00
 -1      3692 0.00000E+00 0.00000E+00 0.00000E+00
 -1      3693 0.00000E+00 0.00000E+00 0.00000E+00
 -1      3694 0.00000E+00 0.00000E+00 0.00000E+00
 -1      3695 0.00000E+00 0.00000E+00 0.00000E+00
 -1      3696 0.00000E+00 0.00000E+00 0.00000E+00
 -1      3697 0.00000E+00 0.00000E+00 0.00000E+00
 -1      3698 0.00000E+00 0.00000E+00 0.00000E+00
 -1      3699 0.00000E+00 0.00000E+00 0.00000E+00
 -1      3700 0.00000E+00 0.00000E+00 0.00000E+00
 -1      3701 0.00000E+00 0.00000E+00 0.00000E+00
 -1      3702 0.00000E+00 0.00000E+00 0.00000E+00
 -1      3703 0.00000E+00 0.00000E+00 0.00000E+00
 -1      3704 0.00000E+00 0.00000E+00 0.00000E+00
 -1      3705 0.00000E+00 0.00000E+00 0.00000E+00
 -1      3706 0.00000E+00 0.00000E+00 0.00000E+00
 -1      3707 0.00000E+00 0.00000E+00 0.00000E+00
 -1      3708 0.00000E+00 0.00000E+00 0.00000E+00
 -1      3709 0.00000E+00 0.00000E+00 0.00000E+00
 -1      3710 0.00000E+00 0.00000E+00 0.00000E+00
 -1      3711 0.00000E+00 0.00000E+00 0.00000E+00
 -1      3712 0.00000E+00 0.00000E+00 0.00000E+00
 -1      3713 0.00000E+00 0.00000E+00 0.00000E+00
 -1      3714 0.00000E+00 0.00000E+00 0.00000E+00
 -1      3715 0.00000E+00 0.00000E+00 0.00000E+00
 -1      3716 0.00000E+00 0.00000E+00 0.00000E+00
 -1      3717 0.00000E+00 0.00000E+00 0.00000E+00
 -1      3718 0.00000E+00 0.00000E+00 0.00000E+00
 -1      3719 0.00000E+00 0.00000E+00 0.00000E+00
 -1      3720 0.00000E+00 0.00000E+00 0.00000E+00
 -1      3721 0.00000E+00 0.00000E+00 0.00000E+00
 -1      3722 0.00000E+00 0.00000E+00 0.00000E+00
 -1      3723 0.00000E+00 0.00000E+00 0.00000E+00
 -1      3724 0.00000E+00 0.00000E+00 0.00000E+00
 -1      3725 0.00000E+00 0.00000E+00 0.00000E+00
 -1      3726 0.00000E+00 0.00000E+00 0.00000E+00
 -1      3727 0.00000E+00 0.00000E+00 0.00000E+00
 -1      3728 0.00000E+00 0.00000E+00 0.00000E+00
 -1      3729 0.00000E+00 0.00000E+00 0.00000E+00
 -1      3730 0.00000E+00 0.00000E+00 0.00000E+00
 -1      3731 0.00000E+00 0.00000E+00 0.00000E+00
 -1      3732 0.00000E+00 0.00000E+00 0.00000E+00
 -1      3733 0.00000E+00 0.00000E+00 0.00000E+00
 -1      3734 0.00000E+00 0.00000E+00 0.00000E+00
 -1      3735 0.00000E+00 0.00000E+00 0.00000E+00
 -1      3736 0.00000E+00 0.00000E+00 0.00000E+00
 -1      3737 0.00000E+00 0.00000E+00 0.00000E+00
 -1      3738 0.00000E+00 0.00000E+00 0.00000E+00
 -1      3739 0.00000E+00 0.00000E+00 0.00000E+00
 -1      3740 0.00000E+00 0.00000E+00 0.00000E+00
 -1      3741 0.00000E+00 0.00000E+00 0.00000E+00
 -1      3742 0.00000E+00 0.00000E+00 0.00000E+00
 -1      3743 0.00000E+00 0.00000E+00 0.00000E+00
 -1      3744 0.00000E+00 0.00000E+00 0.00000E+00
 -1      3745 0.00000E+00 0.00000E+00 0.00000E+00
 -1      3746 0.00000E+00 0.00000E+00 0.00000E+00
 -1      3747 0.00000E+00 0.00000E+00 0.00000E+00
 -1      3748 0.00000E+00 0.00000E+00 0.00000E+00
 -1      3749 0.00000E+00 0.00000E+00 0.00000E+00
 -1      3750 0.00000E+00 0.00000E+00 0.00000E+00
 -1      3751 0.00000E+00 0.00000E+00 0.00000E+00
 -1      3752 0.00000E+00 0.00000E+00 0.00000E+00
 -1      3753 0.00000E+00 0.00000E+00 0.00000E+00
 -1      3754 0.00000E+00 0.00000E+00 0.00000E+00
 -1      3755 0.00000E+00 0.00000E+00 0.00000E+00
 -1      3756 0.00000E+00 0.00000E+00 0.00000E+00
 -1      3757 0.00000E+00 0.00000E+00 0.00000E+00
 -1      3758 0.00000E+00 0.00000E+00 0.00000E+00
 -1      3759 0.00000E+00 0.00000E+00 0.00000E+00
 -1      3760 0.00000E+00 0.00000E+00 0.00000E+00
 -1      3761 0.00000E+00 0.00000E+00 0.00000E+00
 -1      3762 0.00000E+00 0.00000E+00 0.00000E+00
 -1      3763 0.00000E+00 0.00000E+00 0.00000E+00
 -1      3764 0.00000E+00 0.00000E+00 0.00000E+00
 -1      3765 0.00000E+00 0.00000E+00 0.00000E+00
 -1      3766 0.00000E+00 0.00000E+00 0.00000E+00
 -1      3767 0.00000E+00 0.00000E+00 0.00000E+00
 -1      3768 0.00000E+00 0.00000E+00 0.00000E+00
 -1      3769 0.00000E+00 0.00000E+00 0.00000E+00
 -1      3770 0.00000E+00 0.00000E+00 0.00000E+00
 -1      3771 0.00000E+00 0.00000E+00 0.00000E+00
 -1      3772 0.00000E+00 0.00000E+00 0.00000E+00
 -1      3773 0.00000E+00 0.00000E+00 0.00000E+00
 -1      3774 0.00000E+00 0.00000E+00 0.00000E+00
 -1      3775 0.00000E+00 0.00000E+00 0.00000E+00
 -1      3776 0.00000E+00 0.00000E+00 0.00000E+00
 -1      3777 0.00000E+00 0.00000E+00 0.00000E+00
 -1      3778 0.00000E+00 0.00000E+00 0.00000E+00
 -1      3779 0.00000E+00 0.00000E+00 0.00000E+00
 -1      3780 0.00000E+00 0.00000E+00 0.00000E+00
 -1      3781 0.00000E+00 0.00000E+00 0.00000E+00
 -1      3782 0.00000E+00 0.00000E+00 0.00000E+00
 -1      3783 0.00000E+00 0.00000E+00 0.00000E+00
 -1      3784 0.00000E+00 0.00000E+00 0.00000E+00
 -1      3785 0.00000E+00 0.00000E+00 0.00000E+00
 -1      3786 0.00000E+00 0.00000E+00 0.00000E+00
 -1      3787 0.00000E+00 0.00000E+00 0.00000E+00
 -1      3788 0.00000E+00 0.00000E+00 0.00000E+00
 -1      3789 0.00000E+00 0.00000E+00 0.00000E+00
 -1      3790 0.00000E+00 0.00000E+00 0.00000E+00
 -1      3791 0.00000E+00 0.00000E+00 0.00000E+00
 -1      3792 0.00000E+00 0.00000E+00 0.00000E+00
 -1      3793 0.00000E+00 0.00000E+00 0.00000E+00
 -1      3794 0.00000E+00 0.00000E+00 0.00000E+00
 -1      3795 0.00000E+00 0.00000E+00 0.00000E+00
 -1      3796 0.00000E+00 0.00000E+00 0.00000E+00
 -1      3797 0.00000E+00 0.00000E+00 0.00000E+00
 -1      3798 0.00000E+00 0.00000E+00 0.00000E+00
 -1      3799 0.00000E+00 0.00000E+00 0.00000E+00
 -1      3800 0.00000E+00 0.00000E+00 0.00000E+00
 -1      3801 0.00000E+00 0.00000E+00 0.00000E+00
 -1      3802 0.00000E+00 0.00000E+00 0.00000E+00
 -1      3803 0.00000E+00 0.00000E+00 0.00000E+00
 -1      3804 0.00000E+00 0.00000E+00 0.00000E+00
 -1      3805 0.00000E+00 0.00000E+00 0.00000E+00
 -1      3806 0.00000E+00 0.00000E+00 0.00000E+00
 -1      3807 0.00000E+00 0.00000E+00 0.00000E+00
 -1      3808 0.00000E+00 0.00000E+00 0.00000E+00
 -1      3809 0.00000E+00 0.00000E+00 0.00000E+00
 -1      3810 0.00000E+00 0.00000E+00 0.00000E+00
 -1      3811 0.00000E+00 0.00000E+00 0.00000E+00
 -1      3812 0.00000E+00 0.00000E+00 0.00000E+00
 -1      3813 0.00000E+00 0.00000E+00 0.00000E+00
 -1      3814 0.00000E+00 0.00000E+00 0.00000E+00
 -1      3815 0.00000E+00 0.00000E+00 0.00000E+00
 -1      3816 0.00000E+00 0.00000E+00 0.00000E+00
 -1      3817 0.00000E+00 0.00000E+00 0.00000E+00
 -1      3818 0.00000E+00 0.00000E+00 0.00000E+00
 -1      3819 0.00000E+00 0.00000E+00 0.00000E+00
 -1      3820 0.00000E+00 0.00000E+00 0.00000E+00
 -1      3821 0.00000E+00 0.00000E+00 0.00000E+00
 -1      3822 0.00000E+00 0.00000E+00 0.00000E+00
 -1      3823 0.00000E+00 0.00000E+00 0.00000E+00
 -1      3824 0.00000E+00 0.00000E+00 0.00000E+00
 -1      3825 0.00000E+00 0.00000E+00 0.00000E+00
 -1      3826 0.00000E+00 0.00000E+00 0.00000E+00
 -1      3827 0.00000E+00 0.00000E+00 0.00000E+00
 -1      3828 0.00000E+00 0.00000E+00 0.00000E+00
 -1      3829 0.00000E+00 0.00000E+00 0.00000E+00
 -1      3830 0.00000E+00 0.00000E+00 0.00000E+00
 -1      3831 0.00000E+00 0.00000E+00 0.00000E+00
 -1      3832 0.00000E+00 0.00000E+00 0.00000E+00
 -1      3833 0.00000E+00 0.00000E+00 0.00000E+00
 -1      3834 0.00000E+00 0.00000E+00 0.00000E+00
 -1      3835 0.00000E+00 0.00000E+00 0.00000E+00
 -1      3836 0.00000E+00 0.00000E+00 0.00000E+00
 -1      3837 0.00000E+00 0.00000E+00 0.00000E+00
 -1      3838 0.00000E+00 0.00000E+00 0.00000E+00
 -1      3839 0.00000E+00 0.00000E+00 0.00000E+00
 -1      3840 0.00000E+00 0.00000E+00 0.00000E+00
 -1      3841 0.00000E+00 0.00000E+00 0.00000E+00
 -1      3842 0.00000E+00 0.00000E+00 0.00000E+00
 -1      3843 0.00000E+00 0.00000E+00 0.00000E+00
 -1      3844 0.00000E+00 0.00000E+00 0.00000E+00
 -1      3845 0.00000E+00 0.00000E+00 0.00000E+00
 -1      3846 0.00000E+00 0.00000E+00 0.00000E+00
 -1      3847 0.00000E+00 0.00000E+00 0.00000E+00
 -1      3848 0.00000E+00 0.00000E+00 0.00000E+00
 -1      3849 0.00000E+00 0.00000E+00 0.00000E+00
 -1      3850 0.00000E+00 0.00000E+00 0.00000E+00
 -1      3851 0.00000E+00 0.00000E+00 0.00000E+00
 -1      3852 0.00000E+00 0.00000E+00 0.00000E+00
 -1      3853 0.00000E+00 0.00000E+00 0.00000E+00
 -1      3854 0.00000E+00 0.00000E+00 0.00000E+00
 -1      3855 0.00000E+00 0.00000E+00 0.00000E+00
 -1      3856 0.00000E+00 0.00000E+00 0.00000E+00
 -1      3857 0.00000E+00 0.00000E+00 0.00000E+00
 -1      3858 0.00000E+00 0.00000E+00 0.00000E+00
 -1      3859 0.00000E+00 0.00000E+00 0.00000E+00
 -1      3860 0.00000E+00 0.00000E+00 0.00000E+00
 -1      3861 0.00000E+00 0.00000E+00 0.00000E+00
 -1      3862 0.00000E+00 0.00000E+00 0.00000E+00
 -1      3863 0.00000E+00 0.00000E+00 0.00000E+00
 -1      3864 0.00000E+00 0.00000E+00 0.00000E+00
 -1      3865 0.00000E+00 0.00000E+00 0.00000E+00
 -1      3866 0.00000E+00 0.00000E+00 0.00000E+00
 -1      3867 0.00000E+00 0.00000E+00 0.00000E+00
 -1      3868 0.00000E+00 0.00000E+00 0.00000E+00
 -1      3869 0.00000E+00 0.00000E+00 0.00000E+00
 -1      3870 0.00000E+00 0.00000E+00 0.00000E+00
 -1      3871 0.00000E+00 0.00000E+00 0.00000E+00
 -1      3872 0.00000E+00 0.00000E+00 0.00000E+00
 -1      3873 0.00000E+00 0.00000E+00 0.00000E+00
 -1      3874 0.00000E+00 0.00000E+00 0.00000E+00
 -1      3875 0.00000E+00 0.00000E+00 0.00000E+00
 -1      3876 0.00000E+00 0.00000E+00 0.00000E+00
 -1      3877 0.00000E+00 0.00000E+00 0.00000E+00
 -1      3878 0.00000E+00 0.00000E+00 0.00000E+00
 -1      3879 0.00000E+00 0.00000E+00 0.00000E+00
 -1      3880 0.00000E+00 0.00000E+00 0.00000E+00
 -1      3881 0.00000E+00 0.00000E+00 0.00000E+00
 -1      3882 0.00000E+00 0.00000E+00 0.00000E+00
 -1      3883 0.00000E+00 0.00000E+00 0.00000E+00
 -1      3884 0.00000E+00 0.00000E+00 0.00000E+00
 -1      3885 0.00000E+00 0.00000E+00 0.00000E+00
 -1      3886 0.00000E+00 0.00000E+00 0.00000E+00
 -1      3887 0.00000E+00 0.00000E+00 0.00000E+00
 -1      3888 0.00000E+00 0.00000E+00 0.00000E+00
 -1      3889 0.00000E+00 0.00000E+00 0.00000E+00
 -1      3890 0.00000E+00 0.00000E+00 0.00000E+00
 -1      3891 0.00000E+00 0.00000E+00 0.00000E+00
 -1      3892 0.00000E+00 0.00000E+00 0.00000E+00
 -1      3893 0.00000E+00 0.00000E+00 0.00000E+00
 -1      3894 0.00000E+00 0.00000E+00 0.00000E+00
 -1      3895 0.00000E+00 0.00000E+00 0.00000E+00
 -1      3896 0.00000E+00 0.00000E+00 0.00000E+00
 -1      3897 0.00000E+00 0.00000E+00 0.00000E+00
 -1      3898 0.00000E+00 0.00000E+00 0.00000E+00
 -1      3899 0.00000E+00 0.00000E+00 0.00000E+00
 -1      3900 0.00000E+00 0.00000E+00 0.00000E+00
 -1      3901 0.00000E+00 0.00000E+00 0.00000E+00
 -1      3902 0.00000E+00 0.00000E+00 0.00000E+00
 -1      3903 0.00000E+00 0.00000E+00 0.00000E+00
 -1      3904 0.00000E+00 0.00000E+00 0.00000E+00
 -1      3905 0.00000E+00 0.00000E+00 0.00000E+00
 -1      3906 0.00000E+00 0.00000E+00 0.00000E+00
 -1      3907 0.00000E+00 0.00000E+00 0.00000E+00
 -1      3908 0.00000E+00 0.00000E+00 0.00000E+00
 -1      3909 0.00000E+00 0.00000E+00 0.00000E+00
 -1      3910 0.00000E+00 0.00000E+00 0.00000E+00
 -1      3911 0.00000E+00 0.00000E+00 0.00000E+00
 -1      3912 0.00000E+00 0.00000E+00 0.00000E+00
 -1      3913 0.00000E+00 0.00000E+00 0.00000E+00
 -1      3914 0.00000E+00 0.00000E+00 0.00000E+00
 -1      3915 0.00000E+00 0.00000E+00 0.00000E+00
 -1      3916 0.00000E+00 0.00000E+00 0.00000E+00
 -1      3917 0.00000E+00 0.00000E+00 0.00000E+00
 -1      3918 0.00000E+00 0.00000E+00 0.00000E+00
 -1      3919 0.00000E+00 0.00000E+00 0.00000E+00
 -1      3920 0.00000E+00 0.00000E+00 0.00000E+00
 -1      3921 0.00000E+00 0.00000E+00 0.00000E+00
 -1      3922 0.00000E+00 0.00000E+00 0.00000E+00
 -1      3923 0.00000E+00 0.00000E+00 0.00000E+00
 -1      3924 0.00000E+00 0.00000E+00 0.00000E+00
 -1      3925 0.00000E+00 0.00000E+00 0.00000E+00
 -1      3926 0.00000E+00 0.00000E+00 0.00000E+00
 -1      3927 0.00000E+00 0.00000E+00 0.00000E+00
 -1      3928 0.00000E+00 0.00000E+00 0.00000E+00
 -1      3929 0.00000E+00 0.00000E+00 0.00000E+00
 -1      3930 0.00000E+00 0.00000E+00 0.00000E+00
 -1      3931 0.00000E+00 0.00000E+00 0.00000E+00
 -1      3932 0.00000E+00 0.00000E+00 0.00000E+00
 -1      3933 0.00000E+00 0.00000E+00 0.00000E+00
 -1      3934 0.00000E+00 0.00000E+00 0.00000E+00
 -1      3935 0.00000E+00 0.00000E+00 0.00000E+00
 -1      3936 0.00000E+00 0.00000E+00 0.00000E+00
 -1      3937 0.00000E+00 0.00000E+00 0.00000E+00
 -1      3938 0.00000E+00 0.00000E+00 0.00000E+00
 -1      3939 0.00000E+00 0.00000E+00 0.00000E+00
 -1      3940 0.00000E+00 0.00000E+00 0.00000E+00
 -1      3941 0.00000E+00 0.00000E+00 0.00000E+00
 -1      3942 0.00000E+00 0.00000E+00 0.00000E+00
 -1      3943 0.00000E+00 0.00000E+00 0.00000E+00
 -1      3944 0.00000E+00 0.00000E+00 0.00000E+00
 -1      3945 0.00000E+00 0.00000E+00 0.00000E+00
 -1      3946 0.00000E+00 0.00000E+00 0.00000E+00
 -1      3947 0.00000E+00 0.00000E+00 0.00000E+00
 -1      3948 0.00000E+00 0.00000E+00 0.00000E+00
 -1      3949 0.00000E+00 0.00000E+00 0.00000E+00
 -1      3950 0.00000E+00 0.00000E+00 0.00000E+00
 -1      3951 0.00000E+00 0.00000E+00 0.00000E+00
 -1      3952 0.00000E+00 0.00000E+00 0.00000E+00
 -1      3953 0.00000E+00 0.00000E+00 0.00000E+00
 -1      3954 0.00000E+00 0.00000E+00 0.00000E+00
 -1      3955 0.00000E+00 0.00000E+00 0.00000E+00
 -1      3956 0.00000E+00 0.00000E+00 0.00000E+00
 -1      3957 0.00000E+00 0.00000E+00 0.00000E+00
 -1      3958 0.00000E+00 0.00000E+00 0.00000E+00
 -1      3959 0.00000E+00 0.00000E+00 0.00000E+00
 -1      3960 0.00000E+00 0.00000E+00 0.00000E+00
 -1      3961 0.00000E+00 0.00000E+00 0.00000E+00
 -1      3962 0.00000E+00 0.00000E+00 0.00000E+00
 -1      3963 0.00000E+00 0.00000E+00 0.00000E+00
 -1      3964 0.00000E+00 0.00000E+00 0.00000E+00
 -1      3965 0.00000E+00 0.00000E+00 0.00000E+00
 -1      3966 0.00000E+00 0.00000E+00 0.00000E+00
 -1      3967 0.00000E+00 0.00000E+00 0.00000E+00
 -1      3968 0.00000E+00 0.00000E+00 0.00000E+00
 -1      3969 0.00000E+00 0.00000E+00 0.00000E+00
 -1      3970 0.00000E+00 0.00000E+00 0.00000E+00
 -1      3971 0.00000E+00 0.00000E+00 0.00000E+00
 -1      3972 0.00000E+00 0.00000E+00 0.00000E+00
 -1      3973 0.00000E+00 0.00000E+00 0.00000E+00
 -1      3974 0.00000E+00 0.00000E+00 0.00000E+00
 -1      3975 0.00000E+00 0.00000E+00 0.00000E+00
 -1      3976 0.00000E+00 0.00000E+00 0.00000E+00
 -1      3977 0.00000E+00 0.00000E+00 0.00000E+00
 -1      3978 0.00000E+00 0.00000E+00 0.00000E+00
 -1      3979 0.00000E+00 0.00000E+00 0.00000E+00
 -1      3980 0.00000E+00 0.00000E+00 0.00000E+00
 -1      3981 0.00000E+00 0.00000E+00 0.00000E+00
 -1      3982 0.00000E+00 0.00000E+00 0.00000E+00
 -1      3983 0.00000E+00 0.00000E+00 0.00000E+00
 -1      3984 0.00000E+00 0.00000E+00 0.00000E+00
 -1      3985 0.00000E+00 0.00000E+00 0.00000E+00
 -1      3986 0.00000E+00 0.00000E+00 0.00000E+00
 -1      3987 0.00000E+00 0.00000E+00 0.00000E+00
 -1      3988 0.00000E+00 0.00000E+00 0.00000E+00
 -1      3989 0.00000E+00 0.00000E+00 0.00000E+00
 -1      3990 0.00000E+00 0.00000E+00 0.00000E+00
 -1      3991 0.00000E+00 0.00000E+00 0.00000E+00
 -1      3992 0.00000E+00 0.00000E+00 0.00000E+00
 -1      3993 0.00000E+00 0.00000E+00 0.00000E+00
 -1      3994 0.00000E+00 0.00000E+00 0.00000E+00
 -1      3995 0.00000E+00 0.00000E+00 0.00000E+00
 -1      3996 0.00000E+00 0.00000E+00 0.00000E+00
 -1      3997 0.00000E+00 0.00000E+00 0.00000E+00
 -1      3998 0.00000E+00 0.00000E+00 0.00000E+00
 -1      3999 0.00000E+00 0.00000E+00 0.00000E+00
 -1      4000 0.00000E+00 0.00000E+00 0.00000E+00
 -1      4001 0.00000E+00 0.00000E+00 0.00000E+00
 -1      4002 0.00000E+00 0.00000E+00 0.00000E+00
 -1      4003 0.00000E+00 0.00000E+00 0.00000E+00
 -1      4004 0.00000E+00 0.00000E+00 0.00000E+00
 -1      4005 0.00000E+00 0.00000E+00 0.00000E+00
 -1      4006 0.00000E+00 0.00000E+00 0.00000E+00
 -1      4007 0.00000E+00 0.00000E+00 0.00000E+00
 -1      4008 0.00000E+00 0.00000E+00 0.00000E+00
 -1      4009 0.00000E+00 0.00000E+00 0.00000E+00
 -1      4010 0.00000E+00 0.00000E+00 0.00000E+00
 -1      4011 0.00000E+00 0.00000E+00 0.00000E+00
 -1      4012 0.00000E+00 0.00000E+00 0.00000E+00
 -1      4013 0.00000E+00 0.00000E+00 0.00000E+00
 -1      4014 0.00000E+00 0.00000E+00 0.00000E+00
 -1      4015 0.00000E+00 0.00000E+00 0.00000E+00
 -1      4016 0.00000E+00 0.00000E+00 0.00000E+00
 -1      4017 0.00000E+00 0.00000E+00 0.00000E+00
 -1      4018 0.00000E+00 0.00000E+00 0.00000E+00
 -1      4019 0.00000E+00 0.00000E+00 0.00000E+00
 -1      4020 0.00000E+00 0.00000E+00 0.00000E+00
 -1      4021 0.00000E+00 0.00000E+00 0.00000E+00
 -1      4022 0.00000E+00 0.00000E+00 0.00000E+00
 -1      4023 0.00000E+00 0.00000E+00 0.00000E+00
 -1      4024 0.00000E+00 0.00000E+00 0.00000E+00
 -1      4025 0.00000E+00 0.00000E+00 0.00000E+00
 -1      4026 0.00000E+00 0.00000E+00 0.00000E+00
 -1      4027 0.00000E+00 0.00000E+00 0.00000E+00
 -1      4028 0.00000E+00 0.00000E+00 0.00000E+00
 -1      4029 0.00000E+00 0.00000E+00 0.00000E+00
 -1      4030 0.00000E+00 0.00000E+00 0.00000E+00
 -1      4031 0.00000E+00 0.00000E+00 0.00000E+00
 -1      4032 0.00000E+00 0.00000E+00 0.00000E+00
 -1      4033 0.00000E+00 0.00000E+00 0.00000E+00
 -1      4034 0.00000E+00 0.00000E+00 0.00000E+00
 -1      4035 0.00000E+00 0.00000E+00 0.00000E+00
 -1      4036 0.00000E+00 0.00000E+00 0.00000E+00
 -1      4037 0.00000E+00 0.00000E+00 0.00000E+00
 -1      4038 0.00000E+00 0.00000E+00 0.00000E+00
 -1      4039 0.00000E+00 0.00000E+00 0.00000E+00
 -1      4040 0.00000E+00 0.00000E+00 0.00000E+00
 -1      4041 0.00000E+00 0.00000E+00 0.00000E+00
 -1      4042 0.00000E+00 0.00000E+00 0.00000E+00
 -1      4043 0.00000E+00 0.00000E+00 0.00000E+00
 -1      4044 0.00000E+00 0.00000E+00 0.00000E+00
 -1      4045 0.00000E+00 0.00000E+00 0.00000E+00
 -1      4046 0.00000E+00 0.00000E+00 0.00000E+00
 -1      4047 0.00000E+00 0.00000E+00 0.00000E+00
 -1      4048 0.00000E+00 0.00000E+00 0.00000E+00
 -1      4049 0.00000E+00 0.00000E+00 0.00000E+00
 -1      4050 0.00000E+00 0.00000E+00 0.00000E+00
 -1      4051 0.00000E+00 0.00000E+00 0.00000E+00
 -1      4052 0.00000E+00 0.00000E+00 0.00000E+00
 -1      4053 0.00000E+00 0.00000E+00 0.00000E+00
 -1      4054 0.00000E+00 0.00000E+00 0.00000E+00
 -1      4055 0.00000E+00 0.00000E+00 0.00000E+00
 -1      4056 0.00000E+00 0.00000E+00 0.00000E+00
 -1      4057 0.00000E+00 0.00000E+00 0.00000E+00
 -1      4058 0.00000E+00 0.00000E+00 0.00000E+00
 -1      4059 0.00000E+00 0.00000E+00 0.00000E+00
 -1      4060 0.00000E+00 0.00000E+00 0.00000E+00
 -1      4061 0.00000E+00 0.00000E+00 0.00000E+00
 -1      4062 0.00000E+00 0.00000E+00 0.00000E+00
 -1      4063 0.00000E+00 0.00000E+00 0.00000E+00
 -1      4064 0.00000E+00 0.00000E+00 0.00000E+00
 -1      4065 0.00000E+00 0.00000E+00 0.00000E+00
 -1      4066 0.00000E+00 0.00000E+00 0.00000E+00
 -1      4067 0.00000E+00 0.00000E+00 0.00000E+00
 -1      4068 0.00000E+00 0.00000E+00 0.00000E+00
 -1      4069 0.00000E+00 0.00000E+00 0.00000E+00
 -1      4070 0.00000E+00 0.00000E+00 0.00000E+00
 -1      4071 0.00000E+00 0.00000E+00 0.00000E+00
 -1      4072 0.00000E+00 0.00000E+00 0.00000E+00
 -1      4073 0.00000E+00 0.00000E+00 0.00000E+00
 -1      4074 0.00000E+00 0.00000E+00 0.00000E+00
 -1      4075 0.00000E+00 0.00000E+00 0.00000E+00
 -1      4076 0.00000E+00 0.00000E+00 0.00000E+00
 -1      4077 0.00000E+00 0.00000E+00 0.00000E+00
 -1      4078 0.00000E+00 0.00000E+00 0.00000E+00
 -1      4079 0.00000E+00 0.00000E+00 0.00000E+00
 -1      4080 0.00000E+00 0.00000E+00 0.00000E+00
 -1      4081 0.00000E+00 0.00000E+00 0.00000E+00
 -1      4082 0.00000E+00 0.00000E+00 0.00000E+00
 -1      4083 0.00000E+00 0.00000E+00 0.00000E+00
 -1      4084 0.00000E+00 0.00000E+00 0.00000E+00
 -1      4085 0.00000E+00 0.00000E+00 0.00000E+00
 -1      4086 0.00000E+00 0.00000E+00 0.00000E+00
 -1      4087 0.00000E+00 0.00000E+00 0.00000E+00
 -1      4088 0.00000E+00 0.00000E+00 0.00000E+00
 -1      4089 0.00000E+00 0.00000E+00 0.00000E+00
 -1      4090 0.00000E+00 0.00000E+00 0.00000E+00
 -1      4091 0.00000E+00 0.00000E+00 0.00000E+00
 -1      4092 0.00000E+00 0.00000E+00 0.00000E+00
 -1      4093 0.00000E+00 0.00000E+00 0.00000E+00
 -1      4094 0.00000E+00 0.00000E+00 0.00000E+00
 -1      4095 0.00000E+00 0.00000E+00 0.00000E+00
 -1      4096 0.00000E+00 0.00000E+00 0.00000E+00
 -1      4097 0.00000E+00 0.00000E+00 0.00000E+00
 -1      4098 0.00000E+00 0.00000E+00 0.00000E+00
 -1      4099 0.00000E+00 0.00000E+00 0.00000E+00
 -1      4100 0.00000E+00 0.00000E+00 0.00000E+00
 -1      4101 0.00000E+00 0.00000E+00 0.00000E+00
 -1      4102 0.00000E+00 0.00000E+00 0.00000E+00
 -1      4103 0.00000E+00 0.00000E+00 0.00000E+00
 -1      4104 0.00000E+00 0.00000E+00 0.00000E+00
 -1      4105 0.00000E+00 0.00000E+00 0.00000E+00
 -1      4106 0.00000E+00 0.00000E+00 0.00000E+00
 -1      4107 0.00000E+00 0.00000E+00 0.00000E+00
 -1      4108 0.00000E+00 0.00000E+00 0.00000E+00
 -1      4109 0.00000E+00 0.00000E+00 0.00000E+00
 -1      4110 0.00000E+00 0.00000E+00 0.00000E+00
 -1      4111 0.00000E+00 0.00000E+00 0.00000E+00
 -1      4112 0.00000E+00 0.00000E+00 0.00000E+00
 -1      4113 0.00000E+00 0.00000E+00 0.00000E+00
 -1      4114 0.00000E+00 0.00000E+00 0.00000E+00
 -1      4115 0.00000E+00 0.00000E+00 0.00000E+00
 -1      4116 0.00000E+00 0.00000E+00 0.00000E+00
 -1      4117 0.00000E+00 0.00000E+00 0.00000E+00
 -1      4118 0.00000E+00 0.00000E+00 0.00000E+00
 -1      4119 0.00000E+00 0.00000E+00 0.00000E+00
 -1      4120 0.00000E+00 0.00000E+00 0.00000E+00
 -1      4121 0.00000E+00 0.00000E+00 0.00000E+00
 -1      4122 0.00000E+00 0.00000E+00 0.00000E+00
 -1      4123 0.00000E+00 0.00000E+00 0.00000E+00
 -1      4124 0.00000E+00 0.00000E+00 0.00000E+00
 -1      4125 0.00000E+00 0.00000E+00 0.00000E+00
 -1      4126 0.00000E+00 0.00000E+00 0.00000E+00
 -1      4127 0.00000E+00 0.00000E+00 0.00000E+00
 -1      4128 0.00000E+00 0.00000E+00 0.00000E+00
 -1      4129 0.00000E+00 0.00000E+00 0.00000E+00
 -1      4130 0.00000E+00 0.00000E+00 0.00000E+00
 -1      4131 0.00000E+00 0.00000E+00 0.00000E+00
 -1      4132 0.00000E+00 0.00000E+00 0.00000E+00
 -1      4133 0.00000E+00 0.00000E+00 0.00000E+00
 -1      4134 0.00000E+00 0.00000E+00 0.00000E+00
 -1      4135 0.00000E+00 0.00000E+00 0.00000E+00
 -1      4136 0.00000E+00 0.00000E+00 0.00000E+00
 -1      4137 0.00000E+00 0.00000E+00 0.00000E+00
 -1      4138 0.00000E+00 0.00000E+00 0.00000E+00
 -1      4139 0.00000E+00 0.00000E+00 0.00000E+00
 -1      4140 0.00000E+00 0.00000E+00 0.00000E+00
 -1      4141 0.00000E+00 0.00000E+00 0.00000E+00
 -1      4142 0.00000E+00 0.00000E+00 0.00000E+00
 -1      4143 0.00000E+00 0.00000E+00 0.00000E+00
 -1      4144 0.00000E+00 0.00000E+00 0.00000E+00
 -1      4145 0.00000E+00 0.00000E+00 0.00000E+00
 -1      4146 0.00000E+00 0.00000E+00 0.00000E+00
 -1      4147 0.00000E+00 0.00000E+00 0.00000E+00
 -1      4148 0.00000E+00 0.00000E+00 0.00000E+00
 -1      4149 0.00000E+00 0.00000E+00 0.00000E+00
 -1      4150 0.00000E+00 0.00000E+00 0.00000E+00
 -1      4151 0.00000E+00 0.00000E+00 0.00000E+00
 -1      4152 0.00000E+00 0.00000E+00 0.00000E+00
 -1      4153 0.00000E+00 0.00000E+00 0.00000E+00
 -1      4154 0.00000E+00 0.00000E+00 0.00000E+00
 -1      4155 0.00000E+00 0.00000E+00 0.00000E+00
 -1      4156 0.00000E+00 0.00000E+00 0.00000E+00
 -1      4157 0.00000E+00 0.00000E+00 0.00000E+00
 -1      4158 0.00000E+00 0.00000E+00 0.00000E+00
 -1      4159 0.00000E+00 0.00000E+00 0.00000E+00
 -1      4160 0.00000E+00 0.00000E+00 0.00000E+00
 -1      4161 0.00000E+00 0.00000E+00 0.00000E+00
 -1      4162 0.00000E+00 0.00000E+00 0.00000E+00
 -1      4163 0.00000E+00 0.00000E+00 0.00000E+00
 -1      4164 0.00000E+00 0.00000E+00 0.00000E+00
 -1      4165 0.00000E+00 0.00000E+00 0.00000E+00
 -1      4166 0.00000E+00 0.00000E+00 0.00000E+00
 -1      4167 0.00000E+00 0.00000E+00 0.00000E+00
 -1      4168 0.00000E+00 0.00000E+00 0.00000E+00
 -1      4169 0.00000E+00 0.00000E+00 0.00000E+00
 -1      4170 0.00000E+00 0.00000E+00 0.00000E+00
 -1      4171 0.00000E+00 0.00000E+00 0.00000E+00
 -1      4172 0.00000E+00 0.00000E+00 0.00000E+00
 -1      4173 0.00000E+00 0.00000E+00 0.00000E+00
 -1      4174 0.00000E+00 0.00000E+00 0.00000E+00
 -1      4175 0.00000E+00 0.00000E+00 0.00000E+00
 -1      4176 0.00000E+00 0.00000E+00 0.00000E+00
 -1      4177 0.00000E+00 0.00000E+00 0.00000E+00
 -1      4178 0.00000E+00 0.00000E+00 0.00000E+00
 -1      4179 0.00000E+00 0.00000E+00 0.00000E+00
 -1      4180 0.00000E+00 0.00000E+00 0.00000E+00
 -1      4181 0.00000E+00 0.00000E+00 0.00000E+00
 -1      4182 0.00000E+00 0.00000E+00 0.00000E+00
 -1      4183 0.00000E+00 0.00000E+00 0.00000E+00
 -1      4184 0.00000E+00 0.00000E+00 0.00000E+00
 -1      4185 0.00000E+00 0.00000E+00 0.00000E+00
 -1      4186 0.00000E+00 0.00000E+00 0.00000E+00
 -1      4187 0.00000E+00 0.00000E+00 0.00000E+00
 -1      4188 0.00000E+00 0.00000E+00 0.00000E+00
 -1      4189 0.00000E+00 0.00000E+00 0.00000E+00
 -1      4190 0.00000E+00 0.00000E+00 0.00000E+00
 -1      4191 0.00000E+00 0.00000E+00 0.00000E+00
 -1      4192 0.00000E+00 0.00000E+00 0.00000E+00
 -1      4193 0.00000E+00 0.00000E+00 0.00000E+00
 -1      4194 0.00000E+00 0.00000E+00 0.00000E+00
 -1      4195 0.00000E+00 0.00000E+00 0.00000E+00
 -1      4196 0.00000E+00 0.00000E+00 0.00000E+00
 -1      4197 0.00000E+00 0.00000E+00 0.00000E+00
 -1      4198 0.00000E+00 0.00000E+00 0.00000E+00
 -1      4199 0.00000E+00 0.00000E+00 0.00000E+00
 -1      4200 0.00000E+00 0.00000E+00 0.00000E+00
 -1      4201 0.00000E+00 0.00000E+00 0.00000E+00
 -1      4202 0.00000E+00 0.00000E+00 0.00000E+00
 -1      4203 0.00000E+00 0.00000E+00 0.00000E+00
 -1      4204 0.00000E+00 0.00000E+00 0.00000E+00
 -1      4205 0.00000E+00 0.00000E+00 0.00000E+00
 -1      4206 0.00000E+00 0.00000E+00 0.00000E+00
 -1      4207 0.00000E+00 0.00000E+00 0.00000E+00
 -1      4208 0.00000E+00 0.00000E+00 0.00000E+00
 -1      4209 0.00000E+00 0.00000E+00 0.00000E+00
 -1      4210 0.00000E+00 0.00000E+00 0.00000E+00
 -1      4211 0.00000E+00 0.00000E+00 0.00000E+00
 -1      4212 0.00000E+00 0.00000E+00 0.00000E+00
 -1      4213 0.00000E+00 0.00000E+00 0.00000E+00
 -1      4214 0.00000E+00 0.00000E+00 0.00000E+00
 -1      4215 0.00000E+00 0.00000E+00 0.00000E+00
 -1      4216 0.00000E+00 0.00000E+00 0.00000E+00
 -1      4217 0.00000E+00 0.00000E+00 0.00000E+00
 -1      4218 0.00000E+00 0.00000E+00 0.00000E+00
 -1      4219 0.00000E+00 0.00000E+00 0.00000E+00
 -1      4220 0.00000E+00 0.00000E+00 0.00000E+00
 -1      4221 0.00000E+00 0.00000E+00 0.00000E+00
 -1      4222 0.00000E+00 0.00000E+00 0.00000E+00
 -1      4223 0.00000E+00 0.00000E+00 0.00000E+00
 -1      4224 0.00000E+00 0.00000E+00 0.00000E+00
 -1      4225 0.00000E+00 0.00000E+00 0.00000E+00
 -1      4226 0.00000E+00 0.00000E+00 0.00000E+00
 -1      4227 0.00000E+00 0.00000E+00 0.00000E+00
 -1      4228 0.00000E+00 0.00000E+00 0.00000E+00
 -1      4229 0.00000E+00 0.00000E+00 0.00000E+00
 -1      4230 0.00000E+00 0.00000E+00 0.00000E+00
 -1      4231 0.00000E+00 0.00000E+00 0.00000E+00
 -1      4232 0.00000E+00 0.00000E+00 0.00000E+00
 -1      4233 0.00000E+00 0.00000E+00 0.00000E+00
 -1      4234 0.00000E+00 0.00000E+00 0.00000E+00
 -1      4235 0.00000E+00 0.00000E+00 0.00000E+00
 -1      4236 0.00000E+00 0.00000E+00 0.00000E+00
 -1      4237 0.00000E+00 0.00000E+00 0.00000E+00
 -1      4238 0.00000E+00 0.00000E+00 0.00000E+00
 -1      4239 0.00000E+00 0.00000E+00 0.00000E+00
 -1      4240 0.00000E+00 0.00000E+00 0.00000E+00
 -1      4241 0.00000E+00 0.00000E+00 0.00000E+00
 -1      4242 0.00000E+00 0.00000E+00 0.00000E+00
 -1      4243 0.00000E+00 0.00000E+00 0.00000E+00
 -1      4244 0.00000E+00 0.00000E+00 0.00000E+00
 -1      4245 0.00000E+00 0.00000E+00 0.00000E+00
 -1      4246 0.00000E+00 0.00000E+00 0.00000E+00
 -1      4247 0.00000E+00 0.00000E+00 0.00000E+00
 -1      4248 0.00000E+00 0.00000E+00 0.00000E+00
 -1      4249 0.00000E+00 0.00000E+00 0.00000E+00
 -1      4250 0.00000E+00 0.00000E+00 0.00000E+00
 -1      4251 0.00000E+00 0.00000E+00 0.00000E+00
 -1      4252 0.00000E+00 0.00000E+00 0.00000E+00
 -1      4253 0.00000E+00 0.00000E+00 0.00000E+00
 -1      4254 0.00000E+00 0.00000E+00 0.00000E+00
 -1      4255 0.00000E+00 0.00000E+00 0.00000E+00
 -1      4256 0.00000E+00 0.00000E+00 0.00000E+00
 -1      4257 0.00000E+00 0.00000E+00 0.00000E+00
 -1      4258 0.00000E+00 0.00000E+00 0.00000E+00
 -1      4259 0.00000E+00 0.00000E+00 0.00000E+00
 -1      4260 0.00000E+00 0.00000E+00 0.00000E+00
 -1      4261 0.00000E+00 0.00000E+00 0.00000E+00
 -1      4262 0.00000E+00 0.00000E+00 0.00000E+00
 -1      4263 0.00000E+00 0.00000E+00 0.00000E+00
 -1      4264 0.00000E+00 0.00000E+00 0.00000E+00
 -1      4265 0.00000E+00 0.00000E+00 0.00000E+00
 -1      4266 0.00000E+00 0.00000E+00 0.00000E+00
 -1      4267 0.00000E+00 0.00000E+00 0.00000E+00
 -1      4268 0.00000E+00 0.00000E+00 0.00000E+00
 -1      4269 0.00000E+00 0.00000E+00 0.00000E+00
 -1      4270 0.00000E+00 0.00000E+00 0.00000E+00
 -1      4271 0.00000E+00 0.00000E+00 0.00000E+00
 -1      4272 0.00000E+00 0.00000E+00 0.00000E+00
 -1      4273 0.00000E+00 0.00000E+00 0.00000E+00
 -1      4274 0.00000E+00 0.00000E+00 0.00000E+00
 -1      4275 0.00000E+00 0.00000E+00 0.00000E+00
 -1      4276 0.00000E+00 0.00000E+00 0.00000E+00
 -1      4277 0.00000E+00 0.00000E+00 0.00000E+00
 -1      4278 0.00000E+00 0.00000E+00 0.00000E+00
 -1      4279 0.00000E+00 0.00000E+00 0.00000E+00
 -1      4280 0.00000E+00 0.00000E+00 0.00000E+00
 -1      4281 0.00000E+00 0.00000E+00 0.00000E+00
 -1      4282 0.00000E+00 0.00000E+00 0.00000E+00
 -1      4283 0.00000E+00 0.00000E+00 0.00000E+00
 -1      4284 0.00000E+00 0.00000E+00 0.00000E+00
 -1      4285 0.00000E+00 0.00000E+00 0.00000E+00
 -1      4286 0.00000E+00 0.00000E+00 0.00000E+00
 -1      4287 0.00000E+00 0.00000E+00 0.00000E+00
 -1      4288 0.00000E+00 0.00000E+00 0.00000E+00
 -1      4289 0.00000E+00 0.00000E+00 0.00000E+00
 -1      4290 0.00000E+00 0.00000E+00 0.00000E+00
 -1      4291 0.00000E+00 0.00000E+00 0.00000E+00
 -1      4292 0.00000E+00 0.00000E+00 0.00000E+00
 -1      4293 0.00000E+00 0.00000E+00 0.00000E+00
 -1      4294 0.00000E+00 0.00000E+00 0.00000E+00
 -1      4295 0.00000E+00 0.00000E+00 0.00000E+00
 -1      4296 0.00000E+00 0.00000E+00 0.00000E+00
 -1      4297 0.00000E+00 0.00000E+00 0.00000E+00
 -1      4298 0.00000E+00 0.00000E+00 0.00000E+00
 -1      4299 0.00000E+00 0.00000E+00 0.00000E+00
 -1      4300 0.00000E+00 0.00000E+00 0.00000E+00
 -1      4301 0.00000E+00 0.00000E+00 0.00000E+00
 -1      4302 0.00000E+00 0.00000E+00 0.00000E+00
 -1      4303 0.00000E+00 0.00000E+00 0.00000E+00
 -1      4304 0.00000E+00 0.00000E+00 0.00000E+00
 -1      4305 0.00000E+00 0.00000E+00 0.00000E+00
 -1      4306 0.00000E+00 0.00000E+00 0.00000E+00
 -1      4307 0.00000E+00 0.00000E+00 0.00000E+00
 -1      4308 0.00000E+00 0.00000E+00 0.00000E+00
 -1      4309 0.00000E+00 0.00000E+00 0.00000E+00
 -1      4310 0.00000E+00 0.00000E+00 0.00000E+00
 -1      4311 0.00000E+00 0.00000E+00 0.00000E+00
 -1      4312 0.00000E+00 0.00000E+00 0.00000E+00
 -1      4313 0.00000E+00 0.00000E+00 0.00000E+00
 -1      4314 0.00000E+00 0.00000E+00 0.00000E+00
 -1      4315 0.00000E+00 0.00000E+00 0.00000E+00
 -1      4316 0.00000E+00 0.00000E+00 0.00000E+00
 -1      4317 0.00000E+00 0.00000E+00 0.00000E+00
 -1      4318 0.00000E+00 0.00000E+00 0.00000E+00
 -1      4319 0.00000E+00 0.00000E+00 0.00000E+00
 -1      4320 0.00000E+00 0.00000E+00 0.00000E+00
 -1      4321 0.00000E+00 0.00000E+00 0.00000E+00
 -1      4322 0.00000E+00 0.00000E+00 0.00000E+00
 -1      4323 0.00000E+00 0.00000E+00 0.00000E+00
 -1      4324 0.00000E+00 0.00000E+00 0.00000E+00
 -1      4325 0.00000E+00 0.00000E+00 0.00000E+00
 -1      4326 0.00000E+00 0.00000E+00 0.00000E+00
 -1      4327 0.00000E+00 0.00000E+00 0.00000E+00
 -1      4328 0.00000E+00 0.00000E+00 0.00000E+00
 -1      4329 0.00000E+00 0.00000E+00 0.00000E+00
 -1      4330 0.00000E+00 0.00000E+00 0.00000E+00
 -1      4331 0.00000E+00 0.00000E+00 0.00000E+00
 -1      4332 0.00000E+00 0.00000E+00 0.00000E+00
 -1      4333 0.00000E+00 0.00000E+00 0.00000E+00
 -1      4334 0.00000E+00 0.00000E+00 0.00000E+00
 -1      4335 0.00000E+00 0.00000E+00 0.00000E+00
 -1      4336 0.00000E+00 0.00000E+00 0.00000E+00
 -1      4337 0.00000E+00 0.00000E+00 0.00000E+00
 -1      4338 0.00000E+00 0.00000E+00 0.00000E+00
 -1      4339 0.00000E+00 0.00000E+00 0.00000E+00
 -1      4340 0.00000E+00 0.00000E+00 0.00000E+00
 -1      4341 0.00000E+00 0.00000E+00 0.00000E+00
 -1      4342 0.00000E+00 0.00000E+00 0.00000E+00
 -1      4343 0.00000E+00 0.00000E+00 0.00000E+00
 -1      4344 0.00000E+00 0.00000E+00 0.00000E+00
 -1      4345 0.00000E+00 0.00000E+00 0.00000E+00
 -1      4346 0.00000E+00 0.00000E+00 0.00000E+00
 -1      4347 0.00000E+00 0.00000E+00 0.00000E+00
 -1      4348 0.00000E+00 0.00000E+00 0.00000E+00
 -1      4349 0.00000E+00 0.00000E+00 0.00000E+00
 -1      4350 0.00000E+00 0.00000E+00 0.00000E+00
 -1      4351 0.00000E+00 0.00000E+00 0.00000E+00
 -1      4352 0.00000E+00 0.00000E+00 0.00000E+00
 -1      4353 0.00000E+00 0.00000E+00 0.00000E+00
 -1      4354 0.00000E+00 0.00000E+00 0.00000E+00
 -1      4355 0.00000E+00 0.00000E+00 0.00000E+00
 -1      4356 0.00000E+00 0.00000E+00 0.00000E+00
 -1      4357 0.00000E+00 0.00000E+00 0.00000E+00
 -1      4358 0.00000E+00 0.00000E+00 0.00000E+00
 -1      4359 0.00000E+00 0.00000E+00 0.00000E+00
 -1      4360 0.00000E+00 0.00000E+00 0.00000E+00
 -1      4361 0.00000E+00 0.00000E+00 0.00000E+00
 -1      4362 0.00000E+00 0.00000E+00 0.00000E+00
 -1      4363 0.00000E+00 0.00000E+00 0.00000E+00
 -1      4364 0.00000E+00 0.00000E+00 0.00000E+00
 -1      4365 0.00000E+00 0.00000E+00 0.00000E+00
 -1      4366 0.00000E+00 0.00000E+00 0.00000E+00
 -1      4367 0.00000E+00 0.00000E+00 0.00000E+00
 -1      4368 0.00000E+00 0.00000E+00 0.00000E+00
 -1      4369 0.00000E+00 0.00000E+00 0.00000E+00
 -1      4370 0.00000E+00 0.00000E+00 0.00000E+00
 -1      4371 0.00000E+00 0.00000E+00 0.00000E+00
 -1      4372 0.00000E+00 0.00000E+00 0.00000E+00
 -1      4373 0.00000E+00 0.00000E+00 0.00000E+00
 -1      4374 0.00000E+00 0.00000E+00 0.00000E+00
 -1      4375 0.00000E+00 0.00000E+00 0.00000E+00
 -1      4376 0.00000E+00 0.00000E+00 0.00000E+00
 -1      4377 0.00000E+00 0.00000E+00 0.00000E+00
 -1      4378 0.00000E+00 0.00000E+00 0.00000E+00
 -1      4379 0.00000E+00 0.00000E+00 0.00000E+00
 -1      4380 0.00000E+00 0.00000E+00 0.00000E+00
 -1      4381 0.00000E+00 0.00000E+00 0.00000E+00
 -1      4382 0.00000E+00 0.00000E+00 0.00000E+00
 -1      4383 0.00000E+00 0.00000E+00 0.00000E+00
 -1      4384 0.00000E+00 0.00000E+00 0.00000E+00
 -1      4385 0.00000E+00 0.00000E+00 0.00000E+00
 -1      4386 0.00000E+00 0.00000E+00 0.00000E+00
 -1      4387 0.00000E+00 0.00000E+00 0.00000E+00
 -1      4388 0.00000E+00 0.00000E+00 0.00000E+00
 -1      4389 0.00000E+00 0.00000E+00 0.00000E+00
 -1      4390 0.00000E+00 0.00000E+00 0.00000E+00
 -1      4391 0.00000E+00 0.00000E+00 0.00000E+00
 -1      4392 0.00000E+00 0.00000E+00 0.00000E+00
 -1      4393 0.00000E+00 0.00000E+00 0.00000E+00
 -1      4394 0.00000E+00 0.00000E+00 0.00000E+00
 -1      4395 0.00000E+00 0.00000E+00 0.00000E+00
 -1      4396 0.00000E+00 0.00000E+00 0.00000E+00
 -1      4397 0.00000E+00 0.00000E+00 0.00000E+00
 -1      4398 0.00000E+00 0.00000E+00 0.00000E+00
 -1      4399 0.00000E+00 0.00000E+00 0.00000E+00
 -1      4400 0.00000E+00 0.00000E+00 0.00000E+00
 -1      4401 0.00000E+00 0.00000E+00 0.00000E+00
 -1      4402 0.00000E+00 0.00000E+00 0.00000E+00
 -1      4403 0.00000E+00 0.00000E+00 0.00000E+00
 -1      4404 0.00000E+00 0.00000E+00 0.00000E+00
 -1      4405 0.00000E+00 0.00000E+00 0.00000E+00
 -1      4406 0.00000E+00 0.00000E+00 0.00000E+00
 -1      4407 0.00000E+00 0.00000E+00 0.00000E+00
 -1      4408 0.00000E+00 0.00000E+00 0.00000E+00
 -1      4409 0.00000E+00 0.00000E+00 0.00000E+00
 -1      4410 0.00000E+00 0.00000E+00 0.00000E+00
 -1      4411 0.00000E+00 0.00000E+00 0.00000E+00
 -1      4412 0.00000E+00 0.00000E+00 0.00000E+00
 -1      4413 0.00000E+00 0.00000E+00 0.00000E+00
 -1      4414 0.00000E+00 0.00000E+00 0.00000E+00
 -1      4415 0.00000E+00 0.00000E+00 0.00000E+00
 -1      4416 0.00000E+00 0.00000E+00 0.00000E+00
 -1      4417 0.00000E+00 0.00000E+00 0.00000E+00
 -1      4418 0.00000E+00 0.00000E+00 0.00000E+00
 -1      4419 0.00000E+00 0.00000E+00 0.00000E+00
 -1      4420 0.00000E+00 0.00000E+00 0.00000E+00
 -1      4421 0.00000E+00 0.00000E+00 0.00000E+00
 -1      4422 0.00000E+00 0.00000E+00 0.00000E+00
 -1      4423 0.00000E+00 0.00000E+00 0.00000E+00
 -1      4424 0.00000E+00 0.00000E+00 0.00000E+00
 -1      4425 0.00000E+00 0.00000E+00 0.00000E+00
 -1      4426 0.00000E+00 0.00000E+00 0.00000E+00
 -1      4427 0.00000E+00 0.00000E+00 0.00000E+00
 -1      4428 0.00000E+00 0.00000E+00 0.00000E+00
 -1      4429 0.00000E+00 0.00000E+00 0.00000E+00
 -1      4430 0.00000E+00 0.00000E+00 0.00000E+00
 -1      4431 0.00000E+00 0.00000E+00 0.00000E+00
 -1      4432 0.00000E+00 0.00000E+00 0.00000E+00
 -1      4433 0.00000E+00 0.00000E+00 0.00000E+00
 -1      4434 0.00000E+00 0.00000E+00 0.00000E+00
 -1      4435 0.00000E+00 0.00000E+00 0.00000E+00
 -1      4436 0.00000E+00 0.00000E+00 0.00000E+00
 -1      4437 0.00000E+00 0.00000E+00 0.00000E+00
 -1      4438 0.00000E+00 0.00000E+00 0.00000E+00
 -1      4439 0.00000E+00 0.00000E+00 0.00000E+00
 -1      4440 0.00000E+00 0.00000E+00 0.00000E+00
 -1      4441 0.00000E+00 0.00000E+00 0.00000E+00
 -1      4442 0.00000E+00 0.00000E+00 0.00000E+00
 -1      4443 0.00000E+00 0.00000E+00 0.00000E+00
 -1      4444 0.00000E+00 0.00000E+00 0.00000E+00
 -1      4445 0.00000E+00 0.00000E+00 0.00000E+00
 -1      4446 0.00000E+00 0.00000E+00 0.00000E+00
 -1      4447 0.00000E+00 0.00000E+00 0.00000E+00
 -1      4448 0.00000E+00 0.00000E+00 0.00000E+00
 -1      4449 0.00000E+00 0.00000E+00 0.00000E+00
 -1      4450 0.00000E+00 0.00000E+00 0.00000E+00
 -1      4451 0.00000E+00 0.00000E+00 0.00000E+00
 -1      4452 0.00000E+00 0.00000E+00 0.00000E+00
 -1      4453 0.00000E+00 0.00000E+00 0.00000E+00
 -1      4454 0.00000E+00 0.00000E+00 0.00000E+00
 -1      4455 0.00000E+00 0.00000E+00 0.00000E+00
 -1      4456 0.00000E+00 0.00000E+00 0.00000E+00
 -1      4457 0.00000E+00 0.00000E+00 0.00000E+00
 -1      4458 0.00000E+00 0.00000E+00 0.00000E+00
 -1      4459 0.00000E+00 0.00000E+00 0.00000E+00
 -1      4460 0.00000E+00 0.00000E+00 0.00000E+00
 -1      4461 0.00000E+00 0.00000E+00 0.00000E+00
 -1      4462 0.00000E+00 0.00000E+00 0.00000E+00
 -1      4463 0.00000E+00 0.00000E+00 0.00000E+00
 -1      4464 0.00000E+00 0.00000E+00 0.00000E+00
 -1      4465 0.00000E+00 0.00000E+00 0.00000E+00
 -1      4466 0.00000E+00 0.00000E+00 0.00000E+00
 -1      4467 0.00000E+00 0.00000E+00 0.00000E+00
 -1      4468 0.00000E+00 0.00000E+00 0.00000E+00
 -1      4469 0.00000E+00 0.00000E+00 0.00000E+00
 -1      4470 0.00000E+00 0.00000E+00 0.00000E+00
 -1      4471 0.00000E+00 0.00000E+00 0.00000E+00
 -1      4472 0.00000E+00 0.00000E+00 0.00000E+00
 -1      4473 0.00000E+00 0.00000E+00 0.00000E+00
 -1      4474 0.00000E+00 0.00000E+00 0.00000E+00
 -1      4475 0.00000E+00 0.00000E+00 0.00000E+00
 -1      4476 0.00000E+00 0.00000E+00 0.00000E+00
 -1      4477 0.00000E+00 0.00000E+00 0.00000E+00
 -1      4478 0.00000E+00 0.00000E+00 0.00000E+00
 -1      4479 0.00000E+00 0.00000E+00 0.00000E+00
 -1      4480 0.00000E+00 0.00000E+00 0.00000E+00
 -1      4481 0.00000E+00 0.00000E+00 0.00000E+00
 -1      4482 0.00000E+00 0.00000E+00 0.00000E+00
 -1      4483 0.00000E+00 0.00000E+00 0.00000E+00
 -1      4484 0.00000E+00 0.00000E+00 0.00000E+00
 -1      4485 0.00000E+00 0.00000E+00 0.00000E+00
 -1      4486 0.00000E+00 0.00000E+00 0.00000E+00
 -1      4487 0.00000E+00 0.00000E+00 0.00000E+00
 -1      4488 0.00000E+00 0.00000E+00 0.00000E+00
 -1      4489 0.00000E+00 0.00000E+00 0.00000E+00
 -1      4490 0.00000E+00 0.00000E+00 0.00000E+00
 -1      4491 0.00000E+00 0.00000E+00 0.00000E+00
 -1      4492 0.00000E+00 0.00000E+00 0.00000E+00
 -1      4493 0.00000E+00 0.00000E+00 0.00000E+00
 -1      4494 0.00000E+00 0.00000E+00 0.00000E+00
 -1      4495 0.00000E+00 0.00000E+00 0.00000E+00
 -1      4496 0.00000E+00 0.00000E+00 0.00000E+00
 -1      4497 0.00000E+00 0.00000E+00 0.00000E+00
 -1      4498 0.00000E+00 0.00000E+00 0.00000E+00
 -1      4499 0.00000E+00 0.00000E+00 0.00000E+00
 -1      4500 0.00000E+00 0.00000E+00 0.00000E+00
 -1      4501 0.00000E+00 0.00000E+00 0.00000E+00
 -1      4502 0.00000E+00 0.00000E+00 0.00000E+00
 -1      4503 0.00000E+00 0.00000E+00 0.00000E+00
 -1      4504 0.00000E+00 0.00000E+00 0.00000E+00
 -1      4505 0.00000E+00 0.00000E+00 0.00000E+00
 -1      4506 0.00000E+00 0.00000E+00 0.00000E+00
 -1      4507 0.00000E+00 0.00000E+00 0.00000E+00
 -1      4508 0.00000E+00 0.00000E+00 0.00000E+00
 -1      4509 0.00000E+00 0.00000E+00 0.00000E+00
 -1      4510 0.00000E+00 0.00000E+00 0.00000E+00
 -1      4511 0.00000E+00 0.00000E+00 0.00000E+00
 -1      4512 0.00000E+00 0.00000E+00 0.00000E+00
 -1      4513 0.00000E+00 0.00000E+00 0.00000E+00
 -1      4514 0.00000E+00 0.00000E+00 0.00000E+00
 -1      4515 0.00000E+00 0.00000E+00 0.00000E+00
 -1      4516 0.00000E+00 0.00000E+00 0.00000E+00
 -1      4517 0.00000E+00 0.00000E+00 0.00000E+00
 -1      4518 0.00000E+00 0.00000E+00 0.00000E+00
 -1      4519 0.00000E+00 0.00000E+00 0.00000E+00
 -1      4520 0.00000E+00 0.00000E+00 0.00000E+00
 -1      4521 0.00000E+00 0.00000E+00 0.00000E+00
 -1      4522 0.00000E+00 0.00000E+00 0.00000E+00
 -1      4523 0.00000E+00 0.00000E+00 0.00000E+00
 -1      4524 0.00000E+00 0.00000E+00 0.00000E+00
 -1      4525 0.00000E+00 0.00000E+00 0.00000E+00
 -1      4526 0.00000E+00 0.00000E+00 0.00000E+00
 -1      4527 0.00000E+00 0.00000E+00 0.00000E+00
 -1      4528 0.00000E+00 0.00000E+00 0.00000E+00
 -1      4529 0.00000E+00 0.00000E+00 0.00000E+00
 -1      4530 0.00000E+00 0.00000E+00 0.00000E+00
 -1      4531 0.00000E+00 0.00000E+00 0.00000E+00
 -1      4532 0.00000E+00 0.00000E+00 0.00000E+00
 -1      4533 0.00000E+00 0.00000E+00 0.00000E+00
 -1      4534 0.00000E+00 0.00000E+00 0.00000E+00
 -1      4535 0.00000E+00 0.00000E+00 0.00000E+00
 -1      4536 0.00000E+00 0.00000E+00 0.00000E+00
 -1      4537 0.00000E+00 0.00000E+00 0.00000E+00
 -1      4538 0.00000E+00 0.00000E+00 0.00000E+00
 -1      4539 0.00000E+00 0.00000E+00 0.00000E+00
 -1      4540 0.00000E+00 0.00000E+00 0.00000E+00
 -1      4541 0.00000E+00 0.00000E+00 0.00000E+00
 -1      4542 0.00000E+00 0.00000E+00 0.00000E+00
 -1      4543 0.00000E+00 0.00000E+00 0.00000E+00
 -1      4544 0.00000E+00 0.00000E+00 0.00000E+00
 -1      4545 0.00000E+00 0.00000E+00 0.00000E+00
 -1      4546 0.00000E+00 0.00000E+00 0.00000E+00
 -1      4547 0.00000E+00 0.00000E+00 0.00000E+00
 -1      4548 0.00000E+00 0.00000E+00 0.00000E+00
 -1      4549 0.00000E+00 0.00000E+00 0.00000E+00
 -1      4550 0.00000E+00 0.00000E+00 0.00000E+00
 -1      4551 0.00000E+00 0.00000E+00 0.00000E+00
 -1      4552 0.00000E+00 0.00000E+00 0.00000E+00
 -1      4553 0.00000E+00 0.00000E+00 0.00000E+00
 -1      4554 0.00000E+00 0.00000E+00 0.00000E+00
 -1      4555 0.00000E+00 0.00000E+00 0.00000E+00
 -1      4556 0.00000E+00 0.00000E+00 0.00000E+00
 -1      4557 0.00000E+00 0.00000E+00 0.00000E+00
 -1      4558 0.00000E+00 0.00000E+00 0.00000E+00
 -1      4559 0.00000E+00 0.00000E+00 0.00000E+00
 -1      4560 0.00000E+00 0.00000E+00 0.00000E+00
 -1      4561 0.00000E+00 0.00000E+00 0.00000E+00
 -1      4562 0.00000E+00 0.00000E+00 0.00000E+00
 -1      4563 0.00000E+00 0.00000E+00 0.00000E+00
 -1      4564 0.00000E+00 0.00000E+00 0.00000E+00
 -1      4565 0.00000E+00 0.00000E+00 0.00000E+00
 -1      4566 0.00000E+00 0.00000E+00 0.00000E+00
 -1      4567 0.00000E+00 0.00000E+00 0.00000E+00
 -1      4568 0.00000E+00 0.00000E+00 0.00000E+00
 -1      4569 0.00000E+00 0.00000E+00 0.00000E+00
 -1      4570 0.00000E+00 0.00000E+00 0.00000E+00
 -1      4571 0.00000E+00 0.00000E+00 0.00000E+00
 -1      4572 0.00000E+00 0.00000E+00 0.00000E+00
 -1      4573 0.00000E+00 0.00000E+00 0.00000E+00
 -1      4574 0.00000E+00 0.00000E+00 0.00000E+00
 -1      4575 0.00000E+00 0.00000E+00 0.00000E+00
 -1      4576 0.00000E+00 0.00000E+00 0.00000E+00
 -1      4577 0.00000E+00 0.00000E+00 0.00000E+00
 -1      4578 0.00000E+00 0.00000E+00 0.00000E+00
 -1      4579 0.00000E+00 0.00000E+00 0.00000E+00
 -1      4580 0.00000E+00 0.00000E+00 0.00000E+00
 -1      4581 0.00000E+00 0.00000E+00 0.00000E+00
 -1      4582 0.00000E+00 0.00000E+00 0.00000E+00
 -1      4583 0.00000E+00 0.00000E+00 0.00000E+00
 -1      4584 0.00000E+00 0.00000E+00 0.00000E+00
 -1      4585 0.00000E+00 0.00000E+00 0.00000E+00
 -1      4586 0.00000E+00 0.00000E+00 0.00000E+00
 -1      4587 0.00000E+00 0.00000E+00 0.00000E+00
 -1      4588 0.00000E+00 0.00000E+00 0.00000E+00
 -1      4589 0.00000E+00 0.00000E+00 0.00000E+00
 -1      4590 0.00000E+00 0.00000E+00 0.00000E+00
 -1      4591 0.00000E+00 0.00000E+00 0.00000E+00
 -1      4592 0.00000E+00 0.00000E+00 0.00000E+00
 -1      4593 0.00000E+00 0.00000E+00 0.00000E+00
 -1      4594 0.00000E+00 0.00000E+00 0.00000E+00
 -1      4595 0.00000E+00 0.00000E+00 0.00000E+00
 -1      4596 0.00000E+00 0.00000E+00 0.00000E+00
 -1      4597 0.00000E+00 0.00000E+00 0.00000E+00
 -1      4598 0.00000E+00 0.00000E+00 0.00000E+00
 -1      4599 0.00000E+00 0.00000E+00 0.00000E+00
 -1      4600 0.00000E+00 0.00000E+00 0.00000E+00
 -1      4601 0.00000E+00 0.00000E+00 0.00000E+00
 -1      4602 0.00000E+00 0.00000E+00 0.00000E+00
 -1      4603 0.00000E+00 0.00000E+00 0.00000E+00
 -1      4604 0.00000E+00 0.00000E+00 0.00000E+00
 -1      4605 0.00000E+00 0.00000E+00 0.00000E+00
 -1      4606 0.00000E+00 0.00000E+00 0.00000E+00
 -1      4607 0.00000E+00 0.00000E+00 0.00000E+00
 -1      4608 0.00000E+00 0.00000E+00 0.00000E+00
 -1      4609 0.00000E+00 0.00000E+00 0.00000E+00
 -1      4610 0.00000E+00 0.00000E+00 0.00000E+00
 -1      4611 0.00000E+00 0.00000E+00 0.00000E+00
 -1      4612 0.00000E+00 0.00000E+00 0.00000E+00
 -1      4613 0.00000E+00 0.00000E+00 0.00000E+00
 -1      4614 0.00000E+00 0.00000E+00 0.00000E+00
 -1      4615 0.00000E+00 0.00000E+00 0.00000E+00
 -1      4616 0.00000E+00 0.00000E+00 0.00000E+00
 -1      4617 0.00000E+00 0.00000E+00 0.00000E+00
 -1      4618 0.00000E+00 0.00000E+00 0.00000E+00
 -1      4619 0.00000E+00 0.00000E+00 0.00000E+00
 -1      4620 0.00000E+00 0.00000E+00 0.00000E+00
 -1      4621 0.00000E+00 0.00000E+00 0.00000E+00
 -1      4622 0.00000E+00 0.00000E+00 0.00000E+00
 -1      4623 0.00000E+00 0.00000E+00 0.00000E+00
 -1      4624 0.00000E+00 0.00000E+00 0.00000E+00
 -1      4625 0.00000E+00 0.00000E+00 0.00000E+00
 -1      4626 0.00000E+00 0.00000E+00 0.00000E+00
 -1      4627 0.00000E+00 0.00000E+00 0.00000E+00
 -1      4628 0.00000E+00 0.00000E+00 0.00000E+00
 -1      4629 0.00000E+00 0.00000E+00 0.00000E+00
 -1      4630 0.00000E+00 0.00000E+00 0.00000E+00
 -1      4631 0.00000E+00 0.00000E+00 0.00000E+00
 -1      4632 0.00000E+00 0.00000E+00 0.00000E+00
 -1      4633 0.00000E+00 0.00000E+00 0.00000E+00
 -1      4634 0.00000E+00 0.00000E+00 0.00000E+00
 -1      4635 0.00000E+00 0.00000E+00 0.00000E+00
 -1      4636 0.00000E+00 0.00000E+00 0.00000E+00
 -1      4637 0.00000E+00 0.00000E+00 0.00000E+00
 -1      4638 0.00000E+00 0.00000E+00 0.00000E+00
 -1      4639 0.00000E+00 0.00000E+00 0.00000E+00
 -1      4640 0.00000E+00 0.00000E+00 0.00000E+00
 -1      4641 0.00000E+00 0.00000E+00 0.00000E+00
 -1      4642 0.00000E+00 0.00000E+00 0.00000E+00
 -1      4643 0.00000E+00 0.00000E+00 0.00000E+00
 -1      4644 0.00000E+00 0.00000E+00 0.00000E+00
 -1      4645 0.00000E+00 0.00000E+00 0.00000E+00
 -1      4646 0.00000E+00 0.00000E+00 0.00000E+00
 -1      4647 0.00000E+00 0.00000E+00 0.00000E+00
 -1      4648 0.00000E+00 0.00000E+00 0.00000E+00
 -1      4649 0.00000E+00 0.00000E+00 0.00000E+00
 -1      4650 0.00000E+00 0.00000E+00 0.00000E+00
 -1      4651 0.00000E+00 0.00000E+00 0.00000E+00
 -1      4652 0.00000E+00 0.00000E+00 0.00000E+00
 -1      4653 0.00000E+00 0.00000E+00 0.00000E+00
 -1      4654 0.00000E+00 0.00000E+00 0.00000E+00
 -1      4655 0.00000E+00 0.00000E+00 0.00000E+00
 -1      4656 0.00000E+00 0.00000E+00 0.00000E+00
 -1      4657 0.00000E+00 0.00000E+00 0.00000E+00
 -1      4658 0.00000E+00 0.00000E+00 0.00000E+00
 -1      4659 0.00000E+00 0.00000E+00 0.00000E+00
 -1      4660 0.00000E+00 0.00000E+00 0.00000E+00
 -1      4661 0.00000E+00 0.00000E+00 0.00000E+00
 -1      4662 0.00000E+00 0.00000E+00 0.00000E+00
 -1      4663 0.00000E+00 0.00000E+00 0.00000E+00
 -1      4664 0.00000E+00 0.00000E+00 0.00000E+00
 -1      4665 0.00000E+00 0.00000E+00 0.00000E+00
 -1      4666 0.00000E+00 0.00000E+00 0.00000E+00
 -1      4667 0.00000E+00 0.00000E+00 0.00000E+00
 -1      4668 0.00000E+00 0.00000E+00 0.00000E+00
 -1      4669 0.00000E+00 0.00000E+00 0.00000E+00
 -1      4670 0.00000E+00 0.00000E+00 0.00000E+00
 -1      4671 0.00000E+00 0.00000E+00 0.00000E+00
 -1      4672 0.00000E+00 0.00000E+00 0.00000E+00
 -1      4673 0.00000E+00 0.00000E+00 0.00000E+00
 -1      4674 0.00000E+00 0.00000E+00 0.00000E+00
 -1      4675 0.00000E+00 0.00000E+00 0.00000E+00
 -1      4676 0.00000E+00 0.00000E+00 0.00000E+00
 -1      4677 0.00000E+00 0.00000E+00 0.00000E+00
 -1      4678 0.00000E+00 0.00000E+00 0.00000E+00
 -1      4679 0.00000E+00 0.00000E+00 0.00000E+00
 -1      4680 0.00000E+00 0.00000E+00 0.00000E+00
 -1      4681 0.00000E+00 0.00000E+00 0.00000E+00
 -1      4682 0.00000E+00 0.00000E+00 0.00000E+00
 -1      4683 0.00000E+00 0.00000E+00 0.00000E+00
 -1      4684 0.00000E+00 0.00000E+00 0.00000E+00
 -1      4685 0.00000E+00 0.00000E+00 0.00000E+00
 -1      4686 0.00000E+00 0.00000E+00 0.00000E+00
 -1      4687 0.00000E+00 0.00000E+00 0.00000E+00
 -1      4688 0.00000E+00 0.00000E+00 0.00000E+00
 -1      4689 0.00000E+00 0.00000E+00 0.00000E+00
 -1      4690 0.00000E+00 0.00000E+00 0.00000E+00
 -1      4691 0.00000E+00 0.00000E+00 0.00000E+00
 -1      4692 0.00000E+00 0.00000E+00 0.00000E+00
 -1      4693 0.00000E+00 0.00000E+00 0.00000E+00
 -1      4694 0.00000E+00 0.00000E+00 0.00000E+00
 -1      4695 0.00000E+00 0.00000E+00 0.00000E+00
 -1      4696 0.00000E+00 0.00000E+00 0.00000E+00
 -1      4697 0.00000E+00 0.00000E+00 0.00000E+00
 -1      4698 0.00000E+00 0.00000E+00 0.00000E+00
 -1      4699 0.00000E+00 0.00000E+00 0.00000E+00
 -1      4700 0.00000E+00 0.00000E+00 0.00000E+00
 -1      4701 0.00000E+00 0.00000E+00 0.00000E+00
 -1      4702 0.00000E+00 0.00000E+00 0.00000E+00
 -1      4703 0.00000E+00 0.00000E+00 0.00000E+00
 -1      4704 0.00000E+00 0.00000E+00 0.00000E+00
 -1      4705 0.00000E+00 0.00000E+00 0.00000E+00
 -1      4706 0.00000E+00 0.00000E+00 0.00000E+00
 -1      4707 0.00000E+00 0.00000E+00 0.00000E+00
 -1      4708 0.00000E+00 0.00000E+00 0.00000E+00
 -1      4709 0.00000E+00 0.00000E+00 0.00000E+00
 -1      4710 0.00000E+00 0.00000E+00 0.00000E+00
 -1      4711 0.00000E+00 0.00000E+00 0.00000E+00
 -1      4712 0.00000E+00 0.00000E+00 0.00000E+00
 -1      4713 0.00000E+00 0.00000E+00 0.00000E+00
 -1      4714 0.00000E+00 0.00000E+00 0.00000E+00
 -1      4715 0.00000E+00 0.00000E+00 0.00000E+00
 -1      4716 0.00000E+00 0.00000E+00 0.00000E+00
 -1      4717 0.00000E+00 0.00000E+00 0.00000E+00
 -1      4718 0.00000E+00 0.00000E+00 0.00000E+00
 -1      4719 0.00000E+00 0.00000E+00 0.00000E+00
 -1      4720 0.00000E+00 0.00000E+00 0.00000E+00
 -1      4721 0.00000E+00 0.00000E+00 0.00000E+00
 -1      4722 0.00000E+00 0.00000E+00 0.00000E+00
 -1      4723 0.00000E+00 0.00000E+00 0.00000E+00
 -1      4724 0.00000E+00 0.00000E+00 0.00000E+00
 -1      4725 0.00000E+00 0.00000E+00 0.00000E+00
 -1      4726 0.00000E+00 0.00000E+00 0.00000E+00
 -1      4727 0.00000E+00 0.00000E+00 0.00000E+00
 -1      4728 0.00000E+00 0.00000E+00 0.00000E+00
 -1      4729 0.00000E+00 0.00000E+00 0.00000E+00
 -1      4730 0.00000E+00 0.00000E+00 0.00000E+00
 -1      4731 0.00000E+00 0.00000E+00 0.00000E+00
 -1      4732 0.00000E+00 0.00000E+00 0.00000E+00
 -1      4733 0.00000E+00 0.00000E+00 0.00000E+00
 -1      4734 0.00000E+00 0.00000E+00 0.00000E+00
 -1      4735 0.00000E+00 0.00000E+00 0.00000E+00
 -1      4736 0.00000E+00 0.00000E+00 0.00000E+00
 -1      4737 0.00000E+00 0.00000E+00 0.00000E+00
 -1      4738 0.00000E+00 0.00000E+00 0.00000E+00
 -1      4739 0.00000E+00 0.00000E+00 0.00000E+00
 -1      4740 0.00000E+00 0.00000E+00 0.00000E+00
 -1      4741 0.00000E+00 0.00000E+00 0.00000E+00
 -1      4742 0.00000E+00 0.00000E+00 0.00000E+00
 -1      4743 0.00000E+00 0.00000E+00 0.00000E+00
 -1      4744 0.00000E+00 0.00000E+00 0.00000E+00
 -1      4745 0.00000E+00 0.00000E+00 0.00000E+00
 -1      4746 0.00000E+00 0.00000E+00 0.00000E+00
 -1      4747 0.00000E+00 0.00000E+00 0.00000E+00
 -1      4748 0.00000E+00 0.00000E+00 0.00000E+00
 -1      4749 0.00000E+00 0.00000E+00 0.00000E+00
 -1      4750 0.00000E+00 0.00000E+00 0.00000E+00
 -1      4751 0.00000E+00 0.00000E+00 0.00000E+00
 -1      4752 0.00000E+00 0.00000E+00 0.00000E+00
 -1      4753 0.00000E+00 0.00000E+00 0.00000E+00
 -1      4754 0.00000E+00 0.00000E+00 0.00000E+00
 -1      4755 0.00000E+00 0.00000E+00 0.00000E+00
 -1      4756 0.00000E+00 0.00000E+00 0.00000E+00
 -1      4757 0.00000E+00 0.00000E+00 0.00000E+00
 -1      4758 0.00000E+00 0.00000E+00 0.00000E+00
 -1      4759 0.00000E+00 0.00000E+00 0.00000E+00
 -1      4760 0.00000E+00 0.00000E+00 0.00000E+00
 -1      4761 0.00000E+00 0.00000E+00 0.00000E+00
 -1      4762 0.00000E+00 0.00000E+00 0.00000E+00
 -1      4763 0.00000E+00 0.00000E+00 0.00000E+00
 -1      4764 0.00000E+00 0.00000E+00 0.00000E+00
 -1      4765 0.00000E+00 0.00000E+00 0.00000E+00
 -1      4766 0.00000E+00 0.00000E+00 0.00000E+00
 -1      4767 0.00000E+00 0.00000E+00 0.00000E+00
 -1      4768 0.00000E+00 0.00000E+00 0.00000E+00
 -1      4769 0.00000E+00 0.00000E+00 0.00000E+00
 -1      4770 0.00000E+00 0.00000E+00 0.00000E+00
 -1      4771 0.00000E+00 0.00000E+00 0.00000E+00
 -1      4772 0.00000E+00 0.00000E+00 0.00000E+00
 -1      4773 0.00000E+00 0.00000E+00 0.00000E+00
 -1      4774 0.00000E+00 0.00000E+00 0.00000E+00
 -1      4775 0.00000E+00 0.00000E+00 0.00000E+00
 -1      4776 0.00000E+00 0.00000E+00 0.00000E+00
 -1      4777 0.00000E+00 0.00000E+00 0.00000E+00
 -1      4778 0.00000E+00 0.00000E+00 0.00000E+00
 -1      4779 0.00000E+00 0.00000E+00 0.00000E+00
 -1      4780 0.00000E+00 0.00000E+00 0.00000E+00
 -1      4781 0.00000E+00 0.00000E+00 0.00000E+00
 -1      4782 0.00000E+00 0.00000E+00 0.00000E+00
 -1      4783 0.00000E+00 0.00000E+00 0.00000E+00
 -1      4784 0.00000E+00 0.00000E+00 0.00000E+00
 -1      4785 0.00000E+00 0.00000E+00 0.00000E+00
 -1      4786 0.00000E+00 0.00000E+00 0.00000E+00
 -1      4787 0.00000E+00 0.00000E+00 0.00000E+00
 -1      4788 0.00000E+00 0.00000E+00 0.00000E+00
 -1      4789 0.00000E+00 0.00000E+00 0.00000E+00
 -1      4790 0.00000E+00 0.00000E+00 0.00000E+00
 -1      4791 0.00000E+00 0.00000E+00 0.00000E+00
 -1      4792 0.00000E+00 0.00000E+00 0.00000E+00
 -1      4793 0.00000E+00 0.00000E+00 0.00000E+00
 -1      4794 0.00000E+00 0.00000E+00 0.00000E+00
 -1      4795 0.00000E+00 0.00000E+00 0.00000E+00
 -1      4796 0.00000E+00 0.00000E+00 0.00000E+00
 -1      4797 0.00000E+00 0.00000E+00 0.00000E+00
 -1      4798 0.00000E+00 0.00000E+00 0.00000E+00
 -1      4799 0.00000E+00 0.00000E+00 0.00000E+00
 -1      4800 0.00000E+00 0.00000E+00 0.00000E+00
 -1      4801 0.00000E+00 0.00000E+00 0.00000E+00
 -1      4802 0.00000E+00 0.00000E+00 0.00000E+00
 -1      4803 0.00000E+00 0.00000E+00 0.00000E+00
 -1      4804 0.00000E+00 0.00000E+00 0.00000E+00
 -1      4805 0.00000E+00 0.00000E+00 0.00000E+00
 -1      4806 0.00000E+00 0.00000E+00 0.00000E+00
 -1      4807 0.00000E+00 0.00000E+00 0.00000E+00
 -1      4808 0.00000E+00 0.00000E+00 0.00000E+00
 -1      4809 0.00000E+00 0.00000E+00 0.00000E+00
 -1      4810 0.00000E+00 0.00000E+00 0.00000E+00
 -1      4811 0.00000E+00 0.00000E+00 0.00000E+00
 -1      4812 0.00000E+00 0.00000E+00 0.00000E+00
 -1      4813 0.00000E+00 0.00000E+00 0.00000E+00
 -1      4814 0.00000E+00 0.00000E+00 0.00000E+00
 -1      4815 0.00000E+00 0.00000E+00 0.00000E+00
 -1      4816 0.00000E+00 0.00000E+00 0.00000E+00
 -1      4817 0.00000E+00 0.00000E+00 0.00000E+00
 -1      4818 0.00000E+00 0.00000E+00 0.00000E+00
 -1      4819 0.00000E+00 0.00000E+00 0.00000E+00
 -1      4820 0.00000E+00 0.00000E+00 0.00000E+00
 -1      4821 0.00000E+00 0.00000E+00 0.00000E+00
 -1      4822 0.00000E+00 0.00000E+00 0.00000E+00
 -1      4823 0.00000E+00 0.00000E+00 0.00000E+00
 -1      4824 0.00000E+00 0.00000E+00 0.00000E+00
 -1      4825 0.00000E+00 0.00000E+00 0.00000E+00
 -1      4826 0.00000E+00 0.00000E+00 0.00000E+00
 -1      4827 0.00000E+00 0.00000E+00 0.00000E+00
 -1      4828 0.00000E+00 0.00000E+00 0.00000E+00
 -1      4829 0.00000E+00 0.00000E+00 0.00000E+00
 -1      4830 0.00000E+00 0.00000E+00 0.00000E+00
 -1      4831 0.00000E+00 0.00000E+00 0.00000E+00
 -1      4832 0.00000E+00 0.00000E+00 0.00000E+00
 -1      4833 0.00000E+00 0.00000E+00 0.00000E+00
 -1      4834 0.00000E+00 0.00000E+00 0.00000E+00
 -1      4835 0.00000E+00 0.00000E+00 0.00000E+00
 -1      4836 0.00000E+00 0.00000E+00 0.00000E+00
 -1      4837 0.00000E+00 0.00000E+00 0.00000E+00
 -1      4838 0.00000E+00 0.00000E+00 0.00000E+00
 -1      4839 0.00000E+00 0.00000E+00 0.00000E+00
 -1      4840 0.00000E+00 0.00000E+00 0.00000E+00
 -1      4841 0.00000E+00 0.00000E+00 0.00000E+00
 -1      4842 0.00000E+00 0.00000E+00 0.00000E+00
 -1      4843 0.00000E+00 0.00000E+00 0.00000E+00
 -1      4844 0.00000E+00 0.00000E+00 0.00000E+00
 -1      4845 0.00000E+00 0.00000E+00 0.00000E+00
 -1      4846 0.00000E+00 0.00000E+00 0.00000E+00
 -1      4847 0.00000E+00 0.00000E+00 0.00000E+00
 -1      4848 0.00000E+00 0.00000E+00 0.00000E+00
 -1      4849 0.00000E+00 0.00000E+00 0.00000E+00
 -1      4850 0.00000E+00 0.00000E+00 0.00000E+00
 -1      4851 0.00000E+00 0.00000E+00 0.00000E+00
 -1      4852 0.00000E+00 0.00000E+00 0.00000E+00
 -1      4853 0.00000E+00 0.00000E+00 0.00000E+00
 -1      4854 0.00000E+00 0.00000E+00 0.00000E+00
 -1      4855 0.00000E+00 0.00000E+00 0.00000E+00
 -1      4856 0.00000E+00 0.00000E+00 0.00000E+00
 -1      4857 0.00000E+00 0.00000E+00 0.00000E+00
 -1      4858 0.00000E+00 0.00000E+00 0.00000E+00
 -1      4859 0.00000E+00 0.00000E+00 0.00000E+00
 -1      4860 0.00000E+00 0.00000E+00 0.00000E+00
 -1      4861 0.00000E+00 0.00000E+00 0.00000E+00
 -1      4862 0.00000E+00 0.00000E+00 0.00000E+00
 -1      4863 0.00000E+00 0.00000E+00 0.00000E+00
 -1      4864 0.00000E+00 0.00000E+00 0.00000E+00
 -1      4865 0.00000E+00 0.00000E+00 0.00000E+00
 -1      4866 0.00000E+00 0.00000E+00 0.00000E+00
 -1      4867 0.00000E+00 0.00000E+00 0.00000E+00
 -1      4868 0.00000E+00 0.00000E+00 0.00000E+00
 -1      4869 0.00000E+00 0.00000E+00 0.00000E+00
 -1      4870 0.00000E+00 0.00000E+00 0.00000E+00
 -1      4871 0.00000E+00 0.00000E+00 0.00000E+00
 -1      4872 0.00000E+00 0.00000E+00 0.00000E+00
 -1      4873 0.00000E+00 0.00000E+00 0.00000E+00
 -1      4874 0.00000E+00 0.00000E+00 0.00000E+00
 -1      4875 0.00000E+00 0.00000E+00 0.00000E+00
 -1      4876 0.00000E+00 0.00000E+00 0.00000E+00
 -1      4877 0.00000E+00 0.00000E+00 0.00000E+00
 -1      4878 0.00000E+00 0.00000E+00 0.00000E+00
 -1      4879 0.00000E+00 0.00000E+00 0.00000E+00
 -1      4880 0.00000E+00 0.00000E+00 0.00000E+00
 -1      4881 0.00000E+00 0.00000E+00 0.00000E+00
 -1      4882 0.00000E+00 0.00000E+00 0.00000E+00
 -1      4883 0.00000E+00 0.00000E+00 0.00000E+00
 -1      4884 0.00000E+00 0.00000E+00 0.00000E+00
 -1      4885 0.00000E+00 0.00000E+00 0.00000E+00
 -1      4886 0.00000E+00 0.00000E+00 0.00000E+00
 -1      4887 0.00000E+00 0.00000E+00 0.00000E+00
 -1      4888 0.00000E+00 0.00000E+00 0.00000E+00
 -1      4889 0.00000E+00 0.00000E+00 0.00000E+00
 -1      4890 0.00000E+00 0.00000E+00 0.00000E+00
 -1      4891 0.00000E+00 0.00000E+00 0.00000E+00
 -1      4892 0.00000E+00 0.00000E+00 0.00000E+00
 -1      4893 0.00000E+00 0.00000E+00 0.00000E+00
 -1      4894 0.00000E+00 0.00000E+00 0.00000E+00
 -1      4895 0.00000E+00 0.00000E+00 0.00000E+00
 -1      4896 0.00000E+00 0.00000E+00 0.00000E+00
 -1      4897 0.00000E+00 0.00000E+00 0.00000E+00
 -1      4898 0.00000E+00 0.00000E+00 0.00000E+00
 -1      4899 0.00000E+00 0.00000E+00 0.00000E+00
 -1      4900 0.00000E+00 0.00000E+00 0.00000E+00
 -1      4901 0.00000E+00 0.00000E+00 0.00000E+00
 -1      4902 0.00000E+00 0.00000E+00 0.00000E+00
 -1      4903 0.00000E+00 0.00000E+00 0.00000E+00
 -1      4904 0.00000E+00 0.00000E+00 0.00000E+00
 -1      4905 0.00000E+00 0.00000E+00 0.00000E+00
 -1      4906 0.00000E+00 0.00000E+00 0.00000E+00
 -1      4907 0.00000E+00 0.00000E+00 0.00000E+00
 -1      4908 0.00000E+00 0.00000E+00 0.00000E+00
 -1      4909 0.00000E+00 0.00000E+00 0.00000E+00
 -1      4910 0.00000E+00 0.00000E+00 0.00000E+00
 -1      4911 0.00000E+00 0.00000E+00 0.00000E+00
 -1      4912 0.00000E+00 0.00000E+00 0.00000E+00
 -1      4913 0.00000E+00 0.00000E+00 0.00000E+00
 -1      4914 0.00000E+00 0.00000E+00 0.00000E+00
 -1      4915 0.00000E+00 0.00000E+00 0.00000E+00
 -1      4916 0.00000E+00 0.00000E+00 0.00000E+00
 -1      4917 0.00000E+00 0.00000E+00 0.00000E+00
 -1      4918 0.00000E+00 0.00000E+00 0.00000E+00
 -1      4919 0.00000E+00 0.00000E+00 0.00000E+00
 -1      4920 0.00000E+00 0.00000E+00 0.00000E+00
 -1      4921 0.00000E+00 0.00000E+00 0.00000E+00
 -1      4922 0.00000E+00 0.00000E+00 0.00000E+00
 -1      4923 0.00000E+00 0.00000E+00 0.00000E+00
 -1      4924 0.00000E+00 0.00000E+00 0.00000E+00
 -1      4925 0.00000E+00 0.00000E+00 0.00000E+00
 -1      4926 0.00000E+00 0.00000E+00 0.00000E+00
 -1      4927 0.00000E+00 0.00000E+00 0.00000E+00
 -1      4928 0.00000E+00 0.00000E+00 0.00000E+00
 -1      4929 0.00000E+00 0.00000E+00 0.00000E+00
 -1      4930 0.00000E+00 0.00000E+00 0.00000E+00
 -1      4931 0.00000E+00 0.00000E+00 0.00000E+00
 -1      4932 0.00000E+00 0.00000E+00 0.00000E+00
 -1      4933 0.00000E+00 0.00000E+00 0.00000E+00
 -1      4934 0.00000E+00 0.00000E+00 0.00000E+00
 -1      4935 0.00000E+00 0.00000E+00 0.00000E+00
 -1      4936 0.00000E+00 0.00000E+00 0.00000E+00
 -1      4937 0.00000E+00 0.00000E+00 0.00000E+00
 -1      4938 0.00000E+00 0.00000E+00 0.00000E+00
 -1      4939 0.00000E+00 0.00000E+00 0.00000E+00
 -1      4940 0.00000E+00 0.00000E+00 0.00000E+00
 -1      4941 0.00000E+00 0.00000E+00 0.00000E+00
 -1      4942 0.00000E+00 0.00000E+00 0.00000E+00
 -1      4943 0.00000E+00 0.00000E+00 0.00000E+00
 -1      4944 0.00000E+00 0.00000E+00 0.00000E+00
 -1      4945 0.00000E+00 0.00000E+00 0.00000E+00
 -1      4946 0.00000E+00 0.00000E+00 0.00000E+00
 -1      4947 0.00000E+00 0.00000E+00 0.00000E+00
 -1      4948 0.00000E+00 0.00000E+00 0.00000E+00
 -1      4949 0.00000E+00 0.00000E+00 0.00000E+00
 -1      4950 0.00000E+00 0.00000E+00 0.00000E+00
 -1      4951 0.00000E+00 0.00000E+00 0.00000E+00
 -1      4952 0.00000E+00 0.00000E+00 0.00000E+00
 -1      4953 0.00000E+00 0.00000E+00 0.00000E+00
 -1      4954 0.00000E+00 0.00000E+00 0.00000E+00
 -1      4955 0.00000E+00 0.00000E+00 0.00000E+00
 -1      4956 0.00000E+00 0.00000E+00 0.00000E+00
 -1      4957 0.00000E+00 0.00000E+00 0.00000E+00
 -1      4958 0.00000E+00 0.00000E+00 0.00000E+00
 -1      4959 0.00000E+00 0.00000E+00 0.00000E+00
 -1      4960 0.00000E+00 0.00000E+00 0.00000E+00
 -1      4961 0.00000E+00 0.00000E+00 0.00000E+00
 -1      4962 0.00000E+00 0.00000E+00 0.00000E+00
 -1      4963 0.00000E+00 0.00000E+00 0.00000E+00
 -1      4964 0.00000E+00 0.00000E+00 0.00000E+00
 -1      4965 0.00000E+00 0.00000E+00 0.00000E+00
 -1      4966 0.00000E+00 0.00000E+00 0.00000E+00
 -1      4967 0.00000E+00 0.00000E+00 0.00000E+00
 -1      4968 0.00000E+00 0.00000E+00 0.00000E+00
 -1      4969 0.00000E+00 0.00000E+00 0.00000E+00
 -1      4970 0.00000E+00 0.00000E+00 0.00000E+00
 -1      4971 0.00000E+00 0.00000E+00 0.00000E+00
 -1      4972 0.00000E+00 0.00000E+00 0.00000E+00
 -1      4973 0.00000E+00 0.00000E+00 0.00000E+00
 -1      4974 0.00000E+00 0.00000E+00 0.00000E+00
 -1      4975 0.00000E+00 0.00000E+00 0.00000E+00
 -1      4976 0.00000E+00 0.00000E+00 0.00000E+00
 -1      4977 0.00000E+00 0.00000E+00 0.00000E+00
 -1      4978 0.00000E+00 0.00000E+00 0.00000E+00
 -1      4979 0.00000E+00 0.00000E+00 0.00000E+00
 -1      4980 0.00000E+00 0.00000E+00 0.00000E+00
 -1      4981 0.00000E+00 0.00000E+00 0.00000E+00
 -1      4982 0.00000E+00 0.00000E+00 0.00000E+00
 -1      4983 0.00000E+00 0.00000E+00 0.00000E+00
 -1      4984 0.00000E+00 0.00000E+00 0.00000E+00
 -1      4985 0.00000E+00 0.00000E+00 0.00000E+00
 -1      4986 0.00000E+00 0.00000E+00 0.00000E+00
 -1      4987 0.00000E+00 0.00000E+00 0.00000E+00
 -1      4988 0.00000E+00 0.00000E+00 0.00000E+00
 -1      4989 0.00000E+00 0.00000E+00 0.00000E+00
 -1      4990 0.00000E+00 0.00000E+00 0.00000E+00
 -1      4991 0.00000E+00 0.00000E+00 0.00000E+00
 -1      4992 0.00000E+00 0.00000E+00 0.00000E+00
 -1      4993 0.00000E+00 0.00000E+00 0.00000E+00
 -1      4994 0.00000E+00 0.00000E+00 0.00000E+00
 -1      4995 0.00000E+00 0.00000E+00 0.00000E+00
 -1      4996 0.00000E+00 0.00000E+00 0.00000E+00
 -1      4997 0.00000E+00 0.00000E+00 0.00000E+00
 -1      4998 0.00000E+00 0.00000E+00 0.00000E+00
 -1      4999 0.00000E+00 0.00000E+00 0.00000E+00
 -1      5000 0.00000E+00 0.00000E+00 0.00000E+00
 -1      5001 0.00000E+00 0.00000E+00 0.00000E+00
 -1      5002 0.00000E+00 0.00000E+00 0.00000E+00
 -1      5003 0.00000E+00 0.00000E+00 0.00000E+00
 -1      5004 0.00000E+00 0.00000E+00 0.00000E+00
 -1      5005 0.00000E+00 0.00000E+00 0.00000E+00
 -1      5006 0.00000E+00 0.00000E+00 0.00000E+00
 -1      5007 0.00000E+00 0.00000E+00 0.00000E+00
 -1      5008 0.00000E+00 0.00000E+00 0.00000E+00
 -1      5009 0.00000E+00 0.00000E+00 0.00000E+00
 -1      5010 0.00000E+00 0.00000E+00 0.00000E+00
 -1      5011 0.00000E+00 0.00000E+00 0.00000E+00
 -1      5012 0.00000E+00 0.00000E+00 0.00000E+00
 -1      5013 0.00000E+00 0.00000E+00 0.00000E+00
 -1      5014 0.00000E+00 0.00000E+00 0.00000E+00
 -1      5015 0.00000E+00 0.00000E+00 0.00000E+00
 -1      5016 0.00000E+00 0.00000E+00 0.00000E+00
 -1      5017 0.00000E+00 0.00000E+00 0.00000E+00
 -1      5018 0.00000E+00 0.00000E+00 0.00000E+00
 -1      5019 0.00000E+00 0.00000E+00 0.00000E+00
 -1      5020 0.00000E+00 0.00000E+00 0.00000E+00
 -1      5021 0.00000E+00 0.00000E+00 0.00000E+00
 -1      5022 0.00000E+00 0.00000E+00 0.00000E+00
 -1      5023 0.00000E+00 0.00000E+00 0.00000E+00
 -1      5024 0.00000E+00 0.00000E+00 0.00000E+00
 -1      5025 0.00000E+00 0.00000E+00 0.00000E+00
 -1      5026 0.00000E+00 0.00000E+00 0.00000E+00
 -1      5027 0.00000E+00 0.00000E+00 0.00000E+00
 -1      5028 0.00000E+00 0.00000E+00 0.00000E+00
 -1      5029 0.00000E+00 0.00000E+00 0.00000E+00
 -1      5030 0.00000E+00 0.00000E+00 0.00000E+00
 -1      5031 0.00000E+00 0.00000E+00 0.00000E+00
 -1      5032 0.00000E+00 0.00000E+00 0.00000E+00
 -1      5033 0.00000E+00 0.00000E+00 0.00000E+00
 -1      5034 0.00000E+00 0.00000E+00 0.00000E+00
 -1      5035 0.00000E+00 0.00000E+00 0.00000E+00
 -1      5036 0.00000E+00 0.00000E+00 0.00000E+00
 -1      5037 0.00000E+00 0.00000E+00 0.00000E+00
 -1      5038 0.00000E+00 0.00000E+00 0.00000E+00
 -1      5039 0.00000E+00 0.00000E+00 0.00000E+00
 -1      5040 0.00000E+00 0.00000E+00 0.00000E+00
 -1      5041 0.00000E+00 0.00000E+00 0.00000E+00
 -1      5042 0.00000E+00 0.00000E+00 0.00000E+00
 -1      5043 0.00000E+00 0.00000E+00 0.00000E+00
 -1      5044 0.00000E+00 0.00000E+00 0.00000E+00
 -1      5045 0.00000E+00 0.00000E+00 0.00000E+00
 -1      5046 0.00000E+00 0.00000E+00 0.00000E+00
 -1      5047 0.00000E+00 0.00000E+00 0.00000E+00
 -1      5048 0.00000E+00 0.00000E+00 0.00000E+00
 -1      5049 0.00000E+00 0.00000E+00 0.00000E+00
 -1      5050 0.00000E+00 0.00000E+00 0.00000E+00
 -1      5051 0.00000E+00 0.00000E+00 0.00000E+00
 -1      5052 0.00000E+00 0.00000E+00 0.00000E+00
 -1      5053 0.00000E+00 0.00000E+00 0.00000E+00
 -1      5054 0.00000E+00 0.00000E+00 0.00000E+00
 -1      5055 0.00000E+00 0.00000E+00 0.00000E+00
 -1      5056 0.00000E+00 0.00000E+00 0.00000E+00
 -1      5057 0.00000E+00 0.00000E+00 0.00000E+00
 -1      5058 0.00000E+00 0.00000E+00 0.00000E+00
 -1      5059 0.00000E+00 0.00000E+00 0.00000E+00
 -1      5060 0.00000E+00 0.00000E+00 0.00000E+00
 -1      5061 0.00000E+00 0.00000E+00 0.00000E+00
 -1      5062 0.00000E+00 0.00000E+00 0.00000E+00
 -1      5063 0.00000E+00 0.00000E+00 0.00000E+00
 -1      5064 0.00000E+00 0.00000E+00 0.00000E+00
 -1      5065 0.00000E+00 0.00000E+00 0.00000E+00
 -1      5066 0.00000E+00 0.00000E+00 0.00000E+00
 -1      5067 0.00000E+00 0.00000E+00 0.00000E+00
 -1      5068 0.00000E+00 0.00000E+00 0.00000E+00
 -1      5069 0.00000E+00 0.00000E+00 0.00000E+00
 -1      5070 0.00000E+00 0.00000E+00 0.00000E+00
 -1      5071 0.00000E+00 0.00000E+00 0.00000E+00
 -1      5072 0.00000E+00 0.00000E+00 0.00000E+00
 -1      5073 0.00000E+00 0.00000E+00 0.00000E+00
 -1      5074 0.00000E+00 0.00000E+00 0.00000E+00
 -1      5075 0.00000E+00 0.00000E+00 0.00000E+00
 -1      5076 0.00000E+00 0.00000E+00 0.00000E+00
 -1      5077 0.00000E+00 0.00000E+00 0.00000E+00
 -1      5078 0.00000E+00 0.00000E+00 0.00000E+00
 -1      5079 0.00000E+00 0.00000E+00 0.00000E+00
 -1      5080 0.00000E+00 0.00000E+00 0.00000E+00
 -1      5081 0.00000E+00 0.00000E+00 0.00000E+00
 -1      5082 0.00000E+00 0.00000E+00 0.00000E+00
 -1      5083 0.00000E+00 0.00000E+00 0.00000E+00
 -1      5084 0.00000E+00 0.00000E+00 0.00000E+00
 -1      5085 0.00000E+00 0.00000E+00 0.00000E+00
 -1      5086 0.00000E+00 0.00000E+00 0.00000E+00
 -1      5087 0.00000E+00 0.00000E+00 0.00000E+00
 -1      5088 0.00000E+00 0.00000E+00 0.00000E+00
 -1      5089 0.00000E+00 0.00000E+00 0.00000E+00
 -1      5090 0.00000E+00 0.00000E+00 0.00000E+00
 -1      5091 0.00000E+00 0.00000E+00 0.00000E+00
 -1      5092 0.00000E+00 0.00000E+00 0.00000E+00
 -1      5093 0.00000E+00 0.00000E+00 0.00000E+00
 -1      5094 0.00000E+00 0.00000E+00 0.00000E+00
 -1      5095 0.00000E+00 0.00000E+00 0.00000E+00
 -1      5096 0.00000E+00 0.00000E+00 0.00000E+00
 -1      5097 0.00000E+00 0.00000E+00 0.00000E+00
 -1      5098 0.00000E+00 0.00000E+00 0.00000E+00
 -1      5099 0.00000E+00 0.00000E+00 0.00000E+00
 -1      5100 0.00000E+00 0.00000E+00 0.00000E+00
 -1      5101 0.00000E+00 0.00000E+00 0.00000E+00
 -1      5102 0.00000E+00 0.00000E+00 0.00000E+00
 -1      5103 0.00000E+00 0.00000E+00 0.00000E+00
 -1      5104 0.00000E+00 0.00000E+00 0.00000E+00
 -1      5105 0.00000E+00 0.00000E+00 0.00000E+00
 -1      5106 0.00000E+00 0.00000E+00 0.00000E+00
 -1      5107 0.00000E+00 0.00000E+00 0.00000E+00
 -1      5108 0.00000E+00 0.00000E+00 0.00000E+00
 -1      5109 0.00000E+00 0.00000E+00 0.00000E+00
 -1      5110 0.00000E+00 0.00000E+00 0.00000E+00
 -1      5111 0.00000E+00 0.00000E+00 0.00000E+00
 -1      5112 0.00000E+00 0.00000E+00 0.00000E+00
 -1      5113 0.00000E+00 0.00000E+00 0.00000E+00
 -1      5114 0.00000E+00 0.00000E+00 0.00000E+00
 -1      5115 0.00000E+00 0.00000E+00 0.00000E+00
 -1      5116 0.00000E+00 0.00000E+00 0.00000E+00
 -1      5117 0.00000E+00 0.00000E+00 0.00000E+00
 -1      5118 0.00000E+00 0.00000E+00 0.00000E+00
 -1      5119 0.00000E+00 0.00000E+00 0.00000E+00
 -1      5120 0.00000E+00 0.00000E+00 0.00000E+00
 -1      5121 0.00000E+00 0.00000E+00 0.00000E+00
 -1      5122 0.00000E+00 0.00000E+00 0.00000E+00
 -1      5123 0.00000E+00 0.00000E+00 0.00000E+00
 -1      5124 0.00000E+00 0.00000E+00 0.00000E+00
 -1      5125 0.00000E+00 0.00000E+00 0.00000E+00
 -1      5126 0.00000E+00 0.00000E+00 0.00000E+00
 -1      5127 0.00000E+00 0.00000E+00 0.00000E+00
 -1      5128 0.00000E+00 0.00000E+00 0.00000E+00
 -1      5129 0.00000E+00 0.00000E+00 0.00000E+00
 -1      5130 0.00000E+00 0.00000E+00 0.00000E+00
 -1      5131 0.00000E+00 0.00000E+00 0.00000E+00
 -1      5132 0.00000E+00 0.00000E+00 0.00000E+00
 -1      5133 0.00000E+00 0.00000E+00 0.00000E+00
 -1      5134 0.00000E+00 0.00000E+00 0.00000E+00
 -1      5135 0.00000E+00 0.00000E+00 0.00000E+00
 -1      5136 0.00000E+00 0.00000E+00 0.00000E+00
 -1      5137 0.00000E+00 0.00000E+00 0.00000E+00
 -1      5138 0.00000E+00 0.00000E+00 0.00000E+00
 -1      5139 0.00000E+00 0.00000E+00 0.00000E+00
 -1      5140 0.00000E+00 0.00000E+00 0.00000E+00
 -1      5141 0.00000E+00 0.00000E+00 0.00000E+00
 -1      5142 0.00000E+00 0.00000E+00 0.00000E+00
 -1      5143 0.00000E+00 0.00000E+00 0.00000E+00
 -1      5144 0.00000E+00 0.00000E+00 0.00000E+00
 -1      5145 0.00000E+00 0.00000E+00 0.00000E+00
 -1      5146 0.00000E+00 0.00000E+00 0.00000E+00
 -1      5147 0.00000E+00 0.00000E+00 0.00000E+00
 -1      5148 0.00000E+00 0.00000E+00 0.00000E+00
 -1      5149 0.00000E+00 0.00000E+00 0.00000E+00
 -1      5150 0.00000E+00 0.00000E+00 0.00000E+00
 -1      5151 0.00000E+00 0.00000E+00 0.00000E+00
 -1      5152 0.00000E+00 0.00000E+00 0.00000E+00
 -1      5153 0.00000E+00 0.00000E+00 0.00000E+00
 -1      5154 0.00000E+00 0.00000E+00 0.00000E+00
 -1      5155 0.00000E+00 0.00000E+00 0.00000E+00
 -1      5156 0.00000E+00 0.00000E+00 0.00000E+00
 -1      5157 0.00000E+00 0.00000E+00 0.00000E+00
 -1      5158 0.00000E+00 0.00000E+00 0.00000E+00
 -1      5159 0.00000E+00 0.00000E+00 0.00000E+00
 -1      5160 0.00000E+00 0.00000E+00 0.00000E+00
 -1      5161 0.00000E+00 0.00000E+00 0.00000E+00
 -1      5162 0.00000E+00 0.00000E+00 0.00000E+00
 -1      5163 0.00000E+00 0.00000E+00 0.00000E+00
 -1      5164 0.00000E+00 0.00000E+00 0.00000E+00
 -1      5165 0.00000E+00 0.00000E+00 0.00000E+00
 -1      5166 0.00000E+00 0.00000E+00 0.00000E+00
 -1      5167 0.00000E+00 0.00000E+00 0.00000E+00
 -1      5168 0.00000E+00 0.00000E+00 0.00000E+00
 -1      5169 0.00000E+00 0.00000E+00 0.00000E+00
 -1      5170 0.00000E+00 0.00000E+00 0.00000E+00
 -1      5171 0.00000E+00 0.00000E+00 0.00000E+00
 -1      5172 0.00000E+00 0.00000E+00 0.00000E+00
 -1      5173 0.00000E+00 0.00000E+00 0.00000E+00
 -1      5174 0.00000E+00 0.00000E+00 0.00000E+00
 -1      5175 0.00000E+00 0.00000E+00 0.00000E+00
 -1      5176 0.00000E+00 0.00000E+00 0.00000E+00
 -1      5177 0.00000E+00 0.00000E+00 0.00000E+00
 -1      5178 0.00000E+00 0.00000E+00 0.00000E+00
 -1      5179 0.00000E+00 0.00000E+00 0.00000E+00
 -1      5180 0.00000E+00 0.00000E+00 0.00000E+00
 -1      5181 0.00000E+00 0.00000E+00 0.00000E+00
 -1      5182 0.00000E+00 0.00000E+00 0.00000E+00
 -1      5183 0.00000E+00 0.00000E+00 0.00000E+00
 -1      5184 0.00000E+00 0.00000E+00 0.00000E+00
 -1      5185 0.00000E+00 0.00000E+00 0.00000E+00
 -1      5186 0.00000E+00 0.00000E+00 0.00000E+00
 -1      5187 0.00000E+00 0.00000E+00 0.00000E+00
 -1      5188 0.00000E+00 0.00000E+00 0.00000E+00
 -1      5189 0.00000E+00 0.00000E+00 0.00000E+00
 -1      5190 0.00000E+00 0.00000E+00 0.00000E+00
 -1      5191 0.00000E+00 0.00000E+00 0.00000E+00
 -1      5192 0.00000E+00 0.00000E+00 0.00000E+00
 -1      5193 0.00000E+00 0.00000E+00 0.00000E+00
 -1      5194 0.00000E+00 0.00000E+00 0.00000E+00
 -1      5195 0.00000E+00 0.00000E+00 0.00000E+00
 -1      5196 0.00000E+00 0.00000E+00 0.00000E+00
 -1      5197 0.00000E+00 0.00000E+00 0.00000E+00
 -1      5198 0.00000E+00 0.00000E+00 0.00000E+00
 -1      5199 0.00000E+00 0.00000E+00 0.00000E+00
 -1      5200 0.00000E+00 0.00000E+00 0.00000E+00
 -1      5201 0.00000E+00 0.00000E+00 0.00000E+00
 -1      5202 0.00000E+00 0.00000E+00 0.00000E+00
 -1      5203 0.00000E+00 0.00000E+00 0.00000E+00
 -1      5204 0.00000E+00 0.00000E+00 0.00000E+00
 -1      5205 0.00000E+00 0.00000E+00 0.00000E+00
 -1      5206 0.00000E+00 0.00000E+00 0.00000E+00
 -1      5207 0.00000E+00 0.00000E+00 0.00000E+00
 -1      5208 0.00000E+00 0.00000E+00 0.00000E+00
 -1      5209 0.00000E+00 0.00000E+00 0.00000E+00
 -1      5210 0.00000E+00 0.00000E+00 0.00000E+00
 -1      5211 0.00000E+00 0.00000E+00 0.00000E+00
 -1      5212 0.00000E+00 0.00000E+00 0.00000E+00
 -1      5213 0.00000E+00 0.00000E+00 0.00000E+00
 -1      5214 0.00000E+00 0.00000E+00 0.00000E+00
 -1      5215 0.00000E+00 0.00000E+00 0.00000E+00
 -1      5216 0.00000E+00 0.00000E+00 0.00000E+00
 -1      5217 0.00000E+00 0.00000E+00 0.00000E+00
 -1      5218 0.00000E+00 0.00000E+00 0.00000E+00
 -1      5219 0.00000E+00 0.00000E+00 0.00000E+00
 -1      5220 0.00000E+00 0.00000E+00 0.00000E+00
 -1      5221 0.00000E+00 0.00000E+00 0.00000E+00
 -1      5222 0.00000E+00 0.00000E+00 0.00000E+00
 -1      5223 0.00000E+00 0.00000E+00 0.00000E+00
 -1      5224 0.00000E+00 0.00000E+00 0.00000E+00
 -1      5225 0.00000E+00 0.00000E+00 0.00000E+00
 -1      5226 0.00000E+00 0.00000E+00 0.00000E+00
 -1      5227 0.00000E+00 0.00000E+00 0.00000E+00
 -1      5228 0.00000E+00 0.00000E+00 0.00000E+00
 -1      5229 0.00000E+00 0.00000E+00 0.00000E+00
 -1      5230 0.00000E+00 0.00000E+00 0.00000E+00
 -1      5231 0.00000E+00 0.00000E+00 0.00000E+00
 -1      5232 0.00000E+00 0.00000E+00 0.00000E+00
 -1      5233 0.00000E+00 0.00000E+00 0.00000E+00
 -1      5234 0.00000E+00 0.00000E+00 0.00000E+00
 -1      5235 0.00000E+00 0.00000E+00 0.00000E+00
 -1      5236 0.00000E+00 0.00000E+00 0.00000E+00
 -1      5237 0.00000E+00 0.00000E+00 0.00000E+00
 -1      5238 0.00000E+00 0.00000E+00 0.00000E+00
 -1      5239 0.00000E+00 0.00000E+00 0.00000E+00
 -1      5240 0.00000E+00 0.00000E+00 0.00000E+00
 -1      5241 0.00000E+00 0.00000E+00 0.00000E+00
 -1      5242 0.00000E+00 0.00000E+00 0.00000E+00
 -1      5243 0.00000E+00 0.00000E+00 0.00000E+00
 -1      5244 0.00000E+00 0.00000E+00 0.00000E+00
 -1      5245 0.00000E+00 0.00000E+00 0.00000E+00
 -1      5246 0.00000E+00 0.00000E+00 0.00000E+00
 -1      5247 0.00000E+00 0.00000E+00 0.00000E+00
 -1      5248 0.00000E+00 0.00000E+00 0.00000E+00
 -1      5249 0.00000E+00 0.00000E+00 0.00000E+00
 -1      5250 0.00000E+00 0.00000E+00 0.00000E+00
 -1      5251 0.00000E+00 0.00000E+00 0.00000E+00
 -1      5252 0.00000E+00 0.00000E+00 0.00000E+00
 -1      5253 0.00000E+00 0.00000E+00 0.00000E+00
 -1      5254 0.00000E+00 0.00000E+00 0.00000E+00
 -1      5255 0.00000E+00 0.00000E+00 0.00000E+00
 -1      5256 0.00000E+00 0.00000E+00 0.00000E+00
 -1      5257 0.00000E+00 0.00000E+00 0.00000E+00
 -1      5258 0.00000E+00 0.00000E+00 0.00000E+00
 -1      5259 0.00000E+00 0.00000E+00 0.00000E+00
 -1      5260 0.00000E+00 0.00000E+00 0.00000E+00
 -1      5261 0.00000E+00 0.00000E+00 0.00000E+00
 -1      5262 0.00000E+00 0.00000E+00 0.00000E+00
 -1      5263 0.00000E+00 0.00000E+00 0.00000E+00
 -1      5264 0.00000E+00 0.00000E+00 0.00000E+00
 -1      5265 0.00000E+00 0.00000E+00 0.00000E+00
 -1      5266 0.00000E+00 0.00000E+00 0.00000E+00
 -1      5267 0.00000E+00 0.00000E+00 0.00000E+00
 -1      5268 0.00000E+00 0.00000E+00 0.00000E+00
 -1      5269 0.00000E+00 0.00000E+00 0.00000E+00
 -1      5270 0.00000E+00 0.00000E+00 0.00000E+00
 -1      5271 0.00000E+00 0.00000E+00 0.00000E+00
 -1      5272 0.00000E+00 0.00000E+00 0.00000E+00
 -1      5273 0.00000E+00 0.00000E+00 0.00000E+00
 -1      5274 0.00000E+00 0.00000E+00 0.00000E+00
 -1      5275 0.00000E+00 0.00000E+00 0.00000E+00
 -1      5276 0.00000E+00 0.00000E+00 0.00000E+00
 -1      5277 0.00000E+00 0.00000E+00 0.00000E+00
 -1      5278 0.00000E+00 0.00000E+00 0.00000E+00
 -1      5279 0.00000E+00 0.00000E+00 0.00000E+00
 -1      5280 0.00000E+00 0.00000E+00 0.00000E+00
 -1      5281 0.00000E+00 0.00000E+00 0.00000E+00
 -1      5282 0.00000E+00 0.00000E+00 0.00000E+00
 -1      5283 0.00000E+00 0.00000E+00 0.00000E+00
 -1      5284 0.00000E+00 0.00000E+00 0.00000E+00
 -1      5285 0.00000E+00 0.00000E+00 0.00000E+00
 -1      5286 0.00000E+00 0.00000E+00 0.00000E+00
 -1      5287 0.00000E+00 0.00000E+00 0.00000E+00
 -1      5288 0.00000E+00 0.00000E+00 0.00000E+00
 -1      5289 0.00000E+00 0.00000E+00 0.00000E+00
 -1      5290 0.00000E+00 0.00000E+00 0.00000E+00
 -1      5291 0.00000E+00 0.00000E+00 0.00000E+00
 -1      5292 0.00000E+00 0.00000E+00 0.00000E+00
 -1      5293 0.00000E+00 0.00000E+00 0.00000E+00
 -1      5294 0.00000E+00 0.00000E+00 0.00000E+00
 -1      5295 0.00000E+00 0.00000E+00 0.00000E+00
 -1      5296 0.00000E+00 0.00000E+00 0.00000E+00
 -1      5297 0.00000E+00 0.00000E+00 0.00000E+00
 -1      5298 0.00000E+00 0.00000E+00 0.00000E+00
 -1      5299 0.00000E+00 0.00000E+00 0.00000E+00
 -1      5300 0.00000E+00 0.00000E+00 0.00000E+00
 -1      5301 0.00000E+00 0.00000E+00 0.00000E+00
 -1      5302 0.00000E+00 0.00000E+00 0.00000E+00
 -1      5303 0.00000E+00 0.00000E+00 0.00000E+00
 -1      5304 0.00000E+00 0.00000E+00 0.00000E+00
 -1      5305 0.00000E+00 0.00000E+00 0.00000E+00
 -1      5306 0.00000E+00 0.00000E+00 0.00000E+00
 -1      5307 0.00000E+00 0.00000E+00 0.00000E+00
 -1      5308 0.00000E+00 0.00000E+00 0.00000E+00
 -1      5309 0.00000E+00 0.00000E+00 0.00000E+00
 -1      5310 0.00000E+00 0.00000E+00 0.00000E+00
 -1      5311 0.00000E+00 0.00000E+00 0.00000E+00
 -1      5312 0.00000E+00 0.00000E+00 0.00000E+00
 -1      5313 0.00000E+00 0.00000E+00 0.00000E+00
 -1      5314 0.00000E+00 0.00000E+00 0.00000E+00
 -1      5315 0.00000E+00 0.00000E+00 0.00000E+00
 -1      5316 0.00000E+00 0.00000E+00 0.00000E+00
 -1      5317 0.00000E+00 0.00000E+00 0.00000E+00
 -1      5318 0.00000E+00 0.00000E+00 0.00000E+00
 -1      5319 0.00000E+00 0.00000E+00 0.00000E+00
 -1      5320 0.00000E+00 0.00000E+00 0.00000E+00
 -1      5321 0.00000E+00 0.00000E+00 0.00000E+00
 -1      5322 0.00000E+00 0.00000E+00 0.00000E+00
 -1      5323 0.00000E+00 0.00000E+00 0.00000E+00
 -1      5324 0.00000E+00 0.00000E+00 0.00000E+00
 -1      5325 0.00000E+00 0.00000E+00 0.00000E+00
 -1      5326 0.00000E+00 0.00000E+00 0.00000E+00
 -1      5327 0.00000E+00 0.00000E+00 0.00000E+00
 -1      5328 0.00000E+00 0.00000E+00 0.00000E+00
 -1      5329 0.00000E+00 0.00000E+00 0.00000E+00
 -1      5330 0.00000E+00 0.00000E+00 0.00000E+00
 -1      5331 0.00000E+00 0.00000E+00 0.00000E+00
 -1      5332 0.00000E+00 0.00000E+00 0.00000E+00
 -1      5333 0.00000E+00 0.00000E+00 0.00000E+00
 -1      5334 0.00000E+00 0.00000E+00 0.00000E+00
 -1      5335 0.00000E+00 0.00000E+00 0.00000E+00
 -1      5336 0.00000E+00 0.00000E+00 0.00000E+00
 -1      5337 0.00000E+00 0.00000E+00 0.00000E+00
 -1      5338 0.00000E+00 0.00000E+00 0.00000E+00
 -1      5339 0.00000E+00 0.00000E+00 0.00000E+00
 -1      5340 0.00000E+00 0.00000E+00 0.00000E+00
 -1      5341 0.00000E+00 0.00000E+00 0.00000E+00
 -1      5342 0.00000E+00 0.00000E+00 0.00000E+00
 -1      5343 0.00000E+00 0.00000E+00 0.00000E+00
 -1      5344 0.00000E+00 0.00000E+00 0.00000E+00
 -1      5345 0.00000E+00 0.00000E+00 0.00000E+00
 -1      5346 0.00000E+00 0.00000E+00 0.00000E+00
 -1      5347 0.00000E+00 0.00000E+00 0.00000E+00
 -1      5348 0.00000E+00 0.00000E+00 0.00000E+00
 -1      5349 0.00000E+00 0.00000E+00 0.00000E+00
 -1      5350 0.00000E+00 0.00000E+00 0.00000E+00
 -1      5351 0.00000E+00 0.00000E+00 0.00000E+00
 -1      5352 0.00000E+00 0.00000E+00 0.00000E+00
 -1      5353 0.00000E+00 0.00000E+00 0.00000E+00
 -1      5354 0.00000E+00 0.00000E+00 0.00000E+00
 -1      5355 0.00000E+00 0.00000E+00 0.00000E+00
 -1      5356 0.00000E+00 0.00000E+00 0.00000E+00
 -1      5357 0.00000E+00 0.00000E+00 0.00000E+00
 -1      5358 0.00000E+00 0.00000E+00 0.00000E+00
 -1      5359 0.00000E+00 0.00000E+00 0.00000E+00
 -1      5360 0.00000E+00 0.00000E+00 0.00000E+00
 -1      5361 0.00000E+00 0.00000E+00 0.00000E+00
 -1      5362 0.00000E+00 0.00000E+00 0.00000E+00
 -1      5363 0.00000E+00 0.00000E+00 0.00000E+00
 -1      5364 0.00000E+00 0.00000E+00 0.00000E+00
 -1      5365 0.00000E+00 0.00000E+00 0.00000E+00
 -1      5366 0.00000E+00 0.00000E+00 0.00000E+00
 -1      5367 0.00000E+00 0.00000E+00 0.00000E+00
 -1      5368 0.00000E+00 0.00000E+00 0.00000E+00
 -1      5369 0.00000E+00 0.00000E+00 0.00000E+00
 -1      5370 0.00000E+00 0.00000E+00 0.00000E+00
 -1      5371 0.00000E+00 0.00000E+00 0.00000E+00
 -1      5372 0.00000E+00 0.00000E+00 0.00000E+00
 -1      5373 0.00000E+00 0.00000E+00 0.00000E+00
 -1      5374 0.00000E+00 0.00000E+00 0.00000E+00
 -1      5375 0.00000E+00 0.00000E+00 0.00000E+00
 -1      5376 0.00000E+00 0.00000E+00 0.00000E+00
 -1      5377 0.00000E+00 0.00000E+00 0.00000E+00
 -1      5378 0.00000E+00 0.00000E+00 0.00000E+00
 -1      5379 0.00000E+00 0.00000E+00 0.00000E+00
 -1      5380 0.00000E+00 0.00000E+00 0.00000E+00
 -1      5381 0.00000E+00 0.00000E+00 0.00000E+00
 -1      5382 0.00000E+00 0.00000E+00 0.00000E+00
 -1      5383 0.00000E+00 0.00000E+00 0.00000E+00
 -1      5384 0.00000E+00 0.00000E+00 0.00000E+00
 -1      5385 0.00000E+00 0.00000E+00 0.00000E+00
 -1      5386 0.00000E+00 0.00000E+00 0.00000E+00
 -1      5387 0.00000E+00 0.00000E+00 0.00000E+00
 -1      5388 0.00000E+00 0.00000E+00 0.00000E+00
 -1      5389 0.00000E+00 0.00000E+00 0.00000E+00
 -1      5390 0.00000E+00 0.00000E+00 0.00000E+00
 -1      5391 0.00000E+00 0.00000E+00 0.00000E+00
 -1      5392 0.00000E+00 0.00000E+00 0.00000E+00
 -1      5393 0.00000E+00 0.00000E+00 0.00000E+00
 -1      5394 0.00000E+00 0.00000E+00 0.00000E+00
 -1      5395 0.00000E+00 0.00000E+00 0.00000E+00
 -1      5396 0.00000E+00 0.00000E+00 0.00000E+00
 -1      5397 0.00000E+00 0.00000E+00 0.00000E+00
 -1      5398 0.00000E+00 0.00000E+00 0.00000E+00
 -1      5399 0.00000E+00 0.00000E+00 0.00000E+00
 -1      5400 0.00000E+00 0.00000E+00 0.00000E+00
 -1      5401 0.00000E+00 0.00000E+00 0.00000E+00
 -1      5402 0.00000E+00 0.00000E+00 0.00000E+00
 -1      5403 0.00000E+00 0.00000E+00 0.00000E+00
 -1      5404 0.00000E+00 0.00000E+00 0.00000E+00
 -1      5405 0.00000E+00 0.00000E+00 0.00000E+00
 -1      5406 0.00000E+00 0.00000E+00 0.00000E+00
 -1      5407 0.00000E+00 0.00000E+00 0.00000E+00
 -1      5408 0.00000E+00 0.00000E+00 0.00000E+00
 -1      5409 0.00000E+00 0.00000E+00 0.00000E+00
 -1      5410 0.00000E+00 0.00000E+00 0.00000E+00
 -1      5411 0.00000E+00 0.00000E+00 0.00000E+00
 -1      5412 0.00000E+00 0.00000E+00 0.00000E+00
 -1      5413 0.00000E+00 0.00000E+00 0.00000E+00
 -1      5414 0.00000E+00 0.00000E+00 0.00000E+00
 -1      5415 0.00000E+00 0.00000E+00 0.00000E+00
 -1      5416 0.00000E+00 0.00000E+00 0.00000E+00
 -1      5417 0.00000E+00 0.00000E+00 0.00000E+00
 -1      5418 0.00000E+00 0.00000E+00 0.00000E+00
 -1      5419 0.00000E+00 0.00000E+00 0.00000E+00
 -1      5420 0.00000E+00 0.00000E+00 0.00000E+00
 -1      5421 0.00000E+00 0.00000E+00 0.00000E+00
 -1      5422 0.00000E+00 0.00000E+00 0.00000E+00
 -1      5423 0.00000E+00 0.00000E+00 0.00000E+00
 -1      5424 0.00000E+00 0.00000E+00 0.00000E+00
 -1      5425 0.00000E+00 0.00000E+00 0.00000E+00
 -1      5426 0.00000E+00 0.00000E+00 0.00000E+00
 -1      5427 0.00000E+00 0.00000E+00 0.00000E+00
 -1      5428 0.00000E+00 0.00000E+00 0.00000E+00
 -1      5429 0.00000E+00 0.00000E+00 0.00000E+00
 -1      5430 0.00000E+00 0.00000E+00 0.00000E+00
 -1      5431 0.00000E+00 0.00000E+00 0.00000E+00
 -1      5432 0.00000E+00 0.00000E+00 0.00000E+00
 -1      5433 0.00000E+00 0.00000E+00 0.00000E+00
 -1      5434 0.00000E+00 0.00000E+00 0.00000E+00
 -1      5435 0.00000E+00 0.00000E+00 0.00000E+00
 -1      5436 0.00000E+00 0.00000E+00 0.00000E+00
 -1      5437 0.00000E+00 0.00000E+00 0.00000E+00
 -1      5438 0.00000E+00 0.00000E+00 0.00000E+00
 -1      5439 0.00000E+00 0.00000E+00 0.00000E+00
 -1      5440 0.00000E+00 0.00000E+00 0.00000E+00
 -1      5441 0.00000E+00 0.00000E+00 0.00000E+00
 -1      5442 0.00000E+00 0.00000E+00 0.00000E+00
 -1      5443 0.00000E+00 0.00000E+00 0.00000E+00
 -1      5444 0.00000E+00 0.00000E+00 0.00000E+00
 -1      5445 0.00000E+00 0.00000E+00 0.00000E+00
 -1      5446 0.00000E+00 0.00000E+00 0.00000E+00
 -1      5447 0.00000E+00 0.00000E+00 0.00000E+00
 -1      5448 0.00000E+00 0.00000E+00 0.00000E+00
 -1      5449 0.00000E+00 0.00000E+00 0.00000E+00
 -1      5450 0.00000E+00 0.00000E+00 0.00000E+00
 -1      5451 0.00000E+00 0.00000E+00 0.00000E+00
 -1      5452 0.00000E+00 0.00000E+00 0.00000E+00
 -1      5453 0.00000E+00 0.00000E+00 0.00000E+00
 -1      5454 0.00000E+00 0.00000E+00 0.00000E+00
 -1      5455 0.00000E+00 0.00000E+00 0.00000E+00
 -1      5456 0.00000E+00 0.00000E+00 0.00000E+00
 -1      5457 0.00000E+00 0.00000E+00 0.00000E+00
 -1      5458 0.00000E+00 0.00000E+00 0.00000E+00
 -1      5459 0.00000E+00 0.00000E+00 0.00000E+00
 -1      5460 0.00000E+00 0.00000E+00 0.00000E+00
 -1      5461 0.00000E+00 0.00000E+00 0.00000E+00
 -1      5462 0.00000E+00 0.00000E+00 0.00000E+00
 -1      5463 0.00000E+00 0.00000E+00 0.00000E+00
 -1      5464 0.00000E+00 0.00000E+00 0.00000E+00
 -1      5465 0.00000E+00 0.00000E+00 0.00000E+00
 -1      5466 0.00000E+00 0.00000E+00 0.00000E+00
 -1      5467 0.00000E+00 0.00000E+00 0.00000E+00
 -1      5468 0.00000E+00 0.00000E+00 0.00000E+00
 -1      5469 0.00000E+00 0.00000E+00 0.00000E+00
 -1      5470 0.00000E+00 0.00000E+00 0.00000E+00
 -1      5471 0.00000E+00 0.00000E+00 0.00000E+00
 -1      5472 0.00000E+00 0.00000E+00 0.00000E+00
 -1      5473 0.00000E+00 0.00000E+00 0.00000E+00
 -1      5474 0.00000E+00 0.00000E+00 0.00000E+00
 -1      5475 0.00000E+00 0.00000E+00 0.00000E+00
 -1      5476 0.00000E+00 0.00000E+00 0.00000E+00
 -1      5477 0.00000E+00 0.00000E+00 0.00000E+00
 -1      5478 0.00000E+00 0.00000E+00 0.00000E+00
 -1      5479 0.00000E+00 0.00000E+00 0.00000E+00
 -1      5480 0.00000E+00 0.00000E+00 0.00000E+00
 -1      5481 0.00000E+00 0.00000E+00 0.00000E+00
 -1      5482 0.00000E+00 0.00000E+00 0.00000E+00
 -1      5483 0.00000E+00 0.00000E+00 0.00000E+00
 -1      5484 0.00000E+00 0.00000E+00 0.00000E+00
 -1      5485 0.00000E+00 0.00000E+00 0.00000E+00
 -1      5486 0.00000E+00 0.00000E+00 0.00000E+00
 -1      5487 0.00000E+00 0.00000E+00 0.00000E+00
 -1      5488 0.00000E+00 0.00000E+00 0.00000E+00
 -1      5489 0.00000E+00 0.00000E+00 0.00000E+00
 -1      5490 0.00000E+00 0.00000E+00 0.00000E+00
 -1      5491 0.00000E+00 0.00000E+00 0.00000E+00
 -1      5492 0.00000E+00 0.00000E+00 0.00000E+00
 -1      5493 0.00000E+00 0.00000E+00 0.00000E+00
 -1      5494 0.00000E+00 0.00000E+00 0.00000E+00
 -1      5495 0.00000E+00 0.00000E+00 0.00000E+00
 -1      5496 0.00000E+00 0.00000E+00 0.00000E+00
 -1      5497 0.00000E+00 0.00000E+00 0.00000E+00
 -1      5498 0.00000E+00 0.00000E+00 0.00000E+00
 -1      5499 0.00000E+00 0.00000E+00 0.00000E+00
 -1      5500 0.00000E+00 0.00000E+00 0.00000E+00
 -1      5501 0.00000E+00 0.00000E+00 0.00000E+00
 -1      5502 0.00000E+00 0.00000E+00 0.00000E+00
 -1      5503 0.00000E+00 0.00000E+00 0.00000E+00
 -1      5504 0.00000E+00 0.00000E+00 0.00000E+00
 -1      5505 0.00000E+00 0.00000E+00 0.00000E+00
 -1      5506 0.00000E+00 0.00000E+00 0.00000E+00
 -1      5507 0.00000E+00 0.00000E+00 0.00000E+00
 -1      5508 0.00000E+00 0.00000E+00 0.00000E+00
 -1      5509 0.00000E+00 0.00000E+00 0.00000E+00
 -1      5510 0.00000E+00 0.00000E+00 0.00000E+00
 -1      5511 0.00000E+00 0.00000E+00 0.00000E+00
 -1      5512 0.00000E+00 0.00000E+00 0.00000E+00
 -1      5513 0.00000E+00 0.00000E+00 0.00000E+00
 -1      5514 0.00000E+00 0.00000E+00 0.00000E+00
 -1      5515 0.00000E+00 0.00000E+00 0.00000E+00
 -1      5516 0.00000E+00 0.00000E+00 0.00000E+00
 -1      5517 0.00000E+00 0.00000E+00 0.00000E+00
 -1      5518 0.00000E+00 0.00000E+00 0.00000E+00
 -1      5519 0.00000E+00 0.00000E+00 0.00000E+00
 -1      5520 0.00000E+00 0.00000E+00 0.00000E+00
 -1      5521 0.00000E+00 0.00000E+00 0.00000E+00
 -1      5522 0.00000E+00 0.00000E+00 0.00000E+00
 -1      5523 0.00000E+00 0.00000E+00 0.00000E+00
 -1      5524 0.00000E+00 0.00000E+00 0.00000E+00
 -1      5525 0.00000E+00 0.00000E+00 0.00000E+00
 -1      5526 0.00000E+00 0.00000E+00 0.00000E+00
 -1      5527 0.00000E+00 0.00000E+00 0.00000E+00
 -1      5528 0.00000E+00 0.00000E+00 0.00000E+00
 -1      5529 0.00000E+00 0.00000E+00 0.00000E+00
 -1      5530 0.00000E+00 0.00000E+00 0.00000E+00
 -1      5531 0.00000E+00 0.00000E+00 0.00000E+00
 -1      5532 0.00000E+00 0.00000E+00 0.00000E+00
 -1      5533 0.00000E+00 0.00000E+00 0.00000E+00
 -1      5534 0.00000E+00 0.00000E+00 0.00000E+00
 -1      5535 0.00000E+00 0.00000E+00 0.00000E+00
 -1      5536 0.00000E+00 0.00000E+00 0.00000E+00
 -1      5537 0.00000E+00 0.00000E+00 0.00000E+00
 -1      5538 0.00000E+00 0.00000E+00 0.00000E+00
 -1      5539 0.00000E+00 0.00000E+00 0.00000E+00
 -1      5540 0.00000E+00 0.00000E+00 0.00000E+00
 -1      5541 0.00000E+00 0.00000E+00 0.00000E+00
 -1      5542 0.00000E+00 0.00000E+00 0.00000E+00
 -1      5543 0.00000E+00 0.00000E+00 0.00000E+00
 -1      5544 0.00000E+00 0.00000E+00 0.00000E+00
 -1      5545 0.00000E+00 0.00000E+00 0.00000E+00
 -1      5546 0.00000E+00 0.00000E+00 0.00000E+00
 -1      5547 0.00000E+00 0.00000E+00 0.00000E+00
 -1      5548 0.00000E+00 0.00000E+00 0.00000E+00
 -1      5549 0.00000E+00 0.00000E+00 0.00000E+00
 -1      5550 0.00000E+00 0.00000E+00 0.00000E+00
 -1      5551 0.00000E+00 0.00000E+00 0.00000E+00
 -1      5552 0.00000E+00 0.00000E+00 0.00000E+00
 -1      5553 0.00000E+00 0.00000E+00 0.00000E+00
 -1      5554 0.00000E+00 0.00000E+00 0.00000E+00
 -1      5555 0.00000E+00 0.00000E+00 0.00000E+00
 -1      5556 0.00000E+00 0.00000E+00 0.00000E+00
 -1      5557 0.00000E+00 0.00000E+00 0.00000E+00
 -1      5558 0.00000E+00 0.00000E+00 0.00000E+00
 -1      5559 0.00000E+00 0.00000E+00 0.00000E+00
 -1      5560 0.00000E+00 0.00000E+00 0.00000E+00
 -1      5561 0.00000E+00 0.00000E+00 0.00000E+00
 -1      5562 0.00000E+00 0.00000E+00 0.00000E+00
 -1      5563 0.00000E+00 0.00000E+00 0.00000E+00
 -1      5564 0.00000E+00 0.00000E+00 0.00000E+00
 -1      5565 0.00000E+00 0.00000E+00 0.00000E+00
 -1      5566 0.00000E+00 0.00000E+00 0.00000E+00
 -1      5567 0.00000E+00 0.00000E+00 0.00000E+00
 -1      5568 0.00000E+00 0.00000E+00 0.00000E+00
 -1      5569 0.00000E+00 0.00000E+00 0.00000E+00
 -1      5570 0.00000E+00 0.00000E+00 0.00000E+00
 -1      5571 0.00000E+00 0.00000E+00 0.00000E+00
 -1      5572 0.00000E+00 0.00000E+00 0.00000E+00
 -1      5573 0.00000E+00 0.00000E+00 0.00000E+00
 -1      5574 0.00000E+00 0.00000E+00 0.00000E+00
 -1      5575 0.00000E+00 0.00000E+00 0.00000E+00
 -1      5576 0.00000E+00 0.00000E+00 0.00000E+00
 -1      5577 0.00000E+00 0.00000E+00 0.00000E+00
 -1      5578 0.00000E+00 0.00000E+00 0.00000E+00
 -1      5579 0.00000E+00 0.00000E+00 0.00000E+00
 -1      5580 0.00000E+00 0.00000E+00 0.00000E+00
 -1      5581 0.00000E+00 0.00000E+00 0.00000E+00
 -1      5582 0.00000E+00 0.00000E+00 0.00000E+00
 -1      5583 0.00000E+00 0.00000E+00 0.00000E+00
 -1      5584 0.00000E+00 0.00000E+00 0.00000E+00
 -1      5585 0.00000E+00 0.00000E+00 0.00000E+00
 -1      5586 0.00000E+00 0.00000E+00 0.00000E+00
 -1      5587 0.00000E+00 0.00000E+00 0.00000E+00
 -1      5588 0.00000E+00 0.00000E+00 0.00000E+00
 -1      5589 0.00000E+00 0.00000E+00 0.00000E+00
 -1      5590 0.00000E+00 0.00000E+00 0.00000E+00
 -1      5591 0.00000E+00 0.00000E+00 0.00000E+00
 -1      5592 0.00000E+00 0.00000E+00 0.00000E+00
 -1      5593 0.00000E+00 0.00000E+00 0.00000E+00
 -1      5594 0.00000E+00 0.00000E+00 0.00000E+00
 -1      5595 0.00000E+00 0.00000E+00 0.00000E+00
 -1      5596 0.00000E+00 0.00000E+00 0.00000E+00
 -1      5597 0.00000E+00 0.00000E+00 0.00000E+00
 -1      5598 0.00000E+00 0.00000E+00 0.00000E+00
 -1      5599 0.00000E+00 0.00000E+00 0.00000E+00
 -1      5600 0.00000E+00 0.00000E+00 0.00000E+00
 -1      5601 0.00000E+00 0.00000E+00 0.00000E+00
 -1      5602 0.00000E+00 0.00000E+00 0.00000E+00
 -1      5603 0.00000E+00 0.00000E+00 0.00000E+00
 -1      5604 0.00000E+00 0.00000E+00 0.00000E+00
 -1      5605 0.00000E+00 0.00000E+00 0.00000E+00
 -1      5606 0.00000E+00 0.00000E+00 0.00000E+00
 -1      5607 0.00000E+00 0.00000E+00 0.00000E+00
 -1      5608 0.00000E+00 0.00000E+00 0.00000E+00
 -1      5609 0.00000E+00 0.00000E+00 0.00000E+00
 -1      5610 0.00000E+00 0.00000E+00 0.00000E+00
 -1      5611 0.00000E+00 0.00000E+00 0.00000E+00
 -1      5612 0.00000E+00 0.00000E+00 0.00000E+00
 -1      5613 0.00000E+00 0.00000E+00 0.00000E+00
 -1      5614 0.00000E+00 0.00000E+00 0.00000E+00
 -1      5615 0.00000E+00 0.00000E+00 0.00000E+00
 -1      5616 0.00000E+00 0.00000E+00 0.00000E+00
 -1      5617 0.00000E+00 0.00000E+00 0.00000E+00
 -1      5618 0.00000E+00 0.00000E+00 0.00000E+00
 -1      5619 0.00000E+00 0.00000E+00 0.00000E+00
 -1      5620 0.00000E+00 0.00000E+00 0.00000E+00
 -1      5621 0.00000E+00 0.00000E+00 0.00000E+00
 -1      5622 0.00000E+00 0.00000E+00 0.00000E+00
 -1      5623 0.00000E+00 0.00000E+00 0.00000E+00
 -1      5624 0.00000E+00 0.00000E+00 0.00000E+00
 -1      5625 0.00000E+00 0.00000E+00 0.00000E+00
 -1      5626 0.00000E+00 0.00000E+00 0.00000E+00
 -1      5627 0.00000E+00 0.00000E+00 0.00000E+00
 -1      5628 0.00000E+00 0.00000E+00 0.00000E+00
 -1      5629 0.00000E+00 0.00000E+00 0.00000E+00
 -1      5630 0.00000E+00 0.00000E+00 0.00000E+00
 -1      5631 0.00000E+00 0.00000E+00 0.00000E+00
 -1      5632 0.00000E+00 0.00000E+00 0.00000E+00
 -1      5633 0.00000E+00 0.00000E+00 0.00000E+00
 -1      5634 0.00000E+00 0.00000E+00 0.00000E+00
 -1      5635 0.00000E+00 0.00000E+00 0.00000E+00
 -1      5636 0.00000E+00 0.00000E+00 0.00000E+00
 -1      5637 0.00000E+00 0.00000E+00 0.00000E+00
 -1      5638 0.00000E+00 0.00000E+00 0.00000E+00
 -1      5639 0.00000E+00 0.00000E+00 0.00000E+00
 -1      5640 0.00000E+00 0.00000E+00 0.00000E+00
 -1      5641 0.00000E+00 0.00000E+00 0.00000E+00
 -1      5642 0.00000E+00 0.00000E+00 0.00000E+00
 -1      5643 0.00000E+00 0.00000E+00 0.00000E+00
 -1      5644 0.00000E+00 0.00000E+00 0.00000E+00
 -1      5645 0.00000E+00 0.00000E+00 0.00000E+00
 -1      5646 0.00000E+00 0.00000E+00 0.00000E+00
 -1      5647 0.00000E+00 0.00000E+00 0.00000E+00
 -1      5648 0.00000E+00 0.00000E+00 0.00000E+00
 -1      5649 0.00000E+00 0.00000E+00 0.00000E+00
 -1      5650 0.00000E+00 0.00000E+00 0.00000E+00
 -1      5651 0.00000E+00 0.00000E+00 0.00000E+00
 -1      5652 0.00000E+00 0.00000E+00 0.00000E+00
 -1      5653 0.00000E+00 0.00000E+00 0.00000E+00
 -1      5654 0.00000E+00 0.00000E+00 0.00000E+00
 -1      5655 0.00000E+00 0.00000E+00 0.00000E+00
 -1      5656 0.00000E+00 0.00000E+00 0.00000E+00
 -1      5657 0.00000E+00 0.00000E+00 0.00000E+00
 -1      5658 0.00000E+00 0.00000E+00 0.00000E+00
 -1      5659 0.00000E+00 0.00000E+00 0.00000E+00
 -1      5660 0.00000E+00 0.00000E+00 0.00000E+00
 -1      5661 0.00000E+00 0.00000E+00 0.00000E+00
 -1      5662 0.00000E+00 0.00000E+00 0.00000E+00
 -1      5663 0.00000E+00 0.00000E+00 0.00000E+00
 -1      5664 0.00000E+00 0.00000E+00 0.00000E+00
 -1      5665 0.00000E+00 0.00000E+00 0.00000E+00
 -1      5666 0.00000E+00 0.00000E+00 0.00000E+00
 -1      5667 0.00000E+00 0.00000E+00 0.00000E+00
 -1      5668 0.00000E+00 0.00000E+00 0.00000E+00
 -1      5669 0.00000E+00 0.00000E+00 0.00000E+00
 -1      5670 0.00000E+00 0.00000E+00 0.00000E+00
 -1      5671 0.00000E+00 0.00000E+00 0.00000E+00
 -1      5672 0.00000E+00 0.00000E+00 0.00000E+00
 -1      5673 0.00000E+00 0.00000E+00 0.00000E+00
 -1      5674 0.00000E+00 0.00000E+00 0.00000E+00
 -1      5675 0.00000E+00 0.00000E+00 0.00000E+00
 -1      5676 0.00000E+00 0.00000E+00 0.00000E+00
 -1      5677 0.00000E+00 0.00000E+00 0.00000E+00
 -1      5678 0.00000E+00 0.00000E+00 0.00000E+00
 -1      5679 0.00000E+00 0.00000E+00 0.00000E+00
 -1      5680 0.00000E+00 0.00000E+00 0.00000E+00
 -1      5681 0.00000E+00 0.00000E+00 0.00000E+00
 -1      5682 0.00000E+00 0.00000E+00 0.00000E+00
 -1      5683 0.00000E+00 0.00000E+00 0.00000E+00
 -1      5684 0.00000E+00 0.00000E+00 0.00000E+00
 -1      5685 0.00000E+00 0.00000E+00 0.00000E+00
 -1      5686 0.00000E+00 0.00000E+00 0.00000E+00
 -1      5687 0.00000E+00 0.00000E+00 0.00000E+00
 -1      5688 0.00000E+00 0.00000E+00 0.00000E+00
 -1      5689 0.00000E+00 0.00000E+00 0.00000E+00
 -1      5690 0.00000E+00 0.00000E+00 0.00000E+00
 -1      5691 0.00000E+00 0.00000E+00 0.00000E+00
 -1      5692 0.00000E+00 0.00000E+00 0.00000E+00
 -1      5693 0.00000E+00 0.00000E+00 0.00000E+00
 -1      5694 0.00000E+00 0.00000E+00 0.00000E+00
 -1      5695 0.00000E+00 0.00000E+00 0.00000E+00
 -1      5696 0.00000E+00 0.00000E+00 0.00000E+00
 -1      5697 0.00000E+00 0.00000E+00 0.00000E+00
 -1      5698 0.00000E+00 0.00000E+00 0.00000E+00
 -1      5699 0.00000E+00 0.00000E+00 0.00000E+00
 -1      5700 0.00000E+00 0.00000E+00 0.00000E+00
 -1      5701 0.00000E+00 0.00000E+00 0.00000E+00
 -1      5702 0.00000E+00 0.00000E+00 0.00000E+00
 -1      5703 0.00000E+00 0.00000E+00 0.00000E+00
 -1      5704 0.00000E+00 0.00000E+00 0.00000E+00
 -1      5705 0.00000E+00 0.00000E+00 0.00000E+00
 -1      5706 0.00000E+00 0.00000E+00 0.00000E+00
 -1      5707 0.00000E+00 0.00000E+00 0.00000E+00
 -1      5708 0.00000E+00 0.00000E+00 0.00000E+00
 -1      5709 0.00000E+00 0.00000E+00 0.00000E+00
 -1      5710 0.00000E+00 0.00000E+00 0.00000E+00
 -1      5711 0.00000E+00 0.00000E+00 0.00000E+00
 -1      5712 0.00000E+00 0.00000E+00 0.00000E+00
 -1      5713 0.00000E+00 0.00000E+00 0.00000E+00
 -1      5714 0.00000E+00 0.00000E+00 0.00000E+00
 -1      5715 0.00000E+00 0.00000E+00 0.00000E+00
 -1      5716 0.00000E+00 0.00000E+00 0.00000E+00
 -1      5717 0.00000E+00 0.00000E+00 0.00000E+00
 -1      5718 0.00000E+00 0.00000E+00 0.00000E+00
 -1      5719 0.00000E+00 0.00000E+00 0.00000E+00
 -1      5720 0.00000E+00 0.00000E+00 0.00000E+00
 -1      5721 0.00000E+00 0.00000E+00 0.00000E+00
 -1      5722 0.00000E+00 0.00000E+00 0.00000E+00
 -1      5723 0.00000E+00 0.00000E+00 0.00000E+00
 -1      5724 0.00000E+00 0.00000E+00 0.00000E+00
 -1      5725 0.00000E+00 0.00000E+00 0.00000E+00
 -1      5726 0.00000E+00 0.00000E+00 0.00000E+00
 -1      5727 0.00000E+00 0.00000E+00 0.00000E+00
 -1      5728 0.00000E+00 0.00000E+00 0.00000E+00
 -1      5729 0.00000E+00 0.00000E+00 0.00000E+00
 -1      5730 0.00000E+00 0.00000E+00 0.00000E+00
 -1      5731 0.00000E+00 0.00000E+00 0.00000E+00
 -1      5732 0.00000E+00 0.00000E+00 0.00000E+00
 -1      5733 0.00000E+00 0.00000E+00 0.00000E+00
 -1      5734 0.00000E+00 0.00000E+00 0.00000E+00
 -1      5735 0.00000E+00 0.00000E+00 0.00000E+00
 -1      5736 0.00000E+00 0.00000E+00 0.00000E+00
 -1      5737 0.00000E+00 0.00000E+00 0.00000E+00
 -1      5738 0.00000E+00 0.00000E+00 0.00000E+00
 -1      5739 0.00000E+00 0.00000E+00 0.00000E+00
 -1      5740 0.00000E+00 0.00000E+00 0.00000E+00
 -1      5741 0.00000E+00 0.00000E+00 0.00000E+00
 -1      5742 0.00000E+00 0.00000E+00 0.00000E+00
 -1      5743 0.00000E+00 0.00000E+00 0.00000E+00
 -1      5744 0.00000E+00 0.00000E+00 0.00000E+00
 -1      5745 0.00000E+00 0.00000E+00 0.00000E+00
 -1      5746 0.00000E+00 0.00000E+00 0.00000E+00
 -1      5747 0.00000E+00 0.00000E+00 0.00000E+00
 -1      5748 0.00000E+00 0.00000E+00 0.00000E+00
 -1      5749 0.00000E+00 0.00000E+00 0.00000E+00
 -1      5750 0.00000E+00 0.00000E+00 0.00000E+00
 -1      5751 0.00000E+00 0.00000E+00 0.00000E+00
 -1      5752 0.00000E+00 0.00000E+00 0.00000E+00
 -1      5753 0.00000E+00 0.00000E+00 0.00000E+00
 -1      5754 0.00000E+00 0.00000E+00 0.00000E+00
 -1      5755 0.00000E+00 0.00000E+00 0.00000E+00
 -1      5756 0.00000E+00 0.00000E+00 0.00000E+00
 -1      5757 0.00000E+00 0.00000E+00 0.00000E+00
 -1      5758 0.00000E+00 0.00000E+00 0.00000E+00
 -1      5759 0.00000E+00 0.00000E+00 0.00000E+00
 -1      5760 0.00000E+00 0.00000E+00 0.00000E+00
 -1      5761 0.00000E+00 0.00000E+00 0.00000E+00
 -1      5762 0.00000E+00 0.00000E+00 0.00000E+00
 -1      5763 0.00000E+00 0.00000E+00 0.00000E+00
 -1      5764 0.00000E+00 0.00000E+00 0.00000E+00
 -1      5765 0.00000E+00 0.00000E+00 0.00000E+00
 -1      5766 0.00000E+00 0.00000E+00 0.00000E+00
 -1      5767 0.00000E+00 0.00000E+00 0.00000E+00
 -1      5768 0.00000E+00 0.00000E+00 0.00000E+00
 -1      5769 0.00000E+00 0.00000E+00 0.00000E+00
 -1      5770 0.00000E+00 0.00000E+00 0.00000E+00
 -1      5771 0.00000E+00 0.00000E+00 0.00000E+00
 -1      5772 0.00000E+00 0.00000E+00 0.00000E+00
 -1      5773 0.00000E+00 0.00000E+00 0.00000E+00
 -1      5774 0.00000E+00 0.00000E+00 0.00000E+00
 -1      5775 0.00000E+00 0.00000E+00 0.00000E+00
 -1      5776 0.00000E+00 0.00000E+00 0.00000E+00
 -1      5777 0.00000E+00 0.00000E+00 0.00000E+00
 -1      5778 0.00000E+00 0.00000E+00 0.00000E+00
 -1      5779 0.00000E+00 0.00000E+00 0.00000E+00
 -1      5780 0.00000E+00 0.00000E+00 0.00000E+00
 -1      5781 0.00000E+00 0.00000E+00 0.00000E+00
 -1      5782 0.00000E+00 0.00000E+00 0.00000E+00
 -1      5783 0.00000E+00 0.00000E+00 0.00000E+00
 -1      5784 0.00000E+00 0.00000E+00 0.00000E+00
 -1      5785 0.00000E+00 0.00000E+00 0.00000E+00
 -1      5786 0.00000E+00 0.00000E+00 0.00000E+00
 -1      5787 0.00000E+00 0.00000E+00 0.00000E+00
 -1      5788 0.00000E+00 0.00000E+00 0.00000E+00
 -1      5789 0.00000E+00 0.00000E+00 0.00000E+00
 -1      5790 0.00000E+00 0.00000E+00 0.00000E+00
 -1      5791 0.00000E+00 0.00000E+00 0.00000E+00
 -1      5792 0.00000E+00 0.00000E+00 0.00000E+00
 -1      5793 0.00000E+00 0.00000E+00 0.00000E+00
 -1      5794 0.00000E+00 0.00000E+00 0.00000E+00
 -1      5795 0.00000E+00 0.00000E+00 0.00000E+00
 -1      5796 0.00000E+00 0.00000E+00 0.00000E+00
 -1      5797 0.00000E+00 0.00000E+00 0.00000E+00
 -1      5798 0.00000E+00 0.00000E+00 0.00000E+00
 -1      5799 0.00000E+00 0.00000E+00 0.00000E+00
 -1      5800 0.00000E+00 0.00000E+00 0.00000E+00
 -1      5801 0.00000E+00 0.00000E+00 0.00000E+00
 -1      5802 0.00000E+00 0.00000E+00 0.00000E+00
 -1      5803 0.00000E+00 0.00000E+00 0.00000E+00
 -1      5804 0.00000E+00 0.00000E+00 0.00000E+00
 -1      5805 0.00000E+00 0.00000E+00 0.00000E+00
 -1      5806 0.00000E+00 0.00000E+00 0.00000E+00
 -1      5807 0.00000E+00 0.00000E+00 0.00000E+00
 -1      5808 0.00000E+00 0.00000E+00 0.00000E+00
 -1      5809 0.00000E+00 0.00000E+00 0.00000E+00
 -1      5810 0.00000E+00 0.00000E+00 0.00000E+00
 -1      5811 0.00000E+00 0.00000E+00 0.00000E+00
 -1      5812 0.00000E+00 0.00000E+00 0.00000E+00
 -1      5813 0.00000E+00 0.00000E+00 0.00000E+00
 -1      5814 0.00000E+00 0.00000E+00 0.00000E+00
 -1      5815 0.00000E+00 0.00000E+00 0.00000E+00
 -1      5816 0.00000E+00 0.00000E+00 0.00000E+00
 -1      5817 0.00000E+00 0.00000E+00 0.00000E+00
 -1      5818 0.00000E+00 0.00000E+00 0.00000E+00
 -1      5819 0.00000E+00 0.00000E+00 0.00000E+00
 -1      5820 0.00000E+00 0.00000E+00 0.00000E+00
 -1      5821 0.00000E+00 0.00000E+00 0.00000E+00
 -1      5822 0.00000E+00 0.00000E+00 0.00000E+00
 -1      5823 0.00000E+00 0.00000E+00 0.00000E+00
 -1      5824 0.00000E+00 0.00000E+00 0.00000E+00
 -1      5825 0.00000E+00 0.00000E+00 0.00000E+00
 -1      5826 0.00000E+00 0.00000E+00 0.00000E+00
 -1      5827 0.00000E+00 0.00000E+00 0.00000E+00
 -1      5828 0.00000E+00 0.00000E+00 0.00000E+00
 -1      5829 0.00000E+00 0.00000E+00 0.00000E+00
 -1      5830 0.00000E+00 0.00000E+00 0.00000E+00
 -1      5831 0.00000E+00 0.00000E+00 0.00000E+00
 -1      5832 0.00000E+00 0.00000E+00 0.00000E+00
 -1      5833 0.00000E+00 0.00000E+00 0.00000E+00
 -1      5834 0.00000E+00 0.00000E+00 0.00000E+00
 -1      5835 0.00000E+00 0.00000E+00 0.00000E+00
 -1      5836 0.00000E+00 0.00000E+00 0.00000E+00
 -1      5837 0.00000E+00 0.00000E+00 0.00000E+00
 -1      5838 0.00000E+00 0.00000E+00 0.00000E+00
 -1      5839 0.00000E+00 0.00000E+00 0.00000E+00
 -1      5840 0.00000E+00 0.00000E+00 0.00000E+00
 -1      5841 0.00000E+00 0.00000E+00 0.00000E+00
 -1      5842 0.00000E+00 0.00000E+00 0.00000E+00
 -1      5843 0.00000E+00 0.00000E+00 0.00000E+00
 -1      5844 0.00000E+00 0.00000E+00 0.00000E+00
 -1      5845 0.00000E+00 0.00000E+00 0.00000E+00
 -1      5846 0.00000E+00 0.00000E+00 0.00000E+00
 -1      5847 0.00000E+00 0.00000E+00 0.00000E+00
 -1      5848 0.00000E+00 0.00000E+00 0.00000E+00
 -1      5849 0.00000E+00 0.00000E+00 0.00000E+00
 -1      5850 0.00000E+00 0.00000E+00 0.00000E+00
 -1      5851 0.00000E+00 0.00000E+00 0.00000E+00
 -1      5852 0.00000E+00 0.00000E+00 0.00000E+00
 -1      5853 0.00000E+00 0.00000E+00 0.00000E+00
 -1      5854 0.00000E+00 0.00000E+00 0.00000E+00
 -1      5855 0.00000E+00 0.00000E+00 0.00000E+00
 -1      5856 0.00000E+00 0.00000E+00 0.00000E+00
 -1      5857 0.00000E+00 0.00000E+00 0.00000E+00
 -1      5858 0.00000E+00 0.00000E+00 0.00000E+00
 -1      5859 0.00000E+00 0.00000E+00 0.00000E+00
 -1      5860 0.00000E+00 0.00000E+00 0.00000E+00
 -1      5861 0.00000E+00 0.00000E+00 0.00000E+00
 -1      5862 0.00000E+00 0.00000E+00 0.00000E+00
 -1      5863 0.00000E+00 0.00000E+00 0.00000E+00
 -1      5864 0.00000E+00 0.00000E+00 0.00000E+00
 -1      5865 0.00000E+00 0.00000E+00 0.00000E+00
 -1      5866 0.00000E+00 0.00000E+00 0.00000E+00
 -1      5867 0.00000E+00 0.00000E+00 0.00000E+00
 -1      5868 0.00000E+00 0.00000E+00 0.00000E+00
 -1      5869 0.00000E+00 0.00000E+00 0.00000E+00
 -1      5870 0.00000E+00 0.00000E+00 0.00000E+00
 -1      5871 0.00000E+00 0.00000E+00 0.00000E+00
 -1      5872 0.00000E+00 0.00000E+00 0.00000E+00
 -1      5873 0.00000E+00 0.00000E+00 0.00000E+00
 -1      5874 0.00000E+00 0.00000E+00 0.00000E+00
 -1      5875 0.00000E+00 0.00000E+00 0.00000E+00
 -1      5876 0.00000E+00 0.00000E+00 0.00000E+00
 -1      5877 0.00000E+00 0.00000E+00 0.00000E+00
 -1      5878 0.00000E+00 0.00000E+00 0.00000E+00
 -1      5879 0.00000E+00 0.00000E+00 0.00000E+00
 -1      5880 0.00000E+00 0.00000E+00 0.00000E+00
 -1      5881 0.00000E+00 0.00000E+00 0.00000E+00
 -1      5882 0.00000E+00 0.00000E+00 0.00000E+00
 -1      5883 0.00000E+00 0.00000E+00 0.00000E+00
 -1      5884 0.00000E+00 0.00000E+00 0.00000E+00
 -1      5885 0.00000E+00 0.00000E+00 0.00000E+00
 -1      5886 0.00000E+00 0.00000E+00 0.00000E+00
 -1      5887 0.00000E+00 0.00000E+00 0.00000E+00
 -1      5888 0.00000E+00 0.00000E+00 0.00000E+00
 -1      5889 0.00000E+00 0.00000E+00 0.00000E+00
 -1      5890 0.00000E+00 0.00000E+00 0.00000E+00
 -1      5891 0.00000E+00 0.00000E+00 0.00000E+00
 -1      5892 0.00000E+00 0.00000E+00 0.00000E+00
 -1      5893 0.00000E+00 0.00000E+00 0.00000E+00
 -1      5894 0.00000E+00 0.00000E+00 0.00000E+00
 -1      5895 0.00000E+00 0.00000E+00 0.00000E+00
 -1      5896 0.00000E+00 0.00000E+00 0.00000E+00
 -1      5897 0.00000E+00 0.00000E+00 0.00000E+00
 -1      5898 0.00000E+00 0.00000E+00 0.00000E+00
 -1      5899 0.00000E+00 0.00000E+00 0.00000E+00
 -1      5900 0.00000E+00 0.00000E+00 0.00000E+00
 -1      5901 0.00000E+00 0.00000E+00 0.00000E+00
 -1      5902 0.00000E+00 0.00000E+00 0.00000E+00
 -1      5903 0.00000E+00 0.00000E+00 0.00000E+00
 -1      5904 0.00000E+00 0.00000E+00 0.00000E+00
 -1      5905 0.00000E+00 0.00000E+00 0.00000E+00
 -1      5906 0.00000E+00 0.00000E+00 0.00000E+00
 -1      5907 0.00000E+00 0.00000E+00 0.00000E+00
 -1      5908 0.00000E+00 0.00000E+00 0.00000E+00
 -1      5909 0.00000E+00 0.00000E+00 0.00000E+00
 -1      5910 0.00000E+00 0.00000E+00 0.00000E+00
 -1      5911 0.00000E+00 0.00000E+00 0.00000E+00
 -1      5912 0.00000E+00 0.00000E+00 0.00000E+00
 -1      5913 0.00000E+00 0.00000E+00 0.00000E+00
 -1      5914 0.00000E+00 0.00000E+00 0.00000E+00
 -1      5915 0.00000E+00 0.00000E+00 0.00000E+00
 -1      5916 0.00000E+00 0.00000E+00 0.00000E+00
 -1      5917 0.00000E+00 0.00000E+00 0.00000E+00
 -1      5918 0.00000E+00 0.00000E+00 0.00000E+00
 -1      5919 0.00000E+00 0.00000E+00 0.00000E+00
 -1      5920 0.00000E+00 0.00000E+00 0.00000E+00
 -1      5921 0.00000E+00 0.00000E+00 0.00000E+00
 -1      5922 0.00000E+00 0.00000E+00 0.00000E+00
 -1      5923 0.00000E+00 0.00000E+00 0.00000E+00
 -1      5924 0.00000E+00 0.00000E+00 0.00000E+00
 -1      5925 0.00000E+00 0.00000E+00 0.00000E+00
 -1      5926 0.00000E+00 0.00000E+00 0.00000E+00
 -1      5927 0.00000E+00 0.00000E+00 0.00000E+00
 -1      5928 0.00000E+00 0.00000E+00 0.00000E+00
 -1      5929 0.00000E+00 0.00000E+00 0.00000E+00
 -1      5930 0.00000E+00 0.00000E+00 0.00000E+00
 -1      5931 0.00000E+00 0.00000E+00 0.00000E+00
 -1      5932 0.00000E+00 0.00000E+00 0.00000E+00
 -1      5933 0.00000E+00 0.00000E+00 0.00000E+00
 -1      5934 0.00000E+00 0.00000E+00 0.00000E+00
 -1      5935 0.00000E+00 0.00000E+00 0.00000E+00
 -1      5936 0.00000E+00 0.00000E+00 0.00000E+00
 -1      5937 0.00000E+00 0.00000E+00 0.00000E+00
 -1      5938 0.00000E+00 0.00000E+00 0.00000E+00
 -1      5939 0.00000E+00 0.00000E+00 0.00000E+00
 -1      5940 0.00000E+00 0.00000E+00 0.00000E+00
 -1      5941 0.00000E+00 0.00000E+00 0.00000E+00
 -1      5942 0.00000E+00 0.00000E+00 0.00000E+00
 -1      5943 0.00000E+00 0.00000E+00 0.00000E+00
 -1      5944 0.00000E+00 0.00000E+00 0.00000E+00
 -1      5945 0.00000E+00 0.00000E+00 0.00000E+00
 -1      5946 0.00000E+00 0.00000E+00 0.00000E+00
 -1      5947 0.00000E+00 0.00000E+00 0.00000E+00
 -1      5948 0.00000E+00 0.00000E+00 0.00000E+00
 -1      5949 0.00000E+00 0.00000E+00 0.00000E+00
 -1      5950 0.00000E+00 0.00000E+00 0.00000E+00
 -1      5951 0.00000E+00 0.00000E+00 0.00000E+00
 -1      5952 0.00000E+00 0.00000E+00 0.00000E+00
 -1      5953 0.00000E+00 0.00000E+00 0.00000E+00
 -1      5954 0.00000E+00 0.00000E+00 0.00000E+00
 -1      5955 0.00000E+00 0.00000E+00 0.00000E+00
 -1      5956 0.00000E+00 0.00000E+00 0.00000E+00
 -1      5957 0.00000E+00 0.00000E+00 0.00000E+00
 -1      5958 0.00000E+00 0.00000E+00 0.00000E+00
 -1      5959 0.00000E+00 0.00000E+00 0.00000E+00
 -1      5960 0.00000E+00 0.00000E+00 0.00000E+00
 -1      5961 0.00000E+00 0.00000E+00 0.00000E+00
 -1      5962 0.00000E+00 0.00000E+00 0.00000E+00
 -1      5963 0.00000E+00 0.00000E+00 0.00000E+00
 -1      5964 0.00000E+00 0.00000E+00 0.00000E+00
 -1      5965 0.00000E+00 0.00000E+00 0.00000E+00
 -1      5966 0.00000E+00 0.00000E+00 0.00000E+00
 -1      5967 0.00000E+00 0.00000E+00 0.00000E+00
 -1      5968 0.00000E+00 0.00000E+00 0.00000E+00
 -1      5969 0.00000E+00 0.00000E+00 0.00000E+00
 -1      5970 0.00000E+00 0.00000E+00 0.00000E+00
 -1      5971 0.00000E+00 0.00000E+00 0.00000E+00
 -1      5972 0.00000E+00 0.00000E+00 0.00000E+00
 -1      5973 0.00000E+00 0.00000E+00 0.00000E+00
 -1      5974 0.00000E+00 0.00000E+00 0.00000E+00
 -1      5975 0.00000E+00 0.00000E+00 0.00000E+00
 -1      5976 0.00000E+00 0.00000E+00 0.00000E+00
 -1      5977 0.00000E+00 0.00000E+00 0.00000E+00
 -1      5978 0.00000E+00 0.00000E+00 0.00000E+00
 -1      5979 0.00000E+00 0.00000E+00 0.00000E+00
 -1      5980 0.00000E+00 0.00000E+00 0.00000E+00
 -1      5981 0.00000E+00 0.00000E+00 0.00000E+00
 -1      5982 0.00000E+00 0.00000E+00 0.00000E+00
 -1      5983 0.00000E+00 0.00000E+00 0.00000E+00
 -1      5984 0.00000E+00 0.00000E+00 0.00000E+00
 -1      5985 0.00000E+00 0.00000E+00 0.00000E+00
 -1      5986 0.00000E+00 0.00000E+00 0.00000E+00
 -1      5987 0.00000E+00 0.00000E+00 0.00000E+00
 -1      5988 0.00000E+00 0.00000E+00 0.00000E+00
 -1      5989 0.00000E+00 0.00000E+00 0.00000E+00
 -1      5990 0.00000E+00 0.00000E+00 0.00000E+00
 -1      5991 0.00000E+00 0.00000E+00 0.00000E+00
 -1      5992 0.00000E+00 0.00000E+00 0.00000E+00
 -1      5993 0.00000E+00 0.00000E+00 0.00000E+00
 -1      5994 0.00000E+00 0.00000E+00 0.00000E+00
 -1      5995 0.00000E+00 0.00000E+00 0.00000E+00
 -1      5996 0.00000E+00 0.00000E+00 0.00000E+00
 -1      5997 0.00000E+00 0.00000E+00 0.00000E+00
 -1      5998 0.00000E+00 0.00000E+00 0.00000E+00
 -1      5999 0.00000E+00 0.00000E+00 0.00000E+00
 -1      6000 0.00000E+00 0.00000E+00 0.00000E+00
 -1      6001 0.00000E+00 0.00000E+00 0.00000E+00
 -1      6002 0.00000E+00 0.00000E+00 0.00000E+00
 -1      6003 0.00000E+00 0.00000E+00 0.00000E+00
 -1      6004 0.00000E+00 0.00000E+00 0.00000E+00
 -1      6005 0.00000E+00 0.00000E+00 0.00000E+00
 -1      6006 0.00000E+00 0.00000E+00 0.00000E+00
 -1      6007 0.00000E+00 0.00000E+00 0.00000E+00
 -1      6008 0.00000E+00 0.00000E+00 0.00000E+00
 -1      6009 0.00000E+00 0.00000E+00 0.00000E+00
 -1      6010 0.00000E+00 0.00000E+00 0.00000E+00
 -1      6011 0.00000E+00 0.00000E+00 0.00000E+00
 -1      6012 0.00000E+00 0.00000E+00 0.00000E+00
 -1      6013 0.00000E+00 0.00000E+00 0.00000E+00
 -1      6014 0.00000E+00 0.00000E+00 0.00000E+00
 -1      6015 0.00000E+00 0.00000E+00 0.00000E+00
 -1      6016 0.00000E+00 0.00000E+00 0.00000E+00
 -1      6017 0.00000E+00 0.00000E+00 0.00000E+00
 -1      6018 0.00000E+00 0.00000E+00 0.00000E+00
 -1      6019 0.00000E+00 0.00000E+00 0.00000E+00
 -1      6020 0.00000E+00 0.00000E+00 0.00000E+00
 -1      6021 0.00000E+00 0.00000E+00 0.00000E+00
 -1      6022 0.00000E+00 0.00000E+00 0.00000E+00
 -1      6023 0.00000E+00 0.00000E+00 0.00000E+00
 -1      6024 0.00000E+00 0.00000E+00 0.00000E+00
 -1      6025 0.00000E+00 0.00000E+00 0.00000E+00
 -1      6026 0.00000E+00 0.00000E+00 0.00000E+00
 -1      6027 0.00000E+00 0.00000E+00 0.00000E+00
 -1      6028 0.00000E+00 0.00000E+00 0.00000E+00
 -1      6029 0.00000E+00 0.00000E+00 0.00000E+00
 -1      6030 0.00000E+00 0.00000E+00 0.00000E+00
 -1      6031 0.00000E+00 0.00000E+00 0.00000E+00
 -1      6032 0.00000E+00 0.00000E+00 0.00000E+00
 -1      6033 0.00000E+00 0.00000E+00 0.00000E+00
 -1      6034 0.00000E+00 0.00000E+00 0.00000E+00
 -1      6035 0.00000E+00 0.00000E+00 0.00000E+00
 -1      6036 0.00000E+00 0.00000E+00 0.00000E+00
 -1      6037 0.00000E+00 0.00000E+00 0.00000E+00
 -1      6038 0.00000E+00 0.00000E+00 0.00000E+00
 -1      6039 0.00000E+00 0.00000E+00 0.00000E+00
 -1      6040 0.00000E+00 0.00000E+00 0.00000E+00
 -1      6041 0.00000E+00 0.00000E+00 0.00000E+00
 -1      6042 0.00000E+00 0.00000E+00 0.00000E+00
 -1      6043 0.00000E+00 0.00000E+00 0.00000E+00
 -1      6044 0.00000E+00 0.00000E+00 0.00000E+00
 -1      6045 0.00000E+00 0.00000E+00 0.00000E+00
 -1      6046 0.00000E+00 0.00000E+00 0.00000E+00
 -1      6047 0.00000E+00 0.00000E+00 0.00000E+00
 -1      6048 0.00000E+00 0.00000E+00 0.00000E+00
 -1      6049 0.00000E+00 0.00000E+00 0.00000E+00
 -1      6050 0.00000E+00 0.00000E+00 0.00000E+00
 -1      6051 0.00000E+00 0.00000E+00 0.00000E+00
 -1      6052 0.00000E+00 0.00000E+00 0.00000E+00
 -1      6053 0.00000E+00 0.00000E+00 0.00000E+00
 -1      6054 0.00000E+00 0.00000E+00 0.00000E+00
 -1      6055 0.00000E+00 0.00000E+00 0.00000E+00
 -1      6056 0.00000E+00 0.00000E+00 0.00000E+00
 -1      6057 0.00000E+00 0.00000E+00 0.00000E+00
 -1      6058 0.00000E+00 0.00000E+00 0.00000E+00
 -1      6059 0.00000E+00 0.00000E+00 0.00000E+00
 -1      6060 0.00000E+00 0.00000E+00 0.00000E+00
 -1      6061 0.00000E+00 0.00000E+00 0.00000E+00
 -1      6062 0.00000E+00 0.00000E+00 0.00000E+00
 -1      6063 0.00000E+00 0.00000E+00 0.00000E+00
 -1      6064 0.00000E+00 0.00000E+00 0.00000E+00
 -1      6065 0.00000E+00 0.00000E+00 0.00000E+00
 -1      6066 0.00000E+00 0.00000E+00 0.00000E+00
 -1      6067 0.00000E+00 0.00000E+00 0.00000E+00
 -1      6068 0.00000E+00 0.00000E+00 0.00000E+00
 -1      6069 0.00000E+00 0.00000E+00 0.00000E+00
 -1      6070 0.00000E+00 0.00000E+00 0.00000E+00
 -1      6071 0.00000E+00 0.00000E+00 0.00000E+00
 -1      6072 0.00000E+00 0.00000E+00 0.00000E+00
 -1      6073 0.00000E+00 0.00000E+00 0.00000E+00
 -1      6074 0.00000E+00 0.00000E+00 0.00000E+00
 -1      6075 0.00000E+00 0.00000E+00 0.00000E+00
 -1      6076 0.00000E+00 0.00000E+00 0.00000E+00
 -1      6077 0.00000E+00 0.00000E+00 0.00000E+00
 -1      6078 0.00000E+00 0.00000E+00 0.00000E+00
 -1      6079 0.00000E+00 0.00000E+00 0.00000E+00
 -1      6080 0.00000E+00 0.00000E+00 0.00000E+00
 -1      6081 0.00000E+00 0.00000E+00 0.00000E+00
 -1      6082 0.00000E+00 0.00000E+00 0.00000E+00
 -1      6083 0.00000E+00 0.00000E+00 0.00000E+00
 -1      6084 0.00000E+00 0.00000E+00 0.00000E+00
 -1      6085 0.00000E+00 0.00000E+00 0.00000E+00
 -1      6086 0.00000E+00 0.00000E+00 0.00000E+00
 -1      6087 0.00000E+00 0.00000E+00 0.00000E+00
 -1      6088 0.00000E+00 0.00000E+00 0.00000E+00
 -1      6089 0.00000E+00 0.00000E+00 0.00000E+00
 -1      6090 0.00000E+00 0.00000E+00 0.00000E+00
 -1      6091 0.00000E+00 0.00000E+00 0.00000E+00
 -1      6092 0.00000E+00 0.00000E+00 0.00000E+00
 -1      6093 0.00000E+00 0.00000E+00 0.00000E+00
 -1      6094 0.00000E+00 0.00000E+00 0.00000E+00
 -1      6095 0.00000E+00 0.00000E+00 0.00000E+00
 -1      6096 0.00000E+00 0.00000E+00 0.00000E+00
 -1      6097 0.00000E+00 0.00000E+00 0.00000E+00
 -1      6098 0.00000E+00 0.00000E+00 0.00000E+00
 -1      6099 0.00000E+00 0.00000E+00 0.00000E+00
 -1      6100 0.00000E+00 0.00000E+00 0.00000E+00
 -1      6101 0.00000E+00 0.00000E+00 0.00000E+00
 -1      6102 0.00000E+00 0.00000E+00 0.00000E+00
 -1      6103 0.00000E+00 0.00000E+00 0.00000E+00
 -1      6104 0.00000E+00 0.00000E+00 0.00000E+00
 -1      6105 0.00000E+00 0.00000E+00 0.00000E+00
 -1      6106 0.00000E+00 0.00000E+00 0.00000E+00
 -1      6107 0.00000E+00 0.00000E+00 0.00000E+00
 -1      6108 0.00000E+00 0.00000E+00 0.00000E+00
 -1      6109 0.00000E+00 0.00000E+00 0.00000E+00
 -1      6110 0.00000E+00 0.00000E+00 0.00000E+00
 -1      6111 0.00000E+00 0.00000E+00 0.00000E+00
 -1      6112 0.00000E+00 0.00000E+00 0.00000E+00
 -1      6113 0.00000E+00 0.00000E+00 0.00000E+00
 -1      6114 0.00000E+00 0.00000E+00 0.00000E+00
 -1      6115 0.00000E+00 0.00000E+00 0.00000E+00
 -1      6116 0.00000E+00 0.00000E+00 0.00000E+00
 -1      6117 0.00000E+00 0.00000E+00 0.00000E+00
 -1      6118 0.00000E+00 0.00000E+00 0.00000E+00
 -1      6119 0.00000E+00 0.00000E+00 0.00000E+00
 -1      6120 0.00000E+00 0.00000E+00 0.00000E+00
 -1      6121 0.00000E+00 0.00000E+00 0.00000E+00
 -1      6122 0.00000E+00 0.00000E+00 0.00000E+00
 -1      6123 0.00000E+00 0.00000E+00 0.00000E+00
 -1      6124 0.00000E+00 0.00000E+00 0.00000E+00
 -1      6125 0.00000E+00 0.00000E+00 0.00000E+00
 -1      6126 0.00000E+00 0.00000E+00 0.00000E+00
 -1      6127 0.00000E+00 0.00000E+00 0.00000E+00
 -1      6128 0.00000E+00 0.00000E+00 0.00000E+00
 -1      6129 0.00000E+00 0.00000E+00 0.00000E+00
 -1      6130 0.00000E+00 0.00000E+00 0.00000E+00
 -1      6131 0.00000E+00 0.00000E+00 0.00000E+00
 -1      6132 0.00000E+00 0.00000E+00 0.00000E+00
 -1      6133 0.00000E+00 0.00000E+00 0.00000E+00
 -1      6134 0.00000E+00 0.00000E+00 0.00000E+00
 -1      6135 0.00000E+00 0.00000E+00 0.00000E+00
 -1      6136 0.00000E+00 0.00000E+00 0.00000E+00
 -1      6137 0.00000E+00 0.00000E+00 0.00000E+00
 -1      6138 0.00000E+00 0.00000E+00 0.00000E+00
 -1      6139 0.00000E+00 0.00000E+00 0.00000E+00
 -1      6140 0.00000E+00 0.00000E+00 0.00000E+00
 -1      6141 0.00000E+00 0.00000E+00 0.00000E+00
 -1      6142 0.00000E+00 0.00000E+00 0.00000E+00
 -1      6143 0.00000E+00 0.00000E+00 0.00000E+00
 -1      6144 0.00000E+00 0.00000E+00 0.00000E+00
 -1      6145 0.00000E+00 0.00000E+00 0.00000E+00
 -1      6146 0.00000E+00 0.00000E+00 0.00000E+00
 -1      6147 0.00000E+00 0.00000E+00 0.00000E+00
 -1      6148 0.00000E+00 0.00000E+00 0.00000E+00
 -1      6149 0.00000E+00 0.00000E+00 0.00000E+00
 -1      6150 0.00000E+00 0.00000E+00 0.00000E+00
 -1      6151 0.00000E+00 0.00000E+00 0.00000E+00
 -1      6152 0.00000E+00 0.00000E+00 0.00000E+00
 -1      6153 0.00000E+00 0.00000E+00 0.00000E+00
 -1      6154 0.00000E+00 0.00000E+00 0.00000E+00
 -1      6155 0.00000E+00 0.00000E+00 0.00000E+00
 -1      6156 0.00000E+00 0.00000E+00 0.00000E+00
 -1      6157 0.00000E+00 0.00000E+00 0.00000E+00
 -1      6158 0.00000E+00 0.00000E+00 0.00000E+00
 -1      6159 0.00000E+00 0.00000E+00 0.00000E+00
 -1      6160 0.00000E+00 0.00000E+00 0.00000E+00
 -1      6161 0.00000E+00 0.00000E+00 0.00000E+00
 -1      6162 0.00000E+00 0.00000E+00 0.00000E+00
 -1      6163 0.00000E+00 0.00000E+00 0.00000E+00
 -1      6164 0.00000E+00 0.00000E+00 0.00000E+00
 -1      6165 0.00000E+00 0.00000E+00 0.00000E+00
 -1      6166 0.00000E+00 0.00000E+00 0.00000E+00
 -1      6167 0.00000E+00 0.00000E+00 0.00000E+00
 -1      6168 0.00000E+00 0.00000E+00 0.00000E+00
 -1      6169 0.00000E+00 0.00000E+00 0.00000E+00
 -1      6170 0.00000E+00 0.00000E+00 0.00000E+00
 -1      6171 0.00000E+00 0.00000E+00 0.00000E+00
 -1      6172 0.00000E+00 0.00000E+00 0.00000E+00
 -1      6173 0.00000E+00 0.00000E+00 0.00000E+00
 -1      6174 0.00000E+00 0.00000E+00 0.00000E+00
 -1      6175 0.00000E+00 0.00000E+00 0.00000E+00
 -1      6176 0.00000E+00 0.00000E+00 0.00000E+00
 -1      6177 0.00000E+00 0.00000E+00 0.00000E+00
 -1      6178 0.00000E+00 0.00000E+00 0.00000E+00
 -1      6179 0.00000E+00 0.00000E+00 0.00000E+00
 -1      6180 0.00000E+00 0.00000E+00 0.00000E+00
 -1      6181 0.00000E+00 0.00000E+00 0.00000E+00
 -1      6182 0.00000E+00 0.00000E+00 0.00000E+00
 -1      6183 0.00000E+00 0.00000E+00 0.00000E+00
 -1      6184 0.00000E+00 0.00000E+00 0.00000E+00
 -1      6185 0.00000E+00 0.00000E+00 0.00000E+00
 -1      6186 0.00000E+00 0.00000E+00 0.00000E+00
 -1      6187 0.00000E+00 0.00000E+00 0.00000E+00
 -1      6188 0.00000E+00 0.00000E+00 0.00000E+00
 -1      6189 0.00000E+00 0.00000E+00 0.00000E+00
 -1      6190 0.00000E+00 0.00000E+00 0.00000E+00
 -1      6191 0.00000E+00 0.00000E+00 0.00000E+00
 -1      6192 0.00000E+00 0.00000E+00 0.00000E+00
 -1      6193 0.00000E+00 0.00000E+00 0.00000E+00
 -1      6194 0.00000E+00 0.00000E+00 0.00000E+00
 -1      6195 0.00000E+00 0.00000E+00 0.00000E+00
 -1      6196 0.00000E+00 0.00000E+00 0.00000E+00
 -1      6197 0.00000E+00 0.00000E+00 0.00000E+00
 -1      6198 0.00000E+00 0.00000E+00 0.00000E+00
 -1      6199 0.00000E+00 0.00000E+00 0.00000E+00
 -1      6200 0.00000E+00 0.00000E+00 0.00000E+00
 -1      6201 0.00000E+00 0.00000E+00 0.00000E+00
 -1      6202 0.00000E+00 0.00000E+00 0.00000E+00
 -1      6203 0.00000E+00 0.00000E+00 0.00000E+00
 -1      6204 0.00000E+00 0.00000E+00 0.00000E+00
 -1      6205 0.00000E+00 0.00000E+00 0.00000E+00
 -1      6206 0.00000E+00 0.00000E+00 0.00000E+00
 -1      6207 0.00000E+00 0.00000E+00 0.00000E+00
 -1      6208 0.00000E+00 0.00000E+00 0.00000E+00
 -1      6209 0.00000E+00 0.00000E+00 0.00000E+00
 -1      6210 0.00000E+00 0.00000E+00 0.00000E+00
 -1      6211 0.00000E+00 0.00000E+00 0.00000E+00
 -1      6212 0.00000E+00 0.00000E+00 0.00000E+00
 -1      6213 0.00000E+00 0.00000E+00 0.00000E+00
 -1      6214 0.00000E+00 0.00000E+00 0.00000E+00
 -1      6215 0.00000E+00 0.00000E+00 0.00000E+00
 -1      6216 0.00000E+00 0.00000E+00 0.00000E+00
 -1      6217 0.00000E+00 0.00000E+00 0.00000E+00
 -1      6218 0.00000E+00 0.00000E+00 0.00000E+00
 -1      6219 0.00000E+00 0.00000E+00 0.00000E+00
 -1      6220 0.00000E+00 0.00000E+00 0.00000E+00
 -1      6221 0.00000E+00 0.00000E+00 0.00000E+00
 -1      6222 0.00000E+00 0.00000E+00 0.00000E+00
 -1      6223 0.00000E+00 0.00000E+00 0.00000E+00
 -1      6224 0.00000E+00 0.00000E+00 0.00000E+00
 -1      6225 0.00000E+00 0.00000E+00 0.00000E+00
 -1      6226 0.00000E+00 0.00000E+00 0.00000E+00
 -1      6227 0.00000E+00 0.00000E+00 0.00000E+00
 -1      6228 0.00000E+00 0.00000E+00 0.00000E+00
 -1      6229 0.00000E+00 0.00000E+00 0.00000E+00
 -1      6230 0.00000E+00 0.00000E+00 0.00000E+00
 -1      6231 0.00000E+00 0.00000E+00 0.00000E+00
 -1      6232 0.00000E+00 0.00000E+00 0.00000E+00
 -1      6233 0.00000E+00 0.00000E+00 0.00000E+00
 -1      6234 0.00000E+00 0.00000E+00 0.00000E+00
 -1      6235 0.00000E+00 0.00000E+00 0.00000E+00
 -1      6236 0.00000E+00 0.00000E+00 0.00000E+00
 -1      6237 0.00000E+00 0.00000E+00 0.00000E+00
 -1      6238 0.00000E+00 0.00000E+00 0.00000E+00
 -1      6239 0.00000E+00 0.00000E+00 0.00000E+00
 -1      6240 0.00000E+00 0.00000E+00 0.00000E+00
 -1      6241 0.00000E+00 0.00000E+00 0.00000E+00
 -1      6242 0.00000E+00 0.00000E+00 0.00000E+00
 -1      6243 0.00000E+00 0.00000E+00 0.00000E+00
 -1      6244 0.00000E+00 0.00000E+00 0.00000E+00
 -1      6245 0.00000E+00 0.00000E+00 0.00000E+00
 -1      6246 0.00000E+00 0.00000E+00 0.00000E+00
 -1      6247 0.00000E+00 0.00000E+00 0.00000E+00
 -1      6248 0.00000E+00 0.00000E+00 0.00000E+00
 -1      6249 0.00000E+00 0.00000E+00 0.00000E+00
 -1      6250 0.00000E+00 0.00000E+00 0.00000E+00
 -1      6251 0.00000E+00 0.00000E+00 0.00000E+00
 -1      6252 0.00000E+00 0.00000E+00 0.00000E+00
 -1      6253 0.00000E+00 0.00000E+00 0.00000E+00
 -1      6254 0.00000E+00 0.00000E+00 0.00000E+00
 -1      6255 0.00000E+00 0.00000E+00 0.00000E+00
 -1      6256 0.00000E+00 0.00000E+00 0.00000E+00
 -1      6257 0.00000E+00 0.00000E+00 0.00000E+00
 -1      6258 0.00000E+00 0.00000E+00 0.00000E+00
 -1      6259 0.00000E+00 0.00000E+00 0.00000E+00
 -1      6260 0.00000E+00 0.00000E+00 0.00000E+00
 -1      6261 0.00000E+00 0.00000E+00 0.00000E+00
 -1      6262 0.00000E+00 0.00000E+00 0.00000E+00
 -1      6263 0.00000E+00 0.00000E+00 0.00000E+00
 -1      6264 0.00000E+00 0.00000E+00 0.00000E+00
 -1      6265 0.00000E+00 0.00000E+00 0.00000E+00
 -1      6266 0.00000E+00 0.00000E+00 0.00000E+00
 -1      6267 0.00000E+00 0.00000E+00 0.00000E+00
 -1      6268 0.00000E+00 0.00000E+00 0.00000E+00
 -1      6269 0.00000E+00 0.00000E+00 0.00000E+00
 -1      6270 0.00000E+00 0.00000E+00 0.00000E+00
 -1      6271 0.00000E+00 0.00000E+00 0.00000E+00
 -1      6272 0.00000E+00 0.00000E+00 0.00000E+00
 -1      6273 0.00000E+00 0.00000E+00 0.00000E+00
 -1      6274 0.00000E+00 0.00000E+00 0.00000E+00
 -1      6275 0.00000E+00 0.00000E+00 0.00000E+00
 -1      6276 0.00000E+00 0.00000E+00 0.00000E+00
 -1      6277 0.00000E+00 0.00000E+00 0.00000E+00
 -1      6278 0.00000E+00 0.00000E+00 0.00000E+00
 -1      6279 0.00000E+00 0.00000E+00 0.00000E+00
 -1      6280 0.00000E+00 0.00000E+00 0.00000E+00
 -1      6281 0.00000E+00 0.00000E+00 0.00000E+00
 -1      6282 0.00000E+00 0.00000E+00 0.00000E+00
 -1      6283 0.00000E+00 0.00000E+00 0.00000E+00
 -1      6284 0.00000E+00 0.00000E+00 0.00000E+00
 -1      6285 0.00000E+00 0.00000E+00 0.00000E+00
 -1      6286 0.00000E+00 0.00000E+00 0.00000E+00
 -1      6287 0.00000E+00 0.00000E+00 0.00000E+00
 -1      6288 0.00000E+00 0.00000E+00 0.00000E+00
 -1      6289 0.00000E+00 0.00000E+00 0.00000E+00
 -1      6290 0.00000E+00 0.00000E+00 0.00000E+00
 -1      6291 0.00000E+00 0.00000E+00 0.00000E+00
 -1      6292 0.00000E+00 0.00000E+00 0.00000E+00
 -1      6293 0.00000E+00 0.00000E+00 0.00000E+00
 -1      6294 0.00000E+00 0.00000E+00 0.00000E+00
 -1      6295 0.00000E+00 0.00000E+00 0.00000E+00
 -1      6296 0.00000E+00 0.00000E+00 0.00000E+00
 -1      6297 0.00000E+00 0.00000E+00 0.00000E+00
 -1      6298 0.00000E+00 0.00000E+00 0.00000E+00
 -1      6299 0.00000E+00 0.00000E+00 0.00000E+00
 -1      6300 0.00000E+00 0.00000E+00 0.00000E+00
 -1      6301 0.00000E+00 0.00000E+00 0.00000E+00
 -1      6302 0.00000E+00 0.00000E+00 0.00000E+00
 -1      6303 0.00000E+00 0.00000E+00 0.00000E+00
 -1      6304 0.00000E+00 0.00000E+00 0.00000E+00
 -1      6305 0.00000E+00 0.00000E+00 0.00000E+00
 -1      6306 0.00000E+00 0.00000E+00 0.00000E+00
 -1      6307 0.00000E+00 0.00000E+00 0.00000E+00
 -1      6308 0.00000E+00 0.00000E+00 0.00000E+00
 -1      6309 0.00000E+00 0.00000E+00 0.00000E+00
 -1      6310 0.00000E+00 0.00000E+00 0.00000E+00
 -1      6311 0.00000E+00 0.00000E+00 0.00000E+00
 -1      6312 0.00000E+00 0.00000E+00 0.00000E+00
 -1      6313 0.00000E+00 0.00000E+00 0.00000E+00
 -1      6314 0.00000E+00 0.00000E+00 0.00000E+00
 -1      6315 0.00000E+00 0.00000E+00 0.00000E+00
 -1      6316 0.00000E+00 0.00000E+00 0.00000E+00
 -1      6317 0.00000E+00 0.00000E+00 0.00000E+00
 -1      6318 0.00000E+00 0.00000E+00 0.00000E+00
 -1      6319 0.00000E+00 0.00000E+00 0.00000E+00
 -1      6320 0.00000E+00 0.00000E+00 0.00000E+00
 -1      6321 0.00000E+00 0.00000E+00 0.00000E+00
 -1      6322 0.00000E+00 0.00000E+00 0.00000E+00
 -1      6323 0.00000E+00 0.00000E+00 0.00000E+00
 -1      6324 0.00000E+00 0.00000E+00 0.00000E+00
 -1      6325 0.00000E+00 0.00000E+00 0.00000E+00
 -1      6326 0.00000E+00 0.00000E+00 0.00000E+00
 -1      6327 0.00000E+00 0.00000E+00 0.00000E+00
 -1      6328 0.00000E+00 0.00000E+00 0.00000E+00
 -1      6329 0.00000E+00 0.00000E+00 0.00000E+00
 -1      6330 0.00000E+00 0.00000E+00 0.00000E+00
 -1      6331 0.00000E+00 0.00000E+00 0.00000E+00
 -1      6332 0.00000E+00 0.00000E+00 0.00000E+00
 -1      6333 0.00000E+00 0.00000E+00 0.00000E+00
 -1      6334 0.00000E+00 0.00000E+00 0.00000E+00
 -1      6335 0.00000E+00 0.00000E+00 0.00000E+00
 -1      6336 0.00000E+00 0.00000E+00 0.00000E+00
 -1      6337 0.00000E+00 0.00000E+00 0.00000E+00
 -1      6338 0.00000E+00 0.00000E+00 0.00000E+00
 -1      6339 0.00000E+00 0.00000E+00 0.00000E+00
 -1      6340 0.00000E+00 0.00000E+00 0.00000E+00
 -1      6341 0.00000E+00 0.00000E+00 0.00000E+00
 -1      6342 0.00000E+00 0.00000E+00 0.00000E+00
 -1      6343 0.00000E+00 0.00000E+00 0.00000E+00
 -1      6344 0.00000E+00 0.00000E+00 0.00000E+00
 -1      6345 0.00000E+00 0.00000E+00 0.00000E+00
 -1      6346 0.00000E+00 0.00000E+00 0.00000E+00
 -1      6347 0.00000E+00 0.00000E+00 0.00000E+00
 -1      6348 0.00000E+00 0.00000E+00 0.00000E+00
 -1      6349 0.00000E+00 0.00000E+00 0.00000E+00
 -1      6350 0.00000E+00 0.00000E+00 0.00000E+00
 -1      6351 0.00000E+00 0.00000E+00 0.00000E+00
 -1      6352 0.00000E+00 0.00000E+00 0.00000E+00
 -1      6353 0.00000E+00 0.00000E+00 0.00000E+00
 -1      6354 0.00000E+00 0.00000E+00 0.00000E+00
 -1      6355 0.00000E+00 0.00000E+00 0.00000E+00
 -1      6356 0.00000E+00 0.00000E+00 0.00000E+00
 -1      6357 0.00000E+00 0.00000E+00 0.00000E+00
 -1      6358 0.00000E+00 0.00000E+00 0.00000E+00
 -1      6359 0.00000E+00 0.00000E+00 0.00000E+00
 -1      6360 0.00000E+00 0.00000E+00 0.00000E+00
 -1      6361 0.00000E+00 0.00000E+00 0.00000E+00
 -1      6362 0.00000E+00 0.00000E+00 0.00000E+00
 -1      6363 0.00000E+00 0.00000E+00 0.00000E+00
 -1      6364 0.00000E+00 0.00000E+00 0.00000E+00
 -1      6365 0.00000E+00 0.00000E+00 0.00000E+00
 -1      6366 0.00000E+00 0.00000E+00 0.00000E+00
 -1      6367 0.00000E+00 0.00000E+00 0.00000E+00
 -1      6368 0.00000E+00 0.00000E+00 0.00000E+00
 -1      6369 0.00000E+00 0.00000E+00 0.00000E+00
 -1      6370 0.00000E+00 0.00000E+00 0.00000E+00
 -1      6371 0.00000E+00 0.00000E+00 0.00000E+00
 -1      6372 0.00000E+00 0.00000E+00 0.00000E+00
 -1      6373 0.00000E+00 0.00000E+00 0.00000E+00
 -1      6374 0.00000E+00 0.00000E+00 0.00000E+00
 -1      6375 0.00000E+00 0.00000E+00 0.00000E+00
 -1      6376 0.00000E+00 0.00000E+00 0.00000E+00
 -1      6377 0.00000E+00 0.00000E+00 0.00000E+00
 -1      6378 0.00000E+00 0.00000E+00 0.00000E+00
 -1      6379 0.00000E+00 0.00000E+00 0.00000E+00
 -1      6380 0.00000E+00 0.00000E+00 0.00000E+00
 -1      6381 0.00000E+00 0.00000E+00 0.00000E+00
 -1      6382 0.00000E+00 0.00000E+00 0.00000E+00
 -1      6383 0.00000E+00 0.00000E+00 0.00000E+00
 -1      6384 0.00000E+00 0.00000E+00 0.00000E+00
 -1      6385 0.00000E+00 0.00000E+00 0.00000E+00
 -1      6386 0.00000E+00 0.00000E+00 0.00000E+00
 -1      6387 0.00000E+00 0.00000E+00 0.00000E+00
 -1      6388 0.00000E+00 0.00000E+00 0.00000E+00
 -1      6389 0.00000E+00 0.00000E+00 0.00000E+00
 -1      6390 0.00000E+00 0.00000E+00 0.00000E+00
 -1      6391 0.00000E+00 0.00000E+00 0.00000E+00
 -1      6392 0.00000E+00 0.00000E+00 0.00000E+00
 -1      6393 0.00000E+00 0.00000E+00 0.00000E+00
 -1      6394 0.00000E+00 0.00000E+00 0.00000E+00
 -1      6395 0.00000E+00 0.00000E+00 0.00000E+00
 -1      6396 0.00000E+00 0.00000E+00 0.00000E+00
 -1      6397 0.00000E+00 0.00000E+00 0.00000E+00
 -1      6398 0.00000E+00 0.00000E+00 0.00000E+00
 -1      6399 0.00000E+00 0.00000E+00 0.00000E+00
 -1      6400 0.00000E+00 0.00000E+00 0.00000E+00
 -1      6401 0.00000E+00 0.00000E+00 0.00000E+00
 -1      6402 0.00000E+00 0.00000E+00 0.00000E+00
 -1      6403 0.00000E+00 0.00000E+00 0.00000E+00
 -1      6404 0.00000E+00 0.00000E+00 0.00000E+00
 -1      6405 0.00000E+00 0.00000E+00 0.00000E+00
 -1      6406 0.00000E+00 0.00000E+00 0.00000E+00
 -1      6407 0.00000E+00 0.00000E+00 0.00000E+00
 -1      6408 0.00000E+00 0.00000E+00 0.00000E+00
 -1      6409 0.00000E+00 0.00000E+00 0.00000E+00
 -1      6410 0.00000E+00 0.00000E+00 0.00000E+00
 -1      6411 0.00000E+00 0.00000E+00 0.00000E+00
 -1      6412 0.00000E+00 0.00000E+00 0.00000E+00
 -1      6413 0.00000E+00 0.00000E+00 0.00000E+00
 -1      6414 0.00000E+00 0.00000E+00 0.00000E+00
 -1      6415 0.00000E+00 0.00000E+00 0.00000E+00
 -1      6416 0.00000E+00 0.00000E+00 0.00000E+00
 -1      6417 0.00000E+00 0.00000E+00 0.00000E+00
 -1      6418 0.00000E+00 0.00000E+00 0.00000E+00
 -1      6419 0.00000E+00 0.00000E+00 0.00000E+00
 -1      6420 0.00000E+00 0.00000E+00 0.00000E+00
 -1      6421 0.00000E+00 0.00000E+00 0.00000E+00
 -1      6422 0.00000E+00 0.00000E+00 0.00000E+00
 -1      6423 0.00000E+00 0.00000E+00 0.00000E+00
 -1      6424 0.00000E+00 0.00000E+00 0.00000E+00
 -1      6425 0.00000E+00 0.00000E+00 0.00000E+00
 -1      6426 0.00000E+00 0.00000E+00 0.00000E+00
 -1      6427 0.00000E+00 0.00000E+00 0.00000E+00
 -1      6428 0.00000E+00 0.00000E+00 0.00000E+00
 -1      6429 0.00000E+00 0.00000E+00 0.00000E+00
 -1      6430 0.00000E+00 0.00000E+00 0.00000E+00
 -1      6431 0.00000E+00 0.00000E+00 0.00000E+00
 -1      6432 0.00000E+00 0.00000E+00 0.00000E+00
 -1      6433 0.00000E+00 0.00000E+00 0.00000E+00
 -1      6434 0.00000E+00 0.00000E+00 0.00000E+00
 -1      6435 0.00000E+00 0.00000E+00 0.00000E+00
 -1      6436 0.00000E+00 0.00000E+00 0.00000E+00
 -1      6437 0.00000E+00 0.00000E+00 0.00000E+00
 -1      6438 0.00000E+00 0.00000E+00 0.00000E+00
 -1      6439 0.00000E+00 0.00000E+00 0.00000E+00
 -1      6440 0.00000E+00 0.00000E+00 0.00000E+00
 -1      6441 0.00000E+00 0.00000E+00 0.00000E+00
 -1      6442 0.00000E+00 0.00000E+00 0.00000E+00
 -1      6443 0.00000E+00 0.00000E+00 0.00000E+00
 -1      6444 0.00000E+00 0.00000E+00 0.00000E+00
 -1      6445 0.00000E+00 0.00000E+00 0.00000E+00
 -1      6446 0.00000E+00 0.00000E+00 0.00000E+00
 -1      6447 0.00000E+00 0.00000E+00 0.00000E+00
 -1      6448 0.00000E+00 0.00000E+00 0.00000E+00
 -1      6449 0.00000E+00 0.00000E+00 0.00000E+00
 -1      6450 0.00000E+00 0.00000E+00 0.00000E+00
 -1      6451 0.00000E+00 0.00000E+00 0.00000E+00
 -1      6452 0.00000E+00 0.00000E+00 0.00000E+00
 -1      6453 0.00000E+00 0.00000E+00 0.00000E+00
 -1      6454 0.00000E+00 0.00000E+00 0.00000E+00
 -1      6455 0.00000E+00 0.00000E+00 0.00000E+00
 -1      6456 0.00000E+00 0.00000E+00 0.00000E+00
 -1      6457 0.00000E+00 0.00000E+00 0.00000E+00
 -1      6458 0.00000E+00 0.00000E+00 0.00000E+00
 -1      6459 0.00000E+00 0.00000E+00 0.00000E+00
 -1      6460 0.00000E+00 0.00000E+00 0.00000E+00
 -1      6461 0.00000E+00 0.00000E+00 0.00000E+00
 -1      6462 0.00000E+00 0.00000E+00 0.00000E+00
 -1      6463 0.00000E+00 0.00000E+00 0.00000E+00
 -1      6464 0.00000E+00 0.00000E+00 0.00000E+00
 -1      6465 0.00000E+00 0.00000E+00 0.00000E+00
 -1      6466 0.00000E+00 0.00000E+00 0.00000E+00
 -1      6467 0.00000E+00 0.00000E+00 0.00000E+00
 -1      6468 0.00000E+00 0.00000E+00 0.00000E+00
 -1      6469 0.00000E+00 0.00000E+00 0.00000E+00
 -1      6470 0.00000E+00 0.00000E+00 0.00000E+00
 -1      6471 0.00000E+00 0.00000E+00 0.00000E+00
 -1      6472 0.00000E+00 0.00000E+00 0.00000E+00
 -1      6473 0.00000E+00 0.00000E+00 0.00000E+00
 -1      6474 0.00000E+00 0.00000E+00 0.00000E+00
 -1      6475 0.00000E+00 0.00000E+00 0.00000E+00
 -1      6476 0.00000E+00 0.00000E+00 0.00000E+00
 -1      6477 0.00000E+00 0.00000E+00 0.00000E+00
 -1      6478 0.00000E+00 0.00000E+00 0.00000E+00
 -1      6479 0.00000E+00 0.00000E+00 0.00000E+00
 -1      6480 0.00000E+00 0.00000E+00 0.00000E+00
 -1      6481 0.00000E+00 0.00000E+00 0.00000E+00
 -1      6482 0.00000E+00 0.00000E+00 0.00000E+00
 -1      6483 0.00000E+00 0.00000E+00 0.00000E+00
 -1      6484 0.00000E+00 0.00000E+00 0.00000E+00
 -1      6485 0.00000E+00 0.00000E+00 0.00000E+00
 -1      6486 0.00000E+00 0.00000E+00 0.00000E+00
 -1      6487 0.00000E+00 0.00000E+00 0.00000E+00
 -1      6488 0.00000E+00 0.00000E+00 0.00000E+00
 -1      6489 0.00000E+00 0.00000E+00 0.00000E+00
 -1      6490 0.00000E+00 0.00000E+00 0.00000E+00
 -1      6491 0.00000E+00 0.00000E+00 0.00000E+00
 -1      6492 0.00000E+00 0.00000E+00 0.00000E+00
 -1      6493 0.00000E+00 0.00000E+00 0.00000E+00
 -1      6494 0.00000E+00 0.00000E+00 0.00000E+00
 -1      6495 0.00000E+00 0.00000E+00 0.00000E+00
 -1      6496 0.00000E+00 0.00000E+00 0.00000E+00
 -1      6497 0.00000E+00 0.00000E+00 0.00000E+00
 -1      6498 0.00000E+00 0.00000E+00 0.00000E+00
 -1      6499 0.00000E+00 0.00000E+00 0.00000E+00
 -1      6500 0.00000E+00 0.00000E+00 0.00000E+00
 -1      6501 0.00000E+00 0.00000E+00 0.00000E+00
 -1      6502 0.00000E+00 0.00000E+00 0.00000E+00
 -1      6503 0.00000E+00 0.00000E+00 0.00000E+00
 -1      6504 0.00000E+00 0.00000E+00 0.00000E+00
 -1      6505 0.00000E+00 0.00000E+00 0.00000E+00
 -1      6506 0.00000E+00 0.00000E+00 0.00000E+00
 -1      6507 0.00000E+00 0.00000E+00 0.00000E+00
 -1      6508 0.00000E+00 0.00000E+00 0.00000E+00
 -1      6509 0.00000E+00 0.00000E+00 0.00000E+00
 -1      6510 0.00000E+00 0.00000E+00 0.00000E+00
 -1      6511 0.00000E+00 0.00000E+00 0.00000E+00
 -1      6512 0.00000E+00 0.00000E+00 0.00000E+00
 -1      6513 0.00000E+00 0.00000E+00 0.00000E+00
 -1      6514 0.00000E+00 0.00000E+00 0.00000E+00
 -1      6515 0.00000E+00 0.00000E+00 0.00000E+00
 -1      6516 0.00000E+00 0.00000E+00 0.00000E+00
 -1      6517 0.00000E+00 0.00000E+00 0.00000E+00
 -1      6518 0.00000E+00 0.00000E+00 0.00000E+00
 -1      6519 0.00000E+00 0.00000E+00 0.00000E+00
 -1      6520 0.00000E+00 0.00000E+00 0.00000E+00
 -1      6521 0.00000E+00 0.00000E+00 0.00000E+00
 -1      6522 0.00000E+00 0.00000E+00 0.00000E+00
 -1      6523 0.00000E+00 0.00000E+00 0.00000E+00
 -1      6524 0.00000E+00 0.00000E+00 0.00000E+00
 -1      6525 0.00000E+00 0.00000E+00 0.00000E+00
 -1      6526 0.00000E+00 0.00000E+00 0.00000E+00
 -1      6527 0.00000E+00 0.00000E+00 0.00000E+00
 -1      6528 0.00000E+00 0.00000E+00 0.00000E+00
 -1      6529 0.00000E+00 0.00000E+00 0.00000E+00
 -1      6530 0.00000E+00 0.00000E+00 0.00000E+00
 -1      6531 0.00000E+00 0.00000E+00 0.00000E+00
 -1      6532 0.00000E+00 0.00000E+00 0.00000E+00
 -1      6533 0.00000E+00 0.00000E+00 0.00000E+00
 -1      6534 0.00000E+00 0.00000E+00 0.00000E+00
 -1      6535 0.00000E+00 0.00000E+00 0.00000E+00
 -1      6536 0.00000E+00 0.00000E+00 0.00000E+00
 -1      6537 0.00000E+00 0.00000E+00 0.00000E+00
 -1      6538 0.00000E+00 0.00000E+00 0.00000E+00
 -1      6539 0.00000E+00 0.00000E+00 0.00000E+00
 -1      6540 0.00000E+00 0.00000E+00 0.00000E+00
 -1      6541 0.00000E+00 0.00000E+00 0.00000E+00
 -1      6542 0.00000E+00 0.00000E+00 0.00000E+00
 -1      6543 0.00000E+00 0.00000E+00 0.00000E+00
 -1      6544 0.00000E+00 0.00000E+00 0.00000E+00
 -1      6545 0.00000E+00 0.00000E+00 0.00000E+00
 -1      6546 0.00000E+00 0.00000E+00 0.00000E+00
 -1      6547 0.00000E+00 0.00000E+00 0.00000E+00
 -1      6548 0.00000E+00 0.00000E+00 0.00000E+00
 -1      6549 0.00000E+00 0.00000E+00 0.00000E+00
 -1      6550 0.00000E+00 0.00000E+00 0.00000E+00
 -1      6551 0.00000E+00 0.00000E+00 0.00000E+00
 -1      6552 0.00000E+00 0.00000E+00 0.00000E+00
 -1      6553 0.00000E+00 0.00000E+00 0.00000E+00
 -1      6554 0.00000E+00 0.00000E+00 0.00000E+00
 -1      6555 0.00000E+00 0.00000E+00 0.00000E+00
 -1      6556 0.00000E+00 0.00000E+00 0.00000E+00
 -1      6557 0.00000E+00 0.00000E+00 0.00000E+00
 -1      6558 0.00000E+00 0.00000E+00 0.00000E+00
 -1      6559 0.00000E+00 0.00000E+00 0.00000E+00
 -1      6560 0.00000E+00 0.00000E+00 0.00000E+00
 -1      6561 0.00000E+00 0.00000E+00 0.00000E+00
 -1      6562 0.00000E+00 0.00000E+00 0.00000E+00
 -1      6563 0.00000E+00 0.00000E+00 0.00000E+00
 -1      6564 0.00000E+00 0.00000E+00 0.00000E+00
 -1      6565 0.00000E+00 0.00000E+00 0.00000E+00
 -1      6566 0.00000E+00 0.00000E+00 0.00000E+00
 -1      6567 0.00000E+00 0.00000E+00 0.00000E+00
 -1      6568 0.00000E+00 0.00000E+00 0.00000E+00
 -1      6569 0.00000E+00 0.00000E+00 0.00000E+00
 -1      6570 0.00000E+00 0.00000E+00 0.00000E+00
 -1      6571 0.00000E+00 0.00000E+00 0.00000E+00
 -1      6572 0.00000E+00 0.00000E+00 0.00000E+00
 -1      6573 0.00000E+00 0.00000E+00 0.00000E+00
 -1      6574 0.00000E+00 0.00000E+00 0.00000E+00
 -1      6575 0.00000E+00 0.00000E+00 0.00000E+00
 -1      6576 0.00000E+00 0.00000E+00 0.00000E+00
 -1      6577 0.00000E+00 0.00000E+00 0.00000E+00
 -1      6578 0.00000E+00 0.00000E+00 0.00000E+00
 -1      6579 0.00000E+00 0.00000E+00 0.00000E+00
 -1      6580 0.00000E+00 0.00000E+00 0.00000E+00
 -1      6581 0.00000E+00 0.00000E+00 0.00000E+00
 -1      6582 0.00000E+00 0.00000E+00 0.00000E+00
 -1      6583 0.00000E+00 0.00000E+00 0.00000E+00
 -1      6584 0.00000E+00 0.00000E+00 0.00000E+00
 -1      6585 0.00000E+00 0.00000E+00 0.00000E+00
 -1      6586 0.00000E+00 0.00000E+00 0.00000E+00
 -1      6587 0.00000E+00 0.00000E+00 0.00000E+00
 -1      6588 0.00000E+00 0.00000E+00 0.00000E+00
 -1      6589 0.00000E+00 0.00000E+00 0.00000E+00
 -1      6590 0.00000E+00 0.00000E+00 0.00000E+00
 -1      6591 0.00000E+00 0.00000E+00 0.00000E+00
 -1      6592 0.00000E+00 0.00000E+00 0.00000E+00
 -1      6593 0.00000E+00 0.00000E+00 0.00000E+00
 -1      6594 0.00000E+00 0.00000E+00 0.00000E+00
 -1      6595 0.00000E+00 0.00000E+00 0.00000E+00
 -1      6596 0.00000E+00 0.00000E+00 0.00000E+00
 -1      6597 0.00000E+00 0.00000E+00 0.00000E+00
 -1      6598 0.00000E+00 0.00000E+00 0.00000E+00
 -1      6599 0.00000E+00 0.00000E+00 0.00000E+00
 -1      6600 0.00000E+00 0.00000E+00 0.00000E+00
 -1      6601 0.00000E+00 0.00000E+00 0.00000E+00
 -1      6602 0.00000E+00 0.00000E+00 0.00000E+00
 -1      6603 0.00000E+00 0.00000E+00 0.00000E+00
 -1      6604 0.00000E+00 0.00000E+00 0.00000E+00
 -1      6605 0.00000E+00 0.00000E+00 0.00000E+00
 -1      6606 0.00000E+00 0.00000E+00 0.00000E+00
 -1      6607 0.00000E+00 0.00000E+00 0.00000E+00
 -1      6608 0.00000E+00 0.00000E+00 0.00000E+00
 -1      6609 0.00000E+00 0.00000E+00 0.00000E+00
 -1      6610 0.00000E+00 0.00000E+00 0.00000E+00
 -1      6611 0.00000E+00 0.00000E+00 0.00000E+00
 -1      6612 0.00000E+00 0.00000E+00 0.00000E+00
 -1      6613 0.00000E+00 0.00000E+00 0.00000E+00
 -1      6614 0.00000E+00 0.00000E+00 0.00000E+00
 -1      6615 0.00000E+00 0.00000E+00 0.00000E+00
 -1      6616 0.00000E+00 0.00000E+00 0.00000E+00
 -1      6617 0.00000E+00 0.00000E+00 0.00000E+00
 -1      6618 0.00000E+00 0.00000E+00 0.00000E+00
 -1      6619 0.00000E+00 0.00000E+00 0.00000E+00
 -1      6620 0.00000E+00 0.00000E+00 0.00000E+00
 -1      6621 0.00000E+00 0.00000E+00 0.00000E+00
 -1      6622 0.00000E+00 0.00000E+00 0.00000E+00
 -1      6623 0.00000E+00 0.00000E+00 0.00000E+00
 -1      6624 0.00000E+00 0.00000E+00 0.00000E+00
 -1      6625 0.00000E+00 0.00000E+00 0.00000E+00
 -1      6626 0.00000E+00 0.00000E+00 0.00000E+00
 -1      6627 0.00000E+00 0.00000E+00 0.00000E+00
 -1      6628 0.00000E+00 0.00000E+00 0.00000E+00
 -1      6629 0.00000E+00 0.00000E+00 0.00000E+00
 -1      6630 0.00000E+00 0.00000E+00 0.00000E+00
 -1      6631 0.00000E+00 0.00000E+00 0.00000E+00
 -1      6632 0.00000E+00 0.00000E+00 0.00000E+00
 -1      6633 0.00000E+00 0.00000E+00 0.00000E+00
 -1      6634 0.00000E+00 0.00000E+00 0.00000E+00
 -1      6635 0.00000E+00 0.00000E+00 0.00000E+00
 -1      6636 0.00000E+00 0.00000E+00 0.00000E+00
 -1      6637 0.00000E+00 0.00000E+00 0.00000E+00
 -1      6638 0.00000E+00 0.00000E+00 0.00000E+00
 -1      6639 0.00000E+00 0.00000E+00 0.00000E+00
 -1      6640 0.00000E+00 0.00000E+00 0.00000E+00
 -1      6641 0.00000E+00 0.00000E+00 0.00000E+00
 -1      6642 0.00000E+00 0.00000E+00 0.00000E+00
 -1      6643 0.00000E+00 0.00000E+00 0.00000E+00
 -1      6644 0.00000E+00 0.00000E+00 0.00000E+00
 -1      6645 0.00000E+00 0.00000E+00 0.00000E+00
 -1      6646 0.00000E+00 0.00000E+00 0.00000E+00
 -1      6647 0.00000E+00 0.00000E+00 0.00000E+00
 -1      6648 0.00000E+00 0.00000E+00 0.00000E+00
 -1      6649 0.00000E+00 0.00000E+00 0.00000E+00
 -1      6650 0.00000E+00 0.00000E+00 0.00000E+00
 -1      6651 0.00000E+00 0.00000E+00 0.00000E+00
 -1      6652 0.00000E+00 0.00000E+00 0.00000E+00
 -1      6653 0.00000E+00 0.00000E+00 0.00000E+00
 -1      6654 0.00000E+00 0.00000E+00 0.00000E+00
 -1      6655 0.00000E+00 0.00000E+00 0.00000E+00
 -1      6656 0.00000E+00 0.00000E+00 0.00000E+00
 -1      6657 0.00000E+00 0.00000E+00 0.00000E+00
 -1      6658 0.00000E+00 0.00000E+00 0.00000E+00
 -1      6659 0.00000E+00 0.00000E+00 0.00000E+00
 -1      6660 0.00000E+00 0.00000E+00 0.00000E+00
 -1      6661 0.00000E+00 0.00000E+00 0.00000E+00
 -1      6662 0.00000E+00 0.00000E+00 0.00000E+00
 -1      6663 0.00000E+00 0.00000E+00 0.00000E+00
 -1      6664 0.00000E+00 0.00000E+00 0.00000E+00
 -1      6665 0.00000E+00 0.00000E+00 0.00000E+00
 -1      6666 0.00000E+00 0.00000E+00 0.00000E+00
 -1      6667 0.00000E+00 0.00000E+00 0.00000E+00
 -1      6668 0.00000E+00 0.00000E+00 0.00000E+00
 -1      6669 0.00000E+00 0.00000E+00 0.00000E+00
 -1      6670 0.00000E+00 0.00000E+00 0.00000E+00
 -1      6671 0.00000E+00 0.00000E+00 0.00000E+00
 -1      6672 0.00000E+00 0.00000E+00 0.00000E+00
 -1      6673 0.00000E+00 0.00000E+00 0.00000E+00
 -1      6674 0.00000E+00 0.00000E+00 0.00000E+00
 -1      6675 0.00000E+00 0.00000E+00 0.00000E+00
 -1      6676 0.00000E+00 0.00000E+00 0.00000E+00
 -1      6677 0.00000E+00 0.00000E+00 0.00000E+00
 -1      6678 0.00000E+00 0.00000E+00 0.00000E+00
 -1      6679 0.00000E+00 0.00000E+00 0.00000E+00
 -1      6680 0.00000E+00 0.00000E+00 0.00000E+00
 -1      6681 0.00000E+00 0.00000E+00 0.00000E+00
 -1      6682 0.00000E+00 0.00000E+00 0.00000E+00
 -1      6683 0.00000E+00 0.00000E+00 0.00000E+00
 -1      6684 0.00000E+00 0.00000E+00 0.00000E+00
 -1      6685 0.00000E+00 0.00000E+00 0.00000E+00
 -1      6686 0.00000E+00 0.00000E+00 0.00000E+00
 -1      6687 0.00000E+00 0.00000E+00 0.00000E+00
 -1      6688 0.00000E+00 0.00000E+00 0.00000E+00
 -1      6689 0.00000E+00 0.00000E+00 0.00000E+00
 -1      6690 0.00000E+00 0.00000E+00 0.00000E+00
 -1      6691 0.00000E+00 0.00000E+00 0.00000E+00
 -1      6692 0.00000E+00 0.00000E+00 0.00000E+00
 -1      6693 0.00000E+00 0.00000E+00 0.00000E+00
 -1      6694 0.00000E+00 0.00000E+00 0.00000E+00
 -1      6695 0.00000E+00 0.00000E+00 0.00000E+00
 -1      6696 0.00000E+00 0.00000E+00 0.00000E+00
 -1      6697 0.00000E+00 0.00000E+00 0.00000E+00
 -1      6698 0.00000E+00 0.00000E+00 0.00000E+00
 -1      6699 0.00000E+00 0.00000E+00 0.00000E+00
 -1      6700 0.00000E+00 0.00000E+00 0.00000E+00
 -1      6701 0.00000E+00 0.00000E+00 0.00000E+00
 -1      6702 0.00000E+00 0.00000E+00 0.00000E+00
 -1      6703 0.00000E+00 0.00000E+00 0.00000E+00
 -1      6704 0.00000E+00 0.00000E+00 0.00000E+00
 -1      6705 0.00000E+00 0.00000E+00 0.00000E+00
 -1      6706 0.00000E+00 0.00000E+00 0.00000E+00
 -1      6707 0.00000E+00 0.00000E+00 0.00000E+00
 -1      6708 0.00000E+00 0.00000E+00 0.00000E+00
 -1      6709 0.00000E+00 0.00000E+00 0.00000E+00
 -1      6710 0.00000E+00 0.00000E+00 0.00000E+00
 -1      6711 0.00000E+00 0.00000E+00 0.00000E+00
 -1      6712 0.00000E+00 0.00000E+00 0.00000E+00
 -1      6713 0.00000E+00 0.00000E+00 0.00000E+00
 -1      6714 0.00000E+00 0.00000E+00 0.00000E+00
 -1      6715 0.00000E+00 0.00000E+00 0.00000E+00
 -1      6716 0.00000E+00 0.00000E+00 0.00000E+00
 -1      6717 0.00000E+00 0.00000E+00 0.00000E+00
 -1      6718 0.00000E+00 0.00000E+00 0.00000E+00
 -1      6719 0.00000E+00 0.00000E+00 0.00000E+00
 -1      6720 0.00000E+00 0.00000E+00 0.00000E+00
 -1      6721 0.00000E+00 0.00000E+00 0.00000E+00
 -1      6722 0.00000E+00 0.00000E+00 0.00000E+00
 -1      6723 0.00000E+00 0.00000E+00 0.00000E+00
 -1      6724 0.00000E+00 0.00000E+00 0.00000E+00
 -1      6725 0.00000E+00 0.00000E+00 0.00000E+00
 -1      6726 0.00000E+00 0.00000E+00 0.00000E+00
 -1      6727 0.00000E+00 0.00000E+00 0.00000E+00
 -1      6728 0.00000E+00 0.00000E+00 0.00000E+00
 -1      6729 0.00000E+00 0.00000E+00 0.00000E+00
 -1      6730 0.00000E+00 0.00000E+00 0.00000E+00
 -1      6731 0.00000E+00 0.00000E+00 0.00000E+00
 -1      6732 0.00000E+00 0.00000E+00 0.00000E+00
 -1      6733 0.00000E+00 0.00000E+00 0.00000E+00
 -1      6734 0.00000E+00 0.00000E+00 0.00000E+00
 -1      6735 0.00000E+00 0.00000E+00 0.00000E+00
 -1      6736 0.00000E+00 0.00000E+00 0.00000E+00
 -1      6737 0.00000E+00 0.00000E+00 0.00000E+00
 -1      6738 0.00000E+00 0.00000E+00 0.00000E+00
 -1      6739 0.00000E+00 0.00000E+00 0.00000E+00
 -1      6740 0.00000E+00 0.00000E+00 0.00000E+00
 -1      6741 0.00000E+00 0.00000E+00 0.00000E+00
 -1      6742 0.00000E+00 0.00000E+00 0.00000E+00
 -1      6743 0.00000E+00 0.00000E+00 0.00000E+00
 -1      6744 0.00000E+00 0.00000E+00 0.00000E+00
 -1      6745 0.00000E+00 0.00000E+00 0.00000E+00
 -1      6746 0.00000E+00 0.00000E+00 0.00000E+00
 -1      6747 0.00000E+00 0.00000E+00 0.00000E+00
 -1      6748 0.00000E+00 0.00000E+00 0.00000E+00
 -1      6749 0.00000E+00 0.00000E+00 0.00000E+00
 -1      6750 0.00000E+00 0.00000E+00 0.00000E+00
 -1      6751 0.00000E+00 0.00000E+00 0.00000E+00
 -1      6752 0.00000E+00 0.00000E+00 0.00000E+00
 -1      6753 0.00000E+00 0.00000E+00 0.00000E+00
 -1      6754 0.00000E+00 0.00000E+00 0.00000E+00
 -1      6755 0.00000E+00 0.00000E+00 0.00000E+00
 -1      6756 0.00000E+00 0.00000E+00 0.00000E+00
 -1      6757 0.00000E+00 0.00000E+00 0.00000E+00
 -1      6758 0.00000E+00 0.00000E+00 0.00000E+00
 -1      6759 0.00000E+00 0.00000E+00 0.00000E+00
 -1      6760 0.00000E+00 0.00000E+00 0.00000E+00
 -1      6761 0.00000E+00 0.00000E+00 0.00000E+00
 -1      6762 0.00000E+00 0.00000E+00 0.00000E+00
 -1      6763 0.00000E+00 0.00000E+00 0.00000E+00
 -1      6764 0.00000E+00 0.00000E+00 0.00000E+00
 -1      6765 0.00000E+00 0.00000E+00 0.00000E+00
 -1      6766 0.00000E+00 0.00000E+00 0.00000E+00
 -1      6767 0.00000E+00 0.00000E+00 0.00000E+00
 -1      6768 0.00000E+00 0.00000E+00 0.00000E+00
 -1      6769 0.00000E+00 0.00000E+00 0.00000E+00
 -1      6770 0.00000E+00 0.00000E+00 0.00000E+00
 -1      6771 0.00000E+00 0.00000E+00 0.00000E+00
 -1      6772 0.00000E+00 0.00000E+00 0.00000E+00
 -1      6773 0.00000E+00 0.00000E+00 0.00000E+00
 -1      6774 0.00000E+00 0.00000E+00 0.00000E+00
 -1      6775 0.00000E+00 0.00000E+00 0.00000E+00
 -1      6776 0.00000E+00 0.00000E+00 0.00000E+00
 -1      6777 0.00000E+00 0.00000E+00 0.00000E+00
 -1      6778 0.00000E+00 0.00000E+00 0.00000E+00
 -1      6779 0.00000E+00 0.00000E+00 0.00000E+00
 -1      6780 0.00000E+00 0.00000E+00 0.00000E+00
 -1      6781 0.00000E+00 0.00000E+00 0.00000E+00
 -1      6782 0.00000E+00 0.00000E+00 0.00000E+00
 -1      6783 0.00000E+00 0.00000E+00 0.00000E+00
 -1      6784 0.00000E+00 0.00000E+00 0.00000E+00
 -1      6785 0.00000E+00 0.00000E+00 0.00000E+00
 -1      6786 0.00000E+00 0.00000E+00 0.00000E+00
 -1      6787 0.00000E+00 0.00000E+00 0.00000E+00
 -1      6788 0.00000E+00 0.00000E+00 0.00000E+00
 -1      6789 0.00000E+00 0.00000E+00 0.00000E+00
 -1      6790 0.00000E+00 0.00000E+00 0.00000E+00
 -1      6791 0.00000E+00 0.00000E+00 0.00000E+00
 -1      6792 0.00000E+00 0.00000E+00 0.00000E+00
 -1      6793 0.00000E+00 0.00000E+00 0.00000E+00
 -1      6794 0.00000E+00 0.00000E+00 0.00000E+00
 -1      6795 0.00000E+00 0.00000E+00 0.00000E+00
 -1      6796 0.00000E+00 0.00000E+00 0.00000E+00
 -1      6797 0.00000E+00 0.00000E+00 0.00000E+00
 -1      6798 0.00000E+00 0.00000E+00 0.00000E+00
 -1      6799 0.00000E+00 0.00000E+00 0.00000E+00
 -1      6800 0.00000E+00 0.00000E+00 0.00000E+00
 -1      6801 0.00000E+00 0.00000E+00 0.00000E+00
 -1      6802 0.00000E+00 0.00000E+00 0.00000E+00
 -1      6803 0.00000E+00 0.00000E+00 0.00000E+00
 -1      6804 0.00000E+00 0.00000E+00 0.00000E+00
 -1      6805 0.00000E+00 0.00000E+00 0.00000E+00
 -1      6806 0.00000E+00 0.00000E+00 0.00000E+00
 -1      6807 0.00000E+00 0.00000E+00 0.00000E+00
 -1      6808 0.00000E+00 0.00000E+00 0.00000E+00
 -1      6809 0.00000E+00 0.00000E+00 0.00000E+00
 -1      6810 0.00000E+00 0.00000E+00 0.00000E+00
 -1      6811 0.00000E+00 0.00000E+00 0.00000E+00
 -1      6812 0.00000E+00 0.00000E+00 0.00000E+00
 -1      6813 0.00000E+00 0.00000E+00 0.00000E+00
 -1      6814 0.00000E+00 0.00000E+00 0.00000E+00
 -1      6815 0.00000E+00 0.00000E+00 0.00000E+00
 -1      6816 0.00000E+00 0.00000E+00 0.00000E+00
 -1      6817 0.00000E+00 0.00000E+00 0.00000E+00
 -1      6818 0.00000E+00 0.00000E+00 0.00000E+00
 -1      6819 0.00000E+00 0.00000E+00 0.00000E+00
 -1      6820 0.00000E+00 0.00000E+00 0.00000E+00
 -1      6821 0.00000E+00 0.00000E+00 0.00000E+00
 -1      6822 0.00000E+00 0.00000E+00 0.00000E+00
 -1      6823 0.00000E+00 0.00000E+00 0.00000E+00
 -1      6824 0.00000E+00 0.00000E+00 0.00000E+00
 -1      6825 0.00000E+00 0.00000E+00 0.00000E+00
 -1      6826 0.00000E+00 0.00000E+00 0.00000E+00
 -1      6827 0.00000E+00 0.00000E+00 0.00000E+00
 -1      6828 0.00000E+00 0.00000E+00 0.00000E+00
 -1      6829 0.00000E+00 0.00000E+00 0.00000E+00
 -1      6830 0.00000E+00 0.00000E+00 0.00000E+00
 -1      6831 0.00000E+00 0.00000E+00 0.00000E+00
 -1      6832 0.00000E+00 0.00000E+00 0.00000E+00
 -1      6833 0.00000E+00 0.00000E+00 0.00000E+00
 -1      6834 0.00000E+00 0.00000E+00 0.00000E+00
 -1      6835 0.00000E+00 0.00000E+00 0.00000E+00
 -1      6836 0.00000E+00 0.00000E+00 0.00000E+00
 -1      6837 0.00000E+00 0.00000E+00 0.00000E+00
 -1      6838 0.00000E+00 0.00000E+00 0.00000E+00
 -1      6839 0.00000E+00 0.00000E+00 0.00000E+00
 -1      6840 0.00000E+00 0.00000E+00 0.00000E+00
 -1      6841 0.00000E+00 0.00000E+00 0.00000E+00
 -1      6842 0.00000E+00 0.00000E+00 0.00000E+00
 -1      6843 0.00000E+00 0.00000E+00 0.00000E+00
 -1      6844 0.00000E+00 0.00000E+00 0.00000E+00
 -1      6845 0.00000E+00 0.00000E+00 0.00000E+00
 -1      6846 0.00000E+00 0.00000E+00 0.00000E+00
 -1      6847 0.00000E+00 0.00000E+00 0.00000E+00
 -1      6848 0.00000E+00 0.00000E+00 0.00000E+00
 -1      6849 0.00000E+00 0.00000E+00 0.00000E+00
 -1      6850 0.00000E+00 0.00000E+00 0.00000E+00
 -1      6851 0.00000E+00 0.00000E+00 0.00000E+00
 -1      6852 0.00000E+00 0.00000E+00 0.00000E+00
 -1      6853 0.00000E+00 0.00000E+00 0.00000E+00
 -1      6854 0.00000E+00 0.00000E+00 0.00000E+00
 -1      6855 0.00000E+00 0.00000E+00 0.00000E+00
 -1      6856 0.00000E+00 0.00000E+00 0.00000E+00
 -1      6857 0.00000E+00 0.00000E+00 0.00000E+00
 -1      6858 0.00000E+00 0.00000E+00 0.00000E+00
 -1      6859 0.00000E+00 0.00000E+00 0.00000E+00
 -1      6860 0.00000E+00 0.00000E+00 0.00000E+00
 -1      6861 0.00000E+00 0.00000E+00 0.00000E+00
 -1      6862 0.00000E+00 0.00000E+00 0.00000E+00
 -1      6863 0.00000E+00 0.00000E+00 0.00000E+00
 -1      6864 0.00000E+00 0.00000E+00 0.00000E+00
 -1      6865 0.00000E+00 0.00000E+00 0.00000E+00
 -1      6866 0.00000E+00 0.00000E+00 0.00000E+00
 -1      6867 0.00000E+00 0.00000E+00 0.00000E+00
 -1      6868 0.00000E+00 0.00000E+00 0.00000E+00
 -1      6869 0.00000E+00 0.00000E+00 0.00000E+00
 -1      6870 0.00000E+00 0.00000E+00 0.00000E+00
 -1      6871 0.00000E+00 0.00000E+00 0.00000E+00
 -1      6872 0.00000E+00 0.00000E+00 0.00000E+00
 -1      6873 0.00000E+00 0.00000E+00 0.00000E+00
 -1      6874 0.00000E+00 0.00000E+00 0.00000E+00
 -1      6875 0.00000E+00 0.00000E+00 0.00000E+00
 -1      6876 0.00000E+00 0.00000E+00 0.00000E+00
 -1      6877 0.00000E+00 0.00000E+00 0.00000E+00
 -1      6878 0.00000E+00 0.00000E+00 0.00000E+00
 -1      6879 0.00000E+00 0.00000E+00 0.00000E+00
 -1      6880 0.00000E+00 0.00000E+00 0.00000E+00
 -1      6881 0.00000E+00 0.00000E+00 0.00000E+00
 -1      6882 0.00000E+00 0.00000E+00 0.00000E+00
 -1      6883 0.00000E+00 0.00000E+00 0.00000E+00
 -1      6884 0.00000E+00 0.00000E+00 0.00000E+00
 -1      6885 0.00000E+00 0.00000E+00 0.00000E+00
 -1      6886 0.00000E+00 0.00000E+00 0.00000E+00
 -1      6887 0.00000E+00 0.00000E+00 0.00000E+00
 -1      6888 0.00000E+00 0.00000E+00 0.00000E+00
 -1      6889 0.00000E+00 0.00000E+00 0.00000E+00
 -1      6890 0.00000E+00 0.00000E+00 0.00000E+00
 -1      6891 0.00000E+00 0.00000E+00 0.00000E+00
 -1      6892 0.00000E+00 0.00000E+00 0.00000E+00
 -1      6893 0.00000E+00 0.00000E+00 0.00000E+00
 -1      6894 0.00000E+00 0.00000E+00 0.00000E+00
 -1      6895 0.00000E+00 0.00000E+00 0.00000E+00
 -1      6896 0.00000E+00 0.00000E+00 0.00000E+00
 -1      6897 0.00000E+00 0.00000E+00 0.00000E+00
 -1      6898 0.00000E+00 0.00000E+00 0.00000E+00
 -1      6899 0.00000E+00 0.00000E+00 0.00000E+00
 -1      6900 0.00000E+00 0.00000E+00 0.00000E+00
 -1      6901 0.00000E+00 0.00000E+00 0.00000E+00
 -1      6902 0.00000E+00 0.00000E+00 0.00000E+00
 -1      6903 0.00000E+00 0.00000E+00 0.00000E+00
 -1      6904 0.00000E+00 0.00000E+00 0.00000E+00
 -1      6905 0.00000E+00 0.00000E+00 0.00000E+00
 -1      6906 0.00000E+00 0.00000E+00 0.00000E+00
 -1      6907 0.00000E+00 0.00000E+00 0.00000E+00
 -1      6908 0.00000E+00 0.00000E+00 0.00000E+00
 -1      6909 0.00000E+00 0.00000E+00 0.00000E+00
 -1      6910 0.00000E+00 0.00000E+00 0.00000E+00
 -1      6911 0.00000E+00 0.00000E+00 0.00000E+00
 -1      6912 0.00000E+00 0.00000E+00 0.00000E+00
 -1      6913 0.00000E+00 0.00000E+00 0.00000E+00
 -1      6914 0.00000E+00 0.00000E+00 0.00000E+00
 -1      6915 0.00000E+00 0.00000E+00 0.00000E+00
 -1      6916 0.00000E+00 0.00000E+00 0.00000E+00
 -1      6917 0.00000E+00 0.00000E+00 0.00000E+00
 -1      6918 0.00000E+00 0.00000E+00 0.00000E+00
 -1      6919 0.00000E+00 0.00000E+00 0.00000E+00
 -1      6920 0.00000E+00 0.00000E+00 0.00000E+00
 -1      6921 0.00000E+00 0.00000E+00 0.00000E+00
 -1      6922 0.00000E+00 0.00000E+00 0.00000E+00
 -1      6923 0.00000E+00 0.00000E+00 0.00000E+00
 -1      6924 0.00000E+00 0.00000E+00 0.00000E+00
 -1      6925 0.00000E+00 0.00000E+00 0.00000E+00
 -1      6926 0.00000E+00 0.00000E+00 0.00000E+00
 -1      6927 0.00000E+00 0.00000E+00 0.00000E+00
 -1      6928 0.00000E+00 0.00000E+00 0.00000E+00
 -1      6929 0.00000E+00 0.00000E+00 0.00000E+00
 -1      6930 0.00000E+00 0.00000E+00 0.00000E+00
 -1      6931 0.00000E+00 0.00000E+00 0.00000E+00
 -1      6932 0.00000E+00 0.00000E+00 0.00000E+00
 -1      6933 0.00000E+00 0.00000E+00 0.00000E+00
 -1      6934 0.00000E+00 0.00000E+00 0.00000E+00
 -1      6935 0.00000E+00 0.00000E+00 0.00000E+00
 -1      6936 0.00000E+00 0.00000E+00 0.00000E+00
 -1      6937 0.00000E+00 0.00000E+00 0.00000E+00
 -1      6938 0.00000E+00 0.00000E+00 0.00000E+00
 -1      6939 0.00000E+00 0.00000E+00 0.00000E+00
 -1      6940 0.00000E+00 0.00000E+00 0.00000E+00
 -1      6941 0.00000E+00 0.00000E+00 0.00000E+00
 -1      6942 0.00000E+00 0.00000E+00 0.00000E+00
 -1      6943 0.00000E+00 0.00000E+00 0.00000E+00
 -1      6944 0.00000E+00 0.00000E+00 0.00000E+00
 -1      6945 0.00000E+00 0.00000E+00 0.00000E+00
 -1      6946 0.00000E+00 0.00000E+00 0.00000E+00
 -1      6947 0.00000E+00 0.00000E+00 0.00000E+00
 -1      6948 0.00000E+00 0.00000E+00 0.00000E+00
 -1      6949 0.00000E+00 0.00000E+00 0.00000E+00
 -1      6950 0.00000E+00 0.00000E+00 0.00000E+00
 -1      6951 0.00000E+00 0.00000E+00 0.00000E+00
 -1      6952 0.00000E+00 0.00000E+00 0.00000E+00
 -1      6953 0.00000E+00 0.00000E+00 0.00000E+00
 -1      6954 0.00000E+00 0.00000E+00 0.00000E+00
 -1      6955 0.00000E+00 0.00000E+00 0.00000E+00
 -1      6956 0.00000E+00 0.00000E+00 0.00000E+00
 -1      6957 0.00000E+00 0.00000E+00 0.00000E+00
 -1      6958 0.00000E+00 0.00000E+00 0.00000E+00
 -1      6959 0.00000E+00 0.00000E+00 0.00000E+00
 -1      6960 0.00000E+00 0.00000E+00 0.00000E+00
 -1      6961 0.00000E+00 0.00000E+00 0.00000E+00
 -1      6962 0.00000E+00 0.00000E+00 0.00000E+00
 -1      6963 0.00000E+00 0.00000E+00 0.00000E+00
 -1      6964 0.00000E+00 0.00000E+00 0.00000E+00
 -1      6965 0.00000E+00 0.00000E+00 0.00000E+00
 -1      6966 0.00000E+00 0.00000E+00 0.00000E+00
 -1      6967 0.00000E+00 0.00000E+00 0.00000E+00
 -1      6968 0.00000E+00 0.00000E+00 0.00000E+00
 -1      6969 0.00000E+00 0.00000E+00 0.00000E+00
 -1      6970 0.00000E+00 0.00000E+00 0.00000E+00
 -1      6971 0.00000E+00 0.00000E+00 0.00000E+00
 -1      6972 0.00000E+00 0.00000E+00 0.00000E+00
 -1      6973 0.00000E+00 0.00000E+00 0.00000E+00
 -1      6974 0.00000E+00 0.00000E+00 0.00000E+00
 -1      6975 0.00000E+00 0.00000E+00 0.00000E+00
 -1      6976 0.00000E+00 0.00000E+00 0.00000E+00
 -1      6977 0.00000E+00 0.00000E+00 0.00000E+00
 -1      6978 0.00000E+00 0.00000E+00 0.00000E+00
 -1      6979 0.00000E+00 0.00000E+00 0.00000E+00
 -1      6980 0.00000E+00 0.00000E+00 0.00000E+00
 -1      6981 0.00000E+00 0.00000E+00 0.00000E+00
 -1      6982 0.00000E+00 0.00000E+00 0.00000E+00
 -1      6983 0.00000E+00 0.00000E+00 0.00000E+00
 -1      6984 0.00000E+00 0.00000E+00 0.00000E+00
 -1      6985 0.00000E+00 0.00000E+00 0.00000E+00
 -1      6986 0.00000E+00 0.00000E+00 0.00000E+00
 -1      6987 0.00000E+00 0.00000E+00 0.00000E+00
 -1      6988 0.00000E+00 0.00000E+00 0.00000E+00
 -1      6989 0.00000E+00 0.00000E+00 0.00000E+00
 -1      6990 0.00000E+00 0.00000E+00 0.00000E+00
 -1      6991 0.00000E+00 0.00000E+00 0.00000E+00
 -1      6992 0.00000E+00 0.00000E+00 0.00000E+00
 -1      6993 0.00000E+00 0.00000E+00 0.00000E+00
 -1      6994 0.00000E+00 0.00000E+00 0.00000E+00
 -1      6995 0.00000E+00 0.00000E+00 0.00000E+00
 -1      6996 0.00000E+00 0.00000E+00 0.00000E+00
 -1      6997 0.00000E+00 0.00000E+00 0.00000E+00
 -1      6998 0.00000E+00 0.00000E+00 0.00000E+00
 -1      6999 0.00000E+00 0.00000E+00 0.00000E+00
 -1      7000 0.00000E+00 0.00000E+00 0.00000E+00
 -1      7001 0.00000E+00 0.00000E+00 0.00000E+00
 -1      7002 0.00000E+00 0.00000E+00 0.00000E+00
 -1      7003 0.00000E+00 0.00000E+00 0.00000E+00
 -1      7004 0.00000E+00 0.00000E+00 0.00000E+00
 -1      7005 0.00000E+00 0.00000E+00 0.00000E+00
 -1      7006 0.00000E+00 0.00000E+00 0.00000E+00
 -1      7007 0.00000E+00 0.00000E+00 0.00000E+00
 -1      7008 0.00000E+00 0.00000E+00 0.00000E+00
 -1      7009 0.00000E+00 0.00000E+00 0.00000E+00
 -1      7010 0.00000E+00 0.00000E+00 0.00000E+00
 -1      7011 0.00000E+00 0.00000E+00 0.00000E+00
 -1      7012 0.00000E+00 0.00000E+00 0.00000E+00
 -1      7013 0.00000E+00 0.00000E+00 0.00000E+00
 -1      7014 0.00000E+00 0.00000E+00 0.00000E+00
 -1      7015 0.00000E+00 0.00000E+00 0.00000E+00
 -1      7016 0.00000E+00 0.00000E+00 0.00000E+00
 -1      7017 0.00000E+00 0.00000E+00 0.00000E+00
 -1      7018 0.00000E+00 0.00000E+00 0.00000E+00
 -1      7019 0.00000E+00 0.00000E+00 0.00000E+00
 -1      7020 0.00000E+00 0.00000E+00 0.00000E+00
 -1      7021 0.00000E+00 0.00000E+00 0.00000E+00
 -1      7022 0.00000E+00 0.00000E+00 0.00000E+00
 -1      7023 0.00000E+00 0.00000E+00 0.00000E+00
 -1      7024 0.00000E+00 0.00000E+00 0.00000E+00
 -1      7025 0.00000E+00 0.00000E+00 0.00000E+00
 -1      7026 0.00000E+00 0.00000E+00 0.00000E+00
 -1      7027 0.00000E+00 0.00000E+00 0.00000E+00
 -1      7028 0.00000E+00 0.00000E+00 0.00000E+00
 -1      7029 0.00000E+00 0.00000E+00 0.00000E+00
 -1      7030 0.00000E+00 0.00000E+00 0.00000E+00
 -1      7031 0.00000E+00 0.00000E+00 0.00000E+00
 -1      7032 0.00000E+00 0.00000E+00 0.00000E+00
 -1      7033 0.00000E+00 0.00000E+00 0.00000E+00
 -1      7034 0.00000E+00 0.00000E+00 0.00000E+00
 -1      7035 0.00000E+00 0.00000E+00 0.00000E+00
 -1      7036 0.00000E+00 0.00000E+00 0.00000E+00
 -1      7037 0.00000E+00 0.00000E+00 0.00000E+00
 -1      7038 0.00000E+00 0.00000E+00 0.00000E+00
 -1      7039 0.00000E+00 0.00000E+00 0.00000E+00
 -1      7040 0.00000E+00 0.00000E+00 0.00000E+00
 -1      7041 0.00000E+00 0.00000E+00 0.00000E+00
 -1      7042 0.00000E+00 0.00000E+00 0.00000E+00
 -1      7043 0.00000E+00 0.00000E+00 0.00000E+00
 -1      7044 0.00000E+00 0.00000E+00 0.00000E+00
 -1      7045 0.00000E+00 0.00000E+00 0.00000E+00
 -1      7046 0.00000E+00 0.00000E+00 0.00000E+00
 -1      7047 0.00000E+00 0.00000E+00 0.00000E+00
 -1      7048 0.00000E+00 0.00000E+00 0.00000E+00
 -1      7049 0.00000E+00 0.00000E+00 0.00000E+00
 -1      7050 0.00000E+00 0.00000E+00 0.00000E+00
 -1      7051 0.00000E+00 0.00000E+00 0.00000E+00
 -1      7052 0.00000E+00 0.00000E+00 0.00000E+00
 -1      7053 0.00000E+00 0.00000E+00 0.00000E+00
 -1      7054 0.00000E+00 0.00000E+00 0.00000E+00
 -1      7055 0.00000E+00 0.00000E+00 0.00000E+00
 -1      7056 0.00000E+00 0.00000E+00 0.00000E+00
 -1      7057 0.00000E+00 0.00000E+00 0.00000E+00
 -1      7058 0.00000E+00 0.00000E+00 0.00000E+00
 -1      7059 0.00000E+00 0.00000E+00 0.00000E+00
 -1      7060 0.00000E+00 0.00000E+00 0.00000E+00
 -1      7061 0.00000E+00 0.00000E+00 0.00000E+00
 -1      7062 0.00000E+00 0.00000E+00 0.00000E+00
 -1      7063 0.00000E+00 0.00000E+00 0.00000E+00
 -1      7064 0.00000E+00 0.00000E+00 0.00000E+00
 -1      7065 0.00000E+00 0.00000E+00 0.00000E+00
 -1      7066 0.00000E+00 0.00000E+00 0.00000E+00
 -1      7067 0.00000E+00 0.00000E+00 0.00000E+00
 -1      7068 0.00000E+00 0.00000E+00 0.00000E+00
 -1      7069 0.00000E+00 0.00000E+00 0.00000E+00
 -1      7070 0.00000E+00 0.00000E+00 0.00000E+00
 -1      7071 0.00000E+00 0.00000E+00 0.00000E+00
 -1      7072 0.00000E+00 0.00000E+00 0.00000E+00
 -1      7073 0.00000E+00 0.00000E+00 0.00000E+00
 -1      7074 0.00000E+00 0.00000E+00 0.00000E+00
 -1      7075 0.00000E+00 0.00000E+00 0.00000E+00
 -1      7076 0.00000E+00 0.00000E+00 0.00000E+00
 -1      7077 0.00000E+00 0.00000E+00 0.00000E+00
 -1      7078 0.00000E+00 0.00000E+00 0.00000E+00
 -1      7079 0.00000E+00 0.00000E+00 0.00000E+00
 -1      7080 0.00000E+00 0.00000E+00 0.00000E+00
 -1      7081 0.00000E+00 0.00000E+00 0.00000E+00
 -1      7082 0.00000E+00 0.00000E+00 0.00000E+00
 -1      7083 0.00000E+00 0.00000E+00 0.00000E+00
 -1      7084 0.00000E+00 0.00000E+00 0.00000E+00
 -1      7085 0.00000E+00 0.00000E+00 0.00000E+00
 -1      7086 0.00000E+00 0.00000E+00 0.00000E+00
 -1      7087 0.00000E+00 0.00000E+00 0.00000E+00
 -1      7088 0.00000E+00 0.00000E+00 0.00000E+00
 -1      7089 0.00000E+00 0.00000E+00 0.00000E+00
 -1      7090 0.00000E+00 0.00000E+00 0.00000E+00
 -1      7091 0.00000E+00 0.00000E+00 0.00000E+00
 -1      7092 0.00000E+00 0.00000E+00 0.00000E+00
 -1      7093 0.00000E+00 0.00000E+00 0.00000E+00
 -1      7094 0.00000E+00 0.00000E+00 0.00000E+00
 -1      7095 0.00000E+00 0.00000E+00 0.00000E+00
 -1      7096 0.00000E+00 0.00000E+00 0.00000E+00
 -1      7097 0.00000E+00 0.00000E+00 0.00000E+00
 -1      7098 0.00000E+00 0.00000E+00 0.00000E+00
 -1      7099 0.00000E+00 0.00000E+00 0.00000E+00
 -1      7100 0.00000E+00 0.00000E+00 0.00000E+00
 -1      7101 0.00000E+00 0.00000E+00 0.00000E+00
 -1      7102 0.00000E+00 0.00000E+00 0.00000E+00
 -1      7103 0.00000E+00 0.00000E+00 0.00000E+00
 -1      7104 0.00000E+00 0.00000E+00 0.00000E+00
 -1      7105 0.00000E+00 0.00000E+00 0.00000E+00
 -1      7106 0.00000E+00 0.00000E+00 0.00000E+00
 -1      7107 0.00000E+00 0.00000E+00 0.00000E+00
 -1      7108 0.00000E+00 0.00000E+00 0.00000E+00
 -1      7109 0.00000E+00 0.00000E+00 0.00000E+00
 -1      7110 0.00000E+00 0.00000E+00 0.00000E+00
 -1      7111 0.00000E+00 0.00000E+00 0.00000E+00
 -1      7112 0.00000E+00 0.00000E+00 0.00000E+00
 -1      7113 0.00000E+00 0.00000E+00 0.00000E+00
 -1      7114 0.00000E+00 0.00000E+00 0.00000E+00
 -1      7115 0.00000E+00 0.00000E+00 0.00000E+00
 -1      7116 0.00000E+00 0.00000E+00 0.00000E+00
 -1      7117 0.00000E+00 0.00000E+00 0.00000E+00
 -1      7118 0.00000E+00 0.00000E+00 0.00000E+00
 -1      7119 0.00000E+00 0.00000E+00 0.00000E+00
 -1      7120 0.00000E+00 0.00000E+00 0.00000E+00
 -1      7121 0.00000E+00 0.00000E+00 0.00000E+00
 -1      7122 0.00000E+00 0.00000E+00 0.00000E+00
 -1      7123 0.00000E+00 0.00000E+00 0.00000E+00
 -1      7124 0.00000E+00 0.00000E+00 0.00000E+00
 -1      7125 0.00000E+00 0.00000E+00 0.00000E+00
 -1      7126 0.00000E+00 0.00000E+00 0.00000E+00
 -1      7127 0.00000E+00 0.00000E+00 0.00000E+00
 -1      7128 0.00000E+00 0.00000E+00 0.00000E+00
 -1      7129 0.00000E+00 0.00000E+00 0.00000E+00
 -1      7130 0.00000E+00 0.00000E+00 0.00000E+00
 -1      7131 0.00000E+00 0.00000E+00 0.00000E+00
 -1      7132 0.00000E+00 0.00000E+00 0.00000E+00
 -1      7133 0.00000E+00 0.00000E+00 0.00000E+00
 -1      7134 0.00000E+00 0.00000E+00 0.00000E+00
 -1      7135 0.00000E+00 0.00000E+00 0.00000E+00
 -1      7136 0.00000E+00 0.00000E+00 0.00000E+00
 -1      7137 0.00000E+00 0.00000E+00 0.00000E+00
 -1      7138 0.00000E+00 0.00000E+00 0.00000E+00
 -1      7139 0.00000E+00 0.00000E+00 0.00000E+00
 -1      7140 0.00000E+00 0.00000E+00 0.00000E+00
 -1      7141 0.00000E+00 0.00000E+00 0.00000E+00
 -1      7142 0.00000E+00 0.00000E+00 0.00000E+00
 -1      7143 0.00000E+00 0.00000E+00 0.00000E+00
 -1      7144 0.00000E+00 0.00000E+00 0.00000E+00
 -1      7145 0.00000E+00 0.00000E+00 0.00000E+00
 -1      7146 0.00000E+00 0.00000E+00 0.00000E+00
 -1      7147 0.00000E+00 0.00000E+00 0.00000E+00
 -1      7148 0.00000E+00 0.00000E+00 0.00000E+00
 -1      7149 0.00000E+00 0.00000E+00 0.00000E+00
 -1      7150 0.00000E+00 0.00000E+00 0.00000E+00
 -1      7151 0.00000E+00 0.00000E+00 0.00000E+00
 -1      7152 0.00000E+00 0.00000E+00 0.00000E+00
 -1      7153 0.00000E+00 0.00000E+00 0.00000E+00
 -1      7154 0.00000E+00 0.00000E+00 0.00000E+00
 -1      7155 0.00000E+00 0.00000E+00 0.00000E+00
 -1      7156 0.00000E+00 0.00000E+00 0.00000E+00
 -1      7157 0.00000E+00 0.00000E+00 0.00000E+00
 -1      7158 0.00000E+00 0.00000E+00 0.00000E+00
 -1      7159 0.00000E+00 0.00000E+00 0.00000E+00
 -1      7160 0.00000E+00 0.00000E+00 0.00000E+00
 -1      7161 0.00000E+00 0.00000E+00 0.00000E+00
 -1      7162 0.00000E+00 0.00000E+00 0.00000E+00
 -1      7163 0.00000E+00 0.00000E+00 0.00000E+00
 -1      7164 0.00000E+00 0.00000E+00 0.00000E+00
 -1      7165 0.00000E+00 0.00000E+00 0.00000E+00
 -1      7166 0.00000E+00 0.00000E+00 0.00000E+00
 -1      7167 0.00000E+00 0.00000E+00 0.00000E+00
 -1      7168 0.00000E+00 0.00000E+00 0.00000E+00
 -1      7169 0.00000E+00 0.00000E+00 0.00000E+00
 -1      7170 0.00000E+00 0.00000E+00 0.00000E+00
 -1      7171 0.00000E+00 0.00000E+00 0.00000E+00
 -1      7172 0.00000E+00 0.00000E+00 0.00000E+00
 -1      7173 0.00000E+00 0.00000E+00 0.00000E+00
 -1      7174 0.00000E+00 0.00000E+00 0.00000E+00
 -1      7175 0.00000E+00 0.00000E+00 0.00000E+00
 -1      7176 0.00000E+00 0.00000E+00 0.00000E+00
 -1      7177 0.00000E+00 0.00000E+00 0.00000E+00
 -1      7178 0.00000E+00 0.00000E+00 0.00000E+00
 -1      7179 0.00000E+00 0.00000E+00 0.00000E+00
 -1      7180 0.00000E+00 0.00000E+00 0.00000E+00
 -1      7181 0.00000E+00 0.00000E+00 0.00000E+00
 -1      7182 0.00000E+00 0.00000E+00 0.00000E+00
 -1      7183 0.00000E+00 0.00000E+00 0.00000E+00
 -1      7184 0.00000E+00 0.00000E+00 0.00000E+00
 -1      7185 0.00000E+00 0.00000E+00 0.00000E+00
 -1      7186 0.00000E+00 0.00000E+00 0.00000E+00
 -1      7187 0.00000E+00 0.00000E+00 0.00000E+00
 -1      7188 0.00000E+00 0.00000E+00 0.00000E+00
 -1      7189 0.00000E+00 0.00000E+00 0.00000E+00
 -1      7190 0.00000E+00 0.00000E+00 0.00000E+00
 -1      7191 0.00000E+00 0.00000E+00 0.00000E+00
 -1      7192 0.00000E+00 0.00000E+00 0.00000E+00
 -1      7193 0.00000E+00 0.00000E+00 0.00000E+00
 -1      7194 0.00000E+00 0.00000E+00 0.00000E+00
 -1      7195 0.00000E+00 0.00000E+00 0.00000E+00
 -1      7196 0.00000E+00 0.00000E+00 0.00000E+00
 -1      7197 0.00000E+00 0.00000E+00 0.00000E+00
 -1      7198 0.00000E+00 0.00000E+00 0.00000E+00
 -1      7199 0.00000E+00 0.00000E+00 0.00000E+00
 -1      7200 0.00000E+00 0.00000E+00 0.00000E+00
 -1      7201 0.00000E+00 0.00000E+00 0.00000E+00
 -1      7202 0.00000E+00 0.00000E+00 0.00000E+00
 -1      7203 0.00000E+00 0.00000E+00 0.00000E+00
 -1      7204 0.00000E+00 0.00000E+00 0.00000E+00
 -1      7205 0.00000E+00 0.00000E+00 0.00000E+00
 -1      7206 0.00000E+00 0.00000E+00 0.00000E+00
 -1      7207 0.00000E+00 0.00000E+00 0.00000E+00
 -1      7208 0.00000E+00 0.00000E+00 0.00000E+00
 -1      7209 0.00000E+00 0.00000E+00 0.00000E+00
 -1      7210 0.00000E+00 0.00000E+00 0.00000E+00
 -1      7211 0.00000E+00 0.00000E+00 0.00000E+00
 -1      7212 0.00000E+00 0.00000E+00 0.00000E+00
 -1      7213 0.00000E+00 0.00000E+00 0.00000E+00
 -1      7214 0.00000E+00 0.00000E+00 0.00000E+00
 -1      7215 0.00000E+00 0.00000E+00 0.00000E+00
 -1      7216 0.00000E+00 0.00000E+00 0.00000E+00
 -1      7217 0.00000E+00 0.00000E+00 0.00000E+00
 -1      7218 0.00000E+00 0.00000E+00 0.00000E+00
 -1      7219 0.00000E+00 0.00000E+00 0.00000E+00
 -1      7220 0.00000E+00 0.00000E+00 0.00000E+00
 -1      7221 0.00000E+00 0.00000E+00 0.00000E+00
 -1      7222 0.00000E+00 0.00000E+00 0.00000E+00
 -1      7223 0.00000E+00 0.00000E+00 0.00000E+00
 -1      7224 0.00000E+00 0.00000E+00 0.00000E+00
 -1      7225 0.00000E+00 0.00000E+00 0.00000E+00
 -1      7226 0.00000E+00 0.00000E+00 0.00000E+00
 -1      7227 0.00000E+00 0.00000E+00 0.00000E+00
 -1      7228 0.00000E+00 0.00000E+00 0.00000E+00
 -1      7229 0.00000E+00 0.00000E+00 0.00000E+00
 -1      7230 0.00000E+00 0.00000E+00 0.00000E+00
 -1      7231 0.00000E+00 0.00000E+00 0.00000E+00
 -1      7232 0.00000E+00 0.00000E+00 0.00000E+00
 -1      7233 0.00000E+00 0.00000E+00 0.00000E+00
 -1      7234 0.00000E+00 0.00000E+00 0.00000E+00
 -1      7235 0.00000E+00 0.00000E+00 0.00000E+00
 -1      7236 0.00000E+00 0.00000E+00 0.00000E+00
 -1      7237 0.00000E+00 0.00000E+00 0.00000E+00
 -1      7238 0.00000E+00 0.00000E+00 0.00000E+00
 -1      7239 0.00000E+00 0.00000E+00 0.00000E+00
 -1      7240 0.00000E+00 0.00000E+00 0.00000E+00
 -1      7241 0.00000E+00 0.00000E+00 0.00000E+00
 -1      7242 0.00000E+00 0.00000E+00 0.00000E+00
 -1      7243 0.00000E+00 0.00000E+00 0.00000E+00
 -1      7244 0.00000E+00 0.00000E+00 0.00000E+00
 -1      7245 0.00000E+00 0.00000E+00 0.00000E+00
 -1      7246 0.00000E+00 0.00000E+00 0.00000E+00
 -1      7247 0.00000E+00 0.00000E+00 0.00000E+00
 -1      7248 0.00000E+00 0.00000E+00 0.00000E+00
 -1      7249 0.00000E+00 0.00000E+00 0.00000E+00
 -1      7250 0.00000E+00 0.00000E+00 0.00000E+00
 -1      7251 0.00000E+00 0.00000E+00 0.00000E+00
 -1      7252 0.00000E+00 0.00000E+00 0.00000E+00
 -1      7253 0.00000E+00 0.00000E+00 0.00000E+00
 -1      7254 0.00000E+00 0.00000E+00 0.00000E+00
 -1      7255 0.00000E+00 0.00000E+00 0.00000E+00
 -1      7256 0.00000E+00 0.00000E+00 0.00000E+00
 -1      7257 0.00000E+00 0.00000E+00 0.00000E+00
 -1      7258 0.00000E+00 0.00000E+00 0.00000E+00
 -1      7259 0.00000E+00 0.00000E+00 0.00000E+00
 -1      7260 0.00000E+00 0.00000E+00 0.00000E+00
 -1      7261 0.00000E+00 0.00000E+00 0.00000E+00
 -1      7262 0.00000E+00 0.00000E+00 0.00000E+00
 -1      7263 0.00000E+00 0.00000E+00 0.00000E+00
 -1      7264 0.00000E+00 0.00000E+00 0.00000E+00
 -1      7265 0.00000E+00 0.00000E+00 0.00000E+00
 -1      7266 0.00000E+00 0.00000E+00 0.00000E+00
 -1      7267 0.00000E+00 0.00000E+00 0.00000E+00
 -1      7268 0.00000E+00 0.00000E+00 0.00000E+00
 -1      7269 0.00000E+00 0.00000E+00 0.00000E+00
 -1      7270 0.00000E+00 0.00000E+00 0.00000E+00
 -1      7271 0.00000E+00 0.00000E+00 0.00000E+00
 -1      7272 0.00000E+00 0.00000E+00 0.00000E+00
 -1      7273 0.00000E+00 0.00000E+00 0.00000E+00
 -1      7274 0.00000E+00 0.00000E+00 0.00000E+00
 -1      7275 0.00000E+00 0.00000E+00 0.00000E+00
 -1      7276 0.00000E+00 0.00000E+00 0.00000E+00
 -1      7277 0.00000E+00 0.00000E+00 0.00000E+00
 -1      7278 0.00000E+00 0.00000E+00 0.00000E+00
 -1      7279 0.00000E+00 0.00000E+00 0.00000E+00
 -1      7280 0.00000E+00 0.00000E+00 0.00000E+00
 -1      7281 0.00000E+00 0.00000E+00 0.00000E+00
 -1      7282 0.00000E+00 0.00000E+00 0.00000E+00
 -1      7283 0.00000E+00 0.00000E+00 0.00000E+00
 -1      7284 0.00000E+00 0.00000E+00 0.00000E+00
 -1      7285 0.00000E+00 0.00000E+00 0.00000E+00
 -1      7286 0.00000E+00 0.00000E+00 0.00000E+00
 -1      7287 0.00000E+00 0.00000E+00 0.00000E+00
 -1      7288 0.00000E+00 0.00000E+00 0.00000E+00
 -1      7289 0.00000E+00 0.00000E+00 0.00000E+00
 -1      7290 0.00000E+00 0.00000E+00 0.00000E+00
 -1      7291 0.00000E+00 0.00000E+00 0.00000E+00
 -1      7292 0.00000E+00 0.00000E+00 0.00000E+00
 -1      7293 0.00000E+00 0.00000E+00 0.00000E+00
 -1      7294 0.00000E+00 0.00000E+00 0.00000E+00
 -1      7295 0.00000E+00 0.00000E+00 0.00000E+00
 -1      7296 0.00000E+00 0.00000E+00 0.00000E+00
 -1      7297 0.00000E+00 0.00000E+00 0.00000E+00
 -1      7298 0.00000E+00 0.00000E+00 0.00000E+00
 -1      7299 0.00000E+00 0.00000E+00 0.00000E+00
 -1      7300 0.00000E+00 0.00000E+00 0.00000E+00
 -1      7301 0.00000E+00 0.00000E+00 0.00000E+00
 -1      7302 0.00000E+00 0.00000E+00 0.00000E+00
 -1      7303 0.00000E+00 0.00000E+00 0.00000E+00
 -1      7304 0.00000E+00 0.00000E+00 0.00000E+00
 -1      7305 0.00000E+00 0.00000E+00 0.00000E+00
 -1      7306 0.00000E+00 0.00000E+00 0.00000E+00
 -1      7307 0.00000E+00 0.00000E+00 0.00000E+00
 -1      7308 0.00000E+00 0.00000E+00 0.00000E+00
 -1      7309 0.00000E+00 0.00000E+00 0.00000E+00
 -1      7310 0.00000E+00 0.00000E+00 0.00000E+00
 -1      7311 0.00000E+00 0.00000E+00 0.00000E+00
 -1      7312 0.00000E+00 0.00000E+00 0.00000E+00
 -1      7313 0.00000E+00 0.00000E+00 0.00000E+00
 -1      7314 0.00000E+00 0.00000E+00 0.00000E+00
 -1      7315 0.00000E+00 0.00000E+00 0.00000E+00
 -1      7316 0.00000E+00 0.00000E+00 0.00000E+00
 -1      7317 0.00000E+00 0.00000E+00 0.00000E+00
 -1      7318 0.00000E+00 0.00000E+00 0.00000E+00
 -1      7319 0.00000E+00 0.00000E+00 0.00000E+00
 -1      7320 0.00000E+00 0.00000E+00 0.00000E+00
 -1      7321 0.00000E+00 0.00000E+00 0.00000E+00
 -1      7322 0.00000E+00 0.00000E+00 0.00000E+00
 -1      7323 0.00000E+00 0.00000E+00 0.00000E+00
 -1      7324 0.00000E+00 0.00000E+00 0.00000E+00
 -1      7325 0.00000E+00 0.00000E+00 0.00000E+00
 -1      7326 0.00000E+00 0.00000E+00 0.00000E+00
 -1      7327 0.00000E+00 0.00000E+00 0.00000E+00
 -1      7328 0.00000E+00 0.00000E+00 0.00000E+00
 -1      7329 0.00000E+00 0.00000E+00 0.00000E+00
 -1      7330 0.00000E+00 0.00000E+00 0.00000E+00
 -1      7331 0.00000E+00 0.00000E+00 0.00000E+00
 -1      7332 0.00000E+00 0.00000E+00 0.00000E+00
 -1      7333 0.00000E+00 0.00000E+00 0.00000E+00
 -1      7334 0.00000E+00 0.00000E+00 0.00000E+00
 -1      7335 0.00000E+00 0.00000E+00 0.00000E+00
 -1      7336 0.00000E+00 0.00000E+00 0.00000E+00
 -1      7337 0.00000E+00 0.00000E+00 0.00000E+00
 -1      7338 0.00000E+00 0.00000E+00 0.00000E+00
 -1      7339 0.00000E+00 0.00000E+00 0.00000E+00
 -1      7340 0.00000E+00 0.00000E+00 0.00000E+00
 -1      7341 0.00000E+00 0.00000E+00 0.00000E+00
 -1      7342 0.00000E+00 0.00000E+00 0.00000E+00
 -1      7343 0.00000E+00 0.00000E+00 0.00000E+00
 -1      7344 0.00000E+00 0.00000E+00 0.00000E+00
 -1      7345 0.00000E+00 0.00000E+00 0.00000E+00
 -1      7346 0.00000E+00 0.00000E+00 0.00000E+00
 -1      7347 0.00000E+00 0.00000E+00 0.00000E+00
 -1      7348 0.00000E+00 0.00000E+00 0.00000E+00
 -1      7349 0.00000E+00 0.00000E+00 0.00000E+00
 -1      7350 0.00000E+00 0.00000E+00 0.00000E+00
 -1      7351 0.00000E+00 0.00000E+00 0.00000E+00
 -1      7352 0.00000E+00 0.00000E+00 0.00000E+00
 -1      7353 0.00000E+00 0.00000E+00 0.00000E+00
 -1      7354 0.00000E+00 0.00000E+00 0.00000E+00
 -1      7355 0.00000E+00 0.00000E+00 0.00000E+00
 -1      7356 0.00000E+00 0.00000E+00 0.00000E+00
 -1      7357 0.00000E+00 0.00000E+00 0.00000E+00
 -1      7358 0.00000E+00 0.00000E+00 0.00000E+00
 -1      7359 0.00000E+00 0.00000E+00 0.00000E+00
 -1      7360 0.00000E+00 0.00000E+00 0.00000E+00
 -1      7361 0.00000E+00 0.00000E+00 0.00000E+00
 -1      7362 0.00000E+00 0.00000E+00 0.00000E+00
 -1      7363 0.00000E+00 0.00000E+00 0.00000E+00
 -1      7364 0.00000E+00 0.00000E+00 0.00000E+00
 -1      7365 0.00000E+00 0.00000E+00 0.00000E+00
 -1      7366 0.00000E+00 0.00000E+00 0.00000E+00
 -1      7367 0.00000E+00 0.00000E+00 0.00000E+00
 -1      7368 0.00000E+00 0.00000E+00 0.00000E+00
 -1      7369 0.00000E+00 0.00000E+00 0.00000E+00
 -1      7370 0.00000E+00 0.00000E+00 0.00000E+00
 -1      7371 0.00000E+00 0.00000E+00 0.00000E+00
 -1      7372 0.00000E+00 0.00000E+00 0.00000E+00
 -1      7373 0.00000E+00 0.00000E+00 0.00000E+00
 -1      7374 0.00000E+00 0.00000E+00 0.00000E+00
 -1      7375 0.00000E+00 0.00000E+00 0.00000E+00
 -1      7376 0.00000E+00 0.00000E+00 0.00000E+00
 -1      7377 0.00000E+00 0.00000E+00 0.00000E+00
 -1      7378 0.00000E+00 0.00000E+00 0.00000E+00
 -1      7379 0.00000E+00 0.00000E+00 0.00000E+00
 -1      7380 0.00000E+00 0.00000E+00 0.00000E+00
 -1      7381 0.00000E+00 0.00000E+00 0.00000E+00
 -1      7382 0.00000E+00 0.00000E+00 0.00000E+00
 -1      7383 0.00000E+00 0.00000E+00 0.00000E+00
 -1      7384 0.00000E+00 0.00000E+00 0.00000E+00
 -1      7385 0.00000E+00 0.00000E+00 0.00000E+00
 -1      7386 0.00000E+00 0.00000E+00 0.00000E+00
 -1      7387 0.00000E+00 0.00000E+00 0.00000E+00
 -1      7388 0.00000E+00 0.00000E+00 0.00000E+00
 -1      7389 0.00000E+00 0.00000E+00 0.00000E+00
 -1      7390 0.00000E+00 0.00000E+00 0.00000E+00
 -1      7391 0.00000E+00 0.00000E+00 0.00000E+00
 -1      7392 0.00000E+00 0.00000E+00 0.00000E+00
 -1      7393 0.00000E+00 0.00000E+00 0.00000E+00
 -1      7394 0.00000E+00 0.00000E+00 0.00000E+00
 -1      7395 0.00000E+00 0.00000E+00 0.00000E+00
 -1      7396 0.00000E+00 0.00000E+00 0.00000E+00
 -1      7397 0.00000E+00 0.00000E+00 0.00000E+00
 -1      7398 0.00000E+00 0.00000E+00 0.00000E+00
 -1      7399 0.00000E+00 0.00000E+00 0.00000E+00
 -1      7400 0.00000E+00 0.00000E+00 0.00000E+00
 -1      7401 0.00000E+00 0.00000E+00 0.00000E+00
 -1      7402 0.00000E+00 0.00000E+00 0.00000E+00
 -1      7403 0.00000E+00 0.00000E+00 0.00000E+00
 -1      7404 0.00000E+00 0.00000E+00 0.00000E+00
 -1      7405 0.00000E+00 0.00000E+00 0.00000E+00
 -1      7406 0.00000E+00 0.00000E+00 0.00000E+00
 -1      7407 0.00000E+00 0.00000E+00 0.00000E+00
 -1      7408 0.00000E+00 0.00000E+00 0.00000E+00
 -1      7409 0.00000E+00 0.00000E+00 0.00000E+00
 -1      7410 0.00000E+00 0.00000E+00 0.00000E+00
 -1      7411 0.00000E+00 0.00000E+00 0.00000E+00
 -1      7412 0.00000E+00 0.00000E+00 0.00000E+00
 -1      7413 0.00000E+00 0.00000E+00 0.00000E+00
 -1      7414 0.00000E+00 0.00000E+00 0.00000E+00
 -1      7415 0.00000E+00 0.00000E+00 0.00000E+00
 -1      7416 0.00000E+00 0.00000E+00 0.00000E+00
 -1      7417 0.00000E+00 0.00000E+00 0.00000E+00
 -1      7418 0.00000E+00 0.00000E+00 0.00000E+00
 -1      7419 0.00000E+00 0.00000E+00 0.00000E+00
 -1      7420 0.00000E+00 0.00000E+00 0.00000E+00
 -1      7421 0.00000E+00 0.00000E+00 0.00000E+00
 -1      7422 0.00000E+00 0.00000E+00 0.00000E+00
 -1      7423 0.00000E+00 0.00000E+00 0.00000E+00
 -1      7424 0.00000E+00 0.00000E+00 0.00000E+00
 -1      7425 0.00000E+00 0.00000E+00 0.00000E+00
 -1      7426 0.00000E+00 0.00000E+00 0.00000E+00
 -1      7427 0.00000E+00 0.00000E+00 0.00000E+00
 -1      7428 0.00000E+00 0.00000E+00 0.00000E+00
 -1      7429 0.00000E+00 0.00000E+00 0.00000E+00
 -1      7430 0.00000E+00 0.00000E+00 0.00000E+00
 -1      7431 0.00000E+00 0.00000E+00 0.00000E+00
 -1      7432 0.00000E+00 0.00000E+00 0.00000E+00
 -1      7433 0.00000E+00 0.00000E+00 0.00000E+00
 -1      7434 0.00000E+00 0.00000E+00 0.00000E+00
 -1      7435 0.00000E+00 0.00000E+00 0.00000E+00
 -1      7436 0.00000E+00 0.00000E+00 0.00000E+00
 -1      7437 0.00000E+00 0.00000E+00 0.00000E+00
 -1      7438 0.00000E+00 0.00000E+00 0.00000E+00
 -1      7439 0.00000E+00 0.00000E+00 0.00000E+00
 -1      7440 0.00000E+00 0.00000E+00 0.00000E+00
 -1      7441 0.00000E+00 0.00000E+00 0.00000E+00
 -1      7442 0.00000E+00 0.00000E+00 0.00000E+00
 -1      7443 0.00000E+00 0.00000E+00 0.00000E+00
 -1      7444 0.00000E+00 0.00000E+00 0.00000E+00
 -1      7445 0.00000E+00 0.00000E+00 0.00000E+00
 -1      7446 0.00000E+00 0.00000E+00 0.00000E+00
 -1      7447 0.00000E+00 0.00000E+00 0.00000E+00
 -1      7448 0.00000E+00 0.00000E+00 0.00000E+00
 -1      7449 0.00000E+00 0.00000E+00 0.00000E+00
 -1      7450 0.00000E+00 0.00000E+00 0.00000E+00
 -1      7451 0.00000E+00 0.00000E+00 0.00000E+00
 -1      7452 0.00000E+00 0.00000E+00 0.00000E+00
 -1      7453 0.00000E+00 0.00000E+00 0.00000E+00
 -1      7454 0.00000E+00 0.00000E+00 0.00000E+00
 -1      7455 0.00000E+00 0.00000E+00 0.00000E+00
 -1      7456 0.00000E+00 0.00000E+00 0.00000E+00
 -1      7457 0.00000E+00 0.00000E+00 0.00000E+00
 -1      7458 0.00000E+00 0.00000E+00 0.00000E+00
 -1      7459 0.00000E+00 0.00000E+00 0.00000E+00
 -1      7460 0.00000E+00 0.00000E+00 0.00000E+00
 -1      7461 0.00000E+00 0.00000E+00 0.00000E+00
 -1      7462 0.00000E+00 0.00000E+00 0.00000E+00
 -1      7463 0.00000E+00 0.00000E+00 0.00000E+00
 -1      7464 0.00000E+00 0.00000E+00 0.00000E+00
 -1      7465 0.00000E+00 0.00000E+00 0.00000E+00
 -1      7466 0.00000E+00 0.00000E+00 0.00000E+00
 -1      7467 0.00000E+00 0.00000E+00 0.00000E+00
 -1      7468 0.00000E+00 0.00000E+00 0.00000E+00
 -1      7469 0.00000E+00 0.00000E+00 0.00000E+00
 -1      7470 0.00000E+00 0.00000E+00 0.00000E+00
 -1      7471 0.00000E+00 0.00000E+00 0.00000E+00
 -1      7472 0.00000E+00 0.00000E+00 0.00000E+00
 -1      7473 0.00000E+00 0.00000E+00 0.00000E+00
 -1      7474 0.00000E+00 0.00000E+00 0.00000E+00
 -1      7475 0.00000E+00 0.00000E+00 0.00000E+00
 -1      7476 0.00000E+00 0.00000E+00 0.00000E+00
 -1      7477 0.00000E+00 0.00000E+00 0.00000E+00
 -1      7478 0.00000E+00 0.00000E+00 0.00000E+00
 -1      7479 0.00000E+00 0.00000E+00 0.00000E+00
 -1      7480 0.00000E+00 0.00000E+00 0.00000E+00
 -1      7481 0.00000E+00 0.00000E+00 0.00000E+00
 -1      7482 0.00000E+00 0.00000E+00 0.00000E+00
 -1      7483 0.00000E+00 0.00000E+00 0.00000E+00
 -1      7484 0.00000E+00 0.00000E+00 0.00000E+00
 -1      7485 0.00000E+00 0.00000E+00 0.00000E+00
 -1      7486 0.00000E+00 0.00000E+00 0.00000E+00
 -1      7487 0.00000E+00 0.00000E+00 0.00000E+00
 -1      7488 0.00000E+00 0.00000E+00 0.00000E+00
 -1      7489 0.00000E+00 0.00000E+00 0.00000E+00
 -1      7490 0.00000E+00 0.00000E+00 0.00000E+00
 -1      7491 0.00000E+00 0.00000E+00 0.00000E+00
 -1      7492 0.00000E+00 0.00000E+00 0.00000E+00
 -1      7493 0.00000E+00 0.00000E+00 0.00000E+00
 -1      7494 0.00000E+00 0.00000E+00 0.00000E+00
 -1      7495 0.00000E+00 0.00000E+00 0.00000E+00
 -1      7496 0.00000E+00 0.00000E+00 0.00000E+00
 -1      7497 0.00000E+00 0.00000E+00 0.00000E+00
 -1      7498 0.00000E+00 0.00000E+00 0.00000E+00
 -1      7499 0.00000E+00 0.00000E+00 0.00000E+00
 -1      7500 0.00000E+00 0.00000E+00 0.00000E+00
 -1      7501 0.00000E+00 0.00000E+00 0.00000E+00
 -1      7502 0.00000E+00 0.00000E+00 0.00000E+00
 -1      7503 0.00000E+00 0.00000E+00 0.00000E+00
 -1      7504 0.00000E+00 0.00000E+00 0.00000E+00
 -1      7505 0.00000E+00 0.00000E+00 0.00000E+00
 -1      7506 0.00000E+00 0.00000E+00 0.00000E+00
 -1      7507 0.00000E+00 0.00000E+00 0.00000E+00
 -1      7508 0.00000E+00 0.00000E+00 0.00000E+00
 -1      7509 0.00000E+00 0.00000E+00 0.00000E+00
 -1      7510 0.00000E+00 0.00000E+00 0.00000E+00
 -1      7511 0.00000E+00 0.00000E+00 0.00000E+00
 -1      7512 0.00000E+00 0.00000E+00 0.00000E+00
 -1      7513 0.00000E+00 0.00000E+00 0.00000E+00
 -1      7514 0.00000E+00 0.00000E+00 0.00000E+00
 -1      7515 0.00000E+00 0.00000E+00 0.00000E+00
 -1      7516 0.00000E+00 0.00000E+00 0.00000E+00
 -1      7517 0.00000E+00 0.00000E+00 0.00000E+00
 -1      7518 0.00000E+00 0.00000E+00 0.00000E+00
 -1      7519 0.00000E+00 0.00000E+00 0.00000E+00
 -1      7520 0.00000E+00 0.00000E+00 0.00000E+00
 -1      7521 0.00000E+00 0.00000E+00 0.00000E+00
 -1      7522 0.00000E+00 0.00000E+00 0.00000E+00
 -1      7523 0.00000E+00 0.00000E+00 0.00000E+00
 -1      7524 0.00000E+00 0.00000E+00 0.00000E+00
 -1      7525 0.00000E+00 0.00000E+00 0.00000E+00
 -1      7526 0.00000E+00 0.00000E+00 0.00000E+00
 -1      7527 0.00000E+00 0.00000E+00 0.00000E+00
 -1      7528 0.00000E+00 0.00000E+00 0.00000E+00
 -1      7529 0.00000E+00 0.00000E+00 0.00000E+00
 -1      7530 0.00000E+00 0.00000E+00 0.00000E+00
 -1      7531 0.00000E+00 0.00000E+00 0.00000E+00
 -1      7532 0.00000E+00 0.00000E+00 0.00000E+00
 -3
    1PSTEP                         2           1           1          
  100CL  101 1.000000000        7532                     0    1           1
 -4  NDTEMP      1    1
 -5  T           1    1    0    0
 -1         1 2.00000E+01
 -1         2 2.00000E+01
 -1         3 2.00000E+01
 -1         4 2.00000E+01
 -1         5 2.00000E+01
 -1         6 2.00000E+01
 -1         7 2.00000E+01
 -1         8 2.00000E+01
 -1         9 2.00000E+01
 -1        10 2.00000E+01
 -1        11 2.00000E+01
 -1        12 2.00000E+01
 -1        13 2.00000E+01
 -1        14 2.00000E+01
 -1        15 2.00000E+01
 -1        16 2.00000E+01
 -1        17 2.00000E+01
 -1        18 2.00000E+01
 -1        19 2.00000E+01
 -1        20 2.00000E+01
 -1        21 2.00000E+01
 -1        22 2.00000E+01
 -1        23 2.00000E+01
 -1        24 2.00000E+01
 -1        25 2.00000E+01
 -1        26 2.00000E+01
 -1        27 2.00000E+01
 -1        28 2.00000E+01
 -1        29 2.00000E+01
 -1        30 2.00000E+01
 -1        31 2.00000E+01
 -1        32 2.00000E+01
 -1        33 2.00000E+01
 -1        34 2.00000E+01
 -1        35 2.00000E+01
 -1        36 2.00000E+01
 -1        37 2.00000E+01
 -1        38 2.00000E+01
 -1        39 2.00000E+01
 -1        40 2.00000E+01
 -1        41 2.00000E+01
 -1        42 2.00000E+01
 -1        43 2.00000E+01
 -1        44 2.00000E+01
 -1        45 2.00000E+01
 -1        46 2.00000E+01
 -1        47 2.00000E+01
 -1        48 2.00000E+01
 -1        49 2.00000E+01
 -1        50 2.00000E+01
 -1        51 2.00000E+01
 -1        52 2.00000E+01
 -1        53 2.00000E+01
 -1        54 2.00000E+01
 -1        55 2.00000E+01
 -1        56 2.00000E+01
 -1        57 2.00000E+01
 -1        58 2.00000E+01
 -1        59 2.00000E+01
 -1        60 2.00000E+01
 -1        61 2.00000E+01
 -1        62 2.00000E+01
 -1        63 2.00000E+01
 -1        64 2.00000E+01
 -1        65 2.00000E+01
 -1        66 2.00000E+01
 -1        67 2.00000E+01
 -1        68 2.00000E+01
 -1        69 2.00000E+01
 -1        70 2.00000E+01
 -1        71 2.00000E+01
 -1        72 2.00000E+01
 -1        73 2.00000E+01
 -1        74 2.00000E+01
 -1        75 2.00000E+01
 -1        76 2.00000E+01
 -1        77 2.00000E+01
 -1        78 2.00000E+01
 -1        79 2.00000E+01
 -1        80 2.00000E+01
 -1        81 2.00000E+01
 -1        82 2.00000E+01
 -1        83 2.00000E+01
 -1        84 2.00000E+01
 -1        85 2.00000E+01
 -1        86 2.00000E+01
 -1        87 2.00000E+01
 -1        88 2.00000E+01
 -1        89 2.00000E+01
 -1        90 2.00000E+01
 -1        91 2.00000E+01
 -1        92 2.00000E+01
 -1        93 2.00000E+01
 -1        94 2.00000E+01
 -1        95 2.00000E+01
 -1        96 2.00000E+01
 -1        97 2.00000E+01
 -1        98 2.00000E+01
 -1        99 2.00000E+01
 -1       100 2.00000E+01
 -1       101 2.00000E+01
 -1       102 2.00000E+01
 -1       103 2.00000E+01
 -1       104 2.00000E+01
 -1       105 2.00000E+01
 -1       106 2.00000E+01
 -1       107 2.00000E+01
 -1       108 2.00000E+01
 -1       109 2.00000E+01
 -1       110 2.00000E+01
 -1       111 2.00000E+01
 -1       112 2.00000E+01
 -1       113 2.00000E+01
 -1       114 2.00000E+01
 -1       115 2.00000E+01
 -1       116 2.00000E+01
 -1       117 2.00000E+01
 -1       118 2.00000E+01
 -1       119 2.00000E+01
 -1       120 2.00000E+01
 -1       121 2.00000E+01
 -1       122 2.00000E+01
 -1       123 2.00000E+01
 -1       124 2.00000E+01
 -1       125 2.00000E+01
 -1       126 2.00000E+01
 -1       127 2.00000E+01
 -1       128 2.00000E+01
 -1       129 2.00000E+01
 -1       130 2.00000E+01
 -1       131 2.00000E+01
 -1       132 2.00000E+01
 -1       133 2.00000E+01
 -1       134 2.00000E+01
 -1       135 2.00000E+01
 -1       136 2.00000E+01
 -1       137 2.00000E+01
 -1       138 2.00000E+01
 -1       139 2.00000E+01
 -1       140 2.00000E+01
 -1       141 2.00000E+01
 -1       142 2.00000E+01
 -1       143 2.00000E+01
 -1       144 2.00000E+01
 -1       145 2.00000E+01
 -1       146 2.00000E+01
 -1       147 2.00000E+01
 -1       148 2.00000E+01
 -1       149 2.00000E+01
 -1       150 2.00000E+01
 -1       151 2.00000E+01
 -1       152 2.00000E+01
 -1       153 2.00000E+01
 -1       154 2.00000E+01
 -1       155 2.00000E+01
 -1       156 2.00000E+01
 -1       157 2.00000E+01
 -1       158 2.00000E+01
 -1       159 2.00000E+01
 -1       160 2.00000E+01
 -1       161 2.00000E+01
 -1       162 2.00000E+01
 -1       163 2.00000E+01
 -1       164 2.00000E+01
 -1       165 2.00000E+01
 -1       166 2.00000E+01
 -1       167 2.00000E+01
 -1       168 2.00000E+01
 -1       169 2.00000E+01
 -1       170 2.00000E+01
 -1       171 2.00000E+01
 -1       172 2.00000E+01
 -1       173 2.00000E+01
 -1       174 2.00000E+01
 -1       175 2.00000E+01
 -1       176 2.00000E+01
 -1       177 2.00000E+01
 -1       178 2.00000E+01
 -1       179 2.00000E+01
 -1       180 2.00000E+01
 -1       181 2.00000E+01
 -1       182 2.00000E+01
 -1       183 2.00000E+01
 -1       184 2.00000E+01
 -1       185 2.00000E+01
 -1       186 2.00000E+01
 -1       187 2.00000E+01
 -1       188 2.00000E+01
 -1       189 2.00000E+01
 -1       190 2.00000E+01
 -1       191 2.00000E+01
 -1       192 2.00000E+01
 -1       193 2.00000E+01
 -1       194 2.00000E+01
 -1       195 2.00000E+01
 -1       196 2.00000E+01
 -1       197 2.00000E+01
 -1       198 2.00000E+01
 -1       199 2.00000E+01
 -1       200 2.00000E+01
 -1       201 2.00000E+01
 -1       202 2.00000E+01
 -1       203 2.00000E+01
 -1       204 2.00000E+01
 -1       205 2.00000E+01
 -1       206 2.00000E+01
 -1       207 2.00000E+01
 -1       208 2.00000E+01
 -1       209 2.00000E+01
 -1       210 2.00000E+01
 -1       211 2.00000E+01
 -1       212 2.00000E+01
 -1       213 2.00000E+01
 -1       214 2.00000E+01
 -1       215 2.00000E+01
 -1       216 2.00000E+01
 -1       217 2.00000E+01
 -1       218 2.00000E+01
 -1       219 2.00000E+01
 -1       220 2.00000E+01
 -1       221 2.00000E+01
 -1       222 2.00000E+01
 -1       223 2.00000E+01
 -1       224 2.00000E+01
 -1       225 2.00000E+01
 -1       226 2.00000E+01
 -1       227 2.00000E+01
 -1       228 2.00000E+01
 -1       229 2.00000E+01
 -1       230 2.00000E+01
 -1       231 2.00000E+01
 -1       232 2.00000E+01
 -1       233 2.00000E+01
 -1       234 2.00000E+01
 -1       235 2.00000E+01
 -1       236 2.00000E+01
 -1       237 2.00000E+01
 -1       238 2.00000E+01
 -1       239 2.00000E+01
 -1       240 2.00000E+01
 -1       241 2.00000E+01
 -1       242 2.00000E+01
 -1       243 2.00000E+01
 -1       244 2.00000E+01
 -1       245 2.00000E+01
 -1       246 2.00000E+01
 -1       247 2.00000E+01
 -1       248 2.00000E+01
 -1       249 2.00000E+01
 -1       250 2.00000E+01
 -1       251 2.00000E+01
 -1       252 2.00000E+01
 -1       253 2.00000E+01
 -1       254 2.00000E+01
 -1       255 2.00000E+01
 -1       256 2.00000E+01
 -1       257 2.00000E+01
 -1       258 2.00000E+01
 -1       259 2.00000E+01
 -1       260 2.00000E+01
 -1       261 2.00000E+01
 -1       262 2.00000E+01
 -1       263 2.00000E+01
 -1       264 2.00000E+01
 -1       265 2.00000E+01
 -1       266 2.00000E+01
 -1       267 2.00000E+01
 -1       268 2.00000E+01
 -1       269 2.00000E+01
 -1       270 2.00000E+01
 -1       271 2.00000E+01
 -1       272 2.00000E+01
 -1       273 2.00000E+01
 -1       274 2.00000E+01
 -1       275 2.00000E+01
 -1       276 2.00000E+01
 -1       277 2.00000E+01
 -1       278 2.00000E+01
 -1       279 2.00000E+01
 -1       280 2.00000E+01
 -1       281 2.00000E+01
 -1       282 2.00000E+01
 -1       283 2.00000E+01
 -1       284 2.00000E+01
 -1       285 2.00000E+01
 -1       286 2.00000E+01
 -1       287 2.00000E+01
 -1       288 2.00000E+01
 -1       289 2.00000E+01
 -1       290 2.00000E+01
 -1       291 2.00000E+01
 -1       292 2.00000E+01
 -1       293 2.00000E+01
 -1       294 2.00000E+01
 -1       295 2.00000E+01
 -1       296 2.00000E+01
 -1       297 2.00000E+01
 -1       298 2.00000E+01
 -1       299 2.00000E+01
 -1       300 2.00000E+01
 -1       301 2.00000E+01
 -1       302 2.00000E+01
 -1       303 2.00000E+01
 -1       304 2.00000E+01
 -1       305 2.00000E+01
 -1       306 2.00000E+01
 -1       307 2.00000E+01
 -1       308 2.00000E+01
 -1       309 2.00000E+01
 -1       310 2.00000E+01
 -1       311 2.00000E+01
 -1       312 2.00000E+01
 -1       313 2.00000E+01
 -1       314 2.00000E+01
 -1       315 2.00000E+01
 -1       316 2.00000E+01
 -1       317 2.00000E+01
 -1       318 2.00000E+01
 -1       319 2.00000E+01
 -1       320 2.00000E+01
 -1       321 2.00000E+01
 -1       322 2.00000E+01
 -1       323 2.00000E+01
 -1       324 2.00000E+01
 -1       325 2.00000E+01
 -1       326 2.00000E+01
 -1       327 2.00000E+01
 -1       328 2.00000E+01
 -1       329 2.00000E+01
 -1       330 2.00000E+01
 -1       331 2.00000E+01
 -1       332 2.00000E+01
 -1       333 2.00000E+01
 -1       334 2.00000E+01
 -1       335 2.00000E+01
 -1       336 2.00000E+01
 -1       337 2.00000E+01
 -1       338 2.00000E+01
 -1       339 2.00000E+01
 -1       340 2.00000E+01
 -1       341 2.00000E+01
 -1       342 2.00000E+01
 -1       343 2.00000E+01
 -1       344 2.00000E+01
 -1       345 2.00000E+01
 -1       346 2.00000E+01
 -1       347 2.00000E+01
 -1       348 2.00000E+01
 -1       349 2.00000E+01
 -1       350 2.00000E+01
 -1       351 2.00000E+01
 -1       352 2.00000E+01
 -1       353 2.00000E+01
 -1       354 2.00000E+01
 -1       355 2.00000E+01
 -1       356 2.00000E+01
 -1       357 2.00000E+01
 -1       358 2.00000E+01
 -1       359 2.00000E+01
 -1       360 2.00000E+01
 -1       361 2.00000E+01
 -1       362 2.00000E+01
 -1       363 2.00000E+01
 -1       364 2.00000E+01
 -1       365 2.00000E+01
 -1       366 2.00000E+01
 -1       367 2.00000E+01
 -1       368 2.00000E+01
 -1       369 2.00000E+01
 -1       370 2.00000E+01
 -1       371 2.00000E+01
 -1       372 2.00000E+01
 -1       373 2.00000E+01
 -1       374 2.00000E+01
 -1       375 2.00000E+01
 -1       376 2.00000E+01
 -1       377 2.00000E+01
 -1       378 2.00000E+01
 -1       379 2.00000E+01
 -1       380 2.00000E+01
 -1       381 2.00000E+01
 -1       382 2.00000E+01
 -1       383 2.00000E+01
 -1       384 2.00000E+01
 -1       385 2.00000E+01
 -1       386 2.00000E+01
 -1       387 2.00000E+01
 -1       388 2.00000E+01
 -1       389 2.00000E+01
 -1       390 2.00000E+01
 -1       391 2.00000E+01
 -1       392 2.00000E+01
 -1       393 2.00000E+01
 -1       394 2.00000E+01
 -1       395 2.00000E+01
 -1       396 2.00000E+01
 -1       397 2.00000E+01
 -1       398 2.00000E+01
 -1       399 2.00000E+01
 -1       400 2.00000E+01
 -1       401 2.00000E+01
 -1       402 2.00000E+01
 -1       403 2.00000E+01
 -1       404 2.00000E+01
 -1       405 2.00000E+01
 -1       406 2.00000E+01
 -1       407 2.00000E+01
 -1       408 2.00000E+01
 -1       409 2.00000E+01
 -1       410 2.00000E+01
 -1       411 2.00000E+01
 -1       412 2.00000E+01
 -1       413 2.00000E+01
 -1       414 2.00000E+01
 -1       415 2.00000E+01
 -1       416 2.00000E+01
 -1       417 2.00000E+01
 -1       418 2.00000E+01
 -1       419 2.00000E+01
 -1       420 2.00000E+01
 -1       421 2.00000E+01
 -1       422 2.00000E+01
 -1       423 2.00000E+01
 -1       424 2.00000E+01
 -1       425 2.00000E+01
 -1       426 2.00000E+01
 -1       427 2.00000E+01
 -1       428 2.00000E+01
 -1       429 2.00000E+01
 -1       430 2.00000E+01
 -1       431 2.00000E+01
 -1       432 2.00000E+01
 -1       433 2.00000E+01
 -1       434 2.00000E+01
 -1       435 2.00000E+01
 -1       436 2.00000E+01
 -1       437 2.00000E+01
 -1       438 2.00000E+01
 -1       439 2.00000E+01
 -1       440 2.00000E+01
 -1       441 2.00000E+01
 -1       442 2.00000E+01
 -1       443 2.00000E+01
 -1       444 2.00000E+01
 -1       445 2.00000E+01
 -1       446 2.00000E+01
 -1       447 2.00000E+01
 -1       448 2.00000E+01
 -1       449 2.00000E+01
 -1       450 2.00000E+01
 -1       451 2.00000E+01
 -1       452 2.00000E+01
 -1       453 2.00000E+01
 -1       454 2.00000E+01
 -1       455 2.00000E+01
 -1       456 2.00000E+01
 -1       457 2.00000E+01
 -1       458 2.00000E+01
 -1       459 2.00000E+01
 -1       460 2.00000E+01
 -1       461 2.00000E+01
 -1       462 2.00000E+01
 -1       463 2.00000E+01
 -1       464 2.00000E+01
 -1       465 2.00000E+01
 -1       466 2.00000E+01
 -1       467 2.00000E+01
 -1       468 2.00000E+01
 -1       469 2.00000E+01
 -1       470 2.00000E+01
 -1       471 2.00000E+01
 -1       472 2.00000E+01
 -1       473 2.00000E+01
 -1       474 2.00000E+01
 -1       475 2.00000E+01
 -1       476 2.00000E+01
 -1       477 2.00000E+01
 -1       478 2.00000E+01
 -1       479 2.00000E+01
 -1       480 2.00000E+01
 -1       481 2.00000E+01
 -1       482 2.00000E+01
 -1       483 2.00000E+01
 -1       484 2.00000E+01
 -1       485 2.00000E+01
 -1       486 2.00000E+01
 -1       487 2.00000E+01
 -1       488 2.00000E+01
 -1       489 2.00000E+01
 -1       490 2.00000E+01
 -1       491 2.00000E+01
 -1       492 2.00000E+01
 -1       493 2.00000E+01
 -1       494 2.00000E+01
 -1       495 2.00000E+01
 -1       496 2.00000E+01
 -1       497 2.00000E+01
 -1       498 2.00000E+01
 -1       499 2.00000E+01
 -1       500 2.00000E+01
 -1       501 2.00000E+01
 -1       502 2.00000E+01
 -1       503 2.00000E+01
 -1       504 2.00000E+01
 -1       505 2.00000E+01
 -1       506 2.00000E+01
 -1       507 2.00000E+01
 -1       508 2.00000E+01
 -1       509 2.00000E+01
 -1       510 2.00000E+01
 -1       511 2.00000E+01
 -1       512 2.00000E+01
 -1       513 2.00000E+01
 -1       514 2.00000E+01
 -1       515 2.00000E+01
 -1       516 2.00000E+01
 -1       517 2.00000E+01
 -1       518 2.00000E+01
 -1       519 2.00000E+01
 -1       520 2.00000E+01
 -1       521 2.00000E+01
 -1       522 2.00000E+01
 -1       523 2.00000E+01
 -1       524 2.00000E+01
 -1       525 2.00000E+01
 -1       526 2.00000E+01
 -1       527 2.00000E+01
 -1       528 2.00000E+01
 -1       529 2.00000E+01
 -1       530 2.00000E+01
 -1       531 2.00000E+01
 -1       532 2.00000E+01
 -1       533 2.00000E+01
 -1       534 2.00000E+01
 -1       535 2.00000E+01
 -1       536 2.00000E+01
 -1       537 2.00000E+01
 -1       538 2.00000E+01
 -1       539 2.00000E+01
 -1       540 2.00000E+01
 -1       541 2.00000E+01
 -1       542 2.00000E+01
 -1       543 2.00000E+01
 -1       544 2.00000E+01
 -1       545 2.00000E+01
 -1       546 2.00000E+01
 -1       547 2.00000E+01
 -1       548 2.00000E+01
 -1       549 2.00000E+01
 -1       550 2.00000E+01
 -1       551 2.00000E+01
 -1       552 2.00000E+01
 -1       553 2.00000E+01
 -1       554 2.00000E+01
 -1       555 2.00000E+01
 -1       556 2.00000E+01
 -1       557 2.00000E+01
 -1       558 2.00000E+01
 -1       559 2.00000E+01
 -1       560 2.00000E+01
 -1       561 2.00000E+01
 -1       562 2.00000E+01
 -1       563 2.00000E+01
 -1       564 2.00000E+01
 -1       565 2.00000E+01
 -1       566 2.00000E+01
 -1       567 2.00000E+01
 -1       568 2.00000E+01
 -1       569 2.00000E+01
 -1       570 2.00000E+01
 -1       571 2.00000E+01
 -1       572 2.00000E+01
 -1       573 2.00000E+01
 -1       574 2.00000E+01
 -1       575 2.00000E+01
 -1       576 2.00000E+01
 -1       577 2.00000E+01
 -1       578 2.00000E+01
 -1       579 2.00000E+01
 -1       580 2.00000E+01
 -1       581 2.00000E+01
 -1       582 2.00000E+01
 -1       583 2.00000E+01
 -1       584 2.00000E+01
 -1       585 2.00000E+01
 -1       586 2.00000E+01
 -1       587 2.00000E+01
 -1       588 2.00000E+01
 -1       589 2.00000E+01
 -1       590 2.00000E+01
 -1       591 2.00000E+01
 -1       592 2.00000E+01
 -1       593 2.00000E+01
 -1       594 2.00000E+01
 -1       595 2.00000E+01
 -1       596 2.00000E+01
 -1       597 2.00000E+01
 -1       598 2.00000E+01
 -1       599 2.00000E+01
 -1       600 2.00000E+01
 -1       601 2.00000E+01
 -1       602 2.00000E+01
 -1       603 2.00000E+01
 -1       604 2.00000E+01
 -1       605 2.00000E+01
 -1       606 2.00000E+01
 -1       607 2.00000E+01
 -1       608 2.00000E+01
 -1       609 2.00000E+01
 -1       610 2.00000E+01
 -1       611 2.00000E+01
 -1       612 2.00000E+01
 -1       613 2.00000E+01
 -1       614 2.00000E+01
 -1       615 2.00000E+01
 -1       616 2.00000E+01
 -1       617 2.00000E+01
 -1       618 2.00000E+01
 -1       619 2.00000E+01
 -1       620 2.00000E+01
 -1       621 2.00000E+01
 -1       622 2.00000E+01
 -1       623 2.00000E+01
 -1       624 2.00000E+01
 -1       625 2.00000E+01
 -1       626 2.00000E+01
 -1       627 2.00000E+01
 -1       628 2.00000E+01
 -1       629 2.00000E+01
 -1       630 2.00000E+01
 -1       631 2.00000E+01
 -1       632 2.00000E+01
 -1       633 2.00000E+01
 -1       634 2.00000E+01
 -1       635 2.00000E+01
 -1       636 2.00000E+01
 -1       637 2.00000E+01
 -1       638 2.00000E+01
 -1       639 2.00000E+01
 -1       640 2.00000E+01
 -1       641 2.00000E+01
 -1       642 2.00000E+01
 -1       643 2.00000E+01
 -1       644 2.00000E+01
 -1       645 2.00000E+01
 -1       646 2.00000E+01
 -1       647 2.00000E+01
 -1       648 2.00000E+01
 -1       649 2.00000E+01
 -1       650 2.00000E+01
 -1       651 2.00000E+01
 -1       652 2.00000E+01
 -1       653 2.00000E+01
 -1       654 2.00000E+01
 -1       655 2.00000E+01
 -1       656 2.00000E+01
 -1       657 2.00000E+01
 -1       658 2.00000E+01
 -1       659 2.00000E+01
 -1       660 2.00000E+01
 -1       661 2.00000E+01
 -1       662 2.00000E+01
 -1       663 2.00000E+01
 -1       664 2.00000E+01
 -1       665 2.00000E+01
 -1       666 2.00000E+01
 -1       667 2.00000E+01
 -1       668 2.00000E+01
 -1       669 2.00000E+01
 -1       670 2.00000E+01
 -1       671 2.00000E+01
 -1       672 2.00000E+01
 -1       673 2.00000E+01
 -1       674 2.00000E+01
 -1       675 2.00000E+01
 -1       676 2.00000E+01
 -1       677 2.00000E+01
 -1       678 2.00000E+01
 -1       679 2.00000E+01
 -1       680 2.00000E+01
 -1       681 2.00000E+01
 -1       682 2.00000E+01
 -1       683 2.00000E+01
 -1       684 2.00000E+01
 -1       685 2.00000E+01
 -1       686 2.00000E+01
 -1       687 2.00000E+01
 -1       688 2.00000E+01
 -1       689 2.00000E+01
 -1       690 2.00000E+01
 -1       691 2.00000E+01
 -1       692 2.00000E+01
 -1       693 2.00000E+01
 -1       694 2.00000E+01
 -1       695 2.00000E+01
 -1       696 2.00000E+01
 -1       697 2.00000E+01
 -1       698 2.00000E+01
 -1       699 2.00000E+01
 -1       700 2.00000E+01
 -1       701 2.00000E+01
 -1       702 2.00000E+01
 -1       703 2.00000E+01
 -1       704 2.00000E+01
 -1       705 2.00000E+01
 -1       706 2.00000E+01
 -1       707 2.00000E+01
 -1       708 2.00000E+01
 -1       709 2.00000E+01
 -1       710 2.00000E+01
 -1       711 2.00000E+01
 -1       712 2.00000E+01
 -1       713 2.00000E+01
 -1       714 2.00000E+01
 -1       715 2.00000E+01
 -1       716 2.00000E+01
 -1       717 2.00000E+01
 -1       718 2.00000E+01
 -1       719 2.00000E+01
 -1       720 2.00000E+01
 -1       721 2.00000E+01
 -1       722 2.00000E+01
 -1       723 2.00000E+01
 -1       724 2.00000E+01
 -1       725 2.00000E+01
 -1       726 2.00000E+01
 -1       727 2.00000E+01
 -1       728 2.00000E+01
 -1       729 2.00000E+01
 -1       730 2.00000E+01
 -1       731 2.00000E+01
 -1       732 2.00000E+01
 -1       733 2.00000E+01
 -1       734 2.00000E+01
 -1       735 2.00000E+01
 -1       736 2.00000E+01
 -1       737 2.00000E+01
 -1       738 2.00000E+01
 -1       739 2.00000E+01
 -1       740 2.00000E+01
 -1       741 2.00000E+01
 -1       742 2.00000E+01
 -1       743 2.00000E+01
 -1       744 2.00000E+01
 -1       745 2.00000E+01
 -1       746 2.00000E+01
 -1       747 2.00000E+01
 -1       748 2.00000E+01
 -1       749 2.00000E+01
 -1       750 2.00000E+01
 -1       751 2.00000E+01
 -1       752 2.00000E+01
 -1       753 2.00000E+01
 -1       754 2.00000E+01
 -1       755 2.00000E+01
 -1       756 2.00000E+01
 -1       757 2.00000E+01
 -1       758 2.00000E+01
 -1       759 2.00000E+01
 -1       760 2.00000E+01
 -1       761 2.00000E+01
 -1       762 2.00000E+01
 -1       763 2.00000E+01
 -1       764 2.00000E+01
 -1       765 2.00000E+01
 -1       766 2.00000E+01
 -1       767 2.00000E+01
 -1       768 2.00000E+01
 -1       769 2.00000E+01
 -1       770 2.00000E+01
 -1       771 2.00000E+01
 -1       772 2.00000E+01
 -1       773 2.00000E+01
 -1       774 2.00000E+01
 -1       775 2.00000E+01
 -1       776 2.00000E+01
 -1       777 2.00000E+01
 -1       778 2.00000E+01
 -1       779 2.00000E+01
 -1       780 2.00000E+01
 -1       781 2.00000E+01
 -1       782 2.00000E+01
 -1       783 2.00000E+01
 -1       784 2.00000E+01
 -1       785 2.00000E+01
 -1       786 2.00000E+01
 -1       787 2.00000E+01
 -1       788 2.00000E+01
 -1       789 2.00000E+01
 -1       790 2.00000E+01
 -1       791 2.00000E+01
 -1       792 2.00000E+01
 -1       793 2.00000E+01
 -1       794 2.00000E+01
 -1       795 2.00000E+01
 -1       796 2.00000E+01
 -1       797 2.00000E+01
 -1       798 2.00000E+01
 -1       799 2.00000E+01
 -1       800 2.00000E+01
 -1       801 2.00000E+01
 -1       802 2.00000E+01
 -1       803 2.00000E+01
 -1       804 2.00000E+01
 -1       805 2.00000E+01
 -1       806 2.00000E+01
 -1       807 2.00000E+01
 -1       808 2.00000E+01
 -1       809 2.00000E+01
 -1       810 2.00000E+01
 -1       811 2.00000E+01
 -1       812 2.00000E+01
 -1       813 2.00000E+01
 -1       814 2.00000E+01
 -1       815 2.00000E+01
 -1       816 2.00000E+01
 -1       817 2.00000E+01
 -1       818 2.00000E+01
 -1       819 2.00000E+01
 -1       820 2.00000E+01
 -1       821 2.00000E+01
 -1       822 2.00000E+01
 -1       823 2.00000E+01
 -1       824 2.00000E+01
 -1       825 2.00000E+01
 -1       826 2.00000E+01
 -1       827 2.00000E+01
 -1       828 2.00000E+01
 -1       829 2.00000E+01
 -1       830 2.00000E+01
 -1       831 2.00000E+01
 -1       832 2.00000E+01
 -1       833 2.00000E+01
 -1       834 2.00000E+01
 -1       835 2.00000E+01
 -1       836 2.00000E+01
 -1       837 2.00000E+01
 -1       838 2.00000E+01
 -1       839 2.00000E+01
 -1       840 2.00000E+01
 -1       841 2.00000E+01
 -1       842 2.00000E+01
 -1       843 2.00000E+01
 -1       844 2.00000E+01
 -1       845 2.00000E+01
 -1       846 2.00000E+01
 -1       847 2.00000E+01
 -1       848 2.00000E+01
 -1       849 2.00000E+01
 -1       850 2.00000E+01
 -1       851 2.00000E+01
 -1       852 2.00000E+01
 -1       853 2.00000E+01
 -1       854 2.00000E+01
 -1       855 2.00000E+01
 -1       856 2.00000E+01
 -1       857 2.00000E+01
 -1       858 2.00000E+01
 -1       859 2.00000E+01
 -1       860 2.00000E+01
 -1       861 2.00000E+01
 -1       862 2.00000E+01
 -1       863 2.00000E+01
 -1       864 2.00000E+01
 -1       865 2.00000E+01
 -1       866 2.00000E+01
 -1       867 2.00000E+01
 -1       868 2.00000E+01
 -1       869 2.00000E+01
 -1       870 2.00000E+01
 -1       871 2.00000E+01
 -1       872 2.00000E+01
 -1       873 2.00000E+01
 -1       874 2.00000E+01
 -1       875 2.00000E+01
 -1       876 2.00000E+01
 -1       877 2.00000E+01
 -1       878 2.00000E+01
 -1       879 2.00000E+01
 -1       880 2.00000E+01
 -1       881 2.00000E+01
 -1       882 2.00000E+01
 -1       883 2.00000E+01
 -1       884 2.00000E+01
 -1       885 2.00000E+01
 -1       886 2.00000E+01
 -1       887 2.00000E+01
 -1       888 2.00000E+01
 -1       889 2.00000E+01
 -1       890 2.00000E+01
 -1       891 2.00000E+01
 -1       892 2.00000E+01
 -1       893 2.00000E+01
 -1       894 2.00000E+01
 -1       895 2.00000E+01
 -1       896 2.00000E+01
 -1       897 2.00000E+01
 -1       898 2.00000E+01
 -1       899 2.00000E+01
 -1       900 2.00000E+01
 -1       901 2.00000E+01
 -1       902 2.00000E+01
 -1       903 2.00000E+01
 -1       904 2.00000E+01
 -1       905 2.00000E+01
 -1       906 2.00000E+01
 -1       907 2.00000E+01
 -1       908 2.00000E+01
 -1       909 2.00000E+01
 -1       910 2.00000E+01
 -1       911 2.00000E+01
 -1       912 2.00000E+01
 -1       913 2.00000E+01
 -1       914 2.00000E+01
 -1       915 2.00000E+01
 -1       916 2.00000E+01
 -1       917 2.00000E+01
 -1       918 2.00000E+01
 -1       919 2.00000E+01
 -1       920 2.00000E+01
 -1       921 2.00000E+01
 -1       922 2.00000E+01
 -1       923 2.00000E+01
 -1       924 2.00000E+01
 -1       925 2.00000E+01
 -1       926 2.00000E+01
 -1       927 2.00000E+01
 -1       928 2.00000E+01
 -1       929 2.00000E+01
 -1       930 2.00000E+01
 -1       931 2.00000E+01
 -1       932 2.00000E+01
 -1       933 2.00000E+01
 -1       934 2.00000E+01
 -1       935 2.00000E+01
 -1       936 2.00000E+01
 -1       937 2.00000E+01
 -1       938 2.00000E+01
 -1       939 2.00000E+01
 -1       940 2.00000E+01
 -1       941 2.00000E+01
 -1       942 2.00000E+01
 -1       943 2.00000E+01
 -1       944 2.00000E+01
 -1       945 2.00000E+01
 -1       946 2.00000E+01
 -1       947 2.00000E+01
 -1       948 2.00000E+01
 -1       949 2.00000E+01
 -1       950 2.00000E+01
 -1       951 2.00000E+01
 -1       952 2.00000E+01
 -1       953 2.00000E+01
 -1       954 2.00000E+01
 -1       955 2.00000E+01
 -1       956 2.00000E+01
 -1       957 2.00000E+01
 -1       958 2.00000E+01
 -1       959 2.00000E+01
 -1       960 2.00000E+01
 -1       961 2.00000E+01
 -1       962 2.00000E+01
 -1       963 2.00000E+01
 -1       964 2.00000E+01
 -1       965 2.00000E+01
 -1       966 2.00000E+01
 -1       967 2.00000E+01
 -1       968 2.00000E+01
 -1       969 2.00000E+01
 -1       970 2.00000E+01
 -1       971 2.00000E+01
 -1       972 2.00000E+01
 -1       973 2.00000E+01
 -1       974 2.00000E+01
 -1       975 2.00000E+01
 -1       976 2.00000E+01
 -1       977 2.00000E+01
 -1       978 2.00000E+01
 -1       979 2.00000E+01
 -1       980 2.00000E+01
 -1       981 2.00000E+01
 -1       982 2.00000E+01
 -1       983 2.00000E+01
 -1       984 2.00000E+01
 -1       985 2.00000E+01
 -1       986 2.00000E+01
 -1       987 2.00000E+01
 -1       988 2.00000E+01
 -1       989 2.00000E+01
 -1       990 2.00000E+01
 -1       991 2.00000E+01
 -1       992 2.00000E+01
 -1       993 2.00000E+01
 -1       994 2.00000E+01
 -1       995 2.00000E+01
 -1       996 2.00000E+01
 -1       997 2.00000E+01
 -1       998 2.00000E+01
 -1       999 2.00000E+01
 -1      1000 2.00000E+01
 -1      1001 2.00000E+01
 -1      1002 2.00000E+01
 -1      1003 2.00000E+01
 -1      1004 2.00000E+01
 -1      1005 2.00000E+01
 -1      1006 2.00000E+01
 -1      1007 2.00000E+01
 -1      1008 2.00000E+01
 -1      1009 2.00000E+01
 -1      1010 2.00000E+01
 -1      1011 2.00000E+01
 -1      1012 2.00000E+01
 -1      1013 2.00000E+01
 -1      1014 2.00000E+01
 -1      1015 2.00000E+01
 -1      1016 2.00000E+01
 -1      1017 2.00000E+01
 -1      1018 2.00000E+01
 -1      1019 2.00000E+01
 -1      1020 2.00000E+01
 -1      1021 2.00000E+01
 -1      1022 2.00000E+01
 -1      1023 2.00000E+01
 -1      1024 2.00000E+01
 -1      1025 2.00000E+01
 -1      1026 2.00000E+01
 -1      1027 2.00000E+01
 -1      1028 2.00000E+01
 -1      1029 2.00000E+01
 -1      1030 2.00000E+01
 -1      1031 2.00000E+01
 -1      1032 2.00000E+01
 -1      1033 2.00000E+01
 -1      1034 2.00000E+01
 -1      1035 2.00000E+01
 -1      1036 2.00000E+01
 -1      1037 2.00000E+01
 -1      1038 2.00000E+01
 -1      1039 2.00000E+01
 -1      1040 2.00000E+01
 -1      1041 2.00000E+01
 -1      1042 2.00000E+01
 -1      1043 2.00000E+01
 -1      1044 2.00000E+01
 -1      1045 2.00000E+01
 -1      1046 2.00000E+01
 -1      1047 2.00000E+01
 -1      1048 2.00000E+01
 -1      1049 2.00000E+01
 -1      1050 2.00000E+01
 -1      1051 2.00000E+01
 -1      1052 2.00000E+01
 -1      1053 2.00000E+01
 -1      1054 2.00000E+01
 -1      1055 2.00000E+01
 -1      1056 2.00000E+01
 -1      1057 2.00000E+01
 -1      1058 2.00000E+01
 -1      1059 2.00000E+01
 -1      1060 2.00000E+01
 -1      1061 2.00000E+01
 -1      1062 2.00000E+01
 -1      1063 2.00000E+01
 -1      1064 2.00000E+01
 -1      1065 2.00000E+01
 -1      1066 2.00000E+01
 -1      1067 2.00000E+01
 -1      1068 2.00000E+01
 -1      1069 2.00000E+01
 -1      1070 2.00000E+01
 -1      1071 2.00000E+01
 -1      1072 2.00000E+01
 -1      1073 2.00000E+01
 -1      1074 2.00000E+01
 -1      1075 2.00000E+01
 -1      1076 2.00000E+01
 -1      1077 2.00000E+01
 -1      1078 2.00000E+01
 -1      1079 2.00000E+01
 -1      1080 2.00000E+01
 -1      1081 2.00000E+01
 -1      1082 2.00000E+01
 -1      1083 2.00000E+01
 -1      1084 2.00000E+01
 -1      1085 2.00000E+01
 -1      1086 2.00000E+01
 -1      1087 2.00000E+01
 -1      1088 2.00000E+01
 -1      1089 2.00000E+01
 -1      1090 2.00000E+01
 -1      1091 2.00000E+01
 -1      1092 2.00000E+01
 -1      1093 2.00000E+01
 -1      1094 2.00000E+01
 -1      1095 2.00000E+01
 -1      1096 2.00000E+01
 -1      1097 2.00000E+01
 -1      1098 2.00000E+01
 -1      1099 2.00000E+01
 -1      1100 2.00000E+01
 -1      1101 2.00000E+01
 -1      1102 2.00000E+01
 -1      1103 2.00000E+01
 -1      1104 2.00000E+01
 -1      1105 2.00000E+01
 -1      1106 2.00000E+01
 -1      1107 2.00000E+01
 -1      1108 2.00000E+01
 -1      1109 2.00000E+01
 -1      1110 2.00000E+01
 -1      1111 2.00000E+01
 -1      1112 2.00000E+01
 -1      1113 2.00000E+01
 -1      1114 2.00000E+01
 -1      1115 2.00000E+01
 -1      1116 2.00000E+01
 -1      1117 2.00000E+01
 -1      1118 2.00000E+01
 -1      1119 2.00000E+01
 -1      1120 2.00000E+01
 -1      1121 2.00000E+01
 -1      1122 2.00000E+01
 -1      1123 2.00000E+01
 -1      1124 2.00000E+01
 -1      1125 2.00000E+01
 -1      1126 2.00000E+01
 -1      1127 2.00000E+01
 -1      1128 2.00000E+01
 -1      1129 2.00000E+01
 -1      1130 2.00000E+01
 -1      1131 2.00000E+01
 -1      1132 2.00000E+01
 -1      1133 2.00000E+01
 -1      1134 2.00000E+01
 -1      1135 2.00000E+01
 -1      1136 2.00000E+01
 -1      1137 2.00000E+01
 -1      1138 2.00000E+01
 -1      1139 2.00000E+01
 -1      1140 2.00000E+01
 -1      1141 2.00000E+01
 -1      1142 2.00000E+01
 -1      1143 2.00000E+01
 -1      1144 2.00000E+01
 -1      1145 2.00000E+01
 -1      1146 2.00000E+01
 -1      1147 2.00000E+01
 -1      1148 2.00000E+01
 -1      1149 2.00000E+01
 -1      1150 2.00000E+01
 -1      1151 2.00000E+01
 -1      1152 2.00000E+01
 -1      1153 2.00000E+01
 -1      1154 2.00000E+01
 -1      1155 2.00000E+01
 -1      1156 2.00000E+01
 -1      1157 2.00000E+01
 -1      1158 2.00000E+01
 -1      1159 2.00000E+01
 -1      1160 2.00000E+01
 -1      1161 2.00000E+01
 -1      1162 2.00000E+01
 -1      1163 2.00000E+01
 -1      1164 2.00000E+01
 -1      1165 2.00000E+01
 -1      1166 2.00000E+01
 -1      1167 2.00000E+01
 -1      1168 2.00000E+01
 -1      1169 2.00000E+01
 -1      1170 2.00000E+01
 -1      1171 2.00000E+01
 -1      1172 2.00000E+01
 -1      1173 2.00000E+01
 -1      1174 2.00000E+01
 -1      1175 2.00000E+01
 -1      1176 2.00000E+01
 -1      1177 2.00000E+01
 -1      1178 2.00000E+01
 -1      1179 2.00000E+01
 -1      1180 2.00000E+01
 -1      1181 2.00000E+01
 -1      1182 2.00000E+01
 -1      1183 2.00000E+01
 -1      1184 2.00000E+01
 -1      1185 2.00000E+01
 -1      1186 2.00000E+01
 -1      1187 2.00000E+01
 -1      1188 2.00000E+01
 -1      1189 2.00000E+01
 -1      1190 2.00000E+01
 -1      1191 2.00000E+01
 -1      1192 2.00000E+01
 -1      1193 2.00000E+01
 -1      1194 2.00000E+01
 -1      1195 2.00000E+01
 -1      1196 2.00000E+01
 -1      1197 2.00000E+01
 -1      1198 2.00000E+01
 -1      1199 2.00000E+01
 -1      1200 2.00000E+01
 -1      1201 2.00000E+01
 -1      1202 2.00000E+01
 -1      1203 2.00000E+01
 -1      1204 2.00000E+01
 -1      1205 2.00000E+01
 -1      1206 2.00000E+01
 -1      1207 2.00000E+01
 -1      1208 2.00000E+01
 -1      1209 2.00000E+01
 -1      1210 2.00000E+01
 -1      1211 2.00000E+01
 -1      1212 2.00000E+01
 -1      1213 2.00000E+01
 -1      1214 2.00000E+01
 -1      1215 2.00000E+01
 -1      1216 2.00000E+01
 -1      1217 2.00000E+01
 -1      1218 2.00000E+01
 -1      1219 2.00000E+01
 -1      1220 2.00000E+01
 -1      1221 2.00000E+01
 -1      1222 2.00000E+01
 -1      1223 2.00000E+01
 -1      1224 2.00000E+01
 -1      1225 2.00000E+01
 -1      1226 2.00000E+01
 -1      1227 2.00000E+01
 -1      1228 2.00000E+01
 -1      1229 2.00000E+01
 -1      1230 2.00000E+01
 -1      1231 2.00000E+01
 -1      1232 2.00000E+01
 -1      1233 2.00000E+01
 -1      1234 2.00000E+01
 -1      1235 2.00000E+01
 -1      1236 2.00000E+01
 -1      1237 2.00000E+01
 -1      1238 2.00000E+01
 -1      1239 2.00000E+01
 -1      1240 2.00000E+01
 -1      1241 2.00000E+01
 -1      1242 2.00000E+01
 -1      1243 2.00000E+01
 -1      1244 2.00000E+01
 -1      1245 2.00000E+01
 -1      1246 2.00000E+01
 -1      1247 2.00000E+01
 -1      1248 2.00000E+01
 -1      1249 2.00000E+01
 -1      1250 2.00000E+01
 -1      1251 2.00000E+01
 -1      1252 2.00000E+01
 -1      1253 2.00000E+01
 -1      1254 2.00000E+01
 -1      1255 2.00000E+01
 -1      1256 2.00000E+01
 -1      1257 2.00000E+01
 -1      1258 2.00000E+01
 -1      1259 2.00000E+01
 -1      1260 2.00000E+01
 -1      1261 2.00000E+01
 -1      1262 2.00000E+01
 -1      1263 2.00000E+01
 -1      1264 2.00000E+01
 -1      1265 2.00000E+01
 -1      1266 2.00000E+01
 -1      1267 2.00000E+01
 -1      1268 2.00000E+01
 -1      1269 2.00000E+01
 -1      1270 2.00000E+01
 -1      1271 2.00000E+01
 -1      1272 2.00000E+01
 -1      1273 2.00000E+01
 -1      1274 2.00000E+01
 -1      1275 2.00000E+01
 -1      1276 2.00000E+01
 -1      1277 2.00000E+01
 -1      1278 2.00000E+01
 -1      1279 2.00000E+01
 -1      1280 2.00000E+01
 -1      1281 2.00000E+01
 -1      1282 2.00000E+01
 -1      1283 2.00000E+01
 -1      1284 2.00000E+01
 -1      1285 2.00000E+01
 -1      1286 2.00000E+01
 -1      1287 2.00000E+01
 -1      1288 2.00000E+01
 -1      1289 2.00000E+01
 -1      1290 2.00000E+01
 -1      1291 2.00000E+01
 -1      1292 2.00000E+01
 -1      1293 2.00000E+01
 -1      1294 2.00000E+01
 -1      1295 2.00000E+01
 -1      1296 2.00000E+01
 -1      1297 2.00000E+01
 -1      1298 2.00000E+01
 -1      1299 2.00000E+01
 -1      1300 2.00000E+01
 -1      1301 2.00000E+01
 -1      1302 2.00000E+01
 -1      1303 2.00000E+01
 -1      1304 2.00000E+01
 -1      1305 2.00000E+01
 -1      1306 2.00000E+01
 -1      1307 2.00000E+01
 -1      1308 2.00000E+01
 -1      1309 2.00000E+01
 -1      1310 2.00000E+01
 -1      1311 2.00000E+01
 -1      1312 2.00000E+01
 -1      1313 2.00000E+01
 -1      1314 2.00000E+01
 -1      1315 2.00000E+01
 -1      1316 2.00000E+01
 -1      1317 2.00000E+01
 -1      1318 2.00000E+01
 -1      1319 2.00000E+01
 -1      1320 2.00000E+01
 -1      1321 2.00000E+01
 -1      1322 2.00000E+01
 -1      1323 2.00000E+01
 -1      1324 2.00000E+01
 -1      1325 2.00000E+01
 -1      1326 2.00000E+01
 -1      1327 2.00000E+01
 -1      1328 2.00000E+01
 -1      1329 2.00000E+01
 -1      1330 2.00000E+01
 -1      1331 2.00000E+01
 -1      1332 2.00000E+01
 -1      1333 2.00000E+01
 -1      1334 2.00000E+01
 -1      1335 2.00000E+01
 -1      1336 2.00000E+01
 -1      1337 2.00000E+01
 -1      1338 2.00000E+01
 -1      1339 2.00000E+01
 -1      1340 2.00000E+01
 -1      1341 2.00000E+01
 -1      1342 2.00000E+01
 -1      1343 2.00000E+01
 -1      1344 2.00000E+01
 -1      1345 2.00000E+01
 -1      1346 2.00000E+01
 -1      1347 2.00000E+01
 -1      1348 2.00000E+01
 -1      1349 2.00000E+01
 -1      1350 2.00000E+01
 -1      1351 2.00000E+01
 -1      1352 2.00000E+01
 -1      1353 2.00000E+01
 -1      1354 2.00000E+01
 -1      1355 2.00000E+01
 -1      1356 2.00000E+01
 -1      1357 2.00000E+01
 -1      1358 2.00000E+01
 -1      1359 2.00000E+01
 -1      1360 2.00000E+01
 -1      1361 2.00000E+01
 -1      1362 2.00000E+01
 -1      1363 2.00000E+01
 -1      1364 2.00000E+01
 -1      1365 2.00000E+01
 -1      1366 2.00000E+01
 -1      1367 2.00000E+01
 -1      1368 2.00000E+01
 -1      1369 2.00000E+01
 -1      1370 2.00000E+01
 -1      1371 2.00000E+01
 -1      1372 2.00000E+01
 -1      1373 2.00000E+01
 -1      1374 2.00000E+01
 -1      1375 2.00000E+01
 -1      1376 2.00000E+01
 -1      1377 2.00000E+01
 -1      1378 2.00000E+01
 -1      1379 2.00000E+01
 -1      1380 2.00000E+01
 -1      1381 2.00000E+01
 -1      1382 2.00000E+01
 -1      1383 2.00000E+01
 -1      1384 2.00000E+01
 -1      1385 2.00000E+01
 -1      1386 2.00000E+01
 -1      1387 2.00000E+01
 -1      1388 2.00000E+01
 -1      1389 2.00000E+01
 -1      1390 2.00000E+01
 -1      1391 2.00000E+01
 -1      1392 2.00000E+01
 -1      1393 2.00000E+01
 -1      1394 2.00000E+01
 -1      1395 2.00000E+01
 -1      1396 2.00000E+01
 -1      1397 2.00000E+01
 -1      1398 2.00000E+01
 -1      1399 2.00000E+01
 -1      1400 2.00000E+01
 -1      1401 2.00000E+01
 -1      1402 2.00000E+01
 -1      1403 2.00000E+01
 -1      1404 2.00000E+01
 -1      1405 2.00000E+01
 -1      1406 2.00000E+01
 -1      1407 2.00000E+01
 -1      1408 2.00000E+01
 -1      1409 2.00000E+01
 -1      1410 2.00000E+01
 -1      1411 2.00000E+01
 -1      1412 2.00000E+01
 -1      1413 2.00000E+01
 -1      1414 2.00000E+01
 -1      1415 2.00000E+01
 -1      1416 2.00000E+01
 -1      1417 2.00000E+01
 -1      1418 2.00000E+01
 -1      1419 2.00000E+01
 -1      1420 2.00000E+01
 -1      1421 2.00000E+01
 -1      1422 2.00000E+01
 -1      1423 2.00000E+01
 -1      1424 2.00000E+01
 -1      1425 2.00000E+01
 -1      1426 2.00000E+01
 -1      1427 2.00000E+01
 -1      1428 2.00000E+01
 -1      1429 2.00000E+01
 -1      1430 2.00000E+01
 -1      1431 2.00000E+01
 -1      1432 2.00000E+01
 -1      1433 2.00000E+01
 -1      1434 2.00000E+01
 -1      1435 2.00000E+01
 -1      1436 2.00000E+01
 -1      1437 2.00000E+01
 -1      1438 2.00000E+01
 -1      1439 2.00000E+01
 -1      1440 2.00000E+01
 -1      1441 2.00000E+01
 -1      1442 2.00000E+01
 -1      1443 2.00000E+01
 -1      1444 2.00000E+01
 -1      1445 2.00000E+01
 -1      1446 2.00000E+01
 -1      1447 2.00000E+01
 -1      1448 2.00000E+01
 -1      1449 2.00000E+01
 -1      1450 2.00000E+01
 -1      1451 2.00000E+01
 -1      1452 2.00000E+01
 -1      1453 2.00000E+01
 -1      1454 2.00000E+01
 -1      1455 2.00000E+01
 -1      1456 2.00000E+01
 -1      1457 2.00000E+01
 -1      1458 2.00000E+01
 -1      1459 2.00000E+01
 -1      1460 2.00000E+01
 -1      1461 2.00000E+01
 -1      1462 2.00000E+01
 -1      1463 2.00000E+01
 -1      1464 2.00000E+01
 -1      1465 2.00000E+01
 -1      1466 2.00000E+01
 -1      1467 2.00000E+01
 -1      1468 2.00000E+01
 -1      1469 2.00000E+01
 -1      1470 2.00000E+01
 -1      1471 2.00000E+01
 -1      1472 2.00000E+01
 -1      1473 2.00000E+01
 -1      1474 2.00000E+01
 -1      1475 2.00000E+01
 -1      1476 2.00000E+01
 -1      1477 2.00000E+01
 -1      1478 2.00000E+01
 -1      1479 2.00000E+01
 -1      1480 2.00000E+01
 -1      1481 2.00000E+01
 -1      1482 2.00000E+01
 -1      1483 2.00000E+01
 -1      1484 2.00000E+01
 -1      1485 2.00000E+01
 -1      1486 2.00000E+01
 -1      1487 2.00000E+01
 -1      1488 2.00000E+01
 -1      1489 2.00000E+01
 -1      1490 2.00000E+01
 -1      1491 2.00000E+01
 -1      1492 2.00000E+01
 -1      1493 2.00000E+01
 -1      1494 2.00000E+01
 -1      1495 2.00000E+01
 -1      1496 2.00000E+01
 -1      1497 2.00000E+01
 -1      1498 2.00000E+01
 -1      1499 2.00000E+01
 -1      1500 2.00000E+01
 -1      1501 2.00000E+01
 -1      1502 2.00000E+01
 -1      1503 2.00000E+01
 -1      1504 2.00000E+01
 -1      1505 2.00000E+01
 -1      1506 2.00000E+01
 -1      1507 2.00000E+01
 -1      1508 2.00000E+01
 -1      1509 2.00000E+01
 -1      1510 2.00000E+01
 -1      1511 2.00000E+01
 -1      1512 2.00000E+01
 -1      1513 2.00000E+01
 -1      1514 2.00000E+01
 -1      1515 2.00000E+01
 -1      1516 2.00000E+01
 -1      1517 2.00000E+01
 -1      1518 2.00000E+01
 -1      1519 2.00000E+01
 -1      1520 2.00000E+01
 -1      1521 2.00000E+01
 -1      1522 2.00000E+01
 -1      1523 2.00000E+01
 -1      1524 2.00000E+01
 -1      1525 2.00000E+01
 -1      1526 2.00000E+01
 -1      1527 2.00000E+01
 -1      1528 2.00000E+01
 -1      1529 2.00000E+01
 -1      1530 2.00000E+01
 -1      1531 2.00000E+01
 -1      1532 2.00000E+01
 -1      1533 2.00000E+01
 -1      1534 2.00000E+01
 -1      1535 2.00000E+01
 -1      1536 2.00000E+01
 -1      1537 2.00000E+01
 -1      1538 2.00000E+01
 -1      1539 2.00000E+01
 -1      1540 2.00000E+01
 -1      1541 2.00000E+01
 -1      1542 2.00000E+01
 -1      1543 2.00000E+01
 -1      1544 2.00000E+01
 -1      1545 2.00000E+01
 -1      1546 2.00000E+01
 -1      1547 2.00000E+01
 -1      1548 2.00000E+01
 -1      1549 2.00000E+01
 -1      1550 2.00000E+01
 -1      1551 2.00000E+01
 -1      1552 2.00000E+01
 -1      1553 2.00000E+01
 -1      1554 2.00000E+01
 -1      1555 2.00000E+01
 -1      1556 2.00000E+01
 -1      1557 2.00000E+01
 -1      1558 2.00000E+01
 -1      1559 2.00000E+01
 -1      1560 2.00000E+01
 -1      1561 2.00000E+01
 -1      1562 2.00000E+01
 -1      1563 2.00000E+01
 -1      1564 2.00000E+01
 -1      1565 2.00000E+01
 -1      1566 2.00000E+01
 -1      1567 2.00000E+01
 -1      1568 2.00000E+01
 -1      1569 2.00000E+01
 -1      1570 2.00000E+01
 -1      1571 2.00000E+01
 -1      1572 2.00000E+01
 -1      1573 2.00000E+01
 -1      1574 2.00000E+01
 -1      1575 2.00000E+01
 -1      1576 2.00000E+01
 -1      1577 2.00000E+01
 -1      1578 2.00000E+01
 -1      1579 2.00000E+01
 -1      1580 2.00000E+01
 -1      1581 2.00000E+01
 -1      1582 2.00000E+01
 -1      1583 2.00000E+01
 -1      1584 2.00000E+01
 -1      1585 2.00000E+01
 -1      1586 2.00000E+01
 -1      1587 2.00000E+01
 -1      1588 2.00000E+01
 -1      1589 2.00000E+01
 -1      1590 2.00000E+01
 -1      1591 2.00000E+01
 -1      1592 2.00000E+01
 -1      1593 2.00000E+01
 -1      1594 2.00000E+01
 -1      1595 2.00000E+01
 -1      1596 2.00000E+01
 -1      1597 2.00000E+01
 -1      1598 2.00000E+01
 -1      1599 2.00000E+01
 -1      1600 2.00000E+01
 -1      1601 2.00000E+01
 -1      1602 2.00000E+01
 -1      1603 2.00000E+01
 -1      1604 2.00000E+01
 -1      1605 2.00000E+01
 -1      1606 2.00000E+01
 -1      1607 2.00000E+01
 -1      1608 2.00000E+01
 -1      1609 2.00000E+01
 -1      1610 2.00000E+01
 -1      1611 2.00000E+01
 -1      1612 2.00000E+01
 -1      1613 2.00000E+01
 -1      1614 2.00000E+01
 -1      1615 2.00000E+01
 -1      1616 2.00000E+01
 -1      1617 2.00000E+01
 -1      1618 2.00000E+01
 -1      1619 2.00000E+01
 -1      1620 2.00000E+01
 -1      1621 2.00000E+01
 -1      1622 2.00000E+01
 -1      1623 2.00000E+01
 -1      1624 2.00000E+01
 -1      1625 2.00000E+01
 -1      1626 2.00000E+01
 -1      1627 2.00000E+01
 -1      1628 2.00000E+01
 -1      1629 2.00000E+01
 -1      1630 2.00000E+01
 -1      1631 2.00000E+01
 -1      1632 2.00000E+01
 -1      1633 2.00000E+01
 -1      1634 2.00000E+01
 -1      1635 2.00000E+01
 -1      1636 2.00000E+01
 -1      1637 2.00000E+01
 -1      1638 2.00000E+01
 -1      1639 2.00000E+01
 -1      1640 2.00000E+01
 -1      1641 2.00000E+01
 -1      1642 2.00000E+01
 -1      1643 2.00000E+01
 -1      1644 2.00000E+01
 -1      1645 2.00000E+01
 -1      1646 2.00000E+01
 -1      1647 2.00000E+01
 -1      1648 2.00000E+01
 -1      1649 2.00000E+01
 -1      1650 2.00000E+01
 -1      1651 2.00000E+01
 -1      1652 2.00000E+01
 -1      1653 2.00000E+01
 -1      1654 2.00000E+01
 -1      1655 2.00000E+01
 -1      1656 2.00000E+01
 -1      1657 2.00000E+01
 -1      1658 2.00000E+01
 -1      1659 2.00000E+01
 -1      1660 2.00000E+01
 -1      1661 2.00000E+01
 -1      1662 2.00000E+01
 -1      1663 2.00000E+01
 -1      1664 2.00000E+01
 -1      1665 2.00000E+01
 -1      1666 2.00000E+01
 -1      1667 2.00000E+01
 -1      1668 2.00000E+01
 -1      1669 2.00000E+01
 -1      1670 2.00000E+01
 -1      1671 2.00000E+01
 -1      1672 2.00000E+01
 -1      1673 2.00000E+01
 -1      1674 2.00000E+01
 -1      1675 2.00000E+01
 -1      1676 2.00000E+01
 -1      1677 2.00000E+01
 -1      1678 2.00000E+01
 -1      1679 2.00000E+01
 -1      1680 2.00000E+01
 -1      1681 2.00000E+01
 -1      1682 2.00000E+01
 -1      1683 2.00000E+01
 -1      1684 2.00000E+01
 -1      1685 2.00000E+01
 -1      1686 2.00000E+01
 -1      1687 2.00000E+01
 -1      1688 2.00000E+01
 -1      1689 2.00000E+01
 -1      1690 2.00000E+01
 -1      1691 2.00000E+01
 -1      1692 2.00000E+01
 -1      1693 2.00000E+01
 -1      1694 2.00000E+01
 -1      1695 2.00000E+01
 -1      1696 2.00000E+01
 -1      1697 2.00000E+01
 -1      1698 2.00000E+01
 -1      1699 2.00000E+01
 -1      1700 2.00000E+01
 -1      1701 2.00000E+01
 -1      1702 2.00000E+01
 -1      1703 2.00000E+01
 -1      1704 2.00000E+01
 -1      1705 2.00000E+01
 -1      1706 2.00000E+01
 -1      1707 2.00000E+01
 -1      1708 2.00000E+01
 -1      1709 2.00000E+01
 -1      1710 2.00000E+01
 -1      1711 2.00000E+01
 -1      1712 2.00000E+01
 -1      1713 2.00000E+01
 -1      1714 2.00000E+01
 -1      1715 2.00000E+01
 -1      1716 2.00000E+01
 -1      1717 2.00000E+01
 -1      1718 2.00000E+01
 -1      1719 2.00000E+01
 -1      1720 2.00000E+01
 -1      1721 2.00000E+01
 -1      1722 2.00000E+01
 -1      1723 2.00000E+01
 -1      1724 2.00000E+01
 -1      1725 2.00000E+01
 -1      1726 2.00000E+01
 -1      1727 2.00000E+01
 -1      1728 2.00000E+01
 -1      1729 2.00000E+01
 -1      1730 2.00000E+01
 -1      1731 2.00000E+01
 -1      1732 2.00000E+01
 -1      1733 2.00000E+01
 -1      1734 2.00000E+01
 -1      1735 2.00000E+01
 -1      1736 2.00000E+01
 -1      1737 2.00000E+01
 -1      1738 2.00000E+01
 -1      1739 2.00000E+01
 -1      1740 2.00000E+01
 -1      1741 2.00000E+01
 -1      1742 2.00000E+01
 -1      1743 2.00000E+01
 -1      1744 2.00000E+01
 -1      1745 2.00000E+01
 -1      1746 2.00000E+01
 -1      1747 2.00000E+01
 -1      1748 2.00000E+01
 -1      1749 2.00000E+01
 -1      1750 2.00000E+01
 -1      1751 2.00000E+01
 -1      1752 2.00000E+01
 -1      1753 2.00000E+01
 -1      1754 2.00000E+01
 -1      1755 2.00000E+01
 -1      1756 2.00000E+01
 -1      1757 2.00000E+01
 -1      1758 2.00000E+01
 -1      1759 2.00000E+01
 -1      1760 2.00000E+01
 -1      1761 2.00000E+01
 -1      1762 2.00000E+01
 -1      1763 2.00000E+01
 -1      1764 2.00000E+01
 -1      1765 2.00000E+01
 -1      1766 2.00000E+01
 -1      1767 2.00000E+01
 -1      1768 2.00000E+01
 -1      1769 2.00000E+01
 -1      1770 2.00000E+01
 -1      1771 2.00000E+01
 -1      1772 2.00000E+01
 -1      1773 2.00000E+01
 -1      1774 2.00000E+01
 -1      1775 2.00000E+01
 -1      1776 2.00000E+01
 -1      1777 2.00000E+01
 -1      1778 2.00000E+01
 -1      1779 2.00000E+01
 -1      1780 2.00000E+01
 -1      1781 2.00000E+01
 -1      1782 2.00000E+01
 -1      1783 2.00000E+01
 -1      1784 2.00000E+01
 -1      1785 2.00000E+01
 -1      1786 2.00000E+01
 -1      1787 2.00000E+01
 -1      1788 2.00000E+01
 -1      1789 2.00000E+01
 -1      1790 2.00000E+01
 -1      1791 2.00000E+01
 -1      1792 2.00000E+01
 -1      1793 2.00000E+01
 -1      1794 2.00000E+01
 -1      1795 2.00000E+01
 -1      1796 2.00000E+01
 -1      1797 2.00000E+01
 -1      1798 2.00000E+01
 -1      1799 2.00000E+01
 -1      1800 2.00000E+01
 -1      1801 2.00000E+01
 -1      1802 2.00000E+01
 -1      1803 2.00000E+01
 -1      1804 2.00000E+01
 -1      1805 2.00000E+01
 -1      1806 2.00000E+01
 -1      1807 2.00000E+01
 -1      1808 2.00000E+01
 -1      1809 2.00000E+01
 -1      1810 2.00000E+01
 -1      1811 2.00000E+01
 -1      1812 2.00000E+01
 -1      1813 2.00000E+01
 -1      1814 2.00000E+01
 -1      1815 2.00000E+01
 -1      1816 2.00000E+01
 -1      1817 2.00000E+01
 -1      1818 2.00000E+01
 -1      1819 2.00000E+01
 -1      1820 2.00000E+01
 -1      1821 2.00000E+01
 -1      1822 2.00000E+01
 -1      1823 2.00000E+01
 -1      1824 2.00000E+01
 -1      1825 2.00000E+01
 -1      1826 2.00000E+01
 -1      1827 2.00000E+01
 -1      1828 2.00000E+01
 -1      1829 2.00000E+01
 -1      1830 2.00000E+01
 -1      1831 2.00000E+01
 -1      1832 2.00000E+01
 -1      1833 2.00000E+01
 -1      1834 2.00000E+01
 -1      1835 2.00000E+01
 -1      1836 2.00000E+01
 -1      1837 2.00000E+01
 -1      1838 2.00000E+01
 -1      1839 2.00000E+01
 -1      1840 2.00000E+01
 -1      1841 2.00000E+01
 -1      1842 2.00000E+01
 -1      1843 2.00000E+01
 -1      1844 2.00000E+01
 -1      1845 2.00000E+01
 -1      1846 2.00000E+01
 -1      1847 2.00000E+01
 -1      1848 2.00000E+01
 -1      1849 2.00000E+01
 -1      1850 2.00000E+01
 -1      1851 2.00000E+01
 -1      1852 2.00000E+01
 -1      1853 2.00000E+01
 -1      1854 2.00000E+01
 -1      1855 2.00000E+01
 -1      1856 2.00000E+01
 -1      1857 2.00000E+01
 -1      1858 2.00000E+01
 -1      1859 2.00000E+01
 -1      1860 2.00000E+01
 -1      1861 2.00000E+01
 -1      1862 2.00000E+01
 -1      1863 2.00000E+01
 -1      1864 2.00000E+01
 -1      1865 2.00000E+01
 -1      1866 2.00000E+01
 -1      1867 2.00000E+01
 -1      1868 2.00000E+01
 -1      1869 2.00000E+01
 -1      1870 2.00000E+01
 -1      1871 2.00000E+01
 -1      1872 2.00000E+01
 -1      1873 2.00000E+01
 -1      1874 2.00000E+01
 -1      1875 2.00000E+01
 -1      1876 2.00000E+01
 -1      1877 2.00000E+01
 -1      1878 2.00000E+01
 -1      1879 2.00000E+01
 -1      1880 2.00000E+01
 -1      1881 2.00000E+01
 -1      1882 2.00000E+01
 -1      1883 2.00000E+01
 -1      1884 2.00000E+01
 -1      1885 2.00000E+01
 -1      1886 2.00000E+01
 -1      1887 2.00000E+01
 -1      1888 2.00000E+01
 -1      1889 2.00000E+01
 -1      1890 2.00000E+01
 -1      1891 2.00000E+01
 -1      1892 2.00000E+01
 -1      1893 2.00000E+01
 -1      1894 2.00000E+01
 -1      1895 2.00000E+01
 -1      1896 2.00000E+01
 -1      1897 2.00000E+01
 -1      1898 2.00000E+01
 -1      1899 2.00000E+01
 -1      1900 2.00000E+01
 -1      1901 2.00000E+01
 -1      1902 2.00000E+01
 -1      1903 2.00000E+01
 -1      1904 2.00000E+01
 -1      1905 2.00000E+01
 -1      1906 2.00000E+01
 -1      1907 2.00000E+01
 -1      1908 2.00000E+01
 -1      1909 2.00000E+01
 -1      1910 2.00000E+01
 -1      1911 2.00000E+01
 -1      1912 2.00000E+01
 -1      1913 2.00000E+01
 -1      1914 2.00000E+01
 -1      1915 2.00000E+01
 -1      1916 2.00000E+01
 -1      1917 2.00000E+01
 -1      1918 2.00000E+01
 -1      1919 2.00000E+01
 -1      1920 2.00000E+01
 -1      1921 2.00000E+01
 -1      1922 2.00000E+01
 -1      1923 2.00000E+01
 -1      1924 2.00000E+01
 -1      1925 2.00000E+01
 -1      1926 2.00000E+01
 -1      1927 2.00000E+01
 -1      1928 2.00000E+01
 -1      1929 2.00000E+01
 -1      1930 2.00000E+01
 -1      1931 2.00000E+01
 -1      1932 2.00000E+01
 -1      1933 2.00000E+01
 -1      1934 2.00000E+01
 -1      1935 2.00000E+01
 -1      1936 2.00000E+01
 -1      1937 2.00000E+01
 -1      1938 2.00000E+01
 -1      1939 2.00000E+01
 -1      1940 2.00000E+01
 -1      1941 2.00000E+01
 -1      1942 2.00000E+01
 -1      1943 2.00000E+01
 -1      1944 2.00000E+01
 -1      1945 2.00000E+01
 -1      1946 2.00000E+01
 -1      1947 2.00000E+01
 -1      1948 2.00000E+01
 -1      1949 2.00000E+01
 -1      1950 2.00000E+01
 -1      1951 2.00000E+01
 -1      1952 2.00000E+01
 -1      1953 2.00000E+01
 -1      1954 2.00000E+01
 -1      1955 2.00000E+01
 -1      1956 2.00000E+01
 -1      1957 2.00000E+01
 -1      1958 2.00000E+01
 -1      1959 2.00000E+01
 -1      1960 2.00000E+01
 -1      1961 2.00000E+01
 -1      1962 2.00000E+01
 -1      1963 2.00000E+01
 -1      1964 2.00000E+01
 -1      1965 2.00000E+01
 -1      1966 2.00000E+01
 -1      1967 2.00000E+01
 -1      1968 2.00000E+01
 -1      1969 2.00000E+01
 -1      1970 2.00000E+01
 -1      1971 2.00000E+01
 -1      1972 2.00000E+01
 -1      1973 2.00000E+01
 -1      1974 2.00000E+01
 -1      1975 2.00000E+01
 -1      1976 2.00000E+01
 -1      1977 2.00000E+01
 -1      1978 2.00000E+01
 -1      1979 2.00000E+01
 -1      1980 2.00000E+01
 -1      1981 2.00000E+01
 -1      1982 2.00000E+01
 -1      1983 2.00000E+01
 -1      1984 2.00000E+01
 -1      1985 2.00000E+01
 -1      1986 2.00000E+01
 -1      1987 2.00000E+01
 -1      1988 2.00000E+01
 -1      1989 2.00000E+01
 -1      1990 2.00000E+01
 -1      1991 2.00000E+01
 -1      1992 2.00000E+01
 -1      1993 2.00000E+01
 -1      1994 2.00000E+01
 -1      1995 2.00000E+01
 -1      1996 2.00000E+01
 -1      1997 2.00000E+01
 -1      1998 2.00000E+01
 -1      1999 2.00000E+01
 -1      2000 2.00000E+01
 -1      2001 2.00000E+01
 -1      2002 2.00000E+01
 -1      2003 2.00000E+01
 -1      2004 2.00000E+01
 -1      2005 2.00000E+01
 -1      2006 2.00000E+01
 -1      2007 2.00000E+01
 -1      2008 2.00000E+01
 -1      2009 2.00000E+01
 -1      2010 2.00000E+01
 -1      2011 2.00000E+01
 -1      2012 2.00000E+01
 -1      2013 2.00000E+01
 -1      2014 2.00000E+01
 -1      2015 2.00000E+01
 -1      2016 2.00000E+01
 -1      2017 2.00000E+01
 -1      2018 2.00000E+01
 -1      2019 2.00000E+01
 -1      2020 2.00000E+01
 -1      2021 2.00000E+01
 -1      2022 2.00000E+01
 -1      2023 2.00000E+01
 -1      2024 2.00000E+01
 -1      2025 2.00000E+01
 -1      2026 2.00000E+01
 -1      2027 2.00000E+01
 -1      2028 2.00000E+01
 -1      2029 2.00000E+01
 -1      2030 2.00000E+01
 -1      2031 2.00000E+01
 -1      2032 2.00000E+01
 -1      2033 2.00000E+01
 -1      2034 2.00000E+01
 -1      2035 2.00000E+01
 -1      2036 2.00000E+01
 -1      2037 2.00000E+01
 -1      2038 2.00000E+01
 -1      2039 2.00000E+01
 -1      2040 2.00000E+01
 -1      2041 2.00000E+01
 -1      2042 2.00000E+01
 -1      2043 2.00000E+01
 -1      2044 2.00000E+01
 -1      2045 2.00000E+01
 -1      2046 2.00000E+01
 -1      2047 2.00000E+01
 -1      2048 2.00000E+01
 -1      2049 2.00000E+01
 -1      2050 2.00000E+01
 -1      2051 2.00000E+01
 -1      2052 2.00000E+01
 -1      2053 2.00000E+01
 -1      2054 2.00000E+01
 -1      2055 2.00000E+01
 -1      2056 2.00000E+01
 -1      2057 2.00000E+01
 -1      2058 2.00000E+01
 -1      2059 2.00000E+01
 -1      2060 2.00000E+01
 -1      2061 2.00000E+01
 -1      2062 2.00000E+01
 -1      2063 2.00000E+01
 -1      2064 2.00000E+01
 -1      2065 2.00000E+01
 -1      2066 2.00000E+01
 -1      2067 2.00000E+01
 -1      2068 2.00000E+01
 -1      2069 2.00000E+01
 -1      2070 2.00000E+01
 -1      2071 2.00000E+01
 -1      2072 2.00000E+01
 -1      2073 2.00000E+01
 -1      2074 2.00000E+01
 -1      2075 2.00000E+01
 -1      2076 2.00000E+01
 -1      2077 2.00000E+01
 -1      2078 2.00000E+01
 -1      2079 2.00000E+01
 -1      2080 2.00000E+01
 -1      2081 2.00000E+01
 -1      2082 2.00000E+01
 -1      2083 2.00000E+01
 -1      2084 2.00000E+01
 -1      2085 2.00000E+01
 -1      2086 2.00000E+01
 -1      2087 2.00000E+01
 -1      2088 2.00000E+01
 -1      2089 2.00000E+01
 -1      2090 2.00000E+01
 -1      2091 2.00000E+01
 -1      2092 2.00000E+01
 -1      2093 2.00000E+01
 -1      2094 2.00000E+01
 -1      2095 2.00000E+01
 -1      2096 2.00000E+01
 -1      2097 2.00000E+01
 -1      2098 2.00000E+01
 -1      2099 2.00000E+01
 -1      2100 2.00000E+01
 -1      2101 2.00000E+01
 -1      2102 2.00000E+01
 -1      2103 2.00000E+01
 -1      2104 2.00000E+01
 -1      2105 2.00000E+01
 -1      2106 2.00000E+01
 -1      2107 2.00000E+01
 -1      2108 2.00000E+01
 -1      2109 2.00000E+01
 -1      2110 2.00000E+01
 -1      2111 2.00000E+01
 -1      2112 2.00000E+01
 -1      2113 2.00000E+01
 -1      2114 2.00000E+01
 -1      2115 2.00000E+01
 -1      2116 2.00000E+01
 -1      2117 2.00000E+01
 -1      2118 2.00000E+01
 -1      2119 2.00000E+01
 -1      2120 2.00000E+01
 -1      2121 2.00000E+01
 -1      2122 2.00000E+01
 -1      2123 2.00000E+01
 -1      2124 2.00000E+01
 -1      2125 2.00000E+01
 -1      2126 2.00000E+01
 -1      2127 2.00000E+01
 -1      2128 2.00000E+01
 -1      2129 2.00000E+01
 -1      2130 2.00000E+01
 -1      2131 2.00000E+01
 -1      2132 2.00000E+01
 -1      2133 2.00000E+01
 -1      2134 2.00000E+01
 -1      2135 2.00000E+01
 -1      2136 2.00000E+01
 -1      2137 2.00000E+01
 -1      2138 2.00000E+01
 -1      2139 2.00000E+01
 -1      2140 2.00000E+01
 -1      2141 2.00000E+01
 -1      2142 2.00000E+01
 -1      2143 2.00000E+01
 -1      2144 2.00000E+01
 -1      2145 2.00000E+01
 -1      2146 2.00000E+01
 -1      2147 2.00000E+01
 -1      2148 2.00000E+01
 -1      2149 2.00000E+01
 -1      2150 2.00000E+01
 -1      2151 2.00000E+01
 -1      2152 2.00000E+01
 -1      2153 2.00000E+01
 -1      2154 2.00000E+01
 -1      2155 2.00000E+01
 -1      2156 2.00000E+01
 -1      2157 2.00000E+01
 -1      2158 2.00000E+01
 -1      2159 2.00000E+01
 -1      2160 2.00000E+01
 -1      2161 2.00000E+01
 -1      2162 2.00000E+01
 -1      2163 2.00000E+01
 -1      2164 2.00000E+01
 -1      2165 2.00000E+01
 -1      2166 2.00000E+01
 -1      2167 2.00000E+01
 -1      2168 2.00000E+01
 -1      2169 2.00000E+01
 -1      2170 2.00000E+01
 -1      2171 2.00000E+01
 -1      2172 2.00000E+01
 -1      2173 2.00000E+01
 -1      2174 2.00000E+01
 -1      2175 2.00000E+01
 -1      2176 2.00000E+01
 -1      2177 2.00000E+01
 -1      2178 2.00000E+01
 -1      2179 2.00000E+01
 -1      2180 2.00000E+01
 -1      2181 2.00000E+01
 -1      2182 2.00000E+01
 -1      2183 2.00000E+01
 -1      2184 2.00000E+01
 -1      2185 2.00000E+01
 -1      2186 2.00000E+01
 -1      2187 2.00000E+01
 -1      2188 2.00000E+01
 -1      2189 2.00000E+01
 -1      2190 2.00000E+01
 -1      2191 2.00000E+01
 -1      2192 2.00000E+01
 -1      2193 2.00000E+01
 -1      2194 2.00000E+01
 -1      2195 2.00000E+01
 -1      2196 2.00000E+01
 -1      2197 2.00000E+01
 -1      2198 2.00000E+01
 -1      2199 2.00000E+01
 -1      2200 2.00000E+01
 -1      2201 2.00000E+01
 -1      2202 2.00000E+01
 -1      2203 2.00000E+01
 -1      2204 2.00000E+01
 -1      2205 2.00000E+01
 -1      2206 2.00000E+01
 -1      2207 2.00000E+01
 -1      2208 2.00000E+01
 -1      2209 2.00000E+01
 -1      2210 2.00000E+01
 -1      2211 2.00000E+01
 -1      2212 2.00000E+01
 -1      2213 2.00000E+01
 -1      2214 2.00000E+01
 -1      2215 2.00000E+01
 -1      2216 2.00000E+01
 -1      2217 2.00000E+01
 -1      2218 2.00000E+01
 -1      2219 2.00000E+01
 -1      2220 2.00000E+01
 -1      2221 2.00000E+01
 -1      2222 2.00000E+01
 -1      2223 2.00000E+01
 -1      2224 2.00000E+01
 -1      2225 2.00000E+01
 -1      2226 2.00000E+01
 -1      2227 2.00000E+01
 -1      2228 2.00000E+01
 -1      2229 2.00000E+01
 -1      2230 2.00000E+01
 -1      2231 2.00000E+01
 -1      2232 2.00000E+01
 -1      2233 2.00000E+01
 -1      2234 2.00000E+01
 -1      2235 2.00000E+01
 -1      2236 2.00000E+01
 -1      2237 2.00000E+01
 -1      2238 2.00000E+01
 -1      2239 2.00000E+01
 -1      2240 2.00000E+01
 -1      2241 2.00000E+01
 -1      2242 2.00000E+01
 -1      2243 2.00000E+01
 -1      2244 2.00000E+01
 -1      2245 2.00000E+01
 -1      2246 2.00000E+01
 -1      2247 2.00000E+01
 -1      2248 2.00000E+01
 -1      2249 2.00000E+01
 -1      2250 2.00000E+01
 -1      2251 2.00000E+01
 -1      2252 2.00000E+01
 -1      2253 2.00000E+01
 -1      2254 2.00000E+01
 -1      2255 2.00000E+01
 -1      2256 2.00000E+01
 -1      2257 2.00000E+01
 -1      2258 2.00000E+01
 -1      2259 2.00000E+01
 -1      2260 2.00000E+01
 -1      2261 2.00000E+01
 -1      2262 2.00000E+01
 -1      2263 2.00000E+01
 -1      2264 2.00000E+01
 -1      2265 2.00000E+01
 -1      2266 2.00000E+01
 -1      2267 2.00000E+01
 -1      2268 2.00000E+01
 -1      2269 2.00000E+01
 -1      2270 2.00000E+01
 -1      2271 2.00000E+01
 -1      2272 2.00000E+01
 -1      2273 2.00000E+01
 -1      2274 2.00000E+01
 -1      2275 2.00000E+01
 -1      2276 2.00000E+01
 -1      2277 2.00000E+01
 -1      2278 2.00000E+01
 -1      2279 2.00000E+01
 -1      2280 2.00000E+01
 -1      2281 2.00000E+01
 -1      2282 2.00000E+01
 -1      2283 2.00000E+01
 -1      2284 2.00000E+01
 -1      2285 2.00000E+01
 -1      2286 2.00000E+01
 -1      2287 2.00000E+01
 -1      2288 2.00000E+01
 -1      2289 2.00000E+01
 -1      2290 2.00000E+01
 -1      2291 2.00000E+01
 -1      2292 2.00000E+01
 -1      2293 2.00000E+01
 -1      2294 2.00000E+01
 -1      2295 2.00000E+01
 -1      2296 2.00000E+01
 -1      2297 2.00000E+01
 -1      2298 2.00000E+01
 -1      2299 2.00000E+01
 -1      2300 2.00000E+01
 -1      2301 2.00000E+01
 -1      2302 2.00000E+01
 -1      2303 2.00000E+01
 -1      2304 2.00000E+01
 -1      2305 2.00000E+01
 -1      2306 2.00000E+01
 -1      2307 2.00000E+01
 -1      2308 2.00000E+01
 -1      2309 2.00000E+01
 -1      2310 2.00000E+01
 -1      2311 2.00000E+01
 -1      2312 2.00000E+01
 -1      2313 2.00000E+01
 -1      2314 2.00000E+01
 -1      2315 2.00000E+01
 -1      2316 2.00000E+01
 -1      2317 2.00000E+01
 -1      2318 2.00000E+01
 -1      2319 2.00000E+01
 -1      2320 2.00000E+01
 -1      2321 2.00000E+01
 -1      2322 2.00000E+01
 -1      2323 2.00000E+01
 -1      2324 2.00000E+01
 -1      2325 2.00000E+01
 -1      2326 2.00000E+01
 -1      2327 2.00000E+01
 -1      2328 2.00000E+01
 -1      2329 2.00000E+01
 -1      2330 2.00000E+01
 -1      2331 2.00000E+01
 -1      2332 2.00000E+01
 -1      2333 2.00000E+01
 -1      2334 2.00000E+01
 -1      2335 2.00000E+01
 -1      2336 2.00000E+01
 -1      2337 2.00000E+01
 -1      2338 2.00000E+01
 -1      2339 2.00000E+01
 -1      2340 2.00000E+01
 -1      2341 2.00000E+01
 -1      2342 2.00000E+01
 -1      2343 2.00000E+01
 -1      2344 2.00000E+01
 -1      2345 2.00000E+01
 -1      2346 2.00000E+01
 -1      2347 2.00000E+01
 -1      2348 2.00000E+01
 -1      2349 2.00000E+01
 -1      2350 2.00000E+01
 -1      2351 2.00000E+01
 -1      2352 2.00000E+01
 -1      2353 2.00000E+01
 -1      2354 2.00000E+01
 -1      2355 2.00000E+01
 -1      2356 2.00000E+01
 -1      2357 2.00000E+01
 -1      2358 2.00000E+01
 -1      2359 2.00000E+01
 -1      2360 2.00000E+01
 -1      2361 2.00000E+01
 -1      2362 2.00000E+01
 -1      2363 2.00000E+01
 -1      2364 2.00000E+01
 -1      2365 2.00000E+01
 -1      2366 2.00000E+01
 -1      2367 2.00000E+01
 -1      2368 2.00000E+01
 -1      2369 2.00000E+01
 -1      2370 2.00000E+01
 -1      2371 2.00000E+01
 -1      2372 2.00000E+01
 -1      2373 2.00000E+01
 -1      2374 2.00000E+01
 -1      2375 2.00000E+01
 -1      2376 2.00000E+01
 -1      2377 2.00000E+01
 -1      2378 2.00000E+01
 -1      2379 2.00000E+01
 -1      2380 2.00000E+01
 -1      2381 2.00000E+01
 -1      2382 2.00000E+01
 -1      2383 2.00000E+01
 -1      2384 2.00000E+01
 -1      2385 2.00000E+01
 -1      2386 2.00000E+01
 -1      2387 2.00000E+01
 -1      2388 2.00000E+01
 -1      2389 2.00000E+01
 -1      2390 2.00000E+01
 -1      2391 2.00000E+01
 -1      2392 2.00000E+01
 -1      2393 2.00000E+01
 -1      2394 2.00000E+01
 -1      2395 2.00000E+01
 -1      2396 2.00000E+01
 -1      2397 2.00000E+01
 -1      2398 2.00000E+01
 -1      2399 2.00000E+01
 -1      2400 2.00000E+01
 -1      2401 2.00000E+01
 -1      2402 2.00000E+01
 -1      2403 2.00000E+01
 -1      2404 2.00000E+01
 -1      2405 2.00000E+01
 -1      2406 2.00000E+01
 -1      2407 2.00000E+01
 -1      2408 2.00000E+01
 -1      2409 2.00000E+01
 -1      2410 2.00000E+01
 -1      2411 2.00000E+01
 -1      2412 2.00000E+01
 -1      2413 2.00000E+01
 -1      2414 2.00000E+01
 -1      2415 2.00000E+01
 -1      2416 2.00000E+01
 -1      2417 2.00000E+01
 -1      2418 2.00000E+01
 -1      2419 2.00000E+01
 -1      2420 2.00000E+01
 -1      2421 2.00000E+01
 -1      2422 2.00000E+01
 -1      2423 2.00000E+01
 -1      2424 2.00000E+01
 -1      2425 2.00000E+01
 -1      2426 2.00000E+01
 -1      2427 2.00000E+01
 -1      2428 2.00000E+01
 -1      2429 2.00000E+01
 -1      2430 2.00000E+01
 -1      2431 2.00000E+01
 -1      2432 2.00000E+01
 -1      2433 2.00000E+01
 -1      2434 2.00000E+01
 -1      2435 2.00000E+01
 -1      2436 2.00000E+01
 -1      2437 2.00000E+01
 -1      2438 2.00000E+01
 -1      2439 2.00000E+01
 -1      2440 2.00000E+01
 -1      2441 2.00000E+01
 -1      2442 2.00000E+01
 -1      2443 2.00000E+01
 -1      2444 2.00000E+01
 -1      2445 2.00000E+01
 -1      2446 2.00000E+01
 -1      2447 2.00000E+01
 -1      2448 2.00000E+01
 -1      2449 2.00000E+01
 -1      2450 2.00000E+01
 -1      2451 2.00000E+01
 -1      2452 2.00000E+01
 -1      2453 2.00000E+01
 -1      2454 2.00000E+01
 -1      2455 2.00000E+01
 -1      2456 2.00000E+01
 -1      2457 2.00000E+01
 -1      2458 2.00000E+01
 -1      2459 2.00000E+01
 -1      2460 2.00000E+01
 -1      2461 2.00000E+01
 -1      2462 2.00000E+01
 -1      2463 2.00000E+01
 -1      2464 2.00000E+01
 -1      2465 2.00000E+01
 -1      2466 2.00000E+01
 -1      2467 2.00000E+01
 -1      2468 2.00000E+01
 -1      2469 2.00000E+01
 -1      2470 2.00000E+01
 -1      2471 2.00000E+01
 -1      2472 2.00000E+01
 -1      2473 2.00000E+01
 -1      2474 2.00000E+01
 -1      2475 2.00000E+01
 -1      2476 2.00000E+01
 -1      2477 2.00000E+01
 -1      2478 2.00000E+01
 -1      2479 2.00000E+01
 -1      2480 2.00000E+01
 -1      2481 2.00000E+01
 -1      2482 2.00000E+01
 -1      2483 2.00000E+01
 -1      2484 2.00000E+01
 -1      2485 2.00000E+01
 -1      2486 2.00000E+01
 -1      2487 2.00000E+01
 -1      2488 2.00000E+01
 -1      2489 2.00000E+01
 -1      2490 2.00000E+01
 -1      2491 2.00000E+01
 -1      2492 2.00000E+01
 -1      2493 2.00000E+01
 -1      2494 2.00000E+01
 -1      2495 2.00000E+01
 -1      2496 2.00000E+01
 -1      2497 2.00000E+01
 -1      2498 2.00000E+01
 -1      2499 2.00000E+01
 -1      2500 2.00000E+01
 -1      2501 2.00000E+01
 -1      2502 2.00000E+01
 -1      2503 2.00000E+01
 -1      2504 2.00000E+01
 -1      2505 2.00000E+01
 -1      2506 2.00000E+01
 -1      2507 2.00000E+01
 -1      2508 2.00000E+01
 -1      2509 2.00000E+01
 -1      2510 2.00000E+01
 -1      2511 2.00000E+01
 -1      2512 2.00000E+01
 -1      2513 2.00000E+01
 -1      2514 2.00000E+01
 -1      2515 2.00000E+01
 -1      2516 2.00000E+01
 -1      2517 2.00000E+01
 -1      2518 2.00000E+01
 -1      2519 2.00000E+01
 -1      2520 2.00000E+01
 -1      2521 2.00000E+01
 -1      2522 2.00000E+01
 -1      2523 2.00000E+01
 -1      2524 2.00000E+01
 -1      2525 2.00000E+01
 -1      2526 2.00000E+01
 -1      2527 2.00000E+01
 -1      2528 2.00000E+01
 -1      2529 2.00000E+01
 -1      2530 2.00000E+01
 -1      2531 2.00000E+01
 -1      2532 2.00000E+01
 -1      2533 2.00000E+01
 -1      2534 2.00000E+01
 -1      2535 2.00000E+01
 -1      2536 2.00000E+01
 -1      2537 2.00000E+01
 -1      2538 2.00000E+01
 -1      2539 2.00000E+01
 -1      2540 2.00000E+01
 -1      2541 2.00000E+01
 -1      2542 2.00000E+01
 -1      2543 2.00000E+01
 -1      2544 2.00000E+01
 -1      2545 2.00000E+01
 -1      2546 2.00000E+01
 -1      2547 2.00000E+01
 -1      2548 2.00000E+01
 -1      2549 2.00000E+01
 -1      2550 2.00000E+01
 -1      2551 2.00000E+01
 -1      2552 2.00000E+01
 -1      2553 2.00000E+01
 -1      2554 2.00000E+01
 -1      2555 2.00000E+01
 -1      2556 2.00000E+01
 -1      2557 2.00000E+01
 -1      2558 2.00000E+01
 -1      2559 2.00000E+01
 -1      2560 2.00000E+01
 -1      2561 2.00000E+01
 -1      2562 2.00000E+01
 -1      2563 2.00000E+01
 -1      2564 2.00000E+01
 -1      2565 2.00000E+01
 -1      2566 2.00000E+01
 -1      2567 2.00000E+01
 -1      2568 2.00000E+01
 -1      2569 2.00000E+01
 -1      2570 2.00000E+01
 -1      2571 2.00000E+01
 -1      2572 2.00000E+01
 -1      2573 2.00000E+01
 -1      2574 2.00000E+01
 -1      2575 2.00000E+01
 -1      2576 2.00000E+01
 -1      2577 2.00000E+01
 -1      2578 2.00000E+01
 -1      2579 2.00000E+01
 -1      2580 2.00000E+01
 -1      2581 2.00000E+01
 -1      2582 2.00000E+01
 -1      2583 2.00000E+01
 -1      2584 2.00000E+01
 -1      2585 2.00000E+01
 -1      2586 2.00000E+01
 -1      2587 2.00000E+01
 -1      2588 2.00000E+01
 -1      2589 2.00000E+01
 -1      2590 2.00000E+01
 -1      2591 2.00000E+01
 -1      2592 2.00000E+01
 -1      2593 2.00000E+01
 -1      2594 2.00000E+01
 -1      2595 2.00000E+01
 -1      2596 2.00000E+01
 -1      2597 2.00000E+01
 -1      2598 2.00000E+01
 -1      2599 2.00000E+01
 -1      2600 2.00000E+01
 -1      2601 2.00000E+01
 -1      2602 2.00000E+01
 -1      2603 2.00000E+01
 -1      2604 2.00000E+01
 -1      2605 2.00000E+01
 -1      2606 2.00000E+01
 -1      2607 2.00000E+01
 -1      2608 2.00000E+01
 -1      2609 2.00000E+01
 -1      2610 2.00000E+01
 -1      2611 2.00000E+01
 -1      2612 2.00000E+01
 -1      2613 2.00000E+01
 -1      2614 2.00000E+01
 -1      2615 2.00000E+01
 -1      2616 2.00000E+01
 -1      2617 2.00000E+01
 -1      2618 2.00000E+01
 -1      2619 2.00000E+01
 -1      2620 2.00000E+01
 -1      2621 2.00000E+01
 -1      2622 2.00000E+01
 -1      2623 2.00000E+01
 -1      2624 2.00000E+01
 -1      2625 2.00000E+01
 -1      2626 2.00000E+01
 -1      2627 2.00000E+01
 -1      2628 2.00000E+01
 -1      2629 2.00000E+01
 -1      2630 2.00000E+01
 -1      2631 2.00000E+01
 -1      2632 2.00000E+01
 -1      2633 2.00000E+01
 -1      2634 2.00000E+01
 -1      2635 2.00000E+01
 -1      2636 2.00000E+01
 -1      2637 2.00000E+01
 -1      2638 2.00000E+01
 -1      2639 2.00000E+01
 -1      2640 2.00000E+01
 -1      2641 2.00000E+01
 -1      2642 2.00000E+01
 -1      2643 2.00000E+01
 -1      2644 2.00000E+01
 -1      2645 2.00000E+01
 -1      2646 2.00000E+01
 -1      2647 2.00000E+01
 -1      2648 2.00000E+01
 -1      2649 2.00000E+01
 -1      2650 2.00000E+01
 -1      2651 2.00000E+01
 -1      2652 2.00000E+01
 -1      2653 2.00000E+01
 -1      2654 2.00000E+01
 -1      2655 2.00000E+01
 -1      2656 2.00000E+01
 -1      2657 2.00000E+01
 -1      2658 2.00000E+01
 -1      2659 2.00000E+01
 -1      2660 2.00000E+01
 -1      2661 2.00000E+01
 -1      2662 2.00000E+01
 -1      2663 2.00000E+01
 -1      2664 2.00000E+01
 -1      2665 2.00000E+01
 -1      2666 2.00000E+01
 -1      2667 2.00000E+01
 -1      2668 2.00000E+01
 -1      2669 2.00000E+01
 -1      2670 2.00000E+01
 -1      2671 2.00000E+01
 -1      2672 2.00000E+01
 -1      2673 2.00000E+01
 -1      2674 2.00000E+01
 -1      2675 2.00000E+01
 -1      2676 2.00000E+01
 -1      2677 2.00000E+01
 -1      2678 2.00000E+01
 -1      2679 2.00000E+01
 -1      2680 2.00000E+01
 -1      2681 2.00000E+01
 -1      2682 2.00000E+01
 -1      2683 2.00000E+01
 -1      2684 2.00000E+01
 -1      2685 2.00000E+01
 -1      2686 2.00000E+01
 -1      2687 2.00000E+01
 -1      2688 2.00000E+01
 -1      2689 2.00000E+01
 -1      2690 2.00000E+01
 -1      2691 2.00000E+01
 -1      2692 2.00000E+01
 -1      2693 2.00000E+01
 -1      2694 2.00000E+01
 -1      2695 2.00000E+01
 -1      2696 2.00000E+01
 -1      2697 2.00000E+01
 -1      2698 2.00000E+01
 -1      2699 2.00000E+01
 -1      2700 2.00000E+01
 -1      2701 2.00000E+01
 -1      2702 2.00000E+01
 -1      2703 2.00000E+01
 -1      2704 2.00000E+01
 -1      2705 2.00000E+01
 -1      2706 2.00000E+01
 -1      2707 2.00000E+01
 -1      2708 2.00000E+01
 -1      2709 2.00000E+01
 -1      2710 2.00000E+01
 -1      2711 2.00000E+01
 -1      2712 2.00000E+01
 -1      2713 2.00000E+01
 -1      2714 2.00000E+01
 -1      2715 2.00000E+01
 -1      2716 2.00000E+01
 -1      2717 2.00000E+01
 -1      2718 2.00000E+01
 -1      2719 2.00000E+01
 -1      2720 2.00000E+01
 -1      2721 2.00000E+01
 -1      2722 2.00000E+01
 -1      2723 2.00000E+01
 -1      2724 2.00000E+01
 -1      2725 2.00000E+01
 -1      2726 2.00000E+01
 -1      2727 2.00000E+01
 -1      2728 2.00000E+01
 -1      2729 2.00000E+01
 -1      2730 2.00000E+01
 -1      2731 2.00000E+01
 -1      2732 2.00000E+01
 -1      2733 2.00000E+01
 -1      2734 2.00000E+01
 -1      2735 2.00000E+01
 -1      2736 2.00000E+01
 -1      2737 2.00000E+01
 -1      2738 2.00000E+01
 -1      2739 2.00000E+01
 -1      2740 2.00000E+01
 -1      2741 2.00000E+01
 -1      2742 2.00000E+01
 -1      2743 2.00000E+01
 -1      2744 2.00000E+01
 -1      2745 2.00000E+01
 -1      2746 2.00000E+01
 -1      2747 2.00000E+01
 -1      2748 2.00000E+01
 -1      2749 2.00000E+01
 -1      2750 2.00000E+01
 -1      2751 2.00000E+01
 -1      2752 2.00000E+01
 -1      2753 2.00000E+01
 -1      2754 2.00000E+01
 -1      2755 2.00000E+01
 -1      2756 2.00000E+01
 -1      2757 2.00000E+01
 -1      2758 2.00000E+01
 -1      2759 2.00000E+01
 -1      2760 2.00000E+01
 -1      2761 2.00000E+01
 -1      2762 2.00000E+01
 -1      2763 2.00000E+01
 -1      2764 2.00000E+01
 -1      2765 2.00000E+01
 -1      2766 2.00000E+01
 -1      2767 2.00000E+01
 -1      2768 2.00000E+01
 -1      2769 2.00000E+01
 -1      2770 2.00000E+01
 -1      2771 2.00000E+01
 -1      2772 2.00000E+01
 -1      2773 2.00000E+01
 -1      2774 2.00000E+01
 -1      2775 2.00000E+01
 -1      2776 2.00000E+01
 -1      2777 2.00000E+01
 -1      2778 2.00000E+01
 -1      2779 2.00000E+01
 -1      2780 2.00000E+01
 -1      2781 2.00000E+01
 -1      2782 2.00000E+01
 -1      2783 2.00000E+01
 -1      2784 2.00000E+01
 -1      2785 2.00000E+01
 -1      2786 2.00000E+01
 -1      2787 2.00000E+01
 -1      2788 2.00000E+01
 -1      2789 2.00000E+01
 -1      2790 2.00000E+01
 -1      2791 2.00000E+01
 -1      2792 2.00000E+01
 -1      2793 2.00000E+01
 -1      2794 2.00000E+01
 -1      2795 2.00000E+01
 -1      2796 2.00000E+01
 -1      2797 2.00000E+01
 -1      2798 2.00000E+01
 -1      2799 2.00000E+01
 -1      2800 2.00000E+01
 -1      2801 2.00000E+01
 -1      2802 2.00000E+01
 -1      2803 2.00000E+01
 -1      2804 2.00000E+01
 -1      2805 2.00000E+01
 -1      2806 2.00000E+01
 -1      2807 2.00000E+01
 -1      2808 2.00000E+01
 -1      2809 2.00000E+01
 -1      2810 2.00000E+01
 -1      2811 2.00000E+01
 -1      2812 2.00000E+01
 -1      2813 2.00000E+01
 -1      2814 2.00000E+01
 -1      2815 2.00000E+01
 -1      2816 2.00000E+01
 -1      2817 2.00000E+01
 -1      2818 2.00000E+01
 -1      2819 2.00000E+01
 -1      2820 2.00000E+01
 -1      2821 2.00000E+01
 -1      2822 2.00000E+01
 -1      2823 2.00000E+01
 -1      2824 2.00000E+01
 -1      2825 2.00000E+01
 -1      2826 2.00000E+01
 -1      2827 2.00000E+01
 -1      2828 2.00000E+01
 -1      2829 2.00000E+01
 -1      2830 2.00000E+01
 -1      2831 2.00000E+01
 -1      2832 2.00000E+01
 -1      2833 2.00000E+01
 -1      2834 2.00000E+01
 -1      2835 2.00000E+01
 -1      2836 2.00000E+01
 -1      2837 2.00000E+01
 -1      2838 2.00000E+01
 -1      2839 2.00000E+01
 -1      2840 2.00000E+01
 -1      2841 2.00000E+01
 -1      2842 2.00000E+01
 -1      2843 2.00000E+01
 -1      2844 2.00000E+01
 -1      2845 2.00000E+01
 -1      2846 2.00000E+01
 -1      2847 2.00000E+01
 -1      2848 2.00000E+01
 -1      2849 2.00000E+01
 -1      2850 2.00000E+01
 -1      2851 2.00000E+01
 -1      2852 2.00000E+01
 -1      2853 2.00000E+01
 -1      2854 2.00000E+01
 -1      2855 2.00000E+01
 -1      2856 2.00000E+01
 -1      2857 2.00000E+01
 -1      2858 2.00000E+01
 -1      2859 2.00000E+01
 -1      2860 2.00000E+01
 -1      2861 2.00000E+01
 -1      2862 2.00000E+01
 -1      2863 2.00000E+01
 -1      2864 2.00000E+01
 -1      2865 2.00000E+01
 -1      2866 2.00000E+01
 -1      2867 2.00000E+01
 -1      2868 2.00000E+01
 -1      2869 2.00000E+01
 -1      2870 2.00000E+01
 -1      2871 2.00000E+01
 -1      2872 2.00000E+01
 -1      2873 2.00000E+01
 -1      2874 2.00000E+01
 -1      2875 2.00000E+01
 -1      2876 2.00000E+01
 -1      2877 2.00000E+01
 -1      2878 2.00000E+01
 -1      2879 2.00000E+01
 -1      2880 2.00000E+01
 -1      2881 2.00000E+01
 -1      2882 2.00000E+01
 -1      2883 2.00000E+01
 -1      2884 2.00000E+01
 -1      2885 2.00000E+01
 -1      2886 2.00000E+01
 -1      2887 2.00000E+01
 -1      2888 2.00000E+01
 -1      2889 2.00000E+01
 -1      2890 2.00000E+01
 -1      2891 2.00000E+01
 -1      2892 2.00000E+01
 -1      2893 2.00000E+01
 -1      2894 2.00000E+01
 -1      2895 2.00000E+01
 -1      2896 2.00000E+01
 -1      2897 2.00000E+01
 -1      2898 2.00000E+01
 -1      2899 2.00000E+01
 -1      2900 2.00000E+01
 -1      2901 2.00000E+01
 -1      2902 2.00000E+01
 -1      2903 2.00000E+01
 -1      2904 2.00000E+01
 -1      2905 2.00000E+01
 -1      2906 2.00000E+01
 -1      2907 2.00000E+01
 -1      2908 2.00000E+01
 -1      2909 2.00000E+01
 -1      2910 2.00000E+01
 -1      2911 2.00000E+01
 -1      2912 2.00000E+01
 -1      2913 2.00000E+01
 -1      2914 2.00000E+01
 -1      2915 2.00000E+01
 -1      2916 2.00000E+01
 -1      2917 2.00000E+01
 -1      2918 2.00000E+01
 -1      2919 2.00000E+01
 -1      2920 2.00000E+01
 -1      2921 2.00000E+01
 -1      2922 2.00000E+01
 -1      2923 2.00000E+01
 -1      2924 2.00000E+01
 -1      2925 2.00000E+01
 -1      2926 2.00000E+01
 -1      2927 2.00000E+01
 -1      2928 2.00000E+01
 -1      2929 2.00000E+01
 -1      2930 2.00000E+01
 -1      2931 2.00000E+01
 -1      2932 2.00000E+01
 -1      2933 2.00000E+01
 -1      2934 2.00000E+01
 -1      2935 2.00000E+01
 -1      2936 2.00000E+01
 -1      2937 2.00000E+01
 -1      2938 2.00000E+01
 -1      2939 2.00000E+01
 -1      2940 2.00000E+01
 -1      2941 2.00000E+01
 -1      2942 2.00000E+01
 -1      2943 2.00000E+01
 -1      2944 2.00000E+01
 -1      2945 2.00000E+01
 -1      2946 2.00000E+01
 -1      2947 2.00000E+01
 -1      2948 2.00000E+01
 -1      2949 2.00000E+01
 -1      2950 2.00000E+01
 -1      2951 2.00000E+01
 -1      2952 2.00000E+01
 -1      2953 2.00000E+01
 -1      2954 2.00000E+01
 -1      2955 2.00000E+01
 -1      2956 2.00000E+01
 -1      2957 2.00000E+01
 -1      2958 2.00000E+01
 -1      2959 2.00000E+01
 -1      2960 2.00000E+01
 -1      2961 2.00000E+01
 -1      2962 2.00000E+01
 -1      2963 2.00000E+01
 -1      2964 2.00000E+01
 -1      2965 2.00000E+01
 -1      2966 2.00000E+01
 -1      2967 2.00000E+01
 -1      2968 2.00000E+01
 -1      2969 2.00000E+01
 -1      2970 2.00000E+01
 -1      2971 2.00000E+01
 -1      2972 2.00000E+01
 -1      2973 2.00000E+01
 -1      2974 2.00000E+01
 -1      2975 2.00000E+01
 -1      2976 2.00000E+01
 -1      2977 2.00000E+01
 -1      2978 2.00000E+01
 -1      2979 2.00000E+01
 -1      2980 2.00000E+01
 -1      2981 2.00000E+01
 -1      2982 2.00000E+01
 -1      2983 2.00000E+01
 -1      2984 2.00000E+01
 -1      2985 2.00000E+01
 -1      2986 2.00000E+01
 -1      2987 2.00000E+01
 -1      2988 2.00000E+01
 -1      2989 2.00000E+01
 -1      2990 2.00000E+01
 -1      2991 2.00000E+01
 -1      2992 2.00000E+01
 -1      2993 2.00000E+01
 -1      2994 2.00000E+01
 -1      2995 2.00000E+01
 -1      2996 2.00000E+01
 -1      2997 2.00000E+01
 -1      2998 2.00000E+01
 -1      2999 2.00000E+01
 -1      3000 2.00000E+01
 -1      3001 2.00000E+01
 -1      3002 2.00000E+01
 -1      3003 2.00000E+01
 -1      3004 2.00000E+01
 -1      3005 2.00000E+01
 -1      3006 2.00000E+01
 -1      3007 2.00000E+01
 -1      3008 2.00000E+01
 -1      3009 2.00000E+01
 -1      3010 2.00000E+01
 -1      3011 2.00000E+01
 -1      3012 2.00000E+01
 -1      3013 2.00000E+01
 -1      3014 2.00000E+01
 -1      3015 2.00000E+01
 -1      3016 2.00000E+01
 -1      3017 2.00000E+01
 -1      3018 2.00000E+01
 -1      3019 2.00000E+01
 -1      3020 2.00000E+01
 -1      3021 2.00000E+01
 -1      3022 2.00000E+01
 -1      3023 2.00000E+01
 -1      3024 2.00000E+01
 -1      3025 2.00000E+01
 -1      3026 2.00000E+01
 -1      3027 2.00000E+01
 -1      3028 2.00000E+01
 -1      3029 2.00000E+01
 -1      3030 2.00000E+01
 -1      3031 2.00000E+01
 -1      3032 2.00000E+01
 -1      3033 2.00000E+01
 -1      3034 2.00000E+01
 -1      3035 2.00000E+01
 -1      3036 2.00000E+01
 -1      3037 2.00000E+01
 -1      3038 2.00000E+01
 -1      3039 2.00000E+01
 -1      3040 2.00000E+01
 -1      3041 2.00000E+01
 -1      3042 2.00000E+01
 -1      3043 2.00000E+01
 -1      3044 2.00000E+01
 -1      3045 2.00000E+01
 -1      3046 2.00000E+01
 -1      3047 2.00000E+01
 -1      3048 2.00000E+01
 -1      3049 2.00000E+01
 -1      3050 2.00000E+01
 -1      3051 2.00000E+01
 -1      3052 2.00000E+01
 -1      3053 2.00000E+01
 -1      3054 2.00000E+01
 -1      3055 2.00000E+01
 -1      3056 2.00000E+01
 -1      3057 2.00000E+01
 -1      3058 2.00000E+01
 -1      3059 2.00000E+01
 -1      3060 2.00000E+01
 -1      3061 2.00000E+01
 -1      3062 2.00000E+01
 -1      3063 2.00000E+01
 -1      3064 2.00000E+01
 -1      3065 2.00000E+01
 -1      3066 2.00000E+01
 -1      3067 2.00000E+01
 -1      3068 2.00000E+01
 -1      3069 2.00000E+01
 -1      3070 2.00000E+01
 -1      3071 2.00000E+01
 -1      3072 2.00000E+01
 -1      3073 2.00000E+01
 -1      3074 2.00000E+01
 -1      3075 2.00000E+01
 -1      3076 2.00000E+01
 -1      3077 2.00000E+01
 -1      3078 2.00000E+01
 -1      3079 2.00000E+01
 -1      3080 2.00000E+01
 -1      3081 2.00000E+01
 -1      3082 2.00000E+01
 -1      3083 2.00000E+01
 -1      3084 2.00000E+01
 -1      3085 2.00000E+01
 -1      3086 2.00000E+01
 -1      3087 2.00000E+01
 -1      3088 2.00000E+01
 -1      3089 2.00000E+01
 -1      3090 2.00000E+01
 -1      3091 2.00000E+01
 -1      3092 2.00000E+01
 -1      3093 2.00000E+01
 -1      3094 2.00000E+01
 -1      3095 2.00000E+01
 -1      3096 2.00000E+01
 -1      3097 2.00000E+01
 -1      3098 2.00000E+01
 -1      3099 2.00000E+01
 -1      3100 2.00000E+01
 -1      3101 2.00000E+01
 -1      3102 2.00000E+01
 -1      3103 2.00000E+01
 -1      3104 2.00000E+01
 -1      3105 2.00000E+01
 -1      3106 2.00000E+01
 -1      3107 2.00000E+01
 -1      3108 2.00000E+01
 -1      3109 2.00000E+01
 -1      3110 2.00000E+01
 -1      3111 2.00000E+01
 -1      3112 2.00000E+01
 -1      3113 2.00000E+01
 -1      3114 2.00000E+01
 -1      3115 2.00000E+01
 -1      3116 2.00000E+01
 -1      3117 2.00000E+01
 -1      3118 2.00000E+01
 -1      3119 2.00000E+01
 -1      3120 2.00000E+01
 -1      3121 2.00000E+01
 -1      3122 2.00000E+01
 -1      3123 2.00000E+01
 -1      3124 2.00000E+01
 -1      3125 2.00000E+01
 -1      3126 2.00000E+01
 -1      3127 2.00000E+01
 -1      3128 2.00000E+01
 -1      3129 2.00000E+01
 -1      3130 2.00000E+01
 -1      3131 2.00000E+01
 -1      3132 2.00000E+01
 -1      3133 2.00000E+01
 -1      3134 2.00000E+01
 -1      3135 2.00000E+01
 -1      3136 2.00000E+01
 -1      3137 2.00000E+01
 -1      3138 2.00000E+01
 -1      3139 2.00000E+01
 -1      3140 2.00000E+01
 -1      3141 2.00000E+01
 -1      3142 2.00000E+01
 -1      3143 2.00000E+01
 -1      3144 2.00000E+01
 -1      3145 2.00000E+01
 -1      3146 2.00000E+01
 -1      3147 2.00000E+01
 -1      3148 2.00000E+01
 -1      3149 2.00000E+01
 -1      3150 2.00000E+01
 -1      3151 2.00000E+01
 -1      3152 2.00000E+01
 -1      3153 2.00000E+01
 -1      3154 2.00000E+01
 -1      3155 2.00000E+01
 -1      3156 2.00000E+01
 -1      3157 2.00000E+01
 -1      3158 2.00000E+01
 -1      3159 2.00000E+01
 -1      3160 2.00000E+01
 -1      3161 2.00000E+01
 -1      3162 2.00000E+01
 -1      3163 2.00000E+01
 -1      3164 2.00000E+01
 -1      3165 2.00000E+01
 -1      3166 2.00000E+01
 -1      3167 2.00000E+01
 -1      3168 2.00000E+01
 -1      3169 2.00000E+01
 -1      3170 2.00000E+01
 -1      3171 2.00000E+01
 -1      3172 2.00000E+01
 -1      3173 2.00000E+01
 -1      3174 2.00000E+01
 -1      3175 2.00000E+01
 -1      3176 2.00000E+01
 -1      3177 2.00000E+01
 -1      3178 2.00000E+01
 -1      3179 2.00000E+01
 -1      3180 2.00000E+01
 -1      3181 2.00000E+01
 -1      3182 2.00000E+01
 -1      3183 2.00000E+01
 -1      3184 2.00000E+01
 -1      3185 2.00000E+01
 -1      3186 2.00000E+01
 -1      3187 2.00000E+01
 -1      3188 2.00000E+01
 -1      3189 2.00000E+01
 -1      3190 2.00000E+01
 -1      3191 2.00000E+01
 -1      3192 2.00000E+01
 -1      3193 2.00000E+01
 -1      3194 2.00000E+01
 -1      3195 2.00000E+01
 -1      3196 2.00000E+01
 -1      3197 2.00000E+01
 -1      3198 2.00000E+01
 -1      3199 2.00000E+01
 -1      3200 2.00000E+01
 -1      3201 2.00000E+01
 -1      3202 2.00000E+01
 -1      3203 2.00000E+01
 -1      3204 2.00000E+01
 -1      3205 2.00000E+01
 -1      3206 2.00000E+01
 -1      3207 2.00000E+01
 -1      3208 2.00000E+01
 -1      3209 2.00000E+01
 -1      3210 2.00000E+01
 -1      3211 2.00000E+01
 -1      3212 2.00000E+01
 -1      3213 2.00000E+01
 -1      3214 2.00000E+01
 -1      3215 2.00000E+01
 -1      3216 2.00000E+01
 -1      3217 2.00000E+01
 -1      3218 2.00000E+01
 -1      3219 2.00000E+01
 -1      3220 2.00000E+01
 -1      3221 2.00000E+01
 -1      3222 2.00000E+01
 -1      3223 2.00000E+01
 -1      3224 2.00000E+01
 -1      3225 2.00000E+01
 -1      3226 2.00000E+01
 -1      3227 2.00000E+01
 -1      3228 2.00000E+01
 -1      3229 2.00000E+01
 -1      3230 2.00000E+01
 -1      3231 2.00000E+01
 -1      3232 2.00000E+01
 -1      3233 2.00000E+01
 -1      3234 2.00000E+01
 -1      3235 2.00000E+01
 -1      3236 2.00000E+01
 -1      3237 2.00000E+01
 -1      3238 2.00000E+01
 -1      3239 2.00000E+01
 -1      3240 2.00000E+01
 -1      3241 2.00000E+01
 -1      3242 2.00000E+01
 -1      3243 2.00000E+01
 -1      3244 2.00000E+01
 -1      3245 2.00000E+01
 -1      3246 2.00000E+01
 -1      3247 2.00000E+01
 -1      3248 2.00000E+01
 -1      3249 2.00000E+01
 -1      3250 2.00000E+01
 -1      3251 2.00000E+01
 -1      3252 2.00000E+01
 -1      3253 2.00000E+01
 -1      3254 2.00000E+01
 -1      3255 2.00000E+01
 -1      3256 2.00000E+01
 -1      3257 2.00000E+01
 -1      3258 2.00000E+01
 -1      3259 2.00000E+01
 -1      3260 2.00000E+01
 -1      3261 2.00000E+01
 -1      3262 2.00000E+01
 -1      3263 2.00000E+01
 -1      3264 2.00000E+01
 -1      3265 2.00000E+01
 -1      3266 2.00000E+01
 -1      3267 2.00000E+01
 -1      3268 2.00000E+01
 -1      3269 2.00000E+01
 -1      3270 2.00000E+01
 -1      3271 2.00000E+01
 -1      3272 2.00000E+01
 -1      3273 2.00000E+01
 -1      3274 2.00000E+01
 -1      3275 2.00000E+01
 -1      3276 2.00000E+01
 -1      3277 2.00000E+01
 -1      3278 2.00000E+01
 -1      3279 2.00000E+01
 -1      3280 2.00000E+01
 -1      3281 2.00000E+01
 -1      3282 2.00000E+01
 -1      3283 2.00000E+01
 -1      3284 2.00000E+01
 -1      3285 2.00000E+01
 -1      3286 2.00000E+01
 -1      3287 2.00000E+01
 -1      3288 2.00000E+01
 -1      3289 2.00000E+01
 -1      3290 2.00000E+01
 -1      3291 2.00000E+01
 -1      3292 2.00000E+01
 -1      3293 2.00000E+01
 -1      3294 2.00000E+01
 -1      3295 2.00000E+01
 -1      3296 2.00000E+01
 -1      3297 2.00000E+01
 -1      3298 2.00000E+01
 -1      3299 2.00000E+01
 -1      3300 2.00000E+01
 -1      3301 2.00000E+01
 -1      3302 2.00000E+01
 -1      3303 2.00000E+01
 -1      3304 2.00000E+01
 -1      3305 2.00000E+01
 -1      3306 2.00000E+01
 -1      3307 2.00000E+01
 -1      3308 2.00000E+01
 -1      3309 2.00000E+01
 -1      3310 2.00000E+01
 -1      3311 2.00000E+01
 -1      3312 2.00000E+01
 -1      3313 2.00000E+01
 -1      3314 2.00000E+01
 -1      3315 2.00000E+01
 -1      3316 2.00000E+01
 -1      3317 2.00000E+01
 -1      3318 2.00000E+01
 -1      3319 2.00000E+01
 -1      3320 2.00000E+01
 -1      3321 2.00000E+01
 -1      3322 2.00000E+01
 -1      3323 2.00000E+01
 -1      3324 2.00000E+01
 -1      3325 2.00000E+01
 -1      3326 2.00000E+01
 -1      3327 2.00000E+01
 -1      3328 2.00000E+01
 -1      3329 2.00000E+01
 -1      3330 2.00000E+01
 -1      3331 2.00000E+01
 -1      3332 2.00000E+01
 -1      3333 2.00000E+01
 -1      3334 2.00000E+01
 -1      3335 2.00000E+01
 -1      3336 2.00000E+01
 -1      3337 2.00000E+01
 -1      3338 2.00000E+01
 -1      3339 2.00000E+01
 -1      3340 2.00000E+01
 -1      3341 2.00000E+01
 -1      3342 2.00000E+01
 -1      3343 2.00000E+01
 -1      3344 2.00000E+01
 -1      3345 2.00000E+01
 -1      3346 2.00000E+01
 -1      3347 2.00000E+01
 -1      3348 2.00000E+01
 -1      3349 2.00000E+01
 -1      3350 2.00000E+01
 -1      3351 2.00000E+01
 -1      3352 2.00000E+01
 -1      3353 2.00000E+01
 -1      3354 2.00000E+01
 -1      3355 2.00000E+01
 -1      3356 2.00000E+01
 -1      3357 2.00000E+01
 -1      3358 2.00000E+01
 -1      3359 2.00000E+01
 -1      3360 2.00000E+01
 -1      3361 2.00000E+01
 -1      3362 2.00000E+01
 -1      3363 2.00000E+01
 -1      3364 2.00000E+01
 -1      3365 2.00000E+01
 -1      3366 2.00000E+01
 -1      3367 2.00000E+01
 -1      3368 2.00000E+01
 -1      3369 2.00000E+01
 -1      3370 2.00000E+01
 -1      3371 2.00000E+01
 -1      3372 2.00000E+01
 -1      3373 2.00000E+01
 -1      3374 2.00000E+01
 -1      3375 2.00000E+01
 -1      3376 2.00000E+01
 -1      3377 2.00000E+01
 -1      3378 2.00000E+01
 -1      3379 2.00000E+01
 -1      3380 2.00000E+01
 -1      3381 2.00000E+01
 -1      3382 2.00000E+01
 -1      3383 2.00000E+01
 -1      3384 2.00000E+01
 -1      3385 2.00000E+01
 -1      3386 2.00000E+01
 -1      3387 2.00000E+01
 -1      3388 2.00000E+01
 -1      3389 2.00000E+01
 -1      3390 2.00000E+01
 -1      3391 2.00000E+01
 -1      3392 2.00000E+01
 -1      3393 2.00000E+01
 -1      3394 2.00000E+01
 -1      3395 2.00000E+01
 -1      3396 2.00000E+01
 -1      3397 2.00000E+01
 -1      3398 2.00000E+01
 -1      3399 2.00000E+01
 -1      3400 2.00000E+01
 -1      3401 2.00000E+01
 -1      3402 2.00000E+01
 -1      3403 2.00000E+01
 -1      3404 2.00000E+01
 -1      3405 2.00000E+01
 -1      3406 2.00000E+01
 -1      3407 2.00000E+01
 -1      3408 2.00000E+01
 -1      3409 2.00000E+01
 -1      3410 2.00000E+01
 -1      3411 2.00000E+01
 -1      3412 2.00000E+01
 -1      3413 2.00000E+01
 -1      3414 2.00000E+01
 -1      3415 2.00000E+01
 -1      3416 2.00000E+01
 -1      3417 2.00000E+01
 -1      3418 2.00000E+01
 -1      3419 2.00000E+01
 -1      3420 2.00000E+01
 -1      3421 2.00000E+01
 -1      3422 2.00000E+01
 -1      3423 2.00000E+01
 -1      3424 2.00000E+01
 -1      3425 2.00000E+01
 -1      3426 2.00000E+01
 -1      3427 2.00000E+01
 -1      3428 2.00000E+01
 -1      3429 2.00000E+01
 -1      3430 2.00000E+01
 -1      3431 2.00000E+01
 -1      3432 2.00000E+01
 -1      3433 2.00000E+01
 -1      3434 2.00000E+01
 -1      3435 2.00000E+01
 -1      3436 2.00000E+01
 -1      3437 2.00000E+01
 -1      3438 2.00000E+01
 -1      3439 2.00000E+01
 -1      3440 2.00000E+01
 -1      3441 2.00000E+01
 -1      3442 2.00000E+01
 -1      3443 2.00000E+01
 -1      3444 2.00000E+01
 -1      3445 2.00000E+01
 -1      3446 2.00000E+01
 -1      3447 2.00000E+01
 -1      3448 2.00000E+01
 -1      3449 2.00000E+01
 -1      3450 2.00000E+01
 -1      3451 2.00000E+01
 -1      3452 2.00000E+01
 -1      3453 2.00000E+01
 -1      3454 2.00000E+01
 -1      3455 2.00000E+01
 -1      3456 2.00000E+01
 -1      3457 2.00000E+01
 -1      3458 2.00000E+01
 -1      3459 2.00000E+01
 -1      3460 2.00000E+01
 -1      3461 2.00000E+01
 -1      3462 2.00000E+01
 -1      3463 2.00000E+01
 -1      3464 2.00000E+01
 -1      3465 2.00000E+01
 -1      3466 2.00000E+01
 -1      3467 2.00000E+01
 -1      3468 2.00000E+01
 -1      3469 2.00000E+01
 -1      3470 2.00000E+01
 -1      3471 2.00000E+01
 -1      3472 2.00000E+01
 -1      3473 2.00000E+01
 -1      3474 2.00000E+01
 -1      3475 2.00000E+01
 -1      3476 2.00000E+01
 -1      3477 2.00000E+01
 -1      3478 2.00000E+01
 -1      3479 2.00000E+01
 -1      3480 2.00000E+01
 -1      3481 2.00000E+01
 -1      3482 2.00000E+01
 -1      3483 2.00000E+01
 -1      3484 2.00000E+01
 -1      3485 2.00000E+01
 -1      3486 2.00000E+01
 -1      3487 2.00000E+01
 -1      3488 2.00000E+01
 -1      3489 2.00000E+01
 -1      3490 2.00000E+01
 -1      3491 2.00000E+01
 -1      3492 2.00000E+01
 -1      3493 2.00000E+01
 -1      3494 2.00000E+01
 -1      3495 2.00000E+01
 -1      3496 2.00000E+01
 -1      3497 2.00000E+01
 -1      3498 2.00000E+01
 -1      3499 2.00000E+01
 -1      3500 2.00000E+01
 -1      3501 2.00000E+01
 -1      3502 2.00000E+01
 -1      3503 2.00000E+01
 -1      3504 2.00000E+01
 -1      3505 2.00000E+01
 -1      3506 2.00000E+01
 -1      3507 2.00000E+01
 -1      3508 2.00000E+01
 -1      3509 2.00000E+01
 -1      3510 2.00000E+01
 -1      3511 2.00000E+01
 -1      3512 2.00000E+01
 -1      3513 2.00000E+01
 -1      3514 2.00000E+01
 -1      3515 2.00000E+01
 -1      3516 2.00000E+01
 -1      3517 2.00000E+01
 -1      3518 2.00000E+01
 -1      3519 2.00000E+01
 -1      3520 2.00000E+01
 -1      3521 2.00000E+01
 -1      3522 2.00000E+01
 -1      3523 2.00000E+01
 -1      3524 2.00000E+01
 -1      3525 2.00000E+01
 -1      3526 2.00000E+01
 -1      3527 2.00000E+01
 -1      3528 2.00000E+01
 -1      3529 2.00000E+01
 -1      3530 2.00000E+01
 -1      3531 2.00000E+01
 -1      3532 2.00000E+01
 -1      3533 2.00000E+01
 -1      3534 2.00000E+01
 -1      3535 2.00000E+01
 -1      3536 2.00000E+01
 -1      3537 2.00000E+01
 -1      3538 2.00000E+01
 -1      3539 2.00000E+01
 -1      3540 2.00000E+01
 -1      3541 2.00000E+01
 -1      3542 2.00000E+01
 -1      3543 2.00000E+01
 -1      3544 2.00000E+01
 -1      3545 2.00000E+01
 -1      3546 2.00000E+01
 -1      3547 2.00000E+01
 -1      3548 2.00000E+01
 -1      3549 2.00000E+01
 -1      3550 2.00000E+01
 -1      3551 2.00000E+01
 -1      3552 2.00000E+01
 -1      3553 2.00000E+01
 -1      3554 2.00000E+01
 -1      3555 2.00000E+01
 -1      3556 2.00000E+01
 -1      3557 2.00000E+01
 -1      3558 2.00000E+01
 -1      3559 2.00000E+01
 -1      3560 2.00000E+01
 -1      3561 2.00000E+01
 -1      3562 2.00000E+01
 -1      3563 2.00000E+01
 -1      3564 2.00000E+01
 -1      3565 2.00000E+01
 -1      3566 2.00000E+01
 -1      3567 2.00000E+01
 -1      3568 2.00000E+01
 -1      3569 2.00000E+01
 -1      3570 2.00000E+01
 -1      3571 2.00000E+01
 -1      3572 2.00000E+01
 -1      3573 2.00000E+01
 -1      3574 2.00000E+01
 -1      3575 2.00000E+01
 -1      3576 2.00000E+01
 -1      3577 2.00000E+01
 -1      3578 2.00000E+01
 -1      3579 2.00000E+01
 -1      3580 2.00000E+01
 -1      3581 2.00000E+01
 -1      3582 2.00000E+01
 -1      3583 2.00000E+01
 -1      3584 2.00000E+01
 -1      3585 2.00000E+01
 -1      3586 2.00000E+01
 -1      3587 2.00000E+01
 -1      3588 2.00000E+01
 -1      3589 2.00000E+01
 -1      3590 2.00000E+01
 -1      3591 2.00000E+01
 -1      3592 2.00000E+01
 -1      3593 2.00000E+01
 -1      3594 2.00000E+01
 -1      3595 2.00000E+01
 -1      3596 2.00000E+01
 -1      3597 2.00000E+01
 -1      3598 2.00000E+01
 -1      3599 2.00000E+01
 -1      3600 2.00000E+01
 -1      3601 2.00000E+01
 -1      3602 2.00000E+01
 -1      3603 2.00000E+01
 -1      3604 2.00000E+01
 -1      3605 2.00000E+01
 -1      3606 2.00000E+01
 -1      3607 2.00000E+01
 -1      3608 2.00000E+01
 -1      3609 2.00000E+01
 -1      3610 2.00000E+01
 -1      3611 2.00000E+01
 -1      3612 2.00000E+01
 -1      3613 2.00000E+01
 -1      3614 2.00000E+01
 -1      3615 2.00000E+01
 -1      3616 2.00000E+01
 -1      3617 2.00000E+01
 -1      3618 2.00000E+01
 -1      3619 2.00000E+01
 -1      3620 2.00000E+01
 -1      3621 2.00000E+01
 -1      3622 2.00000E+01
 -1      3623 2.00000E+01
 -1      3624 2.00000E+01
 -1      3625 2.00000E+01
 -1      3626 2.00000E+01
 -1      3627 2.00000E+01
 -1      3628 2.00000E+01
 -1      3629 2.00000E+01
 -1      3630 2.00000E+01
 -1      3631 2.00000E+01
 -1      3632 2.00000E+01
 -1      3633 2.00000E+01
 -1      3634 2.00000E+01
 -1      3635 2.00000E+01
 -1      3636 2.00000E+01
 -1      3637 2.00000E+01
 -1      3638 2.00000E+01
 -1      3639 2.00000E+01
 -1      3640 2.00000E+01
 -1      3641 2.00000E+01
 -1      3642 2.00000E+01
 -1      3643 2.00000E+01
 -1      3644 2.00000E+01
 -1      3645 2.00000E+01
 -1      3646 2.00000E+01
 -1      3647 2.00000E+01
 -1      3648 2.00000E+01
 -1      3649 2.00000E+01
 -1      3650 2.00000E+01
 -1      3651 2.00000E+01
 -1      3652 2.00000E+01
 -1      3653 2.00000E+01
 -1      3654 2.00000E+01
 -1      3655 2.00000E+01
 -1      3656 2.00000E+01
 -1      3657 2.00000E+01
 -1      3658 2.00000E+01
 -1      3659 2.00000E+01
 -1      3660 2.00000E+01
 -1      3661 2.00000E+01
 -1      3662 2.00000E+01
 -1      3663 2.00000E+01
 -1      3664 2.00000E+01
 -1      3665 2.00000E+01
 -1      3666 2.00000E+01
 -1      3667 2.00000E+01
 -1      3668 2.00000E+01
 -1      3669 2.00000E+01
 -1      3670 2.00000E+01
 -1      3671 2.00000E+01
 -1      3672 2.00000E+01
 -1      3673 2.00000E+01
 -1      3674 2.00000E+01
 -1      3675 2.00000E+01
 -1      3676 2.00000E+01
 -1      3677 2.00000E+01
 -1      3678 2.00000E+01
 -1      3679 2.00000E+01
 -1      3680 2.00000E+01
 -1      3681 2.00000E+01
 -1      3682 2.00000E+01
 -1      3683 2.00000E+01
 -1      3684 2.00000E+01
 -1      3685 2.00000E+01
 -1      3686 2.00000E+01
 -1      3687 2.00000E+01
 -1      3688 2.00000E+01
 -1      3689 2.00000E+01
 -1      3690 2.00000E+01
 -1      3691 2.00000E+01
 -1      3692 2.00000E+01
 -1      3693 2.00000E+01
 -1      3694 2.00000E+01
 -1      3695 2.00000E+01
 -1      3696 2.00000E+01
 -1      3697 2.00000E+01
 -1      3698 2.00000E+01
 -1      3699 2.00000E+01
 -1      3700 2.00000E+01
 -1      3701 2.00000E+01
 -1      3702 2.00000E+01
 -1      3703 2.00000E+01
 -1      3704 2.00000E+01
 -1      3705 2.00000E+01
 -1      3706 2.00000E+01
 -1      3707 2.00000E+01
 -1      3708 2.00000E+01
 -1      3709 2.00000E+01
 -1      3710 2.00000E+01
 -1      3711 2.00000E+01
 -1      3712 2.00000E+01
 -1      3713 2.00000E+01
 -1      3714 2.00000E+01
 -1      3715 2.00000E+01
 -1      3716 2.00000E+01
 -1      3717 2.00000E+01
 -1      3718 2.00000E+01
 -1      3719 2.00000E+01
 -1      3720 2.00000E+01
 -1      3721 2.00000E+01
 -1      3722 2.00000E+01
 -1      3723 2.00000E+01
 -1      3724 2.00000E+01
 -1      3725 2.00000E+01
 -1      3726 2.00000E+01
 -1      3727 2.00000E+01
 -1      3728 2.00000E+01
 -1      3729 2.00000E+01
 -1      3730 2.00000E+01
 -1      3731 2.00000E+01
 -1      3732 2.00000E+01
 -1      3733 2.00000E+01
 -1      3734 2.00000E+01
 -1      3735 2.00000E+01
 -1      3736 2.00000E+01
 -1      3737 2.00000E+01
 -1      3738 2.00000E+01
 -1      3739 2.00000E+01
 -1      3740 2.00000E+01
 -1      3741 2.00000E+01
 -1      3742 2.00000E+01
 -1      3743 2.00000E+01
 -1      3744 2.00000E+01
 -1      3745 2.00000E+01
 -1      3746 2.00000E+01
 -1      3747 2.00000E+01
 -1      3748 2.00000E+01
 -1      3749 2.00000E+01
 -1      3750 2.00000E+01
 -1      3751 2.00000E+01
 -1      3752 2.00000E+01
 -1      3753 2.00000E+01
 -1      3754 2.00000E+01
 -1      3755 2.00000E+01
 -1      3756 2.00000E+01
 -1      3757 2.00000E+01
 -1      3758 2.00000E+01
 -1      3759 2.00000E+01
 -1      3760 2.00000E+01
 -1      3761 2.00000E+01
 -1      3762 2.00000E+01
 -1      3763 2.00000E+01
 -1      3764 2.00000E+01
 -1      3765 2.00000E+01
 -1      3766 2.00000E+01
 -1      3767 2.00000E+01
 -1      3768 2.00000E+01
 -1      3769 2.00000E+01
 -1      3770 2.00000E+01
 -1      3771 2.00000E+01
 -1      3772 2.00000E+01
 -1      3773 2.00000E+01
 -1      3774 2.00000E+01
 -1      3775 2.00000E+01
 -1      3776 2.00000E+01
 -1      3777 2.00000E+01
 -1      3778 2.00000E+01
 -1      3779 2.00000E+01
 -1      3780 2.00000E+01
 -1      3781 2.00000E+01
 -1      3782 2.00000E+01
 -1      3783 2.00000E+01
 -1      3784 2.00000E+01
 -1      3785 2.00000E+01
 -1      3786 2.00000E+01
 -1      3787 2.00000E+01
 -1      3788 2.00000E+01
 -1      3789 2.00000E+01
 -1      3790 2.00000E+01
 -1      3791 2.00000E+01
 -1      3792 2.00000E+01
 -1      3793 2.00000E+01
 -1      3794 2.00000E+01
 -1      3795 2.00000E+01
 -1      3796 2.00000E+01
 -1      3797 2.00000E+01
 -1      3798 2.00000E+01
 -1      3799 2.00000E+01
 -1      3800 2.00000E+01
 -1      3801 2.00000E+01
 -1      3802 2.00000E+01
 -1      3803 2.00000E+01
 -1      3804 2.00000E+01
 -1      3805 2.00000E+01
 -1      3806 2.00000E+01
 -1      3807 2.00000E+01
 -1      3808 2.00000E+01
 -1      3809 2.00000E+01
 -1      3810 2.00000E+01
 -1      3811 2.00000E+01
 -1      3812 2.00000E+01
 -1      3813 2.00000E+01
 -1      3814 2.00000E+01
 -1      3815 2.00000E+01
 -1      3816 2.00000E+01
 -1      3817 2.00000E+01
 -1      3818 2.00000E+01
 -1      3819 2.00000E+01
 -1      3820 2.00000E+01
 -1      3821 2.00000E+01
 -1      3822 2.00000E+01
 -1      3823 2.00000E+01
 -1      3824 2.00000E+01
 -1      3825 2.00000E+01
 -1      3826 2.00000E+01
 -1      3827 2.00000E+01
 -1      3828 2.00000E+01
 -1      3829 2.00000E+01
 -1      3830 2.00000E+01
 -1      3831 2.00000E+01
 -1      3832 2.00000E+01
 -1      3833 2.00000E+01
 -1      3834 2.00000E+01
 -1      3835 2.00000E+01
 -1      3836 2.00000E+01
 -1      3837 2.00000E+01
 -1      3838 2.00000E+01
 -1      3839 2.00000E+01
 -1      3840 2.00000E+01
 -1      3841 2.00000E+01
 -1      3842 2.00000E+01
 -1      3843 2.00000E+01
 -1      3844 2.00000E+01
 -1      3845 2.00000E+01
 -1      3846 2.00000E+01
 -1      3847 2.00000E+01
 -1      3848 2.00000E+01
 -1      3849 2.00000E+01
 -1      3850 2.00000E+01
 -1      3851 2.00000E+01
 -1      3852 2.00000E+01
 -1      3853 2.00000E+01
 -1      3854 2.00000E+01
 -1      3855 2.00000E+01
 -1      3856 2.00000E+01
 -1      3857 2.00000E+01
 -1      3858 2.00000E+01
 -1      3859 2.00000E+01
 -1      3860 2.00000E+01
 -1      3861 2.00000E+01
 -1      3862 2.00000E+01
 -1      3863 2.00000E+01
 -1      3864 2.00000E+01
 -1      3865 2.00000E+01
 -1      3866 2.00000E+01
 -1      3867 2.00000E+01
 -1      3868 2.00000E+01
 -1      3869 2.00000E+01
 -1      3870 2.00000E+01
 -1      3871 2.00000E+01
 -1      3872 2.00000E+01
 -1      3873 2.00000E+01
 -1      3874 2.00000E+01
 -1      3875 2.00000E+01
 -1      3876 2.00000E+01
 -1      3877 2.00000E+01
 -1      3878 2.00000E+01
 -1      3879 2.00000E+01
 -1      3880 2.00000E+01
 -1      3881 2.00000E+01
 -1      3882 2.00000E+01
 -1      3883 2.00000E+01
 -1      3884 2.00000E+01
 -1      3885 2.00000E+01
 -1      3886 2.00000E+01
 -1      3887 2.00000E+01
 -1      3888 2.00000E+01
 -1      3889 2.00000E+01
 -1      3890 2.00000E+01
 -1      3891 2.00000E+01
 -1      3892 2.00000E+01
 -1      3893 2.00000E+01
 -1      3894 2.00000E+01
 -1      3895 2.00000E+01
 -1      3896 2.00000E+01
 -1      3897 2.00000E+01
 -1      3898 2.00000E+01
 -1      3899 2.00000E+01
 -1      3900 2.00000E+01
 -1      3901 2.00000E+01
 -1      3902 2.00000E+01
 -1      3903 2.00000E+01
 -1      3904 2.00000E+01
 -1      3905 2.00000E+01
 -1      3906 2.00000E+01
 -1      3907 2.00000E+01
 -1      3908 2.00000E+01
 -1      3909 2.00000E+01
 -1      3910 2.00000E+01
 -1      3911 2.00000E+01
 -1      3912 2.00000E+01
 -1      3913 2.00000E+01
 -1      3914 2.00000E+01
 -1      3915 2.00000E+01
 -1      3916 2.00000E+01
 -1      3917 2.00000E+01
 -1      3918 2.00000E+01
 -1      3919 2.00000E+01
 -1      3920 2.00000E+01
 -1      3921 2.00000E+01
 -1      3922 2.00000E+01
 -1      3923 2.00000E+01
 -1      3924 2.00000E+01
 -1      3925 2.00000E+01
 -1      3926 2.00000E+01
 -1      3927 2.00000E+01
 -1      3928 2.00000E+01
 -1      3929 2.00000E+01
 -1      3930 2.00000E+01
 -1      3931 2.00000E+01
 -1      3932 2.00000E+01
 -1      3933 2.00000E+01
 -1      3934 2.00000E+01
 -1      3935 2.00000E+01
 -1      3936 2.00000E+01
 -1      3937 2.00000E+01
 -1      3938 2.00000E+01
 -1      3939 2.00000E+01
 -1      3940 2.00000E+01
 -1      3941 2.00000E+01
 -1      3942 2.00000E+01
 -1      3943 2.00000E+01
 -1      3944 2.00000E+01
 -1      3945 2.00000E+01
 -1      3946 2.00000E+01
 -1      3947 2.00000E+01
 -1      3948 2.00000E+01
 -1      3949 2.00000E+01
 -1      3950 2.00000E+01
 -1      3951 2.00000E+01
 -1      3952 2.00000E+01
 -1      3953 2.00000E+01
 -1      3954 2.00000E+01
 -1      3955 2.00000E+01
 -1      3956 2.00000E+01
 -1      3957 2.00000E+01
 -1      3958 2.00000E+01
 -1      3959 2.00000E+01
 -1      3960 2.00000E+01
 -1      3961 2.00000E+01
 -1      3962 2.00000E+01
 -1      3963 2.00000E+01
 -1      3964 2.00000E+01
 -1      3965 2.00000E+01
 -1      3966 2.00000E+01
 -1      3967 2.00000E+01
 -1      3968 2.00000E+01
 -1      3969 2.00000E+01
 -1      3970 2.00000E+01
 -1      3971 2.00000E+01
 -1      3972 2.00000E+01
 -1      3973 2.00000E+01
 -1      3974 2.00000E+01
 -1      3975 2.00000E+01
 -1      3976 2.00000E+01
 -1      3977 2.00000E+01
 -1      3978 2.00000E+01
 -1      3979 2.00000E+01
 -1      3980 2.00000E+01
 -1      3981 2.00000E+01
 -1      3982 2.00000E+01
 -1      3983 2.00000E+01
 -1      3984 2.00000E+01
 -1      3985 2.00000E+01
 -1      3986 2.00000E+01
 -1      3987 2.00000E+01
 -1      3988 2.00000E+01
 -1      3989 2.00000E+01
 -1      3990 2.00000E+01
 -1      3991 2.00000E+01
 -1      3992 2.00000E+01
 -1      3993 2.00000E+01
 -1      3994 2.00000E+01
 -1      3995 2.00000E+01
 -1      3996 2.00000E+01
 -1      3997 2.00000E+01
 -1      3998 2.00000E+01
 -1      3999 2.00000E+01
 -1      4000 2.00000E+01
 -1      4001 2.00000E+01
 -1      4002 2.00000E+01
 -1      4003 2.00000E+01
 -1      4004 2.00000E+01
 -1      4005 2.00000E+01
 -1      4006 2.00000E+01
 -1      4007 2.00000E+01
 -1      4008 2.00000E+01
 -1      4009 2.00000E+01
 -1      4010 2.00000E+01
 -1      4011 2.00000E+01
 -1      4012 2.00000E+01
 -1      4013 2.00000E+01
 -1      4014 2.00000E+01
 -1      4015 2.00000E+01
 -1      4016 2.00000E+01
 -1      4017 2.00000E+01
 -1      4018 2.00000E+01
 -1      4019 2.00000E+01
 -1      4020 2.00000E+01
 -1      4021 2.00000E+01
 -1      4022 2.00000E+01
 -1      4023 2.00000E+01
 -1      4024 2.00000E+01
 -1      4025 2.00000E+01
 -1      4026 2.00000E+01
 -1      4027 2.00000E+01
 -1      4028 2.00000E+01
 -1      4029 2.00000E+01
 -1      4030 2.00000E+01
 -1      4031 2.00000E+01
 -1      4032 2.00000E+01
 -1      4033 2.00000E+01
 -1      4034 2.00000E+01
 -1      4035 2.00000E+01
 -1      4036 2.00000E+01
 -1      4037 2.00000E+01
 -1      4038 2.00000E+01
 -1      4039 2.00000E+01
 -1      4040 2.00000E+01
 -1      4041 2.00000E+01
 -1      4042 2.00000E+01
 -1      4043 2.00000E+01
 -1      4044 2.00000E+01
 -1      4045 2.00000E+01
 -1      4046 2.00000E+01
 -1      4047 2.00000E+01
 -1      4048 2.00000E+01
 -1      4049 2.00000E+01
 -1      4050 2.00000E+01
 -1      4051 2.00000E+01
 -1      4052 2.00000E+01
 -1      4053 2.00000E+01
 -1      4054 2.00000E+01
 -1      4055 2.00000E+01
 -1      4056 2.00000E+01
 -1      4057 2.00000E+01
 -1      4058 2.00000E+01
 -1      4059 2.00000E+01
 -1      4060 2.00000E+01
 -1      4061 2.00000E+01
 -1      4062 2.00000E+01
 -1      4063 2.00000E+01
 -1      4064 2.00000E+01
 -1      4065 2.00000E+01
 -1      4066 2.00000E+01
 -1      4067 2.00000E+01
 -1      4068 2.00000E+01
 -1      4069 2.00000E+01
 -1      4070 2.00000E+01
 -1      4071 2.00000E+01
 -1      4072 2.00000E+01
 -1      4073 2.00000E+01
 -1      4074 2.00000E+01
 -1      4075 2.00000E+01
 -1      4076 2.00000E+01
 -1      4077 2.00000E+01
 -1      4078 2.00000E+01
 -1      4079 2.00000E+01
 -1      4080 2.00000E+01
 -1      4081 2.00000E+01
 -1      4082 2.00000E+01
 -1      4083 2.00000E+01
 -1      4084 2.00000E+01
 -1      4085 2.00000E+01
 -1      4086 2.00000E+01
 -1      4087 2.00000E+01
 -1      4088 2.00000E+01
 -1      4089 2.00000E+01
 -1      4090 2.00000E+01
 -1      4091 2.00000E+01
 -1      4092 2.00000E+01
 -1      4093 2.00000E+01
 -1      4094 2.00000E+01
 -1      4095 2.00000E+01
 -1      4096 2.00000E+01
 -1      4097 2.00000E+01
 -1      4098 2.00000E+01
 -1      4099 2.00000E+01
 -1      4100 2.00000E+01
 -1      4101 2.00000E+01
 -1      4102 2.00000E+01
 -1      4103 2.00000E+01
 -1      4104 2.00000E+01
 -1      4105 2.00000E+01
 -1      4106 2.00000E+01
 -1      4107 2.00000E+01
 -1      4108 2.00000E+01
 -1      4109 2.00000E+01
 -1      4110 2.00000E+01
 -1      4111 2.00000E+01
 -1      4112 2.00000E+01
 -1      4113 2.00000E+01
 -1      4114 2.00000E+01
 -1      4115 2.00000E+01
 -1      4116 2.00000E+01
 -1      4117 2.00000E+01
 -1      4118 2.00000E+01
 -1      4119 2.00000E+01
 -1      4120 2.00000E+01
 -1      4121 2.00000E+01
 -1      4122 2.00000E+01
 -1      4123 2.00000E+01
 -1      4124 2.00000E+01
 -1      4125 2.00000E+01
 -1      4126 2.00000E+01
 -1      4127 2.00000E+01
 -1      4128 2.00000E+01
 -1      4129 2.00000E+01
 -1      4130 2.00000E+01
 -1      4131 2.00000E+01
 -1      4132 2.00000E+01
 -1      4133 2.00000E+01
 -1      4134 2.00000E+01
 -1      4135 2.00000E+01
 -1      4136 2.00000E+01
 -1      4137 2.00000E+01
 -1      4138 2.00000E+01
 -1      4139 2.00000E+01
 -1      4140 2.00000E+01
 -1      4141 2.00000E+01
 -1      4142 2.00000E+01
 -1      4143 2.00000E+01
 -1      4144 2.00000E+01
 -1      4145 2.00000E+01
 -1      4146 2.00000E+01
 -1      4147 2.00000E+01
 -1      4148 2.00000E+01
 -1      4149 2.00000E+01
 -1      4150 2.00000E+01
 -1      4151 2.00000E+01
 -1      4152 2.00000E+01
 -1      4153 2.00000E+01
 -1      4154 2.00000E+01
 -1      4155 2.00000E+01
 -1      4156 2.00000E+01
 -1      4157 2.00000E+01
 -1      4158 2.00000E+01
 -1      4159 2.00000E+01
 -1      4160 2.00000E+01
 -1      4161 2.00000E+01
 -1      4162 2.00000E+01
 -1      4163 2.00000E+01
 -1      4164 2.00000E+01
 -1      4165 2.00000E+01
 -1      4166 2.00000E+01
 -1      4167 2.00000E+01
 -1      4168 2.00000E+01
 -1      4169 2.00000E+01
 -1      4170 2.00000E+01
 -1      4171 2.00000E+01
 -1      4172 2.00000E+01
 -1      4173 2.00000E+01
 -1      4174 2.00000E+01
 -1      4175 2.00000E+01
 -1      4176 2.00000E+01
 -1      4177 2.00000E+01
 -1      4178 2.00000E+01
 -1      4179 2.00000E+01
 -1      4180 2.00000E+01
 -1      4181 2.00000E+01
 -1      4182 2.00000E+01
 -1      4183 2.00000E+01
 -1      4184 2.00000E+01
 -1      4185 2.00000E+01
 -1      4186 2.00000E+01
 -1      4187 2.00000E+01
 -1      4188 2.00000E+01
 -1      4189 2.00000E+01
 -1      4190 2.00000E+01
 -1      4191 2.00000E+01
 -1      4192 2.00000E+01
 -1      4193 2.00000E+01
 -1      4194 2.00000E+01
 -1      4195 2.00000E+01
 -1      4196 2.00000E+01
 -1      4197 2.00000E+01
 -1      4198 2.00000E+01
 -1      4199 2.00000E+01
 -1      4200 2.00000E+01
 -1      4201 2.00000E+01
 -1      4202 2.00000E+01
 -1      4203 2.00000E+01
 -1      4204 2.00000E+01
 -1      4205 2.00000E+01
 -1      4206 2.00000E+01
 -1      4207 2.00000E+01
 -1      4208 2.00000E+01
 -1      4209 2.00000E+01
 -1      4210 2.00000E+01
 -1      4211 2.00000E+01
 -1      4212 2.00000E+01
 -1      4213 2.00000E+01
 -1      4214 2.00000E+01
 -1      4215 2.00000E+01
 -1      4216 2.00000E+01
 -1      4217 2.00000E+01
 -1      4218 2.00000E+01
 -1      4219 2.00000E+01
 -1      4220 2.00000E+01
 -1      4221 2.00000E+01
 -1      4222 2.00000E+01
 -1      4223 2.00000E+01
 -1      4224 2.00000E+01
 -1      4225 2.00000E+01
 -1      4226 2.00000E+01
 -1      4227 2.00000E+01
 -1      4228 2.00000E+01
 -1      4229 2.00000E+01
 -1      4230 2.00000E+01
 -1      4231 2.00000E+01
 -1      4232 2.00000E+01
 -1      4233 2.00000E+01
 -1      4234 2.00000E+01
 -1      4235 2.00000E+01
 -1      4236 2.00000E+01
 -1      4237 2.00000E+01
 -1      4238 2.00000E+01
 -1      4239 2.00000E+01
 -1      4240 2.00000E+01
 -1      4241 2.00000E+01
 -1      4242 2.00000E+01
 -1      4243 2.00000E+01
 -1      4244 2.00000E+01
 -1      4245 2.00000E+01
 -1      4246 2.00000E+01
 -1      4247 2.00000E+01
 -1      4248 2.00000E+01
 -1      4249 2.00000E+01
 -1      4250 2.00000E+01
 -1      4251 2.00000E+01
 -1      4252 2.00000E+01
 -1      4253 2.00000E+01
 -1      4254 2.00000E+01
 -1      4255 2.00000E+01
 -1      4256 2.00000E+01
 -1      4257 2.00000E+01
 -1      4258 2.00000E+01
 -1      4259 2.00000E+01
 -1      4260 2.00000E+01
 -1      4261 2.00000E+01
 -1      4262 2.00000E+01
 -1      4263 2.00000E+01
 -1      4264 2.00000E+01
 -1      4265 2.00000E+01
 -1      4266 2.00000E+01
 -1      4267 2.00000E+01
 -1      4268 2.00000E+01
 -1      4269 2.00000E+01
 -1      4270 2.00000E+01
 -1      4271 2.00000E+01
 -1      4272 2.00000E+01
 -1      4273 2.00000E+01
 -1      4274 2.00000E+01
 -1      4275 2.00000E+01
 -1      4276 2.00000E+01
 -1      4277 2.00000E+01
 -1      4278 2.00000E+01
 -1      4279 2.00000E+01
 -1      4280 2.00000E+01
 -1      4281 2.00000E+01
 -1      4282 2.00000E+01
 -1      4283 2.00000E+01
 -1      4284 2.00000E+01
 -1      4285 2.00000E+01
 -1      4286 2.00000E+01
 -1      4287 2.00000E+01
 -1      4288 2.00000E+01
 -1      4289 2.00000E+01
 -1      4290 2.00000E+01
 -1      4291 2.00000E+01
 -1      4292 2.00000E+01
 -1      4293 2.00000E+01
 -1      4294 2.00000E+01
 -1      4295 2.00000E+01
 -1      4296 2.00000E+01
 -1      4297 2.00000E+01
 -1      4298 2.00000E+01
 -1      4299 2.00000E+01
 -1      4300 2.00000E+01
 -1      4301 2.00000E+01
 -1      4302 2.00000E+01
 -1      4303 2.00000E+01
 -1      4304 2.00000E+01
 -1      4305 2.00000E+01
 -1      4306 2.00000E+01
 -1      4307 2.00000E+01
 -1      4308 2.00000E+01
 -1      4309 2.00000E+01
 -1      4310 2.00000E+01
 -1      4311 2.00000E+01
 -1      4312 2.00000E+01
 -1      4313 2.00000E+01
 -1      4314 2.00000E+01
 -1      4315 2.00000E+01
 -1      4316 2.00000E+01
 -1      4317 2.00000E+01
 -1      4318 2.00000E+01
 -1      4319 2.00000E+01
 -1      4320 2.00000E+01
 -1      4321 2.00000E+01
 -1      4322 2.00000E+01
 -1      4323 2.00000E+01
 -1      4324 2.00000E+01
 -1      4325 2.00000E+01
 -1      4326 2.00000E+01
 -1      4327 2.00000E+01
 -1      4328 2.00000E+01
 -1      4329 2.00000E+01
 -1      4330 2.00000E+01
 -1      4331 2.00000E+01
 -1      4332 2.00000E+01
 -1      4333 2.00000E+01
 -1      4334 2.00000E+01
 -1      4335 2.00000E+01
 -1      4336 2.00000E+01
 -1      4337 2.00000E+01
 -1      4338 2.00000E+01
 -1      4339 2.00000E+01
 -1      4340 2.00000E+01
 -1      4341 2.00000E+01
 -1      4342 2.00000E+01
 -1      4343 2.00000E+01
 -1      4344 2.00000E+01
 -1      4345 2.00000E+01
 -1      4346 2.00000E+01
 -1      4347 2.00000E+01
 -1      4348 2.00000E+01
 -1      4349 2.00000E+01
 -1      4350 2.00000E+01
 -1      4351 2.00000E+01
 -1      4352 2.00000E+01
 -1      4353 2.00000E+01
 -1      4354 2.00000E+01
 -1      4355 2.00000E+01
 -1      4356 2.00000E+01
 -1      4357 2.00000E+01
 -1      4358 2.00000E+01
 -1      4359 2.00000E+01
 -1      4360 2.00000E+01
 -1      4361 2.00000E+01
 -1      4362 2.00000E+01
 -1      4363 2.00000E+01
 -1      4364 2.00000E+01
 -1      4365 2.00000E+01
 -1      4366 2.00000E+01
 -1      4367 2.00000E+01
 -1      4368 2.00000E+01
 -1      4369 2.00000E+01
 -1      4370 2.00000E+01
 -1      4371 2.00000E+01
 -1      4372 2.00000E+01
 -1      4373 2.00000E+01
 -1      4374 2.00000E+01
 -1      4375 2.00000E+01
 -1      4376 2.00000E+01
 -1      4377 2.00000E+01
 -1      4378 2.00000E+01
 -1      4379 2.00000E+01
 -1      4380 2.00000E+01
 -1      4381 2.00000E+01
 -1      4382 2.00000E+01
 -1      4383 2.00000E+01
 -1      4384 2.00000E+01
 -1      4385 2.00000E+01
 -1      4386 2.00000E+01
 -1      4387 2.00000E+01
 -1      4388 2.00000E+01
 -1      4389 2.00000E+01
 -1      4390 2.00000E+01
 -1      4391 2.00000E+01
 -1      4392 2.00000E+01
 -1      4393 2.00000E+01
 -1      4394 2.00000E+01
 -1      4395 2.00000E+01
 -1      4396 2.00000E+01
 -1      4397 2.00000E+01
 -1      4398 2.00000E+01
 -1      4399 2.00000E+01
 -1      4400 2.00000E+01
 -1      4401 2.00000E+01
 -1      4402 2.00000E+01
 -1      4403 2.00000E+01
 -1      4404 2.00000E+01
 -1      4405 2.00000E+01
 -1      4406 2.00000E+01
 -1      4407 2.00000E+01
 -1      4408 2.00000E+01
 -1      4409 2.00000E+01
 -1      4410 2.00000E+01
 -1      4411 2.00000E+01
 -1      4412 2.00000E+01
 -1      4413 2.00000E+01
 -1      4414 2.00000E+01
 -1      4415 2.00000E+01
 -1      4416 2.00000E+01
 -1      4417 2.00000E+01
 -1      4418 2.00000E+01
 -1      4419 2.00000E+01
 -1      4420 2.00000E+01
 -1      4421 2.00000E+01
 -1      4422 2.00000E+01
 -1      4423 2.00000E+01
 -1      4424 2.00000E+01
 -1      4425 2.00000E+01
 -1      4426 2.00000E+01
 -1      4427 2.00000E+01
 -1      4428 2.00000E+01
 -1      4429 2.00000E+01
 -1      4430 2.00000E+01
 -1      4431 2.00000E+01
 -1      4432 2.00000E+01
 -1      4433 2.00000E+01
 -1      4434 2.00000E+01
 -1      4435 2.00000E+01
 -1      4436 2.00000E+01
 -1      4437 2.00000E+01
 -1      4438 2.00000E+01
 -1      4439 2.00000E+01
 -1      4440 2.00000E+01
 -1      4441 2.00000E+01
 -1      4442 2.00000E+01
 -1      4443 2.00000E+01
 -1      4444 2.00000E+01
 -1      4445 2.00000E+01
 -1      4446 2.00000E+01
 -1      4447 2.00000E+01
 -1      4448 2.00000E+01
 -1      4449 2.00000E+01
 -1      4450 2.00000E+01
 -1      4451 2.00000E+01
 -1      4452 2.00000E+01
 -1      4453 2.00000E+01
 -1      4454 2.00000E+01
 -1      4455 2.00000E+01
 -1      4456 2.00000E+01
 -1      4457 2.00000E+01
 -1      4458 2.00000E+01
 -1      4459 2.00000E+01
 -1      4460 2.00000E+01
 -1      4461 2.00000E+01
 -1      4462 2.00000E+01
 -1      4463 2.00000E+01
 -1      4464 2.00000E+01
 -1      4465 2.00000E+01
 -1      4466 2.00000E+01
 -1      4467 2.00000E+01
 -1      4468 2.00000E+01
 -1      4469 2.00000E+01
 -1      4470 2.00000E+01
 -1      4471 2.00000E+01
 -1      4472 2.00000E+01
 -1      4473 2.00000E+01
 -1      4474 2.00000E+01
 -1      4475 2.00000E+01
 -1      4476 2.00000E+01
 -1      4477 2.00000E+01
 -1      4478 2.00000E+01
 -1      4479 2.00000E+01
 -1      4480 2.00000E+01
 -1      4481 2.00000E+01
 -1      4482 2.00000E+01
 -1      4483 2.00000E+01
 -1      4484 2.00000E+01
 -1      4485 2.00000E+01
 -1      4486 2.00000E+01
 -1      4487 2.00000E+01
 -1      4488 2.00000E+01
 -1      4489 2.00000E+01
 -1      4490 2.00000E+01
 -1      4491 2.00000E+01
 -1      4492 2.00000E+01
 -1      4493 2.00000E+01
 -1      4494 2.00000E+01
 -1      4495 2.00000E+01
 -1      4496 2.00000E+01
 -1      4497 2.00000E+01
 -1      4498 2.00000E+01
 -1      4499 2.00000E+01
 -1      4500 2.00000E+01
 -1      4501 2.00000E+01
 -1      4502 2.00000E+01
 -1      4503 2.00000E+01
 -1      4504 2.00000E+01
 -1      4505 2.00000E+01
 -1      4506 2.00000E+01
 -1      4507 2.00000E+01
 -1      4508 2.00000E+01
 -1      4509 2.00000E+01
 -1      4510 2.00000E+01
 -1      4511 2.00000E+01
 -1      4512 2.00000E+01
 -1      4513 2.00000E+01
 -1      4514 2.00000E+01
 -1      4515 2.00000E+01
 -1      4516 2.00000E+01
 -1      4517 2.00000E+01
 -1      4518 2.00000E+01
 -1      4519 2.00000E+01
 -1      4520 2.00000E+01
 -1      4521 2.00000E+01
 -1      4522 2.00000E+01
 -1      4523 2.00000E+01
 -1      4524 2.00000E+01
 -1      4525 2.00000E+01
 -1      4526 2.00000E+01
 -1      4527 2.00000E+01
 -1      4528 2.00000E+01
 -1      4529 2.00000E+01
 -1      4530 2.00000E+01
 -1      4531 2.00000E+01
 -1      4532 2.00000E+01
 -1      4533 2.00000E+01
 -1      4534 2.00000E+01
 -1      4535 2.00000E+01
 -1      4536 2.00000E+01
 -1      4537 2.00000E+01
 -1      4538 2.00000E+01
 -1      4539 2.00000E+01
 -1      4540 2.00000E+01
 -1      4541 2.00000E+01
 -1      4542 2.00000E+01
 -1      4543 2.00000E+01
 -1      4544 2.00000E+01
 -1      4545 2.00000E+01
 -1      4546 2.00000E+01
 -1      4547 2.00000E+01
 -1      4548 2.00000E+01
 -1      4549 2.00000E+01
 -1      4550 2.00000E+01
 -1      4551 2.00000E+01
 -1      4552 2.00000E+01
 -1      4553 2.00000E+01
 -1      4554 2.00000E+01
 -1      4555 2.00000E+01
 -1      4556 2.00000E+01
 -1      4557 2.00000E+01
 -1      4558 2.00000E+01
 -1      4559 2.00000E+01
 -1      4560 2.00000E+01
 -1      4561 2.00000E+01
 -1      4562 2.00000E+01
 -1      4563 2.00000E+01
 -1      4564 2.00000E+01
 -1      4565 2.00000E+01
 -1      4566 2.00000E+01
 -1      4567 2.00000E+01
 -1      4568 2.00000E+01
 -1      4569 2.00000E+01
 -1      4570 2.00000E+01
 -1      4571 2.00000E+01
 -1      4572 2.00000E+01
 -1      4573 2.00000E+01
 -1      4574 2.00000E+01
 -1      4575 2.00000E+01
 -1      4576 2.00000E+01
 -1      4577 2.00000E+01
 -1      4578 2.00000E+01
 -1      4579 2.00000E+01
 -1      4580 2.00000E+01
 -1      4581 2.00000E+01
 -1      4582 2.00000E+01
 -1      4583 2.00000E+01
 -1      4584 2.00000E+01
 -1      4585 2.00000E+01
 -1      4586 2.00000E+01
 -1      4587 2.00000E+01
 -1      4588 2.00000E+01
 -1      4589 2.00000E+01
 -1      4590 2.00000E+01
 -1      4591 2.00000E+01
 -1      4592 2.00000E+01
 -1      4593 2.00000E+01
 -1      4594 2.00000E+01
 -1      4595 2.00000E+01
 -1      4596 2.00000E+01
 -1      4597 2.00000E+01
 -1      4598 2.00000E+01
 -1      4599 2.00000E+01
 -1      4600 2.00000E+01
 -1      4601 2.00000E+01
 -1      4602 2.00000E+01
 -1      4603 2.00000E+01
 -1      4604 2.00000E+01
 -1      4605 2.00000E+01
 -1      4606 2.00000E+01
 -1      4607 2.00000E+01
 -1      4608 2.00000E+01
 -1      4609 2.00000E+01
 -1      4610 2.00000E+01
 -1      4611 2.00000E+01
 -1      4612 2.00000E+01
 -1      4613 2.00000E+01
 -1      4614 2.00000E+01
 -1      4615 2.00000E+01
 -1      4616 2.00000E+01
 -1      4617 2.00000E+01
 -1      4618 2.00000E+01
 -1      4619 2.00000E+01
 -1      4620 2.00000E+01
 -1      4621 2.00000E+01
 -1      4622 2.00000E+01
 -1      4623 2.00000E+01
 -1      4624 2.00000E+01
 -1      4625 2.00000E+01
 -1      4626 2.00000E+01
 -1      4627 2.00000E+01
 -1      4628 2.00000E+01
 -1      4629 2.00000E+01
 -1      4630 2.00000E+01
 -1      4631 2.00000E+01
 -1      4632 2.00000E+01
 -1      4633 2.00000E+01
 -1      4634 2.00000E+01
 -1      4635 2.00000E+01
 -1      4636 2.00000E+01
 -1      4637 2.00000E+01
 -1      4638 2.00000E+01
 -1      4639 2.00000E+01
 -1      4640 2.00000E+01
 -1      4641 2.00000E+01
 -1      4642 2.00000E+01
 -1      4643 2.00000E+01
 -1      4644 2.00000E+01
 -1      4645 2.00000E+01
 -1      4646 2.00000E+01
 -1      4647 2.00000E+01
 -1      4648 2.00000E+01
 -1      4649 2.00000E+01
 -1      4650 2.00000E+01
 -1      4651 2.00000E+01
 -1      4652 2.00000E+01
 -1      4653 2.00000E+01
 -1      4654 2.00000E+01
 -1      4655 2.00000E+01
 -1      4656 2.00000E+01
 -1      4657 2.00000E+01
 -1      4658 2.00000E+01
 -1      4659 2.00000E+01
 -1      4660 2.00000E+01
 -1      4661 2.00000E+01
 -1      4662 2.00000E+01
 -1      4663 2.00000E+01
 -1      4664 2.00000E+01
 -1      4665 2.00000E+01
 -1      4666 2.00000E+01
 -1      4667 2.00000E+01
 -1      4668 2.00000E+01
 -1      4669 2.00000E+01
 -1      4670 2.00000E+01
 -1      4671 2.00000E+01
 -1      4672 2.00000E+01
 -1      4673 2.00000E+01
 -1      4674 2.00000E+01
 -1      4675 2.00000E+01
 -1      4676 2.00000E+01
 -1      4677 2.00000E+01
 -1      4678 2.00000E+01
 -1      4679 2.00000E+01
 -1      4680 2.00000E+01
 -1      4681 2.00000E+01
 -1      4682 2.00000E+01
 -1      4683 2.00000E+01
 -1      4684 2.00000E+01
 -1      4685 2.00000E+01
 -1      4686 2.00000E+01
 -1      4687 2.00000E+01
 -1      4688 2.00000E+01
 -1      4689 2.00000E+01
 -1      4690 2.00000E+01
 -1      4691 2.00000E+01
 -1      4692 2.00000E+01
 -1      4693 2.00000E+01
 -1      4694 2.00000E+01
 -1      4695 2.00000E+01
 -1      4696 2.00000E+01
 -1      4697 2.00000E+01
 -1      4698 2.00000E+01
 -1      4699 2.00000E+01
 -1      4700 2.00000E+01
 -1      4701 2.00000E+01
 -1      4702 2.00000E+01
 -1      4703 2.00000E+01
 -1      4704 2.00000E+01
 -1      4705 2.00000E+01
 -1      4706 2.00000E+01
 -1      4707 2.00000E+01
 -1      4708 2.00000E+01
 -1      4709 2.00000E+01
 -1      4710 2.00000E+01
 -1      4711 2.00000E+01
 -1      4712 2.00000E+01
 -1      4713 2.00000E+01
 -1      4714 2.00000E+01
 -1      4715 2.00000E+01
 -1      4716 2.00000E+01
 -1      4717 2.00000E+01
 -1      4718 2.00000E+01
 -1      4719 2.00000E+01
 -1      4720 2.00000E+01
 -1      4721 2.00000E+01
 -1      4722 2.00000E+01
 -1      4723 2.00000E+01
 -1      4724 2.00000E+01
 -1      4725 2.00000E+01
 -1      4726 2.00000E+01
 -1      4727 2.00000E+01
 -1      4728 2.00000E+01
 -1      4729 2.00000E+01
 -1      4730 2.00000E+01
 -1      4731 2.00000E+01
 -1      4732 2.00000E+01
 -1      4733 2.00000E+01
 -1      4734 2.00000E+01
 -1      4735 2.00000E+01
 -1      4736 2.00000E+01
 -1      4737 2.00000E+01
 -1      4738 2.00000E+01
 -1      4739 2.00000E+01
 -1      4740 2.00000E+01
 -1      4741 2.00000E+01
 -1      4742 2.00000E+01
 -1      4743 2.00000E+01
 -1      4744 2.00000E+01
 -1      4745 2.00000E+01
 -1      4746 2.00000E+01
 -1      4747 2.00000E+01
 -1      4748 2.00000E+01
 -1      4749 2.00000E+01
 -1      4750 2.00000E+01
 -1      4751 2.00000E+01
 -1      4752 2.00000E+01
 -1      4753 2.00000E+01
 -1      4754 2.00000E+01
 -1      4755 2.00000E+01
 -1      4756 2.00000E+01
 -1      4757 2.00000E+01
 -1      4758 2.00000E+01
 -1      4759 2.00000E+01
 -1      4760 2.00000E+01
 -1      4761 2.00000E+01
 -1      4762 2.00000E+01
 -1      4763 2.00000E+01
 -1      4764 2.00000E+01
 -1      4765 2.00000E+01
 -1      4766 2.00000E+01
 -1      4767 2.00000E+01
 -1      4768 2.00000E+01
 -1      4769 2.00000E+01
 -1      4770 2.00000E+01
 -1      4771 2.00000E+01
 -1      4772 2.00000E+01
 -1      4773 2.00000E+01
 -1      4774 2.00000E+01
 -1      4775 2.00000E+01
 -1      4776 2.00000E+01
 -1      4777 2.00000E+01
 -1      4778 2.00000E+01
 -1      4779 2.00000E+01
 -1      4780 2.00000E+01
 -1      4781 2.00000E+01
 -1      4782 2.00000E+01
 -1      4783 2.00000E+01
 -1      4784 2.00000E+01
 -1      4785 2.00000E+01
 -1      4786 2.00000E+01
 -1      4787 2.00000E+01
 -1      4788 2.00000E+01
 -1      4789 2.00000E+01
 -1      4790 2.00000E+01
 -1      4791 2.00000E+01
 -1      4792 2.00000E+01
 -1      4793 2.00000E+01
 -1      4794 2.00000E+01
 -1      4795 2.00000E+01
 -1      4796 2.00000E+01
 -1      4797 2.00000E+01
 -1      4798 2.00000E+01
 -1      4799 2.00000E+01
 -1      4800 2.00000E+01
 -1      4801 2.00000E+01
 -1      4802 2.00000E+01
 -1      4803 2.00000E+01
 -1      4804 2.00000E+01
 -1      4805 2.00000E+01
 -1      4806 2.00000E+01
 -1      4807 2.00000E+01
 -1      4808 2.00000E+01
 -1      4809 2.00000E+01
 -1      4810 2.00000E+01
 -1      4811 2.00000E+01
 -1      4812 2.00000E+01
 -1      4813 2.00000E+01
 -1      4814 2.00000E+01
 -1      4815 2.00000E+01
 -1      4816 2.00000E+01
 -1      4817 2.00000E+01
 -1      4818 2.00000E+01
 -1      4819 2.00000E+01
 -1      4820 2.00000E+01
 -1      4821 2.00000E+01
 -1      4822 2.00000E+01
 -1      4823 2.00000E+01
 -1      4824 2.00000E+01
 -1      4825 2.00000E+01
 -1      4826 2.00000E+01
 -1      4827 2.00000E+01
 -1      4828 2.00000E+01
 -1      4829 2.00000E+01
 -1      4830 2.00000E+01
 -1      4831 2.00000E+01
 -1      4832 2.00000E+01
 -1      4833 2.00000E+01
 -1      4834 2.00000E+01
 -1      4835 2.00000E+01
 -1      4836 2.00000E+01
 -1      4837 2.00000E+01
 -1      4838 2.00000E+01
 -1      4839 2.00000E+01
 -1      4840 2.00000E+01
 -1      4841 2.00000E+01
 -1      4842 2.00000E+01
 -1      4843 2.00000E+01
 -1      4844 2.00000E+01
 -1      4845 2.00000E+01
 -1      4846 2.00000E+01
 -1      4847 2.00000E+01
 -1      4848 2.00000E+01
 -1      4849 2.00000E+01
 -1      4850 2.00000E+01
 -1      4851 2.00000E+01
 -1      4852 2.00000E+01
 -1      4853 2.00000E+01
 -1      4854 2.00000E+01
 -1      4855 2.00000E+01
 -1      4856 2.00000E+01
 -1      4857 2.00000E+01
 -1      4858 2.00000E+01
 -1      4859 2.00000E+01
 -1      4860 2.00000E+01
 -1      4861 2.00000E+01
 -1      4862 2.00000E+01
 -1      4863 2.00000E+01
 -1      4864 2.00000E+01
 -1      4865 2.00000E+01
 -1      4866 2.00000E+01
 -1      4867 2.00000E+01
 -1      4868 2.00000E+01
 -1      4869 2.00000E+01
 -1      4870 2.00000E+01
 -1      4871 2.00000E+01
 -1      4872 2.00000E+01
 -1      4873 2.00000E+01
 -1      4874 2.00000E+01
 -1      4875 2.00000E+01
 -1      4876 2.00000E+01
 -1      4877 2.00000E+01
 -1      4878 2.00000E+01
 -1      4879 2.00000E+01
 -1      4880 2.00000E+01
 -1      4881 2.00000E+01
 -1      4882 2.00000E+01
 -1      4883 2.00000E+01
 -1      4884 2.00000E+01
 -1      4885 2.00000E+01
 -1      4886 2.00000E+01
 -1      4887 2.00000E+01
 -1      4888 2.00000E+01
 -1      4889 2.00000E+01
 -1      4890 2.00000E+01
 -1      4891 2.00000E+01
 -1      4892 2.00000E+01
 -1      4893 2.00000E+01
 -1      4894 2.00000E+01
 -1      4895 2.00000E+01
 -1      4896 2.00000E+01
 -1      4897 2.00000E+01
 -1      4898 2.00000E+01
 -1      4899 2.00000E+01
 -1      4900 2.00000E+01
 -1      4901 2.00000E+01
 -1      4902 2.00000E+01
 -1      4903 2.00000E+01
 -1      4904 2.00000E+01
 -1      4905 2.00000E+01
 -1      4906 2.00000E+01
 -1      4907 2.00000E+01
 -1      4908 2.00000E+01
 -1      4909 2.00000E+01
 -1      4910 2.00000E+01
 -1      4911 2.00000E+01
 -1      4912 2.00000E+01
 -1      4913 2.00000E+01
 -1      4914 2.00000E+01
 -1      4915 2.00000E+01
 -1      4916 2.00000E+01
 -1      4917 2.00000E+01
 -1      4918 2.00000E+01
 -1      4919 2.00000E+01
 -1      4920 2.00000E+01
 -1      4921 2.00000E+01
 -1      4922 2.00000E+01
 -1      4923 2.00000E+01
 -1      4924 2.00000E+01
 -1      4925 2.00000E+01
 -1      4926 2.00000E+01
 -1      4927 2.00000E+01
 -1      4928 2.00000E+01
 -1      4929 2.00000E+01
 -1      4930 2.00000E+01
 -1      4931 2.00000E+01
 -1      4932 2.00000E+01
 -1      4933 2.00000E+01
 -1      4934 2.00000E+01
 -1      4935 2.00000E+01
 -1      4936 2.00000E+01
 -1      4937 2.00000E+01
 -1      4938 2.00000E+01
 -1      4939 2.00000E+01
 -1      4940 2.00000E+01
 -1      4941 2.00000E+01
 -1      4942 2.00000E+01
 -1      4943 2.00000E+01
 -1      4944 2.00000E+01
 -1      4945 2.00000E+01
 -1      4946 2.00000E+01
 -1      4947 2.00000E+01
 -1      4948 2.00000E+01
 -1      4949 2.00000E+01
 -1      4950 2.00000E+01
 -1      4951 2.00000E+01
 -1      4952 2.00000E+01
 -1      4953 2.00000E+01
 -1      4954 2.00000E+01
 -1      4955 2.00000E+01
 -1      4956 2.00000E+01
 -1      4957 2.00000E+01
 -1      4958 2.00000E+01
 -1      4959 2.00000E+01
 -1      4960 2.00000E+01
 -1      4961 2.00000E+01
 -1      4962 2.00000E+01
 -1      4963 2.00000E+01
 -1      4964 2.00000E+01
 -1      4965 2.00000E+01
 -1      4966 2.00000E+01
 -1      4967 2.00000E+01
 -1      4968 2.00000E+01
 -1      4969 2.00000E+01
 -1      4970 2.00000E+01
 -1      4971 2.00000E+01
 -1      4972 2.00000E+01
 -1      4973 2.00000E+01
 -1      4974 2.00000E+01
 -1      4975 2.00000E+01
 -1      4976 2.00000E+01
 -1      4977 2.00000E+01
 -1      4978 2.00000E+01
 -1      4979 2.00000E+01
 -1      4980 2.00000E+01
 -1      4981 2.00000E+01
 -1      4982 2.00000E+01
 -1      4983 2.00000E+01
 -1      4984 2.00000E+01
 -1      4985 2.00000E+01
 -1      4986 2.00000E+01
 -1      4987 2.00000E+01
 -1      4988 2.00000E+01
 -1      4989 2.00000E+01
 -1      4990 2.00000E+01
 -1      4991 2.00000E+01
 -1      4992 2.00000E+01
 -1      4993 2.00000E+01
 -1      4994 2.00000E+01
 -1      4995 2.00000E+01
 -1      4996 2.00000E+01
 -1      4997 2.00000E+01
 -1      4998 2.00000E+01
 -1      4999 2.00000E+01
 -1      5000 2.00000E+01
 -1      5001 2.00000E+01
 -1      5002 2.00000E+01
 -1      5003 2.00000E+01
 -1      5004 2.00000E+01
 -1      5005 2.00000E+01
 -1      5006 2.00000E+01
 -1      5007 2.00000E+01
 -1      5008 2.00000E+01
 -1      5009 2.00000E+01
 -1      5010 2.00000E+01
 -1      5011 2.00000E+01
 -1      5012 2.00000E+01
 -1      5013 2.00000E+01
 -1      5014 2.00000E+01
 -1      5015 2.00000E+01
 -1      5016 2.00000E+01
 -1      5017 2.00000E+01
 -1      5018 2.00000E+01
 -1      5019 2.00000E+01
 -1      5020 2.00000E+01
 -1      5021 2.00000E+01
 -1      5022 2.00000E+01
 -1      5023 2.00000E+01
 -1      5024 2.00000E+01
 -1      5025 2.00000E+01
 -1      5026 2.00000E+01
 -1      5027 2.00000E+01
 -1      5028 2.00000E+01
 -1      5029 2.00000E+01
 -1      5030 2.00000E+01
 -1      5031 2.00000E+01
 -1      5032 2.00000E+01
 -1      5033 2.00000E+01
 -1      5034 2.00000E+01
 -1      5035 2.00000E+01
 -1      5036 2.00000E+01
 -1      5037 2.00000E+01
 -1      5038 2.00000E+01
 -1      5039 2.00000E+01
 -1      5040 2.00000E+01
 -1      5041 2.00000E+01
 -1      5042 2.00000E+01
 -1      5043 2.00000E+01
 -1      5044 2.00000E+01
 -1      5045 2.00000E+01
 -1      5046 2.00000E+01
 -1      5047 2.00000E+01
 -1      5048 2.00000E+01
 -1      5049 2.00000E+01
 -1      5050 2.00000E+01
 -1      5051 2.00000E+01
 -1      5052 2.00000E+01
 -1      5053 2.00000E+01
 -1      5054 2.00000E+01
 -1      5055 2.00000E+01
 -1      5056 2.00000E+01
 -1      5057 2.00000E+01
 -1      5058 2.00000E+01
 -1      5059 2.00000E+01
 -1      5060 2.00000E+01
 -1      5061 2.00000E+01
 -1      5062 2.00000E+01
 -1      5063 2.00000E+01
 -1      5064 2.00000E+01
 -1      5065 2.00000E+01
 -1      5066 2.00000E+01
 -1      5067 2.00000E+01
 -1      5068 2.00000E+01
 -1      5069 2.00000E+01
 -1      5070 2.00000E+01
 -1      5071 2.00000E+01
 -1      5072 2.00000E+01
 -1      5073 2.00000E+01
 -1      5074 2.00000E+01
 -1      5075 2.00000E+01
 -1      5076 2.00000E+01
 -1      5077 2.00000E+01
 -1      5078 2.00000E+01
 -1      5079 2.00000E+01
 -1      5080 2.00000E+01
 -1      5081 2.00000E+01
 -1      5082 2.00000E+01
 -1      5083 2.00000E+01
 -1      5084 2.00000E+01
 -1      5085 2.00000E+01
 -1      5086 2.00000E+01
 -1      5087 2.00000E+01
 -1      5088 2.00000E+01
 -1      5089 2.00000E+01
 -1      5090 2.00000E+01
 -1      5091 2.00000E+01
 -1      5092 2.00000E+01
 -1      5093 2.00000E+01
 -1      5094 2.00000E+01
 -1      5095 2.00000E+01
 -1      5096 2.00000E+01
 -1      5097 2.00000E+01
 -1      5098 2.00000E+01
 -1      5099 2.00000E+01
 -1      5100 2.00000E+01
 -1      5101 2.00000E+01
 -1      5102 2.00000E+01
 -1      5103 2.00000E+01
 -1      5104 2.00000E+01
 -1      5105 2.00000E+01
 -1      5106 2.00000E+01
 -1      5107 2.00000E+01
 -1      5108 2.00000E+01
 -1      5109 2.00000E+01
 -1      5110 2.00000E+01
 -1      5111 2.00000E+01
 -1      5112 2.00000E+01
 -1      5113 2.00000E+01
 -1      5114 2.00000E+01
 -1      5115 2.00000E+01
 -1      5116 2.00000E+01
 -1      5117 2.00000E+01
 -1      5118 2.00000E+01
 -1      5119 2.00000E+01
 -1      5120 2.00000E+01
 -1      5121 2.00000E+01
 -1      5122 2.00000E+01
 -1      5123 2.00000E+01
 -1      5124 2.00000E+01
 -1      5125 2.00000E+01
 -1      5126 2.00000E+01
 -1      5127 2.00000E+01
 -1      5128 2.00000E+01
 -1      5129 2.00000E+01
 -1      5130 2.00000E+01
 -1      5131 2.00000E+01
 -1      5132 2.00000E+01
 -1      5133 2.00000E+01
 -1      5134 2.00000E+01
 -1      5135 2.00000E+01
 -1      5136 2.00000E+01
 -1      5137 2.00000E+01
 -1      5138 2.00000E+01
 -1      5139 2.00000E+01
 -1      5140 2.00000E+01
 -1      5141 2.00000E+01
 -1      5142 2.00000E+01
 -1      5143 2.00000E+01
 -1      5144 2.00000E+01
 -1      5145 2.00000E+01
 -1      5146 2.00000E+01
 -1      5147 2.00000E+01
 -1      5148 2.00000E+01
 -1      5149 2.00000E+01
 -1      5150 2.00000E+01
 -1      5151 2.00000E+01
 -1      5152 2.00000E+01
 -1      5153 2.00000E+01
 -1      5154 2.00000E+01
 -1      5155 2.00000E+01
 -1      5156 2.00000E+01
 -1      5157 2.00000E+01
 -1      5158 2.00000E+01
 -1      5159 2.00000E+01
 -1      5160 2.00000E+01
 -1      5161 2.00000E+01
 -1      5162 2.00000E+01
 -1      5163 2.00000E+01
 -1      5164 2.00000E+01
 -1      5165 2.00000E+01
 -1      5166 2.00000E+01
 -1      5167 2.00000E+01
 -1      5168 2.00000E+01
 -1      5169 2.00000E+01
 -1      5170 2.00000E+01
 -1      5171 2.00000E+01
 -1      5172 2.00000E+01
 -1      5173 2.00000E+01
 -1      5174 2.00000E+01
 -1      5175 2.00000E+01
 -1      5176 2.00000E+01
 -1      5177 2.00000E+01
 -1      5178 2.00000E+01
 -1      5179 2.00000E+01
 -1      5180 2.00000E+01
 -1      5181 2.00000E+01
 -1      5182 2.00000E+01
 -1      5183 2.00000E+01
 -1      5184 2.00000E+01
 -1      5185 2.00000E+01
 -1      5186 2.00000E+01
 -1      5187 2.00000E+01
 -1      5188 2.00000E+01
 -1      5189 2.00000E+01
 -1      5190 2.00000E+01
 -1      5191 2.00000E+01
 -1      5192 2.00000E+01
 -1      5193 2.00000E+01
 -1      5194 2.00000E+01
 -1      5195 2.00000E+01
 -1      5196 2.00000E+01
 -1      5197 2.00000E+01
 -1      5198 2.00000E+01
 -1      5199 2.00000E+01
 -1      5200 2.00000E+01
 -1      5201 2.00000E+01
 -1      5202 2.00000E+01
 -1      5203 2.00000E+01
 -1      5204 2.00000E+01
 -1      5205 2.00000E+01
 -1      5206 2.00000E+01
 -1      5207 2.00000E+01
 -1      5208 2.00000E+01
 -1      5209 2.00000E+01
 -1      5210 2.00000E+01
 -1      5211 2.00000E+01
 -1      5212 2.00000E+01
 -1      5213 2.00000E+01
 -1      5214 2.00000E+01
 -1      5215 2.00000E+01
 -1      5216 2.00000E+01
 -1      5217 2.00000E+01
 -1      5218 2.00000E+01
 -1      5219 2.00000E+01
 -1      5220 2.00000E+01
 -1      5221 2.00000E+01
 -1      5222 2.00000E+01
 -1      5223 2.00000E+01
 -1      5224 2.00000E+01
 -1      5225 2.00000E+01
 -1      5226 2.00000E+01
 -1      5227 2.00000E+01
 -1      5228 2.00000E+01
 -1      5229 2.00000E+01
 -1      5230 2.00000E+01
 -1      5231 2.00000E+01
 -1      5232 2.00000E+01
 -1      5233 2.00000E+01
 -1      5234 2.00000E+01
 -1      5235 2.00000E+01
 -1      5236 2.00000E+01
 -1      5237 2.00000E+01
 -1      5238 2.00000E+01
 -1      5239 2.00000E+01
 -1      5240 2.00000E+01
 -1      5241 2.00000E+01
 -1      5242 2.00000E+01
 -1      5243 2.00000E+01
 -1      5244 2.00000E+01
 -1      5245 2.00000E+01
 -1      5246 2.00000E+01
 -1      5247 2.00000E+01
 -1      5248 2.00000E+01
 -1      5249 2.00000E+01
 -1      5250 2.00000E+01
 -1      5251 2.00000E+01
 -1      5252 2.00000E+01
 -1      5253 2.00000E+01
 -1      5254 2.00000E+01
 -1      5255 2.00000E+01
 -1      5256 2.00000E+01
 -1      5257 2.00000E+01
 -1      5258 2.00000E+01
 -1      5259 2.00000E+01
 -1      5260 2.00000E+01
 -1      5261 2.00000E+01
 -1      5262 2.00000E+01
 -1      5263 2.00000E+01
 -1      5264 2.00000E+01
 -1      5265 2.00000E+01
 -1      5266 2.00000E+01
 -1      5267 2.00000E+01
 -1      5268 2.00000E+01
 -1      5269 2.00000E+01
 -1      5270 2.00000E+01
 -1      5271 2.00000E+01
 -1      5272 2.00000E+01
 -1      5273 2.00000E+01
 -1      5274 2.00000E+01
 -1      5275 2.00000E+01
 -1      5276 2.00000E+01
 -1      5277 2.00000E+01
 -1      5278 2.00000E+01
 -1      5279 2.00000E+01
 -1      5280 2.00000E+01
 -1      5281 2.00000E+01
 -1      5282 2.00000E+01
 -1      5283 2.00000E+01
 -1      5284 2.00000E+01
 -1      5285 2.00000E+01
 -1      5286 2.00000E+01
 -1      5287 2.00000E+01
 -1      5288 2.00000E+01
 -1      5289 2.00000E+01
 -1      5290 2.00000E+01
 -1      5291 2.00000E+01
 -1      5292 2.00000E+01
 -1      5293 2.00000E+01
 -1      5294 2.00000E+01
 -1      5295 2.00000E+01
 -1      5296 2.00000E+01
 -1      5297 2.00000E+01
 -1      5298 2.00000E+01
 -1      5299 2.00000E+01
 -1      5300 2.00000E+01
 -1      5301 2.00000E+01
 -1      5302 2.00000E+01
 -1      5303 2.00000E+01
 -1      5304 2.00000E+01
 -1      5305 2.00000E+01
 -1      5306 2.00000E+01
 -1      5307 2.00000E+01
 -1      5308 2.00000E+01
 -1      5309 2.00000E+01
 -1      5310 2.00000E+01
 -1      5311 2.00000E+01
 -1      5312 2.00000E+01
 -1      5313 2.00000E+01
 -1      5314 2.00000E+01
 -1      5315 2.00000E+01
 -1      5316 2.00000E+01
 -1      5317 2.00000E+01
 -1      5318 2.00000E+01
 -1      5319 2.00000E+01
 -1      5320 2.00000E+01
 -1      5321 2.00000E+01
 -1      5322 2.00000E+01
 -1      5323 2.00000E+01
 -1      5324 2.00000E+01
 -1      5325 2.00000E+01
 -1      5326 2.00000E+01
 -1      5327 2.00000E+01
 -1      5328 2.00000E+01
 -1      5329 2.00000E+01
 -1      5330 2.00000E+01
 -1      5331 2.00000E+01
 -1      5332 2.00000E+01
 -1      5333 2.00000E+01
 -1      5334 2.00000E+01
 -1      5335 2.00000E+01
 -1      5336 2.00000E+01
 -1      5337 2.00000E+01
 -1      5338 2.00000E+01
 -1      5339 2.00000E+01
 -1      5340 2.00000E+01
 -1      5341 2.00000E+01
 -1      5342 2.00000E+01
 -1      5343 2.00000E+01
 -1      5344 2.00000E+01
 -1      5345 2.00000E+01
 -1      5346 2.00000E+01
 -1      5347 2.00000E+01
 -1      5348 2.00000E+01
 -1      5349 2.00000E+01
 -1      5350 2.00000E+01
 -1      5351 2.00000E+01
 -1      5352 2.00000E+01
 -1      5353 2.00000E+01
 -1      5354 2.00000E+01
 -1      5355 2.00000E+01
 -1      5356 2.00000E+01
 -1      5357 2.00000E+01
 -1      5358 2.00000E+01
 -1      5359 2.00000E+01
 -1      5360 2.00000E+01
 -1      5361 2.00000E+01
 -1      5362 2.00000E+01
 -1      5363 2.00000E+01
 -1      5364 2.00000E+01
 -1      5365 2.00000E+01
 -1      5366 2.00000E+01
 -1      5367 2.00000E+01
 -1      5368 2.00000E+01
 -1      5369 2.00000E+01
 -1      5370 2.00000E+01
 -1      5371 2.00000E+01
 -1      5372 2.00000E+01
 -1      5373 2.00000E+01
 -1      5374 2.00000E+01
 -1      5375 2.00000E+01
 -1      5376 2.00000E+01
 -1      5377 2.00000E+01
 -1      5378 2.00000E+01
 -1      5379 2.00000E+01
 -1      5380 2.00000E+01
 -1      5381 2.00000E+01
 -1      5382 2.00000E+01
 -1      5383 2.00000E+01
 -1      5384 2.00000E+01
 -1      5385 2.00000E+01
 -1      5386 2.00000E+01
 -1      5387 2.00000E+01
 -1      5388 2.00000E+01
 -1      5389 2.00000E+01
 -1      5390 2.00000E+01
 -1      5391 2.00000E+01
 -1      5392 2.00000E+01
 -1      5393 2.00000E+01
 -1      5394 2.00000E+01
 -1      5395 2.00000E+01
 -1      5396 2.00000E+01
 -1      5397 2.00000E+01
 -1      5398 2.00000E+01
 -1      5399 2.00000E+01
 -1      5400 2.00000E+01
 -1      5401 2.00000E+01
 -1      5402 2.00000E+01
 -1      5403 2.00000E+01
 -1      5404 2.00000E+01
 -1      5405 2.00000E+01
 -1      5406 2.00000E+01
 -1      5407 2.00000E+01
 -1      5408 2.00000E+01
 -1      5409 2.00000E+01
 -1      5410 2.00000E+01
 -1      5411 2.00000E+01
 -1      5412 2.00000E+01
 -1      5413 2.00000E+01
 -1      5414 2.00000E+01
 -1      5415 2.00000E+01
 -1      5416 2.00000E+01
 -1      5417 2.00000E+01
 -1      5418 2.00000E+01
 -1      5419 2.00000E+01
 -1      5420 2.00000E+01
 -1      5421 2.00000E+01
 -1      5422 2.00000E+01
 -1      5423 2.00000E+01
 -1      5424 2.00000E+01
 -1      5425 2.00000E+01
 -1      5426 2.00000E+01
 -1      5427 2.00000E+01
 -1      5428 2.00000E+01
 -1      5429 2.00000E+01
 -1      5430 2.00000E+01
 -1      5431 2.00000E+01
 -1      5432 2.00000E+01
 -1      5433 2.00000E+01
 -1      5434 2.00000E+01
 -1      5435 2.00000E+01
 -1      5436 2.00000E+01
 -1      5437 2.00000E+01
 -1      5438 2.00000E+01
 -1      5439 2.00000E+01
 -1      5440 2.00000E+01
 -1      5441 2.00000E+01
 -1      5442 2.00000E+01
 -1      5443 2.00000E+01
 -1      5444 2.00000E+01
 -1      5445 2.00000E+01
 -1      5446 2.00000E+01
 -1      5447 2.00000E+01
 -1      5448 2.00000E+01
 -1      5449 2.00000E+01
 -1      5450 2.00000E+01
 -1      5451 2.00000E+01
 -1      5452 2.00000E+01
 -1      5453 2.00000E+01
 -1      5454 2.00000E+01
 -1      5455 2.00000E+01
 -1      5456 2.00000E+01
 -1      5457 2.00000E+01
 -1      5458 2.00000E+01
 -1      5459 2.00000E+01
 -1      5460 2.00000E+01
 -1      5461 2.00000E+01
 -1      5462 2.00000E+01
 -1      5463 2.00000E+01
 -1      5464 2.00000E+01
 -1      5465 2.00000E+01
 -1      5466 2.00000E+01
 -1      5467 2.00000E+01
 -1      5468 2.00000E+01
 -1      5469 2.00000E+01
 -1      5470 2.00000E+01
 -1      5471 2.00000E+01
 -1      5472 2.00000E+01
 -1      5473 2.00000E+01
 -1      5474 2.00000E+01
 -1      5475 2.00000E+01
 -1      5476 2.00000E+01
 -1      5477 2.00000E+01
 -1      5478 2.00000E+01
 -1      5479 2.00000E+01
 -1      5480 2.00000E+01
 -1      5481 2.00000E+01
 -1      5482 2.00000E+01
 -1      5483 2.00000E+01
 -1      5484 2.00000E+01
 -1      5485 2.00000E+01
 -1      5486 2.00000E+01
 -1      5487 2.00000E+01
 -1      5488 2.00000E+01
 -1      5489 2.00000E+01
 -1      5490 2.00000E+01
 -1      5491 2.00000E+01
 -1      5492 2.00000E+01
 -1      5493 2.00000E+01
 -1      5494 2.00000E+01
 -1      5495 2.00000E+01
 -1      5496 2.00000E+01
 -1      5497 2.00000E+01
 -1      5498 2.00000E+01
 -1      5499 2.00000E+01
 -1      5500 2.00000E+01
 -1      5501 2.00000E+01
 -1      5502 2.00000E+01
 -1      5503 2.00000E+01
 -1      5504 2.00000E+01
 -1      5505 2.00000E+01
 -1      5506 2.00000E+01
 -1      5507 2.00000E+01
 -1      5508 2.00000E+01
 -1      5509 2.00000E+01
 -1      5510 2.00000E+01
 -1      5511 2.00000E+01
 -1      5512 2.00000E+01
 -1      5513 2.00000E+01
 -1      5514 2.00000E+01
 -1      5515 2.00000E+01
 -1      5516 2.00000E+01
 -1      5517 2.00000E+01
 -1      5518 2.00000E+01
 -1      5519 2.00000E+01
 -1      5520 2.00000E+01
 -1      5521 2.00000E+01
 -1      5522 2.00000E+01
 -1      5523 2.00000E+01
 -1      5524 2.00000E+01
 -1      5525 2.00000E+01
 -1      5526 2.00000E+01
 -1      5527 2.00000E+01
 -1      5528 2.00000E+01
 -1      5529 2.00000E+01
 -1      5530 2.00000E+01
 -1      5531 2.00000E+01
 -1      5532 2.00000E+01
 -1      5533 2.00000E+01
 -1      5534 2.00000E+01
 -1      5535 2.00000E+01
 -1      5536 2.00000E+01
 -1      5537 2.00000E+01
 -1      5538 2.00000E+01
 -1      5539 2.00000E+01
 -1      5540 2.00000E+01
 -1      5541 2.00000E+01
 -1      5542 2.00000E+01
 -1      5543 2.00000E+01
 -1      5544 2.00000E+01
 -1      5545 2.00000E+01
 -1      5546 2.00000E+01
 -1      5547 2.00000E+01
 -1      5548 2.00000E+01
 -1      5549 2.00000E+01
 -1      5550 2.00000E+01
 -1      5551 2.00000E+01
 -1      5552 2.00000E+01
 -1      5553 2.00000E+01
 -1      5554 2.00000E+01
 -1      5555 2.00000E+01
 -1      5556 2.00000E+01
 -1      5557 2.00000E+01
 -1      5558 2.00000E+01
 -1      5559 2.00000E+01
 -1      5560 2.00000E+01
 -1      5561 2.00000E+01
 -1      5562 2.00000E+01
 -1      5563 2.00000E+01
 -1      5564 2.00000E+01
 -1      5565 2.00000E+01
 -1      5566 2.00000E+01
 -1      5567 2.00000E+01
 -1      5568 2.00000E+01
 -1      5569 2.00000E+01
 -1      5570 2.00000E+01
 -1      5571 2.00000E+01
 -1      5572 2.00000E+01
 -1      5573 2.00000E+01
 -1      5574 2.00000E+01
 -1      5575 2.00000E+01
 -1      5576 2.00000E+01
 -1      5577 2.00000E+01
 -1      5578 2.00000E+01
 -1      5579 2.00000E+01
 -1      5580 2.00000E+01
 -1      5581 2.00000E+01
 -1      5582 2.00000E+01
 -1      5583 2.00000E+01
 -1      5584 2.00000E+01
 -1      5585 2.00000E+01
 -1      5586 2.00000E+01
 -1      5587 2.00000E+01
 -1      5588 2.00000E+01
 -1      5589 2.00000E+01
 -1      5590 2.00000E+01
 -1      5591 2.00000E+01
 -1      5592 2.00000E+01
 -1      5593 2.00000E+01
 -1      5594 2.00000E+01
 -1      5595 2.00000E+01
 -1      5596 2.00000E+01
 -1      5597 2.00000E+01
 -1      5598 2.00000E+01
 -1      5599 2.00000E+01
 -1      5600 2.00000E+01
 -1      5601 2.00000E+01
 -1      5602 2.00000E+01
 -1      5603 2.00000E+01
 -1      5604 2.00000E+01
 -1      5605 2.00000E+01
 -1      5606 2.00000E+01
 -1      5607 2.00000E+01
 -1      5608 2.00000E+01
 -1      5609 2.00000E+01
 -1      5610 2.00000E+01
 -1      5611 2.00000E+01
 -1      5612 2.00000E+01
 -1      5613 2.00000E+01
 -1      5614 2.00000E+01
 -1      5615 2.00000E+01
 -1      5616 2.00000E+01
 -1      5617 2.00000E+01
 -1      5618 2.00000E+01
 -1      5619 2.00000E+01
 -1      5620 2.00000E+01
 -1      5621 2.00000E+01
 -1      5622 2.00000E+01
 -1      5623 2.00000E+01
 -1      5624 2.00000E+01
 -1      5625 2.00000E+01
 -1      5626 2.00000E+01
 -1      5627 2.00000E+01
 -1      5628 2.00000E+01
 -1      5629 2.00000E+01
 -1      5630 2.00000E+01
 -1      5631 2.00000E+01
 -1      5632 2.00000E+01
 -1      5633 2.00000E+01
 -1      5634 2.00000E+01
 -1      5635 2.00000E+01
 -1      5636 2.00000E+01
 -1      5637 2.00000E+01
 -1      5638 2.00000E+01
 -1      5639 2.00000E+01
 -1      5640 2.00000E+01
 -1      5641 2.00000E+01
 -1      5642 2.00000E+01
 -1      5643 2.00000E+01
 -1      5644 2.00000E+01
 -1      5645 2.00000E+01
 -1      5646 2.00000E+01
 -1      5647 2.00000E+01
 -1      5648 2.00000E+01
 -1      5649 2.00000E+01
 -1      5650 2.00000E+01
 -1      5651 2.00000E+01
 -1      5652 2.00000E+01
 -1      5653 2.00000E+01
 -1      5654 2.00000E+01
 -1      5655 2.00000E+01
 -1      5656 2.00000E+01
 -1      5657 2.00000E+01
 -1      5658 2.00000E+01
 -1      5659 2.00000E+01
 -1      5660 2.00000E+01
 -1      5661 2.00000E+01
 -1      5662 2.00000E+01
 -1      5663 2.00000E+01
 -1      5664 2.00000E+01
 -1      5665 2.00000E+01
 -1      5666 2.00000E+01
 -1      5667 2.00000E+01
 -1      5668 2.00000E+01
 -1      5669 2.00000E+01
 -1      5670 2.00000E+01
 -1      5671 2.00000E+01
 -1      5672 2.00000E+01
 -1      5673 2.00000E+01
 -1      5674 2.00000E+01
 -1      5675 2.00000E+01
 -1      5676 2.00000E+01
 -1      5677 2.00000E+01
 -1      5678 2.00000E+01
 -1      5679 2.00000E+01
 -1      5680 2.00000E+01
 -1      5681 2.00000E+01
 -1      5682 2.00000E+01
 -1      5683 2.00000E+01
 -1      5684 2.00000E+01
 -1      5685 2.00000E+01
 -1      5686 2.00000E+01
 -1      5687 2.00000E+01
 -1      5688 2.00000E+01
 -1      5689 2.00000E+01
 -1      5690 2.00000E+01
 -1      5691 2.00000E+01
 -1      5692 2.00000E+01
 -1      5693 2.00000E+01
 -1      5694 2.00000E+01
 -1      5695 2.00000E+01
 -1      5696 2.00000E+01
 -1      5697 2.00000E+01
 -1      5698 2.00000E+01
 -1      5699 2.00000E+01
 -1      5700 2.00000E+01
 -1      5701 2.00000E+01
 -1      5702 2.00000E+01
 -1      5703 2.00000E+01
 -1      5704 2.00000E+01
 -1      5705 2.00000E+01
 -1      5706 2.00000E+01
 -1      5707 2.00000E+01
 -1      5708 2.00000E+01
 -1      5709 2.00000E+01
 -1      5710 2.00000E+01
 -1      5711 2.00000E+01
 -1      5712 2.00000E+01
 -1      5713 2.00000E+01
 -1      5714 2.00000E+01
 -1      5715 2.00000E+01
 -1      5716 2.00000E+01
 -1      5717 2.00000E+01
 -1      5718 2.00000E+01
 -1      5719 2.00000E+01
 -1      5720 2.00000E+01
 -1      5721 2.00000E+01
 -1      5722 2.00000E+01
 -1      5723 2.00000E+01
 -1      5724 2.00000E+01
 -1      5725 2.00000E+01
 -1      5726 2.00000E+01
 -1      5727 2.00000E+01
 -1      5728 2.00000E+01
 -1      5729 2.00000E+01
 -1      5730 2.00000E+01
 -1      5731 2.00000E+01
 -1      5732 2.00000E+01
 -1      5733 2.00000E+01
 -1      5734 2.00000E+01
 -1      5735 2.00000E+01
 -1      5736 2.00000E+01
 -1      5737 2.00000E+01
 -1      5738 2.00000E+01
 -1      5739 2.00000E+01
 -1      5740 2.00000E+01
 -1      5741 2.00000E+01
 -1      5742 2.00000E+01
 -1      5743 2.00000E+01
 -1      5744 2.00000E+01
 -1      5745 2.00000E+01
 -1      5746 2.00000E+01
 -1      5747 2.00000E+01
 -1      5748 2.00000E+01
 -1      5749 2.00000E+01
 -1      5750 2.00000E+01
 -1      5751 2.00000E+01
 -1      5752 2.00000E+01
 -1      5753 2.00000E+01
 -1      5754 2.00000E+01
 -1      5755 2.00000E+01
 -1      5756 2.00000E+01
 -1      5757 2.00000E+01
 -1      5758 2.00000E+01
 -1      5759 2.00000E+01
 -1      5760 2.00000E+01
 -1      5761 2.00000E+01
 -1      5762 2.00000E+01
 -1      5763 2.00000E+01
 -1      5764 2.00000E+01
 -1      5765 2.00000E+01
 -1      5766 2.00000E+01
 -1      5767 2.00000E+01
 -1      5768 2.00000E+01
 -1      5769 2.00000E+01
 -1      5770 2.00000E+01
 -1      5771 2.00000E+01
 -1      5772 2.00000E+01
 -1      5773 2.00000E+01
 -1      5774 2.00000E+01
 -1      5775 2.00000E+01
 -1      5776 2.00000E+01
 -1      5777 2.00000E+01
 -1      5778 2.00000E+01
 -1      5779 2.00000E+01
 -1      5780 2.00000E+01
 -1      5781 2.00000E+01
 -1      5782 2.00000E+01
 -1      5783 2.00000E+01
 -1      5784 2.00000E+01
 -1      5785 2.00000E+01
 -1      5786 2.00000E+01
 -1      5787 2.00000E+01
 -1      5788 2.00000E+01
 -1      5789 2.00000E+01
 -1      5790 2.00000E+01
 -1      5791 2.00000E+01
 -1      5792 2.00000E+01
 -1      5793 2.00000E+01
 -1      5794 2.00000E+01
 -1      5795 2.00000E+01
 -1      5796 2.00000E+01
 -1      5797 2.00000E+01
 -1      5798 2.00000E+01
 -1      5799 2.00000E+01
 -1      5800 2.00000E+01
 -1      5801 2.00000E+01
 -1      5802 2.00000E+01
 -1      5803 2.00000E+01
 -1      5804 2.00000E+01
 -1      5805 2.00000E+01
 -1      5806 2.00000E+01
 -1      5807 2.00000E+01
 -1      5808 2.00000E+01
 -1      5809 2.00000E+01
 -1      5810 2.00000E+01
 -1      5811 2.00000E+01
 -1      5812 2.00000E+01
 -1      5813 2.00000E+01
 -1      5814 2.00000E+01
 -1      5815 2.00000E+01
 -1      5816 2.00000E+01
 -1      5817 2.00000E+01
 -1      5818 2.00000E+01
 -1      5819 2.00000E+01
 -1      5820 2.00000E+01
 -1      5821 2.00000E+01
 -1      5822 2.00000E+01
 -1      5823 2.00000E+01
 -1      5824 2.00000E+01
 -1      5825 2.00000E+01
 -1      5826 2.00000E+01
 -1      5827 2.00000E+01
 -1      5828 2.00000E+01
 -1      5829 2.00000E+01
 -1      5830 2.00000E+01
 -1      5831 2.00000E+01
 -1      5832 2.00000E+01
 -1      5833 2.00000E+01
 -1      5834 2.00000E+01
 -1      5835 2.00000E+01
 -1      5836 2.00000E+01
 -1      5837 2.00000E+01
 -1      5838 2.00000E+01
 -1      5839 2.00000E+01
 -1      5840 2.00000E+01
 -1      5841 2.00000E+01
 -1      5842 2.00000E+01
 -1      5843 2.00000E+01
 -1      5844 2.00000E+01
 -1      5845 2.00000E+01
 -1      5846 2.00000E+01
 -1      5847 2.00000E+01
 -1      5848 2.00000E+01
 -1      5849 2.00000E+01
 -1      5850 2.00000E+01
 -1      5851 2.00000E+01
 -1      5852 2.00000E+01
 -1      5853 2.00000E+01
 -1      5854 2.00000E+01
 -1      5855 2.00000E+01
 -1      5856 2.00000E+01
 -1      5857 2.00000E+01
 -1      5858 2.00000E+01
 -1      5859 2.00000E+01
 -1      5860 2.00000E+01
 -1      5861 2.00000E+01
 -1      5862 2.00000E+01
 -1      5863 2.00000E+01
 -1      5864 2.00000E+01
 -1      5865 2.00000E+01
 -1      5866 2.00000E+01
 -1      5867 2.00000E+01
 -1      5868 2.00000E+01
 -1      5869 2.00000E+01
 -1      5870 2.00000E+01
 -1      5871 2.00000E+01
 -1      5872 2.00000E+01
 -1      5873 2.00000E+01
 -1      5874 2.00000E+01
 -1      5875 2.00000E+01
 -1      5876 2.00000E+01
 -1      5877 2.00000E+01
 -1      5878 2.00000E+01
 -1      5879 2.00000E+01
 -1      5880 2.00000E+01
 -1      5881 2.00000E+01
 -1      5882 2.00000E+01
 -1      5883 2.00000E+01
 -1      5884 2.00000E+01
 -1      5885 2.00000E+01
 -1      5886 2.00000E+01
 -1      5887 2.00000E+01
 -1      5888 2.00000E+01
 -1      5889 2.00000E+01
 -1      5890 2.00000E+01
 -1      5891 2.00000E+01
 -1      5892 2.00000E+01
 -1      5893 2.00000E+01
 -1      5894 2.00000E+01
 -1      5895 2.00000E+01
 -1      5896 2.00000E+01
 -1      5897 2.00000E+01
 -1      5898 2.00000E+01
 -1      5899 2.00000E+01
 -1      5900 2.00000E+01
 -1      5901 2.00000E+01
 -1      5902 2.00000E+01
 -1      5903 2.00000E+01
 -1      5904 2.00000E+01
 -1      5905 2.00000E+01
 -1      5906 2.00000E+01
 -1      5907 2.00000E+01
 -1      5908 2.00000E+01
 -1      5909 2.00000E+01
 -1      5910 2.00000E+01
 -1      5911 2.00000E+01
 -1      5912 2.00000E+01
 -1      5913 2.00000E+01
 -1      5914 2.00000E+01
 -1      5915 2.00000E+01
 -1      5916 2.00000E+01
 -1      5917 2.00000E+01
 -1      5918 2.00000E+01
 -1      5919 2.00000E+01
 -1      5920 2.00000E+01
 -1      5921 2.00000E+01
 -1      5922 2.00000E+01
 -1      5923 2.00000E+01
 -1      5924 2.00000E+01
 -1      5925 2.00000E+01
 -1      5926 2.00000E+01
 -1      5927 2.00000E+01
 -1      5928 2.00000E+01
 -1      5929 2.00000E+01
 -1      5930 2.00000E+01
 -1      5931 2.00000E+01
 -1      5932 2.00000E+01
 -1      5933 2.00000E+01
 -1      5934 2.00000E+01
 -1      5935 2.00000E+01
 -1      5936 2.00000E+01
 -1      5937 2.00000E+01
 -1      5938 2.00000E+01
 -1      5939 2.00000E+01
 -1      5940 2.00000E+01
 -1      5941 2.00000E+01
 -1      5942 2.00000E+01
 -1      5943 2.00000E+01
 -1      5944 2.00000E+01
 -1      5945 2.00000E+01
 -1      5946 2.00000E+01
 -1      5947 2.00000E+01
 -1      5948 2.00000E+01
 -1      5949 2.00000E+01
 -1      5950 2.00000E+01
 -1      5951 2.00000E+01
 -1      5952 2.00000E+01
 -1      5953 2.00000E+01
 -1      5954 2.00000E+01
 -1      5955 2.00000E+01
 -1      5956 2.00000E+01
 -1      5957 2.00000E+01
 -1      5958 2.00000E+01
 -1      5959 2.00000E+01
 -1      5960 2.00000E+01
 -1      5961 2.00000E+01
 -1      5962 2.00000E+01
 -1      5963 2.00000E+01
 -1      5964 2.00000E+01
 -1      5965 2.00000E+01
 -1      5966 2.00000E+01
 -1      5967 2.00000E+01
 -1      5968 2.00000E+01
 -1      5969 2.00000E+01
 -1      5970 2.00000E+01
 -1      5971 2.00000E+01
 -1      5972 2.00000E+01
 -1      5973 2.00000E+01
 -1      5974 2.00000E+01
 -1      5975 2.00000E+01
 -1      5976 2.00000E+01
 -1      5977 2.00000E+01
 -1      5978 2.00000E+01
 -1      5979 2.00000E+01
 -1      5980 2.00000E+01
 -1      5981 2.00000E+01
 -1      5982 2.00000E+01
 -1      5983 2.00000E+01
 -1      5984 2.00000E+01
 -1      5985 2.00000E+01
 -1      5986 2.00000E+01
 -1      5987 2.00000E+01
 -1      5988 2.00000E+01
 -1      5989 2.00000E+01
 -1      5990 2.00000E+01
 -1      5991 2.00000E+01
 -1      5992 2.00000E+01
 -1      5993 2.00000E+01
 -1      5994 2.00000E+01
 -1      5995 2.00000E+01
 -1      5996 2.00000E+01
 -1      5997 2.00000E+01
 -1      5998 2.00000E+01
 -1      5999 2.00000E+01
 -1      6000 2.00000E+01
 -1      6001 2.00000E+01
 -1      6002 2.00000E+01
 -1      6003 2.00000E+01
 -1      6004 2.00000E+01
 -1      6005 2.00000E+01
 -1      6006 2.00000E+01
 -1      6007 2.00000E+01
 -1      6008 2.00000E+01
 -1      6009 2.00000E+01
 -1      6010 2.00000E+01
 -1      6011 2.00000E+01
 -1      6012 2.00000E+01
 -1      6013 2.00000E+01
 -1      6014 2.00000E+01
 -1      6015 2.00000E+01
 -1      6016 2.00000E+01
 -1      6017 2.00000E+01
 -1      6018 2.00000E+01
 -1      6019 2.00000E+01
 -1      6020 2.00000E+01
 -1      6021 2.00000E+01
 -1      6022 2.00000E+01
 -1      6023 2.00000E+01
 -1      6024 2.00000E+01
 -1      6025 2.00000E+01
 -1      6026 2.00000E+01
 -1      6027 2.00000E+01
 -1      6028 2.00000E+01
 -1      6029 2.00000E+01
 -1      6030 2.00000E+01
 -1      6031 2.00000E+01
 -1      6032 2.00000E+01
 -1      6033 2.00000E+01
 -1      6034 2.00000E+01
 -1      6035 2.00000E+01
 -1      6036 2.00000E+01
 -1      6037 2.00000E+01
 -1      6038 2.00000E+01
 -1      6039 2.00000E+01
 -1      6040 2.00000E+01
 -1      6041 2.00000E+01
 -1      6042 2.00000E+01
 -1      6043 2.00000E+01
 -1      6044 2.00000E+01
 -1      6045 2.00000E+01
 -1      6046 2.00000E+01
 -1      6047 2.00000E+01
 -1      6048 2.00000E+01
 -1      6049 2.00000E+01
 -1      6050 2.00000E+01
 -1      6051 2.00000E+01
 -1      6052 2.00000E+01
 -1      6053 2.00000E+01
 -1      6054 2.00000E+01
 -1      6055 2.00000E+01
 -1      6056 2.00000E+01
 -1      6057 2.00000E+01
 -1      6058 2.00000E+01
 -1      6059 2.00000E+01
 -1      6060 2.00000E+01
 -1      6061 2.00000E+01
 -1      6062 2.00000E+01
 -1      6063 2.00000E+01
 -1      6064 2.00000E+01
 -1      6065 2.00000E+01
 -1      6066 2.00000E+01
 -1      6067 2.00000E+01
 -1      6068 2.00000E+01
 -1      6069 2.00000E+01
 -1      6070 2.00000E+01
 -1      6071 2.00000E+01
 -1      6072 2.00000E+01
 -1      6073 2.00000E+01
 -1      6074 2.00000E+01
 -1      6075 2.00000E+01
 -1      6076 2.00000E+01
 -1      6077 2.00000E+01
 -1      6078 2.00000E+01
 -1      6079 2.00000E+01
 -1      6080 2.00000E+01
 -1      6081 2.00000E+01
 -1      6082 2.00000E+01
 -1      6083 2.00000E+01
 -1      6084 2.00000E+01
 -1      6085 2.00000E+01
 -1      6086 2.00000E+01
 -1      6087 2.00000E+01
 -1      6088 2.00000E+01
 -1      6089 2.00000E+01
 -1      6090 2.00000E+01
 -1      6091 2.00000E+01
 -1      6092 2.00000E+01
 -1      6093 2.00000E+01
 -1      6094 2.00000E+01
 -1      6095 2.00000E+01
 -1      6096 2.00000E+01
 -1      6097 2.00000E+01
 -1      6098 2.00000E+01
 -1      6099 2.00000E+01
 -1      6100 2.00000E+01
 -1      6101 2.00000E+01
 -1      6102 2.00000E+01
 -1      6103 2.00000E+01
 -1      6104 2.00000E+01
 -1      6105 2.00000E+01
 -1      6106 2.00000E+01
 -1      6107 2.00000E+01
 -1      6108 2.00000E+01
 -1      6109 2.00000E+01
 -1      6110 2.00000E+01
 -1      6111 2.00000E+01
 -1      6112 2.00000E+01
 -1      6113 2.00000E+01
 -1      6114 2.00000E+01
 -1      6115 2.00000E+01
 -1      6116 2.00000E+01
 -1      6117 2.00000E+01
 -1      6118 2.00000E+01
 -1      6119 2.00000E+01
 -1      6120 2.00000E+01
 -1      6121 2.00000E+01
 -1      6122 2.00000E+01
 -1      6123 2.00000E+01
 -1      6124 2.00000E+01
 -1      6125 2.00000E+01
 -1      6126 2.00000E+01
 -1      6127 2.00000E+01
 -1      6128 2.00000E+01
 -1      6129 2.00000E+01
 -1      6130 2.00000E+01
 -1      6131 2.00000E+01
 -1      6132 2.00000E+01
 -1      6133 2.00000E+01
 -1      6134 2.00000E+01
 -1      6135 2.00000E+01
 -1      6136 2.00000E+01
 -1      6137 2.00000E+01
 -1      6138 2.00000E+01
 -1      6139 2.00000E+01
 -1      6140 2.00000E+01
 -1      6141 2.00000E+01
 -1      6142 2.00000E+01
 -1      6143 2.00000E+01
 -1      6144 2.00000E+01
 -1      6145 2.00000E+01
 -1      6146 2.00000E+01
 -1      6147 2.00000E+01
 -1      6148 2.00000E+01
 -1      6149 2.00000E+01
 -1      6150 2.00000E+01
 -1      6151 2.00000E+01
 -1      6152 2.00000E+01
 -1      6153 2.00000E+01
 -1      6154 2.00000E+01
 -1      6155 2.00000E+01
 -1      6156 2.00000E+01
 -1      6157 2.00000E+01
 -1      6158 2.00000E+01
 -1      6159 2.00000E+01
 -1      6160 2.00000E+01
 -1      6161 2.00000E+01
 -1      6162 2.00000E+01
 -1      6163 2.00000E+01
 -1      6164 2.00000E+01
 -1      6165 2.00000E+01
 -1      6166 2.00000E+01
 -1      6167 2.00000E+01
 -1      6168 2.00000E+01
 -1      6169 2.00000E+01
 -1      6170 2.00000E+01
 -1      6171 2.00000E+01
 -1      6172 2.00000E+01
 -1      6173 2.00000E+01
 -1      6174 2.00000E+01
 -1      6175 2.00000E+01
 -1      6176 2.00000E+01
 -1      6177 2.00000E+01
 -1      6178 2.00000E+01
 -1      6179 2.00000E+01
 -1      6180 2.00000E+01
 -1      6181 2.00000E+01
 -1      6182 2.00000E+01
 -1      6183 2.00000E+01
 -1      6184 2.00000E+01
 -1      6185 2.00000E+01
 -1      6186 2.00000E+01
 -1      6187 2.00000E+01
 -1      6188 2.00000E+01
 -1      6189 2.00000E+01
 -1      6190 2.00000E+01
 -1      6191 2.00000E+01
 -1      6192 2.00000E+01
 -1      6193 2.00000E+01
 -1      6194 2.00000E+01
 -1      6195 2.00000E+01
 -1      6196 2.00000E+01
 -1      6197 2.00000E+01
 -1      6198 2.00000E+01
 -1      6199 2.00000E+01
 -1      6200 2.00000E+01
 -1      6201 2.00000E+01
 -1      6202 2.00000E+01
 -1      6203 2.00000E+01
 -1      6204 2.00000E+01
 -1      6205 2.00000E+01
 -1      6206 2.00000E+01
 -1      6207 2.00000E+01
 -1      6208 2.00000E+01
 -1      6209 2.00000E+01
 -1      6210 2.00000E+01
 -1      6211 2.00000E+01
 -1      6212 2.00000E+01
 -1      6213 2.00000E+01
 -1      6214 2.00000E+01
 -1      6215 2.00000E+01
 -1      6216 2.00000E+01
 -1      6217 2.00000E+01
 -1      6218 2.00000E+01
 -1      6219 2.00000E+01
 -1      6220 2.00000E+01
 -1      6221 2.00000E+01
 -1      6222 2.00000E+01
 -1      6223 2.00000E+01
 -1      6224 2.00000E+01
 -1      6225 2.00000E+01
 -1      6226 2.00000E+01
 -1      6227 2.00000E+01
 -1      6228 2.00000E+01
 -1      6229 2.00000E+01
 -1      6230 2.00000E+01
 -1      6231 2.00000E+01
 -1      6232 2.00000E+01
 -1      6233 2.00000E+01
 -1      6234 2.00000E+01
 -1      6235 2.00000E+01
 -1      6236 2.00000E+01
 -1      6237 2.00000E+01
 -1      6238 2.00000E+01
 -1      6239 2.00000E+01
 -1      6240 2.00000E+01
 -1      6241 2.00000E+01
 -1      6242 2.00000E+01
 -1      6243 2.00000E+01
 -1      6244 2.00000E+01
 -1      6245 2.00000E+01
 -1      6246 2.00000E+01
 -1      6247 2.00000E+01
 -1      6248 2.00000E+01
 -1      6249 2.00000E+01
 -1      6250 2.00000E+01
 -1      6251 2.00000E+01
 -1      6252 2.00000E+01
 -1      6253 2.00000E+01
 -1      6254 2.00000E+01
 -1      6255 2.00000E+01
 -1      6256 2.00000E+01
 -1      6257 2.00000E+01
 -1      6258 2.00000E+01
 -1      6259 2.00000E+01
 -1      6260 2.00000E+01
 -1      6261 2.00000E+01
 -1      6262 2.00000E+01
 -1      6263 2.00000E+01
 -1      6264 2.00000E+01
 -1      6265 2.00000E+01
 -1      6266 2.00000E+01
 -1      6267 2.00000E+01
 -1      6268 2.00000E+01
 -1      6269 2.00000E+01
 -1      6270 2.00000E+01
 -1      6271 2.00000E+01
 -1      6272 2.00000E+01
 -1      6273 2.00000E+01
 -1      6274 2.00000E+01
 -1      6275 2.00000E+01
 -1      6276 2.00000E+01
 -1      6277 2.00000E+01
 -1      6278 2.00000E+01
 -1      6279 2.00000E+01
 -1      6280 2.00000E+01
 -1      6281 2.00000E+01
 -1      6282 2.00000E+01
 -1      6283 2.00000E+01
 -1      6284 2.00000E+01
 -1      6285 2.00000E+01
 -1      6286 2.00000E+01
 -1      6287 2.00000E+01
 -1      6288 2.00000E+01
 -1      6289 2.00000E+01
 -1      6290 2.00000E+01
 -1      6291 2.00000E+01
 -1      6292 2.00000E+01
 -1      6293 2.00000E+01
 -1      6294 2.00000E+01
 -1      6295 2.00000E+01
 -1      6296 2.00000E+01
 -1      6297 2.00000E+01
 -1      6298 2.00000E+01
 -1      6299 2.00000E+01
 -1      6300 2.00000E+01
 -1      6301 2.00000E+01
 -1      6302 2.00000E+01
 -1      6303 2.00000E+01
 -1      6304 2.00000E+01
 -1      6305 2.00000E+01
 -1      6306 2.00000E+01
 -1      6307 2.00000E+01
 -1      6308 2.00000E+01
 -1      6309 2.00000E+01
 -1      6310 2.00000E+01
 -1      6311 2.00000E+01
 -1      6312 2.00000E+01
 -1      6313 2.00000E+01
 -1      6314 2.00000E+01
 -1      6315 2.00000E+01
 -1      6316 2.00000E+01
 -1      6317 2.00000E+01
 -1      6318 2.00000E+01
 -1      6319 2.00000E+01
 -1      6320 2.00000E+01
 -1      6321 2.00000E+01
 -1      6322 2.00000E+01
 -1      6323 2.00000E+01
 -1      6324 2.00000E+01
 -1      6325 2.00000E+01
 -1      6326 2.00000E+01
 -1      6327 2.00000E+01
 -1      6328 2.00000E+01
 -1      6329 2.00000E+01
 -1      6330 2.00000E+01
 -1      6331 2.00000E+01
 -1      6332 2.00000E+01
 -1      6333 2.00000E+01
 -1      6334 2.00000E+01
 -1      6335 2.00000E+01
 -1      6336 2.00000E+01
 -1      6337 2.00000E+01
 -1      6338 2.00000E+01
 -1      6339 2.00000E+01
 -1      6340 2.00000E+01
 -1      6341 2.00000E+01
 -1      6342 2.00000E+01
 -1      6343 2.00000E+01
 -1      6344 2.00000E+01
 -1      6345 2.00000E+01
 -1      6346 2.00000E+01
 -1      6347 2.00000E+01
 -1      6348 2.00000E+01
 -1      6349 2.00000E+01
 -1      6350 2.00000E+01
 -1      6351 2.00000E+01
 -1      6352 2.00000E+01
 -1      6353 2.00000E+01
 -1      6354 2.00000E+01
 -1      6355 2.00000E+01
 -1      6356 2.00000E+01
 -1      6357 2.00000E+01
 -1      6358 2.00000E+01
 -1      6359 2.00000E+01
 -1      6360 2.00000E+01
 -1      6361 2.00000E+01
 -1      6362 2.00000E+01
 -1      6363 2.00000E+01
 -1      6364 2.00000E+01
 -1      6365 2.00000E+01
 -1      6366 2.00000E+01
 -1      6367 2.00000E+01
 -1      6368 2.00000E+01
 -1      6369 2.00000E+01
 -1      6370 2.00000E+01
 -1      6371 2.00000E+01
 -1      6372 2.00000E+01
 -1      6373 2.00000E+01
 -1      6374 2.00000E+01
 -1      6375 2.00000E+01
 -1      6376 2.00000E+01
 -1      6377 2.00000E+01
 -1      6378 2.00000E+01
 -1      6379 2.00000E+01
 -1      6380 2.00000E+01
 -1      6381 2.00000E+01
 -1      6382 2.00000E+01
 -1      6383 2.00000E+01
 -1      6384 2.00000E+01
 -1      6385 2.00000E+01
 -1      6386 2.00000E+01
 -1      6387 2.00000E+01
 -1      6388 2.00000E+01
 -1      6389 2.00000E+01
 -1      6390 2.00000E+01
 -1      6391 2.00000E+01
 -1      6392 2.00000E+01
 -1      6393 2.00000E+01
 -1      6394 2.00000E+01
 -1      6395 2.00000E+01
 -1      6396 2.00000E+01
 -1      6397 2.00000E+01
 -1      6398 2.00000E+01
 -1      6399 2.00000E+01
 -1      6400 2.00000E+01
 -1      6401 2.00000E+01
 -1      6402 2.00000E+01
 -1      6403 2.00000E+01
 -1      6404 2.00000E+01
 -1      6405 2.00000E+01
 -1      6406 2.00000E+01
 -1      6407 2.00000E+01
 -1      6408 2.00000E+01
 -1      6409 2.00000E+01
 -1      6410 2.00000E+01
 -1      6411 2.00000E+01
 -1      6412 2.00000E+01
 -1      6413 2.00000E+01
 -1      6414 2.00000E+01
 -1      6415 2.00000E+01
 -1      6416 2.00000E+01
 -1      6417 2.00000E+01
 -1      6418 2.00000E+01
 -1      6419 2.00000E+01
 -1      6420 2.00000E+01
 -1      6421 2.00000E+01
 -1      6422 2.00000E+01
 -1      6423 2.00000E+01
 -1      6424 2.00000E+01
 -1      6425 2.00000E+01
 -1      6426 2.00000E+01
 -1      6427 2.00000E+01
 -1      6428 2.00000E+01
 -1      6429 2.00000E+01
 -1      6430 2.00000E+01
 -1      6431 2.00000E+01
 -1      6432 2.00000E+01
 -1      6433 2.00000E+01
 -1      6434 2.00000E+01
 -1      6435 2.00000E+01
 -1      6436 2.00000E+01
 -1      6437 2.00000E+01
 -1      6438 2.00000E+01
 -1      6439 2.00000E+01
 -1      6440 2.00000E+01
 -1      6441 2.00000E+01
 -1      6442 2.00000E+01
 -1      6443 2.00000E+01
 -1      6444 2.00000E+01
 -1      6445 2.00000E+01
 -1      6446 2.00000E+01
 -1      6447 2.00000E+01
 -1      6448 2.00000E+01
 -1      6449 2.00000E+01
 -1      6450 2.00000E+01
 -1      6451 2.00000E+01
 -1      6452 2.00000E+01
 -1      6453 2.00000E+01
 -1      6454 2.00000E+01
 -1      6455 2.00000E+01
 -1      6456 2.00000E+01
 -1      6457 2.00000E+01
 -1      6458 2.00000E+01
 -1      6459 2.00000E+01
 -1      6460 2.00000E+01
 -1      6461 2.00000E+01
 -1      6462 2.00000E+01
 -1      6463 2.00000E+01
 -1      6464 2.00000E+01
 -1      6465 2.00000E+01
 -1      6466 2.00000E+01
 -1      6467 2.00000E+01
 -1      6468 2.00000E+01
 -1      6469 2.00000E+01
 -1      6470 2.00000E+01
 -1      6471 2.00000E+01
 -1      6472 2.00000E+01
 -1      6473 2.00000E+01
 -1      6474 2.00000E+01
 -1      6475 2.00000E+01
 -1      6476 2.00000E+01
 -1      6477 2.00000E+01
 -1      6478 2.00000E+01
 -1      6479 2.00000E+01
 -1      6480 2.00000E+01
 -1      6481 2.00000E+01
 -1      6482 2.00000E+01
 -1      6483 2.00000E+01
 -1      6484 2.00000E+01
 -1      6485 2.00000E+01
 -1      6486 2.00000E+01
 -1      6487 2.00000E+01
 -1      6488 2.00000E+01
 -1      6489 2.00000E+01
 -1      6490 2.00000E+01
 -1      6491 2.00000E+01
 -1      6492 2.00000E+01
 -1      6493 2.00000E+01
 -1      6494 2.00000E+01
 -1      6495 2.00000E+01
 -1      6496 2.00000E+01
 -1      6497 2.00000E+01
 -1      6498 2.00000E+01
 -1      6499 2.00000E+01
 -1      6500 2.00000E+01
 -1      6501 2.00000E+01
 -1      6502 2.00000E+01
 -1      6503 2.00000E+01
 -1      6504 2.00000E+01
 -1      6505 2.00000E+01
 -1      6506 2.00000E+01
 -1      6507 2.00000E+01
 -1      6508 2.00000E+01
 -1      6509 2.00000E+01
 -1      6510 2.00000E+01
 -1      6511 2.00000E+01
 -1      6512 2.00000E+01
 -1      6513 2.00000E+01
 -1      6514 2.00000E+01
 -1      6515 2.00000E+01
 -1      6516 2.00000E+01
 -1      6517 2.00000E+01
 -1      6518 2.00000E+01
 -1      6519 2.00000E+01
 -1      6520 2.00000E+01
 -1      6521 2.00000E+01
 -1      6522 2.00000E+01
 -1      6523 2.00000E+01
 -1      6524 2.00000E+01
 -1      6525 2.00000E+01
 -1      6526 2.00000E+01
 -1      6527 2.00000E+01
 -1      6528 2.00000E+01
 -1      6529 2.00000E+01
 -1      6530 2.00000E+01
 -1      6531 2.00000E+01
 -1      6532 2.00000E+01
 -1      6533 2.00000E+01
 -1      6534 2.00000E+01
 -1      6535 2.00000E+01
 -1      6536 2.00000E+01
 -1      6537 2.00000E+01
 -1      6538 2.00000E+01
 -1      6539 2.00000E+01
 -1      6540 2.00000E+01
 -1      6541 2.00000E+01
 -1      6542 2.00000E+01
 -1      6543 2.00000E+01
 -1      6544 2.00000E+01
 -1      6545 2.00000E+01
 -1      6546 2.00000E+01
 -1      6547 2.00000E+01
 -1      6548 2.00000E+01
 -1      6549 2.00000E+01
 -1      6550 2.00000E+01
 -1      6551 2.00000E+01
 -1      6552 2.00000E+01
 -1      6553 2.00000E+01
 -1      6554 2.00000E+01
 -1      6555 2.00000E+01
 -1      6556 2.00000E+01
 -1      6557 2.00000E+01
 -1      6558 2.00000E+01
 -1      6559 2.00000E+01
 -1      6560 2.00000E+01
 -1      6561 2.00000E+01
 -1      6562 2.00000E+01
 -1      6563 2.00000E+01
 -1      6564 2.00000E+01
 -1      6565 2.00000E+01
 -1      6566 2.00000E+01
 -1      6567 2.00000E+01
 -1      6568 2.00000E+01
 -1      6569 2.00000E+01
 -1      6570 2.00000E+01
 -1      6571 2.00000E+01
 -1      6572 2.00000E+01
 -1      6573 2.00000E+01
 -1      6574 2.00000E+01
 -1      6575 2.00000E+01
 -1      6576 2.00000E+01
 -1      6577 2.00000E+01
 -1      6578 2.00000E+01
 -1      6579 2.00000E+01
 -1      6580 2.00000E+01
 -1      6581 2.00000E+01
 -1      6582 2.00000E+01
 -1      6583 2.00000E+01
 -1      6584 2.00000E+01
 -1      6585 2.00000E+01
 -1      6586 2.00000E+01
 -1      6587 2.00000E+01
 -1      6588 2.00000E+01
 -1      6589 2.00000E+01
 -1      6590 2.00000E+01
 -1      6591 2.00000E+01
 -1      6592 2.00000E+01
 -1      6593 2.00000E+01
 -1      6594 2.00000E+01
 -1      6595 2.00000E+01
 -1      6596 2.00000E+01
 -1      6597 2.00000E+01
 -1      6598 2.00000E+01
 -1      6599 2.00000E+01
 -1      6600 2.00000E+01
 -1      6601 2.00000E+01
 -1      6602 2.00000E+01
 -1      6603 2.00000E+01
 -1      6604 2.00000E+01
 -1      6605 2.00000E+01
 -1      6606 2.00000E+01
 -1      6607 2.00000E+01
 -1      6608 2.00000E+01
 -1      6609 2.00000E+01
 -1      6610 2.00000E+01
 -1      6611 2.00000E+01
 -1      6612 2.00000E+01
 -1      6613 2.00000E+01
 -1      6614 2.00000E+01
 -1      6615 2.00000E+01
 -1      6616 2.00000E+01
 -1      6617 2.00000E+01
 -1      6618 2.00000E+01
 -1      6619 2.00000E+01
 -1      6620 2.00000E+01
 -1      6621 2.00000E+01
 -1      6622 2.00000E+01
 -1      6623 2.00000E+01
 -1      6624 2.00000E+01
 -1      6625 2.00000E+01
 -1      6626 2.00000E+01
 -1      6627 2.00000E+01
 -1      6628 2.00000E+01
 -1      6629 2.00000E+01
 -1      6630 2.00000E+01
 -1      6631 2.00000E+01
 -1      6632 2.00000E+01
 -1      6633 2.00000E+01
 -1      6634 2.00000E+01
 -1      6635 2.00000E+01
 -1      6636 2.00000E+01
 -1      6637 2.00000E+01
 -1      6638 2.00000E+01
 -1      6639 2.00000E+01
 -1      6640 2.00000E+01
 -1      6641 2.00000E+01
 -1      6642 2.00000E+01
 -1      6643 2.00000E+01
 -1      6644 2.00000E+01
 -1      6645 2.00000E+01
 -1      6646 2.00000E+01
 -1      6647 2.00000E+01
 -1      6648 2.00000E+01
 -1      6649 2.00000E+01
 -1      6650 2.00000E+01
 -1      6651 2.00000E+01
 -1      6652 2.00000E+01
 -1      6653 2.00000E+01
 -1      6654 2.00000E+01
 -1      6655 2.00000E+01
 -1      6656 2.00000E+01
 -1      6657 2.00000E+01
 -1      6658 2.00000E+01
 -1      6659 2.00000E+01
 -1      6660 2.00000E+01
 -1      6661 2.00000E+01
 -1      6662 2.00000E+01
 -1      6663 2.00000E+01
 -1      6664 2.00000E+01
 -1      6665 2.00000E+01
 -1      6666 2.00000E+01
 -1      6667 2.00000E+01
 -1      6668 2.00000E+01
 -1      6669 2.00000E+01
 -1      6670 2.00000E+01
 -1      6671 2.00000E+01
 -1      6672 2.00000E+01
 -1      6673 2.00000E+01
 -1      6674 2.00000E+01
 -1      6675 2.00000E+01
 -1      6676 2.00000E+01
 -1      6677 2.00000E+01
 -1      6678 2.00000E+01
 -1      6679 2.00000E+01
 -1      6680 2.00000E+01
 -1      6681 2.00000E+01
 -1      6682 2.00000E+01
 -1      6683 2.00000E+01
 -1      6684 2.00000E+01
 -1      6685 2.00000E+01
 -1      6686 2.00000E+01
 -1      6687 2.00000E+01
 -1      6688 2.00000E+01
 -1      6689 2.00000E+01
 -1      6690 2.00000E+01
 -1      6691 2.00000E+01
 -1      6692 2.00000E+01
 -1      6693 2.00000E+01
 -1      6694 2.00000E+01
 -1      6695 2.00000E+01
 -1      6696 2.00000E+01
 -1      6697 2.00000E+01
 -1      6698 2.00000E+01
 -1      6699 2.00000E+01
 -1      6700 2.00000E+01
 -1      6701 2.00000E+01
 -1      6702 2.00000E+01
 -1      6703 2.00000E+01
 -1      6704 2.00000E+01
 -1      6705 2.00000E+01
 -1      6706 2.00000E+01
 -1      6707 2.00000E+01
 -1      6708 2.00000E+01
 -1      6709 2.00000E+01
 -1      6710 2.00000E+01
 -1      6711 2.00000E+01
 -1      6712 2.00000E+01
 -1      6713 2.00000E+01
 -1      6714 2.00000E+01
 -1      6715 2.00000E+01
 -1      6716 2.00000E+01
 -1      6717 2.00000E+01
 -1      6718 2.00000E+01
 -1      6719 2.00000E+01
 -1      6720 2.00000E+01
 -1      6721 2.00000E+01
 -1      6722 2.00000E+01
 -1      6723 2.00000E+01
 -1      6724 2.00000E+01
 -1      6725 2.00000E+01
 -1      6726 2.00000E+01
 -1      6727 2.00000E+01
 -1      6728 2.00000E+01
 -1      6729 2.00000E+01
 -1      6730 2.00000E+01
 -1      6731 2.00000E+01
 -1      6732 2.00000E+01
 -1      6733 2.00000E+01
 -1      6734 2.00000E+01
 -1      6735 2.00000E+01
 -1      6736 2.00000E+01
 -1      6737 2.00000E+01
 -1      6738 2.00000E+01
 -1      6739 2.00000E+01
 -1      6740 2.00000E+01
 -1      6741 2.00000E+01
 -1      6742 2.00000E+01
 -1      6743 2.00000E+01
 -1      6744 2.00000E+01
 -1      6745 2.00000E+01
 -1      6746 2.00000E+01
 -1      6747 2.00000E+01
 -1      6748 2.00000E+01
 -1      6749 2.00000E+01
 -1      6750 2.00000E+01
 -1      6751 2.00000E+01
 -1      6752 2.00000E+01
 -1      6753 2.00000E+01
 -1      6754 2.00000E+01
 -1      6755 2.00000E+01
 -1      6756 2.00000E+01
 -1      6757 2.00000E+01
 -1      6758 2.00000E+01
 -1      6759 2.00000E+01
 -1      6760 2.00000E+01
 -1      6761 2.00000E+01
 -1      6762 2.00000E+01
 -1      6763 2.00000E+01
 -1      6764 2.00000E+01
 -1      6765 2.00000E+01
 -1      6766 2.00000E+01
 -1      6767 2.00000E+01
 -1      6768 2.00000E+01
 -1      6769 2.00000E+01
 -1      6770 2.00000E+01
 -1      6771 2.00000E+01
 -1      6772 2.00000E+01
 -1      6773 2.00000E+01
 -1      6774 2.00000E+01
 -1      6775 2.00000E+01
 -1      6776 2.00000E+01
 -1      6777 2.00000E+01
 -1      6778 2.00000E+01
 -1      6779 2.00000E+01
 -1      6780 2.00000E+01
 -1      6781 2.00000E+01
 -1      6782 2.00000E+01
 -1      6783 2.00000E+01
 -1      6784 2.00000E+01
 -1      6785 2.00000E+01
 -1      6786 2.00000E+01
 -1      6787 2.00000E+01
 -1      6788 2.00000E+01
 -1      6789 2.00000E+01
 -1      6790 2.00000E+01
 -1      6791 2.00000E+01
 -1      6792 2.00000E+01
 -1      6793 2.00000E+01
 -1      6794 2.00000E+01
 -1      6795 2.00000E+01
 -1      6796 2.00000E+01
 -1      6797 2.00000E+01
 -1      6798 2.00000E+01
 -1      6799 2.00000E+01
 -1      6800 2.00000E+01
 -1      6801 2.00000E+01
 -1      6802 2.00000E+01
 -1      6803 2.00000E+01
 -1      6804 2.00000E+01
 -1      6805 2.00000E+01
 -1      6806 2.00000E+01
 -1      6807 2.00000E+01
 -1      6808 2.00000E+01
 -1      6809 2.00000E+01
 -1      6810 2.00000E+01
 -1      6811 2.00000E+01
 -1      6812 2.00000E+01
 -1      6813 2.00000E+01
 -1      6814 2.00000E+01
 -1      6815 2.00000E+01
 -1      6816 2.00000E+01
 -1      6817 2.00000E+01
 -1      6818 2.00000E+01
 -1      6819 2.00000E+01
 -1      6820 2.00000E+01
 -1      6821 2.00000E+01
 -1      6822 2.00000E+01
 -1      6823 2.00000E+01
 -1      6824 2.00000E+01
 -1      6825 2.00000E+01
 -1      6826 2.00000E+01
 -1      6827 2.00000E+01
 -1      6828 2.00000E+01
 -1      6829 2.00000E+01
 -1      6830 2.00000E+01
 -1      6831 2.00000E+01
 -1      6832 2.00000E+01
 -1      6833 2.00000E+01
 -1      6834 2.00000E+01
 -1      6835 2.00000E+01
 -1      6836 2.00000E+01
 -1      6837 2.00000E+01
 -1      6838 2.00000E+01
 -1      6839 2.00000E+01
 -1      6840 2.00000E+01
 -1      6841 2.00000E+01
 -1      6842 2.00000E+01
 -1      6843 2.00000E+01
 -1      6844 2.00000E+01
 -1      6845 2.00000E+01
 -1      6846 2.00000E+01
 -1      6847 2.00000E+01
 -1      6848 2.00000E+01
 -1      6849 2.00000E+01
 -1      6850 2.00000E+01
 -1      6851 2.00000E+01
 -1      6852 2.00000E+01
 -1      6853 2.00000E+01
 -1      6854 2.00000E+01
 -1      6855 2.00000E+01
 -1      6856 2.00000E+01
 -1      6857 2.00000E+01
 -1      6858 2.00000E+01
 -1      6859 2.00000E+01
 -1      6860 2.00000E+01
 -1      6861 2.00000E+01
 -1      6862 2.00000E+01
 -1      6863 2.00000E+01
 -1      6864 2.00000E+01
 -1      6865 2.00000E+01
 -1      6866 2.00000E+01
 -1      6867 2.00000E+01
 -1      6868 2.00000E+01
 -1      6869 2.00000E+01
 -1      6870 2.00000E+01
 -1      6871 2.00000E+01
 -1      6872 2.00000E+01
 -1      6873 2.00000E+01
 -1      6874 2.00000E+01
 -1      6875 2.00000E+01
 -1      6876 2.00000E+01
 -1      6877 2.00000E+01
 -1      6878 2.00000E+01
 -1      6879 2.00000E+01
 -1      6880 2.00000E+01
 -1      6881 2.00000E+01
 -1      6882 2.00000E+01
 -1      6883 2.00000E+01
 -1      6884 2.00000E+01
 -1      6885 2.00000E+01
 -1      6886 2.00000E+01
 -1      6887 2.00000E+01
 -1      6888 2.00000E+01
 -1      6889 2.00000E+01
 -1      6890 2.00000E+01
 -1      6891 2.00000E+01
 -1      6892 2.00000E+01
 -1      6893 2.00000E+01
 -1      6894 2.00000E+01
 -1      6895 2.00000E+01
 -1      6896 2.00000E+01
 -1      6897 2.00000E+01
 -1      6898 2.00000E+01
 -1      6899 2.00000E+01
 -1      6900 2.00000E+01
 -1      6901 2.00000E+01
 -1      6902 2.00000E+01
 -1      6903 2.00000E+01
 -1      6904 2.00000E+01
 -1      6905 2.00000E+01
 -1      6906 2.00000E+01
 -1      6907 2.00000E+01
 -1      6908 2.00000E+01
 -1      6909 2.00000E+01
 -1      6910 2.00000E+01
 -1      6911 2.00000E+01
 -1      6912 2.00000E+01
 -1      6913 2.00000E+01
 -1      6914 2.00000E+01
 -1      6915 2.00000E+01
 -1      6916 2.00000E+01
 -1      6917 2.00000E+01
 -1      6918 2.00000E+01
 -1      6919 2.00000E+01
 -1      6920 2.00000E+01
 -1      6921 2.00000E+01
 -1      6922 2.00000E+01
 -1      6923 2.00000E+01
 -1      6924 2.00000E+01
 -1      6925 2.00000E+01
 -1      6926 2.00000E+01
 -1      6927 2.00000E+01
 -1      6928 2.00000E+01
 -1      6929 2.00000E+01
 -1      6930 2.00000E+01
 -1      6931 2.00000E+01
 -1      6932 2.00000E+01
 -1      6933 2.00000E+01
 -1      6934 2.00000E+01
 -1      6935 2.00000E+01
 -1      6936 2.00000E+01
 -1      6937 2.00000E+01
 -1      6938 2.00000E+01
 -1      6939 2.00000E+01
 -1      6940 2.00000E+01
 -1      6941 2.00000E+01
 -1      6942 2.00000E+01
 -1      6943 2.00000E+01
 -1      6944 2.00000E+01
 -1      6945 2.00000E+01
 -1      6946 2.00000E+01
 -1      6947 2.00000E+01
 -1      6948 2.00000E+01
 -1      6949 2.00000E+01
 -1      6950 2.00000E+01
 -1      6951 2.00000E+01
 -1      6952 2.00000E+01
 -1      6953 2.00000E+01
 -1      6954 2.00000E+01
 -1      6955 2.00000E+01
 -1      6956 2.00000E+01
 -1      6957 2.00000E+01
 -1      6958 2.00000E+01
 -1      6959 2.00000E+01
 -1      6960 2.00000E+01
 -1      6961 2.00000E+01
 -1      6962 2.00000E+01
 -1      6963 2.00000E+01
 -1      6964 2.00000E+01
 -1      6965 2.00000E+01
 -1      6966 2.00000E+01
 -1      6967 2.00000E+01
 -1      6968 2.00000E+01
 -1      6969 2.00000E+01
 -1      6970 2.00000E+01
 -1      6971 2.00000E+01
 -1      6972 2.00000E+01
 -1      6973 2.00000E+01
 -1      6974 2.00000E+01
 -1      6975 2.00000E+01
 -1      6976 2.00000E+01
 -1      6977 2.00000E+01
 -1      6978 2.00000E+01
 -1      6979 2.00000E+01
 -1      6980 2.00000E+01
 -1      6981 2.00000E+01
 -1      6982 2.00000E+01
 -1      6983 2.00000E+01
 -1      6984 2.00000E+01
 -1      6985 2.00000E+01
 -1      6986 2.00000E+01
 -1      6987 2.00000E+01
 -1      6988 2.00000E+01
 -1      6989 2.00000E+01
 -1      6990 2.00000E+01
 -1      6991 2.00000E+01
 -1      6992 2.00000E+01
 -1      6993 2.00000E+01
 -1      6994 2.00000E+01
 -1      6995 2.00000E+01
 -1      6996 2.00000E+01
 -1      6997 2.00000E+01
 -1      6998 2.00000E+01
 -1      6999 2.00000E+01
 -1      7000 2.00000E+01
 -1      7001 2.00000E+01
 -1      7002 2.00000E+01
 -1      7003 2.00000E+01
 -1      7004 2.00000E+01
 -1      7005 2.00000E+01
 -1      7006 2.00000E+01
 -1      7007 2.00000E+01
 -1      7008 2.00000E+01
 -1      7009 2.00000E+01
 -1      7010 2.00000E+01
 -1      7011 2.00000E+01
 -1      7012 2.00000E+01
 -1      7013 2.00000E+01
 -1      7014 2.00000E+01
 -1      7015 2.00000E+01
 -1      7016 2.00000E+01
 -1      7017 2.00000E+01
 -1      7018 2.00000E+01
 -1      7019 2.00000E+01
 -1      7020 2.00000E+01
 -1      7021 2.00000E+01
 -1      7022 2.00000E+01
 -1      7023 2.00000E+01
 -1      7024 2.00000E+01
 -1      7025 2.00000E+01
 -1      7026 2.00000E+01
 -1      7027 2.00000E+01
 -1      7028 2.00000E+01
 -1      7029 2.00000E+01
 -1      7030 2.00000E+01
 -1      7031 2.00000E+01
 -1      7032 2.00000E+01
 -1      7033 2.00000E+01
 -1      7034 2.00000E+01
 -1      7035 2.00000E+01
 -1      7036 2.00000E+01
 -1      7037 2.00000E+01
 -1      7038 2.00000E+01
 -1      7039 2.00000E+01
 -1      7040 2.00000E+01
 -1      7041 2.00000E+01
 -1      7042 2.00000E+01
 -1      7043 2.00000E+01
 -1      7044 2.00000E+01
 -1      7045 2.00000E+01
 -1      7046 2.00000E+01
 -1      7047 2.00000E+01
 -1      7048 2.00000E+01
 -1      7049 2.00000E+01
 -1      7050 2.00000E+01
 -1      7051 2.00000E+01
 -1      7052 2.00000E+01
 -1      7053 2.00000E+01
 -1      7054 2.00000E+01
 -1      7055 2.00000E+01
 -1      7056 2.00000E+01
 -1      7057 2.00000E+01
 -1      7058 2.00000E+01
 -1      7059 2.00000E+01
 -1      7060 2.00000E+01
 -1      7061 2.00000E+01
 -1      7062 2.00000E+01
 -1      7063 2.00000E+01
 -1      7064 2.00000E+01
 -1      7065 2.00000E+01
 -1      7066 2.00000E+01
 -1      7067 2.00000E+01
 -1      7068 2.00000E+01
 -1      7069 2.00000E+01
 -1      7070 2.00000E+01
 -1      7071 2.00000E+01
 -1      7072 2.00000E+01
 -1      7073 2.00000E+01
 -1      7074 2.00000E+01
 -1      7075 2.00000E+01
 -1      7076 2.00000E+01
 -1      7077 2.00000E+01
 -1      7078 2.00000E+01
 -1      7079 2.00000E+01
 -1      7080 2.00000E+01
 -1      7081 2.00000E+01
 -1      7082 2.00000E+01
 -1      7083 2.00000E+01
 -1      7084 2.00000E+01
 -1      7085 2.00000E+01
 -1      7086 2.00000E+01
 -1      7087 2.00000E+01
 -1      7088 2.00000E+01
 -1      7089 2.00000E+01
 -1      7090 2.00000E+01
 -1      7091 2.00000E+01
 -1      7092 2.00000E+01
 -1      7093 2.00000E+01
 -1      7094 2.00000E+01
 -1      7095 2.00000E+01
 -1      7096 2.00000E+01
 -1      7097 2.00000E+01
 -1      7098 2.00000E+01
 -1      7099 2.00000E+01
 -1      7100 2.00000E+01
 -1      7101 2.00000E+01
 -1      7102 2.00000E+01
 -1      7103 2.00000E+01
 -1      7104 2.00000E+01
 -1      7105 2.00000E+01
 -1      7106 2.00000E+01
 -1      7107 2.00000E+01
 -1      7108 2.00000E+01
 -1      7109 2.00000E+01
 -1      7110 2.00000E+01
 -1      7111 2.00000E+01
 -1      7112 2.00000E+01
 -1      7113 2.00000E+01
 -1      7114 2.00000E+01
 -1      7115 2.00000E+01
 -1      7116 2.00000E+01
 -1      7117 2.00000E+01
 -1      7118 2.00000E+01
 -1      7119 2.00000E+01
 -1      7120 2.00000E+01
 -1      7121 2.00000E+01
 -1      7122 2.00000E+01
 -1      7123 2.00000E+01
 -1      7124 2.00000E+01
 -1      7125 2.00000E+01
 -1      7126 2.00000E+01
 -1      7127 2.00000E+01
 -1      7128 2.00000E+01
 -1      7129 2.00000E+01
 -1      7130 2.00000E+01
 -1      7131 2.00000E+01
 -1      7132 2.00000E+01
 -1      7133 2.00000E+01
 -1      7134 2.00000E+01
 -1      7135 2.00000E+01
 -1      7136 2.00000E+01
 -1      7137 2.00000E+01
 -1      7138 2.00000E+01
 -1      7139 2.00000E+01
 -1      7140 2.00000E+01
 -1      7141 2.00000E+01
 -1      7142 2.00000E+01
 -1      7143 2.00000E+01
 -1      7144 2.00000E+01
 -1      7145 2.00000E+01
 -1      7146 2.00000E+01
 -1      7147 2.00000E+01
 -1      7148 2.00000E+01
 -1      7149 2.00000E+01
 -1      7150 2.00000E+01
 -1      7151 2.00000E+01
 -1      7152 2.00000E+01
 -1      7153 2.00000E+01
 -1      7154 2.00000E+01
 -1      7155 2.00000E+01
 -1      7156 2.00000E+01
 -1      7157 2.00000E+01
 -1      7158 2.00000E+01
 -1      7159 2.00000E+01
 -1      7160 2.00000E+01
 -1      7161 2.00000E+01
 -1      7162 2.00000E+01
 -1      7163 2.00000E+01
 -1      7164 2.00000E+01
 -1      7165 2.00000E+01
 -1      7166 2.00000E+01
 -1      7167 2.00000E+01
 -1      7168 2.00000E+01
 -1      7169 2.00000E+01
 -1      7170 2.00000E+01
 -1      7171 2.00000E+01
 -1      7172 2.00000E+01
 -1      7173 2.00000E+01
 -1      7174 2.00000E+01
 -1      7175 2.00000E+01
 -1      7176 2.00000E+01
 -1      7177 2.00000E+01
 -1      7178 2.00000E+01
 -1      7179 2.00000E+01
 -1      7180 2.00000E+01
 -1      7181 2.00000E+01
 -1      7182 2.00000E+01
 -1      7183 2.00000E+01
 -1      7184 2.00000E+01
 -1      7185 2.00000E+01
 -1      7186 2.00000E+01
 -1      7187 2.00000E+01
 -1      7188 2.00000E+01
 -1      7189 2.00000E+01
 -1      7190 2.00000E+01
 -1      7191 2.00000E+01
 -1      7192 2.00000E+01
 -1      7193 2.00000E+01
 -1      7194 2.00000E+01
 -1      7195 2.00000E+01
 -1      7196 2.00000E+01
 -1      7197 2.00000E+01
 -1      7198 2.00000E+01
 -1      7199 2.00000E+01
 -1      7200 2.00000E+01
 -1      7201 2.00000E+01
 -1      7202 2.00000E+01
 -1      7203 2.00000E+01
 -1      7204 2.00000E+01
 -1      7205 2.00000E+01
 -1      7206 2.00000E+01
 -1      7207 2.00000E+01
 -1      7208 2.00000E+01
 -1      7209 2.00000E+01
 -1      7210 2.00000E+01
 -1      7211 2.00000E+01
 -1      7212 2.00000E+01
 -1      7213 2.00000E+01
 -1      7214 2.00000E+01
 -1      7215 2.00000E+01
 -1      7216 2.00000E+01
 -1      7217 2.00000E+01
 -1      7218 2.00000E+01
 -1      7219 2.00000E+01
 -1      7220 2.00000E+01
 -1      7221 2.00000E+01
 -1      7222 2.00000E+01
 -1      7223 2.00000E+01
 -1      7224 2.00000E+01
 -1      7225 2.00000E+01
 -1      7226 2.00000E+01
 -1      7227 2.00000E+01
 -1      7228 2.00000E+01
 -1      7229 2.00000E+01
 -1      7230 2.00000E+01
 -1      7231 2.00000E+01
 -1      7232 2.00000E+01
 -1      7233 2.00000E+01
 -1      7234 2.00000E+01
 -1      7235 2.00000E+01
 -1      7236 2.00000E+01
 -1      7237 2.00000E+01
 -1      7238 2.00000E+01
 -1      7239 2.00000E+01
 -1      7240 2.00000E+01
 -1      7241 2.00000E+01
 -1      7242 2.00000E+01
 -1      7243 2.00000E+01
 -1      7244 2.00000E+01
 -1      7245 2.00000E+01
 -1      7246 2.00000E+01
 -1      7247 2.00000E+01
 -1      7248 2.00000E+01
 -1      7249 2.00000E+01
 -1      7250 2.00000E+01
 -1      7251 2.00000E+01
 -1      7252 2.00000E+01
 -1      7253 2.00000E+01
 -1      7254 2.00000E+01
 -1      7255 2.00000E+01
 -1      7256 2.00000E+01
 -1      7257 2.00000E+01
 -1      7258 2.00000E+01
 -1      7259 2.00000E+01
 -1      7260 2.00000E+01
 -1      7261 2.00000E+01
 -1      7262 2.00000E+01
 -1      7263 2.00000E+01
 -1      7264 2.00000E+01
 -1      7265 2.00000E+01
 -1      7266 2.00000E+01
 -1      7267 2.00000E+01
 -1      7268 2.00000E+01
 -1      7269 2.00000E+01
 -1      7270 2.00000E+01
 -1      7271 2.00000E+01
 -1      7272 2.00000E+01
 -1      7273 2.00000E+01
 -1      7274 2.00000E+01
 -1      7275 2.00000E+01
 -1      7276 2.00000E+01
 -1      7277 2.00000E+01
 -1      7278 2.00000E+01
 -1      7279 2.00000E+01
 -1      7280 2.00000E+01
 -1      7281 2.00000E+01
 -1      7282 2.00000E+01
 -1      7283 2.00000E+01
 -1      7284 2.00000E+01
 -1      7285 2.00000E+01
 -1      7286 2.00000E+01
 -1      7287 2.00000E+01
 -1      7288 2.00000E+01
 -1      7289 2.00000E+01
 -1      7290 2.00000E+01
 -1      7291 2.00000E+01
 -1      7292 2.00000E+01
 -1      7293 2.00000E+01
 -1      7294 2.00000E+01
 -1      7295 2.00000E+01
 -1      7296 2.00000E+01
 -1      7297 2.00000E+01
 -1      7298 2.00000E+01
 -1      7299 2.00000E+01
 -1      7300 2.00000E+01
 -1      7301 2.00000E+01
 -1      7302 2.00000E+01
 -1      7303 2.00000E+01
 -1      7304 2.00000E+01
 -1      7305 2.00000E+01
 -1      7306 2.00000E+01
 -1      7307 2.00000E+01
 -1      7308 2.00000E+01
 -1      7309 2.00000E+01
 -1      7310 2.00000E+01
 -1      7311 2.00000E+01
 -1      7312 2.00000E+01
 -1      7313 2.00000E+01
 -1      7314 2.00000E+01
 -1      7315 2.00000E+01
 -1      7316 2.00000E+01
 -1      7317 2.00000E+01
 -1      7318 2.00000E+01
 -1      7319 2.00000E+01
 -1      7320 2.00000E+01
 -1      7321 2.00000E+01
 -1      7322 2.00000E+01
 -1      7323 2.00000E+01
 -1      7324 2.00000E+01
 -1      7325 2.00000E+01
 -1      7326 2.00000E+01
 -1      7327 2.00000E+01
 -1      7328 2.00000E+01
 -1      7329 2.00000E+01
 -1      7330 2.00000E+01
 -1      7331 2.00000E+01
 -1      7332 2.00000E+01
 -1      7333 2.00000E+01
 -1      7334 2.00000E+01
 -1      7335 2.00000E+01
 -1      7336 2.00000E+01
 -1      7337 2.00000E+01
 -1      7338 2.00000E+01
 -1      7339 2.00000E+01
 -1      7340 2.00000E+01
 -1      7341 2.00000E+01
 -1      7342 2.00000E+01
 -1      7343 2.00000E+01
 -1      7344 2.00000E+01
 -1      7345 2.00000E+01
 -1      7346 2.00000E+01
 -1      7347 2.00000E+01
 -1      7348 2.00000E+01
 -1      7349 2.00000E+01
 -1      7350 2.00000E+01
 -1      7351 2.00000E+01
 -1      7352 2.00000E+01
 -1      7353 2.00000E+01
 -1      7354 2.00000E+01
 -1      7355 2.00000E+01
 -1      7356 2.00000E+01
 -1      7357 2.00000E+01
 -1      7358 2.00000E+01
 -1      7359 2.00000E+01
 -1      7360 2.00000E+01
 -1      7361 2.00000E+01
 -1      7362 2.00000E+01
 -1      7363 2.00000E+01
 -1      7364 2.00000E+01
 -1      7365 2.00000E+01
 -1      7366 2.00000E+01
 -1      7367 2.00000E+01
 -1      7368 2.00000E+01
 -1      7369 2.00000E+01
 -1      7370 2.00000E+01
 -1      7371 2.00000E+01
 -1      7372 2.00000E+01
 -1      7373 2.00000E+01
 -1      7374 2.00000E+01
 -1      7375 2.00000E+01
 -1      7376 2.00000E+01
 -1      7377 2.00000E+01
 -1      7378 2.00000E+01
 -1      7379 2.00000E+01
 -1      7380 2.00000E+01
 -1      7381 2.00000E+01
 -1      7382 2.00000E+01
 -1      7383 2.00000E+01
 -1      7384 2.00000E+01
 -1      7385 2.00000E+01
 -1      7386 2.00000E+01
 -1      7387 2.00000E+01
 -1      7388 2.00000E+01
 -1      7389 2.00000E+01
 -1      7390 2.00000E+01
 -1      7391 2.00000E+01
 -1      7392 2.00000E+01
 -1      7393 2.00000E+01
 -1      7394 2.00000E+01
 -1      7395 2.00000E+01
 -1      7396 2.00000E+01
 -1      7397 2.00000E+01
 -1      7398 2.00000E+01
 -1      7399 2.00000E+01
 -1      7400 2.00000E+01
 -1      7401 2.00000E+01
 -1      7402 2.00000E+01
 -1      7403 2.00000E+01
 -1      7404 2.00000E+01
 -1      7405 2.00000E+01
 -1      7406 2.00000E+01
 -1      7407 2.00000E+01
 -1      7408 2.00000E+01
 -1      7409 2.00000E+01
 -1      7410 2.00000E+01
 -1      7411 2.00000E+01
 -1      7412 2.00000E+01
 -1      7413 2.00000E+01
 -1      7414 2.00000E+01
 -1      7415 2.00000E+01
 -1      7416 2.00000E+01
 -1      7417 2.00000E+01
 -1      7418 2.00000E+01
 -1      7419 2.00000E+01
 -1      7420 2.00000E+01
 -1      7421 2.00000E+01
 -1      7422 2.00000E+01
 -1      7423 2.00000E+01
 -1      7424 2.00000E+01
 -1      7425 2.00000E+01
 -1      7426 2.00000E+01
 -1      7427 2.00000E+01
 -1      7428 2.00000E+01
 -1      7429 2.00000E+01
 -1      7430 2.00000E+01
 -1      7431 2.00000E+01
 -1      7432 2.00000E+01
 -1      7433 2.00000E+01
 -1      7434 2.00000E+01
 -1      7435 2.00000E+01
 -1      7436 2.00000E+01
 -1      7437 2.00000E+01
 -1      7438 2.00000E+01
 -1      7439 2.00000E+01
 -1      7440 2.00000E+01
 -1      7441 2.00000E+01
 -1      7442 2.00000E+01
 -1      7443 2.00000E+01
 -1      7444 2.00000E+01
 -1      7445 2.00000E+01
 -1      7446 2.00000E+01
 -1      7447 2.00000E+01
 -1      7448 2.00000E+01
 -1      7449 2.00000E+01
 -1      7450 2.00000E+01
 -1      7451 2.00000E+01
 -1      7452 2.00000E+01
 -1      7453 2.00000E+01
 -1      7454 2.00000E+01
 -1      7455 2.00000E+01
 -1      7456 2.00000E+01
 -1      7457 2.00000E+01
 -1      7458 2.00000E+01
 -1      7459 2.00000E+01
 -1      7460 2.00000E+01
 -1      7461 2.00000E+01
 -1      7462 2.00000E+01
 -1      7463 2.00000E+01
 -1      7464 2.00000E+01
 -1      7465 2.00000E+01
 -1      7466 2.00000E+01
 -1      7467 2.00000E+01
 -1      7468 2.00000E+01
 -1      7469 2.00000E+01
 -1      7470 2.00000E+01
 -1      7471 2.00000E+01
 -1      7472 2.00000E+01
 -1      7473 2.00000E+01
 -1      7474 2.00000E+01
 -1      7475 2.00000E+01
 -1      7476 2.00000E+01
 -1      7477 2.00000E+01
 -1      7478 2.00000E+01
 -1      7479 2.00000E+01
 -1      7480 2.00000E+01
 -1      7481 2.00000E+01
 -1      7482 2.00000E+01
 -1      7483 2.00000E+01
 -1      7484 2.00000E+01
 -1      7485 2.00000E+01
 -1      7486 2.00000E+01
 -1      7487 2.00000E+01
 -1      7488 2.00000E+01
 -1      7489 2.00000E+01
 -1      7490 2.00000E+01
 -1      7491 2.00000E+01
 -1      7492 2.00000E+01
 -1      7493 2.00000E+01
 -1      7494 2.00000E+01
 -1      7495 2.00000E+01
 -1      7496 2.00000E+01
 -1      7497 2.00000E+01
 -1      7498 2.00000E+01
 -1      7499 2.00000E+01
 -1      7500 2.00000E+01
 -1      7501 2.00000E+01
 -1      7502 2.00000E+01
 -1      7503 2.00000E+01
 -1      7504 2.00000E+01
 -1      7505 2.00000E+01
 -1      7506 2.00000E+01
 -1      7507 2.00000E+01
 -1      7508 2.00000E+01
 -1      7509 2.00000E+01
 -1      7510 2.00000E+01
 -1      7511 2.00000E+01
 -1      7512 2.00000E+01
 -1      7513 2.00000E+01
 -1      7514 2.00000E+01
 -1      7515 2.00000E+01
 -1      7516 2.00000E+01
 -1      7517 2.00000E+01
 -1      7518 2.00000E+01
 -1      7519 2.00000E+01
 -1      7520 2.00000E+01
 -1      7521 2.00000E+01
 -1      7522 2.00000E+01
 -1      7523 2.00000E+01
 -1      7524 2.00000E+01
 -1      7525 2.00000E+01
 -1      7526 2.00000E+01
 -1      7527 2.00000E+01
 -1      7528 2.00000E+01
 -1      7529 2.00000E+01
 -1      7530 2.00000E+01
 -1      7531 2.00000E+01
 -1      7532 2.00000E+01
 -3
    1PSTEP                         3           1           1          
  100CL  101 1.000000000        7532                     0    1           1
 -4  STRESS      6    1
 -5  SXX         1    4    1    1
 -5  SYY         1    4    2    2
 -5  SZZ         1    4    3    3
 -5  SXY         1    4    1    2
 -5  SYZ         1    4    2    3
 -5  SZX         1    4    3    1
 -1         1 4.64852E-13 4.64852E-13 4.64852E-13 0.00000E+00 0.00000E+00 0.00000E+00
 -1         2 4.38289E-13 4.38289E-13 4.38289E-13 0.00000E+00 0.00000E+00 0.00000E+00
 -1         3 4.64852E-13 4.64852E-13 4.64852E-13 0.00000E+00 0.00000E+00 0.00000E+00
 -1         4 4.64852E-13 4.64852E-13 4.64852E-13 0.00000E+00 0.00000E+00 0.00000E+00
 -1         5 4.64852E-13 4.64852E-13 4.64852E-13 0.00000E+00 0.00000E+00 0.00000E+00
 -1         6 5.04696E-13 5.04696E-13 5.04696E-13 0.00000E+00 0.00000E+00 0.00000E+00
 -1         7 4.64852E-13 4.64852E-13 4.64852E-13 0.00000E+00 0.00000E+00 0.00000E+00
 -1         8 4.64852E-13 4.64852E-13 4.64852E-13 0.00000E+00 0.00000E+00 0.00000E+00
 -1         9 4.64852E-13 4.64852E-13 4.64852E-13 0.00000E+00 0.00000E+00 0.00000E+00
 -1        10 4.38289E-13 4.38289E-13 4.38289E-13 0.00000E+00 0.00000E+00 0.00000E+00
 -1        11 4.44929E-13 4.44929E-13 4.44929E-13 0.00000E+00 0.00000E+00 0.00000E+00
 -1        12 4.38289E-13 4.38289E-13 4.38289E-13 0.00000E+00 0.00000E+00 0.00000E+00
 -1        13 4.51570E-13 4.51570E-13 4.51570E-13 0.00000E+00 0.00000E+00 0.00000E+00
 -1        14 4.38289E-13 4.38289E-13 4.38289E-13 0.00000E+00 0.00000E+00 0.00000E+00
 -1        15 4.64852E-13 4.64852E-13 4.64852E-13 0.00000E+00 0.00000E+00 0.00000E+00
 -1        16 4.64852E-13 4.64852E-13 4.64852E-13 0.00000E+00 0.00000E+00 0.00000E+00
 -1        17 4.64852E-13 4.64852E-13 4.64852E-13 0.00000E+00 0.00000E+00 0.00000E+00
 -1        18 4.64852E-13 4.64852E-13 4.64852E-13 0.00000E+00 0.00000E+00 0.00000E+00
 -1        19 4.64852E-13 4.64852E-13 4.64852E-13 0.00000E+00 0.00000E+00 0.00000E+00
 -1        20 4.44929E-13 4.44929E-13 4.44929E-13 0.00000E+00 0.00000E+00 0.00000E+00
 -1        21 4.38289E-13 4.38289E-13 4.38289E-13 0.00000E+00 0.00000E+00 0.00000E+00
 -1        22 4.64852E-13 4.64852E-13 4.64852E-13 0.00000E+00 0.00000E+00 0.00000E+00
 -1        23 4.64852E-13 4.64852E-13 4.64852E-13 0.00000E+00 0.00000E+00 0.00000E+00
 -1        24 4.64852E-13 4.64852E-13 4.64852E-13 0.00000E+00 0.00000E+00 0.00000E+00
 -1        25 4.38289E-13 4.38289E-13 4.38289E-13 0.00000E+00 0.00000E+00 0.00000E+00
 -1        26 4.38289E-13 4.38289E-13 4.38289E-13 0.00000E+00 0.00000E+00 0.00000E+00
 -1        27 4.38289E-13 4.38289E-13 4.38289E-13 0.00000E+00 0.00000E+00 0.00000E+00
 -1        28 4.38289E-13 4.38289E-13 4.38289E-13 0.00000E+00 0.00000E+00 0.00000E+00
 -1        29 4.64852E-13 4.64852E-13 4.64852E-13 0.00000E+00 0.00000E+00 0.00000E+00
 -1        30 4.38289E-13 4.38289E-13 4.38289E-13 0.00000E+00 0.00000E+00 0.00000E+00
 -1        31 4.47143E-13 4.47143E-13 4.47143E-13 0.00000E+00 0.00000E+00 0.00000E+00
 -1        32 4.61531E-13 4.61531E-13 4.61531E-13 0.00000E+00 0.00000E+00 0.00000E+00
 -1        33 4.38289E-13 4.38289E-13 4.38289E-13 0.00000E+00 0.00000E+00 0.00000E+00
 -1        34 4.61531E-13 4.61531E-13 4.61531E-13 0.00000E+00 0.00000E+00 0.00000E+00
 -1        35 4.38289E-13 4.38289E-13 4.38289E-13 0.00000E+00 0.00000E+00 0.00000E+00
 -1        36 4.64852E-13 4.64852E-13 4.64852E-13 0.00000E+00 0.00000E+00 0.00000E+00
 -1        37 4.38289E-13 4.38289E-13 4.38289E-13 0.00000E+00 0.00000E+00 0.00000E+00
 -1        38 4.64852E-13 4.64852E-13 4.64852E-13 0.00000E+00 0.00000E+00 0.00000E+00
 -1        39 4.47143E-13 4.47143E-13 4.47143E-13 0.00000E+00 0.00000E+00 0.00000E+00
 -1        40 4.38289E-13 4.38289E-13 4.38289E-13 0.00000E+00 0.00000E+00 0.00000E+00
 -1        41 4.38289E-13 4.38289E-13 4.38289E-13 0.00000E+00 0.00000E+00 0.00000E+00
 -1        42 4.64852E-13 4.64852E-13 4.64852E-13 0.00000E+00 0.00000E+00 0.00000E+00
 -1        43 4.64852E-13 4.64852E-13 4.64852E-13 0.00000E+00 0.00000E+00 0.00000E+00
 -1        44 4.64852E-13 4.64852E-13 4.64852E-13 0.00000E+00 0.00000E+00 0.00000E+00
 -1        45 4.64852E-13 4.64852E-13 4.64852E-13 0.00000E+00 0.00000E+00 0.00000E+00
 -1        46 4.64852E-13 4.64852E-13 4.64852E-13 0.00000E+00 0.00000E+00 0.00000E+00
 -1        47 4.64852E-13 4.64852E-13 4.64852E-13 0.00000E+00 0.00000E+00 0.00000E+00
 -1        48 4.64852E-13 4.64852E-13 4.64852E-13 0.00000E+00 0.00000E+00 0.00000E+00
 -1        49 4.64852E-13 4.64852E-13 4.64852E-13 0.00000E+00 0.00000E+00 0.00000E+00
 -1        50 4.64852E-13 4.64852E-13 4.64852E-13 0.00000E+00 0.00000E+00 0.00000E+00
 -1        51 4.64852E-13 4.64852E-13 4.64852E-13 0.00000E+00 0.00000E+00 0.00000E+00
 -1        52 4.64852E-13 4.64852E-13 4.64852E-13 0.00000E+00 0.00000E+00 0.00000E+00
 -1        53 4.47143E-13 4.47143E-13 4.47143E-13 0.00000E+00 0.00000E+00 0.00000E+00
 -1        54 4.38289E-13 4.38289E-13 4.38289E-13 0.00000E+00 0.00000E+00 0.00000E+00
 -1        55 4.38289E-13 4.38289E-13 4.38289E-13 0.00000E+00 0.00000E+00 0.00000E+00
 -1        56 4.38289E-13 4.38289E-13 4.38289E-13 0.00000E+00 0.00000E+00 0.00000E+00
 -1        57 4.38289E-13 4.38289E-13 4.38289E-13 0.00000E+00 0.00000E+00 0.00000E+00
 -1        58 4.38289E-13 4.38289E-13 4.38289E-13 0.00000E+00 0.00000E+00 0.00000E+00
 -1        59 4.38289E-13 4.38289E-13 4.38289E-13 0.00000E+00 0.00000E+00 0.00000E+00
 -1        60 4.51570E-13 4.51570E-13 4.51570E-13 0.00000E+00 0.00000E+00 0.00000E+00
 -1        61 4.64852E-13 4.64852E-13 4.64852E-13 0.00000E+00 0.00000E+00 0.00000E+00
 -1        62 4.64852E-13 4.64852E-13 4.64852E-13 0.00000E+00 0.00000E+00 0.00000E+00
 -1        63 4.64852E-13 4.64852E-13 4.64852E-13 0.00000E+00 0.00000E+00 0.00000E+00
 -1        64 4.64852E-13 4.64852E-13 4.64852E-13 0.00000E+00 0.00000E+00 0.00000E+00
 -1        65 4.64852E-13 4.64852E-13 4.64852E-13 0.00000E+00 0.00000E+00 0.00000E+00
 -1        66 4.64852E-13 4.64852E-13 4.64852E-13 0.00000E+00 0.00000E+00 0.00000E+00
 -1        67 4.60425E-13 4.60425E-13 4.60425E-13 0.00000E+00 0.00000E+00 0.00000E+00
 -1        68 4.60425E-13 4.60425E-13 4.60425E-13 0.00000E+00 0.00000E+00 0.00000E+00
 -1        69 4.64852E-13 4.64852E-13 4.64852E-13 0.00000E+00 0.00000E+00 0.00000E+00
 -1        70 4.64852E-13 4.64852E-13 4.64852E-13 0.00000E+00 0.00000E+00 0.00000E+00
 -1        71 4.55997E-13 4.55997E-13 4.55997E-13 0.00000E+00 0.00000E+00 0.00000E+00
 -1        72 4.38289E-13 4.38289E-13 4.38289E-13 0.00000E+00 0.00000E+00 0.00000E+00
 -1        73 4.42716E-13 4.42716E-13 4.42716E-13 0.00000E+00 0.00000E+00 0.00000E+00
 -1        74 4.60425E-13 4.60425E-13 4.60425E-13 0.00000E+00 0.00000E+00 0.00000E+00
 -1        75 4.51570E-13 4.51570E-13 4.51570E-13 0.00000E+00 0.00000E+00 0.00000E+00
 -1        76 4.38289E-13 4.38289E-13 4.38289E-13 0.00000E+00 0.00000E+00 0.00000E+00
 -1        77 4.38289E-13 4.38289E-13 4.38289E-13 0.00000E+00 0.00000E+00 0.00000E+00
 -1        78 4.38289E-13 4.38289E-13 4.38289E-13 0.00000E+00 0.00000E+00 0.00000E+00
 -1        79 4.42716E-13 4.42716E-13 4.42716E-13 0.00000E+00 0.00000E+00 0.00000E+00
 -1        80 4.55997E-13 4.55997E-13 4.55997E-13 0.00000E+00 0.00000E+00 0.00000E+00
 -1        81 4.64852E-13 4.64852E-13 4.64852E-13 0.00000E+00 0.00000E+00 0.00000E+00
 -1        82 4.64852E-13 4.64852E-13 4.64852E-13 0.00000E+00 0.00000E+00 0.00000E+00
 -1        83 4.64852E-13 4.64852E-13 4.64852E-13 0.00000E+00 0.00000E+00 0.00000E+00
 -1        84 4.60425E-13 4.60425E-13 4.60425E-13 0.00000E+00 0.00000E+00 0.00000E+00
 -1        85 4.60425E-13 4.60425E-13 4.60425E-13 0.00000E+00 0.00000E+00 0.00000E+00
 -1        86 4.64852E-13 4.64852E-13 4.64852E-13 0.00000E+00 0.00000E+00 0.00000E+00
 -1        87 4.60425E-13 4.60425E-13 4.60425E-13 0.00000E+00 0.00000E+00 0.00000E+00
 -1        88 4.47143E-13 4.47143E-13 4.47143E-13 0.00000E+00 0.00000E+00 0.00000E+00
 -1        89 4.42716E-13 4.42716E-13 4.42716E-13 0.00000E+00 0.00000E+00 0.00000E+00
 -1        90 4.55997E-13 4.55997E-13 4.55997E-13 0.00000E+00 0.00000E+00 0.00000E+00
 -1        91 4.64852E-13 4.64852E-13 4.64852E-13 0.00000E+00 0.00000E+00 0.00000E+00
 -1        92 4.64852E-13 4.64852E-13 4.64852E-13 0.00000E+00 0.00000E+00 0.00000E+00
 -1        93 4.64852E-13 4.64852E-13 4.64852E-13 0.00000E+00 0.00000E+00 0.00000E+00
 -1        94 4.64852E-13 4.64852E-13 4.64852E-13 0.00000E+00 0.00000E+00 0.00000E+00
 -1        95 4.64852E-13 4.64852E-13 4.64852E-13 0.00000E+00 0.00000E+00 0.00000E+00
 -1        96 4.64852E-13 4.64852E-13 4.64852E-13 0.00000E+00 0.00000E+00 0.00000E+00
 -1        97 4.64852E-13 4.64852E-13 4.64852E-13 0.00000E+00 0.00000E+00 0.00000E+00
 -1        98 4.64852E-13 4.64852E-13 4.64852E-13 0.00000E+00 0.00000E+00 0.00000E+00
 -1        99 4.47143E-13 4.47143E-13 4.47143E-13 0.00000E+00 0.00000E+00 0.00000E+00
 -1       100 4.47143E-13 4.47143E-13 4.47143E-13 0.00000E+00 0.00000E+00 0.00000E+00
 -1       101 4.55997E-13 4.55997E-13 4.55997E-13 0.00000E+00 0.00000E+00 0.00000E+00
 -1       102 4.60425E-13 4.60425E-13 4.60425E-13 0.00000E+00 0.00000E+00 0.00000E+00
 -1       103 4.60425E-13 4.60425E-13 4.60425E-13 0.00000E+00 0.00000E+00 0.00000E+00
 -1       104 4.60425E-13 4.60425E-13 4.60425E-13 0.00000E+00 0.00000E+00 0.00000E+00
 -1       105 4.51570E-13 4.51570E-13 4.51570E-13 0.00000E+00 0.00000E+00 0.00000E+00
 -1       106 4.38289E-13 4.38289E-13 4.38289E-13 0.00000E+00 0.00000E+00 0.00000E+00
 -1       107 4.38289E-13 4.38289E-13 4.38289E-13 0.00000E+00 0.00000E+00 0.00000E+00
 -1       108 4.38289E-13 4.38289E-13 4.38289E-13 0.00000E+00 0.00000E+00 0.00000E+00
 -1       109 4.38289E-13 4.38289E-13 4.38289E-13 0.00000E+00 0.00000E+00 0.00000E+00
 -1       110 4.38289E-13 4.38289E-13 4.38289E-13 0.00000E+00 0.00000E+00 0.00000E+00
 -1       111 4.38289E-13 4.38289E-13 4.38289E-13 0.00000E+00 0.00000E+00 0.00000E+00
 -1       112 4.38289E-13 4.38289E-13 4.38289E-13 0.00000E+00 0.00000E+00 0.00000E+00
 -1       113 4.38289E-13 4.38289E-13 4.38289E-13 0.00000E+00 0.00000E+00 0.00000E+00
 -1       114 4.38289E-13 4.38289E-13 4.38289E-13 0.00000E+00 0.00000E+00 0.00000E+00
 -1       115 4.42716E-13 4.42716E-13 4.42716E-13 0.00000E+00 0.00000E+00 0.00000E+00
 -1       116 4.42716E-13 4.42716E-13 4.42716E-13 0.00000E+00 0.00000E+00 0.00000E+00
 -1       117 4.51570E-13 4.51570E-13 4.51570E-13 0.00000E+00 0.00000E+00 0.00000E+00
 -1       118 4.55997E-13 4.55997E-13 4.55997E-13 0.00000E+00 0.00000E+00 0.00000E+00
 -1       119 4.42716E-13 4.42716E-13 4.42716E-13 0.00000E+00 0.00000E+00 0.00000E+00
 -1       120 4.42716E-13 4.42716E-13 4.42716E-13 0.00000E+00 0.00000E+00 0.00000E+00
 -1       121 4.47143E-13 4.47143E-13 4.47143E-13 0.00000E+00 0.00000E+00 0.00000E+00
 -1       122 4.47143E-13 4.47143E-13 4.47143E-13 0.00000E+00 0.00000E+00 0.00000E+00
 -1       123 4.38289E-13 4.38289E-13 4.38289E-13 0.00000E+00 0.00000E+00 0.00000E+00
 -1       124 4.38289E-13 4.38289E-13 4.38289E-13 0.00000E+00 0.00000E+00 0.00000E+00
 -1       125 4.38289E-13 4.38289E-13 4.38289E-13 0.00000E+00 0.00000E+00 0.00000E+00
 -1       126 4.38289E-13 4.38289E-13 4.38289E-13 0.00000E+00 0.00000E+00 0.00000E+00
 -1       127 4.38289E-13 4.38289E-13 4.38289E-13 0.00000E+00 0.00000E+00 0.00000E+00
 -1       128 4.38289E-13 4.38289E-13 4.38289E-13 0.00000E+00 0.00000E+00 0.00000E+00
 -1       129 4.38289E-13 4.38289E-13 4.38289E-13 0.00000E+00 0.00000E+00 0.00000E+00
 -1       130 4.38289E-13 4.38289E-13 4.38289E-13 0.00000E+00 0.00000E+00 0.00000E+00
 -1       131 4.38289E-13 4.38289E-13 4.38289E-13 0.00000E+00 0.00000E+00 0.00000E+00
 -1       132 4.38289E-13 4.38289E-13 4.38289E-13 0.00000E+00 0.00000E+00 0.00000E+00
 -1       133 4.38289E-13 4.38289E-13 4.38289E-13 0.00000E+00 0.00000E+00 0.00000E+00
 -1       134 4.38289E-13 4.38289E-13 4.38289E-13 0.00000E+00 0.00000E+00 0.00000E+00
 -1       135 4.38289E-13 4.38289E-13 4.38289E-13 0.00000E+00 0.00000E+00 0.00000E+00
 -1       136 4.38289E-13 4.38289E-13 4.38289E-13 0.00000E+00 0.00000E+00 0.00000E+00
 -1       137 4.38289E-13 4.38289E-13 4.38289E-13 0.00000E+00 0.00000E+00 0.00000E+00
 -1       138 4.38289E-13 4.38289E-13 4.38289E-13 0.00000E+00 0.00000E+00 0.00000E+00
 -1       139 4.38289E-13 4.38289E-13 4.38289E-13 0.00000E+00 0.00000E+00 0.00000E+00
 -1       140 4.38289E-13 4.38289E-13 4.38289E-13 0.00000E+00 0.00000E+00 0.00000E+00
 -1       141 4.38289E-13 4.38289E-13 4.38289E-13 0.00000E+00 0.00000E+00 0.00000E+00
 -1       142 4.38289E-13 4.38289E-13 4.38289E-13 0.00000E+00 0.00000E+00 0.00000E+00
 -1       143 4.38289E-13 4.38289E-13 4.38289E-13 0.00000E+00 0.00000E+00 0.00000E+00
 -1       144 4.51570E-13 4.51570E-13 4.51570E-13 0.00000E+00 0.00000E+00 0.00000E+00
 -1       145 4.64852E-13 4.64852E-13 4.64852E-13 0.00000E+00 0.00000E+00 0.00000E+00
 -1       146 4.51570E-13 4.51570E-13 4.51570E-13 0.00000E+00 0.00000E+00 0.00000E+00
 -1       147 4.42716E-13 4.42716E-13 4.42716E-13 0.00000E+00 0.00000E+00 0.00000E+00
 -1       148 4.60425E-13 4.60425E-13 4.60425E-13 0.00000E+00 0.00000E+00 0.00000E+00
 -1       149 4.64852E-13 4.64852E-13 4.64852E-13 0.00000E+00 0.00000E+00 0.00000E+00
 -1       150 4.64852E-13 4.64852E-13 4.64852E-13 0.00000E+00 0.00000E+00 0.00000E+00
 -1       151 4.64852E-13 4.64852E-13 4.64852E-13 0.00000E+00 0.00000E+00 0.00000E+00
 -1       152 4.64852E-13 4.64852E-13 4.64852E-13 0.00000E+00 0.00000E+00 0.00000E+00
 -1       153 4.64852E-13 4.64852E-13 4.64852E-13 0.00000E+00 0.00000E+00 0.00000E+00
 -1       154 4.64852E-13 4.64852E-13 4.64852E-13 0.00000E+00 0.00000E+00 0.00000E+00
 -1       155 4.60425E-13 4.60425E-13 4.60425E-13 0.00000E+00 0.00000E+00 0.00000E+00
 -1       156 4.42716E-13 4.42716E-13 4.42716E-13 0.00000E+00 0.00000E+00 0.00000E+00
 -1       157 4.47143E-13 4.47143E-13 4.47143E-13 0.00000E+00 0.00000E+00 0.00000E+00
 -1       158 4.47143E-13 4.47143E-13 4.47143E-13 0.00000E+00 0.00000E+00 0.00000E+00
 -1       159 4.38289E-13 4.38289E-13 4.38289E-13 0.00000E+00 0.00000E+00 0.00000E+00
 -1       160 4.42716E-13 4.42716E-13 4.42716E-13 0.00000E+00 0.00000E+00 0.00000E+00
 -1       161 4.47143E-13 4.47143E-13 4.47143E-13 0.00000E+00 0.00000E+00 0.00000E+00
 -1       162 4.60425E-13 4.60425E-13 4.60425E-13 0.00000E+00 0.00000E+00 0.00000E+00
 -1       163 4.51570E-13 4.51570E-13 4.51570E-13 0.00000E+00 0.00000E+00 0.00000E+00
 -1       164 4.38289E-13 4.38289E-13 4.38289E-13 0.00000E+00 0.00000E+00 0.00000E+00
 -1       165 4.38289E-13 4.38289E-13 4.38289E-13 0.00000E+00 0.00000E+00 0.00000E+00
 -1       166 4.47143E-13 4.47143E-13 4.47143E-13 0.00000E+00 0.00000E+00 0.00000E+00
 -1       167 4.47143E-13 4.47143E-13 4.47143E-13 0.00000E+00 0.00000E+00 0.00000E+00
 -1       168 4.55997E-13 4.55997E-13 4.55997E-13 0.00000E+00 0.00000E+00 0.00000E+00
 -1       169 4.64852E-13 4.64852E-13 4.64852E-13 0.00000E+00 0.00000E+00 0.00000E+00
 -1       170 4.51570E-13 4.51570E-13 4.51570E-13 0.00000E+00 0.00000E+00 0.00000E+00
 -1       171 4.51570E-13 4.51570E-13 4.51570E-13 0.00000E+00 0.00000E+00 0.00000E+00
 -1       172 4.64852E-13 4.64852E-13 4.64852E-13 0.00000E+00 0.00000E+00 0.00000E+00
 -1       173 4.64852E-13 4.64852E-13 4.64852E-13 0.00000E+00 0.00000E+00 0.00000E+00
 -1       174 4.64852E-13 4.64852E-13 4.64852E-13 0.00000E+00 0.00000E+00 0.00000E+00
 -1       175 4.55997E-13 4.55997E-13 4.55997E-13 0.00000E+00 0.00000E+00 0.00000E+00
 -1       176 4.51570E-13 4.51570E-13 4.51570E-13 0.00000E+00 0.00000E+00 0.00000E+00
 -1       177 4.64852E-13 4.64852E-13 4.64852E-13 0.00000E+00 0.00000E+00 0.00000E+00
 -1       178 4.64852E-13 4.64852E-13 4.64852E-13 0.00000E+00 0.00000E+00 0.00000E+00
 -1       179 4.64852E-13 4.64852E-13 4.64852E-13 0.00000E+00 0.00000E+00 0.00000E+00
 -1       180 4.64852E-13 4.64852E-13 4.64852E-13 0.00000E+00 0.00000E+00 0.00000E+00
 -1       181 4.64852E-13 4.64852E-13 4.64852E-13 0.00000E+00 0.00000E+00 0.00000E+00
 -1       182 4.64852E-13 4.64852E-13 4.64852E-13 0.00000E+00 0.00000E+00 0.00000E+00
 -1       183 4.64852E-13 4.64852E-13 4.64852E-13 0.00000E+00 0.00000E+00 0.00000E+00
 -1       184 4.64852E-13 4.64852E-13 4.64852E-13 0.00000E+00 0.00000E+00 0.00000E+00
 -1       185 4.64852E-13 4.64852E-13 4.64852E-13 0.00000E+00 0.00000E+00 0.00000E+00
 -1       186 4.64852E-13 4.64852E-13 4.64852E-13 0.00000E+00 0.00000E+00 0.00000E+00
 -1       187 4.51570E-13 4.51570E-13 4.51570E-13 0.00000E+00 0.00000E+00 0.00000E+00
 -1       188 4.42716E-13 4.42716E-13 4.42716E-13 0.00000E+00 0.00000E+00 0.00000E+00
 -1       189 4.60425E-13 4.60425E-13 4.60425E-13 0.00000E+00 0.00000E+00 0.00000E+00
 -1       190 4.55997E-13 4.55997E-13 4.55997E-13 0.00000E+00 0.00000E+00 0.00000E+00
 -1       191 4.38289E-13 4.38289E-13 4.38289E-13 0.00000E+00 0.00000E+00 0.00000E+00
 -1       192 4.38289E-13 4.38289E-13 4.38289E-13 0.00000E+00 0.00000E+00 0.00000E+00
 -1       193 4.38289E-13 4.38289E-13 4.38289E-13 0.00000E+00 0.00000E+00 0.00000E+00
 -1       194 4.51570E-13 4.51570E-13 4.51570E-13 0.00000E+00 0.00000E+00 0.00000E+00
 -1       195 4.64852E-13 4.64852E-13 4.64852E-13 0.00000E+00 0.00000E+00 0.00000E+00
 -1       196 4.54891E-13 4.54891E-13 4.54891E-13 0.00000E+00 0.00000E+00 0.00000E+00
 -1       197 4.38289E-13 4.38289E-13 4.38289E-13 0.00000E+00 0.00000E+00 0.00000E+00
 -1       198 4.38289E-13 4.38289E-13 4.38289E-13 0.00000E+00 0.00000E+00 0.00000E+00
 -1       199 4.38289E-13 4.38289E-13 4.38289E-13 0.00000E+00 0.00000E+00 0.00000E+00
 -1       200 4.38289E-13 4.38289E-13 4.38289E-13 0.00000E+00 0.00000E+00 0.00000E+00
 -1       201 4.38289E-13 4.38289E-13 4.38289E-13 0.00000E+00 0.00000E+00 0.00000E+00
 -1       202 4.38289E-13 4.38289E-13 4.38289E-13 0.00000E+00 0.00000E+00 0.00000E+00
 -1       203 4.38289E-13 4.38289E-13 4.38289E-13 0.00000E+00 0.00000E+00 0.00000E+00
 -1       204 4.38289E-13 4.38289E-13 4.38289E-13 0.00000E+00 0.00000E+00 0.00000E+00
 -1       205 4.51570E-13 4.51570E-13 4.51570E-13 0.00000E+00 0.00000E+00 0.00000E+00
 -1       206 4.55997E-13 4.55997E-13 4.55997E-13 0.00000E+00 0.00000E+00 0.00000E+00
 -1       207 4.55997E-13 4.55997E-13 4.55997E-13 0.00000E+00 0.00000E+00 0.00000E+00
 -1       208 4.64852E-13 4.64852E-13 4.64852E-13 0.00000E+00 0.00000E+00 0.00000E+00
 -1       209 4.64852E-13 4.64852E-13 4.64852E-13 0.00000E+00 0.00000E+00 0.00000E+00
 -1       210 4.64852E-13 4.64852E-13 4.64852E-13 0.00000E+00 0.00000E+00 0.00000E+00
 -1       211 4.64852E-13 4.64852E-13 4.64852E-13 0.00000E+00 0.00000E+00 0.00000E+00
 -1       212 4.64852E-13 4.64852E-13 4.64852E-13 0.00000E+00 0.00000E+00 0.00000E+00
 -1       213 4.64852E-13 4.64852E-13 4.64852E-13 0.00000E+00 0.00000E+00 0.00000E+00
 -1       214 4.51570E-13 4.51570E-13 4.51570E-13 0.00000E+00 0.00000E+00 0.00000E+00
 -1       215 4.38289E-13 4.38289E-13 4.38289E-13 0.00000E+00 0.00000E+00 0.00000E+00
 -1       216 4.38289E-13 4.38289E-13 4.38289E-13 0.00000E+00 0.00000E+00 0.00000E+00
 -1       217 4.51570E-13 4.51570E-13 4.51570E-13 0.00000E+00 0.00000E+00 0.00000E+00
 -1       218 4.64852E-13 4.64852E-13 4.64852E-13 0.00000E+00 0.00000E+00 0.00000E+00
 -1       219 4.51570E-13 4.51570E-13 4.51570E-13 0.00000E+00 0.00000E+00 0.00000E+00
 -1       220 4.51570E-13 4.51570E-13 4.51570E-13 0.00000E+00 0.00000E+00 0.00000E+00
 -1       221 4.64852E-13 4.64852E-13 4.64852E-13 0.00000E+00 0.00000E+00 0.00000E+00
 -1       222 4.64852E-13 4.64852E-13 4.64852E-13 0.00000E+00 0.00000E+00 0.00000E+00
 -1       223 4.55997E-13 4.55997E-13 4.55997E-13 0.00000E+00 0.00000E+00 0.00000E+00
 -1       224 4.60425E-13 4.60425E-13 4.60425E-13 0.00000E+00 0.00000E+00 0.00000E+00
 -1       225 4.51570E-13 4.51570E-13 4.51570E-13 0.00000E+00 0.00000E+00 0.00000E+00
 -1       226 4.38289E-13 4.38289E-13 4.38289E-13 0.00000E+00 0.00000E+00 0.00000E+00
 -1       227 4.38289E-13 4.38289E-13 4.38289E-13 0.00000E+00 0.00000E+00 0.00000E+00
 -1       228 4.38289E-13 4.38289E-13 4.38289E-13 0.00000E+00 0.00000E+00 0.00000E+00
 -1       229 4.51570E-13 4.51570E-13 4.51570E-13 0.00000E+00 0.00000E+00 0.00000E+00
 -1       230 4.64852E-13 4.64852E-13 4.64852E-13 0.00000E+00 0.00000E+00 0.00000E+00
 -1       231 4.64852E-13 4.64852E-13 4.64852E-13 0.00000E+00 0.00000E+00 0.00000E+00
 -1       232 4.64852E-13 4.64852E-13 4.64852E-13 0.00000E+00 0.00000E+00 0.00000E+00
 -1       233 4.64852E-13 4.64852E-13 4.64852E-13 0.00000E+00 0.00000E+00 0.00000E+00
 -1       234 4.64852E-13 4.64852E-13 4.64852E-13 0.00000E+00 0.00000E+00 0.00000E+00
 -1       235 4.64852E-13 4.64852E-13 4.64852E-13 0.00000E+00 0.00000E+00 0.00000E+00
 -1       236 4.64852E-13 4.64852E-13 4.64852E-13 0.00000E+00 0.00000E+00 0.00000E+00
 -1       237 4.47143E-13 4.47143E-13 4.47143E-13 0.00000E+00 0.00000E+00 0.00000E+00
 -1       238 4.42716E-13 4.42716E-13 4.42716E-13 0.00000E+00 0.00000E+00 0.00000E+00
 -1       239 4.47143E-13 4.47143E-13 4.47143E-13 0.00000E+00 0.00000E+00 0.00000E+00
 -1       240 4.51570E-13 4.51570E-13 4.51570E-13 0.00000E+00 0.00000E+00 0.00000E+00
 -1       241 4.51570E-13 4.51570E-13 4.51570E-13 0.00000E+00 0.00000E+00 0.00000E+00
 -1       242 4.47143E-13 4.47143E-13 4.47143E-13 0.00000E+00 0.00000E+00 0.00000E+00
 -1       243 4.42716E-13 4.42716E-13 4.42716E-13 0.00000E+00 0.00000E+00 0.00000E+00
 -1       244 4.42716E-13 4.42716E-13 4.42716E-13 0.00000E+00 0.00000E+00 0.00000E+00
 -1       245 4.55997E-13 4.55997E-13 4.55997E-13 0.00000E+00 0.00000E+00 0.00000E+00
 -1       246 4.64852E-13 4.64852E-13 4.64852E-13 0.00000E+00 0.00000E+00 0.00000E+00
 -1       247 4.64852E-13 4.64852E-13 4.64852E-13 0.00000E+00 0.00000E+00 0.00000E+00
 -1       248 4.64852E-13 4.64852E-13 4.64852E-13 0.00000E+00 0.00000E+00 0.00000E+00
 -1       249 4.64852E-13 4.64852E-13 4.64852E-13 0.00000E+00 0.00000E+00 0.00000E+00
 -1       250 4.64852E-13 4.64852E-13 4.64852E-13 0.00000E+00 0.00000E+00 0.00000E+00
 -1       251 4.64852E-13 4.64852E-13 4.64852E-13 0.00000E+00 0.00000E+00 0.00000E+00
 -1       252 4.64852E-13 4.64852E-13 4.64852E-13 0.00000E+00 0.00000E+00 0.00000E+00
 -1       253 4.64852E-13 4.64852E-13 4.64852E-13 0.00000E+00 0.00000E+00 0.00000E+00
 -1       254 4.64852E-13 4.64852E-13 4.64852E-13 0.00000E+00 0.00000E+00 0.00000E+00
 -1       255 4.64852E-13 4.64852E-13 4.64852E-13 0.00000E+00 0.00000E+00 0.00000E+00
 -1       256 4.64852E-13 4.64852E-13 4.64852E-13 0.00000E+00 0.00000E+00 0.00000E+00
 -1       257 4.64852E-13 4.64852E-13 4.64852E-13 0.00000E+00 0.00000E+00 0.00000E+00
 -1       258 4.64852E-13 4.64852E-13 4.64852E-13 0.00000E+00 0.00000E+00 0.00000E+00
 -1       259 4.64852E-13 4.64852E-13 4.64852E-13 0.00000E+00 0.00000E+00 0.00000E+00
 -1       260 4.64852E-13 4.64852E-13 4.64852E-13 0.00000E+00 0.00000E+00 0.00000E+00
 -1       261 4.64852E-13 4.64852E-13 4.64852E-13 0.00000E+00 0.00000E+00 0.00000E+00
 -1       262 4.64852E-13 4.64852E-13 4.64852E-13 0.00000E+00 0.00000E+00 0.00000E+00
 -1       263 4.64852E-13 4.64852E-13 4.64852E-13 0.00000E+00 0.00000E+00 0.00000E+00
 -1       264 4.64852E-13 4.64852E-13 4.64852E-13 0.00000E+00 0.00000E+00 0.00000E+00
 -1       265 4.64852E-13 4.64852E-13 4.64852E-13 0.00000E+00 0.00000E+00 0.00000E+00
 -1       266 4.64852E-13 4.64852E-13 4.64852E-13 0.00000E+00 0.00000E+00 0.00000E+00
 -1       267 4.64852E-13 4.64852E-13 4.64852E-13 0.00000E+00 0.00000E+00 0.00000E+00
 -1       268 4.51570E-13 4.51570E-13 4.51570E-13 0.00000E+00 0.00000E+00 0.00000E+00
 -1       269 4.42716E-13 4.42716E-13 4.42716E-13 0.00000E+00 0.00000E+00 0.00000E+00
 -1       270 4.55997E-13 4.55997E-13 4.55997E-13 0.00000E+00 0.00000E+00 0.00000E+00
 -1       271 4.51570E-13 4.51570E-13 4.51570E-13 0.00000E+00 0.00000E+00 0.00000E+00
 -1       272 4.38289E-13 4.38289E-13 4.38289E-13 0.00000E+00 0.00000E+00 0.00000E+00
 -1       273 4.38289E-13 4.38289E-13 4.38289E-13 0.00000E+00 0.00000E+00 0.00000E+00
 -1       274 4.42716E-13 4.42716E-13 4.42716E-13 0.00000E+00 0.00000E+00 0.00000E+00
 -1       275 4.42716E-13 4.42716E-13 4.42716E-13 0.00000E+00 0.00000E+00 0.00000E+00
 -1       276 4.38289E-13 4.38289E-13 4.38289E-13 0.00000E+00 0.00000E+00 0.00000E+00
 -1       277 4.42716E-13 4.42716E-13 4.42716E-13 0.00000E+00 0.00000E+00 0.00000E+00
 -1       278 4.42716E-13 4.42716E-13 4.42716E-13 0.00000E+00 0.00000E+00 0.00000E+00
 -1       279 4.38289E-13 4.38289E-13 4.38289E-13 0.00000E+00 0.00000E+00 0.00000E+00
 -1       280 4.38289E-13 4.38289E-13 4.38289E-13 0.00000E+00 0.00000E+00 0.00000E+00
 -1       281 4.38289E-13 4.38289E-13 4.38289E-13 0.00000E+00 0.00000E+00 0.00000E+00
 -1       282 4.42716E-13 4.42716E-13 4.42716E-13 0.00000E+00 0.00000E+00 0.00000E+00
 -1       283 4.47143E-13 4.47143E-13 4.47143E-13 0.00000E+00 0.00000E+00 0.00000E+00
 -1       284 4.42716E-13 4.42716E-13 4.42716E-13 0.00000E+00 0.00000E+00 0.00000E+00
 -1       285 4.60425E-13 4.60425E-13 4.60425E-13 0.00000E+00 0.00000E+00 0.00000E+00
 -1       286 4.64852E-13 4.64852E-13 4.64852E-13 0.00000E+00 0.00000E+00 0.00000E+00
 -1       287 4.64852E-13 4.64852E-13 4.64852E-13 0.00000E+00 0.00000E+00 0.00000E+00
 -1       288 4.64852E-13 4.64852E-13 4.64852E-13 0.00000E+00 0.00000E+00 0.00000E+00
 -1       289 4.64852E-13 4.64852E-13 4.64852E-13 0.00000E+00 0.00000E+00 0.00000E+00
 -1       290 4.64852E-13 4.64852E-13 4.64852E-13 0.00000E+00 0.00000E+00 0.00000E+00
 -1       291 4.64852E-13 4.64852E-13 4.64852E-13 0.00000E+00 0.00000E+00 0.00000E+00
 -1       292 4.64852E-13 4.64852E-13 4.64852E-13 0.00000E+00 0.00000E+00 0.00000E+00
 -1       293 4.55997E-13 4.55997E-13 4.55997E-13 0.00000E+00 0.00000E+00 0.00000E+00
 -1       294 4.47143E-13 4.47143E-13 4.47143E-13 0.00000E+00 0.00000E+00 0.00000E+00
 -1       295 4.42716E-13 4.42716E-13 4.42716E-13 0.00000E+00 0.00000E+00 0.00000E+00
 -1       296 4.47143E-13 4.47143E-13 4.47143E-13 0.00000E+00 0.00000E+00 0.00000E+00
 -1       297 4.55997E-13 4.55997E-13 4.55997E-13 0.00000E+00 0.00000E+00 0.00000E+00
 -1       298 4.60425E-13 4.60425E-13 4.60425E-13 0.00000E+00 0.00000E+00 0.00000E+00
 -1       299 4.64852E-13 4.64852E-13 4.64852E-13 0.00000E+00 0.00000E+00 0.00000E+00
 -1       300 4.64852E-13 4.64852E-13 4.64852E-13 0.00000E+00 0.00000E+00 0.00000E+00
 -1       301 4.64852E-13 4.64852E-13 4.64852E-13 0.00000E+00 0.00000E+00 0.00000E+00
 -1       302 4.64852E-13 4.64852E-13 4.64852E-13 0.00000E+00 0.00000E+00 0.00000E+00
 -1       303 4.64852E-13 4.64852E-13 4.64852E-13 0.00000E+00 0.00000E+00 0.00000E+00
 -1       304 4.47143E-13 4.47143E-13 4.47143E-13 0.00000E+00 0.00000E+00 0.00000E+00
 -1       305 4.47143E-13 4.47143E-13 4.47143E-13 0.00000E+00 0.00000E+00 0.00000E+00
 -1       306 4.60425E-13 4.60425E-13 4.60425E-13 0.00000E+00 0.00000E+00 0.00000E+00
 -1       307 4.64852E-13 4.64852E-13 4.64852E-13 0.00000E+00 0.00000E+00 0.00000E+00
 -1       308 4.64852E-13 4.64852E-13 4.64852E-13 0.00000E+00 0.00000E+00 0.00000E+00
 -1       309 4.64852E-13 4.64852E-13 4.64852E-13 0.00000E+00 0.00000E+00 0.00000E+00
 -1       310 4.64852E-13 4.64852E-13 4.64852E-13 0.00000E+00 0.00000E+00 0.00000E+00
 -1       311 4.64852E-13 4.64852E-13 4.64852E-13 0.00000E+00 0.00000E+00 0.00000E+00
 -1       312 4.64852E-13 4.64852E-13 4.64852E-13 0.00000E+00 0.00000E+00 0.00000E+00
 -1       313 4.64852E-13 4.64852E-13 4.64852E-13 0.00000E+00 0.00000E+00 0.00000E+00
 -1       314 4.55997E-13 4.55997E-13 4.55997E-13 0.00000E+00 0.00000E+00 0.00000E+00
 -1       315 4.55997E-13 4.55997E-13 4.55997E-13 0.00000E+00 0.00000E+00 0.00000E+00
 -1       316 4.64852E-13 4.64852E-13 4.64852E-13 0.00000E+00 0.00000E+00 0.00000E+00
 -1       317 4.64852E-13 4.64852E-13 4.64852E-13 0.00000E+00 0.00000E+00 0.00000E+00
 -1       318 4.51570E-13 4.51570E-13 4.51570E-13 0.00000E+00 0.00000E+00 0.00000E+00
 -1       319 4.42716E-13 4.42716E-13 4.42716E-13 0.00000E+00 0.00000E+00 0.00000E+00
 -1       320 4.38289E-13 4.38289E-13 4.38289E-13 0.00000E+00 0.00000E+00 0.00000E+00
 -1       321 4.38289E-13 4.38289E-13 4.38289E-13 0.00000E+00 0.00000E+00 0.00000E+00
 -1       322 4.38289E-13 4.38289E-13 4.38289E-13 0.00000E+00 0.00000E+00 0.00000E+00
 -1       323 4.38289E-13 4.38289E-13 4.38289E-13 0.00000E+00 0.00000E+00 0.00000E+00
 -1       324 4.38289E-13 4.38289E-13 4.38289E-13 0.00000E+00 0.00000E+00 0.00000E+00
 -1       325 4.38289E-13 4.38289E-13 4.38289E-13 0.00000E+00 0.00000E+00 0.00000E+00
 -1       326 4.38289E-13 4.38289E-13 4.38289E-13 0.00000E+00 0.00000E+00 0.00000E+00
 -1       327 4.42716E-13 4.42716E-13 4.42716E-13 0.00000E+00 0.00000E+00 0.00000E+00
 -1       328 4.47143E-13 4.47143E-13 4.47143E-13 0.00000E+00 0.00000E+00 0.00000E+00
 -1       329 4.60425E-13 4.60425E-13 4.60425E-13 0.00000E+00 0.00000E+00 0.00000E+00
 -1       330 4.64852E-13 4.64852E-13 4.64852E-13 0.00000E+00 0.00000E+00 0.00000E+00
 -1       331 4.51570E-13 4.51570E-13 4.51570E-13 0.00000E+00 0.00000E+00 0.00000E+00
 -1       332 4.38289E-13 4.38289E-13 4.38289E-13 0.00000E+00 0.00000E+00 0.00000E+00
 -1       333 4.38289E-13 4.38289E-13 4.38289E-13 0.00000E+00 0.00000E+00 0.00000E+00
 -1       334 4.38289E-13 4.38289E-13 4.38289E-13 0.00000E+00 0.00000E+00 0.00000E+00
 -1       335 4.38289E-13 4.38289E-13 4.38289E-13 0.00000E+00 0.00000E+00 0.00000E+00
 -1       336 4.38289E-13 4.38289E-13 4.38289E-13 0.00000E+00 0.00000E+00 0.00000E+00
 -1       337 4.38289E-13 4.38289E-13 4.38289E-13 0.00000E+00 0.00000E+00 0.00000E+00
 -1       338 4.64852E-13 4.64852E-13 4.64852E-13 0.00000E+00 0.00000E+00 0.00000E+00
 -1       339 4.64852E-13 4.64852E-13 4.64852E-13 0.00000E+00 0.00000E+00 0.00000E+00
 -1       340 4.64852E-13 4.64852E-13 4.64852E-13 0.00000E+00 0.00000E+00 0.00000E+00
 -1       341 4.64852E-13 4.64852E-13 4.64852E-13 0.00000E+00 0.00000E+00 0.00000E+00
 -1       342 4.64852E-13 4.64852E-13 4.64852E-13 0.00000E+00 0.00000E+00 0.00000E+00
 -1       343 4.64852E-13 4.64852E-13 4.64852E-13 0.00000E+00 0.00000E+00 0.00000E+00
 -1       344 4.64852E-13 4.64852E-13 4.64852E-13 0.00000E+00 0.00000E+00 0.00000E+00
 -1       345 4.64852E-13 4.64852E-13 4.64852E-13 0.00000E+00 0.00000E+00 0.00000E+00
 -1       346 4.64852E-13 4.64852E-13 4.64852E-13 0.00000E+00 0.00000E+00 0.00000E+00
 -1       347 4.64852E-13 4.64852E-13 4.64852E-13 0.00000E+00 0.00000E+00 0.00000E+00
 -1       348 4.64852E-13 4.64852E-13 4.64852E-13 0.00000E+00 0.00000E+00 0.00000E+00
 -1       349 4.64852E-13 4.64852E-13 4.64852E-13 0.00000E+00 0.00000E+00 0.00000E+00
 -1       350 4.64852E-13 4.64852E-13 4.64852E-13 0.00000E+00 0.00000E+00 0.00000E+00
 -1       351 4.64852E-13 4.64852E-13 4.64852E-13 0.00000E+00 0.00000E+00 0.00000E+00
 -1       352 4.64852E-13 4.64852E-13 4.64852E-13 0.00000E+00 0.00000E+00 0.00000E+00
 -1       353 4.64852E-13 4.64852E-13 4.64852E-13 0.00000E+00 0.00000E+00 0.00000E+00
 -1       354 4.64852E-13 4.64852E-13 4.64852E-13 0.00000E+00 0.00000E+00 0.00000E+00
 -1       355 4.64852E-13 4.64852E-13 4.64852E-13 0.00000E+00 0.00000E+00 0.00000E+00
 -1       356 4.64852E-13 4.64852E-13 4.64852E-13 0.00000E+00 0.00000E+00 0.00000E+00
 -1       357 4.64852E-13 4.64852E-13 4.64852E-13 0.00000E+00 0.00000E+00 0.00000E+00
 -1       358 4.64852E-13 4.64852E-13 4.64852E-13 0.00000E+00 0.00000E+00 0.00000E+00
 -1       359 4.64852E-13 4.64852E-13 4.64852E-13 0.00000E+00 0.00000E+00 0.00000E+00
 -1       360 4.64852E-13 4.64852E-13 4.64852E-13 0.00000E+00 0.00000E+00 0.00000E+00
 -1       361 4.64852E-13 4.64852E-13 4.64852E-13 0.00000E+00 0.00000E+00 0.00000E+00
 -1       362 4.64852E-13 4.64852E-13 4.64852E-13 0.00000E+00 0.00000E+00 0.00000E+00
 -1       363 4.64852E-13 4.64852E-13 4.64852E-13 0.00000E+00 0.00000E+00 0.00000E+00
 -1       364 4.64852E-13 4.64852E-13 4.64852E-13 0.00000E+00 0.00000E+00 0.00000E+00
 -1       365 4.64852E-13 4.64852E-13 4.64852E-13 0.00000E+00 0.00000E+00 0.00000E+00
 -1       366 4.64852E-13 4.64852E-13 4.64852E-13 0.00000E+00 0.00000E+00 0.00000E+00
 -1       367 4.64852E-13 4.64852E-13 4.64852E-13 0.00000E+00 0.00000E+00 0.00000E+00
 -1       368 4.64852E-13 4.64852E-13 4.64852E-13 0.00000E+00 0.00000E+00 0.00000E+00
 -1       369 4.64852E-13 4.64852E-13 4.64852E-13 0.00000E+00 0.00000E+00 0.00000E+00
 -1       370 4.64852E-13 4.64852E-13 4.64852E-13 0.00000E+00 0.00000E+00 0.00000E+00
 -1       371 4.64852E-13 4.64852E-13 4.64852E-13 0.00000E+00 0.00000E+00 0.00000E+00
 -1       372 4.64852E-13 4.64852E-13 4.64852E-13 0.00000E+00 0.00000E+00 0.00000E+00
 -1       373 4.64852E-13 4.64852E-13 4.64852E-13 0.00000E+00 0.00000E+00 0.00000E+00
 -1       374 4.64852E-13 4.64852E-13 4.64852E-13 0.00000E+00 0.00000E+00 0.00000E+00
 -1       375 4.64852E-13 4.64852E-13 4.64852E-13 0.00000E+00 0.00000E+00 0.00000E+00
 -1       376 4.64852E-13 4.64852E-13 4.64852E-13 0.00000E+00 0.00000E+00 0.00000E+00
 -1       377 4.64852E-13 4.64852E-13 4.64852E-13 0.00000E+00 0.00000E+00 0.00000E+00
 -1       378 4.64852E-13 4.64852E-13 4.64852E-13 0.00000E+00 0.00000E+00 0.00000E+00
 -1       379 4.64852E-13 4.64852E-13 4.64852E-13 0.00000E+00 0.00000E+00 0.00000E+00
 -1       380 4.64852E-13 4.64852E-13 4.64852E-13 0.00000E+00 0.00000E+00 0.00000E+00
 -1       381 4.71492E-13 4.71492E-13 4.71492E-13 0.00000E+00 0.00000E+00 0.00000E+00
 -1       382 4.86987E-13 4.86987E-13 4.86987E-13 0.00000E+00 0.00000E+00 0.00000E+00
 -1       383 5.00269E-13 5.00269E-13 5.00269E-13 0.00000E+00 0.00000E+00 0.00000E+00
 -1       384 4.64852E-13 4.64852E-13 4.64852E-13 0.00000E+00 0.00000E+00 0.00000E+00
 -1       385 4.64852E-13 4.64852E-13 4.64852E-13 0.00000E+00 0.00000E+00 0.00000E+00
 -1       386 5.04696E-13 5.04696E-13 5.04696E-13 0.00000E+00 0.00000E+00 0.00000E+00
 -1       387 4.91415E-13 4.91415E-13 4.91415E-13 0.00000E+00 0.00000E+00 0.00000E+00
 -1       388 4.64852E-13 4.64852E-13 4.64852E-13 0.00000E+00 0.00000E+00 0.00000E+00
 -1       389 4.64852E-13 4.64852E-13 4.64852E-13 0.00000E+00 0.00000E+00 0.00000E+00
 -1       390 4.64852E-13 4.64852E-13 4.64852E-13 0.00000E+00 0.00000E+00 0.00000E+00
 -1       391 4.73706E-13 4.73706E-13 4.73706E-13 0.00000E+00 0.00000E+00 0.00000E+00
 -1       392 4.73706E-13 4.73706E-13 4.73706E-13 0.00000E+00 0.00000E+00 0.00000E+00
 -1       393 4.64852E-13 4.64852E-13 4.64852E-13 0.00000E+00 0.00000E+00 0.00000E+00
 -1       394 4.64852E-13 4.64852E-13 4.64852E-13 0.00000E+00 0.00000E+00 0.00000E+00
 -1       395 4.64852E-13 4.64852E-13 4.64852E-13 0.00000E+00 0.00000E+00 0.00000E+00
 -1       396 4.64852E-13 4.64852E-13 4.64852E-13 0.00000E+00 0.00000E+00 0.00000E+00
 -1       397 4.64852E-13 4.64852E-13 4.64852E-13 0.00000E+00 0.00000E+00 0.00000E+00
 -1       398 4.64852E-13 4.64852E-13 4.64852E-13 0.00000E+00 0.00000E+00 0.00000E+00
 -1       399 4.64852E-13 4.64852E-13 4.64852E-13 0.00000E+00 0.00000E+00 0.00000E+00
 -1       400 4.64852E-13 4.64852E-13 4.64852E-13 0.00000E+00 0.00000E+00 0.00000E+00
 -1       401 4.64852E-13 4.64852E-13 4.64852E-13 0.00000E+00 0.00000E+00 0.00000E+00
 -1       402 4.64852E-13 4.64852E-13 4.64852E-13 0.00000E+00 0.00000E+00 0.00000E+00
 -1       403 4.64852E-13 4.64852E-13 4.64852E-13 0.00000E+00 0.00000E+00 0.00000E+00
 -1       404 4.64852E-13 4.64852E-13 4.64852E-13 0.00000E+00 0.00000E+00 0.00000E+00
 -1       405 4.64852E-13 4.64852E-13 4.64852E-13 0.00000E+00 0.00000E+00 0.00000E+00
 -1       406 4.64852E-13 4.64852E-13 4.64852E-13 0.00000E+00 0.00000E+00 0.00000E+00
 -1       407 4.64852E-13 4.64852E-13 4.64852E-13 0.00000E+00 0.00000E+00 0.00000E+00
 -1       408 4.64852E-13 4.64852E-13 4.64852E-13 0.00000E+00 0.00000E+00 0.00000E+00
 -1       409 4.64852E-13 4.64852E-13 4.64852E-13 0.00000E+00 0.00000E+00 0.00000E+00
 -1       410 4.64852E-13 4.64852E-13 4.64852E-13 0.00000E+00 0.00000E+00 0.00000E+00
 -1       411 4.64852E-13 4.64852E-13 4.64852E-13 0.00000E+00 0.00000E+00 0.00000E+00
 -1       412 4.60425E-13 4.60425E-13 4.60425E-13 0.00000E+00 0.00000E+00 0.00000E+00
 -1       413 4.47143E-13 4.47143E-13 4.47143E-13 0.00000E+00 0.00000E+00 0.00000E+00
 -1       414 4.38289E-13 4.38289E-13 4.38289E-13 0.00000E+00 0.00000E+00 0.00000E+00
 -1       415 4.38289E-13 4.38289E-13 4.38289E-13 0.00000E+00 0.00000E+00 0.00000E+00
 -1       416 4.55997E-13 4.55997E-13 4.55997E-13 0.00000E+00 0.00000E+00 0.00000E+00
 -1       417 4.64852E-13 4.64852E-13 4.64852E-13 0.00000E+00 0.00000E+00 0.00000E+00
 -1       418 4.64852E-13 4.64852E-13 4.64852E-13 0.00000E+00 0.00000E+00 0.00000E+00
 -1       419 4.64852E-13 4.64852E-13 4.64852E-13 0.00000E+00 0.00000E+00 0.00000E+00
 -1       420 4.64852E-13 4.64852E-13 4.64852E-13 0.00000E+00 0.00000E+00 0.00000E+00
 -1       421 4.64852E-13 4.64852E-13 4.64852E-13 0.00000E+00 0.00000E+00 0.00000E+00
 -1       422 4.64852E-13 4.64852E-13 4.64852E-13 0.00000E+00 0.00000E+00 0.00000E+00
 -1       423 4.55997E-13 4.55997E-13 4.55997E-13 0.00000E+00 0.00000E+00 0.00000E+00
 -1       424 4.51570E-13 4.51570E-13 4.51570E-13 0.00000E+00 0.00000E+00 0.00000E+00
 -1       425 4.55997E-13 4.55997E-13 4.55997E-13 0.00000E+00 0.00000E+00 0.00000E+00
 -1       426 4.42716E-13 4.42716E-13 4.42716E-13 0.00000E+00 0.00000E+00 0.00000E+00
 -1       427 4.38289E-13 4.38289E-13 4.38289E-13 0.00000E+00 0.00000E+00 0.00000E+00
 -1       428 4.42716E-13 4.42716E-13 4.42716E-13 0.00000E+00 0.00000E+00 0.00000E+00
 -1       429 4.60425E-13 4.60425E-13 4.60425E-13 0.00000E+00 0.00000E+00 0.00000E+00
 -1       430 4.64852E-13 4.64852E-13 4.64852E-13 0.00000E+00 0.00000E+00 0.00000E+00
 -1       431 4.64852E-13 4.64852E-13 4.64852E-13 0.00000E+00 0.00000E+00 0.00000E+00
 -1       432 4.64852E-13 4.64852E-13 4.64852E-13 0.00000E+00 0.00000E+00 0.00000E+00
 -1       433 4.64852E-13 4.64852E-13 4.64852E-13 0.00000E+00 0.00000E+00 0.00000E+00
 -1       434 4.60425E-13 4.60425E-13 4.60425E-13 0.00000E+00 0.00000E+00 0.00000E+00
 -1       435 4.47143E-13 4.47143E-13 4.47143E-13 0.00000E+00 0.00000E+00 0.00000E+00
 -1       436 4.47143E-13 4.47143E-13 4.47143E-13 0.00000E+00 0.00000E+00 0.00000E+00
 -1       437 4.47143E-13 4.47143E-13 4.47143E-13 0.00000E+00 0.00000E+00 0.00000E+00
 -1       438 4.51570E-13 4.51570E-13 4.51570E-13 0.00000E+00 0.00000E+00 0.00000E+00
 -1       439 4.42716E-13 4.42716E-13 4.42716E-13 0.00000E+00 0.00000E+00 0.00000E+00
 -1       440 4.38289E-13 4.38289E-13 4.38289E-13 0.00000E+00 0.00000E+00 0.00000E+00
 -1       441 4.38289E-13 4.38289E-13 4.38289E-13 0.00000E+00 0.00000E+00 0.00000E+00
 -1       442 4.38289E-13 4.38289E-13 4.38289E-13 0.00000E+00 0.00000E+00 0.00000E+00
 -1       443 4.38289E-13 4.38289E-13 4.38289E-13 0.00000E+00 0.00000E+00 0.00000E+00
 -1       444 4.38289E-13 4.38289E-13 4.38289E-13 0.00000E+00 0.00000E+00 0.00000E+00
 -1       445 4.38289E-13 4.38289E-13 4.38289E-13 0.00000E+00 0.00000E+00 0.00000E+00
 -1       446 4.38289E-13 4.38289E-13 4.38289E-13 0.00000E+00 0.00000E+00 0.00000E+00
 -1       447 4.38289E-13 4.38289E-13 4.38289E-13 0.00000E+00 0.00000E+00 0.00000E+00
 -1       448 4.38289E-13 4.38289E-13 4.38289E-13 0.00000E+00 0.00000E+00 0.00000E+00
 -1       449 4.47143E-13 4.47143E-13 4.47143E-13 0.00000E+00 0.00000E+00 0.00000E+00
 -1       450 4.47143E-13 4.47143E-13 4.47143E-13 0.00000E+00 0.00000E+00 0.00000E+00
 -1       451 4.47143E-13 4.47143E-13 4.47143E-13 0.00000E+00 0.00000E+00 0.00000E+00
 -1       452 4.60425E-13 4.60425E-13 4.60425E-13 0.00000E+00 0.00000E+00 0.00000E+00
 -1       453 4.55997E-13 4.55997E-13 4.55997E-13 0.00000E+00 0.00000E+00 0.00000E+00
 -1       454 4.42716E-13 4.42716E-13 4.42716E-13 0.00000E+00 0.00000E+00 0.00000E+00
 -1       455 4.38289E-13 4.38289E-13 4.38289E-13 0.00000E+00 0.00000E+00 0.00000E+00
 -1       456 4.38289E-13 4.38289E-13 4.38289E-13 0.00000E+00 0.00000E+00 0.00000E+00
 -1       457 4.38289E-13 4.38289E-13 4.38289E-13 0.00000E+00 0.00000E+00 0.00000E+00
 -1       458 4.38289E-13 4.38289E-13 4.38289E-13 0.00000E+00 0.00000E+00 0.00000E+00
 -1       459 4.38289E-13 4.38289E-13 4.38289E-13 0.00000E+00 0.00000E+00 0.00000E+00
 -1       460 4.51570E-13 4.51570E-13 4.51570E-13 0.00000E+00 0.00000E+00 0.00000E+00
 -1       461 4.64852E-13 4.64852E-13 4.64852E-13 0.00000E+00 0.00000E+00 0.00000E+00
 -1       462 4.64852E-13 4.64852E-13 4.64852E-13 0.00000E+00 0.00000E+00 0.00000E+00
 -1       463 4.64852E-13 4.64852E-13 4.64852E-13 0.00000E+00 0.00000E+00 0.00000E+00
 -1       464 4.51570E-13 4.51570E-13 4.51570E-13 0.00000E+00 0.00000E+00 0.00000E+00
 -1       465 4.47143E-13 4.47143E-13 4.47143E-13 0.00000E+00 0.00000E+00 0.00000E+00
 -1       466 4.47143E-13 4.47143E-13 4.47143E-13 0.00000E+00 0.00000E+00 0.00000E+00
 -1       467 4.42716E-13 4.42716E-13 4.42716E-13 0.00000E+00 0.00000E+00 0.00000E+00
 -1       468 4.42716E-13 4.42716E-13 4.42716E-13 0.00000E+00 0.00000E+00 0.00000E+00
 -1       469 4.51570E-13 4.51570E-13 4.51570E-13 0.00000E+00 0.00000E+00 0.00000E+00
 -1       470 4.64852E-13 4.64852E-13 4.64852E-13 0.00000E+00 0.00000E+00 0.00000E+00
 -1       471 4.64852E-13 4.64852E-13 4.64852E-13 0.00000E+00 0.00000E+00 0.00000E+00
 -1       472 4.64852E-13 4.64852E-13 4.64852E-13 0.00000E+00 0.00000E+00 0.00000E+00
 -1       473 4.51570E-13 4.51570E-13 4.51570E-13 0.00000E+00 0.00000E+00 0.00000E+00
 -1       474 4.55997E-13 4.55997E-13 4.55997E-13 0.00000E+00 0.00000E+00 0.00000E+00
 -1       475 4.64852E-13 4.64852E-13 4.64852E-13 0.00000E+00 0.00000E+00 0.00000E+00
 -1       476 4.55997E-13 4.55997E-13 4.55997E-13 0.00000E+00 0.00000E+00 0.00000E+00
 -1       477 4.42716E-13 4.42716E-13 4.42716E-13 0.00000E+00 0.00000E+00 0.00000E+00
 -1       478 4.51570E-13 4.51570E-13 4.51570E-13 0.00000E+00 0.00000E+00 0.00000E+00
 -1       479 4.64852E-13 4.64852E-13 4.64852E-13 0.00000E+00 0.00000E+00 0.00000E+00
 -1       480 4.64852E-13 4.64852E-13 4.64852E-13 0.00000E+00 0.00000E+00 0.00000E+00
 -1       481 4.64852E-13 4.64852E-13 4.64852E-13 0.00000E+00 0.00000E+00 0.00000E+00
 -1       482 4.60425E-13 4.60425E-13 4.60425E-13 0.00000E+00 0.00000E+00 0.00000E+00
 -1       483 4.55997E-13 4.55997E-13 4.55997E-13 0.00000E+00 0.00000E+00 0.00000E+00
 -1       484 4.64852E-13 4.64852E-13 4.64852E-13 0.00000E+00 0.00000E+00 0.00000E+00
 -1       485 4.60425E-13 4.60425E-13 4.60425E-13 0.00000E+00 0.00000E+00 0.00000E+00
 -1       486 4.47143E-13 4.47143E-13 4.47143E-13 0.00000E+00 0.00000E+00 0.00000E+00
 -1       487 4.38289E-13 4.38289E-13 4.38289E-13 0.00000E+00 0.00000E+00 0.00000E+00
 -1       488 4.38289E-13 4.38289E-13 4.38289E-13 0.00000E+00 0.00000E+00 0.00000E+00
 -1       489 4.38289E-13 4.38289E-13 4.38289E-13 0.00000E+00 0.00000E+00 0.00000E+00
 -1       490 4.38289E-13 4.38289E-13 4.38289E-13 0.00000E+00 0.00000E+00 0.00000E+00
 -1       491 4.38289E-13 4.38289E-13 4.38289E-13 0.00000E+00 0.00000E+00 0.00000E+00
 -1       492 4.38289E-13 4.38289E-13 4.38289E-13 0.00000E+00 0.00000E+00 0.00000E+00
 -1       493 4.38289E-13 4.38289E-13 4.38289E-13 0.00000E+00 0.00000E+00 0.00000E+00
 -1       494 4.38289E-13 4.38289E-13 4.38289E-13 0.00000E+00 0.00000E+00 0.00000E+00
 -1       495 4.38289E-13 4.38289E-13 4.38289E-13 0.00000E+00 0.00000E+00 0.00000E+00
 -1       496 4.42716E-13 4.42716E-13 4.42716E-13 0.00000E+00 0.00000E+00 0.00000E+00
 -1       497 4.47143E-13 4.47143E-13 4.47143E-13 0.00000E+00 0.00000E+00 0.00000E+00
 -1       498 4.55997E-13 4.55997E-13 4.55997E-13 0.00000E+00 0.00000E+00 0.00000E+00
 -1       499 4.44929E-13 4.44929E-13 4.44929E-13 0.00000E+00 0.00000E+00 0.00000E+00
 -1       500 4.38289E-13 4.38289E-13 4.38289E-13 0.00000E+00 0.00000E+00 0.00000E+00
 -1       501 4.42716E-13 4.42716E-13 4.42716E-13 0.00000E+00 0.00000E+00 0.00000E+00
 -1       502 4.42716E-13 4.42716E-13 4.42716E-13 0.00000E+00 0.00000E+00 0.00000E+00
 -1       503 4.47143E-13 4.47143E-13 4.47143E-13 0.00000E+00 0.00000E+00 0.00000E+00
 -1       504 4.42716E-13 4.42716E-13 4.42716E-13 0.00000E+00 0.00000E+00 0.00000E+00
 -1       505 4.38289E-13 4.38289E-13 4.38289E-13 0.00000E+00 0.00000E+00 0.00000E+00
 -1       506 4.38289E-13 4.38289E-13 4.38289E-13 0.00000E+00 0.00000E+00 0.00000E+00
 -1       507 4.38289E-13 4.38289E-13 4.38289E-13 0.00000E+00 0.00000E+00 0.00000E+00
 -1       508 4.38289E-13 4.38289E-13 4.38289E-13 0.00000E+00 0.00000E+00 0.00000E+00
 -1       509 4.38289E-13 4.38289E-13 4.38289E-13 0.00000E+00 0.00000E+00 0.00000E+00
 -1       510 4.38289E-13 4.38289E-13 4.38289E-13 0.00000E+00 0.00000E+00 0.00000E+00
 -1       511 4.38289E-13 4.38289E-13 4.38289E-13 0.00000E+00 0.00000E+00 0.00000E+00
 -1       512 4.38289E-13 4.38289E-13 4.38289E-13 0.00000E+00 0.00000E+00 0.00000E+00
 -1       513 4.38289E-13 4.38289E-13 4.38289E-13 0.00000E+00 0.00000E+00 0.00000E+00
 -1       514 4.42716E-13 4.42716E-13 4.42716E-13 0.00000E+00 0.00000E+00 0.00000E+00
 -1       515 4.42716E-13 4.42716E-13 4.42716E-13 0.00000E+00 0.00000E+00 0.00000E+00
 -1       516 4.42716E-13 4.42716E-13 4.42716E-13 0.00000E+00 0.00000E+00 0.00000E+00
 -1       517 4.42716E-13 4.42716E-13 4.42716E-13 0.00000E+00 0.00000E+00 0.00000E+00
 -1       518 4.38289E-13 4.38289E-13 4.38289E-13 0.00000E+00 0.00000E+00 0.00000E+00
 -1       519 4.38289E-13 4.38289E-13 4.38289E-13 0.00000E+00 0.00000E+00 0.00000E+00
 -1       520 4.38289E-13 4.38289E-13 4.38289E-13 0.00000E+00 0.00000E+00 0.00000E+00
 -1       521 4.38289E-13 4.38289E-13 4.38289E-13 0.00000E+00 0.00000E+00 0.00000E+00
 -1       522 4.38289E-13 4.38289E-13 4.38289E-13 0.00000E+00 0.00000E+00 0.00000E+00
 -1       523 4.38289E-13 4.38289E-13 4.38289E-13 0.00000E+00 0.00000E+00 0.00000E+00
 -1       524 4.38289E-13 4.38289E-13 4.38289E-13 0.00000E+00 0.00000E+00 0.00000E+00
 -1       525 4.38289E-13 4.38289E-13 4.38289E-13 0.00000E+00 0.00000E+00 0.00000E+00
 -1       526 4.38289E-13 4.38289E-13 4.38289E-13 0.00000E+00 0.00000E+00 0.00000E+00
 -1       527 4.38289E-13 4.38289E-13 4.38289E-13 0.00000E+00 0.00000E+00 0.00000E+00
 -1       528 4.38289E-13 4.38289E-13 4.38289E-13 0.00000E+00 0.00000E+00 0.00000E+00
 -1       529 4.38289E-13 4.38289E-13 4.38289E-13 0.00000E+00 0.00000E+00 0.00000E+00
 -1       530 4.38289E-13 4.38289E-13 4.38289E-13 0.00000E+00 0.00000E+00 0.00000E+00
 -1       531 4.38289E-13 4.38289E-13 4.38289E-13 0.00000E+00 0.00000E+00 0.00000E+00
 -1       532 4.38289E-13 4.38289E-13 4.38289E-13 0.00000E+00 0.00000E+00 0.00000E+00
 -1       533 4.38289E-13 4.38289E-13 4.38289E-13 0.00000E+00 0.00000E+00 0.00000E+00
 -1       534 4.38289E-13 4.38289E-13 4.38289E-13 0.00000E+00 0.00000E+00 0.00000E+00
 -1       535 4.38289E-13 4.38289E-13 4.38289E-13 0.00000E+00 0.00000E+00 0.00000E+00
 -1       536 4.38289E-13 4.38289E-13 4.38289E-13 0.00000E+00 0.00000E+00 0.00000E+00
 -1       537 4.38289E-13 4.38289E-13 4.38289E-13 0.00000E+00 0.00000E+00 0.00000E+00
 -1       538 4.38289E-13 4.38289E-13 4.38289E-13 0.00000E+00 0.00000E+00 0.00000E+00
 -1       539 4.38289E-13 4.38289E-13 4.38289E-13 0.00000E+00 0.00000E+00 0.00000E+00
 -1       540 4.47143E-13 4.47143E-13 4.47143E-13 0.00000E+00 0.00000E+00 0.00000E+00
 -1       541 4.47143E-13 4.47143E-13 4.47143E-13 0.00000E+00 0.00000E+00 0.00000E+00
 -1       542 4.51570E-13 4.51570E-13 4.51570E-13 0.00000E+00 0.00000E+00 0.00000E+00
 -1       543 4.60425E-13 4.60425E-13 4.60425E-13 0.00000E+00 0.00000E+00 0.00000E+00
 -1       544 4.51570E-13 4.51570E-13 4.51570E-13 0.00000E+00 0.00000E+00 0.00000E+00
 -1       545 4.61531E-13 4.61531E-13 4.61531E-13 0.00000E+00 0.00000E+00 0.00000E+00
 -1       546 4.64852E-13 4.64852E-13 4.64852E-13 0.00000E+00 0.00000E+00 0.00000E+00
 -1       547 4.64852E-13 4.64852E-13 4.64852E-13 0.00000E+00 0.00000E+00 0.00000E+00
 -1       548 4.64852E-13 4.64852E-13 4.64852E-13 0.00000E+00 0.00000E+00 0.00000E+00
 -1       549 4.64852E-13 4.64852E-13 4.64852E-13 0.00000E+00 0.00000E+00 0.00000E+00
 -1       550 4.64852E-13 4.64852E-13 4.64852E-13 0.00000E+00 0.00000E+00 0.00000E+00
 -1       551 4.64852E-13 4.64852E-13 4.64852E-13 0.00000E+00 0.00000E+00 0.00000E+00
 -1       552 4.64852E-13 4.64852E-13 4.64852E-13 0.00000E+00 0.00000E+00 0.00000E+00
 -1       553 4.64852E-13 4.64852E-13 4.64852E-13 0.00000E+00 0.00000E+00 0.00000E+00
 -1       554 4.64852E-13 4.64852E-13 4.64852E-13 0.00000E+00 0.00000E+00 0.00000E+00
 -1       555 4.71492E-13 4.71492E-13 4.71492E-13 0.00000E+00 0.00000E+00 0.00000E+00
 -1       556 4.82560E-13 4.82560E-13 4.82560E-13 0.00000E+00 0.00000E+00 0.00000E+00
 -1       557 4.64852E-13 4.64852E-13 4.64852E-13 0.00000E+00 0.00000E+00 0.00000E+00
 -1       558 4.64852E-13 4.64852E-13 4.64852E-13 0.00000E+00 0.00000E+00 0.00000E+00
 -1       559 4.64852E-13 4.64852E-13 4.64852E-13 0.00000E+00 0.00000E+00 0.00000E+00
 -1       560 4.64852E-13 4.64852E-13 4.64852E-13 0.00000E+00 0.00000E+00 0.00000E+00
 -1       561 4.64852E-13 4.64852E-13 4.64852E-13 0.00000E+00 0.00000E+00 0.00000E+00
 -1       562 4.64852E-13 4.64852E-13 4.64852E-13 0.00000E+00 0.00000E+00 0.00000E+00
 -1       563 4.64852E-13 4.64852E-13 4.64852E-13 0.00000E+00 0.00000E+00 0.00000E+00
 -1       564 4.64852E-13 4.64852E-13 4.64852E-13 0.00000E+00 0.00000E+00 0.00000E+00
 -1       565 4.64852E-13 4.64852E-13 4.64852E-13 0.00000E+00 0.00000E+00 0.00000E+00
 -1       566 4.64852E-13 4.64852E-13 4.64852E-13 0.00000E+00 0.00000E+00 0.00000E+00
 -1       567 4.64852E-13 4.64852E-13 4.64852E-13 0.00000E+00 0.00000E+00 0.00000E+00
 -1       568 4.64852E-13 4.64852E-13 4.64852E-13 0.00000E+00 0.00000E+00 0.00000E+00
 -1       569 4.64852E-13 4.64852E-13 4.64852E-13 0.00000E+00 0.00000E+00 0.00000E+00
 -1       570 4.64852E-13 4.64852E-13 4.64852E-13 0.00000E+00 0.00000E+00 0.00000E+00
 -1       571 4.64852E-13 4.64852E-13 4.64852E-13 0.00000E+00 0.00000E+00 0.00000E+00
 -1       572 4.64852E-13 4.64852E-13 4.64852E-13 0.00000E+00 0.00000E+00 0.00000E+00
 -1       573 4.64852E-13 4.64852E-13 4.64852E-13 0.00000E+00 0.00000E+00 0.00000E+00
 -1       574 4.64852E-13 4.64852E-13 4.64852E-13 0.00000E+00 0.00000E+00 0.00000E+00
 -1       575 4.64852E-13 4.64852E-13 4.64852E-13 0.00000E+00 0.00000E+00 0.00000E+00
 -1       576 4.64852E-13 4.64852E-13 4.64852E-13 0.00000E+00 0.00000E+00 0.00000E+00
 -1       577 4.64852E-13 4.64852E-13 4.64852E-13 0.00000E+00 0.00000E+00 0.00000E+00
 -1       578 4.64852E-13 4.64852E-13 4.64852E-13 0.00000E+00 0.00000E+00 0.00000E+00
 -1       579 4.64852E-13 4.64852E-13 4.64852E-13 0.00000E+00 0.00000E+00 0.00000E+00
 -1       580 4.51570E-13 4.51570E-13 4.51570E-13 0.00000E+00 0.00000E+00 0.00000E+00
 -1       581 4.47143E-13 4.47143E-13 4.47143E-13 0.00000E+00 0.00000E+00 0.00000E+00
 -1       582 4.61531E-13 4.61531E-13 4.61531E-13 0.00000E+00 0.00000E+00 0.00000E+00
 -1       583 4.64852E-13 4.64852E-13 4.64852E-13 0.00000E+00 0.00000E+00 0.00000E+00
 -1       584 4.64852E-13 4.64852E-13 4.64852E-13 0.00000E+00 0.00000E+00 0.00000E+00
 -1       585 4.64852E-13 4.64852E-13 4.64852E-13 0.00000E+00 0.00000E+00 0.00000E+00
 -1       586 4.51570E-13 4.51570E-13 4.51570E-13 0.00000E+00 0.00000E+00 0.00000E+00
 -1       587 4.47143E-13 4.47143E-13 4.47143E-13 0.00000E+00 0.00000E+00 0.00000E+00
 -1       588 4.64852E-13 4.64852E-13 4.64852E-13 0.00000E+00 0.00000E+00 0.00000E+00
 -1       589 4.64852E-13 4.64852E-13 4.64852E-13 0.00000E+00 0.00000E+00 0.00000E+00
 -1       590 4.64852E-13 4.64852E-13 4.64852E-13 0.00000E+00 0.00000E+00 0.00000E+00
 -1       591 4.64852E-13 4.64852E-13 4.64852E-13 0.00000E+00 0.00000E+00 0.00000E+00
 -1       592 4.64852E-13 4.64852E-13 4.64852E-13 0.00000E+00 0.00000E+00 0.00000E+00
 -1       593 4.64852E-13 4.64852E-13 4.64852E-13 0.00000E+00 0.00000E+00 0.00000E+00
 -1       594 4.64852E-13 4.64852E-13 4.64852E-13 0.00000E+00 0.00000E+00 0.00000E+00
 -1       595 4.64852E-13 4.64852E-13 4.64852E-13 0.00000E+00 0.00000E+00 0.00000E+00
 -1       596 4.64852E-13 4.64852E-13 4.64852E-13 0.00000E+00 0.00000E+00 0.00000E+00
 -1       597 4.64852E-13 4.64852E-13 4.64852E-13 0.00000E+00 0.00000E+00 0.00000E+00
 -1       598 4.64852E-13 4.64852E-13 4.64852E-13 0.00000E+00 0.00000E+00 0.00000E+00
 -1       599 4.64852E-13 4.64852E-13 4.64852E-13 0.00000E+00 0.00000E+00 0.00000E+00
 -1       600 4.64852E-13 4.64852E-13 4.64852E-13 0.00000E+00 0.00000E+00 0.00000E+00
 -1       601 4.64852E-13 4.64852E-13 4.64852E-13 0.00000E+00 0.00000E+00 0.00000E+00
 -1       602 4.64852E-13 4.64852E-13 4.64852E-13 0.00000E+00 0.00000E+00 0.00000E+00
 -1       603 4.64852E-13 4.64852E-13 4.64852E-13 0.00000E+00 0.00000E+00 0.00000E+00
 -1       604 4.64852E-13 4.64852E-13 4.64852E-13 0.00000E+00 0.00000E+00 0.00000E+00
 -1       605 4.64852E-13 4.64852E-13 4.64852E-13 0.00000E+00 0.00000E+00 0.00000E+00
 -1       606 4.64852E-13 4.64852E-13 4.64852E-13 0.00000E+00 0.00000E+00 0.00000E+00
 -1       607 4.64852E-13 4.64852E-13 4.64852E-13 0.00000E+00 0.00000E+00 0.00000E+00
 -1       608 4.64852E-13 4.64852E-13 4.64852E-13 0.00000E+00 0.00000E+00 0.00000E+00
 -1       609 4.64852E-13 4.64852E-13 4.64852E-13 0.00000E+00 0.00000E+00 0.00000E+00
 -1       610 4.64852E-13 4.64852E-13 4.64852E-13 0.00000E+00 0.00000E+00 0.00000E+00
 -1       611 4.64852E-13 4.64852E-13 4.64852E-13 0.00000E+00 0.00000E+00 0.00000E+00
 -1       612 4.64852E-13 4.64852E-13 4.64852E-13 0.00000E+00 0.00000E+00 0.00000E+00
 -1       613 4.64852E-13 4.64852E-13 4.64852E-13 0.00000E+00 0.00000E+00 0.00000E+00
 -1       614 4.64852E-13 4.64852E-13 4.64852E-13 0.00000E+00 0.00000E+00 0.00000E+00
 -1       615 4.64852E-13 4.64852E-13 4.64852E-13 0.00000E+00 0.00000E+00 0.00000E+00
 -1       616 4.64852E-13 4.64852E-13 4.64852E-13 0.00000E+00 0.00000E+00 0.00000E+00
 -1       617 4.64852E-13 4.64852E-13 4.64852E-13 0.00000E+00 0.00000E+00 0.00000E+00
 -1       618 4.64852E-13 4.64852E-13 4.64852E-13 0.00000E+00 0.00000E+00 0.00000E+00
 -1       619 4.64852E-13 4.64852E-13 4.64852E-13 0.00000E+00 0.00000E+00 0.00000E+00
 -1       620 4.64852E-13 4.64852E-13 4.64852E-13 0.00000E+00 0.00000E+00 0.00000E+00
 -1       621 4.64852E-13 4.64852E-13 4.64852E-13 0.00000E+00 0.00000E+00 0.00000E+00
 -1       622 4.64852E-13 4.64852E-13 4.64852E-13 0.00000E+00 0.00000E+00 0.00000E+00
 -1       623 4.64852E-13 4.64852E-13 4.64852E-13 0.00000E+00 0.00000E+00 0.00000E+00
 -1       624 4.64852E-13 4.64852E-13 4.64852E-13 0.00000E+00 0.00000E+00 0.00000E+00
 -1       625 4.64852E-13 4.64852E-13 4.64852E-13 0.00000E+00 0.00000E+00 0.00000E+00
 -1       626 4.64852E-13 4.64852E-13 4.64852E-13 0.00000E+00 0.00000E+00 0.00000E+00
 -1       627 4.64852E-13 4.64852E-13 4.64852E-13 0.00000E+00 0.00000E+00 0.00000E+00
 -1       628 4.64852E-13 4.64852E-13 4.64852E-13 0.00000E+00 0.00000E+00 0.00000E+00
 -1       629 4.64852E-13 4.64852E-13 4.64852E-13 0.00000E+00 0.00000E+00 0.00000E+00
 -1       630 4.64852E-13 4.64852E-13 4.64852E-13 0.00000E+00 0.00000E+00 0.00000E+00
 -1       631 4.64852E-13 4.64852E-13 4.64852E-13 0.00000E+00 0.00000E+00 0.00000E+00
 -1       632 4.64852E-13 4.64852E-13 4.64852E-13 0.00000E+00 0.00000E+00 0.00000E+00
 -1       633 4.64852E-13 4.64852E-13 4.64852E-13 0.00000E+00 0.00000E+00 0.00000E+00
 -1       634 4.64852E-13 4.64852E-13 4.64852E-13 0.00000E+00 0.00000E+00 0.00000E+00
 -1       635 4.64852E-13 4.64852E-13 4.64852E-13 0.00000E+00 0.00000E+00 0.00000E+00
 -1       636 4.64852E-13 4.64852E-13 4.64852E-13 0.00000E+00 0.00000E+00 0.00000E+00
 -1       637 4.64852E-13 4.64852E-13 4.64852E-13 0.00000E+00 0.00000E+00 0.00000E+00
 -1       638 4.64852E-13 4.64852E-13 4.64852E-13 0.00000E+00 0.00000E+00 0.00000E+00
 -1       639 4.64852E-13 4.64852E-13 4.64852E-13 0.00000E+00 0.00000E+00 0.00000E+00
 -1       640 4.64852E-13 4.64852E-13 4.64852E-13 0.00000E+00 0.00000E+00 0.00000E+00
 -1       641 4.64852E-13 4.64852E-13 4.64852E-13 0.00000E+00 0.00000E+00 0.00000E+00
 -1       642 4.64852E-13 4.64852E-13 4.64852E-13 0.00000E+00 0.00000E+00 0.00000E+00
 -1       643 4.64852E-13 4.64852E-13 4.64852E-13 0.00000E+00 0.00000E+00 0.00000E+00
 -1       644 4.64852E-13 4.64852E-13 4.64852E-13 0.00000E+00 0.00000E+00 0.00000E+00
 -1       645 4.64852E-13 4.64852E-13 4.64852E-13 0.00000E+00 0.00000E+00 0.00000E+00
 -1       646 4.64852E-13 4.64852E-13 4.64852E-13 0.00000E+00 0.00000E+00 0.00000E+00
 -1       647 4.64852E-13 4.64852E-13 4.64852E-13 0.00000E+00 0.00000E+00 0.00000E+00
 -1       648 4.64852E-13 4.64852E-13 4.64852E-13 0.00000E+00 0.00000E+00 0.00000E+00
 -1       649 4.64852E-13 4.64852E-13 4.64852E-13 0.00000E+00 0.00000E+00 0.00000E+00
 -1       650 4.64852E-13 4.64852E-13 4.64852E-13 0.00000E+00 0.00000E+00 0.00000E+00
 -1       651 4.64852E-13 4.64852E-13 4.64852E-13 0.00000E+00 0.00000E+00 0.00000E+00
 -1       652 4.64852E-13 4.64852E-13 4.64852E-13 0.00000E+00 0.00000E+00 0.00000E+00
 -1       653 4.64852E-13 4.64852E-13 4.64852E-13 0.00000E+00 0.00000E+00 0.00000E+00
 -1       654 4.64852E-13 4.64852E-13 4.64852E-13 0.00000E+00 0.00000E+00 0.00000E+00
 -1       655 4.64852E-13 4.64852E-13 4.64852E-13 0.00000E+00 0.00000E+00 0.00000E+00
 -1       656 4.60425E-13 4.60425E-13 4.60425E-13 0.00000E+00 0.00000E+00 0.00000E+00
 -1       657 4.51570E-13 4.51570E-13 4.51570E-13 0.00000E+00 0.00000E+00 0.00000E+00
 -1       658 4.55997E-13 4.55997E-13 4.55997E-13 0.00000E+00 0.00000E+00 0.00000E+00
 -1       659 4.60425E-13 4.60425E-13 4.60425E-13 0.00000E+00 0.00000E+00 0.00000E+00
 -1       660 4.64852E-13 4.64852E-13 4.64852E-13 0.00000E+00 0.00000E+00 0.00000E+00
 -1       661 4.60425E-13 4.60425E-13 4.60425E-13 0.00000E+00 0.00000E+00 0.00000E+00
 -1       662 4.42716E-13 4.42716E-13 4.42716E-13 0.00000E+00 0.00000E+00 0.00000E+00
 -1       663 4.38289E-13 4.38289E-13 4.38289E-13 0.00000E+00 0.00000E+00 0.00000E+00
 -1       664 4.38289E-13 4.38289E-13 4.38289E-13 0.00000E+00 0.00000E+00 0.00000E+00
 -1       665 4.38289E-13 4.38289E-13 4.38289E-13 0.00000E+00 0.00000E+00 0.00000E+00
 -1       666 4.42716E-13 4.42716E-13 4.42716E-13 0.00000E+00 0.00000E+00 0.00000E+00
 -1       667 4.47143E-13 4.47143E-13 4.47143E-13 0.00000E+00 0.00000E+00 0.00000E+00
 -1       668 4.38289E-13 4.38289E-13 4.38289E-13 0.00000E+00 0.00000E+00 0.00000E+00
 -1       669 4.38289E-13 4.38289E-13 4.38289E-13 0.00000E+00 0.00000E+00 0.00000E+00
 -1       670 4.38289E-13 4.38289E-13 4.38289E-13 0.00000E+00 0.00000E+00 0.00000E+00
 -1       671 4.47143E-13 4.47143E-13 4.47143E-13 0.00000E+00 0.00000E+00 0.00000E+00
 -1       672 4.60425E-13 4.60425E-13 4.60425E-13 0.00000E+00 0.00000E+00 0.00000E+00
 -1       673 4.60425E-13 4.60425E-13 4.60425E-13 0.00000E+00 0.00000E+00 0.00000E+00
 -1       674 4.55997E-13 4.55997E-13 4.55997E-13 0.00000E+00 0.00000E+00 0.00000E+00
 -1       675 4.42716E-13 4.42716E-13 4.42716E-13 0.00000E+00 0.00000E+00 0.00000E+00
 -1       676 4.38289E-13 4.38289E-13 4.38289E-13 0.00000E+00 0.00000E+00 0.00000E+00
 -1       677 4.38289E-13 4.38289E-13 4.38289E-13 0.00000E+00 0.00000E+00 0.00000E+00
 -1       678 4.38289E-13 4.38289E-13 4.38289E-13 0.00000E+00 0.00000E+00 0.00000E+00
 -1       679 4.38289E-13 4.38289E-13 4.38289E-13 0.00000E+00 0.00000E+00 0.00000E+00
 -1       680 4.42716E-13 4.42716E-13 4.42716E-13 0.00000E+00 0.00000E+00 0.00000E+00
 -1       681 4.60425E-13 4.60425E-13 4.60425E-13 0.00000E+00 0.00000E+00 0.00000E+00
 -1       682 4.64852E-13 4.64852E-13 4.64852E-13 0.00000E+00 0.00000E+00 0.00000E+00
 -1       683 4.64852E-13 4.64852E-13 4.64852E-13 0.00000E+00 0.00000E+00 0.00000E+00
 -1       684 4.64852E-13 4.64852E-13 4.64852E-13 0.00000E+00 0.00000E+00 0.00000E+00
 -1       685 4.55997E-13 4.55997E-13 4.55997E-13 0.00000E+00 0.00000E+00 0.00000E+00
 -1       686 4.55997E-13 4.55997E-13 4.55997E-13 0.00000E+00 0.00000E+00 0.00000E+00
 -1       687 4.51570E-13 4.51570E-13 4.51570E-13 0.00000E+00 0.00000E+00 0.00000E+00
 -1       688 4.47143E-13 4.47143E-13 4.47143E-13 0.00000E+00 0.00000E+00 0.00000E+00
 -1       689 4.42716E-13 4.42716E-13 4.42716E-13 0.00000E+00 0.00000E+00 0.00000E+00
 -1       690 4.38289E-13 4.38289E-13 4.38289E-13 0.00000E+00 0.00000E+00 0.00000E+00
 -1       691 4.38289E-13 4.38289E-13 4.38289E-13 0.00000E+00 0.00000E+00 0.00000E+00
 -1       692 4.38289E-13 4.38289E-13 4.38289E-13 0.00000E+00 0.00000E+00 0.00000E+00
 -1       693 4.38289E-13 4.38289E-13 4.38289E-13 0.00000E+00 0.00000E+00 0.00000E+00
 -1       694 4.38289E-13 4.38289E-13 4.38289E-13 0.00000E+00 0.00000E+00 0.00000E+00
 -1       695 4.38289E-13 4.38289E-13 4.38289E-13 0.00000E+00 0.00000E+00 0.00000E+00
 -1       696 4.38289E-13 4.38289E-13 4.38289E-13 0.00000E+00 0.00000E+00 0.00000E+00
 -1       697 4.38289E-13 4.38289E-13 4.38289E-13 0.00000E+00 0.00000E+00 0.00000E+00
 -1       698 4.38289E-13 4.38289E-13 4.38289E-13 0.00000E+00 0.00000E+00 0.00000E+00
 -1       699 4.55997E-13 4.55997E-13 4.55997E-13 0.00000E+00 0.00000E+00 0.00000E+00
 -1       700 4.64852E-13 4.64852E-13 4.64852E-13 0.00000E+00 0.00000E+00 0.00000E+00
 -1       701 4.64852E-13 4.64852E-13 4.64852E-13 0.00000E+00 0.00000E+00 0.00000E+00
 -1       702 4.64852E-13 4.64852E-13 4.64852E-13 0.00000E+00 0.00000E+00 0.00000E+00
 -1       703 4.64852E-13 4.64852E-13 4.64852E-13 0.00000E+00 0.00000E+00 0.00000E+00
 -1       704 4.64852E-13 4.64852E-13 4.64852E-13 0.00000E+00 0.00000E+00 0.00000E+00
 -1       705 4.64852E-13 4.64852E-13 4.64852E-13 0.00000E+00 0.00000E+00 0.00000E+00
 -1       706 4.64852E-13 4.64852E-13 4.64852E-13 0.00000E+00 0.00000E+00 0.00000E+00
 -1       707 4.64852E-13 4.64852E-13 4.64852E-13 0.00000E+00 0.00000E+00 0.00000E+00
 -1       708 4.64852E-13 4.64852E-13 4.64852E-13 0.00000E+00 0.00000E+00 0.00000E+00
 -1       709 4.64852E-13 4.64852E-13 4.64852E-13 0.00000E+00 0.00000E+00 0.00000E+00
 -1       710 4.64852E-13 4.64852E-13 4.64852E-13 0.00000E+00 0.00000E+00 0.00000E+00
 -1       711 4.64852E-13 4.64852E-13 4.64852E-13 0.00000E+00 0.00000E+00 0.00000E+00
 -1       712 4.64852E-13 4.64852E-13 4.64852E-13 0.00000E+00 0.00000E+00 0.00000E+00
 -1       713 4.64852E-13 4.64852E-13 4.64852E-13 0.00000E+00 0.00000E+00 0.00000E+00
 -1       714 4.64852E-13 4.64852E-13 4.64852E-13 0.00000E+00 0.00000E+00 0.00000E+00
 -1       715 4.64852E-13 4.64852E-13 4.64852E-13 0.00000E+00 0.00000E+00 0.00000E+00
 -1       716 4.64852E-13 4.64852E-13 4.64852E-13 0.00000E+00 0.00000E+00 0.00000E+00
 -1       717 4.64852E-13 4.64852E-13 4.64852E-13 0.00000E+00 0.00000E+00 0.00000E+00
 -1       718 4.64852E-13 4.64852E-13 4.64852E-13 0.00000E+00 0.00000E+00 0.00000E+00
 -1       719 4.64852E-13 4.64852E-13 4.64852E-13 0.00000E+00 0.00000E+00 0.00000E+00
 -1       720 4.64852E-13 4.64852E-13 4.64852E-13 0.00000E+00 0.00000E+00 0.00000E+00
 -1       721 4.64852E-13 4.64852E-13 4.64852E-13 0.00000E+00 0.00000E+00 0.00000E+00
 -1       722 4.64852E-13 4.64852E-13 4.64852E-13 0.00000E+00 0.00000E+00 0.00000E+00
 -1       723 4.64852E-13 4.64852E-13 4.64852E-13 0.00000E+00 0.00000E+00 0.00000E+00
 -1       724 4.64852E-13 4.64852E-13 4.64852E-13 0.00000E+00 0.00000E+00 0.00000E+00
 -1       725 4.64852E-13 4.64852E-13 4.64852E-13 0.00000E+00 0.00000E+00 0.00000E+00
 -1       726 4.64852E-13 4.64852E-13 4.64852E-13 0.00000E+00 0.00000E+00 0.00000E+00
 -1       727 4.64852E-13 4.64852E-13 4.64852E-13 0.00000E+00 0.00000E+00 0.00000E+00
 -1       728 4.64852E-13 4.64852E-13 4.64852E-13 0.00000E+00 0.00000E+00 0.00000E+00
 -1       729 4.64852E-13 4.64852E-13 4.64852E-13 0.00000E+00 0.00000E+00 0.00000E+00
 -1       730 4.64852E-13 4.64852E-13 4.64852E-13 0.00000E+00 0.00000E+00 0.00000E+00
 -1       731 4.64852E-13 4.64852E-13 4.64852E-13 0.00000E+00 0.00000E+00 0.00000E+00
 -1       732 4.64852E-13 4.64852E-13 4.64852E-13 0.00000E+00 0.00000E+00 0.00000E+00
 -1       733 4.64852E-13 4.64852E-13 4.64852E-13 0.00000E+00 0.00000E+00 0.00000E+00
 -1       734 4.64852E-13 4.64852E-13 4.64852E-13 0.00000E+00 0.00000E+00 0.00000E+00
 -1       735 4.64852E-13 4.64852E-13 4.64852E-13 0.00000E+00 0.00000E+00 0.00000E+00
 -1       736 4.64852E-13 4.64852E-13 4.64852E-13 0.00000E+00 0.00000E+00 0.00000E+00
 -1       737 4.64852E-13 4.64852E-13 4.64852E-13 0.00000E+00 0.00000E+00 0.00000E+00
 -1       738 4.64852E-13 4.64852E-13 4.64852E-13 0.00000E+00 0.00000E+00 0.00000E+00
 -1       739 4.64852E-13 4.64852E-13 4.64852E-13 0.00000E+00 0.00000E+00 0.00000E+00
 -1       740 4.64852E-13 4.64852E-13 4.64852E-13 0.00000E+00 0.00000E+00 0.00000E+00
 -1       741 4.64852E-13 4.64852E-13 4.64852E-13 0.00000E+00 0.00000E+00 0.00000E+00
 -1       742 4.64852E-13 4.64852E-13 4.64852E-13 0.00000E+00 0.00000E+00 0.00000E+00
 -1       743 4.64852E-13 4.64852E-13 4.64852E-13 0.00000E+00 0.00000E+00 0.00000E+00
 -1       744 4.64852E-13 4.64852E-13 4.64852E-13 0.00000E+00 0.00000E+00 0.00000E+00
 -1       745 4.64852E-13 4.64852E-13 4.64852E-13 0.00000E+00 0.00000E+00 0.00000E+00
 -1       746 4.64852E-13 4.64852E-13 4.64852E-13 0.00000E+00 0.00000E+00 0.00000E+00
 -1       747 4.64852E-13 4.64852E-13 4.64852E-13 0.00000E+00 0.00000E+00 0.00000E+00
 -1       748 4.64852E-13 4.64852E-13 4.64852E-13 0.00000E+00 0.00000E+00 0.00000E+00
 -1       749 4.64852E-13 4.64852E-13 4.64852E-13 0.00000E+00 0.00000E+00 0.00000E+00
 -1       750 4.64852E-13 4.64852E-13 4.64852E-13 0.00000E+00 0.00000E+00 0.00000E+00
 -1       751 4.64852E-13 4.64852E-13 4.64852E-13 0.00000E+00 0.00000E+00 0.00000E+00
 -1       752 4.64852E-13 4.64852E-13 4.64852E-13 0.00000E+00 0.00000E+00 0.00000E+00
 -1       753 4.60425E-13 4.60425E-13 4.60425E-13 0.00000E+00 0.00000E+00 0.00000E+00
 -1       754 4.47143E-13 4.47143E-13 4.47143E-13 0.00000E+00 0.00000E+00 0.00000E+00
 -1       755 4.51570E-13 4.51570E-13 4.51570E-13 0.00000E+00 0.00000E+00 0.00000E+00
 -1       756 4.64852E-13 4.64852E-13 4.64852E-13 0.00000E+00 0.00000E+00 0.00000E+00
 -1       757 4.64852E-13 4.64852E-13 4.64852E-13 0.00000E+00 0.00000E+00 0.00000E+00
 -1       758 4.64852E-13 4.64852E-13 4.64852E-13 0.00000E+00 0.00000E+00 0.00000E+00
 -1       759 4.55997E-13 4.55997E-13 4.55997E-13 0.00000E+00 0.00000E+00 0.00000E+00
 -1       760 4.42716E-13 4.42716E-13 4.42716E-13 0.00000E+00 0.00000E+00 0.00000E+00
 -1       761 4.38289E-13 4.38289E-13 4.38289E-13 0.00000E+00 0.00000E+00 0.00000E+00
 -1       762 4.38289E-13 4.38289E-13 4.38289E-13 0.00000E+00 0.00000E+00 0.00000E+00
 -1       763 4.38289E-13 4.38289E-13 4.38289E-13 0.00000E+00 0.00000E+00 0.00000E+00
 -1       764 4.38289E-13 4.38289E-13 4.38289E-13 0.00000E+00 0.00000E+00 0.00000E+00
 -1       765 4.38289E-13 4.38289E-13 4.38289E-13 0.00000E+00 0.00000E+00 0.00000E+00
 -1       766 4.38289E-13 4.38289E-13 4.38289E-13 0.00000E+00 0.00000E+00 0.00000E+00
 -1       767 4.64852E-13 4.64852E-13 4.64852E-13 0.00000E+00 0.00000E+00 0.00000E+00
 -1       768 4.64852E-13 4.64852E-13 4.64852E-13 0.00000E+00 0.00000E+00 0.00000E+00
 -1       769 4.64852E-13 4.64852E-13 4.64852E-13 0.00000E+00 0.00000E+00 0.00000E+00
 -1       770 4.38289E-13 4.38289E-13 4.38289E-13 0.00000E+00 0.00000E+00 0.00000E+00
 -1       771 4.38289E-13 4.38289E-13 4.38289E-13 0.00000E+00 0.00000E+00 0.00000E+00
 -1       772 4.38289E-13 4.38289E-13 4.38289E-13 0.00000E+00 0.00000E+00 0.00000E+00
 -1       773 4.38289E-13 4.38289E-13 4.38289E-13 0.00000E+00 0.00000E+00 0.00000E+00
 -1       774 4.38289E-13 4.38289E-13 4.38289E-13 0.00000E+00 0.00000E+00 0.00000E+00
 -1       775 4.38289E-13 4.38289E-13 4.38289E-13 0.00000E+00 0.00000E+00 0.00000E+00
 -1       776 4.38289E-13 4.38289E-13 4.38289E-13 0.00000E+00 0.00000E+00 0.00000E+00
 -1       777 4.38289E-13 4.38289E-13 4.38289E-13 0.00000E+00 0.00000E+00 0.00000E+00
 -1       778 4.38289E-13 4.38289E-13 4.38289E-13 0.00000E+00 0.00000E+00 0.00000E+00
 -1       779 4.42716E-13 4.42716E-13 4.42716E-13 0.00000E+00 0.00000E+00 0.00000E+00
 -1       780 4.42716E-13 4.42716E-13 4.42716E-13 0.00000E+00 0.00000E+00 0.00000E+00
 -1       781 4.38289E-13 4.38289E-13 4.38289E-13 0.00000E+00 0.00000E+00 0.00000E+00
 -1       782 4.38289E-13 4.38289E-13 4.38289E-13 0.00000E+00 0.00000E+00 0.00000E+00
 -1       783 4.38289E-13 4.38289E-13 4.38289E-13 0.00000E+00 0.00000E+00 0.00000E+00
 -1       784 4.38289E-13 4.38289E-13 4.38289E-13 0.00000E+00 0.00000E+00 0.00000E+00
 -1       785 4.38289E-13 4.38289E-13 4.38289E-13 0.00000E+00 0.00000E+00 0.00000E+00
 -1       786 4.38289E-13 4.38289E-13 4.38289E-13 0.00000E+00 0.00000E+00 0.00000E+00
 -1       787 4.38289E-13 4.38289E-13 4.38289E-13 0.00000E+00 0.00000E+00 0.00000E+00
 -1       788 4.38289E-13 4.38289E-13 4.38289E-13 0.00000E+00 0.00000E+00 0.00000E+00
 -1       789 4.38289E-13 4.38289E-13 4.38289E-13 0.00000E+00 0.00000E+00 0.00000E+00
 -1       790 4.38289E-13 4.38289E-13 4.38289E-13 0.00000E+00 0.00000E+00 0.00000E+00
 -1       791 4.47143E-13 4.47143E-13 4.47143E-13 0.00000E+00 0.00000E+00 0.00000E+00
 -1       792 4.42716E-13 4.42716E-13 4.42716E-13 0.00000E+00 0.00000E+00 0.00000E+00
 -1       793 4.38289E-13 4.38289E-13 4.38289E-13 0.00000E+00 0.00000E+00 0.00000E+00
 -1       794 4.38289E-13 4.38289E-13 4.38289E-13 0.00000E+00 0.00000E+00 0.00000E+00
 -1       795 4.38289E-13 4.38289E-13 4.38289E-13 0.00000E+00 0.00000E+00 0.00000E+00
 -1       796 4.42716E-13 4.42716E-13 4.42716E-13 0.00000E+00 0.00000E+00 0.00000E+00
 -1       797 4.47143E-13 4.47143E-13 4.47143E-13 0.00000E+00 0.00000E+00 0.00000E+00
 -1       798 4.51570E-13 4.51570E-13 4.51570E-13 0.00000E+00 0.00000E+00 0.00000E+00
 -1       799 4.55997E-13 4.55997E-13 4.55997E-13 0.00000E+00 0.00000E+00 0.00000E+00
 -1       800 4.64852E-13 4.64852E-13 4.64852E-13 0.00000E+00 0.00000E+00 0.00000E+00
 -1       801 4.55997E-13 4.55997E-13 4.55997E-13 0.00000E+00 0.00000E+00 0.00000E+00
 -1       802 4.55997E-13 4.55997E-13 4.55997E-13 0.00000E+00 0.00000E+00 0.00000E+00
 -1       803 4.64852E-13 4.64852E-13 4.64852E-13 0.00000E+00 0.00000E+00 0.00000E+00
 -1       804 4.64852E-13 4.64852E-13 4.64852E-13 0.00000E+00 0.00000E+00 0.00000E+00
 -1       805 4.64852E-13 4.64852E-13 4.64852E-13 0.00000E+00 0.00000E+00 0.00000E+00
 -1       806 4.60425E-13 4.60425E-13 4.60425E-13 0.00000E+00 0.00000E+00 0.00000E+00
 -1       807 4.60425E-13 4.60425E-13 4.60425E-13 0.00000E+00 0.00000E+00 0.00000E+00
 -1       808 4.64852E-13 4.64852E-13 4.64852E-13 0.00000E+00 0.00000E+00 0.00000E+00
 -1       809 4.64852E-13 4.64852E-13 4.64852E-13 0.00000E+00 0.00000E+00 0.00000E+00
 -1       810 4.64852E-13 4.64852E-13 4.64852E-13 0.00000E+00 0.00000E+00 0.00000E+00
 -1       811 4.60425E-13 4.60425E-13 4.60425E-13 0.00000E+00 0.00000E+00 0.00000E+00
 -1       812 4.47143E-13 4.47143E-13 4.47143E-13 0.00000E+00 0.00000E+00 0.00000E+00
 -1       813 4.42716E-13 4.42716E-13 4.42716E-13 0.00000E+00 0.00000E+00 0.00000E+00
 -1       814 4.42716E-13 4.42716E-13 4.42716E-13 0.00000E+00 0.00000E+00 0.00000E+00
 -1       815 4.42716E-13 4.42716E-13 4.42716E-13 0.00000E+00 0.00000E+00 0.00000E+00
 -1       816 4.42716E-13 4.42716E-13 4.42716E-13 0.00000E+00 0.00000E+00 0.00000E+00
 -1       817 4.51570E-13 4.51570E-13 4.51570E-13 0.00000E+00 0.00000E+00 0.00000E+00
 -1       818 4.64852E-13 4.64852E-13 4.64852E-13 0.00000E+00 0.00000E+00 0.00000E+00
 -1       819 4.51570E-13 4.51570E-13 4.51570E-13 0.00000E+00 0.00000E+00 0.00000E+00
 -1       820 4.38289E-13 4.38289E-13 4.38289E-13 0.00000E+00 0.00000E+00 0.00000E+00
 -1       821 4.64852E-13 4.64852E-13 4.64852E-13 0.00000E+00 0.00000E+00 0.00000E+00
 -1       822 4.64852E-13 4.64852E-13 4.64852E-13 0.00000E+00 0.00000E+00 0.00000E+00
 -1       823 4.64852E-13 4.64852E-13 4.64852E-13 0.00000E+00 0.00000E+00 0.00000E+00
 -1       824 4.60425E-13 4.60425E-13 4.60425E-13 0.00000E+00 0.00000E+00 0.00000E+00
 -1       825 4.60425E-13 4.60425E-13 4.60425E-13 0.00000E+00 0.00000E+00 0.00000E+00
 -1       826 4.58211E-13 4.58211E-13 4.58211E-13 0.00000E+00 0.00000E+00 0.00000E+00
 -1       827 4.60425E-13 4.60425E-13 4.60425E-13 0.00000E+00 0.00000E+00 0.00000E+00
 -1       828 4.60425E-13 4.60425E-13 4.60425E-13 0.00000E+00 0.00000E+00 0.00000E+00
 -1       829 4.64852E-13 4.64852E-13 4.64852E-13 0.00000E+00 0.00000E+00 0.00000E+00
 -1       830 4.64852E-13 4.64852E-13 4.64852E-13 0.00000E+00 0.00000E+00 0.00000E+00
 -1       831 4.64852E-13 4.64852E-13 4.64852E-13 0.00000E+00 0.00000E+00 0.00000E+00
 -1       832 4.64852E-13 4.64852E-13 4.64852E-13 0.00000E+00 0.00000E+00 0.00000E+00
 -1       833 4.64852E-13 4.64852E-13 4.64852E-13 0.00000E+00 0.00000E+00 0.00000E+00
 -1       834 4.64852E-13 4.64852E-13 4.64852E-13 0.00000E+00 0.00000E+00 0.00000E+00
 -1       835 4.64852E-13 4.64852E-13 4.64852E-13 0.00000E+00 0.00000E+00 0.00000E+00
 -1       836 4.64852E-13 4.64852E-13 4.64852E-13 0.00000E+00 0.00000E+00 0.00000E+00
 -1       837 4.64852E-13 4.64852E-13 4.64852E-13 0.00000E+00 0.00000E+00 0.00000E+00
 -1       838 4.64852E-13 4.64852E-13 4.64852E-13 0.00000E+00 0.00000E+00 0.00000E+00
 -1       839 4.64852E-13 4.64852E-13 4.64852E-13 0.00000E+00 0.00000E+00 0.00000E+00
 -1       840 4.64852E-13 4.64852E-13 4.64852E-13 0.00000E+00 0.00000E+00 0.00000E+00
 -1       841 4.64852E-13 4.64852E-13 4.64852E-13 0.00000E+00 0.00000E+00 0.00000E+00
 -1       842 4.64852E-13 4.64852E-13 4.64852E-13 0.00000E+00 0.00000E+00 0.00000E+00
 -1       843 4.64852E-13 4.64852E-13 4.64852E-13 0.00000E+00 0.00000E+00 0.00000E+00
 -1       844 4.64852E-13 4.64852E-13 4.64852E-13 0.00000E+00 0.00000E+00 0.00000E+00
 -1       845 4.64852E-13 4.64852E-13 4.64852E-13 0.00000E+00 0.00000E+00 0.00000E+00
 -1       846 4.64852E-13 4.64852E-13 4.64852E-13 0.00000E+00 0.00000E+00 0.00000E+00
 -1       847 4.64852E-13 4.64852E-13 4.64852E-13 0.00000E+00 0.00000E+00 0.00000E+00
 -1       848 4.64852E-13 4.64852E-13 4.64852E-13 0.00000E+00 0.00000E+00 0.00000E+00
 -1       849 4.64852E-13 4.64852E-13 4.64852E-13 0.00000E+00 0.00000E+00 0.00000E+00
 -1       850 4.64852E-13 4.64852E-13 4.64852E-13 0.00000E+00 0.00000E+00 0.00000E+00
 -1       851 4.64852E-13 4.64852E-13 4.64852E-13 0.00000E+00 0.00000E+00 0.00000E+00
 -1       852 4.64852E-13 4.64852E-13 4.64852E-13 0.00000E+00 0.00000E+00 0.00000E+00
 -1       853 4.64852E-13 4.64852E-13 4.64852E-13 0.00000E+00 0.00000E+00 0.00000E+00
 -1       854 4.64852E-13 4.64852E-13 4.64852E-13 0.00000E+00 0.00000E+00 0.00000E+00
 -1       855 4.64852E-13 4.64852E-13 4.64852E-13 0.00000E+00 0.00000E+00 0.00000E+00
 -1       856 4.64852E-13 4.64852E-13 4.64852E-13 0.00000E+00 0.00000E+00 0.00000E+00
 -1       857 4.64852E-13 4.64852E-13 4.64852E-13 0.00000E+00 0.00000E+00 0.00000E+00
 -1       858 4.38289E-13 4.38289E-13 4.38289E-13 0.00000E+00 0.00000E+00 0.00000E+00
 -1       859 4.38289E-13 4.38289E-13 4.38289E-13 0.00000E+00 0.00000E+00 0.00000E+00
 -1       860 4.47143E-13 4.47143E-13 4.47143E-13 0.00000E+00 0.00000E+00 0.00000E+00
 -1       861 4.55997E-13 4.55997E-13 4.55997E-13 0.00000E+00 0.00000E+00 0.00000E+00
 -1       862 4.51570E-13 4.51570E-13 4.51570E-13 0.00000E+00 0.00000E+00 0.00000E+00
 -1       863 4.55997E-13 4.55997E-13 4.55997E-13 0.00000E+00 0.00000E+00 0.00000E+00
 -1       864 4.42716E-13 4.42716E-13 4.42716E-13 0.00000E+00 0.00000E+00 0.00000E+00
 -1       865 4.38289E-13 4.38289E-13 4.38289E-13 0.00000E+00 0.00000E+00 0.00000E+00
 -1       866 4.38289E-13 4.38289E-13 4.38289E-13 0.00000E+00 0.00000E+00 0.00000E+00
 -1       867 4.42716E-13 4.42716E-13 4.42716E-13 0.00000E+00 0.00000E+00 0.00000E+00
 -1       868 4.42716E-13 4.42716E-13 4.42716E-13 0.00000E+00 0.00000E+00 0.00000E+00
 -1       869 4.38289E-13 4.38289E-13 4.38289E-13 0.00000E+00 0.00000E+00 0.00000E+00
 -1       870 4.47143E-13 4.47143E-13 4.47143E-13 0.00000E+00 0.00000E+00 0.00000E+00
 -1       871 4.64852E-13 4.64852E-13 4.64852E-13 0.00000E+00 0.00000E+00 0.00000E+00
 -1       872 4.64852E-13 4.64852E-13 4.64852E-13 0.00000E+00 0.00000E+00 0.00000E+00
 -1       873 4.64852E-13 4.64852E-13 4.64852E-13 0.00000E+00 0.00000E+00 0.00000E+00
 -1       874 4.64852E-13 4.64852E-13 4.64852E-13 0.00000E+00 0.00000E+00 0.00000E+00
 -1       875 4.64852E-13 4.64852E-13 4.64852E-13 0.00000E+00 0.00000E+00 0.00000E+00
 -1       876 4.64852E-13 4.64852E-13 4.64852E-13 0.00000E+00 0.00000E+00 0.00000E+00
 -1       877 4.64852E-13 4.64852E-13 4.64852E-13 0.00000E+00 0.00000E+00 0.00000E+00
 -1       878 4.64852E-13 4.64852E-13 4.64852E-13 0.00000E+00 0.00000E+00 0.00000E+00
 -1       879 4.58211E-13 4.58211E-13 4.58211E-13 0.00000E+00 0.00000E+00 0.00000E+00
 -1       880 4.64852E-13 4.64852E-13 4.64852E-13 0.00000E+00 0.00000E+00 0.00000E+00
 -1       881 4.51570E-13 4.51570E-13 4.51570E-13 0.00000E+00 0.00000E+00 0.00000E+00
 -1       882 4.38289E-13 4.38289E-13 4.38289E-13 0.00000E+00 0.00000E+00 0.00000E+00
 -1       883 4.51570E-13 4.51570E-13 4.51570E-13 0.00000E+00 0.00000E+00 0.00000E+00
 -1       884 4.64852E-13 4.64852E-13 4.64852E-13 0.00000E+00 0.00000E+00 0.00000E+00
 -1       885 4.64852E-13 4.64852E-13 4.64852E-13 0.00000E+00 0.00000E+00 0.00000E+00
 -1       886 4.64852E-13 4.64852E-13 4.64852E-13 0.00000E+00 0.00000E+00 0.00000E+00
 -1       887 4.60425E-13 4.60425E-13 4.60425E-13 0.00000E+00 0.00000E+00 0.00000E+00
 -1       888 4.55997E-13 4.55997E-13 4.55997E-13 0.00000E+00 0.00000E+00 0.00000E+00
 -1       889 4.47143E-13 4.47143E-13 4.47143E-13 0.00000E+00 0.00000E+00 0.00000E+00
 -1       890 4.38289E-13 4.38289E-13 4.38289E-13 0.00000E+00 0.00000E+00 0.00000E+00
 -1       891 4.38289E-13 4.38289E-13 4.38289E-13 0.00000E+00 0.00000E+00 0.00000E+00
 -1       892 4.38289E-13 4.38289E-13 4.38289E-13 0.00000E+00 0.00000E+00 0.00000E+00
 -1       893 4.38289E-13 4.38289E-13 4.38289E-13 0.00000E+00 0.00000E+00 0.00000E+00
 -1       894 4.38289E-13 4.38289E-13 4.38289E-13 0.00000E+00 0.00000E+00 0.00000E+00
 -1       895 4.60425E-13 4.60425E-13 4.60425E-13 0.00000E+00 0.00000E+00 0.00000E+00
 -1       896 4.61531E-13 4.61531E-13 4.61531E-13 0.00000E+00 0.00000E+00 0.00000E+00
 -1       897 4.47143E-13 4.47143E-13 4.47143E-13 0.00000E+00 0.00000E+00 0.00000E+00
 -1       898 4.42716E-13 4.42716E-13 4.42716E-13 0.00000E+00 0.00000E+00 0.00000E+00
 -1       899 4.47143E-13 4.47143E-13 4.47143E-13 0.00000E+00 0.00000E+00 0.00000E+00
 -1       900 4.64852E-13 4.64852E-13 4.64852E-13 0.00000E+00 0.00000E+00 0.00000E+00
 -1       901 4.64852E-13 4.64852E-13 4.64852E-13 0.00000E+00 0.00000E+00 0.00000E+00
 -1       902 4.64852E-13 4.64852E-13 4.64852E-13 0.00000E+00 0.00000E+00 0.00000E+00
 -1       903 4.64852E-13 4.64852E-13 4.64852E-13 0.00000E+00 0.00000E+00 0.00000E+00
 -1       904 4.64852E-13 4.64852E-13 4.64852E-13 0.00000E+00 0.00000E+00 0.00000E+00
 -1       905 4.64852E-13 4.64852E-13 4.64852E-13 0.00000E+00 0.00000E+00 0.00000E+00
 -1       906 4.64852E-13 4.64852E-13 4.64852E-13 0.00000E+00 0.00000E+00 0.00000E+00
 -1       907 4.64852E-13 4.64852E-13 4.64852E-13 0.00000E+00 0.00000E+00 0.00000E+00
 -1       908 4.64852E-13 4.64852E-13 4.64852E-13 0.00000E+00 0.00000E+00 0.00000E+00
 -1       909 4.64852E-13 4.64852E-13 4.64852E-13 0.00000E+00 0.00000E+00 0.00000E+00
 -1       910 4.55997E-13 4.55997E-13 4.55997E-13 0.00000E+00 0.00000E+00 0.00000E+00
 -1       911 4.42716E-13 4.42716E-13 4.42716E-13 0.00000E+00 0.00000E+00 0.00000E+00
 -1       912 4.55997E-13 4.55997E-13 4.55997E-13 0.00000E+00 0.00000E+00 0.00000E+00
 -1       913 4.64852E-13 4.64852E-13 4.64852E-13 0.00000E+00 0.00000E+00 0.00000E+00
 -1       914 4.51570E-13 4.51570E-13 4.51570E-13 0.00000E+00 0.00000E+00 0.00000E+00
 -1       915 4.38289E-13 4.38289E-13 4.38289E-13 0.00000E+00 0.00000E+00 0.00000E+00
 -1       916 4.38289E-13 4.38289E-13 4.38289E-13 0.00000E+00 0.00000E+00 0.00000E+00
 -1       917 4.38289E-13 4.38289E-13 4.38289E-13 0.00000E+00 0.00000E+00 0.00000E+00
 -1       918 4.38289E-13 4.38289E-13 4.38289E-13 0.00000E+00 0.00000E+00 0.00000E+00
 -1       919 4.38289E-13 4.38289E-13 4.38289E-13 0.00000E+00 0.00000E+00 0.00000E+00
 -1       920 4.38289E-13 4.38289E-13 4.38289E-13 0.00000E+00 0.00000E+00 0.00000E+00
 -1       921 4.38289E-13 4.38289E-13 4.38289E-13 0.00000E+00 0.00000E+00 0.00000E+00
 -1       922 4.38289E-13 4.38289E-13 4.38289E-13 0.00000E+00 0.00000E+00 0.00000E+00
 -1       923 4.38289E-13 4.38289E-13 4.38289E-13 0.00000E+00 0.00000E+00 0.00000E+00
 -1       924 4.38289E-13 4.38289E-13 4.38289E-13 0.00000E+00 0.00000E+00 0.00000E+00
 -1       925 4.38289E-13 4.38289E-13 4.38289E-13 0.00000E+00 0.00000E+00 0.00000E+00
 -1       926 4.38289E-13 4.38289E-13 4.38289E-13 0.00000E+00 0.00000E+00 0.00000E+00
 -1       927 4.38289E-13 4.38289E-13 4.38289E-13 0.00000E+00 0.00000E+00 0.00000E+00
 -1       928 4.38289E-13 4.38289E-13 4.38289E-13 0.00000E+00 0.00000E+00 0.00000E+00
 -1       929 4.38289E-13 4.38289E-13 4.38289E-13 0.00000E+00 0.00000E+00 0.00000E+00
 -1       930 4.38289E-13 4.38289E-13 4.38289E-13 0.00000E+00 0.00000E+00 0.00000E+00
 -1       931 4.38289E-13 4.38289E-13 4.38289E-13 0.00000E+00 0.00000E+00 0.00000E+00
 -1       932 4.60425E-13 4.60425E-13 4.60425E-13 0.00000E+00 0.00000E+00 0.00000E+00
 -1       933 4.42716E-13 4.42716E-13 4.42716E-13 0.00000E+00 0.00000E+00 0.00000E+00
 -1       934 4.38289E-13 4.38289E-13 4.38289E-13 0.00000E+00 0.00000E+00 0.00000E+00
 -1       935 4.42716E-13 4.42716E-13 4.42716E-13 0.00000E+00 0.00000E+00 0.00000E+00
 -1       936 4.42716E-13 4.42716E-13 4.42716E-13 0.00000E+00 0.00000E+00 0.00000E+00
 -1       937 4.47143E-13 4.47143E-13 4.47143E-13 0.00000E+00 0.00000E+00 0.00000E+00
 -1       938 4.64852E-13 4.64852E-13 4.64852E-13 0.00000E+00 0.00000E+00 0.00000E+00
 -1       939 4.64852E-13 4.64852E-13 4.64852E-13 0.00000E+00 0.00000E+00 0.00000E+00
 -1       940 4.64852E-13 4.64852E-13 4.64852E-13 0.00000E+00 0.00000E+00 0.00000E+00
 -1       941 4.64852E-13 4.64852E-13 4.64852E-13 0.00000E+00 0.00000E+00 0.00000E+00
 -1       942 4.64852E-13 4.64852E-13 4.64852E-13 0.00000E+00 0.00000E+00 0.00000E+00
 -1       943 4.64852E-13 4.64852E-13 4.64852E-13 0.00000E+00 0.00000E+00 0.00000E+00
 -1       944 4.55997E-13 4.55997E-13 4.55997E-13 0.00000E+00 0.00000E+00 0.00000E+00
 -1       945 4.47143E-13 4.47143E-13 4.47143E-13 0.00000E+00 0.00000E+00 0.00000E+00
 -1       946 4.55997E-13 4.55997E-13 4.55997E-13 0.00000E+00 0.00000E+00 0.00000E+00
 -1       947 4.64852E-13 4.64852E-13 4.64852E-13 0.00000E+00 0.00000E+00 0.00000E+00
 -1       948 4.64852E-13 4.64852E-13 4.64852E-13 0.00000E+00 0.00000E+00 0.00000E+00
 -1       949 4.64852E-13 4.64852E-13 4.64852E-13 0.00000E+00 0.00000E+00 0.00000E+00
 -1       950 4.64852E-13 4.64852E-13 4.64852E-13 0.00000E+00 0.00000E+00 0.00000E+00
 -1       951 4.64852E-13 4.64852E-13 4.64852E-13 0.00000E+00 0.00000E+00 0.00000E+00
 -1       952 4.64852E-13 4.64852E-13 4.64852E-13 0.00000E+00 0.00000E+00 0.00000E+00
 -1       953 4.64852E-13 4.64852E-13 4.64852E-13 0.00000E+00 0.00000E+00 0.00000E+00
 -1       954 4.64852E-13 4.64852E-13 4.64852E-13 0.00000E+00 0.00000E+00 0.00000E+00
 -1       955 4.64852E-13 4.64852E-13 4.64852E-13 0.00000E+00 0.00000E+00 0.00000E+00
 -1       956 4.64852E-13 4.64852E-13 4.64852E-13 0.00000E+00 0.00000E+00 0.00000E+00
 -1       957 4.64852E-13 4.64852E-13 4.64852E-13 0.00000E+00 0.00000E+00 0.00000E+00
 -1       958 4.64852E-13 4.64852E-13 4.64852E-13 0.00000E+00 0.00000E+00 0.00000E+00
 -1       959 4.51570E-13 4.51570E-13 4.51570E-13 0.00000E+00 0.00000E+00 0.00000E+00
 -1       960 4.38289E-13 4.38289E-13 4.38289E-13 0.00000E+00 0.00000E+00 0.00000E+00
 -1       961 4.47143E-13 4.47143E-13 4.47143E-13 0.00000E+00 0.00000E+00 0.00000E+00
 -1       962 4.60425E-13 4.60425E-13 4.60425E-13 0.00000E+00 0.00000E+00 0.00000E+00
 -1       963 4.64852E-13 4.64852E-13 4.64852E-13 0.00000E+00 0.00000E+00 0.00000E+00
 -1       964 4.64852E-13 4.64852E-13 4.64852E-13 0.00000E+00 0.00000E+00 0.00000E+00
 -1       965 4.64852E-13 4.64852E-13 4.64852E-13 0.00000E+00 0.00000E+00 0.00000E+00
 -1       966 4.64852E-13 4.64852E-13 4.64852E-13 0.00000E+00 0.00000E+00 0.00000E+00
 -1       967 4.60425E-13 4.60425E-13 4.60425E-13 0.00000E+00 0.00000E+00 0.00000E+00
 -1       968 4.55997E-13 4.55997E-13 4.55997E-13 0.00000E+00 0.00000E+00 0.00000E+00
 -1       969 4.38289E-13 4.38289E-13 4.38289E-13 0.00000E+00 0.00000E+00 0.00000E+00
 -1       970 4.44929E-13 4.44929E-13 4.44929E-13 0.00000E+00 0.00000E+00 0.00000E+00
 -1       971 4.38289E-13 4.38289E-13 4.38289E-13 0.00000E+00 0.00000E+00 0.00000E+00
 -1       972 4.38289E-13 4.38289E-13 4.38289E-13 0.00000E+00 0.00000E+00 0.00000E+00
 -1       973 4.38289E-13 4.38289E-13 4.38289E-13 0.00000E+00 0.00000E+00 0.00000E+00
 -1       974 4.42716E-13 4.42716E-13 4.42716E-13 0.00000E+00 0.00000E+00 0.00000E+00
 -1       975 4.42716E-13 4.42716E-13 4.42716E-13 0.00000E+00 0.00000E+00 0.00000E+00
 -1       976 4.38289E-13 4.38289E-13 4.38289E-13 0.00000E+00 0.00000E+00 0.00000E+00
 -1       977 4.38289E-13 4.38289E-13 4.38289E-13 0.00000E+00 0.00000E+00 0.00000E+00
 -1       978 4.38289E-13 4.38289E-13 4.38289E-13 0.00000E+00 0.00000E+00 0.00000E+00
 -1       979 4.38289E-13 4.38289E-13 4.38289E-13 0.00000E+00 0.00000E+00 0.00000E+00
 -1       980 4.38289E-13 4.38289E-13 4.38289E-13 0.00000E+00 0.00000E+00 0.00000E+00
 -1       981 4.38289E-13 4.38289E-13 4.38289E-13 0.00000E+00 0.00000E+00 0.00000E+00
 -1       982 4.55997E-13 4.55997E-13 4.55997E-13 0.00000E+00 0.00000E+00 0.00000E+00
 -1       983 4.60425E-13 4.60425E-13 4.60425E-13 0.00000E+00 0.00000E+00 0.00000E+00
 -1       984 4.42716E-13 4.42716E-13 4.42716E-13 0.00000E+00 0.00000E+00 0.00000E+00
 -1       985 4.38289E-13 4.38289E-13 4.38289E-13 0.00000E+00 0.00000E+00 0.00000E+00
 -1       986 4.38289E-13 4.38289E-13 4.38289E-13 0.00000E+00 0.00000E+00 0.00000E+00
 -1       987 4.38289E-13 4.38289E-13 4.38289E-13 0.00000E+00 0.00000E+00 0.00000E+00
 -1       988 4.38289E-13 4.38289E-13 4.38289E-13 0.00000E+00 0.00000E+00 0.00000E+00
 -1       989 4.38289E-13 4.38289E-13 4.38289E-13 0.00000E+00 0.00000E+00 0.00000E+00
 -1       990 4.38289E-13 4.38289E-13 4.38289E-13 0.00000E+00 0.00000E+00 0.00000E+00
 -1       991 4.38289E-13 4.38289E-13 4.38289E-13 0.00000E+00 0.00000E+00 0.00000E+00
 -1       992 4.38289E-13 4.38289E-13 4.38289E-13 0.00000E+00 0.00000E+00 0.00000E+00
 -1       993 4.38289E-13 4.38289E-13 4.38289E-13 0.00000E+00 0.00000E+00 0.00000E+00
 -1       994 4.38289E-13 4.38289E-13 4.38289E-13 0.00000E+00 0.00000E+00 0.00000E+00
 -1       995 4.38289E-13 4.38289E-13 4.38289E-13 0.00000E+00 0.00000E+00 0.00000E+00
 -1       996 4.41609E-13 4.41609E-13 4.41609E-13 0.00000E+00 0.00000E+00 0.00000E+00
 -1       997 4.42716E-13 4.42716E-13 4.42716E-13 0.00000E+00 0.00000E+00 0.00000E+00
 -1       998 4.38289E-13 4.38289E-13 4.38289E-13 0.00000E+00 0.00000E+00 0.00000E+00
 -1       999 4.38289E-13 4.38289E-13 4.38289E-13 0.00000E+00 0.00000E+00 0.00000E+00
 -1      1000 4.55997E-13 4.55997E-13 4.55997E-13 0.00000E+00 0.00000E+00 0.00000E+00
 -1      1001 4.64852E-13 4.64852E-13 4.64852E-13 0.00000E+00 0.00000E+00 0.00000E+00
 -1      1002 4.60425E-13 4.60425E-13 4.60425E-13 0.00000E+00 0.00000E+00 0.00000E+00
 -1      1003 4.42716E-13 4.42716E-13 4.42716E-13 0.00000E+00 0.00000E+00 0.00000E+00
 -1      1004 4.38289E-13 4.38289E-13 4.38289E-13 0.00000E+00 0.00000E+00 0.00000E+00
 -1      1005 4.38289E-13 4.38289E-13 4.38289E-13 0.00000E+00 0.00000E+00 0.00000E+00
 -1      1006 4.47143E-13 4.47143E-13 4.47143E-13 0.00000E+00 0.00000E+00 0.00000E+00
 -1      1007 4.51570E-13 4.51570E-13 4.51570E-13 0.00000E+00 0.00000E+00 0.00000E+00
 -1      1008 4.64852E-13 4.64852E-13 4.64852E-13 0.00000E+00 0.00000E+00 0.00000E+00
 -1      1009 4.64852E-13 4.64852E-13 4.64852E-13 0.00000E+00 0.00000E+00 0.00000E+00
 -1      1010 4.64852E-13 4.64852E-13 4.64852E-13 0.00000E+00 0.00000E+00 0.00000E+00
 -1      1011 4.64852E-13 4.64852E-13 4.64852E-13 0.00000E+00 0.00000E+00 0.00000E+00
 -1      1012 4.64852E-13 4.64852E-13 4.64852E-13 0.00000E+00 0.00000E+00 0.00000E+00
 -1      1013 4.64852E-13 4.64852E-13 4.64852E-13 0.00000E+00 0.00000E+00 0.00000E+00
 -1      1014 4.64852E-13 4.64852E-13 4.64852E-13 0.00000E+00 0.00000E+00 0.00000E+00
 -1      1015 4.64852E-13 4.64852E-13 4.64852E-13 0.00000E+00 0.00000E+00 0.00000E+00
 -1      1016 4.64852E-13 4.64852E-13 4.64852E-13 0.00000E+00 0.00000E+00 0.00000E+00
 -1      1017 4.64852E-13 4.64852E-13 4.64852E-13 0.00000E+00 0.00000E+00 0.00000E+00
 -1      1018 4.64852E-13 4.64852E-13 4.64852E-13 0.00000E+00 0.00000E+00 0.00000E+00
 -1      1019 4.64852E-13 4.64852E-13 4.64852E-13 0.00000E+00 0.00000E+00 0.00000E+00
 -1      1020 4.64852E-13 4.64852E-13 4.64852E-13 0.00000E+00 0.00000E+00 0.00000E+00
 -1      1021 4.64852E-13 4.64852E-13 4.64852E-13 0.00000E+00 0.00000E+00 0.00000E+00
 -1      1022 4.64852E-13 4.64852E-13 4.64852E-13 0.00000E+00 0.00000E+00 0.00000E+00
 -1      1023 4.64852E-13 4.64852E-13 4.64852E-13 0.00000E+00 0.00000E+00 0.00000E+00
 -1      1024 4.64852E-13 4.64852E-13 4.64852E-13 0.00000E+00 0.00000E+00 0.00000E+00
 -1      1025 4.64852E-13 4.64852E-13 4.64852E-13 0.00000E+00 0.00000E+00 0.00000E+00
 -1      1026 4.64852E-13 4.64852E-13 4.64852E-13 0.00000E+00 0.00000E+00 0.00000E+00
 -1      1027 4.64852E-13 4.64852E-13 4.64852E-13 0.00000E+00 0.00000E+00 0.00000E+00
 -1      1028 4.64852E-13 4.64852E-13 4.64852E-13 0.00000E+00 0.00000E+00 0.00000E+00
 -1      1029 4.64852E-13 4.64852E-13 4.64852E-13 0.00000E+00 0.00000E+00 0.00000E+00
 -1      1030 4.64852E-13 4.64852E-13 4.64852E-13 0.00000E+00 0.00000E+00 0.00000E+00
 -1      1031 4.64852E-13 4.64852E-13 4.64852E-13 0.00000E+00 0.00000E+00 0.00000E+00
 -1      1032 4.64852E-13 4.64852E-13 4.64852E-13 0.00000E+00 0.00000E+00 0.00000E+00
 -1      1033 4.64852E-13 4.64852E-13 4.64852E-13 0.00000E+00 0.00000E+00 0.00000E+00
 -1      1034 4.64852E-13 4.64852E-13 4.64852E-13 0.00000E+00 0.00000E+00 0.00000E+00
 -1      1035 4.64852E-13 4.64852E-13 4.64852E-13 0.00000E+00 0.00000E+00 0.00000E+00
 -1      1036 4.64852E-13 4.64852E-13 4.64852E-13 0.00000E+00 0.00000E+00 0.00000E+00
 -1      1037 4.64852E-13 4.64852E-13 4.64852E-13 0.00000E+00 0.00000E+00 0.00000E+00
 -1      1038 4.64852E-13 4.64852E-13 4.64852E-13 0.00000E+00 0.00000E+00 0.00000E+00
 -1      1039 4.64852E-13 4.64852E-13 4.64852E-13 0.00000E+00 0.00000E+00 0.00000E+00
 -1      1040 4.64852E-13 4.64852E-13 4.64852E-13 0.00000E+00 0.00000E+00 0.00000E+00
 -1      1041 4.64852E-13 4.64852E-13 4.64852E-13 0.00000E+00 0.00000E+00 0.00000E+00
 -1      1042 4.64852E-13 4.64852E-13 4.64852E-13 0.00000E+00 0.00000E+00 0.00000E+00
 -1      1043 4.38289E-13 4.38289E-13 4.38289E-13 0.00000E+00 0.00000E+00 0.00000E+00
 -1      1044 4.47143E-13 4.47143E-13 4.47143E-13 0.00000E+00 0.00000E+00 0.00000E+00
 -1      1045 4.42716E-13 4.42716E-13 4.42716E-13 0.00000E+00 0.00000E+00 0.00000E+00
 -1      1046 4.38289E-13 4.38289E-13 4.38289E-13 0.00000E+00 0.00000E+00 0.00000E+00
 -1      1047 4.38289E-13 4.38289E-13 4.38289E-13 0.00000E+00 0.00000E+00 0.00000E+00
 -1      1048 4.38289E-13 4.38289E-13 4.38289E-13 0.00000E+00 0.00000E+00 0.00000E+00
 -1      1049 4.38289E-13 4.38289E-13 4.38289E-13 0.00000E+00 0.00000E+00 0.00000E+00
 -1      1050 4.38289E-13 4.38289E-13 4.38289E-13 0.00000E+00 0.00000E+00 0.00000E+00
 -1      1051 4.38289E-13 4.38289E-13 4.38289E-13 0.00000E+00 0.00000E+00 0.00000E+00
 -1      1052 4.38289E-13 4.38289E-13 4.38289E-13 0.00000E+00 0.00000E+00 0.00000E+00
 -1      1053 4.38289E-13 4.38289E-13 4.38289E-13 0.00000E+00 0.00000E+00 0.00000E+00
 -1      1054 4.38289E-13 4.38289E-13 4.38289E-13 0.00000E+00 0.00000E+00 0.00000E+00
 -1      1055 4.38289E-13 4.38289E-13 4.38289E-13 0.00000E+00 0.00000E+00 0.00000E+00
 -1      1056 4.38289E-13 4.38289E-13 4.38289E-13 0.00000E+00 0.00000E+00 0.00000E+00
 -1      1057 4.38289E-13 4.38289E-13 4.38289E-13 0.00000E+00 0.00000E+00 0.00000E+00
 -1      1058 4.38289E-13 4.38289E-13 4.38289E-13 0.00000E+00 0.00000E+00 0.00000E+00
 -1      1059 4.38289E-13 4.38289E-13 4.38289E-13 0.00000E+00 0.00000E+00 0.00000E+00
 -1      1060 4.38289E-13 4.38289E-13 4.38289E-13 0.00000E+00 0.00000E+00 0.00000E+00
 -1      1061 4.38289E-13 4.38289E-13 4.38289E-13 0.00000E+00 0.00000E+00 0.00000E+00
 -1      1062 4.38289E-13 4.38289E-13 4.38289E-13 0.00000E+00 0.00000E+00 0.00000E+00
 -1      1063 4.38289E-13 4.38289E-13 4.38289E-13 0.00000E+00 0.00000E+00 0.00000E+00
 -1      1064 4.38289E-13 4.38289E-13 4.38289E-13 0.00000E+00 0.00000E+00 0.00000E+00
 -1      1065 4.38289E-13 4.38289E-13 4.38289E-13 0.00000E+00 0.00000E+00 0.00000E+00
 -1      1066 4.38289E-13 4.38289E-13 4.38289E-13 0.00000E+00 0.00000E+00 0.00000E+00
 -1      1067 4.51570E-13 4.51570E-13 4.51570E-13 0.00000E+00 0.00000E+00 0.00000E+00
 -1      1068 4.60425E-13 4.60425E-13 4.60425E-13 0.00000E+00 0.00000E+00 0.00000E+00
 -1      1069 4.42716E-13 4.42716E-13 4.42716E-13 0.00000E+00 0.00000E+00 0.00000E+00
 -1      1070 4.38289E-13 4.38289E-13 4.38289E-13 0.00000E+00 0.00000E+00 0.00000E+00
 -1      1071 4.38289E-13 4.38289E-13 4.38289E-13 0.00000E+00 0.00000E+00 0.00000E+00
 -1      1072 4.38289E-13 4.38289E-13 4.38289E-13 0.00000E+00 0.00000E+00 0.00000E+00
 -1      1073 4.38289E-13 4.38289E-13 4.38289E-13 0.00000E+00 0.00000E+00 0.00000E+00
 -1      1074 4.38289E-13 4.38289E-13 4.38289E-13 0.00000E+00 0.00000E+00 0.00000E+00
 -1      1075 4.38289E-13 4.38289E-13 4.38289E-13 0.00000E+00 0.00000E+00 0.00000E+00
 -1      1076 4.38289E-13 4.38289E-13 4.38289E-13 0.00000E+00 0.00000E+00 0.00000E+00
 -1      1077 4.38289E-13 4.38289E-13 4.38289E-13 0.00000E+00 0.00000E+00 0.00000E+00
 -1      1078 4.38289E-13 4.38289E-13 4.38289E-13 0.00000E+00 0.00000E+00 0.00000E+00
 -1      1079 4.38289E-13 4.38289E-13 4.38289E-13 0.00000E+00 0.00000E+00 0.00000E+00
 -1      1080 4.64852E-13 4.64852E-13 4.64852E-13 0.00000E+00 0.00000E+00 0.00000E+00
 -1      1081 4.64852E-13 4.64852E-13 4.64852E-13 0.00000E+00 0.00000E+00 0.00000E+00
 -1      1082 4.64852E-13 4.64852E-13 4.64852E-13 0.00000E+00 0.00000E+00 0.00000E+00
 -1      1083 4.64852E-13 4.64852E-13 4.64852E-13 0.00000E+00 0.00000E+00 0.00000E+00
 -1      1084 4.64852E-13 4.64852E-13 4.64852E-13 0.00000E+00 0.00000E+00 0.00000E+00
 -1      1085 4.64852E-13 4.64852E-13 4.64852E-13 0.00000E+00 0.00000E+00 0.00000E+00
 -1      1086 4.64852E-13 4.64852E-13 4.64852E-13 0.00000E+00 0.00000E+00 0.00000E+00
 -1      1087 4.64852E-13 4.64852E-13 4.64852E-13 0.00000E+00 0.00000E+00 0.00000E+00
 -1      1088 4.64852E-13 4.64852E-13 4.64852E-13 0.00000E+00 0.00000E+00 0.00000E+00
 -1      1089 4.64852E-13 4.64852E-13 4.64852E-13 0.00000E+00 0.00000E+00 0.00000E+00
 -1      1090 4.64852E-13 4.64852E-13 4.64852E-13 0.00000E+00 0.00000E+00 0.00000E+00
 -1      1091 4.64852E-13 4.64852E-13 4.64852E-13 0.00000E+00 0.00000E+00 0.00000E+00
 -1      1092 4.64852E-13 4.64852E-13 4.64852E-13 0.00000E+00 0.00000E+00 0.00000E+00
 -1      1093 4.64852E-13 4.64852E-13 4.64852E-13 0.00000E+00 0.00000E+00 0.00000E+00
 -1      1094 4.64852E-13 4.64852E-13 4.64852E-13 0.00000E+00 0.00000E+00 0.00000E+00
 -1      1095 4.64852E-13 4.64852E-13 4.64852E-13 0.00000E+00 0.00000E+00 0.00000E+00
 -1      1096 4.64852E-13 4.64852E-13 4.64852E-13 0.00000E+00 0.00000E+00 0.00000E+00
 -1      1097 4.64852E-13 4.64852E-13 4.64852E-13 0.00000E+00 0.00000E+00 0.00000E+00
 -1      1098 4.64852E-13 4.64852E-13 4.64852E-13 0.00000E+00 0.00000E+00 0.00000E+00
 -1      1099 4.64852E-13 4.64852E-13 4.64852E-13 0.00000E+00 0.00000E+00 0.00000E+00
 -1      1100 4.64852E-13 4.64852E-13 4.64852E-13 0.00000E+00 0.00000E+00 0.00000E+00
 -1      1101 4.64852E-13 4.64852E-13 4.64852E-13 0.00000E+00 0.00000E+00 0.00000E+00
 -1      1102 4.64852E-13 4.64852E-13 4.64852E-13 0.00000E+00 0.00000E+00 0.00000E+00
 -1      1103 4.64852E-13 4.64852E-13 4.64852E-13 0.00000E+00 0.00000E+00 0.00000E+00
 -1      1104 4.64852E-13 4.64852E-13 4.64852E-13 0.00000E+00 0.00000E+00 0.00000E+00
 -1      1105 4.64852E-13 4.64852E-13 4.64852E-13 0.00000E+00 0.00000E+00 0.00000E+00
 -1      1106 4.64852E-13 4.64852E-13 4.64852E-13 0.00000E+00 0.00000E+00 0.00000E+00
 -1      1107 4.64852E-13 4.64852E-13 4.64852E-13 0.00000E+00 0.00000E+00 0.00000E+00
 -1      1108 4.64852E-13 4.64852E-13 4.64852E-13 0.00000E+00 0.00000E+00 0.00000E+00
 -1      1109 4.64852E-13 4.64852E-13 4.64852E-13 0.00000E+00 0.00000E+00 0.00000E+00
 -1      1110 4.64852E-13 4.64852E-13 4.64852E-13 0.00000E+00 0.00000E+00 0.00000E+00
 -1      1111 4.64852E-13 4.64852E-13 4.64852E-13 0.00000E+00 0.00000E+00 0.00000E+00
 -1      1112 4.64852E-13 4.64852E-13 4.64852E-13 0.00000E+00 0.00000E+00 0.00000E+00
 -1      1113 4.55997E-13 4.55997E-13 4.55997E-13 0.00000E+00 0.00000E+00 0.00000E+00
 -1      1114 4.55997E-13 4.55997E-13 4.55997E-13 0.00000E+00 0.00000E+00 0.00000E+00
 -1      1115 4.48250E-13 4.48250E-13 4.48250E-13 0.00000E+00 0.00000E+00 0.00000E+00
 -1      1116 4.51570E-13 4.51570E-13 4.51570E-13 0.00000E+00 0.00000E+00 0.00000E+00
 -1      1117 4.38289E-13 4.38289E-13 4.38289E-13 0.00000E+00 0.00000E+00 0.00000E+00
 -1      1118 4.47143E-13 4.47143E-13 4.47143E-13 0.00000E+00 0.00000E+00 0.00000E+00
 -1      1119 4.47143E-13 4.47143E-13 4.47143E-13 0.00000E+00 0.00000E+00 0.00000E+00
 -1      1120 4.51570E-13 4.51570E-13 4.51570E-13 0.00000E+00 0.00000E+00 0.00000E+00
 -1      1121 4.42716E-13 4.42716E-13 4.42716E-13 0.00000E+00 0.00000E+00 0.00000E+00
 -1      1122 4.38289E-13 4.38289E-13 4.38289E-13 0.00000E+00 0.00000E+00 0.00000E+00
 -1      1123 4.38289E-13 4.38289E-13 4.38289E-13 0.00000E+00 0.00000E+00 0.00000E+00
 -1      1124 4.38289E-13 4.38289E-13 4.38289E-13 0.00000E+00 0.00000E+00 0.00000E+00
 -1      1125 4.38289E-13 4.38289E-13 4.38289E-13 0.00000E+00 0.00000E+00 0.00000E+00
 -1      1126 4.38289E-13 4.38289E-13 4.38289E-13 0.00000E+00 0.00000E+00 0.00000E+00
 -1      1127 4.42716E-13 4.42716E-13 4.42716E-13 0.00000E+00 0.00000E+00 0.00000E+00
 -1      1128 4.41609E-13 4.41609E-13 4.41609E-13 0.00000E+00 0.00000E+00 0.00000E+00
 -1      1129 4.38289E-13 4.38289E-13 4.38289E-13 0.00000E+00 0.00000E+00 0.00000E+00
 -1      1130 4.38289E-13 4.38289E-13 4.38289E-13 0.00000E+00 0.00000E+00 0.00000E+00
 -1      1131 4.38289E-13 4.38289E-13 4.38289E-13 0.00000E+00 0.00000E+00 0.00000E+00
 -1      1132 4.38289E-13 4.38289E-13 4.38289E-13 0.00000E+00 0.00000E+00 0.00000E+00
 -1      1133 4.38289E-13 4.38289E-13 4.38289E-13 0.00000E+00 0.00000E+00 0.00000E+00
 -1      1134 4.38289E-13 4.38289E-13 4.38289E-13 0.00000E+00 0.00000E+00 0.00000E+00
 -1      1135 4.38289E-13 4.38289E-13 4.38289E-13 0.00000E+00 0.00000E+00 0.00000E+00
 -1      1136 4.47143E-13 4.47143E-13 4.47143E-13 0.00000E+00 0.00000E+00 0.00000E+00
 -1      1137 4.42716E-13 4.42716E-13 4.42716E-13 0.00000E+00 0.00000E+00 0.00000E+00
 -1      1138 4.38289E-13 4.38289E-13 4.38289E-13 0.00000E+00 0.00000E+00 0.00000E+00
 -1      1139 4.38289E-13 4.38289E-13 4.38289E-13 0.00000E+00 0.00000E+00 0.00000E+00
 -1      1140 4.38289E-13 4.38289E-13 4.38289E-13 0.00000E+00 0.00000E+00 0.00000E+00
 -1      1141 4.38289E-13 4.38289E-13 4.38289E-13 0.00000E+00 0.00000E+00 0.00000E+00
 -1      1142 4.38289E-13 4.38289E-13 4.38289E-13 0.00000E+00 0.00000E+00 0.00000E+00
 -1      1143 4.38289E-13 4.38289E-13 4.38289E-13 0.00000E+00 0.00000E+00 0.00000E+00
 -1      1144 4.38289E-13 4.38289E-13 4.38289E-13 0.00000E+00 0.00000E+00 0.00000E+00
 -1      1145 4.38289E-13 4.38289E-13 4.38289E-13 0.00000E+00 0.00000E+00 0.00000E+00
 -1      1146 4.38289E-13 4.38289E-13 4.38289E-13 0.00000E+00 0.00000E+00 0.00000E+00
 -1      1147 4.38289E-13 4.38289E-13 4.38289E-13 0.00000E+00 0.00000E+00 0.00000E+00
 -1      1148 4.38289E-13 4.38289E-13 4.38289E-13 0.00000E+00 0.00000E+00 0.00000E+00
 -1      1149 4.51570E-13 4.51570E-13 4.51570E-13 0.00000E+00 0.00000E+00 0.00000E+00
 -1      1150 4.55997E-13 4.55997E-13 4.55997E-13 0.00000E+00 0.00000E+00 0.00000E+00
 -1      1151 4.42716E-13 4.42716E-13 4.42716E-13 0.00000E+00 0.00000E+00 0.00000E+00
 -1      1152 4.55997E-13 4.55997E-13 4.55997E-13 0.00000E+00 0.00000E+00 0.00000E+00
 -1      1153 4.51570E-13 4.51570E-13 4.51570E-13 0.00000E+00 0.00000E+00 0.00000E+00
 -1      1154 4.51570E-13 4.51570E-13 4.51570E-13 0.00000E+00 0.00000E+00 0.00000E+00
 -1      1155 4.38289E-13 4.38289E-13 4.38289E-13 0.00000E+00 0.00000E+00 0.00000E+00
 -1      1156 4.47143E-13 4.47143E-13 4.47143E-13 0.00000E+00 0.00000E+00 0.00000E+00
 -1      1157 4.47143E-13 4.47143E-13 4.47143E-13 0.00000E+00 0.00000E+00 0.00000E+00
 -1      1158 4.42716E-13 4.42716E-13 4.42716E-13 0.00000E+00 0.00000E+00 0.00000E+00
 -1      1159 4.38289E-13 4.38289E-13 4.38289E-13 0.00000E+00 0.00000E+00 0.00000E+00
 -1      1160 4.38289E-13 4.38289E-13 4.38289E-13 0.00000E+00 0.00000E+00 0.00000E+00
 -1      1161 4.38289E-13 4.38289E-13 4.38289E-13 0.00000E+00 0.00000E+00 0.00000E+00
 -1      1162 4.38289E-13 4.38289E-13 4.38289E-13 0.00000E+00 0.00000E+00 0.00000E+00
 -1      1163 4.38289E-13 4.38289E-13 4.38289E-13 0.00000E+00 0.00000E+00 0.00000E+00
 -1      1164 4.47143E-13 4.47143E-13 4.47143E-13 0.00000E+00 0.00000E+00 0.00000E+00
 -1      1165 4.42716E-13 4.42716E-13 4.42716E-13 0.00000E+00 0.00000E+00 0.00000E+00
 -1      1166 4.47143E-13 4.47143E-13 4.47143E-13 0.00000E+00 0.00000E+00 0.00000E+00
 -1      1167 4.64852E-13 4.64852E-13 4.64852E-13 0.00000E+00 0.00000E+00 0.00000E+00
 -1      1168 4.64852E-13 4.64852E-13 4.64852E-13 0.00000E+00 0.00000E+00 0.00000E+00
 -1      1169 4.64852E-13 4.64852E-13 4.64852E-13 0.00000E+00 0.00000E+00 0.00000E+00
 -1      1170 4.64852E-13 4.64852E-13 4.64852E-13 0.00000E+00 0.00000E+00 0.00000E+00
 -1      1171 4.64852E-13 4.64852E-13 4.64852E-13 0.00000E+00 0.00000E+00 0.00000E+00
 -1      1172 4.64852E-13 4.64852E-13 4.64852E-13 0.00000E+00 0.00000E+00 0.00000E+00
 -1      1173 4.64852E-13 4.64852E-13 4.64852E-13 0.00000E+00 0.00000E+00 0.00000E+00
 -1      1174 4.64852E-13 4.64852E-13 4.64852E-13 0.00000E+00 0.00000E+00 0.00000E+00
 -1      1175 4.64852E-13 4.64852E-13 4.64852E-13 0.00000E+00 0.00000E+00 0.00000E+00
 -1      1176 4.64852E-13 4.64852E-13 4.64852E-13 0.00000E+00 0.00000E+00 0.00000E+00
 -1      1177 4.64852E-13 4.64852E-13 4.64852E-13 0.00000E+00 0.00000E+00 0.00000E+00
 -1      1178 4.64852E-13 4.64852E-13 4.64852E-13 0.00000E+00 0.00000E+00 0.00000E+00
 -1      1179 4.64852E-13 4.64852E-13 4.64852E-13 0.00000E+00 0.00000E+00 0.00000E+00
 -1      1180 4.64852E-13 4.64852E-13 4.64852E-13 0.00000E+00 0.00000E+00 0.00000E+00
 -1      1181 4.64852E-13 4.64852E-13 4.64852E-13 0.00000E+00 0.00000E+00 0.00000E+00
 -1      1182 4.64852E-13 4.64852E-13 4.64852E-13 0.00000E+00 0.00000E+00 0.00000E+00
 -1      1183 4.64852E-13 4.64852E-13 4.64852E-13 0.00000E+00 0.00000E+00 0.00000E+00
 -1      1184 4.64852E-13 4.64852E-13 4.64852E-13 0.00000E+00 0.00000E+00 0.00000E+00
 -1      1185 4.64852E-13 4.64852E-13 4.64852E-13 0.00000E+00 0.00000E+00 0.00000E+00
 -1      1186 4.64852E-13 4.64852E-13 4.64852E-13 0.00000E+00 0.00000E+00 0.00000E+00
 -1      1187 4.64852E-13 4.64852E-13 4.64852E-13 0.00000E+00 0.00000E+00 0.00000E+00
 -1      1188 4.64852E-13 4.64852E-13 4.64852E-13 0.00000E+00 0.00000E+00 0.00000E+00
 -1      1189 4.64852E-13 4.64852E-13 4.64852E-13 0.00000E+00 0.00000E+00 0.00000E+00
 -1      1190 4.64852E-13 4.64852E-13 4.64852E-13 0.00000E+00 0.00000E+00 0.00000E+00
 -1      1191 4.48250E-13 4.48250E-13 4.48250E-13 0.00000E+00 0.00000E+00 0.00000E+00
 -1      1192 4.47143E-13 4.47143E-13 4.47143E-13 0.00000E+00 0.00000E+00 0.00000E+00
 -1      1193 4.60425E-13 4.60425E-13 4.60425E-13 0.00000E+00 0.00000E+00 0.00000E+00
 -1      1194 4.61531E-13 4.61531E-13 4.61531E-13 0.00000E+00 0.00000E+00 0.00000E+00
 -1      1195 4.47143E-13 4.47143E-13 4.47143E-13 0.00000E+00 0.00000E+00 0.00000E+00
 -1      1196 4.51570E-13 4.51570E-13 4.51570E-13 0.00000E+00 0.00000E+00 0.00000E+00
 -1      1197 4.54891E-13 4.54891E-13 4.54891E-13 0.00000E+00 0.00000E+00 0.00000E+00
 -1      1198 4.51570E-13 4.51570E-13 4.51570E-13 0.00000E+00 0.00000E+00 0.00000E+00
 -1      1199 4.51570E-13 4.51570E-13 4.51570E-13 0.00000E+00 0.00000E+00 0.00000E+00
 -1      1200 4.55997E-13 4.55997E-13 4.55997E-13 0.00000E+00 0.00000E+00 0.00000E+00
 -1      1201 4.42716E-13 4.42716E-13 4.42716E-13 0.00000E+00 0.00000E+00 0.00000E+00
 -1      1202 4.38289E-13 4.38289E-13 4.38289E-13 0.00000E+00 0.00000E+00 0.00000E+00
 -1      1203 4.38289E-13 4.38289E-13 4.38289E-13 0.00000E+00 0.00000E+00 0.00000E+00
 -1      1204 4.38289E-13 4.38289E-13 4.38289E-13 0.00000E+00 0.00000E+00 0.00000E+00
 -1      1205 4.38289E-13 4.38289E-13 4.38289E-13 0.00000E+00 0.00000E+00 0.00000E+00
 -1      1206 4.38289E-13 4.38289E-13 4.38289E-13 0.00000E+00 0.00000E+00 0.00000E+00
 -1      1207 4.38289E-13 4.38289E-13 4.38289E-13 0.00000E+00 0.00000E+00 0.00000E+00
 -1      1208 4.38289E-13 4.38289E-13 4.38289E-13 0.00000E+00 0.00000E+00 0.00000E+00
 -1      1209 4.38289E-13 4.38289E-13 4.38289E-13 0.00000E+00 0.00000E+00 0.00000E+00
 -1      1210 4.38289E-13 4.38289E-13 4.38289E-13 0.00000E+00 0.00000E+00 0.00000E+00
 -1      1211 4.38289E-13 4.38289E-13 4.38289E-13 0.00000E+00 0.00000E+00 0.00000E+00
 -1      1212 4.38289E-13 4.38289E-13 4.38289E-13 0.00000E+00 0.00000E+00 0.00000E+00
 -1      1213 4.38289E-13 4.38289E-13 4.38289E-13 0.00000E+00 0.00000E+00 0.00000E+00
 -1      1214 4.38289E-13 4.38289E-13 4.38289E-13 0.00000E+00 0.00000E+00 0.00000E+00
 -1      1215 4.38289E-13 4.38289E-13 4.38289E-13 0.00000E+00 0.00000E+00 0.00000E+00
 -1      1216 4.38289E-13 4.38289E-13 4.38289E-13 0.00000E+00 0.00000E+00 0.00000E+00
 -1      1217 4.38289E-13 4.38289E-13 4.38289E-13 0.00000E+00 0.00000E+00 0.00000E+00
 -1      1218 4.47143E-13 4.47143E-13 4.47143E-13 0.00000E+00 0.00000E+00 0.00000E+00
 -1      1219 4.47143E-13 4.47143E-13 4.47143E-13 0.00000E+00 0.00000E+00 0.00000E+00
 -1      1220 4.42716E-13 4.42716E-13 4.42716E-13 0.00000E+00 0.00000E+00 0.00000E+00
 -1      1221 4.38289E-13 4.38289E-13 4.38289E-13 0.00000E+00 0.00000E+00 0.00000E+00
 -1      1222 4.38289E-13 4.38289E-13 4.38289E-13 0.00000E+00 0.00000E+00 0.00000E+00
 -1      1223 4.38289E-13 4.38289E-13 4.38289E-13 0.00000E+00 0.00000E+00 0.00000E+00
 -1      1224 4.38289E-13 4.38289E-13 4.38289E-13 0.00000E+00 0.00000E+00 0.00000E+00
 -1      1225 4.38289E-13 4.38289E-13 4.38289E-13 0.00000E+00 0.00000E+00 0.00000E+00
 -1      1226 4.38289E-13 4.38289E-13 4.38289E-13 0.00000E+00 0.00000E+00 0.00000E+00
 -1      1227 4.38289E-13 4.38289E-13 4.38289E-13 0.00000E+00 0.00000E+00 0.00000E+00
 -1      1228 4.38289E-13 4.38289E-13 4.38289E-13 0.00000E+00 0.00000E+00 0.00000E+00
 -1      1229 4.38289E-13 4.38289E-13 4.38289E-13 0.00000E+00 0.00000E+00 0.00000E+00
 -1      1230 4.47143E-13 4.47143E-13 4.47143E-13 0.00000E+00 0.00000E+00 0.00000E+00
 -1      1231 4.47143E-13 4.47143E-13 4.47143E-13 0.00000E+00 0.00000E+00 0.00000E+00
 -1      1232 4.51570E-13 4.51570E-13 4.51570E-13 0.00000E+00 0.00000E+00 0.00000E+00
 -1      1233 4.55997E-13 4.55997E-13 4.55997E-13 0.00000E+00 0.00000E+00 0.00000E+00
 -1      1234 4.51570E-13 4.51570E-13 4.51570E-13 0.00000E+00 0.00000E+00 0.00000E+00
 -1      1235 4.42716E-13 4.42716E-13 4.42716E-13 0.00000E+00 0.00000E+00 0.00000E+00
 -1      1236 4.47143E-13 4.47143E-13 4.47143E-13 0.00000E+00 0.00000E+00 0.00000E+00
 -1      1237 4.38289E-13 4.38289E-13 4.38289E-13 0.00000E+00 0.00000E+00 0.00000E+00
 -1      1238 4.51570E-13 4.51570E-13 4.51570E-13 0.00000E+00 0.00000E+00 0.00000E+00
 -1      1239 4.64852E-13 4.64852E-13 4.64852E-13 0.00000E+00 0.00000E+00 0.00000E+00
 -1      1240 4.64852E-13 4.64852E-13 4.64852E-13 0.00000E+00 0.00000E+00 0.00000E+00
 -1      1241 4.54891E-13 4.54891E-13 4.54891E-13 0.00000E+00 0.00000E+00 0.00000E+00
 -1      1242 4.47143E-13 4.47143E-13 4.47143E-13 0.00000E+00 0.00000E+00 0.00000E+00
 -1      1243 4.64852E-13 4.64852E-13 4.64852E-13 0.00000E+00 0.00000E+00 0.00000E+00
 -1      1244 4.64852E-13 4.64852E-13 4.64852E-13 0.00000E+00 0.00000E+00 0.00000E+00
 -1      1245 4.64852E-13 4.64852E-13 4.64852E-13 0.00000E+00 0.00000E+00 0.00000E+00
 -1      1246 4.64852E-13 4.64852E-13 4.64852E-13 0.00000E+00 0.00000E+00 0.00000E+00
 -1      1247 4.64852E-13 4.64852E-13 4.64852E-13 0.00000E+00 0.00000E+00 0.00000E+00
 -1      1248 4.64852E-13 4.64852E-13 4.64852E-13 0.00000E+00 0.00000E+00 0.00000E+00
 -1      1249 4.64852E-13 4.64852E-13 4.64852E-13 0.00000E+00 0.00000E+00 0.00000E+00
 -1      1250 4.64852E-13 4.64852E-13 4.64852E-13 0.00000E+00 0.00000E+00 0.00000E+00
 -1      1251 4.64852E-13 4.64852E-13 4.64852E-13 0.00000E+00 0.00000E+00 0.00000E+00
 -1      1252 4.64852E-13 4.64852E-13 4.64852E-13 0.00000E+00 0.00000E+00 0.00000E+00
 -1      1253 4.64852E-13 4.64852E-13 4.64852E-13 0.00000E+00 0.00000E+00 0.00000E+00
 -1      1254 4.64852E-13 4.64852E-13 4.64852E-13 0.00000E+00 0.00000E+00 0.00000E+00
 -1      1255 4.64852E-13 4.64852E-13 4.64852E-13 0.00000E+00 0.00000E+00 0.00000E+00
 -1      1256 4.58211E-13 4.58211E-13 4.58211E-13 0.00000E+00 0.00000E+00 0.00000E+00
 -1      1257 4.55997E-13 4.55997E-13 4.55997E-13 0.00000E+00 0.00000E+00 0.00000E+00
 -1      1258 4.54891E-13 4.54891E-13 4.54891E-13 0.00000E+00 0.00000E+00 0.00000E+00
 -1      1259 4.42716E-13 4.42716E-13 4.42716E-13 0.00000E+00 0.00000E+00 0.00000E+00
 -1      1260 4.38289E-13 4.38289E-13 4.38289E-13 0.00000E+00 0.00000E+00 0.00000E+00
 -1      1261 4.42716E-13 4.42716E-13 4.42716E-13 0.00000E+00 0.00000E+00 0.00000E+00
 -1      1262 4.44929E-13 4.44929E-13 4.44929E-13 0.00000E+00 0.00000E+00 0.00000E+00
 -1      1263 4.38289E-13 4.38289E-13 4.38289E-13 0.00000E+00 0.00000E+00 0.00000E+00
 -1      1264 4.38289E-13 4.38289E-13 4.38289E-13 0.00000E+00 0.00000E+00 0.00000E+00
 -1      1265 4.38289E-13 4.38289E-13 4.38289E-13 0.00000E+00 0.00000E+00 0.00000E+00
 -1      1266 4.38289E-13 4.38289E-13 4.38289E-13 0.00000E+00 0.00000E+00 0.00000E+00
 -1      1267 4.38289E-13 4.38289E-13 4.38289E-13 0.00000E+00 0.00000E+00 0.00000E+00
 -1      1268 4.38289E-13 4.38289E-13 4.38289E-13 0.00000E+00 0.00000E+00 0.00000E+00
 -1      1269 4.47143E-13 4.47143E-13 4.47143E-13 0.00000E+00 0.00000E+00 0.00000E+00
 -1      1270 4.42716E-13 4.42716E-13 4.42716E-13 0.00000E+00 0.00000E+00 0.00000E+00
 -1      1271 4.51570E-13 4.51570E-13 4.51570E-13 0.00000E+00 0.00000E+00 0.00000E+00
 -1      1272 4.47143E-13 4.47143E-13 4.47143E-13 0.00000E+00 0.00000E+00 0.00000E+00
 -1      1273 4.38289E-13 4.38289E-13 4.38289E-13 0.00000E+00 0.00000E+00 0.00000E+00
 -1      1274 4.38289E-13 4.38289E-13 4.38289E-13 0.00000E+00 0.00000E+00 0.00000E+00
 -1      1275 4.38289E-13 4.38289E-13 4.38289E-13 0.00000E+00 0.00000E+00 0.00000E+00
 -1      1276 4.38289E-13 4.38289E-13 4.38289E-13 0.00000E+00 0.00000E+00 0.00000E+00
 -1      1277 4.47143E-13 4.47143E-13 4.47143E-13 0.00000E+00 0.00000E+00 0.00000E+00
 -1      1278 4.42716E-13 4.42716E-13 4.42716E-13 0.00000E+00 0.00000E+00 0.00000E+00
 -1      1279 4.38289E-13 4.38289E-13 4.38289E-13 0.00000E+00 0.00000E+00 0.00000E+00
 -1      1280 4.38289E-13 4.38289E-13 4.38289E-13 0.00000E+00 0.00000E+00 0.00000E+00
 -1      1281 4.38289E-13 4.38289E-13 4.38289E-13 0.00000E+00 0.00000E+00 0.00000E+00
 -1      1282 4.38289E-13 4.38289E-13 4.38289E-13 0.00000E+00 0.00000E+00 0.00000E+00
 -1      1283 4.47143E-13 4.47143E-13 4.47143E-13 0.00000E+00 0.00000E+00 0.00000E+00
 -1      1284 4.55997E-13 4.55997E-13 4.55997E-13 0.00000E+00 0.00000E+00 0.00000E+00
 -1      1285 4.60425E-13 4.60425E-13 4.60425E-13 0.00000E+00 0.00000E+00 0.00000E+00
 -1      1286 4.55997E-13 4.55997E-13 4.55997E-13 0.00000E+00 0.00000E+00 0.00000E+00
 -1      1287 4.64852E-13 4.64852E-13 4.64852E-13 0.00000E+00 0.00000E+00 0.00000E+00
 -1      1288 4.58211E-13 4.58211E-13 4.58211E-13 0.00000E+00 0.00000E+00 0.00000E+00
 -1      1289 4.64852E-13 4.64852E-13 4.64852E-13 0.00000E+00 0.00000E+00 0.00000E+00
 -1      1290 4.64852E-13 4.64852E-13 4.64852E-13 0.00000E+00 0.00000E+00 0.00000E+00
 -1      1291 4.51570E-13 4.51570E-13 4.51570E-13 0.00000E+00 0.00000E+00 0.00000E+00
 -1      1292 4.38289E-13 4.38289E-13 4.38289E-13 0.00000E+00 0.00000E+00 0.00000E+00
 -1      1293 4.38289E-13 4.38289E-13 4.38289E-13 0.00000E+00 0.00000E+00 0.00000E+00
 -1      1294 4.38289E-13 4.38289E-13 4.38289E-13 0.00000E+00 0.00000E+00 0.00000E+00
 -1      1295 4.42716E-13 4.42716E-13 4.42716E-13 0.00000E+00 0.00000E+00 0.00000E+00
 -1      1296 4.55997E-13 4.55997E-13 4.55997E-13 0.00000E+00 0.00000E+00 0.00000E+00
 -1      1297 4.60425E-13 4.60425E-13 4.60425E-13 0.00000E+00 0.00000E+00 0.00000E+00
 -1      1298 4.61531E-13 4.61531E-13 4.61531E-13 0.00000E+00 0.00000E+00 0.00000E+00
 -1      1299 4.60425E-13 4.60425E-13 4.60425E-13 0.00000E+00 0.00000E+00 0.00000E+00
 -1      1300 4.51570E-13 4.51570E-13 4.51570E-13 0.00000E+00 0.00000E+00 0.00000E+00
 -1      1301 4.38289E-13 4.38289E-13 4.38289E-13 0.00000E+00 0.00000E+00 0.00000E+00
 -1      1302 4.64852E-13 4.64852E-13 4.64852E-13 0.00000E+00 0.00000E+00 0.00000E+00
 -1      1303 4.53784E-13 4.53784E-13 4.53784E-13 0.00000E+00 0.00000E+00 0.00000E+00
 -1      1304 4.62638E-13 4.62638E-13 4.62638E-13 0.00000E+00 0.00000E+00 0.00000E+00
 -1      1305 4.64852E-13 4.64852E-13 4.64852E-13 0.00000E+00 0.00000E+00 0.00000E+00
 -1      1306 4.51570E-13 4.51570E-13 4.51570E-13 0.00000E+00 0.00000E+00 0.00000E+00
 -1      1307 4.64852E-13 4.64852E-13 4.64852E-13 0.00000E+00 0.00000E+00 0.00000E+00
 -1      1308 4.53468E-13 4.53468E-13 4.53468E-13 0.00000E+00 0.00000E+00 0.00000E+00
 -1      1309 4.62638E-13 4.62638E-13 4.62638E-13 0.00000E+00 0.00000E+00 0.00000E+00
 -1      1310 4.47143E-13 4.47143E-13 4.47143E-13 0.00000E+00 0.00000E+00 0.00000E+00
 -1      1311 4.38289E-13 4.38289E-13 4.38289E-13 0.00000E+00 0.00000E+00 0.00000E+00
 -1      1312 4.42716E-13 4.42716E-13 4.42716E-13 0.00000E+00 0.00000E+00 0.00000E+00
 -1      1313 4.38289E-13 4.38289E-13 4.38289E-13 0.00000E+00 0.00000E+00 0.00000E+00
 -1      1314 4.45878E-13 4.45878E-13 4.45878E-13 0.00000E+00 0.00000E+00 0.00000E+00
 -1      1315 4.64852E-13 4.64852E-13 4.64852E-13 0.00000E+00 0.00000E+00 0.00000E+00
 -1      1316 4.62638E-13 4.62638E-13 4.62638E-13 0.00000E+00 0.00000E+00 0.00000E+00
 -1      1317 4.38289E-13 4.38289E-13 4.38289E-13 0.00000E+00 0.00000E+00 0.00000E+00
 -1      1318 4.64852E-13 4.64852E-13 4.64852E-13 0.00000E+00 0.00000E+00 0.00000E+00
 -1      1319 4.60425E-13 4.60425E-13 4.60425E-13 0.00000E+00 0.00000E+00 0.00000E+00
 -1      1320 4.51570E-13 4.51570E-13 4.51570E-13 0.00000E+00 0.00000E+00 0.00000E+00
 -1      1321 4.64852E-13 4.64852E-13 4.64852E-13 0.00000E+00 0.00000E+00 0.00000E+00
 -1      1322 4.64852E-13 4.64852E-13 4.64852E-13 0.00000E+00 0.00000E+00 0.00000E+00
 -1      1323 4.42083E-13 4.42083E-13 4.42083E-13 0.00000E+00 0.00000E+00 0.00000E+00
 -1      1324 4.38289E-13 4.38289E-13 4.38289E-13 0.00000E+00 0.00000E+00 0.00000E+00
 -1      1325 4.45878E-13 4.45878E-13 4.45878E-13 0.00000E+00 0.00000E+00 0.00000E+00
 -1      1326 4.64852E-13 4.64852E-13 4.64852E-13 0.00000E+00 0.00000E+00 0.00000E+00
 -1      1327 4.40502E-13 4.40502E-13 4.40502E-13 0.00000E+00 0.00000E+00 0.00000E+00
 -1      1328 4.64852E-13 4.64852E-13 4.64852E-13 0.00000E+00 0.00000E+00 0.00000E+00
 -1      1329 4.62638E-13 4.62638E-13 4.62638E-13 0.00000E+00 0.00000E+00 0.00000E+00
 -1      1330 4.55997E-13 4.55997E-13 4.55997E-13 0.00000E+00 0.00000E+00 0.00000E+00
 -1      1331 4.64852E-13 4.64852E-13 4.64852E-13 0.00000E+00 0.00000E+00 0.00000E+00
 -1      1332 4.38289E-13 4.38289E-13 4.38289E-13 0.00000E+00 0.00000E+00 0.00000E+00
 -1      1333 4.51570E-13 4.51570E-13 4.51570E-13 0.00000E+00 0.00000E+00 0.00000E+00
 -1      1334 4.62638E-13 4.62638E-13 4.62638E-13 0.00000E+00 0.00000E+00 0.00000E+00
 -1      1335 4.62638E-13 4.62638E-13 4.62638E-13 0.00000E+00 0.00000E+00 0.00000E+00
 -1      1336 4.62638E-13 4.62638E-13 4.62638E-13 0.00000E+00 0.00000E+00 0.00000E+00
 -1      1337 4.64852E-13 4.64852E-13 4.64852E-13 0.00000E+00 0.00000E+00 0.00000E+00
 -1      1338 4.64852E-13 4.64852E-13 4.64852E-13 0.00000E+00 0.00000E+00 0.00000E+00
 -1      1339 4.64852E-13 4.64852E-13 4.64852E-13 0.00000E+00 0.00000E+00 0.00000E+00
 -1      1340 4.64852E-13 4.64852E-13 4.64852E-13 0.00000E+00 0.00000E+00 0.00000E+00
 -1      1341 4.64852E-13 4.64852E-13 4.64852E-13 0.00000E+00 0.00000E+00 0.00000E+00
 -1      1342 4.62638E-13 4.62638E-13 4.62638E-13 0.00000E+00 0.00000E+00 0.00000E+00
 -1      1343 4.61057E-13 4.61057E-13 4.61057E-13 0.00000E+00 0.00000E+00 0.00000E+00
 -1      1344 4.45878E-13 4.45878E-13 4.45878E-13 0.00000E+00 0.00000E+00 0.00000E+00
 -1      1345 4.62638E-13 4.62638E-13 4.62638E-13 0.00000E+00 0.00000E+00 0.00000E+00
 -1      1346 4.49357E-13 4.49357E-13 4.49357E-13 0.00000E+00 0.00000E+00 0.00000E+00
 -1      1347 4.58211E-13 4.58211E-13 4.58211E-13 0.00000E+00 0.00000E+00 0.00000E+00
 -1      1348 4.64852E-13 4.64852E-13 4.64852E-13 0.00000E+00 0.00000E+00 0.00000E+00
 -1      1349 4.64852E-13 4.64852E-13 4.64852E-13 0.00000E+00 0.00000E+00 0.00000E+00
 -1      1350 4.38289E-13 4.38289E-13 4.38289E-13 0.00000E+00 0.00000E+00 0.00000E+00
 -1      1351 4.40502E-13 4.40502E-13 4.40502E-13 0.00000E+00 0.00000E+00 0.00000E+00
 -1      1352 4.47143E-13 4.47143E-13 4.47143E-13 0.00000E+00 0.00000E+00 0.00000E+00
 -1      1353 4.55997E-13 4.55997E-13 4.55997E-13 0.00000E+00 0.00000E+00 0.00000E+00
 -1      1354 4.47143E-13 4.47143E-13 4.47143E-13 0.00000E+00 0.00000E+00 0.00000E+00
 -1      1355 4.49357E-13 4.49357E-13 4.49357E-13 0.00000E+00 0.00000E+00 0.00000E+00
 -1      1356 4.38289E-13 4.38289E-13 4.38289E-13 0.00000E+00 0.00000E+00 0.00000E+00
 -1      1357 4.58211E-13 4.58211E-13 4.58211E-13 0.00000E+00 0.00000E+00 0.00000E+00
 -1      1358 4.38289E-13 4.38289E-13 4.38289E-13 0.00000E+00 0.00000E+00 0.00000E+00
 -1      1359 4.60425E-13 4.60425E-13 4.60425E-13 0.00000E+00 0.00000E+00 0.00000E+00
 -1      1360 4.64852E-13 4.64852E-13 4.64852E-13 0.00000E+00 0.00000E+00 0.00000E+00
 -1      1361 4.62638E-13 4.62638E-13 4.62638E-13 0.00000E+00 0.00000E+00 0.00000E+00
 -1      1362 4.64852E-13 4.64852E-13 4.64852E-13 0.00000E+00 0.00000E+00 0.00000E+00
 -1      1363 4.51570E-13 4.51570E-13 4.51570E-13 0.00000E+00 0.00000E+00 0.00000E+00
 -1      1364 4.47143E-13 4.47143E-13 4.47143E-13 0.00000E+00 0.00000E+00 0.00000E+00
 -1      1365 4.58211E-13 4.58211E-13 4.58211E-13 0.00000E+00 0.00000E+00 0.00000E+00
 -1      1366 4.60425E-13 4.60425E-13 4.60425E-13 0.00000E+00 0.00000E+00 0.00000E+00
 -1      1367 4.51570E-13 4.51570E-13 4.51570E-13 0.00000E+00 0.00000E+00 0.00000E+00
 -1      1368 4.58211E-13 4.58211E-13 4.58211E-13 0.00000E+00 0.00000E+00 0.00000E+00
 -1      1369 4.60425E-13 4.60425E-13 4.60425E-13 0.00000E+00 0.00000E+00 0.00000E+00
 -1      1370 4.42716E-13 4.42716E-13 4.42716E-13 0.00000E+00 0.00000E+00 0.00000E+00
 -1      1371 4.47143E-13 4.47143E-13 4.47143E-13 0.00000E+00 0.00000E+00 0.00000E+00
 -1      1372 4.38289E-13 4.38289E-13 4.38289E-13 0.00000E+00 0.00000E+00 0.00000E+00
 -1      1373 4.38289E-13 4.38289E-13 4.38289E-13 0.00000E+00 0.00000E+00 0.00000E+00
 -1      1374 4.38289E-13 4.38289E-13 4.38289E-13 0.00000E+00 0.00000E+00 0.00000E+00
 -1      1375 4.38289E-13 4.38289E-13 4.38289E-13 0.00000E+00 0.00000E+00 0.00000E+00
 -1      1376 4.64852E-13 4.64852E-13 4.64852E-13 0.00000E+00 0.00000E+00 0.00000E+00
 -1      1377 4.38289E-13 4.38289E-13 4.38289E-13 0.00000E+00 0.00000E+00 0.00000E+00
 -1      1378 4.38289E-13 4.38289E-13 4.38289E-13 0.00000E+00 0.00000E+00 0.00000E+00
 -1      1379 4.64852E-13 4.64852E-13 4.64852E-13 0.00000E+00 0.00000E+00 0.00000E+00
 -1      1380 4.64852E-13 4.64852E-13 4.64852E-13 0.00000E+00 0.00000E+00 0.00000E+00
 -1      1381 4.57262E-13 4.57262E-13 4.57262E-13 0.00000E+00 0.00000E+00 0.00000E+00
 -1      1382 4.58211E-13 4.58211E-13 4.58211E-13 0.00000E+00 0.00000E+00 0.00000E+00
 -1      1383 4.62638E-13 4.62638E-13 4.62638E-13 0.00000E+00 0.00000E+00 0.00000E+00
 -1      1384 4.64852E-13 4.64852E-13 4.64852E-13 0.00000E+00 0.00000E+00 0.00000E+00
 -1      1385 4.64852E-13 4.64852E-13 4.64852E-13 0.00000E+00 0.00000E+00 0.00000E+00
 -1      1386 4.55997E-13 4.55997E-13 4.55997E-13 0.00000E+00 0.00000E+00 0.00000E+00
 -1      1387 4.64852E-13 4.64852E-13 4.64852E-13 0.00000E+00 0.00000E+00 0.00000E+00
 -1      1388 4.51570E-13 4.51570E-13 4.51570E-13 0.00000E+00 0.00000E+00 0.00000E+00
 -1      1389 4.38289E-13 4.38289E-13 4.38289E-13 0.00000E+00 0.00000E+00 0.00000E+00
 -1      1390 4.38289E-13 4.38289E-13 4.38289E-13 0.00000E+00 0.00000E+00 0.00000E+00
 -1      1391 4.38289E-13 4.38289E-13 4.38289E-13 0.00000E+00 0.00000E+00 0.00000E+00
 -1      1392 4.55997E-13 4.55997E-13 4.55997E-13 0.00000E+00 0.00000E+00 0.00000E+00
 -1      1393 4.62954E-13 4.62954E-13 4.62954E-13 0.00000E+00 0.00000E+00 0.00000E+00
 -1      1394 4.38289E-13 4.38289E-13 4.38289E-13 0.00000E+00 0.00000E+00 0.00000E+00
 -1      1395 4.44929E-13 4.44929E-13 4.44929E-13 0.00000E+00 0.00000E+00 0.00000E+00
 -1      1396 4.40502E-13 4.40502E-13 4.40502E-13 0.00000E+00 0.00000E+00 0.00000E+00
 -1      1397 4.38289E-13 4.38289E-13 4.38289E-13 0.00000E+00 0.00000E+00 0.00000E+00
 -1      1398 4.64852E-13 4.64852E-13 4.64852E-13 0.00000E+00 0.00000E+00 0.00000E+00
 -1      1399 4.64852E-13 4.64852E-13 4.64852E-13 0.00000E+00 0.00000E+00 0.00000E+00
 -1      1400 4.64852E-13 4.64852E-13 4.64852E-13 0.00000E+00 0.00000E+00 0.00000E+00
 -1      1401 4.38289E-13 4.38289E-13 4.38289E-13 0.00000E+00 0.00000E+00 0.00000E+00
 -1      1402 4.38289E-13 4.38289E-13 4.38289E-13 0.00000E+00 0.00000E+00 0.00000E+00
 -1      1403 4.64852E-13 4.64852E-13 4.64852E-13 0.00000E+00 0.00000E+00 0.00000E+00
 -1      1404 4.64852E-13 4.64852E-13 4.64852E-13 0.00000E+00 0.00000E+00 0.00000E+00
 -1      1405 4.64852E-13 4.64852E-13 4.64852E-13 0.00000E+00 0.00000E+00 0.00000E+00
 -1      1406 4.64852E-13 4.64852E-13 4.64852E-13 0.00000E+00 0.00000E+00 0.00000E+00
 -1      1407 4.42716E-13 4.42716E-13 4.42716E-13 0.00000E+00 0.00000E+00 0.00000E+00
 -1      1408 4.44929E-13 4.44929E-13 4.44929E-13 0.00000E+00 0.00000E+00 0.00000E+00
 -1      1409 4.38289E-13 4.38289E-13 4.38289E-13 0.00000E+00 0.00000E+00 0.00000E+00
 -1      1410 4.64852E-13 4.64852E-13 4.64852E-13 0.00000E+00 0.00000E+00 0.00000E+00
 -1      1411 4.64852E-13 4.64852E-13 4.64852E-13 0.00000E+00 0.00000E+00 0.00000E+00
 -1      1412 4.47143E-13 4.47143E-13 4.47143E-13 0.00000E+00 0.00000E+00 0.00000E+00
 -1      1413 4.62638E-13 4.62638E-13 4.62638E-13 0.00000E+00 0.00000E+00 0.00000E+00
 -1      1414 4.62638E-13 4.62638E-13 4.62638E-13 0.00000E+00 0.00000E+00 0.00000E+00
 -1      1415 4.62954E-13 4.62954E-13 4.62954E-13 0.00000E+00 0.00000E+00 0.00000E+00
 -1      1416 4.64852E-13 4.64852E-13 4.64852E-13 0.00000E+00 0.00000E+00 0.00000E+00
 -1      1417 4.58211E-13 4.58211E-13 4.58211E-13 0.00000E+00 0.00000E+00 0.00000E+00
 -1      1418 4.64852E-13 4.64852E-13 4.64852E-13 0.00000E+00 0.00000E+00 0.00000E+00
 -1      1419 4.38289E-13 4.38289E-13 4.38289E-13 0.00000E+00 0.00000E+00 0.00000E+00
 -1      1420 4.38289E-13 4.38289E-13 4.38289E-13 0.00000E+00 0.00000E+00 0.00000E+00
 -1      1421 4.53784E-13 4.53784E-13 4.53784E-13 0.00000E+00 0.00000E+00 0.00000E+00
 -1      1422 4.64852E-13 4.64852E-13 4.64852E-13 0.00000E+00 0.00000E+00 0.00000E+00
 -1      1423 4.64852E-13 4.64852E-13 4.64852E-13 0.00000E+00 0.00000E+00 0.00000E+00
 -1      1424 4.64852E-13 4.64852E-13 4.64852E-13 0.00000E+00 0.00000E+00 0.00000E+00
 -1      1425 4.47143E-13 4.47143E-13 4.47143E-13 0.00000E+00 0.00000E+00 0.00000E+00
 -1      1426 4.49357E-13 4.49357E-13 4.49357E-13 0.00000E+00 0.00000E+00 0.00000E+00
 -1      1427 4.38289E-13 4.38289E-13 4.38289E-13 0.00000E+00 0.00000E+00 0.00000E+00
 -1      1428 4.38289E-13 4.38289E-13 4.38289E-13 0.00000E+00 0.00000E+00 0.00000E+00
 -1      1429 4.42716E-13 4.42716E-13 4.42716E-13 0.00000E+00 0.00000E+00 0.00000E+00
 -1      1430 4.64852E-13 4.64852E-13 4.64852E-13 0.00000E+00 0.00000E+00 0.00000E+00
 -1      1431 4.45878E-13 4.45878E-13 4.45878E-13 0.00000E+00 0.00000E+00 0.00000E+00
 -1      1432 4.38289E-13 4.38289E-13 4.38289E-13 0.00000E+00 0.00000E+00 0.00000E+00
 -1      1433 4.60425E-13 4.60425E-13 4.60425E-13 0.00000E+00 0.00000E+00 0.00000E+00
 -1      1434 4.51570E-13 4.51570E-13 4.51570E-13 0.00000E+00 0.00000E+00 0.00000E+00
 -1      1435 4.62638E-13 4.62638E-13 4.62638E-13 0.00000E+00 0.00000E+00 0.00000E+00
 -1      1436 4.64852E-13 4.64852E-13 4.64852E-13 0.00000E+00 0.00000E+00 0.00000E+00
 -1      1437 4.62638E-13 4.62638E-13 4.62638E-13 0.00000E+00 0.00000E+00 0.00000E+00
 -1      1438 4.38289E-13 4.38289E-13 4.38289E-13 0.00000E+00 0.00000E+00 0.00000E+00
 -1      1439 4.38289E-13 4.38289E-13 4.38289E-13 0.00000E+00 0.00000E+00 0.00000E+00
 -1      1440 4.40502E-13 4.40502E-13 4.40502E-13 0.00000E+00 0.00000E+00 0.00000E+00
 -1      1441 4.44929E-13 4.44929E-13 4.44929E-13 0.00000E+00 0.00000E+00 0.00000E+00
 -1      1442 4.64852E-13 4.64852E-13 4.64852E-13 0.00000E+00 0.00000E+00 0.00000E+00
 -1      1443 4.38289E-13 4.38289E-13 4.38289E-13 0.00000E+00 0.00000E+00 0.00000E+00
 -1      1444 4.60425E-13 4.60425E-13 4.60425E-13 0.00000E+00 0.00000E+00 0.00000E+00
 -1      1445 4.47143E-13 4.47143E-13 4.47143E-13 0.00000E+00 0.00000E+00 0.00000E+00
 -1      1446 4.64852E-13 4.64852E-13 4.64852E-13 0.00000E+00 0.00000E+00 0.00000E+00
 -1      1447 4.64852E-13 4.64852E-13 4.64852E-13 0.00000E+00 0.00000E+00 0.00000E+00
 -1      1448 4.42716E-13 4.42716E-13 4.42716E-13 0.00000E+00 0.00000E+00 0.00000E+00
 -1      1449 4.44929E-13 4.44929E-13 4.44929E-13 0.00000E+00 0.00000E+00 0.00000E+00
 -1      1450 4.53784E-13 4.53784E-13 4.53784E-13 0.00000E+00 0.00000E+00 0.00000E+00
 -1      1451 4.38289E-13 4.38289E-13 4.38289E-13 0.00000E+00 0.00000E+00 0.00000E+00
 -1      1452 4.49357E-13 4.49357E-13 4.49357E-13 0.00000E+00 0.00000E+00 0.00000E+00
 -1      1453 4.40502E-13 4.40502E-13 4.40502E-13 0.00000E+00 0.00000E+00 0.00000E+00
 -1      1454 4.38289E-13 4.38289E-13 4.38289E-13 0.00000E+00 0.00000E+00 0.00000E+00
 -1      1455 4.64852E-13 4.64852E-13 4.64852E-13 0.00000E+00 0.00000E+00 0.00000E+00
 -1      1456 4.47143E-13 4.47143E-13 4.47143E-13 0.00000E+00 0.00000E+00 0.00000E+00
 -1      1457 4.60425E-13 4.60425E-13 4.60425E-13 0.00000E+00 0.00000E+00 0.00000E+00
 -1      1458 4.42716E-13 4.42716E-13 4.42716E-13 0.00000E+00 0.00000E+00 0.00000E+00
 -1      1459 4.38289E-13 4.38289E-13 4.38289E-13 0.00000E+00 0.00000E+00 0.00000E+00
 -1      1460 4.38289E-13 4.38289E-13 4.38289E-13 0.00000E+00 0.00000E+00 0.00000E+00
 -1      1461 4.40502E-13 4.40502E-13 4.40502E-13 0.00000E+00 0.00000E+00 0.00000E+00
 -1      1462 4.64852E-13 4.64852E-13 4.64852E-13 0.00000E+00 0.00000E+00 0.00000E+00
 -1      1463 4.55997E-13 4.55997E-13 4.55997E-13 0.00000E+00 0.00000E+00 0.00000E+00
 -1      1464 4.53468E-13 4.53468E-13 4.53468E-13 0.00000E+00 0.00000E+00 0.00000E+00
 -1      1465 4.61057E-13 4.61057E-13 4.61057E-13 0.00000E+00 0.00000E+00 0.00000E+00
 -1      1466 4.64852E-13 4.64852E-13 4.64852E-13 0.00000E+00 0.00000E+00 0.00000E+00
 -1      1467 4.38289E-13 4.38289E-13 4.38289E-13 0.00000E+00 0.00000E+00 0.00000E+00
 -1      1468 4.40502E-13 4.40502E-13 4.40502E-13 0.00000E+00 0.00000E+00 0.00000E+00
 -1      1469 4.60425E-13 4.60425E-13 4.60425E-13 0.00000E+00 0.00000E+00 0.00000E+00
 -1      1470 4.51570E-13 4.51570E-13 4.51570E-13 0.00000E+00 0.00000E+00 0.00000E+00
 -1      1471 4.49357E-13 4.49357E-13 4.49357E-13 0.00000E+00 0.00000E+00 0.00000E+00
 -1      1472 4.38289E-13 4.38289E-13 4.38289E-13 0.00000E+00 0.00000E+00 0.00000E+00
 -1      1473 4.51570E-13 4.51570E-13 4.51570E-13 0.00000E+00 0.00000E+00 0.00000E+00
 -1      1474 4.38289E-13 4.38289E-13 4.38289E-13 0.00000E+00 0.00000E+00 0.00000E+00
 -1      1475 4.42716E-13 4.42716E-13 4.42716E-13 0.00000E+00 0.00000E+00 0.00000E+00
 -1      1476 4.62638E-13 4.62638E-13 4.62638E-13 0.00000E+00 0.00000E+00 0.00000E+00
 -1      1477 4.38289E-13 4.38289E-13 4.38289E-13 0.00000E+00 0.00000E+00 0.00000E+00
 -1      1478 4.59160E-13 4.59160E-13 4.59160E-13 0.00000E+00 0.00000E+00 0.00000E+00
 -1      1479 4.47143E-13 4.47143E-13 4.47143E-13 0.00000E+00 0.00000E+00 0.00000E+00
 -1      1480 4.47143E-13 4.47143E-13 4.47143E-13 0.00000E+00 0.00000E+00 0.00000E+00
 -1      1481 4.38289E-13 4.38289E-13 4.38289E-13 0.00000E+00 0.00000E+00 0.00000E+00
 -1      1482 4.64852E-13 4.64852E-13 4.64852E-13 0.00000E+00 0.00000E+00 0.00000E+00
 -1      1483 4.47775E-13 4.47775E-13 4.47775E-13 0.00000E+00 0.00000E+00 0.00000E+00
 -1      1484 4.60425E-13 4.60425E-13 4.60425E-13 0.00000E+00 0.00000E+00 0.00000E+00
 -1      1485 4.42716E-13 4.42716E-13 4.42716E-13 0.00000E+00 0.00000E+00 0.00000E+00
 -1      1486 4.38289E-13 4.38289E-13 4.38289E-13 0.00000E+00 0.00000E+00 0.00000E+00
 -1      1487 4.42716E-13 4.42716E-13 4.42716E-13 0.00000E+00 0.00000E+00 0.00000E+00
 -1      1488 4.42716E-13 4.42716E-13 4.42716E-13 0.00000E+00 0.00000E+00 0.00000E+00
 -1      1489 4.64852E-13 4.64852E-13 4.64852E-13 0.00000E+00 0.00000E+00 0.00000E+00
 -1      1490 4.64852E-13 4.64852E-13 4.64852E-13 0.00000E+00 0.00000E+00 0.00000E+00
 -1      1491 4.49673E-13 4.49673E-13 4.49673E-13 0.00000E+00 0.00000E+00 0.00000E+00
 -1      1492 4.47775E-13 4.47775E-13 4.47775E-13 0.00000E+00 0.00000E+00 0.00000E+00
 -1      1493 4.64852E-13 4.64852E-13 4.64852E-13 0.00000E+00 0.00000E+00 0.00000E+00
 -1      1494 4.38289E-13 4.38289E-13 4.38289E-13 0.00000E+00 0.00000E+00 0.00000E+00
 -1      1495 4.38289E-13 4.38289E-13 4.38289E-13 0.00000E+00 0.00000E+00 0.00000E+00
 -1      1496 4.55997E-13 4.55997E-13 4.55997E-13 0.00000E+00 0.00000E+00 0.00000E+00
 -1      1497 4.64852E-13 4.64852E-13 4.64852E-13 0.00000E+00 0.00000E+00 0.00000E+00
 -1      1498 4.38289E-13 4.38289E-13 4.38289E-13 0.00000E+00 0.00000E+00 0.00000E+00
 -1      1499 4.64852E-13 4.64852E-13 4.64852E-13 0.00000E+00 0.00000E+00 0.00000E+00
 -1      1500 4.38289E-13 4.38289E-13 4.38289E-13 0.00000E+00 0.00000E+00 0.00000E+00
 -1      1501 4.64852E-13 4.64852E-13 4.64852E-13 0.00000E+00 0.00000E+00 0.00000E+00
 -1      1502 4.42716E-13 4.42716E-13 4.42716E-13 0.00000E+00 0.00000E+00 0.00000E+00
 -1      1503 4.64852E-13 4.64852E-13 4.64852E-13 0.00000E+00 0.00000E+00 0.00000E+00
 -1      1504 4.38289E-13 4.38289E-13 4.38289E-13 0.00000E+00 0.00000E+00 0.00000E+00
 -1      1505 4.38289E-13 4.38289E-13 4.38289E-13 0.00000E+00 0.00000E+00 0.00000E+00
 -1      1506 4.64852E-13 4.64852E-13 4.64852E-13 0.00000E+00 0.00000E+00 0.00000E+00
 -1      1507 4.64852E-13 4.64852E-13 4.64852E-13 0.00000E+00 0.00000E+00 0.00000E+00
 -1      1508 4.64852E-13 4.64852E-13 4.64852E-13 0.00000E+00 0.00000E+00 0.00000E+00
 -1      1509 4.42083E-13 4.42083E-13 4.42083E-13 0.00000E+00 0.00000E+00 0.00000E+00
 -1      1510 4.64852E-13 4.64852E-13 4.64852E-13 0.00000E+00 0.00000E+00 0.00000E+00
 -1      1511 4.64852E-13 4.64852E-13 4.64852E-13 0.00000E+00 0.00000E+00 0.00000E+00
 -1      1512 4.55997E-13 4.55997E-13 4.55997E-13 0.00000E+00 0.00000E+00 0.00000E+00
 -1      1513 4.38289E-13 4.38289E-13 4.38289E-13 0.00000E+00 0.00000E+00 0.00000E+00
 -1      1514 4.64852E-13 4.64852E-13 4.64852E-13 0.00000E+00 0.00000E+00 0.00000E+00
 -1      1515 4.64852E-13 4.64852E-13 4.64852E-13 0.00000E+00 0.00000E+00 0.00000E+00
 -1      1516 4.38289E-13 4.38289E-13 4.38289E-13 0.00000E+00 0.00000E+00 0.00000E+00
 -1      1517 4.49357E-13 4.49357E-13 4.49357E-13 0.00000E+00 0.00000E+00 0.00000E+00
 -1      1518 4.49357E-13 4.49357E-13 4.49357E-13 0.00000E+00 0.00000E+00 0.00000E+00
 -1      1519 4.38289E-13 4.38289E-13 4.38289E-13 0.00000E+00 0.00000E+00 0.00000E+00
 -1      1520 4.64852E-13 4.64852E-13 4.64852E-13 0.00000E+00 0.00000E+00 0.00000E+00
 -1      1521 4.64852E-13 4.64852E-13 4.64852E-13 0.00000E+00 0.00000E+00 0.00000E+00
 -1      1522 4.38289E-13 4.38289E-13 4.38289E-13 0.00000E+00 0.00000E+00 0.00000E+00
 -1      1523 4.49357E-13 4.49357E-13 4.49357E-13 0.00000E+00 0.00000E+00 0.00000E+00
 -1      1524 4.38289E-13 4.38289E-13 4.38289E-13 0.00000E+00 0.00000E+00 0.00000E+00
 -1      1525 4.38289E-13 4.38289E-13 4.38289E-13 0.00000E+00 0.00000E+00 0.00000E+00
 -1      1526 4.49357E-13 4.49357E-13 4.49357E-13 0.00000E+00 0.00000E+00 0.00000E+00
 -1      1527 4.53784E-13 4.53784E-13 4.53784E-13 0.00000E+00 0.00000E+00 0.00000E+00
 -1      1528 4.42716E-13 4.42716E-13 4.42716E-13 0.00000E+00 0.00000E+00 0.00000E+00
 -1      1529 4.49673E-13 4.49673E-13 4.49673E-13 0.00000E+00 0.00000E+00 0.00000E+00
 -1      1530 4.38289E-13 4.38289E-13 4.38289E-13 0.00000E+00 0.00000E+00 0.00000E+00
 -1      1531 4.58211E-13 4.58211E-13 4.58211E-13 0.00000E+00 0.00000E+00 0.00000E+00
 -1      1532 4.51570E-13 4.51570E-13 4.51570E-13 0.00000E+00 0.00000E+00 0.00000E+00
 -1      1533 4.42083E-13 4.42083E-13 4.42083E-13 0.00000E+00 0.00000E+00 0.00000E+00
 -1      1534 4.64852E-13 4.64852E-13 4.64852E-13 0.00000E+00 0.00000E+00 0.00000E+00
 -1      1535 4.58211E-13 4.58211E-13 4.58211E-13 0.00000E+00 0.00000E+00 0.00000E+00
 -1      1536 4.64852E-13 4.64852E-13 4.64852E-13 0.00000E+00 0.00000E+00 0.00000E+00
 -1      1537 4.64852E-13 4.64852E-13 4.64852E-13 0.00000E+00 0.00000E+00 0.00000E+00
 -1      1538 4.40502E-13 4.40502E-13 4.40502E-13 0.00000E+00 0.00000E+00 0.00000E+00
 -1      1539 4.38289E-13 4.38289E-13 4.38289E-13 0.00000E+00 0.00000E+00 0.00000E+00
 -1      1540 4.64852E-13 4.64852E-13 4.64852E-13 0.00000E+00 0.00000E+00 0.00000E+00
 -1      1541 4.64852E-13 4.64852E-13 4.64852E-13 0.00000E+00 0.00000E+00 0.00000E+00
 -1      1542 4.64852E-13 4.64852E-13 4.64852E-13 0.00000E+00 0.00000E+00 0.00000E+00
 -1      1543 4.45878E-13 4.45878E-13 4.45878E-13 0.00000E+00 0.00000E+00 0.00000E+00
 -1      1544 4.38289E-13 4.38289E-13 4.38289E-13 0.00000E+00 0.00000E+00 0.00000E+00
 -1      1545 4.64852E-13 4.64852E-13 4.64852E-13 0.00000E+00 0.00000E+00 0.00000E+00
 -1      1546 4.64852E-13 4.64852E-13 4.64852E-13 0.00000E+00 0.00000E+00 0.00000E+00
 -1      1547 4.38289E-13 4.38289E-13 4.38289E-13 0.00000E+00 0.00000E+00 0.00000E+00
 -1      1548 4.61057E-13 4.61057E-13 4.61057E-13 0.00000E+00 0.00000E+00 0.00000E+00
 -1      1549 4.64852E-13 4.64852E-13 4.64852E-13 0.00000E+00 0.00000E+00 0.00000E+00
 -1      1550 4.38289E-13 4.38289E-13 4.38289E-13 0.00000E+00 0.00000E+00 0.00000E+00
 -1      1551 4.53784E-13 4.53784E-13 4.53784E-13 0.00000E+00 0.00000E+00 0.00000E+00
 -1      1552 4.64852E-13 4.64852E-13 4.64852E-13 0.00000E+00 0.00000E+00 0.00000E+00
 -1      1553 4.62638E-13 4.62638E-13 4.62638E-13 0.00000E+00 0.00000E+00 0.00000E+00
 -1      1554 4.38289E-13 4.38289E-13 4.38289E-13 0.00000E+00 0.00000E+00 0.00000E+00
 -1      1555 4.64852E-13 4.64852E-13 4.64852E-13 0.00000E+00 0.00000E+00 0.00000E+00
 -1      1556 4.64852E-13 4.64852E-13 4.64852E-13 0.00000E+00 0.00000E+00 0.00000E+00
 -1      1557 4.64852E-13 4.64852E-13 4.64852E-13 0.00000E+00 0.00000E+00 0.00000E+00
 -1      1558 4.64852E-13 4.64852E-13 4.64852E-13 0.00000E+00 0.00000E+00 0.00000E+00
 -1      1559 4.49357E-13 4.49357E-13 4.49357E-13 0.00000E+00 0.00000E+00 0.00000E+00
 -1      1560 4.53784E-13 4.53784E-13 4.53784E-13 0.00000E+00 0.00000E+00 0.00000E+00
 -1      1561 4.38289E-13 4.38289E-13 4.38289E-13 0.00000E+00 0.00000E+00 0.00000E+00
 -1      1562 4.55997E-13 4.55997E-13 4.55997E-13 0.00000E+00 0.00000E+00 0.00000E+00
 -1      1563 4.53784E-13 4.53784E-13 4.53784E-13 0.00000E+00 0.00000E+00 0.00000E+00
 -1      1564 4.38289E-13 4.38289E-13 4.38289E-13 0.00000E+00 0.00000E+00 0.00000E+00
 -1      1565 4.64852E-13 4.64852E-13 4.64852E-13 0.00000E+00 0.00000E+00 0.00000E+00
 -1      1566 4.64852E-13 4.64852E-13 4.64852E-13 0.00000E+00 0.00000E+00 0.00000E+00
 -1      1567 4.38289E-13 4.38289E-13 4.38289E-13 0.00000E+00 0.00000E+00 0.00000E+00
 -1      1568 4.64852E-13 4.64852E-13 4.64852E-13 0.00000E+00 0.00000E+00 0.00000E+00
 -1      1569 4.64852E-13 4.64852E-13 4.64852E-13 0.00000E+00 0.00000E+00 0.00000E+00
 -1      1570 4.58211E-13 4.58211E-13 4.58211E-13 0.00000E+00 0.00000E+00 0.00000E+00
 -1      1571 4.38289E-13 4.38289E-13 4.38289E-13 0.00000E+00 0.00000E+00 0.00000E+00
 -1      1572 4.44929E-13 4.44929E-13 4.44929E-13 0.00000E+00 0.00000E+00 0.00000E+00
 -1      1573 4.64852E-13 4.64852E-13 4.64852E-13 0.00000E+00 0.00000E+00 0.00000E+00
 -1      1574 4.64852E-13 4.64852E-13 4.64852E-13 0.00000E+00 0.00000E+00 0.00000E+00
 -1      1575 4.62638E-13 4.62638E-13 4.62638E-13 0.00000E+00 0.00000E+00 0.00000E+00
 -1      1576 4.64852E-13 4.64852E-13 4.64852E-13 0.00000E+00 0.00000E+00 0.00000E+00
 -1      1577 4.38289E-13 4.38289E-13 4.38289E-13 0.00000E+00 0.00000E+00 0.00000E+00
 -1      1578 4.38289E-13 4.38289E-13 4.38289E-13 0.00000E+00 0.00000E+00 0.00000E+00
 -1      1579 4.62638E-13 4.62638E-13 4.62638E-13 0.00000E+00 0.00000E+00 0.00000E+00
 -1      1580 4.55997E-13 4.55997E-13 4.55997E-13 0.00000E+00 0.00000E+00 0.00000E+00
 -1      1581 4.64852E-13 4.64852E-13 4.64852E-13 0.00000E+00 0.00000E+00 0.00000E+00
 -1      1582 4.64852E-13 4.64852E-13 4.64852E-13 0.00000E+00 0.00000E+00 0.00000E+00
 -1      1583 4.53784E-13 4.53784E-13 4.53784E-13 0.00000E+00 0.00000E+00 0.00000E+00
 -1      1584 4.38289E-13 4.38289E-13 4.38289E-13 0.00000E+00 0.00000E+00 0.00000E+00
 -1      1585 4.38289E-13 4.38289E-13 4.38289E-13 0.00000E+00 0.00000E+00 0.00000E+00
 -1      1586 4.64852E-13 4.64852E-13 4.64852E-13 0.00000E+00 0.00000E+00 0.00000E+00
 -1      1587 4.64852E-13 4.64852E-13 4.64852E-13 0.00000E+00 0.00000E+00 0.00000E+00
 -1      1588 4.42083E-13 4.42083E-13 4.42083E-13 0.00000E+00 0.00000E+00 0.00000E+00
 -1      1589 4.64852E-13 4.64852E-13 4.64852E-13 0.00000E+00 0.00000E+00 0.00000E+00
 -1      1590 4.64852E-13 4.64852E-13 4.64852E-13 0.00000E+00 0.00000E+00 0.00000E+00
 -1      1591 4.64852E-13 4.64852E-13 4.64852E-13 0.00000E+00 0.00000E+00 0.00000E+00
 -1      1592 4.38289E-13 4.38289E-13 4.38289E-13 0.00000E+00 0.00000E+00 0.00000E+00
 -1      1593 4.64852E-13 4.64852E-13 4.64852E-13 0.00000E+00 0.00000E+00 0.00000E+00
 -1      1594 4.64852E-13 4.64852E-13 4.64852E-13 0.00000E+00 0.00000E+00 0.00000E+00
 -1      1595 4.64852E-13 4.64852E-13 4.64852E-13 0.00000E+00 0.00000E+00 0.00000E+00
 -1      1596 4.38289E-13 4.38289E-13 4.38289E-13 0.00000E+00 0.00000E+00 0.00000E+00
 -1      1597 4.60425E-13 4.60425E-13 4.60425E-13 0.00000E+00 0.00000E+00 0.00000E+00
 -1      1598 4.64852E-13 4.64852E-13 4.64852E-13 0.00000E+00 0.00000E+00 0.00000E+00
 -1      1599 4.42716E-13 4.42716E-13 4.42716E-13 0.00000E+00 0.00000E+00 0.00000E+00
 -1      1600 4.42083E-13 4.42083E-13 4.42083E-13 0.00000E+00 0.00000E+00 0.00000E+00
 -1      1601 4.64852E-13 4.64852E-13 4.64852E-13 0.00000E+00 0.00000E+00 0.00000E+00
 -1      1602 4.64852E-13 4.64852E-13 4.64852E-13 0.00000E+00 0.00000E+00 0.00000E+00
 -1      1603 4.64852E-13 4.64852E-13 4.64852E-13 0.00000E+00 0.00000E+00 0.00000E+00
 -1      1604 4.42716E-13 4.42716E-13 4.42716E-13 0.00000E+00 0.00000E+00 0.00000E+00
 -1      1605 4.38289E-13 4.38289E-13 4.38289E-13 0.00000E+00 0.00000E+00 0.00000E+00
 -1      1606 4.55997E-13 4.55997E-13 4.55997E-13 0.00000E+00 0.00000E+00 0.00000E+00
 -1      1607 4.38289E-13 4.38289E-13 4.38289E-13 0.00000E+00 0.00000E+00 0.00000E+00
 -1      1608 4.64852E-13 4.64852E-13 4.64852E-13 0.00000E+00 0.00000E+00 0.00000E+00
 -1      1609 4.38289E-13 4.38289E-13 4.38289E-13 0.00000E+00 0.00000E+00 0.00000E+00
 -1      1610 4.64852E-13 4.64852E-13 4.64852E-13 0.00000E+00 0.00000E+00 0.00000E+00
 -1      1611 4.64852E-13 4.64852E-13 4.64852E-13 0.00000E+00 0.00000E+00 0.00000E+00
 -1      1612 4.42716E-13 4.42716E-13 4.42716E-13 0.00000E+00 0.00000E+00 0.00000E+00
 -1      1613 4.64852E-13 4.64852E-13 4.64852E-13 0.00000E+00 0.00000E+00 0.00000E+00
 -1      1614 4.47143E-13 4.47143E-13 4.47143E-13 0.00000E+00 0.00000E+00 0.00000E+00
 -1      1615 4.64852E-13 4.64852E-13 4.64852E-13 0.00000E+00 0.00000E+00 0.00000E+00
 -1      1616 4.61057E-13 4.61057E-13 4.61057E-13 0.00000E+00 0.00000E+00 0.00000E+00
 -1      1617 4.38289E-13 4.38289E-13 4.38289E-13 0.00000E+00 0.00000E+00 0.00000E+00
 -1      1618 4.43981E-13 4.43981E-13 4.43981E-13 0.00000E+00 0.00000E+00 0.00000E+00
 -1      1619 4.38289E-13 4.38289E-13 4.38289E-13 0.00000E+00 0.00000E+00 0.00000E+00
 -1      1620 4.55997E-13 4.55997E-13 4.55997E-13 0.00000E+00 0.00000E+00 0.00000E+00
 -1      1621 4.42716E-13 4.42716E-13 4.42716E-13 0.00000E+00 0.00000E+00 0.00000E+00
 -1      1622 4.38289E-13 4.38289E-13 4.38289E-13 0.00000E+00 0.00000E+00 0.00000E+00
 -1      1623 4.64852E-13 4.64852E-13 4.64852E-13 0.00000E+00 0.00000E+00 0.00000E+00
 -1      1624 4.38289E-13 4.38289E-13 4.38289E-13 0.00000E+00 0.00000E+00 0.00000E+00
 -1      1625 4.64852E-13 4.64852E-13 4.64852E-13 0.00000E+00 0.00000E+00 0.00000E+00
 -1      1626 4.40186E-13 4.40186E-13 4.40186E-13 0.00000E+00 0.00000E+00 0.00000E+00
 -1      1627 4.64852E-13 4.64852E-13 4.64852E-13 0.00000E+00 0.00000E+00 0.00000E+00
 -1      1628 4.38289E-13 4.38289E-13 4.38289E-13 0.00000E+00 0.00000E+00 0.00000E+00
 -1      1629 4.64852E-13 4.64852E-13 4.64852E-13 0.00000E+00 0.00000E+00 0.00000E+00
 -1      1630 4.64852E-13 4.64852E-13 4.64852E-13 0.00000E+00 0.00000E+00 0.00000E+00
 -1      1631 4.45878E-13 4.45878E-13 4.45878E-13 0.00000E+00 0.00000E+00 0.00000E+00
 -1      1632 4.40502E-13 4.40502E-13 4.40502E-13 0.00000E+00 0.00000E+00 0.00000E+00
 -1      1633 4.44929E-13 4.44929E-13 4.44929E-13 0.00000E+00 0.00000E+00 0.00000E+00
 -1      1634 4.38289E-13 4.38289E-13 4.38289E-13 0.00000E+00 0.00000E+00 0.00000E+00
 -1      1635 4.38289E-13 4.38289E-13 4.38289E-13 0.00000E+00 0.00000E+00 0.00000E+00
 -1      1636 4.38289E-13 4.38289E-13 4.38289E-13 0.00000E+00 0.00000E+00 0.00000E+00
 -1      1637 4.38289E-13 4.38289E-13 4.38289E-13 0.00000E+00 0.00000E+00 0.00000E+00
 -1      1638 4.38289E-13 4.38289E-13 4.38289E-13 0.00000E+00 0.00000E+00 0.00000E+00
 -1      1639 4.38289E-13 4.38289E-13 4.38289E-13 0.00000E+00 0.00000E+00 0.00000E+00
 -1      1640 4.38289E-13 4.38289E-13 4.38289E-13 0.00000E+00 0.00000E+00 0.00000E+00
 -1      1641 4.38289E-13 4.38289E-13 4.38289E-13 0.00000E+00 0.00000E+00 0.00000E+00
 -1      1642 4.38289E-13 4.38289E-13 4.38289E-13 0.00000E+00 0.00000E+00 0.00000E+00
 -1      1643 4.38289E-13 4.38289E-13 4.38289E-13 0.00000E+00 0.00000E+00 0.00000E+00
 -1      1644 4.38289E-13 4.38289E-13 4.38289E-13 0.00000E+00 0.00000E+00 0.00000E+00
 -1      1645 4.38289E-13 4.38289E-13 4.38289E-13 0.00000E+00 0.00000E+00 0.00000E+00
 -1      1646 4.38289E-13 4.38289E-13 4.38289E-13 0.00000E+00 0.00000E+00 0.00000E+00
 -1      1647 4.42716E-13 4.42716E-13 4.42716E-13 0.00000E+00 0.00000E+00 0.00000E+00
 -1      1648 4.62638E-13 4.62638E-13 4.62638E-13 0.00000E+00 0.00000E+00 0.00000E+00
 -1      1649 4.47143E-13 4.47143E-13 4.47143E-13 0.00000E+00 0.00000E+00 0.00000E+00
 -1      1650 4.38289E-13 4.38289E-13 4.38289E-13 0.00000E+00 0.00000E+00 0.00000E+00
 -1      1651 4.49357E-13 4.49357E-13 4.49357E-13 0.00000E+00 0.00000E+00 0.00000E+00
 -1      1652 4.64852E-13 4.64852E-13 4.64852E-13 0.00000E+00 0.00000E+00 0.00000E+00
 -1      1653 4.38289E-13 4.38289E-13 4.38289E-13 0.00000E+00 0.00000E+00 0.00000E+00
 -1      1654 4.38289E-13 4.38289E-13 4.38289E-13 0.00000E+00 0.00000E+00 0.00000E+00
 -1      1655 4.38289E-13 4.38289E-13 4.38289E-13 0.00000E+00 0.00000E+00 0.00000E+00
 -1      1656 4.40502E-13 4.40502E-13 4.40502E-13 0.00000E+00 0.00000E+00 0.00000E+00
 -1      1657 4.51570E-13 4.51570E-13 4.51570E-13 0.00000E+00 0.00000E+00 0.00000E+00
 -1      1658 4.42716E-13 4.42716E-13 4.42716E-13 0.00000E+00 0.00000E+00 0.00000E+00
 -1      1659 4.47143E-13 4.47143E-13 4.47143E-13 0.00000E+00 0.00000E+00 0.00000E+00
 -1      1660 4.62638E-13 4.62638E-13 4.62638E-13 0.00000E+00 0.00000E+00 0.00000E+00
 -1      1661 4.38289E-13 4.38289E-13 4.38289E-13 0.00000E+00 0.00000E+00 0.00000E+00
 -1      1662 4.47143E-13 4.47143E-13 4.47143E-13 0.00000E+00 0.00000E+00 0.00000E+00
 -1      1663 4.42716E-13 4.42716E-13 4.42716E-13 0.00000E+00 0.00000E+00 0.00000E+00
 -1      1664 4.44929E-13 4.44929E-13 4.44929E-13 0.00000E+00 0.00000E+00 0.00000E+00
 -1      1665 4.58211E-13 4.58211E-13 4.58211E-13 0.00000E+00 0.00000E+00 0.00000E+00
 -1      1666 4.38289E-13 4.38289E-13 4.38289E-13 0.00000E+00 0.00000E+00 0.00000E+00
 -1      1667 4.38289E-13 4.38289E-13 4.38289E-13 0.00000E+00 0.00000E+00 0.00000E+00
 -1      1668 4.42716E-13 4.42716E-13 4.42716E-13 0.00000E+00 0.00000E+00 0.00000E+00
 -1      1669 4.42716E-13 4.42716E-13 4.42716E-13 0.00000E+00 0.00000E+00 0.00000E+00
 -1      1670 4.44929E-13 4.44929E-13 4.44929E-13 0.00000E+00 0.00000E+00 0.00000E+00
 -1      1671 4.64852E-13 4.64852E-13 4.64852E-13 0.00000E+00 0.00000E+00 0.00000E+00
 -1      1672 4.64852E-13 4.64852E-13 4.64852E-13 0.00000E+00 0.00000E+00 0.00000E+00
 -1      1673 4.64852E-13 4.64852E-13 4.64852E-13 0.00000E+00 0.00000E+00 0.00000E+00
 -1      1674 4.64852E-13 4.64852E-13 4.64852E-13 0.00000E+00 0.00000E+00 0.00000E+00
 -1      1675 4.64852E-13 4.64852E-13 4.64852E-13 0.00000E+00 0.00000E+00 0.00000E+00
 -1      1676 4.64852E-13 4.64852E-13 4.64852E-13 0.00000E+00 0.00000E+00 0.00000E+00
 -1      1677 4.64852E-13 4.64852E-13 4.64852E-13 0.00000E+00 0.00000E+00 0.00000E+00
 -1      1678 4.62638E-13 4.62638E-13 4.62638E-13 0.00000E+00 0.00000E+00 0.00000E+00
 -1      1679 4.64852E-13 4.64852E-13 4.64852E-13 0.00000E+00 0.00000E+00 0.00000E+00
 -1      1680 4.62638E-13 4.62638E-13 4.62638E-13 0.00000E+00 0.00000E+00 0.00000E+00
 -1      1681 4.62638E-13 4.62638E-13 4.62638E-13 0.00000E+00 0.00000E+00 0.00000E+00
 -1      1682 4.62638E-13 4.62638E-13 4.62638E-13 0.00000E+00 0.00000E+00 0.00000E+00
 -1      1683 4.62638E-13 4.62638E-13 4.62638E-13 0.00000E+00 0.00000E+00 0.00000E+00
 -1      1684 4.62638E-13 4.62638E-13 4.62638E-13 0.00000E+00 0.00000E+00 0.00000E+00
 -1      1685 4.62638E-13 4.62638E-13 4.62638E-13 0.00000E+00 0.00000E+00 0.00000E+00
 -1      1686 4.62638E-13 4.62638E-13 4.62638E-13 0.00000E+00 0.00000E+00 0.00000E+00
 -1      1687 4.64852E-13 4.64852E-13 4.64852E-13 0.00000E+00 0.00000E+00 0.00000E+00
 -1      1688 4.64852E-13 4.64852E-13 4.64852E-13 0.00000E+00 0.00000E+00 0.00000E+00
 -1      1689 4.64852E-13 4.64852E-13 4.64852E-13 0.00000E+00 0.00000E+00 0.00000E+00
 -1      1690 4.62638E-13 4.62638E-13 4.62638E-13 0.00000E+00 0.00000E+00 0.00000E+00
 -1      1691 4.62638E-13 4.62638E-13 4.62638E-13 0.00000E+00 0.00000E+00 0.00000E+00
 -1      1692 4.62638E-13 4.62638E-13 4.62638E-13 0.00000E+00 0.00000E+00 0.00000E+00
 -1      1693 4.64852E-13 4.64852E-13 4.64852E-13 0.00000E+00 0.00000E+00 0.00000E+00
 -1      1694 4.64852E-13 4.64852E-13 4.64852E-13 0.00000E+00 0.00000E+00 0.00000E+00
 -1      1695 4.64852E-13 4.64852E-13 4.64852E-13 0.00000E+00 0.00000E+00 0.00000E+00
 -1      1696 4.62638E-13 4.62638E-13 4.62638E-13 0.00000E+00 0.00000E+00 0.00000E+00
 -1      1697 4.62638E-13 4.62638E-13 4.62638E-13 0.00000E+00 0.00000E+00 0.00000E+00
 -1      1698 4.64852E-13 4.64852E-13 4.64852E-13 0.00000E+00 0.00000E+00 0.00000E+00
 -1      1699 4.64852E-13 4.64852E-13 4.64852E-13 0.00000E+00 0.00000E+00 0.00000E+00
 -1      1700 4.64852E-13 4.64852E-13 4.64852E-13 0.00000E+00 0.00000E+00 0.00000E+00
 -1      1701 4.62638E-13 4.62638E-13 4.62638E-13 0.00000E+00 0.00000E+00 0.00000E+00
 -1      1702 4.64852E-13 4.64852E-13 4.64852E-13 0.00000E+00 0.00000E+00 0.00000E+00
 -1      1703 4.64852E-13 4.64852E-13 4.64852E-13 0.00000E+00 0.00000E+00 0.00000E+00
 -1      1704 4.62638E-13 4.62638E-13 4.62638E-13 0.00000E+00 0.00000E+00 0.00000E+00
 -1      1705 4.64852E-13 4.64852E-13 4.64852E-13 0.00000E+00 0.00000E+00 0.00000E+00
 -1      1706 4.64852E-13 4.64852E-13 4.64852E-13 0.00000E+00 0.00000E+00 0.00000E+00
 -1      1707 4.64852E-13 4.64852E-13 4.64852E-13 0.00000E+00 0.00000E+00 0.00000E+00
 -1      1708 4.64852E-13 4.64852E-13 4.64852E-13 0.00000E+00 0.00000E+00 0.00000E+00
 -1      1709 4.64852E-13 4.64852E-13 4.64852E-13 0.00000E+00 0.00000E+00 0.00000E+00
 -1      1710 4.64852E-13 4.64852E-13 4.64852E-13 0.00000E+00 0.00000E+00 0.00000E+00
 -1      1711 4.64852E-13 4.64852E-13 4.64852E-13 0.00000E+00 0.00000E+00 0.00000E+00
 -1      1712 4.38289E-13 4.38289E-13 4.38289E-13 0.00000E+00 0.00000E+00 0.00000E+00
 -1      1713 4.64852E-13 4.64852E-13 4.64852E-13 0.00000E+00 0.00000E+00 0.00000E+00
 -1      1714 4.64852E-13 4.64852E-13 4.64852E-13 0.00000E+00 0.00000E+00 0.00000E+00
 -1      1715 4.38289E-13 4.38289E-13 4.38289E-13 0.00000E+00 0.00000E+00 0.00000E+00
 -1      1716 4.42083E-13 4.42083E-13 4.42083E-13 0.00000E+00 0.00000E+00 0.00000E+00
 -1      1717 4.62638E-13 4.62638E-13 4.62638E-13 0.00000E+00 0.00000E+00 0.00000E+00
 -1      1718 4.38289E-13 4.38289E-13 4.38289E-13 0.00000E+00 0.00000E+00 0.00000E+00
 -1      1719 4.64852E-13 4.64852E-13 4.64852E-13 0.00000E+00 0.00000E+00 0.00000E+00
 -1      1720 4.38289E-13 4.38289E-13 4.38289E-13 0.00000E+00 0.00000E+00 0.00000E+00
 -1      1721 4.64852E-13 4.64852E-13 4.64852E-13 0.00000E+00 0.00000E+00 0.00000E+00
 -1      1722 4.64852E-13 4.64852E-13 4.64852E-13 0.00000E+00 0.00000E+00 0.00000E+00
 -1      1723 4.64852E-13 4.64852E-13 4.64852E-13 0.00000E+00 0.00000E+00 0.00000E+00
 -1      1724 4.38289E-13 4.38289E-13 4.38289E-13 0.00000E+00 0.00000E+00 0.00000E+00
 -1      1725 4.64852E-13 4.64852E-13 4.64852E-13 0.00000E+00 0.00000E+00 0.00000E+00
 -1      1726 4.64852E-13 4.64852E-13 4.64852E-13 0.00000E+00 0.00000E+00 0.00000E+00
 -1      1727 4.64852E-13 4.64852E-13 4.64852E-13 0.00000E+00 0.00000E+00 0.00000E+00
 -1      1728 4.64852E-13 4.64852E-13 4.64852E-13 0.00000E+00 0.00000E+00 0.00000E+00
 -1      1729 4.38289E-13 4.38289E-13 4.38289E-13 0.00000E+00 0.00000E+00 0.00000E+00
 -1      1730 4.62638E-13 4.62638E-13 4.62638E-13 0.00000E+00 0.00000E+00 0.00000E+00
 -1      1731 4.60425E-13 4.60425E-13 4.60425E-13 0.00000E+00 0.00000E+00 0.00000E+00
 -1      1732 4.42716E-13 4.42716E-13 4.42716E-13 0.00000E+00 0.00000E+00 0.00000E+00
 -1      1733 4.51570E-13 4.51570E-13 4.51570E-13 0.00000E+00 0.00000E+00 0.00000E+00
 -1      1734 4.53784E-13 4.53784E-13 4.53784E-13 0.00000E+00 0.00000E+00 0.00000E+00
 -1      1735 4.42716E-13 4.42716E-13 4.42716E-13 0.00000E+00 0.00000E+00 0.00000E+00
 -1      1736 4.55997E-13 4.55997E-13 4.55997E-13 0.00000E+00 0.00000E+00 0.00000E+00
 -1      1737 4.62638E-13 4.62638E-13 4.62638E-13 0.00000E+00 0.00000E+00 0.00000E+00
 -1      1738 4.58211E-13 4.58211E-13 4.58211E-13 0.00000E+00 0.00000E+00 0.00000E+00
 -1      1739 4.62638E-13 4.62638E-13 4.62638E-13 0.00000E+00 0.00000E+00 0.00000E+00
 -1      1740 4.57262E-13 4.57262E-13 4.57262E-13 0.00000E+00 0.00000E+00 0.00000E+00
 -1      1741 4.64852E-13 4.64852E-13 4.64852E-13 0.00000E+00 0.00000E+00 0.00000E+00
 -1      1742 4.64852E-13 4.64852E-13 4.64852E-13 0.00000E+00 0.00000E+00 0.00000E+00
 -1      1743 4.42716E-13 4.42716E-13 4.42716E-13 0.00000E+00 0.00000E+00 0.00000E+00
 -1      1744 4.64852E-13 4.64852E-13 4.64852E-13 0.00000E+00 0.00000E+00 0.00000E+00
 -1      1745 4.64852E-13 4.64852E-13 4.64852E-13 0.00000E+00 0.00000E+00 0.00000E+00
 -1      1746 4.38289E-13 4.38289E-13 4.38289E-13 0.00000E+00 0.00000E+00 0.00000E+00
 -1      1747 4.64852E-13 4.64852E-13 4.64852E-13 0.00000E+00 0.00000E+00 0.00000E+00
 -1      1748 4.38289E-13 4.38289E-13 4.38289E-13 0.00000E+00 0.00000E+00 0.00000E+00
 -1      1749 4.64852E-13 4.64852E-13 4.64852E-13 0.00000E+00 0.00000E+00 0.00000E+00
 -1      1750 4.38289E-13 4.38289E-13 4.38289E-13 0.00000E+00 0.00000E+00 0.00000E+00
 -1      1751 4.64852E-13 4.64852E-13 4.64852E-13 0.00000E+00 0.00000E+00 0.00000E+00
 -1      1752 4.38289E-13 4.38289E-13 4.38289E-13 0.00000E+00 0.00000E+00 0.00000E+00
 -1      1753 4.64852E-13 4.64852E-13 4.64852E-13 0.00000E+00 0.00000E+00 0.00000E+00
 -1      1754 4.38289E-13 4.38289E-13 4.38289E-13 0.00000E+00 0.00000E+00 0.00000E+00
 -1      1755 4.38289E-13 4.38289E-13 4.38289E-13 0.00000E+00 0.00000E+00 0.00000E+00
 -1      1756 4.64852E-13 4.64852E-13 4.64852E-13 0.00000E+00 0.00000E+00 0.00000E+00
 -1      1757 4.64852E-13 4.64852E-13 4.64852E-13 0.00000E+00 0.00000E+00 0.00000E+00
 -1      1758 4.64852E-13 4.64852E-13 4.64852E-13 0.00000E+00 0.00000E+00 0.00000E+00
 -1      1759 4.47143E-13 4.47143E-13 4.47143E-13 0.00000E+00 0.00000E+00 0.00000E+00
 -1      1760 4.51570E-13 4.51570E-13 4.51570E-13 0.00000E+00 0.00000E+00 0.00000E+00
 -1      1761 4.64852E-13 4.64852E-13 4.64852E-13 0.00000E+00 0.00000E+00 0.00000E+00
 -1      1762 4.64852E-13 4.64852E-13 4.64852E-13 0.00000E+00 0.00000E+00 0.00000E+00
 -1      1763 4.64852E-13 4.64852E-13 4.64852E-13 0.00000E+00 0.00000E+00 0.00000E+00
 -1      1764 4.55997E-13 4.55997E-13 4.55997E-13 0.00000E+00 0.00000E+00 0.00000E+00
 -1      1765 4.64852E-13 4.64852E-13 4.64852E-13 0.00000E+00 0.00000E+00 0.00000E+00
 -1      1766 4.47143E-13 4.47143E-13 4.47143E-13 0.00000E+00 0.00000E+00 0.00000E+00
 -1      1767 4.42716E-13 4.42716E-13 4.42716E-13 0.00000E+00 0.00000E+00 0.00000E+00
 -1      1768 4.64852E-13 4.64852E-13 4.64852E-13 0.00000E+00 0.00000E+00 0.00000E+00
 -1      1769 4.38289E-13 4.38289E-13 4.38289E-13 0.00000E+00 0.00000E+00 0.00000E+00
 -1      1770 4.64852E-13 4.64852E-13 4.64852E-13 0.00000E+00 0.00000E+00 0.00000E+00
 -1      1771 4.58211E-13 4.58211E-13 4.58211E-13 0.00000E+00 0.00000E+00 0.00000E+00
 -1      1772 4.60425E-13 4.60425E-13 4.60425E-13 0.00000E+00 0.00000E+00 0.00000E+00
 -1      1773 4.64852E-13 4.64852E-13 4.64852E-13 0.00000E+00 0.00000E+00 0.00000E+00
 -1      1774 4.64852E-13 4.64852E-13 4.64852E-13 0.00000E+00 0.00000E+00 0.00000E+00
 -1      1775 4.38289E-13 4.38289E-13 4.38289E-13 0.00000E+00 0.00000E+00 0.00000E+00
 -1      1776 4.62638E-13 4.62638E-13 4.62638E-13 0.00000E+00 0.00000E+00 0.00000E+00
 -1      1777 4.64852E-13 4.64852E-13 4.64852E-13 0.00000E+00 0.00000E+00 0.00000E+00
 -1      1778 4.64852E-13 4.64852E-13 4.64852E-13 0.00000E+00 0.00000E+00 0.00000E+00
 -1      1779 4.64852E-13 4.64852E-13 4.64852E-13 0.00000E+00 0.00000E+00 0.00000E+00
 -1      1780 4.64852E-13 4.64852E-13 4.64852E-13 0.00000E+00 0.00000E+00 0.00000E+00
 -1      1781 4.64852E-13 4.64852E-13 4.64852E-13 0.00000E+00 0.00000E+00 0.00000E+00
 -1      1782 4.62638E-13 4.62638E-13 4.62638E-13 0.00000E+00 0.00000E+00 0.00000E+00
 -1      1783 4.62638E-13 4.62638E-13 4.62638E-13 0.00000E+00 0.00000E+00 0.00000E+00
 -1      1784 4.38289E-13 4.38289E-13 4.38289E-13 0.00000E+00 0.00000E+00 0.00000E+00
 -1      1785 4.44929E-13 4.44929E-13 4.44929E-13 0.00000E+00 0.00000E+00 0.00000E+00
 -1      1786 4.55997E-13 4.55997E-13 4.55997E-13 0.00000E+00 0.00000E+00 0.00000E+00
 -1      1787 4.55997E-13 4.55997E-13 4.55997E-13 0.00000E+00 0.00000E+00 0.00000E+00
 -1      1788 4.58211E-13 4.58211E-13 4.58211E-13 0.00000E+00 0.00000E+00 0.00000E+00
 -1      1789 4.58211E-13 4.58211E-13 4.58211E-13 0.00000E+00 0.00000E+00 0.00000E+00
 -1      1790 4.58211E-13 4.58211E-13 4.58211E-13 0.00000E+00 0.00000E+00 0.00000E+00
 -1      1791 4.51570E-13 4.51570E-13 4.51570E-13 0.00000E+00 0.00000E+00 0.00000E+00
 -1      1792 4.60425E-13 4.60425E-13 4.60425E-13 0.00000E+00 0.00000E+00 0.00000E+00
 -1      1793 4.38289E-13 4.38289E-13 4.38289E-13 0.00000E+00 0.00000E+00 0.00000E+00
 -1      1794 4.64852E-13 4.64852E-13 4.64852E-13 0.00000E+00 0.00000E+00 0.00000E+00
 -1      1795 4.55997E-13 4.55997E-13 4.55997E-13 0.00000E+00 0.00000E+00 0.00000E+00
 -1      1796 4.38289E-13 4.38289E-13 4.38289E-13 0.00000E+00 0.00000E+00 0.00000E+00
 -1      1797 4.64852E-13 4.64852E-13 4.64852E-13 0.00000E+00 0.00000E+00 0.00000E+00
 -1      1798 4.47143E-13 4.47143E-13 4.47143E-13 0.00000E+00 0.00000E+00 0.00000E+00
 -1      1799 4.62638E-13 4.62638E-13 4.62638E-13 0.00000E+00 0.00000E+00 0.00000E+00
 -1      1800 4.60425E-13 4.60425E-13 4.60425E-13 0.00000E+00 0.00000E+00 0.00000E+00
 -1      1801 4.64852E-13 4.64852E-13 4.64852E-13 0.00000E+00 0.00000E+00 0.00000E+00
 -1      1802 4.64852E-13 4.64852E-13 4.64852E-13 0.00000E+00 0.00000E+00 0.00000E+00
 -1      1803 4.47143E-13 4.47143E-13 4.47143E-13 0.00000E+00 0.00000E+00 0.00000E+00
 -1      1804 4.42716E-13 4.42716E-13 4.42716E-13 0.00000E+00 0.00000E+00 0.00000E+00
 -1      1805 4.58211E-13 4.58211E-13 4.58211E-13 0.00000E+00 0.00000E+00 0.00000E+00
 -1      1806 4.62638E-13 4.62638E-13 4.62638E-13 0.00000E+00 0.00000E+00 0.00000E+00
 -1      1807 4.64852E-13 4.64852E-13 4.64852E-13 0.00000E+00 0.00000E+00 0.00000E+00
 -1      1808 4.64852E-13 4.64852E-13 4.64852E-13 0.00000E+00 0.00000E+00 0.00000E+00
 -1      1809 4.64852E-13 4.64852E-13 4.64852E-13 0.00000E+00 0.00000E+00 0.00000E+00
 -1      1810 4.47143E-13 4.47143E-13 4.47143E-13 0.00000E+00 0.00000E+00 0.00000E+00
 -1      1811 4.64852E-13 4.64852E-13 4.64852E-13 0.00000E+00 0.00000E+00 0.00000E+00
 -1      1812 4.40502E-13 4.40502E-13 4.40502E-13 0.00000E+00 0.00000E+00 0.00000E+00
 -1      1813 4.64852E-13 4.64852E-13 4.64852E-13 0.00000E+00 0.00000E+00 0.00000E+00
 -1      1814 4.64852E-13 4.64852E-13 4.64852E-13 0.00000E+00 0.00000E+00 0.00000E+00
 -1      1815 4.64852E-13 4.64852E-13 4.64852E-13 0.00000E+00 0.00000E+00 0.00000E+00
 -1      1816 4.38289E-13 4.38289E-13 4.38289E-13 0.00000E+00 0.00000E+00 0.00000E+00
 -1      1817 4.47143E-13 4.47143E-13 4.47143E-13 0.00000E+00 0.00000E+00 0.00000E+00
 -1      1818 4.64852E-13 4.64852E-13 4.64852E-13 0.00000E+00 0.00000E+00 0.00000E+00
 -1      1819 4.64852E-13 4.64852E-13 4.64852E-13 0.00000E+00 0.00000E+00 0.00000E+00
 -1      1820 4.64852E-13 4.64852E-13 4.64852E-13 0.00000E+00 0.00000E+00 0.00000E+00
 -1      1821 4.62638E-13 4.62638E-13 4.62638E-13 0.00000E+00 0.00000E+00 0.00000E+00
 -1      1822 4.62638E-13 4.62638E-13 4.62638E-13 0.00000E+00 0.00000E+00 0.00000E+00
 -1      1823 4.64852E-13 4.64852E-13 4.64852E-13 0.00000E+00 0.00000E+00 0.00000E+00
 -1      1824 4.62638E-13 4.62638E-13 4.62638E-13 0.00000E+00 0.00000E+00 0.00000E+00
 -1      1825 4.62638E-13 4.62638E-13 4.62638E-13 0.00000E+00 0.00000E+00 0.00000E+00
 -1      1826 4.64852E-13 4.64852E-13 4.64852E-13 0.00000E+00 0.00000E+00 0.00000E+00
 -1      1827 4.64852E-13 4.64852E-13 4.64852E-13 0.00000E+00 0.00000E+00 0.00000E+00
 -1      1828 4.64852E-13 4.64852E-13 4.64852E-13 0.00000E+00 0.00000E+00 0.00000E+00
 -1      1829 4.53784E-13 4.53784E-13 4.53784E-13 0.00000E+00 0.00000E+00 0.00000E+00
 -1      1830 4.44929E-13 4.44929E-13 4.44929E-13 0.00000E+00 0.00000E+00 0.00000E+00
 -1      1831 4.44929E-13 4.44929E-13 4.44929E-13 0.00000E+00 0.00000E+00 0.00000E+00
 -1      1832 4.42716E-13 4.42716E-13 4.42716E-13 0.00000E+00 0.00000E+00 0.00000E+00
 -1      1833 4.38289E-13 4.38289E-13 4.38289E-13 0.00000E+00 0.00000E+00 0.00000E+00
 -1      1834 4.38289E-13 4.38289E-13 4.38289E-13 0.00000E+00 0.00000E+00 0.00000E+00
 -1      1835 4.42716E-13 4.42716E-13 4.42716E-13 0.00000E+00 0.00000E+00 0.00000E+00
 -1      1836 4.47143E-13 4.47143E-13 4.47143E-13 0.00000E+00 0.00000E+00 0.00000E+00
 -1      1837 4.64852E-13 4.64852E-13 4.64852E-13 0.00000E+00 0.00000E+00 0.00000E+00
 -1      1838 4.64852E-13 4.64852E-13 4.64852E-13 0.00000E+00 0.00000E+00 0.00000E+00
 -1      1839 4.38289E-13 4.38289E-13 4.38289E-13 0.00000E+00 0.00000E+00 0.00000E+00
 -1      1840 4.64852E-13 4.64852E-13 4.64852E-13 0.00000E+00 0.00000E+00 0.00000E+00
 -1      1841 4.38289E-13 4.38289E-13 4.38289E-13 0.00000E+00 0.00000E+00 0.00000E+00
 -1      1842 4.53784E-13 4.53784E-13 4.53784E-13 0.00000E+00 0.00000E+00 0.00000E+00
 -1      1843 4.38289E-13 4.38289E-13 4.38289E-13 0.00000E+00 0.00000E+00 0.00000E+00
 -1      1844 4.64852E-13 4.64852E-13 4.64852E-13 0.00000E+00 0.00000E+00 0.00000E+00
 -1      1845 4.62638E-13 4.62638E-13 4.62638E-13 0.00000E+00 0.00000E+00 0.00000E+00
 -1      1846 4.60425E-13 4.60425E-13 4.60425E-13 0.00000E+00 0.00000E+00 0.00000E+00
 -1      1847 4.62638E-13 4.62638E-13 4.62638E-13 0.00000E+00 0.00000E+00 0.00000E+00
 -1      1848 4.55997E-13 4.55997E-13 4.55997E-13 0.00000E+00 0.00000E+00 0.00000E+00
 -1      1849 4.47143E-13 4.47143E-13 4.47143E-13 0.00000E+00 0.00000E+00 0.00000E+00
 -1      1850 4.42716E-13 4.42716E-13 4.42716E-13 0.00000E+00 0.00000E+00 0.00000E+00
 -1      1851 4.49357E-13 4.49357E-13 4.49357E-13 0.00000E+00 0.00000E+00 0.00000E+00
 -1      1852 4.47143E-13 4.47143E-13 4.47143E-13 0.00000E+00 0.00000E+00 0.00000E+00
 -1      1853 4.53784E-13 4.53784E-13 4.53784E-13 0.00000E+00 0.00000E+00 0.00000E+00
 -1      1854 4.53784E-13 4.53784E-13 4.53784E-13 0.00000E+00 0.00000E+00 0.00000E+00
 -1      1855 4.47143E-13 4.47143E-13 4.47143E-13 0.00000E+00 0.00000E+00 0.00000E+00
 -1      1856 4.51570E-13 4.51570E-13 4.51570E-13 0.00000E+00 0.00000E+00 0.00000E+00
 -1      1857 4.55997E-13 4.55997E-13 4.55997E-13 0.00000E+00 0.00000E+00 0.00000E+00
 -1      1858 4.62638E-13 4.62638E-13 4.62638E-13 0.00000E+00 0.00000E+00 0.00000E+00
 -1      1859 4.40502E-13 4.40502E-13 4.40502E-13 0.00000E+00 0.00000E+00 0.00000E+00
 -1      1860 4.55997E-13 4.55997E-13 4.55997E-13 0.00000E+00 0.00000E+00 0.00000E+00
 -1      1861 4.60425E-13 4.60425E-13 4.60425E-13 0.00000E+00 0.00000E+00 0.00000E+00
 -1      1862 4.60425E-13 4.60425E-13 4.60425E-13 0.00000E+00 0.00000E+00 0.00000E+00
 -1      1863 4.58211E-13 4.58211E-13 4.58211E-13 0.00000E+00 0.00000E+00 0.00000E+00
 -1      1864 4.60425E-13 4.60425E-13 4.60425E-13 0.00000E+00 0.00000E+00 0.00000E+00
 -1      1865 4.58211E-13 4.58211E-13 4.58211E-13 0.00000E+00 0.00000E+00 0.00000E+00
 -1      1866 4.55997E-13 4.55997E-13 4.55997E-13 0.00000E+00 0.00000E+00 0.00000E+00
 -1      1867 4.60425E-13 4.60425E-13 4.60425E-13 0.00000E+00 0.00000E+00 0.00000E+00
 -1      1868 4.58211E-13 4.58211E-13 4.58211E-13 0.00000E+00 0.00000E+00 0.00000E+00
 -1      1869 4.62638E-13 4.62638E-13 4.62638E-13 0.00000E+00 0.00000E+00 0.00000E+00
 -1      1870 4.60425E-13 4.60425E-13 4.60425E-13 0.00000E+00 0.00000E+00 0.00000E+00
 -1      1871 4.58211E-13 4.58211E-13 4.58211E-13 0.00000E+00 0.00000E+00 0.00000E+00
 -1      1872 4.58211E-13 4.58211E-13 4.58211E-13 0.00000E+00 0.00000E+00 0.00000E+00
 -1      1873 4.62638E-13 4.62638E-13 4.62638E-13 0.00000E+00 0.00000E+00 0.00000E+00
 -1      1874 4.64852E-13 4.64852E-13 4.64852E-13 0.00000E+00 0.00000E+00 0.00000E+00
 -1      1875 4.64852E-13 4.64852E-13 4.64852E-13 0.00000E+00 0.00000E+00 0.00000E+00
 -1      1876 4.58211E-13 4.58211E-13 4.58211E-13 0.00000E+00 0.00000E+00 0.00000E+00
 -1      1877 4.49357E-13 4.49357E-13 4.49357E-13 0.00000E+00 0.00000E+00 0.00000E+00
 -1      1878 4.58211E-13 4.58211E-13 4.58211E-13 0.00000E+00 0.00000E+00 0.00000E+00
 -1      1879 4.60425E-13 4.60425E-13 4.60425E-13 0.00000E+00 0.00000E+00 0.00000E+00
 -1      1880 4.55997E-13 4.55997E-13 4.55997E-13 0.00000E+00 0.00000E+00 0.00000E+00
 -1      1881 4.64852E-13 4.64852E-13 4.64852E-13 0.00000E+00 0.00000E+00 0.00000E+00
 -1      1882 4.42716E-13 4.42716E-13 4.42716E-13 0.00000E+00 0.00000E+00 0.00000E+00
 -1      1883 4.38289E-13 4.38289E-13 4.38289E-13 0.00000E+00 0.00000E+00 0.00000E+00
 -1      1884 4.55997E-13 4.55997E-13 4.55997E-13 0.00000E+00 0.00000E+00 0.00000E+00
 -1      1885 4.55997E-13 4.55997E-13 4.55997E-13 0.00000E+00 0.00000E+00 0.00000E+00
 -1      1886 4.44929E-13 4.44929E-13 4.44929E-13 0.00000E+00 0.00000E+00 0.00000E+00
 -1      1887 4.64852E-13 4.64852E-13 4.64852E-13 0.00000E+00 0.00000E+00 0.00000E+00
 -1      1888 4.64852E-13 4.64852E-13 4.64852E-13 0.00000E+00 0.00000E+00 0.00000E+00
 -1      1889 4.53784E-13 4.53784E-13 4.53784E-13 0.00000E+00 0.00000E+00 0.00000E+00
 -1      1890 4.42716E-13 4.42716E-13 4.42716E-13 0.00000E+00 0.00000E+00 0.00000E+00
 -1      1891 4.38289E-13 4.38289E-13 4.38289E-13 0.00000E+00 0.00000E+00 0.00000E+00
 -1      1892 4.38289E-13 4.38289E-13 4.38289E-13 0.00000E+00 0.00000E+00 0.00000E+00
 -1      1893 4.38289E-13 4.38289E-13 4.38289E-13 0.00000E+00 0.00000E+00 0.00000E+00
 -1      1894 4.60425E-13 4.60425E-13 4.60425E-13 0.00000E+00 0.00000E+00 0.00000E+00
 -1      1895 4.60425E-13 4.60425E-13 4.60425E-13 0.00000E+00 0.00000E+00 0.00000E+00
 -1      1896 4.58211E-13 4.58211E-13 4.58211E-13 0.00000E+00 0.00000E+00 0.00000E+00
 -1      1897 4.60425E-13 4.60425E-13 4.60425E-13 0.00000E+00 0.00000E+00 0.00000E+00
 -1      1898 4.62638E-13 4.62638E-13 4.62638E-13 0.00000E+00 0.00000E+00 0.00000E+00
 -1      1899 4.60425E-13 4.60425E-13 4.60425E-13 0.00000E+00 0.00000E+00 0.00000E+00
 -1      1900 4.44929E-13 4.44929E-13 4.44929E-13 0.00000E+00 0.00000E+00 0.00000E+00
 -1      1901 4.49357E-13 4.49357E-13 4.49357E-13 0.00000E+00 0.00000E+00 0.00000E+00
 -1      1902 4.47143E-13 4.47143E-13 4.47143E-13 0.00000E+00 0.00000E+00 0.00000E+00
 -1      1903 4.38289E-13 4.38289E-13 4.38289E-13 0.00000E+00 0.00000E+00 0.00000E+00
 -1      1904 4.42716E-13 4.42716E-13 4.42716E-13 0.00000E+00 0.00000E+00 0.00000E+00
 -1      1905 4.64852E-13 4.64852E-13 4.64852E-13 0.00000E+00 0.00000E+00 0.00000E+00
 -1      1906 4.53784E-13 4.53784E-13 4.53784E-13 0.00000E+00 0.00000E+00 0.00000E+00
 -1      1907 4.64852E-13 4.64852E-13 4.64852E-13 0.00000E+00 0.00000E+00 0.00000E+00
 -1      1908 4.51570E-13 4.51570E-13 4.51570E-13 0.00000E+00 0.00000E+00 0.00000E+00
 -1      1909 4.64852E-13 4.64852E-13 4.64852E-13 0.00000E+00 0.00000E+00 0.00000E+00
 -1      1910 4.64852E-13 4.64852E-13 4.64852E-13 0.00000E+00 0.00000E+00 0.00000E+00
 -1      1911 4.51570E-13 4.51570E-13 4.51570E-13 0.00000E+00 0.00000E+00 0.00000E+00
 -1      1912 4.64852E-13 4.64852E-13 4.64852E-13 0.00000E+00 0.00000E+00 0.00000E+00
 -1      1913 4.64852E-13 4.64852E-13 4.64852E-13 0.00000E+00 0.00000E+00 0.00000E+00
 -1      1914 4.38289E-13 4.38289E-13 4.38289E-13 0.00000E+00 0.00000E+00 0.00000E+00
 -1      1915 4.38289E-13 4.38289E-13 4.38289E-13 0.00000E+00 0.00000E+00 0.00000E+00
 -1      1916 4.42083E-13 4.42083E-13 4.42083E-13 0.00000E+00 0.00000E+00 0.00000E+00
 -1      1917 4.58211E-13 4.58211E-13 4.58211E-13 0.00000E+00 0.00000E+00 0.00000E+00
 -1      1918 4.38289E-13 4.38289E-13 4.38289E-13 0.00000E+00 0.00000E+00 0.00000E+00
 -1      1919 4.40502E-13 4.40502E-13 4.40502E-13 0.00000E+00 0.00000E+00 0.00000E+00
 -1      1920 4.59160E-13 4.59160E-13 4.59160E-13 0.00000E+00 0.00000E+00 0.00000E+00
 -1      1921 4.64852E-13 4.64852E-13 4.64852E-13 0.00000E+00 0.00000E+00 0.00000E+00
 -1      1922 4.64852E-13 4.64852E-13 4.64852E-13 0.00000E+00 0.00000E+00 0.00000E+00
 -1      1923 4.64852E-13 4.64852E-13 4.64852E-13 0.00000E+00 0.00000E+00 0.00000E+00
 -1      1924 4.64852E-13 4.64852E-13 4.64852E-13 0.00000E+00 0.00000E+00 0.00000E+00
 -1      1925 4.38289E-13 4.38289E-13 4.38289E-13 0.00000E+00 0.00000E+00 0.00000E+00
 -1      1926 4.40502E-13 4.40502E-13 4.40502E-13 0.00000E+00 0.00000E+00 0.00000E+00
 -1      1927 4.64852E-13 4.64852E-13 4.64852E-13 0.00000E+00 0.00000E+00 0.00000E+00
 -1      1928 4.64852E-13 4.64852E-13 4.64852E-13 0.00000E+00 0.00000E+00 0.00000E+00
 -1      1929 4.46258E-13 4.46258E-13 4.46258E-13 0.00000E+00 0.00000E+00 0.00000E+00
 -1      1930 4.38289E-13 4.38289E-13 4.38289E-13 0.00000E+00 0.00000E+00 0.00000E+00
 -1      1931 4.59539E-13 4.59539E-13 4.59539E-13 0.00000E+00 0.00000E+00 0.00000E+00
 -1      1932 4.64852E-13 4.64852E-13 4.64852E-13 0.00000E+00 0.00000E+00 0.00000E+00
 -1      1933 4.38289E-13 4.38289E-13 4.38289E-13 0.00000E+00 0.00000E+00 0.00000E+00
 -1      1934 4.60425E-13 4.60425E-13 4.60425E-13 0.00000E+00 0.00000E+00 0.00000E+00
 -1      1935 4.64852E-13 4.64852E-13 4.64852E-13 0.00000E+00 0.00000E+00 0.00000E+00
 -1      1936 4.64852E-13 4.64852E-13 4.64852E-13 0.00000E+00 0.00000E+00 0.00000E+00
 -1      1937 4.64852E-13 4.64852E-13 4.64852E-13 0.00000E+00 0.00000E+00 0.00000E+00
 -1      1938 4.64852E-13 4.64852E-13 4.64852E-13 0.00000E+00 0.00000E+00 0.00000E+00
 -1      1939 4.38289E-13 4.38289E-13 4.38289E-13 0.00000E+00 0.00000E+00 0.00000E+00
 -1      1940 4.44929E-13 4.44929E-13 4.44929E-13 0.00000E+00 0.00000E+00 0.00000E+00
 -1      1941 4.43981E-13 4.43981E-13 4.43981E-13 0.00000E+00 0.00000E+00 0.00000E+00
 -1      1942 4.38289E-13 4.38289E-13 4.38289E-13 0.00000E+00 0.00000E+00 0.00000E+00
 -1      1943 4.53784E-13 4.53784E-13 4.53784E-13 0.00000E+00 0.00000E+00 0.00000E+00
 -1      1944 4.60425E-13 4.60425E-13 4.60425E-13 0.00000E+00 0.00000E+00 0.00000E+00
 -1      1945 4.42716E-13 4.42716E-13 4.42716E-13 0.00000E+00 0.00000E+00 0.00000E+00
 -1      1946 4.38289E-13 4.38289E-13 4.38289E-13 0.00000E+00 0.00000E+00 0.00000E+00
 -1      1947 4.38289E-13 4.38289E-13 4.38289E-13 0.00000E+00 0.00000E+00 0.00000E+00
 -1      1948 4.38289E-13 4.38289E-13 4.38289E-13 0.00000E+00 0.00000E+00 0.00000E+00
 -1      1949 4.38289E-13 4.38289E-13 4.38289E-13 0.00000E+00 0.00000E+00 0.00000E+00
 -1      1950 4.38289E-13 4.38289E-13 4.38289E-13 0.00000E+00 0.00000E+00 0.00000E+00
 -1      1951 4.38289E-13 4.38289E-13 4.38289E-13 0.00000E+00 0.00000E+00 0.00000E+00
 -1      1952 4.42716E-13 4.42716E-13 4.42716E-13 0.00000E+00 0.00000E+00 0.00000E+00
 -1      1953 4.38289E-13 4.38289E-13 4.38289E-13 0.00000E+00 0.00000E+00 0.00000E+00
 -1      1954 4.42716E-13 4.42716E-13 4.42716E-13 0.00000E+00 0.00000E+00 0.00000E+00
 -1      1955 4.38289E-13 4.38289E-13 4.38289E-13 0.00000E+00 0.00000E+00 0.00000E+00
 -1      1956 4.38289E-13 4.38289E-13 4.38289E-13 0.00000E+00 0.00000E+00 0.00000E+00
 -1      1957 4.38289E-13 4.38289E-13 4.38289E-13 0.00000E+00 0.00000E+00 0.00000E+00
 -1      1958 4.42716E-13 4.42716E-13 4.42716E-13 0.00000E+00 0.00000E+00 0.00000E+00
 -1      1959 4.47143E-13 4.47143E-13 4.47143E-13 0.00000E+00 0.00000E+00 0.00000E+00
 -1      1960 4.42716E-13 4.42716E-13 4.42716E-13 0.00000E+00 0.00000E+00 0.00000E+00
 -1      1961 4.49357E-13 4.49357E-13 4.49357E-13 0.00000E+00 0.00000E+00 0.00000E+00
 -1      1962 4.55997E-13 4.55997E-13 4.55997E-13 0.00000E+00 0.00000E+00 0.00000E+00
 -1      1963 4.58211E-13 4.58211E-13 4.58211E-13 0.00000E+00 0.00000E+00 0.00000E+00
 -1      1964 4.51570E-13 4.51570E-13 4.51570E-13 0.00000E+00 0.00000E+00 0.00000E+00
 -1      1965 4.51570E-13 4.51570E-13 4.51570E-13 0.00000E+00 0.00000E+00 0.00000E+00
 -1      1966 4.64852E-13 4.64852E-13 4.64852E-13 0.00000E+00 0.00000E+00 0.00000E+00
 -1      1967 4.60425E-13 4.60425E-13 4.60425E-13 0.00000E+00 0.00000E+00 0.00000E+00
 -1      1968 4.60425E-13 4.60425E-13 4.60425E-13 0.00000E+00 0.00000E+00 0.00000E+00
 -1      1969 4.58211E-13 4.58211E-13 4.58211E-13 0.00000E+00 0.00000E+00 0.00000E+00
 -1      1970 4.42716E-13 4.42716E-13 4.42716E-13 0.00000E+00 0.00000E+00 0.00000E+00
 -1      1971 4.47143E-13 4.47143E-13 4.47143E-13 0.00000E+00 0.00000E+00 0.00000E+00
 -1      1972 4.58211E-13 4.58211E-13 4.58211E-13 0.00000E+00 0.00000E+00 0.00000E+00
 -1      1973 4.49357E-13 4.49357E-13 4.49357E-13 0.00000E+00 0.00000E+00 0.00000E+00
 -1      1974 4.44929E-13 4.44929E-13 4.44929E-13 0.00000E+00 0.00000E+00 0.00000E+00
 -1      1975 4.38289E-13 4.38289E-13 4.38289E-13 0.00000E+00 0.00000E+00 0.00000E+00
 -1      1976 4.42716E-13 4.42716E-13 4.42716E-13 0.00000E+00 0.00000E+00 0.00000E+00
 -1      1977 4.44929E-13 4.44929E-13 4.44929E-13 0.00000E+00 0.00000E+00 0.00000E+00
 -1      1978 4.47143E-13 4.47143E-13 4.47143E-13 0.00000E+00 0.00000E+00 0.00000E+00
 -1      1979 4.49357E-13 4.49357E-13 4.49357E-13 0.00000E+00 0.00000E+00 0.00000E+00
 -1      1980 4.60425E-13 4.60425E-13 4.60425E-13 0.00000E+00 0.00000E+00 0.00000E+00
 -1      1981 4.49357E-13 4.49357E-13 4.49357E-13 0.00000E+00 0.00000E+00 0.00000E+00
 -1      1982 4.47143E-13 4.47143E-13 4.47143E-13 0.00000E+00 0.00000E+00 0.00000E+00
 -1      1983 4.42716E-13 4.42716E-13 4.42716E-13 0.00000E+00 0.00000E+00 0.00000E+00
 -1      1984 4.38289E-13 4.38289E-13 4.38289E-13 0.00000E+00 0.00000E+00 0.00000E+00
 -1      1985 4.47143E-13 4.47143E-13 4.47143E-13 0.00000E+00 0.00000E+00 0.00000E+00
 -1      1986 4.64852E-13 4.64852E-13 4.64852E-13 0.00000E+00 0.00000E+00 0.00000E+00
 -1      1987 4.55997E-13 4.55997E-13 4.55997E-13 0.00000E+00 0.00000E+00 0.00000E+00
 -1      1988 4.47143E-13 4.47143E-13 4.47143E-13 0.00000E+00 0.00000E+00 0.00000E+00
 -1      1989 4.38289E-13 4.38289E-13 4.38289E-13 0.00000E+00 0.00000E+00 0.00000E+00
 -1      1990 4.38289E-13 4.38289E-13 4.38289E-13 0.00000E+00 0.00000E+00 0.00000E+00
 -1      1991 4.38289E-13 4.38289E-13 4.38289E-13 0.00000E+00 0.00000E+00 0.00000E+00
 -1      1992 4.38289E-13 4.38289E-13 4.38289E-13 0.00000E+00 0.00000E+00 0.00000E+00
 -1      1993 4.38289E-13 4.38289E-13 4.38289E-13 0.00000E+00 0.00000E+00 0.00000E+00
 -1      1994 4.38289E-13 4.38289E-13 4.38289E-13 0.00000E+00 0.00000E+00 0.00000E+00
 -1      1995 4.42716E-13 4.42716E-13 4.42716E-13 0.00000E+00 0.00000E+00 0.00000E+00
 -1      1996 4.40502E-13 4.40502E-13 4.40502E-13 0.00000E+00 0.00000E+00 0.00000E+00
 -1      1997 4.49357E-13 4.49357E-13 4.49357E-13 0.00000E+00 0.00000E+00 0.00000E+00
 -1      1998 4.40502E-13 4.40502E-13 4.40502E-13 0.00000E+00 0.00000E+00 0.00000E+00
 -1      1999 4.42716E-13 4.42716E-13 4.42716E-13 0.00000E+00 0.00000E+00 0.00000E+00
 -1      2000 4.42716E-13 4.42716E-13 4.42716E-13 0.00000E+00 0.00000E+00 0.00000E+00
 -1      2001 4.38289E-13 4.38289E-13 4.38289E-13 0.00000E+00 0.00000E+00 0.00000E+00
 -1      2002 4.38289E-13 4.38289E-13 4.38289E-13 0.00000E+00 0.00000E+00 0.00000E+00
 -1      2003 4.38289E-13 4.38289E-13 4.38289E-13 0.00000E+00 0.00000E+00 0.00000E+00
 -1      2004 4.38289E-13 4.38289E-13 4.38289E-13 0.00000E+00 0.00000E+00 0.00000E+00
 -1      2005 4.38289E-13 4.38289E-13 4.38289E-13 0.00000E+00 0.00000E+00 0.00000E+00
 -1      2006 4.38289E-13 4.38289E-13 4.38289E-13 0.00000E+00 0.00000E+00 0.00000E+00
 -1      2007 4.42716E-13 4.42716E-13 4.42716E-13 0.00000E+00 0.00000E+00 0.00000E+00
 -1      2008 4.42716E-13 4.42716E-13 4.42716E-13 0.00000E+00 0.00000E+00 0.00000E+00
 -1      2009 4.38289E-13 4.38289E-13 4.38289E-13 0.00000E+00 0.00000E+00 0.00000E+00
 -1      2010 4.42716E-13 4.42716E-13 4.42716E-13 0.00000E+00 0.00000E+00 0.00000E+00
 -1      2011 4.38289E-13 4.38289E-13 4.38289E-13 0.00000E+00 0.00000E+00 0.00000E+00
 -1      2012 4.38289E-13 4.38289E-13 4.38289E-13 0.00000E+00 0.00000E+00 0.00000E+00
 -1      2013 4.42716E-13 4.42716E-13 4.42716E-13 0.00000E+00 0.00000E+00 0.00000E+00
 -1      2014 4.38289E-13 4.38289E-13 4.38289E-13 0.00000E+00 0.00000E+00 0.00000E+00
 -1      2015 4.38289E-13 4.38289E-13 4.38289E-13 0.00000E+00 0.00000E+00 0.00000E+00
 -1      2016 4.40502E-13 4.40502E-13 4.40502E-13 0.00000E+00 0.00000E+00 0.00000E+00
 -1      2017 4.55997E-13 4.55997E-13 4.55997E-13 0.00000E+00 0.00000E+00 0.00000E+00
 -1      2018 4.49357E-13 4.49357E-13 4.49357E-13 0.00000E+00 0.00000E+00 0.00000E+00
 -1      2019 4.60425E-13 4.60425E-13 4.60425E-13 0.00000E+00 0.00000E+00 0.00000E+00
 -1      2020 4.51570E-13 4.51570E-13 4.51570E-13 0.00000E+00 0.00000E+00 0.00000E+00
 -1      2021 4.47143E-13 4.47143E-13 4.47143E-13 0.00000E+00 0.00000E+00 0.00000E+00
 -1      2022 4.53784E-13 4.53784E-13 4.53784E-13 0.00000E+00 0.00000E+00 0.00000E+00
 -1      2023 4.38289E-13 4.38289E-13 4.38289E-13 0.00000E+00 0.00000E+00 0.00000E+00
 -1      2024 4.38289E-13 4.38289E-13 4.38289E-13 0.00000E+00 0.00000E+00 0.00000E+00
 -1      2025 4.53784E-13 4.53784E-13 4.53784E-13 0.00000E+00 0.00000E+00 0.00000E+00
 -1      2026 4.58211E-13 4.58211E-13 4.58211E-13 0.00000E+00 0.00000E+00 0.00000E+00
 -1      2027 4.64852E-13 4.64852E-13 4.64852E-13 0.00000E+00 0.00000E+00 0.00000E+00
 -1      2028 4.64852E-13 4.64852E-13 4.64852E-13 0.00000E+00 0.00000E+00 0.00000E+00
 -1      2029 4.58211E-13 4.58211E-13 4.58211E-13 0.00000E+00 0.00000E+00 0.00000E+00
 -1      2030 4.42716E-13 4.42716E-13 4.42716E-13 0.00000E+00 0.00000E+00 0.00000E+00
 -1      2031 4.38289E-13 4.38289E-13 4.38289E-13 0.00000E+00 0.00000E+00 0.00000E+00
 -1      2032 4.38289E-13 4.38289E-13 4.38289E-13 0.00000E+00 0.00000E+00 0.00000E+00
 -1      2033 4.38289E-13 4.38289E-13 4.38289E-13 0.00000E+00 0.00000E+00 0.00000E+00
 -1      2034 4.38289E-13 4.38289E-13 4.38289E-13 0.00000E+00 0.00000E+00 0.00000E+00
 -1      2035 4.62638E-13 4.62638E-13 4.62638E-13 0.00000E+00 0.00000E+00 0.00000E+00
 -1      2036 4.64852E-13 4.64852E-13 4.64852E-13 0.00000E+00 0.00000E+00 0.00000E+00
 -1      2037 4.47143E-13 4.47143E-13 4.47143E-13 0.00000E+00 0.00000E+00 0.00000E+00
 -1      2038 4.38289E-13 4.38289E-13 4.38289E-13 0.00000E+00 0.00000E+00 0.00000E+00
 -1      2039 4.51570E-13 4.51570E-13 4.51570E-13 0.00000E+00 0.00000E+00 0.00000E+00
 -1      2040 4.64852E-13 4.64852E-13 4.64852E-13 0.00000E+00 0.00000E+00 0.00000E+00
 -1      2041 4.60425E-13 4.60425E-13 4.60425E-13 0.00000E+00 0.00000E+00 0.00000E+00
 -1      2042 4.64852E-13 4.64852E-13 4.64852E-13 0.00000E+00 0.00000E+00 0.00000E+00
 -1      2043 4.47143E-13 4.47143E-13 4.47143E-13 0.00000E+00 0.00000E+00 0.00000E+00
 -1      2044 4.60425E-13 4.60425E-13 4.60425E-13 0.00000E+00 0.00000E+00 0.00000E+00
 -1      2045 4.64852E-13 4.64852E-13 4.64852E-13 0.00000E+00 0.00000E+00 0.00000E+00
 -1      2046 4.38289E-13 4.38289E-13 4.38289E-13 0.00000E+00 0.00000E+00 0.00000E+00
 -1      2047 4.59160E-13 4.59160E-13 4.59160E-13 0.00000E+00 0.00000E+00 0.00000E+00
 -1      2048 4.62638E-13 4.62638E-13 4.62638E-13 0.00000E+00 0.00000E+00 0.00000E+00
 -1      2049 4.38289E-13 4.38289E-13 4.38289E-13 0.00000E+00 0.00000E+00 0.00000E+00
 -1      2050 4.44929E-13 4.44929E-13 4.44929E-13 0.00000E+00 0.00000E+00 0.00000E+00
 -1      2051 4.64852E-13 4.64852E-13 4.64852E-13 0.00000E+00 0.00000E+00 0.00000E+00
 -1      2052 4.64852E-13 4.64852E-13 4.64852E-13 0.00000E+00 0.00000E+00 0.00000E+00
 -1      2053 4.53784E-13 4.53784E-13 4.53784E-13 0.00000E+00 0.00000E+00 0.00000E+00
 -1      2054 4.38289E-13 4.38289E-13 4.38289E-13 0.00000E+00 0.00000E+00 0.00000E+00
 -1      2055 4.38289E-13 4.38289E-13 4.38289E-13 0.00000E+00 0.00000E+00 0.00000E+00
 -1      2056 4.51570E-13 4.51570E-13 4.51570E-13 0.00000E+00 0.00000E+00 0.00000E+00
 -1      2057 4.64852E-13 4.64852E-13 4.64852E-13 0.00000E+00 0.00000E+00 0.00000E+00
 -1      2058 4.51570E-13 4.51570E-13 4.51570E-13 0.00000E+00 0.00000E+00 0.00000E+00
 -1      2059 4.64852E-13 4.64852E-13 4.64852E-13 0.00000E+00 0.00000E+00 0.00000E+00
 -1      2060 4.49357E-13 4.49357E-13 4.49357E-13 0.00000E+00 0.00000E+00 0.00000E+00
 -1      2061 4.64852E-13 4.64852E-13 4.64852E-13 0.00000E+00 0.00000E+00 0.00000E+00
 -1      2062 4.38289E-13 4.38289E-13 4.38289E-13 0.00000E+00 0.00000E+00 0.00000E+00
 -1      2063 4.62638E-13 4.62638E-13 4.62638E-13 0.00000E+00 0.00000E+00 0.00000E+00
 -1      2064 4.49357E-13 4.49357E-13 4.49357E-13 0.00000E+00 0.00000E+00 0.00000E+00
 -1      2065 4.64852E-13 4.64852E-13 4.64852E-13 0.00000E+00 0.00000E+00 0.00000E+00
 -1      2066 4.59160E-13 4.59160E-13 4.59160E-13 0.00000E+00 0.00000E+00 0.00000E+00
 -1      2067 4.38289E-13 4.38289E-13 4.38289E-13 0.00000E+00 0.00000E+00 0.00000E+00
 -1      2068 4.64852E-13 4.64852E-13 4.64852E-13 0.00000E+00 0.00000E+00 0.00000E+00
 -1      2069 4.64852E-13 4.64852E-13 4.64852E-13 0.00000E+00 0.00000E+00 0.00000E+00
 -1      2070 4.53784E-13 4.53784E-13 4.53784E-13 0.00000E+00 0.00000E+00 0.00000E+00
 -1      2071 4.64852E-13 4.64852E-13 4.64852E-13 0.00000E+00 0.00000E+00 0.00000E+00
 -1      2072 4.38289E-13 4.38289E-13 4.38289E-13 0.00000E+00 0.00000E+00 0.00000E+00
 -1      2073 4.38289E-13 4.38289E-13 4.38289E-13 0.00000E+00 0.00000E+00 0.00000E+00
 -1      2074 4.64852E-13 4.64852E-13 4.64852E-13 0.00000E+00 0.00000E+00 0.00000E+00
 -1      2075 4.62954E-13 4.62954E-13 4.62954E-13 0.00000E+00 0.00000E+00 0.00000E+00
 -1      2076 4.42716E-13 4.42716E-13 4.42716E-13 0.00000E+00 0.00000E+00 0.00000E+00
 -1      2077 4.64852E-13 4.64852E-13 4.64852E-13 0.00000E+00 0.00000E+00 0.00000E+00
 -1      2078 4.38289E-13 4.38289E-13 4.38289E-13 0.00000E+00 0.00000E+00 0.00000E+00
 -1      2079 4.38289E-13 4.38289E-13 4.38289E-13 0.00000E+00 0.00000E+00 0.00000E+00
 -1      2080 4.64852E-13 4.64852E-13 4.64852E-13 0.00000E+00 0.00000E+00 0.00000E+00
 -1      2081 4.64852E-13 4.64852E-13 4.64852E-13 0.00000E+00 0.00000E+00 0.00000E+00
 -1      2082 4.64852E-13 4.64852E-13 4.64852E-13 0.00000E+00 0.00000E+00 0.00000E+00
 -1      2083 4.42716E-13 4.42716E-13 4.42716E-13 0.00000E+00 0.00000E+00 0.00000E+00
 -1      2084 4.42716E-13 4.42716E-13 4.42716E-13 0.00000E+00 0.00000E+00 0.00000E+00
 -1      2085 4.58211E-13 4.58211E-13 4.58211E-13 0.00000E+00 0.00000E+00 0.00000E+00
 -1      2086 4.53784E-13 4.53784E-13 4.53784E-13 0.00000E+00 0.00000E+00 0.00000E+00
 -1      2087 4.53784E-13 4.53784E-13 4.53784E-13 0.00000E+00 0.00000E+00 0.00000E+00
 -1      2088 4.55997E-13 4.55997E-13 4.55997E-13 0.00000E+00 0.00000E+00 0.00000E+00
 -1      2089 4.38289E-13 4.38289E-13 4.38289E-13 0.00000E+00 0.00000E+00 0.00000E+00
 -1      2090 4.38289E-13 4.38289E-13 4.38289E-13 0.00000E+00 0.00000E+00 0.00000E+00
 -1      2091 4.40502E-13 4.40502E-13 4.40502E-13 0.00000E+00 0.00000E+00 0.00000E+00
 -1      2092 4.40502E-13 4.40502E-13 4.40502E-13 0.00000E+00 0.00000E+00 0.00000E+00
 -1      2093 4.42716E-13 4.42716E-13 4.42716E-13 0.00000E+00 0.00000E+00 0.00000E+00
 -1      2094 4.44929E-13 4.44929E-13 4.44929E-13 0.00000E+00 0.00000E+00 0.00000E+00
 -1      2095 4.58211E-13 4.58211E-13 4.58211E-13 0.00000E+00 0.00000E+00 0.00000E+00
 -1      2096 4.62638E-13 4.62638E-13 4.62638E-13 0.00000E+00 0.00000E+00 0.00000E+00
 -1      2097 4.51570E-13 4.51570E-13 4.51570E-13 0.00000E+00 0.00000E+00 0.00000E+00
 -1      2098 4.62638E-13 4.62638E-13 4.62638E-13 0.00000E+00 0.00000E+00 0.00000E+00
 -1      2099 4.62638E-13 4.62638E-13 4.62638E-13 0.00000E+00 0.00000E+00 0.00000E+00
 -1      2100 4.60425E-13 4.60425E-13 4.60425E-13 0.00000E+00 0.00000E+00 0.00000E+00
 -1      2101 4.64852E-13 4.64852E-13 4.64852E-13 0.00000E+00 0.00000E+00 0.00000E+00
 -1      2102 4.64852E-13 4.64852E-13 4.64852E-13 0.00000E+00 0.00000E+00 0.00000E+00
 -1      2103 4.64852E-13 4.64852E-13 4.64852E-13 0.00000E+00 0.00000E+00 0.00000E+00
 -1      2104 4.42716E-13 4.42716E-13 4.42716E-13 0.00000E+00 0.00000E+00 0.00000E+00
 -1      2105 4.38289E-13 4.38289E-13 4.38289E-13 0.00000E+00 0.00000E+00 0.00000E+00
 -1      2106 4.64852E-13 4.64852E-13 4.64852E-13 0.00000E+00 0.00000E+00 0.00000E+00
 -1      2107 4.53784E-13 4.53784E-13 4.53784E-13 0.00000E+00 0.00000E+00 0.00000E+00
 -1      2108 4.64852E-13 4.64852E-13 4.64852E-13 0.00000E+00 0.00000E+00 0.00000E+00
 -1      2109 4.47143E-13 4.47143E-13 4.47143E-13 0.00000E+00 0.00000E+00 0.00000E+00
 -1      2110 4.42716E-13 4.42716E-13 4.42716E-13 0.00000E+00 0.00000E+00 0.00000E+00
 -1      2111 4.64852E-13 4.64852E-13 4.64852E-13 0.00000E+00 0.00000E+00 0.00000E+00
 -1      2112 4.64852E-13 4.64852E-13 4.64852E-13 0.00000E+00 0.00000E+00 0.00000E+00
 -1      2113 4.38289E-13 4.38289E-13 4.38289E-13 0.00000E+00 0.00000E+00 0.00000E+00
 -1      2114 4.38289E-13 4.38289E-13 4.38289E-13 0.00000E+00 0.00000E+00 0.00000E+00
 -1      2115 4.62638E-13 4.62638E-13 4.62638E-13 0.00000E+00 0.00000E+00 0.00000E+00
 -1      2116 4.62638E-13 4.62638E-13 4.62638E-13 0.00000E+00 0.00000E+00 0.00000E+00
 -1      2117 4.38289E-13 4.38289E-13 4.38289E-13 0.00000E+00 0.00000E+00 0.00000E+00
 -1      2118 4.38289E-13 4.38289E-13 4.38289E-13 0.00000E+00 0.00000E+00 0.00000E+00
 -1      2119 4.51570E-13 4.51570E-13 4.51570E-13 0.00000E+00 0.00000E+00 0.00000E+00
 -1      2120 4.38289E-13 4.38289E-13 4.38289E-13 0.00000E+00 0.00000E+00 0.00000E+00
 -1      2121 4.64852E-13 4.64852E-13 4.64852E-13 0.00000E+00 0.00000E+00 0.00000E+00
 -1      2122 4.42716E-13 4.42716E-13 4.42716E-13 0.00000E+00 0.00000E+00 0.00000E+00
 -1      2123 4.60425E-13 4.60425E-13 4.60425E-13 0.00000E+00 0.00000E+00 0.00000E+00
 -1      2124 4.64852E-13 4.64852E-13 4.64852E-13 0.00000E+00 0.00000E+00 0.00000E+00
 -1      2125 4.38289E-13 4.38289E-13 4.38289E-13 0.00000E+00 0.00000E+00 0.00000E+00
 -1      2126 4.38289E-13 4.38289E-13 4.38289E-13 0.00000E+00 0.00000E+00 0.00000E+00
 -1      2127 4.47143E-13 4.47143E-13 4.47143E-13 0.00000E+00 0.00000E+00 0.00000E+00
 -1      2128 4.42716E-13 4.42716E-13 4.42716E-13 0.00000E+00 0.00000E+00 0.00000E+00
 -1      2129 4.64852E-13 4.64852E-13 4.64852E-13 0.00000E+00 0.00000E+00 0.00000E+00
 -1      2130 4.64852E-13 4.64852E-13 4.64852E-13 0.00000E+00 0.00000E+00 0.00000E+00
 -1      2131 4.38289E-13 4.38289E-13 4.38289E-13 0.00000E+00 0.00000E+00 0.00000E+00
 -1      2132 4.38289E-13 4.38289E-13 4.38289E-13 0.00000E+00 0.00000E+00 0.00000E+00
 -1      2133 4.64852E-13 4.64852E-13 4.64852E-13 0.00000E+00 0.00000E+00 0.00000E+00
 -1      2134 4.64852E-13 4.64852E-13 4.64852E-13 0.00000E+00 0.00000E+00 0.00000E+00
 -1      2135 4.64852E-13 4.64852E-13 4.64852E-13 0.00000E+00 0.00000E+00 0.00000E+00
 -1      2136 4.38289E-13 4.38289E-13 4.38289E-13 0.00000E+00 0.00000E+00 0.00000E+00
 -1      2137 4.42716E-13 4.42716E-13 4.42716E-13 0.00000E+00 0.00000E+00 0.00000E+00
 -1      2138 4.64852E-13 4.64852E-13 4.64852E-13 0.00000E+00 0.00000E+00 0.00000E+00
 -1      2139 4.62638E-13 4.62638E-13 4.62638E-13 0.00000E+00 0.00000E+00 0.00000E+00
 -1      2140 4.55997E-13 4.55997E-13 4.55997E-13 0.00000E+00 0.00000E+00 0.00000E+00
 -1      2141 4.64852E-13 4.64852E-13 4.64852E-13 0.00000E+00 0.00000E+00 0.00000E+00
 -1      2142 4.38289E-13 4.38289E-13 4.38289E-13 0.00000E+00 0.00000E+00 0.00000E+00
 -1      2143 4.64852E-13 4.64852E-13 4.64852E-13 0.00000E+00 0.00000E+00 0.00000E+00
 -1      2144 4.64852E-13 4.64852E-13 4.64852E-13 0.00000E+00 0.00000E+00 0.00000E+00
 -1      2145 4.62638E-13 4.62638E-13 4.62638E-13 0.00000E+00 0.00000E+00 0.00000E+00
 -1      2146 4.38289E-13 4.38289E-13 4.38289E-13 0.00000E+00 0.00000E+00 0.00000E+00
 -1      2147 4.38289E-13 4.38289E-13 4.38289E-13 0.00000E+00 0.00000E+00 0.00000E+00
 -1      2148 4.64852E-13 4.64852E-13 4.64852E-13 0.00000E+00 0.00000E+00 0.00000E+00
 -1      2149 4.64852E-13 4.64852E-13 4.64852E-13 0.00000E+00 0.00000E+00 0.00000E+00
 -1      2150 4.64852E-13 4.64852E-13 4.64852E-13 0.00000E+00 0.00000E+00 0.00000E+00
 -1      2151 4.64852E-13 4.64852E-13 4.64852E-13 0.00000E+00 0.00000E+00 0.00000E+00
 -1      2152 4.64852E-13 4.64852E-13 4.64852E-13 0.00000E+00 0.00000E+00 0.00000E+00
 -1      2153 4.64852E-13 4.64852E-13 4.64852E-13 0.00000E+00 0.00000E+00 0.00000E+00
 -1      2154 4.64852E-13 4.64852E-13 4.64852E-13 0.00000E+00 0.00000E+00 0.00000E+00
 -1      2155 4.64852E-13 4.64852E-13 4.64852E-13 0.00000E+00 0.00000E+00 0.00000E+00
 -1      2156 4.64852E-13 4.64852E-13 4.64852E-13 0.00000E+00 0.00000E+00 0.00000E+00
 -1      2157 4.64852E-13 4.64852E-13 4.64852E-13 0.00000E+00 0.00000E+00 0.00000E+00
 -1      2158 4.60425E-13 4.60425E-13 4.60425E-13 0.00000E+00 0.00000E+00 0.00000E+00
 -1      2159 4.58211E-13 4.58211E-13 4.58211E-13 0.00000E+00 0.00000E+00 0.00000E+00
 -1      2160 4.49357E-13 4.49357E-13 4.49357E-13 0.00000E+00 0.00000E+00 0.00000E+00
 -1      2161 4.60425E-13 4.60425E-13 4.60425E-13 0.00000E+00 0.00000E+00 0.00000E+00
 -1      2162 4.51570E-13 4.51570E-13 4.51570E-13 0.00000E+00 0.00000E+00 0.00000E+00
 -1      2163 4.55997E-13 4.55997E-13 4.55997E-13 0.00000E+00 0.00000E+00 0.00000E+00
 -1      2164 4.38289E-13 4.38289E-13 4.38289E-13 0.00000E+00 0.00000E+00 0.00000E+00
 -1      2165 4.38289E-13 4.38289E-13 4.38289E-13 0.00000E+00 0.00000E+00 0.00000E+00
 -1      2166 4.38289E-13 4.38289E-13 4.38289E-13 0.00000E+00 0.00000E+00 0.00000E+00
 -1      2167 4.64852E-13 4.64852E-13 4.64852E-13 0.00000E+00 0.00000E+00 0.00000E+00
 -1      2168 4.64852E-13 4.64852E-13 4.64852E-13 0.00000E+00 0.00000E+00 0.00000E+00
 -1      2169 4.49357E-13 4.49357E-13 4.49357E-13 0.00000E+00 0.00000E+00 0.00000E+00
 -1      2170 4.62638E-13 4.62638E-13 4.62638E-13 0.00000E+00 0.00000E+00 0.00000E+00
 -1      2171 4.64852E-13 4.64852E-13 4.64852E-13 0.00000E+00 0.00000E+00 0.00000E+00
 -1      2172 4.44929E-13 4.44929E-13 4.44929E-13 0.00000E+00 0.00000E+00 0.00000E+00
 -1      2173 4.44929E-13 4.44929E-13 4.44929E-13 0.00000E+00 0.00000E+00 0.00000E+00
 -1      2174 4.64852E-13 4.64852E-13 4.64852E-13 0.00000E+00 0.00000E+00 0.00000E+00
 -1      2175 4.42716E-13 4.42716E-13 4.42716E-13 0.00000E+00 0.00000E+00 0.00000E+00
 -1      2176 4.38289E-13 4.38289E-13 4.38289E-13 0.00000E+00 0.00000E+00 0.00000E+00
 -1      2177 4.38289E-13 4.38289E-13 4.38289E-13 0.00000E+00 0.00000E+00 0.00000E+00
 -1      2178 4.38289E-13 4.38289E-13 4.38289E-13 0.00000E+00 0.00000E+00 0.00000E+00
 -1      2179 4.38289E-13 4.38289E-13 4.38289E-13 0.00000E+00 0.00000E+00 0.00000E+00
 -1      2180 4.64852E-13 4.64852E-13 4.64852E-13 0.00000E+00 0.00000E+00 0.00000E+00
 -1      2181 4.64852E-13 4.64852E-13 4.64852E-13 0.00000E+00 0.00000E+00 0.00000E+00
 -1      2182 4.64852E-13 4.64852E-13 4.64852E-13 0.00000E+00 0.00000E+00 0.00000E+00
 -1      2183 4.64852E-13 4.64852E-13 4.64852E-13 0.00000E+00 0.00000E+00 0.00000E+00
 -1      2184 4.60425E-13 4.60425E-13 4.60425E-13 0.00000E+00 0.00000E+00 0.00000E+00
 -1      2185 4.64852E-13 4.64852E-13 4.64852E-13 0.00000E+00 0.00000E+00 0.00000E+00
 -1      2186 4.53784E-13 4.53784E-13 4.53784E-13 0.00000E+00 0.00000E+00 0.00000E+00
 -1      2187 4.64852E-13 4.64852E-13 4.64852E-13 0.00000E+00 0.00000E+00 0.00000E+00
 -1      2188 4.38289E-13 4.38289E-13 4.38289E-13 0.00000E+00 0.00000E+00 0.00000E+00
 -1      2189 4.38289E-13 4.38289E-13 4.38289E-13 0.00000E+00 0.00000E+00 0.00000E+00
 -1      2190 4.38289E-13 4.38289E-13 4.38289E-13 0.00000E+00 0.00000E+00 0.00000E+00
 -1      2191 4.38289E-13 4.38289E-13 4.38289E-13 0.00000E+00 0.00000E+00 0.00000E+00
 -1      2192 4.47143E-13 4.47143E-13 4.47143E-13 0.00000E+00 0.00000E+00 0.00000E+00
 -1      2193 4.38289E-13 4.38289E-13 4.38289E-13 0.00000E+00 0.00000E+00 0.00000E+00
 -1      2194 4.51570E-13 4.51570E-13 4.51570E-13 0.00000E+00 0.00000E+00 0.00000E+00
 -1      2195 4.53784E-13 4.53784E-13 4.53784E-13 0.00000E+00 0.00000E+00 0.00000E+00
 -1      2196 4.60425E-13 4.60425E-13 4.60425E-13 0.00000E+00 0.00000E+00 0.00000E+00
 -1      2197 4.55997E-13 4.55997E-13 4.55997E-13 0.00000E+00 0.00000E+00 0.00000E+00
 -1      2198 4.64852E-13 4.64852E-13 4.64852E-13 0.00000E+00 0.00000E+00 0.00000E+00
 -1      2199 4.38289E-13 4.38289E-13 4.38289E-13 0.00000E+00 0.00000E+00 0.00000E+00
 -1      2200 4.64852E-13 4.64852E-13 4.64852E-13 0.00000E+00 0.00000E+00 0.00000E+00
 -1      2201 4.38289E-13 4.38289E-13 4.38289E-13 0.00000E+00 0.00000E+00 0.00000E+00
 -1      2202 4.42716E-13 4.42716E-13 4.42716E-13 0.00000E+00 0.00000E+00 0.00000E+00
 -1      2203 4.55997E-13 4.55997E-13 4.55997E-13 0.00000E+00 0.00000E+00 0.00000E+00
 -1      2204 4.64852E-13 4.64852E-13 4.64852E-13 0.00000E+00 0.00000E+00 0.00000E+00
 -1      2205 4.51570E-13 4.51570E-13 4.51570E-13 0.00000E+00 0.00000E+00 0.00000E+00
 -1      2206 4.64852E-13 4.64852E-13 4.64852E-13 0.00000E+00 0.00000E+00 0.00000E+00
 -1      2207 4.38289E-13 4.38289E-13 4.38289E-13 0.00000E+00 0.00000E+00 0.00000E+00
 -1      2208 4.38289E-13 4.38289E-13 4.38289E-13 0.00000E+00 0.00000E+00 0.00000E+00
 -1      2209 4.49357E-13 4.49357E-13 4.49357E-13 0.00000E+00 0.00000E+00 0.00000E+00
 -1      2210 4.64852E-13 4.64852E-13 4.64852E-13 0.00000E+00 0.00000E+00 0.00000E+00
 -1      2211 4.64852E-13 4.64852E-13 4.64852E-13 0.00000E+00 0.00000E+00 0.00000E+00
 -1      2212 4.38289E-13 4.38289E-13 4.38289E-13 0.00000E+00 0.00000E+00 0.00000E+00
 -1      2213 4.38289E-13 4.38289E-13 4.38289E-13 0.00000E+00 0.00000E+00 0.00000E+00
 -1      2214 4.64852E-13 4.64852E-13 4.64852E-13 0.00000E+00 0.00000E+00 0.00000E+00
 -1      2215 4.62638E-13 4.62638E-13 4.62638E-13 0.00000E+00 0.00000E+00 0.00000E+00
 -1      2216 4.64852E-13 4.64852E-13 4.64852E-13 0.00000E+00 0.00000E+00 0.00000E+00
 -1      2217 4.64852E-13 4.64852E-13 4.64852E-13 0.00000E+00 0.00000E+00 0.00000E+00
 -1      2218 4.64852E-13 4.64852E-13 4.64852E-13 0.00000E+00 0.00000E+00 0.00000E+00
 -1      2219 4.47143E-13 4.47143E-13 4.47143E-13 0.00000E+00 0.00000E+00 0.00000E+00
 -1      2220 4.38289E-13 4.38289E-13 4.38289E-13 0.00000E+00 0.00000E+00 0.00000E+00
 -1      2221 4.38289E-13 4.38289E-13 4.38289E-13 0.00000E+00 0.00000E+00 0.00000E+00
 -1      2222 4.38289E-13 4.38289E-13 4.38289E-13 0.00000E+00 0.00000E+00 0.00000E+00
 -1      2223 4.38289E-13 4.38289E-13 4.38289E-13 0.00000E+00 0.00000E+00 0.00000E+00
 -1      2224 4.40502E-13 4.40502E-13 4.40502E-13 0.00000E+00 0.00000E+00 0.00000E+00
 -1      2225 4.60425E-13 4.60425E-13 4.60425E-13 0.00000E+00 0.00000E+00 0.00000E+00
 -1      2226 4.55997E-13 4.55997E-13 4.55997E-13 0.00000E+00 0.00000E+00 0.00000E+00
 -1      2227 4.53784E-13 4.53784E-13 4.53784E-13 0.00000E+00 0.00000E+00 0.00000E+00
 -1      2228 4.47143E-13 4.47143E-13 4.47143E-13 0.00000E+00 0.00000E+00 0.00000E+00
 -1      2229 4.44929E-13 4.44929E-13 4.44929E-13 0.00000E+00 0.00000E+00 0.00000E+00
 -1      2230 4.42716E-13 4.42716E-13 4.42716E-13 0.00000E+00 0.00000E+00 0.00000E+00
 -1      2231 4.64852E-13 4.64852E-13 4.64852E-13 0.00000E+00 0.00000E+00 0.00000E+00
 -1      2232 4.47143E-13 4.47143E-13 4.47143E-13 0.00000E+00 0.00000E+00 0.00000E+00
 -1      2233 4.64852E-13 4.64852E-13 4.64852E-13 0.00000E+00 0.00000E+00 0.00000E+00
 -1      2234 4.64852E-13 4.64852E-13 4.64852E-13 0.00000E+00 0.00000E+00 0.00000E+00
 -1      2235 4.42716E-13 4.42716E-13 4.42716E-13 0.00000E+00 0.00000E+00 0.00000E+00
 -1      2236 4.40502E-13 4.40502E-13 4.40502E-13 0.00000E+00 0.00000E+00 0.00000E+00
 -1      2237 4.64852E-13 4.64852E-13 4.64852E-13 0.00000E+00 0.00000E+00 0.00000E+00
 -1      2238 4.55997E-13 4.55997E-13 4.55997E-13 0.00000E+00 0.00000E+00 0.00000E+00
 -1      2239 4.44929E-13 4.44929E-13 4.44929E-13 0.00000E+00 0.00000E+00 0.00000E+00
 -1      2240 4.64852E-13 4.64852E-13 4.64852E-13 0.00000E+00 0.00000E+00 0.00000E+00
 -1      2241 4.38289E-13 4.38289E-13 4.38289E-13 0.00000E+00 0.00000E+00 0.00000E+00
 -1      2242 4.58211E-13 4.58211E-13 4.58211E-13 0.00000E+00 0.00000E+00 0.00000E+00
 -1      2243 4.53784E-13 4.53784E-13 4.53784E-13 0.00000E+00 0.00000E+00 0.00000E+00
 -1      2244 4.51570E-13 4.51570E-13 4.51570E-13 0.00000E+00 0.00000E+00 0.00000E+00
 -1      2245 4.64852E-13 4.64852E-13 4.64852E-13 0.00000E+00 0.00000E+00 0.00000E+00
 -1      2246 4.64852E-13 4.64852E-13 4.64852E-13 0.00000E+00 0.00000E+00 0.00000E+00
 -1      2247 4.64852E-13 4.64852E-13 4.64852E-13 0.00000E+00 0.00000E+00 0.00000E+00
 -1      2248 4.38289E-13 4.38289E-13 4.38289E-13 0.00000E+00 0.00000E+00 0.00000E+00
 -1      2249 4.64852E-13 4.64852E-13 4.64852E-13 0.00000E+00 0.00000E+00 0.00000E+00
 -1      2250 4.42716E-13 4.42716E-13 4.42716E-13 0.00000E+00 0.00000E+00 0.00000E+00
 -1      2251 4.62638E-13 4.62638E-13 4.62638E-13 0.00000E+00 0.00000E+00 0.00000E+00
 -1      2252 4.38289E-13 4.38289E-13 4.38289E-13 0.00000E+00 0.00000E+00 0.00000E+00
 -1      2253 4.38289E-13 4.38289E-13 4.38289E-13 0.00000E+00 0.00000E+00 0.00000E+00
 -1      2254 4.38289E-13 4.38289E-13 4.38289E-13 0.00000E+00 0.00000E+00 0.00000E+00
 -1      2255 4.44929E-13 4.44929E-13 4.44929E-13 0.00000E+00 0.00000E+00 0.00000E+00
 -1      2256 4.64852E-13 4.64852E-13 4.64852E-13 0.00000E+00 0.00000E+00 0.00000E+00
 -1      2257 4.38289E-13 4.38289E-13 4.38289E-13 0.00000E+00 0.00000E+00 0.00000E+00
 -1      2258 4.62638E-13 4.62638E-13 4.62638E-13 0.00000E+00 0.00000E+00 0.00000E+00
 -1      2259 4.64852E-13 4.64852E-13 4.64852E-13 0.00000E+00 0.00000E+00 0.00000E+00
 -1      2260 4.38289E-13 4.38289E-13 4.38289E-13 0.00000E+00 0.00000E+00 0.00000E+00
 -1      2261 4.64852E-13 4.64852E-13 4.64852E-13 0.00000E+00 0.00000E+00 0.00000E+00
 -1      2262 4.62638E-13 4.62638E-13 4.62638E-13 0.00000E+00 0.00000E+00 0.00000E+00
 -1      2263 4.64852E-13 4.64852E-13 4.64852E-13 0.00000E+00 0.00000E+00 0.00000E+00
 -1      2264 4.47143E-13 4.47143E-13 4.47143E-13 0.00000E+00 0.00000E+00 0.00000E+00
 -1      2265 4.60425E-13 4.60425E-13 4.60425E-13 0.00000E+00 0.00000E+00 0.00000E+00
 -1      2266 4.64852E-13 4.64852E-13 4.64852E-13 0.00000E+00 0.00000E+00 0.00000E+00
 -1      2267 4.60425E-13 4.60425E-13 4.60425E-13 0.00000E+00 0.00000E+00 0.00000E+00
 -1      2268 4.42716E-13 4.42716E-13 4.42716E-13 0.00000E+00 0.00000E+00 0.00000E+00
 -1      2269 4.42716E-13 4.42716E-13 4.42716E-13 0.00000E+00 0.00000E+00 0.00000E+00
 -1      2270 4.62638E-13 4.62638E-13 4.62638E-13 0.00000E+00 0.00000E+00 0.00000E+00
 -1      2271 4.44929E-13 4.44929E-13 4.44929E-13 0.00000E+00 0.00000E+00 0.00000E+00
 -1      2272 4.62638E-13 4.62638E-13 4.62638E-13 0.00000E+00 0.00000E+00 0.00000E+00
 -1      2273 4.62638E-13 4.62638E-13 4.62638E-13 0.00000E+00 0.00000E+00 0.00000E+00
 -1      2274 4.64852E-13 4.64852E-13 4.64852E-13 0.00000E+00 0.00000E+00 0.00000E+00
 -1      2275 4.58211E-13 4.58211E-13 4.58211E-13 0.00000E+00 0.00000E+00 0.00000E+00
 -1      2276 4.64852E-13 4.64852E-13 4.64852E-13 0.00000E+00 0.00000E+00 0.00000E+00
 -1      2277 4.64852E-13 4.64852E-13 4.64852E-13 0.00000E+00 0.00000E+00 0.00000E+00
 -1      2278 4.38289E-13 4.38289E-13 4.38289E-13 0.00000E+00 0.00000E+00 0.00000E+00
 -1      2279 4.42716E-13 4.42716E-13 4.42716E-13 0.00000E+00 0.00000E+00 0.00000E+00
 -1      2280 4.64852E-13 4.64852E-13 4.64852E-13 0.00000E+00 0.00000E+00 0.00000E+00
 -1      2281 4.40502E-13 4.40502E-13 4.40502E-13 0.00000E+00 0.00000E+00 0.00000E+00
 -1      2282 4.49673E-13 4.49673E-13 4.49673E-13 0.00000E+00 0.00000E+00 0.00000E+00
 -1      2283 4.64852E-13 4.64852E-13 4.64852E-13 0.00000E+00 0.00000E+00 0.00000E+00
 -1      2284 4.58211E-13 4.58211E-13 4.58211E-13 0.00000E+00 0.00000E+00 0.00000E+00
 -1      2285 4.62638E-13 4.62638E-13 4.62638E-13 0.00000E+00 0.00000E+00 0.00000E+00
 -1      2286 4.38289E-13 4.38289E-13 4.38289E-13 0.00000E+00 0.00000E+00 0.00000E+00
 -1      2287 4.55997E-13 4.55997E-13 4.55997E-13 0.00000E+00 0.00000E+00 0.00000E+00
 -1      2288 4.64852E-13 4.64852E-13 4.64852E-13 0.00000E+00 0.00000E+00 0.00000E+00
 -1      2289 4.38289E-13 4.38289E-13 4.38289E-13 0.00000E+00 0.00000E+00 0.00000E+00
 -1      2290 4.64852E-13 4.64852E-13 4.64852E-13 0.00000E+00 0.00000E+00 0.00000E+00
 -1      2291 4.42716E-13 4.42716E-13 4.42716E-13 0.00000E+00 0.00000E+00 0.00000E+00
 -1      2292 4.38289E-13 4.38289E-13 4.38289E-13 0.00000E+00 0.00000E+00 0.00000E+00
 -1      2293 4.42716E-13 4.42716E-13 4.42716E-13 0.00000E+00 0.00000E+00 0.00000E+00
 -1      2294 4.49357E-13 4.49357E-13 4.49357E-13 0.00000E+00 0.00000E+00 0.00000E+00
 -1      2295 4.38289E-13 4.38289E-13 4.38289E-13 0.00000E+00 0.00000E+00 0.00000E+00
 -1      2296 4.51570E-13 4.51570E-13 4.51570E-13 0.00000E+00 0.00000E+00 0.00000E+00
 -1      2297 4.38289E-13 4.38289E-13 4.38289E-13 0.00000E+00 0.00000E+00 0.00000E+00
 -1      2298 4.62638E-13 4.62638E-13 4.62638E-13 0.00000E+00 0.00000E+00 0.00000E+00
 -1      2299 4.64852E-13 4.64852E-13 4.64852E-13 0.00000E+00 0.00000E+00 0.00000E+00
 -1      2300 4.38289E-13 4.38289E-13 4.38289E-13 0.00000E+00 0.00000E+00 0.00000E+00
 -1      2301 4.42716E-13 4.42716E-13 4.42716E-13 0.00000E+00 0.00000E+00 0.00000E+00
 -1      2302 4.62954E-13 4.62954E-13 4.62954E-13 0.00000E+00 0.00000E+00 0.00000E+00
 -1      2303 4.51570E-13 4.51570E-13 4.51570E-13 0.00000E+00 0.00000E+00 0.00000E+00
 -1      2304 4.59160E-13 4.59160E-13 4.59160E-13 0.00000E+00 0.00000E+00 0.00000E+00
 -1      2305 4.38289E-13 4.38289E-13 4.38289E-13 0.00000E+00 0.00000E+00 0.00000E+00
 -1      2306 4.64852E-13 4.64852E-13 4.64852E-13 0.00000E+00 0.00000E+00 0.00000E+00
 -1      2307 4.53784E-13 4.53784E-13 4.53784E-13 0.00000E+00 0.00000E+00 0.00000E+00
 -1      2308 4.42716E-13 4.42716E-13 4.42716E-13 0.00000E+00 0.00000E+00 0.00000E+00
 -1      2309 4.38289E-13 4.38289E-13 4.38289E-13 0.00000E+00 0.00000E+00 0.00000E+00
 -1      2310 4.64852E-13 4.64852E-13 4.64852E-13 0.00000E+00 0.00000E+00 0.00000E+00
 -1      2311 4.38289E-13 4.38289E-13 4.38289E-13 0.00000E+00 0.00000E+00 0.00000E+00
 -1      2312 4.64852E-13 4.64852E-13 4.64852E-13 0.00000E+00 0.00000E+00 0.00000E+00
 -1      2313 4.55997E-13 4.55997E-13 4.55997E-13 0.00000E+00 0.00000E+00 0.00000E+00
 -1      2314 4.55997E-13 4.55997E-13 4.55997E-13 0.00000E+00 0.00000E+00 0.00000E+00
 -1      2315 4.60425E-13 4.60425E-13 4.60425E-13 0.00000E+00 0.00000E+00 0.00000E+00
 -1      2316 4.64852E-13 4.64852E-13 4.64852E-13 0.00000E+00 0.00000E+00 0.00000E+00
 -1      2317 4.64852E-13 4.64852E-13 4.64852E-13 0.00000E+00 0.00000E+00 0.00000E+00
 -1      2318 4.64852E-13 4.64852E-13 4.64852E-13 0.00000E+00 0.00000E+00 0.00000E+00
 -1      2319 4.64852E-13 4.64852E-13 4.64852E-13 0.00000E+00 0.00000E+00 0.00000E+00
 -1      2320 4.64852E-13 4.64852E-13 4.64852E-13 0.00000E+00 0.00000E+00 0.00000E+00
 -1      2321 4.47143E-13 4.47143E-13 4.47143E-13 0.00000E+00 0.00000E+00 0.00000E+00
 -1      2322 4.62638E-13 4.62638E-13 4.62638E-13 0.00000E+00 0.00000E+00 0.00000E+00
 -1      2323 4.38289E-13 4.38289E-13 4.38289E-13 0.00000E+00 0.00000E+00 0.00000E+00
 -1      2324 4.64852E-13 4.64852E-13 4.64852E-13 0.00000E+00 0.00000E+00 0.00000E+00
 -1      2325 4.64852E-13 4.64852E-13 4.64852E-13 0.00000E+00 0.00000E+00 0.00000E+00
 -1      2326 4.64852E-13 4.64852E-13 4.64852E-13 0.00000E+00 0.00000E+00 0.00000E+00
 -1      2327 4.60425E-13 4.60425E-13 4.60425E-13 0.00000E+00 0.00000E+00 0.00000E+00
 -1      2328 4.64852E-13 4.64852E-13 4.64852E-13 0.00000E+00 0.00000E+00 0.00000E+00
 -1      2329 4.49673E-13 4.49673E-13 4.49673E-13 0.00000E+00 0.00000E+00 0.00000E+00
 -1      2330 4.62638E-13 4.62638E-13 4.62638E-13 0.00000E+00 0.00000E+00 0.00000E+00
 -1      2331 4.59160E-13 4.59160E-13 4.59160E-13 0.00000E+00 0.00000E+00 0.00000E+00
 -1      2332 4.60425E-13 4.60425E-13 4.60425E-13 0.00000E+00 0.00000E+00 0.00000E+00
 -1      2333 4.64852E-13 4.64852E-13 4.64852E-13 0.00000E+00 0.00000E+00 0.00000E+00
 -1      2334 4.64852E-13 4.64852E-13 4.64852E-13 0.00000E+00 0.00000E+00 0.00000E+00
 -1      2335 4.64852E-13 4.64852E-13 4.64852E-13 0.00000E+00 0.00000E+00 0.00000E+00
 -1      2336 4.64852E-13 4.64852E-13 4.64852E-13 0.00000E+00 0.00000E+00 0.00000E+00
 -1      2337 4.58211E-13 4.58211E-13 4.58211E-13 0.00000E+00 0.00000E+00 0.00000E+00
 -1      2338 4.47143E-13 4.47143E-13 4.47143E-13 0.00000E+00 0.00000E+00 0.00000E+00
 -1      2339 4.38289E-13 4.38289E-13 4.38289E-13 0.00000E+00 0.00000E+00 0.00000E+00
 -1      2340 4.38289E-13 4.38289E-13 4.38289E-13 0.00000E+00 0.00000E+00 0.00000E+00
 -1      2341 4.55997E-13 4.55997E-13 4.55997E-13 0.00000E+00 0.00000E+00 0.00000E+00
 -1      2342 4.44929E-13 4.44929E-13 4.44929E-13 0.00000E+00 0.00000E+00 0.00000E+00
 -1      2343 4.64852E-13 4.64852E-13 4.64852E-13 0.00000E+00 0.00000E+00 0.00000E+00
 -1      2344 4.64852E-13 4.64852E-13 4.64852E-13 0.00000E+00 0.00000E+00 0.00000E+00
 -1      2345 4.38289E-13 4.38289E-13 4.38289E-13 0.00000E+00 0.00000E+00 0.00000E+00
 -1      2346 4.38289E-13 4.38289E-13 4.38289E-13 0.00000E+00 0.00000E+00 0.00000E+00
 -1      2347 4.40502E-13 4.40502E-13 4.40502E-13 0.00000E+00 0.00000E+00 0.00000E+00
 -1      2348 4.38289E-13 4.38289E-13 4.38289E-13 0.00000E+00 0.00000E+00 0.00000E+00
 -1      2349 4.51570E-13 4.51570E-13 4.51570E-13 0.00000E+00 0.00000E+00 0.00000E+00
 -1      2350 4.51570E-13 4.51570E-13 4.51570E-13 0.00000E+00 0.00000E+00 0.00000E+00
 -1      2351 4.47143E-13 4.47143E-13 4.47143E-13 0.00000E+00 0.00000E+00 0.00000E+00
 -1      2352 4.44929E-13 4.44929E-13 4.44929E-13 0.00000E+00 0.00000E+00 0.00000E+00
 -1      2353 4.42716E-13 4.42716E-13 4.42716E-13 0.00000E+00 0.00000E+00 0.00000E+00
 -1      2354 4.38289E-13 4.38289E-13 4.38289E-13 0.00000E+00 0.00000E+00 0.00000E+00
 -1      2355 4.62638E-13 4.62638E-13 4.62638E-13 0.00000E+00 0.00000E+00 0.00000E+00
 -1      2356 4.64852E-13 4.64852E-13 4.64852E-13 0.00000E+00 0.00000E+00 0.00000E+00
 -1      2357 4.64852E-13 4.64852E-13 4.64852E-13 0.00000E+00 0.00000E+00 0.00000E+00
 -1      2358 4.64852E-13 4.64852E-13 4.64852E-13 0.00000E+00 0.00000E+00 0.00000E+00
 -1      2359 4.42716E-13 4.42716E-13 4.42716E-13 0.00000E+00 0.00000E+00 0.00000E+00
 -1      2360 4.64852E-13 4.64852E-13 4.64852E-13 0.00000E+00 0.00000E+00 0.00000E+00
 -1      2361 4.42716E-13 4.42716E-13 4.42716E-13 0.00000E+00 0.00000E+00 0.00000E+00
 -1      2362 4.38289E-13 4.38289E-13 4.38289E-13 0.00000E+00 0.00000E+00 0.00000E+00
 -1      2363 4.47143E-13 4.47143E-13 4.47143E-13 0.00000E+00 0.00000E+00 0.00000E+00
 -1      2364 4.55997E-13 4.55997E-13 4.55997E-13 0.00000E+00 0.00000E+00 0.00000E+00
 -1      2365 4.42716E-13 4.42716E-13 4.42716E-13 0.00000E+00 0.00000E+00 0.00000E+00
 -1      2366 4.51570E-13 4.51570E-13 4.51570E-13 0.00000E+00 0.00000E+00 0.00000E+00
 -1      2367 4.38289E-13 4.38289E-13 4.38289E-13 0.00000E+00 0.00000E+00 0.00000E+00
 -1      2368 4.47143E-13 4.47143E-13 4.47143E-13 0.00000E+00 0.00000E+00 0.00000E+00
 -1      2369 4.38289E-13 4.38289E-13 4.38289E-13 0.00000E+00 0.00000E+00 0.00000E+00
 -1      2370 4.64852E-13 4.64852E-13 4.64852E-13 0.00000E+00 0.00000E+00 0.00000E+00
 -1      2371 4.38289E-13 4.38289E-13 4.38289E-13 0.00000E+00 0.00000E+00 0.00000E+00
 -1      2372 4.38289E-13 4.38289E-13 4.38289E-13 0.00000E+00 0.00000E+00 0.00000E+00
 -1      2373 4.42716E-13 4.42716E-13 4.42716E-13 0.00000E+00 0.00000E+00 0.00000E+00
 -1      2374 4.38289E-13 4.38289E-13 4.38289E-13 0.00000E+00 0.00000E+00 0.00000E+00
 -1      2375 4.38289E-13 4.38289E-13 4.38289E-13 0.00000E+00 0.00000E+00 0.00000E+00
 -1      2376 4.38289E-13 4.38289E-13 4.38289E-13 0.00000E+00 0.00000E+00 0.00000E+00
 -1      2377 4.38289E-13 4.38289E-13 4.38289E-13 0.00000E+00 0.00000E+00 0.00000E+00
 -1      2378 4.38289E-13 4.38289E-13 4.38289E-13 0.00000E+00 0.00000E+00 0.00000E+00
 -1      2379 4.38289E-13 4.38289E-13 4.38289E-13 0.00000E+00 0.00000E+00 0.00000E+00
 -1      2380 4.38289E-13 4.38289E-13 4.38289E-13 0.00000E+00 0.00000E+00 0.00000E+00
 -1      2381 4.38289E-13 4.38289E-13 4.38289E-13 0.00000E+00 0.00000E+00 0.00000E+00
 -1      2382 4.38289E-13 4.38289E-13 4.38289E-13 0.00000E+00 0.00000E+00 0.00000E+00
 -1      2383 4.38289E-13 4.38289E-13 4.38289E-13 0.00000E+00 0.00000E+00 0.00000E+00
 -1      2384 4.38289E-13 4.38289E-13 4.38289E-13 0.00000E+00 0.00000E+00 0.00000E+00
 -1      2385 4.38289E-13 4.38289E-13 4.38289E-13 0.00000E+00 0.00000E+00 0.00000E+00
 -1      2386 4.38289E-13 4.38289E-13 4.38289E-13 0.00000E+00 0.00000E+00 0.00000E+00
 -1      2387 4.38289E-13 4.38289E-13 4.38289E-13 0.00000E+00 0.00000E+00 0.00000E+00
 -1      2388 4.38289E-13 4.38289E-13 4.38289E-13 0.00000E+00 0.00000E+00 0.00000E+00
 -1      2389 4.38289E-13 4.38289E-13 4.38289E-13 0.00000E+00 0.00000E+00 0.00000E+00
 -1      2390 4.47143E-13 4.47143E-13 4.47143E-13 0.00000E+00 0.00000E+00 0.00000E+00
 -1      2391 4.47143E-13 4.47143E-13 4.47143E-13 0.00000E+00 0.00000E+00 0.00000E+00
 -1      2392 4.42083E-13 4.42083E-13 4.42083E-13 0.00000E+00 0.00000E+00 0.00000E+00
 -1      2393 4.38289E-13 4.38289E-13 4.38289E-13 0.00000E+00 0.00000E+00 0.00000E+00
 -1      2394 4.38289E-13 4.38289E-13 4.38289E-13 0.00000E+00 0.00000E+00 0.00000E+00
 -1      2395 4.38289E-13 4.38289E-13 4.38289E-13 0.00000E+00 0.00000E+00 0.00000E+00
 -1      2396 4.38289E-13 4.38289E-13 4.38289E-13 0.00000E+00 0.00000E+00 0.00000E+00
 -1      2397 4.38289E-13 4.38289E-13 4.38289E-13 0.00000E+00 0.00000E+00 0.00000E+00
 -1      2398 4.42716E-13 4.42716E-13 4.42716E-13 0.00000E+00 0.00000E+00 0.00000E+00
 -1      2399 4.38289E-13 4.38289E-13 4.38289E-13 0.00000E+00 0.00000E+00 0.00000E+00
 -1      2400 4.44929E-13 4.44929E-13 4.44929E-13 0.00000E+00 0.00000E+00 0.00000E+00
 -1      2401 4.40502E-13 4.40502E-13 4.40502E-13 0.00000E+00 0.00000E+00 0.00000E+00
 -1      2402 4.38289E-13 4.38289E-13 4.38289E-13 0.00000E+00 0.00000E+00 0.00000E+00
 -1      2403 4.42716E-13 4.42716E-13 4.42716E-13 0.00000E+00 0.00000E+00 0.00000E+00
 -1      2404 4.38289E-13 4.38289E-13 4.38289E-13 0.00000E+00 0.00000E+00 0.00000E+00
 -1      2405 4.42716E-13 4.42716E-13 4.42716E-13 0.00000E+00 0.00000E+00 0.00000E+00
 -1      2406 4.40502E-13 4.40502E-13 4.40502E-13 0.00000E+00 0.00000E+00 0.00000E+00
 -1      2407 4.58211E-13 4.58211E-13 4.58211E-13 0.00000E+00 0.00000E+00 0.00000E+00
 -1      2408 4.38289E-13 4.38289E-13 4.38289E-13 0.00000E+00 0.00000E+00 0.00000E+00
 -1      2409 4.64852E-13 4.64852E-13 4.64852E-13 0.00000E+00 0.00000E+00 0.00000E+00
 -1      2410 4.62638E-13 4.62638E-13 4.62638E-13 0.00000E+00 0.00000E+00 0.00000E+00
 -1      2411 4.64852E-13 4.64852E-13 4.64852E-13 0.00000E+00 0.00000E+00 0.00000E+00
 -1      2412 4.64852E-13 4.64852E-13 4.64852E-13 0.00000E+00 0.00000E+00 0.00000E+00
 -1      2413 4.53784E-13 4.53784E-13 4.53784E-13 0.00000E+00 0.00000E+00 0.00000E+00
 -1      2414 4.64852E-13 4.64852E-13 4.64852E-13 0.00000E+00 0.00000E+00 0.00000E+00
 -1      2415 4.40502E-13 4.40502E-13 4.40502E-13 0.00000E+00 0.00000E+00 0.00000E+00
 -1      2416 4.40502E-13 4.40502E-13 4.40502E-13 0.00000E+00 0.00000E+00 0.00000E+00
 -1      2417 4.58211E-13 4.58211E-13 4.58211E-13 0.00000E+00 0.00000E+00 0.00000E+00
 -1      2418 4.64852E-13 4.64852E-13 4.64852E-13 0.00000E+00 0.00000E+00 0.00000E+00
 -1      2419 4.51570E-13 4.51570E-13 4.51570E-13 0.00000E+00 0.00000E+00 0.00000E+00
 -1      2420 4.38289E-13 4.38289E-13 4.38289E-13 0.00000E+00 0.00000E+00 0.00000E+00
 -1      2421 4.38289E-13 4.38289E-13 4.38289E-13 0.00000E+00 0.00000E+00 0.00000E+00
 -1      2422 4.61057E-13 4.61057E-13 4.61057E-13 0.00000E+00 0.00000E+00 0.00000E+00
 -1      2423 4.44929E-13 4.44929E-13 4.44929E-13 0.00000E+00 0.00000E+00 0.00000E+00
 -1      2424 4.64852E-13 4.64852E-13 4.64852E-13 0.00000E+00 0.00000E+00 0.00000E+00
 -1      2425 4.38289E-13 4.38289E-13 4.38289E-13 0.00000E+00 0.00000E+00 0.00000E+00
 -1      2426 4.64852E-13 4.64852E-13 4.64852E-13 0.00000E+00 0.00000E+00 0.00000E+00
 -1      2427 4.38289E-13 4.38289E-13 4.38289E-13 0.00000E+00 0.00000E+00 0.00000E+00
 -1      2428 4.64852E-13 4.64852E-13 4.64852E-13 0.00000E+00 0.00000E+00 0.00000E+00
 -1      2429 4.64852E-13 4.64852E-13 4.64852E-13 0.00000E+00 0.00000E+00 0.00000E+00
 -1      2430 4.64852E-13 4.64852E-13 4.64852E-13 0.00000E+00 0.00000E+00 0.00000E+00
 -1      2431 4.64852E-13 4.64852E-13 4.64852E-13 0.00000E+00 0.00000E+00 0.00000E+00
 -1      2432 4.64852E-13 4.64852E-13 4.64852E-13 0.00000E+00 0.00000E+00 0.00000E+00
 -1      2433 4.64852E-13 4.64852E-13 4.64852E-13 0.00000E+00 0.00000E+00 0.00000E+00
 -1      2434 4.64852E-13 4.64852E-13 4.64852E-13 0.00000E+00 0.00000E+00 0.00000E+00
 -1      2435 4.64852E-13 4.64852E-13 4.64852E-13 0.00000E+00 0.00000E+00 0.00000E+00
 -1      2436 4.64852E-13 4.64852E-13 4.64852E-13 0.00000E+00 0.00000E+00 0.00000E+00
 -1      2437 4.64852E-13 4.64852E-13 4.64852E-13 0.00000E+00 0.00000E+00 0.00000E+00
 -1      2438 4.64852E-13 4.64852E-13 4.64852E-13 0.00000E+00 0.00000E+00 0.00000E+00
 -1      2439 4.62638E-13 4.62638E-13 4.62638E-13 0.00000E+00 0.00000E+00 0.00000E+00
 -1      2440 4.62638E-13 4.62638E-13 4.62638E-13 0.00000E+00 0.00000E+00 0.00000E+00
 -1      2441 4.62638E-13 4.62638E-13 4.62638E-13 0.00000E+00 0.00000E+00 0.00000E+00
 -1      2442 4.64852E-13 4.64852E-13 4.64852E-13 0.00000E+00 0.00000E+00 0.00000E+00
 -1      2443 4.64852E-13 4.64852E-13 4.64852E-13 0.00000E+00 0.00000E+00 0.00000E+00
 -1      2444 4.64852E-13 4.64852E-13 4.64852E-13 0.00000E+00 0.00000E+00 0.00000E+00
 -1      2445 4.64852E-13 4.64852E-13 4.64852E-13 0.00000E+00 0.00000E+00 0.00000E+00
 -1      2446 4.62954E-13 4.62954E-13 4.62954E-13 0.00000E+00 0.00000E+00 0.00000E+00
 -1      2447 4.38289E-13 4.38289E-13 4.38289E-13 0.00000E+00 0.00000E+00 0.00000E+00
 -1      2448 4.58211E-13 4.58211E-13 4.58211E-13 0.00000E+00 0.00000E+00 0.00000E+00
 -1      2449 4.64852E-13 4.64852E-13 4.64852E-13 0.00000E+00 0.00000E+00 0.00000E+00
 -1      2450 4.64852E-13 4.64852E-13 4.64852E-13 0.00000E+00 0.00000E+00 0.00000E+00
 -1      2451 4.38289E-13 4.38289E-13 4.38289E-13 0.00000E+00 0.00000E+00 0.00000E+00
 -1      2452 4.54227E-13 4.54227E-13 4.54227E-13 0.00000E+00 0.00000E+00 0.00000E+00
 -1      2453 4.38289E-13 4.38289E-13 4.38289E-13 0.00000E+00 0.00000E+00 0.00000E+00
 -1      2454 4.51570E-13 4.51570E-13 4.51570E-13 0.00000E+00 0.00000E+00 0.00000E+00
 -1      2455 4.64852E-13 4.64852E-13 4.64852E-13 0.00000E+00 0.00000E+00 0.00000E+00
 -1      2456 4.62638E-13 4.62638E-13 4.62638E-13 0.00000E+00 0.00000E+00 0.00000E+00
 -1      2457 4.60425E-13 4.60425E-13 4.60425E-13 0.00000E+00 0.00000E+00 0.00000E+00
 -1      2458 4.47143E-13 4.47143E-13 4.47143E-13 0.00000E+00 0.00000E+00 0.00000E+00
 -1      2459 4.38289E-13 4.38289E-13 4.38289E-13 0.00000E+00 0.00000E+00 0.00000E+00
 -1      2460 4.38289E-13 4.38289E-13 4.38289E-13 0.00000E+00 0.00000E+00 0.00000E+00
 -1      2461 4.38289E-13 4.38289E-13 4.38289E-13 0.00000E+00 0.00000E+00 0.00000E+00
 -1      2462 4.38289E-13 4.38289E-13 4.38289E-13 0.00000E+00 0.00000E+00 0.00000E+00
 -1      2463 4.51570E-13 4.51570E-13 4.51570E-13 0.00000E+00 0.00000E+00 0.00000E+00
 -1      2464 4.38289E-13 4.38289E-13 4.38289E-13 0.00000E+00 0.00000E+00 0.00000E+00
 -1      2465 4.38289E-13 4.38289E-13 4.38289E-13 0.00000E+00 0.00000E+00 0.00000E+00
 -1      2466 4.42083E-13 4.42083E-13 4.42083E-13 0.00000E+00 0.00000E+00 0.00000E+00
 -1      2467 4.64852E-13 4.64852E-13 4.64852E-13 0.00000E+00 0.00000E+00 0.00000E+00
 -1      2468 4.38289E-13 4.38289E-13 4.38289E-13 0.00000E+00 0.00000E+00 0.00000E+00
 -1      2469 4.62638E-13 4.62638E-13 4.62638E-13 0.00000E+00 0.00000E+00 0.00000E+00
 -1      2470 4.64852E-13 4.64852E-13 4.64852E-13 0.00000E+00 0.00000E+00 0.00000E+00
 -1      2471 4.47143E-13 4.47143E-13 4.47143E-13 0.00000E+00 0.00000E+00 0.00000E+00
 -1      2472 4.42716E-13 4.42716E-13 4.42716E-13 0.00000E+00 0.00000E+00 0.00000E+00
 -1      2473 4.62638E-13 4.62638E-13 4.62638E-13 0.00000E+00 0.00000E+00 0.00000E+00
 -1      2474 4.55997E-13 4.55997E-13 4.55997E-13 0.00000E+00 0.00000E+00 0.00000E+00
 -1      2475 4.64852E-13 4.64852E-13 4.64852E-13 0.00000E+00 0.00000E+00 0.00000E+00
 -1      2476 4.64852E-13 4.64852E-13 4.64852E-13 0.00000E+00 0.00000E+00 0.00000E+00
 -1      2477 4.64852E-13 4.64852E-13 4.64852E-13 0.00000E+00 0.00000E+00 0.00000E+00
 -1      2478 4.64852E-13 4.64852E-13 4.64852E-13 0.00000E+00 0.00000E+00 0.00000E+00
 -1      2479 4.64852E-13 4.64852E-13 4.64852E-13 0.00000E+00 0.00000E+00 0.00000E+00
 -1      2480 4.64852E-13 4.64852E-13 4.64852E-13 0.00000E+00 0.00000E+00 0.00000E+00
 -1      2481 4.64852E-13 4.64852E-13 4.64852E-13 0.00000E+00 0.00000E+00 0.00000E+00
 -1      2482 4.60425E-13 4.60425E-13 4.60425E-13 0.00000E+00 0.00000E+00 0.00000E+00
 -1      2483 4.58211E-13 4.58211E-13 4.58211E-13 0.00000E+00 0.00000E+00 0.00000E+00
 -1      2484 4.60425E-13 4.60425E-13 4.60425E-13 0.00000E+00 0.00000E+00 0.00000E+00
 -1      2485 4.55997E-13 4.55997E-13 4.55997E-13 0.00000E+00 0.00000E+00 0.00000E+00
 -1      2486 4.58211E-13 4.58211E-13 4.58211E-13 0.00000E+00 0.00000E+00 0.00000E+00
 -1      2487 4.58211E-13 4.58211E-13 4.58211E-13 0.00000E+00 0.00000E+00 0.00000E+00
 -1      2488 4.62638E-13 4.62638E-13 4.62638E-13 0.00000E+00 0.00000E+00 0.00000E+00
 -1      2489 4.64852E-13 4.64852E-13 4.64852E-13 0.00000E+00 0.00000E+00 0.00000E+00
 -1      2490 4.60425E-13 4.60425E-13 4.60425E-13 0.00000E+00 0.00000E+00 0.00000E+00
 -1      2491 4.58211E-13 4.58211E-13 4.58211E-13 0.00000E+00 0.00000E+00 0.00000E+00
 -1      2492 4.62638E-13 4.62638E-13 4.62638E-13 0.00000E+00 0.00000E+00 0.00000E+00
 -1      2493 4.60425E-13 4.60425E-13 4.60425E-13 0.00000E+00 0.00000E+00 0.00000E+00
 -1      2494 4.64852E-13 4.64852E-13 4.64852E-13 0.00000E+00 0.00000E+00 0.00000E+00
 -1      2495 4.38289E-13 4.38289E-13 4.38289E-13 0.00000E+00 0.00000E+00 0.00000E+00
 -1      2496 4.64852E-13 4.64852E-13 4.64852E-13 0.00000E+00 0.00000E+00 0.00000E+00
 -1      2497 4.55365E-13 4.55365E-13 4.55365E-13 0.00000E+00 0.00000E+00 0.00000E+00
 -1      2498 4.38289E-13 4.38289E-13 4.38289E-13 0.00000E+00 0.00000E+00 0.00000E+00
 -1      2499 4.64852E-13 4.64852E-13 4.64852E-13 0.00000E+00 0.00000E+00 0.00000E+00
 -1      2500 4.42716E-13 4.42716E-13 4.42716E-13 0.00000E+00 0.00000E+00 0.00000E+00
 -1      2501 4.62638E-13 4.62638E-13 4.62638E-13 0.00000E+00 0.00000E+00 0.00000E+00
 -1      2502 4.49357E-13 4.49357E-13 4.49357E-13 0.00000E+00 0.00000E+00 0.00000E+00
 -1      2503 4.38289E-13 4.38289E-13 4.38289E-13 0.00000E+00 0.00000E+00 0.00000E+00
 -1      2504 4.64852E-13 4.64852E-13 4.64852E-13 0.00000E+00 0.00000E+00 0.00000E+00
 -1      2505 4.38289E-13 4.38289E-13 4.38289E-13 0.00000E+00 0.00000E+00 0.00000E+00
 -1      2506 4.43981E-13 4.43981E-13 4.43981E-13 0.00000E+00 0.00000E+00 0.00000E+00
 -1      2507 4.38289E-13 4.38289E-13 4.38289E-13 0.00000E+00 0.00000E+00 0.00000E+00
 -1      2508 4.38289E-13 4.38289E-13 4.38289E-13 0.00000E+00 0.00000E+00 0.00000E+00
 -1      2509 4.38289E-13 4.38289E-13 4.38289E-13 0.00000E+00 0.00000E+00 0.00000E+00
 -1      2510 4.38289E-13 4.38289E-13 4.38289E-13 0.00000E+00 0.00000E+00 0.00000E+00
 -1      2511 4.38289E-13 4.38289E-13 4.38289E-13 0.00000E+00 0.00000E+00 0.00000E+00
 -1      2512 4.38289E-13 4.38289E-13 4.38289E-13 0.00000E+00 0.00000E+00 0.00000E+00
 -1      2513 4.62638E-13 4.62638E-13 4.62638E-13 0.00000E+00 0.00000E+00 0.00000E+00
 -1      2514 4.64852E-13 4.64852E-13 4.64852E-13 0.00000E+00 0.00000E+00 0.00000E+00
 -1      2515 4.51570E-13 4.51570E-13 4.51570E-13 0.00000E+00 0.00000E+00 0.00000E+00
 -1      2516 4.53784E-13 4.53784E-13 4.53784E-13 0.00000E+00 0.00000E+00 0.00000E+00
 -1      2517 4.42716E-13 4.42716E-13 4.42716E-13 0.00000E+00 0.00000E+00 0.00000E+00
 -1      2518 4.42716E-13 4.42716E-13 4.42716E-13 0.00000E+00 0.00000E+00 0.00000E+00
 -1      2519 4.42716E-13 4.42716E-13 4.42716E-13 0.00000E+00 0.00000E+00 0.00000E+00
 -1      2520 4.40502E-13 4.40502E-13 4.40502E-13 0.00000E+00 0.00000E+00 0.00000E+00
 -1      2521 4.51570E-13 4.51570E-13 4.51570E-13 0.00000E+00 0.00000E+00 0.00000E+00
 -1      2522 4.51570E-13 4.51570E-13 4.51570E-13 0.00000E+00 0.00000E+00 0.00000E+00
 -1      2523 4.62638E-13 4.62638E-13 4.62638E-13 0.00000E+00 0.00000E+00 0.00000E+00
 -1      2524 4.62638E-13 4.62638E-13 4.62638E-13 0.00000E+00 0.00000E+00 0.00000E+00
 -1      2525 4.38289E-13 4.38289E-13 4.38289E-13 0.00000E+00 0.00000E+00 0.00000E+00
 -1      2526 4.38289E-13 4.38289E-13 4.38289E-13 0.00000E+00 0.00000E+00 0.00000E+00
 -1      2527 4.38289E-13 4.38289E-13 4.38289E-13 0.00000E+00 0.00000E+00 0.00000E+00
 -1      2528 4.62638E-13 4.62638E-13 4.62638E-13 0.00000E+00 0.00000E+00 0.00000E+00
 -1      2529 4.47143E-13 4.47143E-13 4.47143E-13 0.00000E+00 0.00000E+00 0.00000E+00
 -1      2530 4.51570E-13 4.51570E-13 4.51570E-13 0.00000E+00 0.00000E+00 0.00000E+00
 -1      2531 4.64852E-13 4.64852E-13 4.64852E-13 0.00000E+00 0.00000E+00 0.00000E+00
 -1      2532 4.60425E-13 4.60425E-13 4.60425E-13 0.00000E+00 0.00000E+00 0.00000E+00
 -1      2533 4.53784E-13 4.53784E-13 4.53784E-13 0.00000E+00 0.00000E+00 0.00000E+00
 -1      2534 4.51570E-13 4.51570E-13 4.51570E-13 0.00000E+00 0.00000E+00 0.00000E+00
 -1      2535 4.62638E-13 4.62638E-13 4.62638E-13 0.00000E+00 0.00000E+00 0.00000E+00
 -1      2536 4.60425E-13 4.60425E-13 4.60425E-13 0.00000E+00 0.00000E+00 0.00000E+00
 -1      2537 4.62638E-13 4.62638E-13 4.62638E-13 0.00000E+00 0.00000E+00 0.00000E+00
 -1      2538 4.62638E-13 4.62638E-13 4.62638E-13 0.00000E+00 0.00000E+00 0.00000E+00
 -1      2539 4.64852E-13 4.64852E-13 4.64852E-13 0.00000E+00 0.00000E+00 0.00000E+00
 -1      2540 4.58211E-13 4.58211E-13 4.58211E-13 0.00000E+00 0.00000E+00 0.00000E+00
 -1      2541 4.51570E-13 4.51570E-13 4.51570E-13 0.00000E+00 0.00000E+00 0.00000E+00
 -1      2542 4.53784E-13 4.53784E-13 4.53784E-13 0.00000E+00 0.00000E+00 0.00000E+00
 -1      2543 4.44929E-13 4.44929E-13 4.44929E-13 0.00000E+00 0.00000E+00 0.00000E+00
 -1      2544 4.58211E-13 4.58211E-13 4.58211E-13 0.00000E+00 0.00000E+00 0.00000E+00
 -1      2545 4.42716E-13 4.42716E-13 4.42716E-13 0.00000E+00 0.00000E+00 0.00000E+00
 -1      2546 4.55997E-13 4.55997E-13 4.55997E-13 0.00000E+00 0.00000E+00 0.00000E+00
 -1      2547 4.38289E-13 4.38289E-13 4.38289E-13 0.00000E+00 0.00000E+00 0.00000E+00
 -1      2548 4.47143E-13 4.47143E-13 4.47143E-13 0.00000E+00 0.00000E+00 0.00000E+00
 -1      2549 4.38289E-13 4.38289E-13 4.38289E-13 0.00000E+00 0.00000E+00 0.00000E+00
 -1      2550 4.38289E-13 4.38289E-13 4.38289E-13 0.00000E+00 0.00000E+00 0.00000E+00
 -1      2551 4.42716E-13 4.42716E-13 4.42716E-13 0.00000E+00 0.00000E+00 0.00000E+00
 -1      2552 4.64852E-13 4.64852E-13 4.64852E-13 0.00000E+00 0.00000E+00 0.00000E+00
 -1      2553 4.60425E-13 4.60425E-13 4.60425E-13 0.00000E+00 0.00000E+00 0.00000E+00
 -1      2554 4.42716E-13 4.42716E-13 4.42716E-13 0.00000E+00 0.00000E+00 0.00000E+00
 -1      2555 4.55997E-13 4.55997E-13 4.55997E-13 0.00000E+00 0.00000E+00 0.00000E+00
 -1      2556 4.60425E-13 4.60425E-13 4.60425E-13 0.00000E+00 0.00000E+00 0.00000E+00
 -1      2557 4.47143E-13 4.47143E-13 4.47143E-13 0.00000E+00 0.00000E+00 0.00000E+00
 -1      2558 4.47143E-13 4.47143E-13 4.47143E-13 0.00000E+00 0.00000E+00 0.00000E+00
 -1      2559 4.38289E-13 4.38289E-13 4.38289E-13 0.00000E+00 0.00000E+00 0.00000E+00
 -1      2560 4.42716E-13 4.42716E-13 4.42716E-13 0.00000E+00 0.00000E+00 0.00000E+00
 -1      2561 4.60425E-13 4.60425E-13 4.60425E-13 0.00000E+00 0.00000E+00 0.00000E+00
 -1      2562 4.51570E-13 4.51570E-13 4.51570E-13 0.00000E+00 0.00000E+00 0.00000E+00
 -1      2563 4.64852E-13 4.64852E-13 4.64852E-13 0.00000E+00 0.00000E+00 0.00000E+00
 -1      2564 4.64852E-13 4.64852E-13 4.64852E-13 0.00000E+00 0.00000E+00 0.00000E+00
 -1      2565 4.64852E-13 4.64852E-13 4.64852E-13 0.00000E+00 0.00000E+00 0.00000E+00
 -1      2566 4.64852E-13 4.64852E-13 4.64852E-13 0.00000E+00 0.00000E+00 0.00000E+00
 -1      2567 4.42716E-13 4.42716E-13 4.42716E-13 0.00000E+00 0.00000E+00 0.00000E+00
 -1      2568 4.62638E-13 4.62638E-13 4.62638E-13 0.00000E+00 0.00000E+00 0.00000E+00
 -1      2569 4.64852E-13 4.64852E-13 4.64852E-13 0.00000E+00 0.00000E+00 0.00000E+00
 -1      2570 4.58211E-13 4.58211E-13 4.58211E-13 0.00000E+00 0.00000E+00 0.00000E+00
 -1      2571 4.60425E-13 4.60425E-13 4.60425E-13 0.00000E+00 0.00000E+00 0.00000E+00
 -1      2572 4.47143E-13 4.47143E-13 4.47143E-13 0.00000E+00 0.00000E+00 0.00000E+00
 -1      2573 4.42716E-13 4.42716E-13 4.42716E-13 0.00000E+00 0.00000E+00 0.00000E+00
 -1      2574 4.38289E-13 4.38289E-13 4.38289E-13 0.00000E+00 0.00000E+00 0.00000E+00
 -1      2575 4.38289E-13 4.38289E-13 4.38289E-13 0.00000E+00 0.00000E+00 0.00000E+00
 -1      2576 4.42716E-13 4.42716E-13 4.42716E-13 0.00000E+00 0.00000E+00 0.00000E+00
 -1      2577 4.38289E-13 4.38289E-13 4.38289E-13 0.00000E+00 0.00000E+00 0.00000E+00
 -1      2578 4.38289E-13 4.38289E-13 4.38289E-13 0.00000E+00 0.00000E+00 0.00000E+00
 -1      2579 4.60425E-13 4.60425E-13 4.60425E-13 0.00000E+00 0.00000E+00 0.00000E+00
 -1      2580 4.38289E-13 4.38289E-13 4.38289E-13 0.00000E+00 0.00000E+00 0.00000E+00
 -1      2581 4.38289E-13 4.38289E-13 4.38289E-13 0.00000E+00 0.00000E+00 0.00000E+00
 -1      2582 4.38289E-13 4.38289E-13 4.38289E-13 0.00000E+00 0.00000E+00 0.00000E+00
 -1      2583 4.38289E-13 4.38289E-13 4.38289E-13 0.00000E+00 0.00000E+00 0.00000E+00
 -1      2584 4.47143E-13 4.47143E-13 4.47143E-13 0.00000E+00 0.00000E+00 0.00000E+00
 -1      2585 4.40502E-13 4.40502E-13 4.40502E-13 0.00000E+00 0.00000E+00 0.00000E+00
 -1      2586 4.58211E-13 4.58211E-13 4.58211E-13 0.00000E+00 0.00000E+00 0.00000E+00
 -1      2587 4.42716E-13 4.42716E-13 4.42716E-13 0.00000E+00 0.00000E+00 0.00000E+00
 -1      2588 4.55997E-13 4.55997E-13 4.55997E-13 0.00000E+00 0.00000E+00 0.00000E+00
 -1      2589 4.38289E-13 4.38289E-13 4.38289E-13 0.00000E+00 0.00000E+00 0.00000E+00
 -1      2590 4.42716E-13 4.42716E-13 4.42716E-13 0.00000E+00 0.00000E+00 0.00000E+00
 -1      2591 4.38289E-13 4.38289E-13 4.38289E-13 0.00000E+00 0.00000E+00 0.00000E+00
 -1      2592 4.51570E-13 4.51570E-13 4.51570E-13 0.00000E+00 0.00000E+00 0.00000E+00
 -1      2593 4.38289E-13 4.38289E-13 4.38289E-13 0.00000E+00 0.00000E+00 0.00000E+00
 -1      2594 4.38289E-13 4.38289E-13 4.38289E-13 0.00000E+00 0.00000E+00 0.00000E+00
 -1      2595 4.40502E-13 4.40502E-13 4.40502E-13 0.00000E+00 0.00000E+00 0.00000E+00
 -1      2596 4.44929E-13 4.44929E-13 4.44929E-13 0.00000E+00 0.00000E+00 0.00000E+00
 -1      2597 4.47143E-13 4.47143E-13 4.47143E-13 0.00000E+00 0.00000E+00 0.00000E+00
 -1      2598 4.53784E-13 4.53784E-13 4.53784E-13 0.00000E+00 0.00000E+00 0.00000E+00
 -1      2599 4.38289E-13 4.38289E-13 4.38289E-13 0.00000E+00 0.00000E+00 0.00000E+00
 -1      2600 4.42716E-13 4.42716E-13 4.42716E-13 0.00000E+00 0.00000E+00 0.00000E+00
 -1      2601 4.38289E-13 4.38289E-13 4.38289E-13 0.00000E+00 0.00000E+00 0.00000E+00
 -1      2602 4.58211E-13 4.58211E-13 4.58211E-13 0.00000E+00 0.00000E+00 0.00000E+00
 -1      2603 4.51570E-13 4.51570E-13 4.51570E-13 0.00000E+00 0.00000E+00 0.00000E+00
 -1      2604 4.49357E-13 4.49357E-13 4.49357E-13 0.00000E+00 0.00000E+00 0.00000E+00
 -1      2605 4.47143E-13 4.47143E-13 4.47143E-13 0.00000E+00 0.00000E+00 0.00000E+00
 -1      2606 4.62638E-13 4.62638E-13 4.62638E-13 0.00000E+00 0.00000E+00 0.00000E+00
 -1      2607 4.53784E-13 4.53784E-13 4.53784E-13 0.00000E+00 0.00000E+00 0.00000E+00
 -1      2608 4.62638E-13 4.62638E-13 4.62638E-13 0.00000E+00 0.00000E+00 0.00000E+00
 -1      2609 4.55997E-13 4.55997E-13 4.55997E-13 0.00000E+00 0.00000E+00 0.00000E+00
 -1      2610 4.42716E-13 4.42716E-13 4.42716E-13 0.00000E+00 0.00000E+00 0.00000E+00
 -1      2611 4.38289E-13 4.38289E-13 4.38289E-13 0.00000E+00 0.00000E+00 0.00000E+00
 -1      2612 4.55997E-13 4.55997E-13 4.55997E-13 0.00000E+00 0.00000E+00 0.00000E+00
 -1      2613 4.42716E-13 4.42716E-13 4.42716E-13 0.00000E+00 0.00000E+00 0.00000E+00
 -1      2614 4.38289E-13 4.38289E-13 4.38289E-13 0.00000E+00 0.00000E+00 0.00000E+00
 -1      2615 4.38289E-13 4.38289E-13 4.38289E-13 0.00000E+00 0.00000E+00 0.00000E+00
 -1      2616 4.38289E-13 4.38289E-13 4.38289E-13 0.00000E+00 0.00000E+00 0.00000E+00
 -1      2617 4.38289E-13 4.38289E-13 4.38289E-13 0.00000E+00 0.00000E+00 0.00000E+00
 -1      2618 4.38289E-13 4.38289E-13 4.38289E-13 0.00000E+00 0.00000E+00 0.00000E+00
 -1      2619 4.38289E-13 4.38289E-13 4.38289E-13 0.00000E+00 0.00000E+00 0.00000E+00
 -1      2620 4.38289E-13 4.38289E-13 4.38289E-13 0.00000E+00 0.00000E+00 0.00000E+00
 -1      2621 4.42716E-13 4.42716E-13 4.42716E-13 0.00000E+00 0.00000E+00 0.00000E+00
 -1      2622 4.55997E-13 4.55997E-13 4.55997E-13 0.00000E+00 0.00000E+00 0.00000E+00
 -1      2623 4.42716E-13 4.42716E-13 4.42716E-13 0.00000E+00 0.00000E+00 0.00000E+00
 -1      2624 4.51570E-13 4.51570E-13 4.51570E-13 0.00000E+00 0.00000E+00 0.00000E+00
 -1      2625 4.40502E-13 4.40502E-13 4.40502E-13 0.00000E+00 0.00000E+00 0.00000E+00
 -1      2626 4.51570E-13 4.51570E-13 4.51570E-13 0.00000E+00 0.00000E+00 0.00000E+00
 -1      2627 4.55997E-13 4.55997E-13 4.55997E-13 0.00000E+00 0.00000E+00 0.00000E+00
 -1      2628 4.58211E-13 4.58211E-13 4.58211E-13 0.00000E+00 0.00000E+00 0.00000E+00
 -1      2629 4.42716E-13 4.42716E-13 4.42716E-13 0.00000E+00 0.00000E+00 0.00000E+00
 -1      2630 4.53784E-13 4.53784E-13 4.53784E-13 0.00000E+00 0.00000E+00 0.00000E+00
 -1      2631 4.42716E-13 4.42716E-13 4.42716E-13 0.00000E+00 0.00000E+00 0.00000E+00
 -1      2632 4.55997E-13 4.55997E-13 4.55997E-13 0.00000E+00 0.00000E+00 0.00000E+00
 -1      2633 4.51570E-13 4.51570E-13 4.51570E-13 0.00000E+00 0.00000E+00 0.00000E+00
 -1      2634 4.38289E-13 4.38289E-13 4.38289E-13 0.00000E+00 0.00000E+00 0.00000E+00
 -1      2635 4.49357E-13 4.49357E-13 4.49357E-13 0.00000E+00 0.00000E+00 0.00000E+00
 -1      2636 4.38289E-13 4.38289E-13 4.38289E-13 0.00000E+00 0.00000E+00 0.00000E+00
 -1      2637 4.49357E-13 4.49357E-13 4.49357E-13 0.00000E+00 0.00000E+00 0.00000E+00
 -1      2638 4.38289E-13 4.38289E-13 4.38289E-13 0.00000E+00 0.00000E+00 0.00000E+00
 -1      2639 4.55997E-13 4.55997E-13 4.55997E-13 0.00000E+00 0.00000E+00 0.00000E+00
 -1      2640 4.55997E-13 4.55997E-13 4.55997E-13 0.00000E+00 0.00000E+00 0.00000E+00
 -1      2641 4.42716E-13 4.42716E-13 4.42716E-13 0.00000E+00 0.00000E+00 0.00000E+00
 -1      2642 4.44929E-13 4.44929E-13 4.44929E-13 0.00000E+00 0.00000E+00 0.00000E+00
 -1      2643 4.62638E-13 4.62638E-13 4.62638E-13 0.00000E+00 0.00000E+00 0.00000E+00
 -1      2644 4.38289E-13 4.38289E-13 4.38289E-13 0.00000E+00 0.00000E+00 0.00000E+00
 -1      2645 4.60425E-13 4.60425E-13 4.60425E-13 0.00000E+00 0.00000E+00 0.00000E+00
 -1      2646 4.58211E-13 4.58211E-13 4.58211E-13 0.00000E+00 0.00000E+00 0.00000E+00
 -1      2647 4.62638E-13 4.62638E-13 4.62638E-13 0.00000E+00 0.00000E+00 0.00000E+00
 -1      2648 4.60425E-13 4.60425E-13 4.60425E-13 0.00000E+00 0.00000E+00 0.00000E+00
 -1      2649 4.62638E-13 4.62638E-13 4.62638E-13 0.00000E+00 0.00000E+00 0.00000E+00
 -1      2650 4.62638E-13 4.62638E-13 4.62638E-13 0.00000E+00 0.00000E+00 0.00000E+00
 -1      2651 4.38289E-13 4.38289E-13 4.38289E-13 0.00000E+00 0.00000E+00 0.00000E+00
 -1      2652 4.38289E-13 4.38289E-13 4.38289E-13 0.00000E+00 0.00000E+00 0.00000E+00
 -1      2653 4.62638E-13 4.62638E-13 4.62638E-13 0.00000E+00 0.00000E+00 0.00000E+00
 -1      2654 4.51570E-13 4.51570E-13 4.51570E-13 0.00000E+00 0.00000E+00 0.00000E+00
 -1      2655 4.53784E-13 4.53784E-13 4.53784E-13 0.00000E+00 0.00000E+00 0.00000E+00
 -1      2656 4.40502E-13 4.40502E-13 4.40502E-13 0.00000E+00 0.00000E+00 0.00000E+00
 -1      2657 4.42716E-13 4.42716E-13 4.42716E-13 0.00000E+00 0.00000E+00 0.00000E+00
 -1      2658 4.49357E-13 4.49357E-13 4.49357E-13 0.00000E+00 0.00000E+00 0.00000E+00
 -1      2659 4.42716E-13 4.42716E-13 4.42716E-13 0.00000E+00 0.00000E+00 0.00000E+00
 -1      2660 4.64852E-13 4.64852E-13 4.64852E-13 0.00000E+00 0.00000E+00 0.00000E+00
 -1      2661 4.38289E-13 4.38289E-13 4.38289E-13 0.00000E+00 0.00000E+00 0.00000E+00
 -1      2662 4.38289E-13 4.38289E-13 4.38289E-13 0.00000E+00 0.00000E+00 0.00000E+00
 -1      2663 4.61057E-13 4.61057E-13 4.61057E-13 0.00000E+00 0.00000E+00 0.00000E+00
 -1      2664 4.64852E-13 4.64852E-13 4.64852E-13 0.00000E+00 0.00000E+00 0.00000E+00
 -1      2665 4.61057E-13 4.61057E-13 4.61057E-13 0.00000E+00 0.00000E+00 0.00000E+00
 -1      2666 4.60425E-13 4.60425E-13 4.60425E-13 0.00000E+00 0.00000E+00 0.00000E+00
 -1      2667 4.64852E-13 4.64852E-13 4.64852E-13 0.00000E+00 0.00000E+00 0.00000E+00
 -1      2668 4.42716E-13 4.42716E-13 4.42716E-13 0.00000E+00 0.00000E+00 0.00000E+00
 -1      2669 4.60425E-13 4.60425E-13 4.60425E-13 0.00000E+00 0.00000E+00 0.00000E+00
 -1      2670 4.47143E-13 4.47143E-13 4.47143E-13 0.00000E+00 0.00000E+00 0.00000E+00
 -1      2671 4.38289E-13 4.38289E-13 4.38289E-13 0.00000E+00 0.00000E+00 0.00000E+00
 -1      2672 4.60425E-13 4.60425E-13 4.60425E-13 0.00000E+00 0.00000E+00 0.00000E+00
 -1      2673 4.42716E-13 4.42716E-13 4.42716E-13 0.00000E+00 0.00000E+00 0.00000E+00
 -1      2674 4.38289E-13 4.38289E-13 4.38289E-13 0.00000E+00 0.00000E+00 0.00000E+00
 -1      2675 4.38289E-13 4.38289E-13 4.38289E-13 0.00000E+00 0.00000E+00 0.00000E+00
 -1      2676 4.40502E-13 4.40502E-13 4.40502E-13 0.00000E+00 0.00000E+00 0.00000E+00
 -1      2677 4.42716E-13 4.42716E-13 4.42716E-13 0.00000E+00 0.00000E+00 0.00000E+00
 -1      2678 4.64852E-13 4.64852E-13 4.64852E-13 0.00000E+00 0.00000E+00 0.00000E+00
 -1      2679 4.38289E-13 4.38289E-13 4.38289E-13 0.00000E+00 0.00000E+00 0.00000E+00
 -1      2680 4.49357E-13 4.49357E-13 4.49357E-13 0.00000E+00 0.00000E+00 0.00000E+00
 -1      2681 4.38289E-13 4.38289E-13 4.38289E-13 0.00000E+00 0.00000E+00 0.00000E+00
 -1      2682 4.38289E-13 4.38289E-13 4.38289E-13 0.00000E+00 0.00000E+00 0.00000E+00
 -1      2683 4.58211E-13 4.58211E-13 4.58211E-13 0.00000E+00 0.00000E+00 0.00000E+00
 -1      2684 4.58211E-13 4.58211E-13 4.58211E-13 0.00000E+00 0.00000E+00 0.00000E+00
 -1      2685 4.64852E-13 4.64852E-13 4.64852E-13 0.00000E+00 0.00000E+00 0.00000E+00
 -1      2686 4.62638E-13 4.62638E-13 4.62638E-13 0.00000E+00 0.00000E+00 0.00000E+00
 -1      2687 4.62638E-13 4.62638E-13 4.62638E-13 0.00000E+00 0.00000E+00 0.00000E+00
 -1      2688 4.62638E-13 4.62638E-13 4.62638E-13 0.00000E+00 0.00000E+00 0.00000E+00
 -1      2689 4.64852E-13 4.64852E-13 4.64852E-13 0.00000E+00 0.00000E+00 0.00000E+00
 -1      2690 4.64852E-13 4.64852E-13 4.64852E-13 0.00000E+00 0.00000E+00 0.00000E+00
 -1      2691 4.64852E-13 4.64852E-13 4.64852E-13 0.00000E+00 0.00000E+00 0.00000E+00
 -1      2692 4.64852E-13 4.64852E-13 4.64852E-13 0.00000E+00 0.00000E+00 0.00000E+00
 -1      2693 4.64852E-13 4.64852E-13 4.64852E-13 0.00000E+00 0.00000E+00 0.00000E+00
 -1      2694 4.64852E-13 4.64852E-13 4.64852E-13 0.00000E+00 0.00000E+00 0.00000E+00
 -1      2695 4.64852E-13 4.64852E-13 4.64852E-13 0.00000E+00 0.00000E+00 0.00000E+00
 -1      2696 4.64852E-13 4.64852E-13 4.64852E-13 0.00000E+00 0.00000E+00 0.00000E+00
 -1      2697 4.38289E-13 4.38289E-13 4.38289E-13 0.00000E+00 0.00000E+00 0.00000E+00
 -1      2698 4.38289E-13 4.38289E-13 4.38289E-13 0.00000E+00 0.00000E+00 0.00000E+00
 -1      2699 4.38289E-13 4.38289E-13 4.38289E-13 0.00000E+00 0.00000E+00 0.00000E+00
 -1      2700 4.64852E-13 4.64852E-13 4.64852E-13 0.00000E+00 0.00000E+00 0.00000E+00
 -1      2701 4.47775E-13 4.47775E-13 4.47775E-13 0.00000E+00 0.00000E+00 0.00000E+00
 -1      2702 4.42716E-13 4.42716E-13 4.42716E-13 0.00000E+00 0.00000E+00 0.00000E+00
 -1      2703 4.62638E-13 4.62638E-13 4.62638E-13 0.00000E+00 0.00000E+00 0.00000E+00
 -1      2704 4.38289E-13 4.38289E-13 4.38289E-13 0.00000E+00 0.00000E+00 0.00000E+00
 -1      2705 4.64852E-13 4.64852E-13 4.64852E-13 0.00000E+00 0.00000E+00 0.00000E+00
 -1      2706 4.64852E-13 4.64852E-13 4.64852E-13 0.00000E+00 0.00000E+00 0.00000E+00
 -1      2707 4.64852E-13 4.64852E-13 4.64852E-13 0.00000E+00 0.00000E+00 0.00000E+00
 -1      2708 4.47143E-13 4.47143E-13 4.47143E-13 0.00000E+00 0.00000E+00 0.00000E+00
 -1      2709 4.38289E-13 4.38289E-13 4.38289E-13 0.00000E+00 0.00000E+00 0.00000E+00
 -1      2710 4.64852E-13 4.64852E-13 4.64852E-13 0.00000E+00 0.00000E+00 0.00000E+00
 -1      2711 4.51570E-13 4.51570E-13 4.51570E-13 0.00000E+00 0.00000E+00 0.00000E+00
 -1      2712 4.42716E-13 4.42716E-13 4.42716E-13 0.00000E+00 0.00000E+00 0.00000E+00
 -1      2713 4.51570E-13 4.51570E-13 4.51570E-13 0.00000E+00 0.00000E+00 0.00000E+00
 -1      2714 4.38289E-13 4.38289E-13 4.38289E-13 0.00000E+00 0.00000E+00 0.00000E+00
 -1      2715 4.64852E-13 4.64852E-13 4.64852E-13 0.00000E+00 0.00000E+00 0.00000E+00
 -1      2716 4.64852E-13 4.64852E-13 4.64852E-13 0.00000E+00 0.00000E+00 0.00000E+00
 -1      2717 4.64852E-13 4.64852E-13 4.64852E-13 0.00000E+00 0.00000E+00 0.00000E+00
 -1      2718 4.60425E-13 4.60425E-13 4.60425E-13 0.00000E+00 0.00000E+00 0.00000E+00
 -1      2719 4.60425E-13 4.60425E-13 4.60425E-13 0.00000E+00 0.00000E+00 0.00000E+00
 -1      2720 4.38289E-13 4.38289E-13 4.38289E-13 0.00000E+00 0.00000E+00 0.00000E+00
 -1      2721 4.38289E-13 4.38289E-13 4.38289E-13 0.00000E+00 0.00000E+00 0.00000E+00
 -1      2722 4.42716E-13 4.42716E-13 4.42716E-13 0.00000E+00 0.00000E+00 0.00000E+00
 -1      2723 4.38289E-13 4.38289E-13 4.38289E-13 0.00000E+00 0.00000E+00 0.00000E+00
 -1      2724 4.58211E-13 4.58211E-13 4.58211E-13 0.00000E+00 0.00000E+00 0.00000E+00
 -1      2725 4.62954E-13 4.62954E-13 4.62954E-13 0.00000E+00 0.00000E+00 0.00000E+00
 -1      2726 4.62638E-13 4.62638E-13 4.62638E-13 0.00000E+00 0.00000E+00 0.00000E+00
 -1      2727 4.64852E-13 4.64852E-13 4.64852E-13 0.00000E+00 0.00000E+00 0.00000E+00
 -1      2728 5.00269E-13 5.00269E-13 5.00269E-13 0.00000E+00 0.00000E+00 0.00000E+00
 -1      2729 4.64852E-13 4.64852E-13 4.64852E-13 0.00000E+00 0.00000E+00 0.00000E+00
 -1      2730 4.38289E-13 4.38289E-13 4.38289E-13 0.00000E+00 0.00000E+00 0.00000E+00
 -1      2731 4.38289E-13 4.38289E-13 4.38289E-13 0.00000E+00 0.00000E+00 0.00000E+00
 -1      2732 4.42716E-13 4.42716E-13 4.42716E-13 0.00000E+00 0.00000E+00 0.00000E+00
 -1      2733 4.47143E-13 4.47143E-13 4.47143E-13 0.00000E+00 0.00000E+00 0.00000E+00
 -1      2734 4.38289E-13 4.38289E-13 4.38289E-13 0.00000E+00 0.00000E+00 0.00000E+00
 -1      2735 4.49673E-13 4.49673E-13 4.49673E-13 0.00000E+00 0.00000E+00 0.00000E+00
 -1      2736 4.64852E-13 4.64852E-13 4.64852E-13 0.00000E+00 0.00000E+00 0.00000E+00
 -1      2737 4.64852E-13 4.64852E-13 4.64852E-13 0.00000E+00 0.00000E+00 0.00000E+00
 -1      2738 4.64852E-13 4.64852E-13 4.64852E-13 0.00000E+00 0.00000E+00 0.00000E+00
 -1      2739 4.64852E-13 4.64852E-13 4.64852E-13 0.00000E+00 0.00000E+00 0.00000E+00
 -1      2740 4.64852E-13 4.64852E-13 4.64852E-13 0.00000E+00 0.00000E+00 0.00000E+00
 -1      2741 4.38289E-13 4.38289E-13 4.38289E-13 0.00000E+00 0.00000E+00 0.00000E+00
 -1      2742 4.40502E-13 4.40502E-13 4.40502E-13 0.00000E+00 0.00000E+00 0.00000E+00
 -1      2743 4.42716E-13 4.42716E-13 4.42716E-13 0.00000E+00 0.00000E+00 0.00000E+00
 -1      2744 4.38289E-13 4.38289E-13 4.38289E-13 0.00000E+00 0.00000E+00 0.00000E+00
 -1      2745 4.49357E-13 4.49357E-13 4.49357E-13 0.00000E+00 0.00000E+00 0.00000E+00
 -1      2746 4.55997E-13 4.55997E-13 4.55997E-13 0.00000E+00 0.00000E+00 0.00000E+00
 -1      2747 4.64852E-13 4.64852E-13 4.64852E-13 0.00000E+00 0.00000E+00 0.00000E+00
 -1      2748 4.60425E-13 4.60425E-13 4.60425E-13 0.00000E+00 0.00000E+00 0.00000E+00
 -1      2749 4.42716E-13 4.42716E-13 4.42716E-13 0.00000E+00 0.00000E+00 0.00000E+00
 -1      2750 4.38289E-13 4.38289E-13 4.38289E-13 0.00000E+00 0.00000E+00 0.00000E+00
 -1      2751 4.38289E-13 4.38289E-13 4.38289E-13 0.00000E+00 0.00000E+00 0.00000E+00
 -1      2752 4.49357E-13 4.49357E-13 4.49357E-13 0.00000E+00 0.00000E+00 0.00000E+00
 -1      2753 4.64852E-13 4.64852E-13 4.64852E-13 0.00000E+00 0.00000E+00 0.00000E+00
 -1      2754 4.53468E-13 4.53468E-13 4.53468E-13 0.00000E+00 0.00000E+00 0.00000E+00
 -1      2755 4.47775E-13 4.47775E-13 4.47775E-13 0.00000E+00 0.00000E+00 0.00000E+00
 -1      2756 4.61057E-13 4.61057E-13 4.61057E-13 0.00000E+00 0.00000E+00 0.00000E+00
 -1      2757 4.42716E-13 4.42716E-13 4.42716E-13 0.00000E+00 0.00000E+00 0.00000E+00
 -1      2758 4.44929E-13 4.44929E-13 4.44929E-13 0.00000E+00 0.00000E+00 0.00000E+00
 -1      2759 4.44929E-13 4.44929E-13 4.44929E-13 0.00000E+00 0.00000E+00 0.00000E+00
 -1      2760 4.45878E-13 4.45878E-13 4.45878E-13 0.00000E+00 0.00000E+00 0.00000E+00
 -1      2761 4.60425E-13 4.60425E-13 4.60425E-13 0.00000E+00 0.00000E+00 0.00000E+00
 -1      2762 4.38289E-13 4.38289E-13 4.38289E-13 0.00000E+00 0.00000E+00 0.00000E+00
 -1      2763 4.38289E-13 4.38289E-13 4.38289E-13 0.00000E+00 0.00000E+00 0.00000E+00
 -1      2764 4.38289E-13 4.38289E-13 4.38289E-13 0.00000E+00 0.00000E+00 0.00000E+00
 -1      2765 4.38289E-13 4.38289E-13 4.38289E-13 0.00000E+00 0.00000E+00 0.00000E+00
 -1      2766 4.38289E-13 4.38289E-13 4.38289E-13 0.00000E+00 0.00000E+00 0.00000E+00
 -1      2767 4.38289E-13 4.38289E-13 4.38289E-13 0.00000E+00 0.00000E+00 0.00000E+00
 -1      2768 4.49673E-13 4.49673E-13 4.49673E-13 0.00000E+00 0.00000E+00 0.00000E+00
 -1      2769 4.61057E-13 4.61057E-13 4.61057E-13 0.00000E+00 0.00000E+00 0.00000E+00
 -1      2770 4.64852E-13 4.64852E-13 4.64852E-13 0.00000E+00 0.00000E+00 0.00000E+00
 -1      2771 4.64852E-13 4.64852E-13 4.64852E-13 0.00000E+00 0.00000E+00 0.00000E+00
 -1      2772 4.58211E-13 4.58211E-13 4.58211E-13 0.00000E+00 0.00000E+00 0.00000E+00
 -1      2773 4.55997E-13 4.55997E-13 4.55997E-13 0.00000E+00 0.00000E+00 0.00000E+00
 -1      2774 4.53784E-13 4.53784E-13 4.53784E-13 0.00000E+00 0.00000E+00 0.00000E+00
 -1      2775 4.60425E-13 4.60425E-13 4.60425E-13 0.00000E+00 0.00000E+00 0.00000E+00
 -1      2776 4.64852E-13 4.64852E-13 4.64852E-13 0.00000E+00 0.00000E+00 0.00000E+00
 -1      2777 4.64852E-13 4.64852E-13 4.64852E-13 0.00000E+00 0.00000E+00 0.00000E+00
 -1      2778 4.64852E-13 4.64852E-13 4.64852E-13 0.00000E+00 0.00000E+00 0.00000E+00
 -1      2779 4.64852E-13 4.64852E-13 4.64852E-13 0.00000E+00 0.00000E+00 0.00000E+00
 -1      2780 4.62638E-13 4.62638E-13 4.62638E-13 0.00000E+00 0.00000E+00 0.00000E+00
 -1      2781 4.38289E-13 4.38289E-13 4.38289E-13 0.00000E+00 0.00000E+00 0.00000E+00
 -1      2782 4.47143E-13 4.47143E-13 4.47143E-13 0.00000E+00 0.00000E+00 0.00000E+00
 -1      2783 4.44929E-13 4.44929E-13 4.44929E-13 0.00000E+00 0.00000E+00 0.00000E+00
 -1      2784 4.58211E-13 4.58211E-13 4.58211E-13 0.00000E+00 0.00000E+00 0.00000E+00
 -1      2785 4.64852E-13 4.64852E-13 4.64852E-13 0.00000E+00 0.00000E+00 0.00000E+00
 -1      2786 4.42716E-13 4.42716E-13 4.42716E-13 0.00000E+00 0.00000E+00 0.00000E+00
 -1      2787 4.38289E-13 4.38289E-13 4.38289E-13 0.00000E+00 0.00000E+00 0.00000E+00
 -1      2788 4.60425E-13 4.60425E-13 4.60425E-13 0.00000E+00 0.00000E+00 0.00000E+00
 -1      2789 4.64852E-13 4.64852E-13 4.64852E-13 0.00000E+00 0.00000E+00 0.00000E+00
 -1      2790 4.60425E-13 4.60425E-13 4.60425E-13 0.00000E+00 0.00000E+00 0.00000E+00
 -1      2791 4.51570E-13 4.51570E-13 4.51570E-13 0.00000E+00 0.00000E+00 0.00000E+00
 -1      2792 4.40502E-13 4.40502E-13 4.40502E-13 0.00000E+00 0.00000E+00 0.00000E+00
 -1      2793 4.38289E-13 4.38289E-13 4.38289E-13 0.00000E+00 0.00000E+00 0.00000E+00
 -1      2794 4.64852E-13 4.64852E-13 4.64852E-13 0.00000E+00 0.00000E+00 0.00000E+00
 -1      2795 4.62638E-13 4.62638E-13 4.62638E-13 0.00000E+00 0.00000E+00 0.00000E+00
 -1      2796 4.51570E-13 4.51570E-13 4.51570E-13 0.00000E+00 0.00000E+00 0.00000E+00
 -1      2797 4.44929E-13 4.44929E-13 4.44929E-13 0.00000E+00 0.00000E+00 0.00000E+00
 -1      2798 4.38289E-13 4.38289E-13 4.38289E-13 0.00000E+00 0.00000E+00 0.00000E+00
 -1      2799 4.38289E-13 4.38289E-13 4.38289E-13 0.00000E+00 0.00000E+00 0.00000E+00
 -1      2800 4.38289E-13 4.38289E-13 4.38289E-13 0.00000E+00 0.00000E+00 0.00000E+00
 -1      2801 4.64852E-13 4.64852E-13 4.64852E-13 0.00000E+00 0.00000E+00 0.00000E+00
 -1      2802 4.40502E-13 4.40502E-13 4.40502E-13 0.00000E+00 0.00000E+00 0.00000E+00
 -1      2803 4.42716E-13 4.42716E-13 4.42716E-13 0.00000E+00 0.00000E+00 0.00000E+00
 -1      2804 4.47143E-13 4.47143E-13 4.47143E-13 0.00000E+00 0.00000E+00 0.00000E+00
 -1      2805 4.64852E-13 4.64852E-13 4.64852E-13 0.00000E+00 0.00000E+00 0.00000E+00
 -1      2806 4.60425E-13 4.60425E-13 4.60425E-13 0.00000E+00 0.00000E+00 0.00000E+00
 -1      2807 4.64852E-13 4.64852E-13 4.64852E-13 0.00000E+00 0.00000E+00 0.00000E+00
 -1      2808 4.64852E-13 4.64852E-13 4.64852E-13 0.00000E+00 0.00000E+00 0.00000E+00
 -1      2809 4.64852E-13 4.64852E-13 4.64852E-13 0.00000E+00 0.00000E+00 0.00000E+00
 -1      2810 4.55997E-13 4.55997E-13 4.55997E-13 0.00000E+00 0.00000E+00 0.00000E+00
 -1      2811 4.60425E-13 4.60425E-13 4.60425E-13 0.00000E+00 0.00000E+00 0.00000E+00
 -1      2812 4.62638E-13 4.62638E-13 4.62638E-13 0.00000E+00 0.00000E+00 0.00000E+00
 -1      2813 4.58211E-13 4.58211E-13 4.58211E-13 0.00000E+00 0.00000E+00 0.00000E+00
 -1      2814 4.38289E-13 4.38289E-13 4.38289E-13 0.00000E+00 0.00000E+00 0.00000E+00
 -1      2815 4.47143E-13 4.47143E-13 4.47143E-13 0.00000E+00 0.00000E+00 0.00000E+00
 -1      2816 4.51570E-13 4.51570E-13 4.51570E-13 0.00000E+00 0.00000E+00 0.00000E+00
 -1      2817 4.51570E-13 4.51570E-13 4.51570E-13 0.00000E+00 0.00000E+00 0.00000E+00
 -1      2818 4.42716E-13 4.42716E-13 4.42716E-13 0.00000E+00 0.00000E+00 0.00000E+00
 -1      2819 4.44929E-13 4.44929E-13 4.44929E-13 0.00000E+00 0.00000E+00 0.00000E+00
 -1      2820 4.42716E-13 4.42716E-13 4.42716E-13 0.00000E+00 0.00000E+00 0.00000E+00
 -1      2821 4.53784E-13 4.53784E-13 4.53784E-13 0.00000E+00 0.00000E+00 0.00000E+00
 -1      2822 4.42716E-13 4.42716E-13 4.42716E-13 0.00000E+00 0.00000E+00 0.00000E+00
 -1      2823 4.55997E-13 4.55997E-13 4.55997E-13 0.00000E+00 0.00000E+00 0.00000E+00
 -1      2824 4.62638E-13 4.62638E-13 4.62638E-13 0.00000E+00 0.00000E+00 0.00000E+00
 -1      2825 4.38289E-13 4.38289E-13 4.38289E-13 0.00000E+00 0.00000E+00 0.00000E+00
 -1      2826 4.62954E-13 4.62954E-13 4.62954E-13 0.00000E+00 0.00000E+00 0.00000E+00
 -1      2827 4.38289E-13 4.38289E-13 4.38289E-13 0.00000E+00 0.00000E+00 0.00000E+00
 -1      2828 4.53784E-13 4.53784E-13 4.53784E-13 0.00000E+00 0.00000E+00 0.00000E+00
 -1      2829 4.55997E-13 4.55997E-13 4.55997E-13 0.00000E+00 0.00000E+00 0.00000E+00
 -1      2830 4.62638E-13 4.62638E-13 4.62638E-13 0.00000E+00 0.00000E+00 0.00000E+00
 -1      2831 4.62638E-13 4.62638E-13 4.62638E-13 0.00000E+00 0.00000E+00 0.00000E+00
 -1      2832 4.62638E-13 4.62638E-13 4.62638E-13 0.00000E+00 0.00000E+00 0.00000E+00
 -1      2833 4.64852E-13 4.64852E-13 4.64852E-13 0.00000E+00 0.00000E+00 0.00000E+00
 -1      2834 4.64852E-13 4.64852E-13 4.64852E-13 0.00000E+00 0.00000E+00 0.00000E+00
 -1      2835 4.62638E-13 4.62638E-13 4.62638E-13 0.00000E+00 0.00000E+00 0.00000E+00
 -1      2836 4.62638E-13 4.62638E-13 4.62638E-13 0.00000E+00 0.00000E+00 0.00000E+00
 -1      2837 4.64852E-13 4.64852E-13 4.64852E-13 0.00000E+00 0.00000E+00 0.00000E+00
 -1      2838 4.60425E-13 4.60425E-13 4.60425E-13 0.00000E+00 0.00000E+00 0.00000E+00
 -1      2839 4.49357E-13 4.49357E-13 4.49357E-13 0.00000E+00 0.00000E+00 0.00000E+00
 -1      2840 4.47143E-13 4.47143E-13 4.47143E-13 0.00000E+00 0.00000E+00 0.00000E+00
 -1      2841 4.42716E-13 4.42716E-13 4.42716E-13 0.00000E+00 0.00000E+00 0.00000E+00
 -1      2842 4.44929E-13 4.44929E-13 4.44929E-13 0.00000E+00 0.00000E+00 0.00000E+00
 -1      2843 4.55997E-13 4.55997E-13 4.55997E-13 0.00000E+00 0.00000E+00 0.00000E+00
 -1      2844 4.62638E-13 4.62638E-13 4.62638E-13 0.00000E+00 0.00000E+00 0.00000E+00
 -1      2845 4.58211E-13 4.58211E-13 4.58211E-13 0.00000E+00 0.00000E+00 0.00000E+00
 -1      2846 4.64852E-13 4.64852E-13 4.64852E-13 0.00000E+00 0.00000E+00 0.00000E+00
 -1      2847 4.58211E-13 4.58211E-13 4.58211E-13 0.00000E+00 0.00000E+00 0.00000E+00
 -1      2848 4.62638E-13 4.62638E-13 4.62638E-13 0.00000E+00 0.00000E+00 0.00000E+00
 -1      2849 4.49357E-13 4.49357E-13 4.49357E-13 0.00000E+00 0.00000E+00 0.00000E+00
 -1      2850 4.60425E-13 4.60425E-13 4.60425E-13 0.00000E+00 0.00000E+00 0.00000E+00
 -1      2851 4.58211E-13 4.58211E-13 4.58211E-13 0.00000E+00 0.00000E+00 0.00000E+00
 -1      2852 4.64852E-13 4.64852E-13 4.64852E-13 0.00000E+00 0.00000E+00 0.00000E+00
 -1      2853 4.60425E-13 4.60425E-13 4.60425E-13 0.00000E+00 0.00000E+00 0.00000E+00
 -1      2854 4.64852E-13 4.64852E-13 4.64852E-13 0.00000E+00 0.00000E+00 0.00000E+00
 -1      2855 4.62638E-13 4.62638E-13 4.62638E-13 0.00000E+00 0.00000E+00 0.00000E+00
 -1      2856 4.64852E-13 4.64852E-13 4.64852E-13 0.00000E+00 0.00000E+00 0.00000E+00
 -1      2857 4.64852E-13 4.64852E-13 4.64852E-13 0.00000E+00 0.00000E+00 0.00000E+00
 -1      2858 4.64852E-13 4.64852E-13 4.64852E-13 0.00000E+00 0.00000E+00 0.00000E+00
 -1      2859 4.60425E-13 4.60425E-13 4.60425E-13 0.00000E+00 0.00000E+00 0.00000E+00
 -1      2860 4.58211E-13 4.58211E-13 4.58211E-13 0.00000E+00 0.00000E+00 0.00000E+00
 -1      2861 4.47143E-13 4.47143E-13 4.47143E-13 0.00000E+00 0.00000E+00 0.00000E+00
 -1      2862 4.49357E-13 4.49357E-13 4.49357E-13 0.00000E+00 0.00000E+00 0.00000E+00
 -1      2863 4.44929E-13 4.44929E-13 4.44929E-13 0.00000E+00 0.00000E+00 0.00000E+00
 -1      2864 4.49357E-13 4.49357E-13 4.49357E-13 0.00000E+00 0.00000E+00 0.00000E+00
 -1      2865 4.49357E-13 4.49357E-13 4.49357E-13 0.00000E+00 0.00000E+00 0.00000E+00
 -1      2866 4.47143E-13 4.47143E-13 4.47143E-13 0.00000E+00 0.00000E+00 0.00000E+00
 -1      2867 4.47143E-13 4.47143E-13 4.47143E-13 0.00000E+00 0.00000E+00 0.00000E+00
 -1      2868 4.58211E-13 4.58211E-13 4.58211E-13 0.00000E+00 0.00000E+00 0.00000E+00
 -1      2869 4.51570E-13 4.51570E-13 4.51570E-13 0.00000E+00 0.00000E+00 0.00000E+00
 -1      2870 4.58211E-13 4.58211E-13 4.58211E-13 0.00000E+00 0.00000E+00 0.00000E+00
 -1      2871 4.38289E-13 4.38289E-13 4.38289E-13 0.00000E+00 0.00000E+00 0.00000E+00
 -1      2872 4.53784E-13 4.53784E-13 4.53784E-13 0.00000E+00 0.00000E+00 0.00000E+00
 -1      2873 4.44929E-13 4.44929E-13 4.44929E-13 0.00000E+00 0.00000E+00 0.00000E+00
 -1      2874 4.42716E-13 4.42716E-13 4.42716E-13 0.00000E+00 0.00000E+00 0.00000E+00
 -1      2875 4.38289E-13 4.38289E-13 4.38289E-13 0.00000E+00 0.00000E+00 0.00000E+00
 -1      2876 4.55997E-13 4.55997E-13 4.55997E-13 0.00000E+00 0.00000E+00 0.00000E+00
 -1      2877 4.38289E-13 4.38289E-13 4.38289E-13 0.00000E+00 0.00000E+00 0.00000E+00
 -1      2878 4.38289E-13 4.38289E-13 4.38289E-13 0.00000E+00 0.00000E+00 0.00000E+00
 -1      2879 4.49357E-13 4.49357E-13 4.49357E-13 0.00000E+00 0.00000E+00 0.00000E+00
 -1      2880 4.38289E-13 4.38289E-13 4.38289E-13 0.00000E+00 0.00000E+00 0.00000E+00
 -1      2881 4.42716E-13 4.42716E-13 4.42716E-13 0.00000E+00 0.00000E+00 0.00000E+00
 -1      2882 4.38289E-13 4.38289E-13 4.38289E-13 0.00000E+00 0.00000E+00 0.00000E+00
 -1      2883 4.42716E-13 4.42716E-13 4.42716E-13 0.00000E+00 0.00000E+00 0.00000E+00
 -1      2884 4.38289E-13 4.38289E-13 4.38289E-13 0.00000E+00 0.00000E+00 0.00000E+00
 -1      2885 4.38289E-13 4.38289E-13 4.38289E-13 0.00000E+00 0.00000E+00 0.00000E+00
 -1      2886 4.42716E-13 4.42716E-13 4.42716E-13 0.00000E+00 0.00000E+00 0.00000E+00
 -1      2887 4.38289E-13 4.38289E-13 4.38289E-13 0.00000E+00 0.00000E+00 0.00000E+00
 -1      2888 4.47143E-13 4.47143E-13 4.47143E-13 0.00000E+00 0.00000E+00 0.00000E+00
 -1      2889 4.62638E-13 4.62638E-13 4.62638E-13 0.00000E+00 0.00000E+00 0.00000E+00
 -1      2890 4.64852E-13 4.64852E-13 4.64852E-13 0.00000E+00 0.00000E+00 0.00000E+00
 -1      2891 4.53784E-13 4.53784E-13 4.53784E-13 0.00000E+00 0.00000E+00 0.00000E+00
 -1      2892 4.62638E-13 4.62638E-13 4.62638E-13 0.00000E+00 0.00000E+00 0.00000E+00
 -1      2893 4.53784E-13 4.53784E-13 4.53784E-13 0.00000E+00 0.00000E+00 0.00000E+00
 -1      2894 4.64852E-13 4.64852E-13 4.64852E-13 0.00000E+00 0.00000E+00 0.00000E+00
 -1      2895 4.58211E-13 4.58211E-13 4.58211E-13 0.00000E+00 0.00000E+00 0.00000E+00
 -1      2896 4.62638E-13 4.62638E-13 4.62638E-13 0.00000E+00 0.00000E+00 0.00000E+00
 -1      2897 4.58211E-13 4.58211E-13 4.58211E-13 0.00000E+00 0.00000E+00 0.00000E+00
 -1      2898 4.64852E-13 4.64852E-13 4.64852E-13 0.00000E+00 0.00000E+00 0.00000E+00
 -1      2899 4.64852E-13 4.64852E-13 4.64852E-13 0.00000E+00 0.00000E+00 0.00000E+00
 -1      2900 4.62638E-13 4.62638E-13 4.62638E-13 0.00000E+00 0.00000E+00 0.00000E+00
 -1      2901 4.64852E-13 4.64852E-13 4.64852E-13 0.00000E+00 0.00000E+00 0.00000E+00
 -1      2902 4.64852E-13 4.64852E-13 4.64852E-13 0.00000E+00 0.00000E+00 0.00000E+00
 -1      2903 4.64852E-13 4.64852E-13 4.64852E-13 0.00000E+00 0.00000E+00 0.00000E+00
 -1      2904 4.64852E-13 4.64852E-13 4.64852E-13 0.00000E+00 0.00000E+00 0.00000E+00
 -1      2905 4.64852E-13 4.64852E-13 4.64852E-13 0.00000E+00 0.00000E+00 0.00000E+00
 -1      2906 4.58211E-13 4.58211E-13 4.58211E-13 0.00000E+00 0.00000E+00 0.00000E+00
 -1      2907 4.62638E-13 4.62638E-13 4.62638E-13 0.00000E+00 0.00000E+00 0.00000E+00
 -1      2908 4.55997E-13 4.55997E-13 4.55997E-13 0.00000E+00 0.00000E+00 0.00000E+00
 -1      2909 4.58211E-13 4.58211E-13 4.58211E-13 0.00000E+00 0.00000E+00 0.00000E+00
 -1      2910 4.62638E-13 4.62638E-13 4.62638E-13 0.00000E+00 0.00000E+00 0.00000E+00
 -1      2911 4.64852E-13 4.64852E-13 4.64852E-13 0.00000E+00 0.00000E+00 0.00000E+00
 -1      2912 4.64852E-13 4.64852E-13 4.64852E-13 0.00000E+00 0.00000E+00 0.00000E+00
 -1      2913 4.64852E-13 4.64852E-13 4.64852E-13 0.00000E+00 0.00000E+00 0.00000E+00
 -1      2914 4.64852E-13 4.64852E-13 4.64852E-13 0.00000E+00 0.00000E+00 0.00000E+00
 -1      2915 4.64852E-13 4.64852E-13 4.64852E-13 0.00000E+00 0.00000E+00 0.00000E+00
 -1      2916 4.64852E-13 4.64852E-13 4.64852E-13 0.00000E+00 0.00000E+00 0.00000E+00
 -1      2917 4.64852E-13 4.64852E-13 4.64852E-13 0.00000E+00 0.00000E+00 0.00000E+00
 -1      2918 4.64852E-13 4.64852E-13 4.64852E-13 0.00000E+00 0.00000E+00 0.00000E+00
 -1      2919 4.64852E-13 4.64852E-13 4.64852E-13 0.00000E+00 0.00000E+00 0.00000E+00
 -1      2920 4.64852E-13 4.64852E-13 4.64852E-13 0.00000E+00 0.00000E+00 0.00000E+00
 -1      2921 4.64852E-13 4.64852E-13 4.64852E-13 0.00000E+00 0.00000E+00 0.00000E+00
 -1      2922 4.64852E-13 4.64852E-13 4.64852E-13 0.00000E+00 0.00000E+00 0.00000E+00
 -1      2923 4.64852E-13 4.64852E-13 4.64852E-13 0.00000E+00 0.00000E+00 0.00000E+00
 -1      2924 4.64852E-13 4.64852E-13 4.64852E-13 0.00000E+00 0.00000E+00 0.00000E+00
 -1      2925 4.64852E-13 4.64852E-13 4.64852E-13 0.00000E+00 0.00000E+00 0.00000E+00
 -1      2926 4.64852E-13 4.64852E-13 4.64852E-13 0.00000E+00 0.00000E+00 0.00000E+00
 -1      2927 4.64852E-13 4.64852E-13 4.64852E-13 0.00000E+00 0.00000E+00 0.00000E+00
 -1      2928 4.64852E-13 4.64852E-13 4.64852E-13 0.00000E+00 0.00000E+00 0.00000E+00
 -1      2929 4.64852E-13 4.64852E-13 4.64852E-13 0.00000E+00 0.00000E+00 0.00000E+00
 -1      2930 4.64852E-13 4.64852E-13 4.64852E-13 0.00000E+00 0.00000E+00 0.00000E+00
 -1      2931 4.64852E-13 4.64852E-13 4.64852E-13 0.00000E+00 0.00000E+00 0.00000E+00
 -1      2932 4.64852E-13 4.64852E-13 4.64852E-13 0.00000E+00 0.00000E+00 0.00000E+00
 -1      2933 4.64852E-13 4.64852E-13 4.64852E-13 0.00000E+00 0.00000E+00 0.00000E+00
 -1      2934 4.64852E-13 4.64852E-13 4.64852E-13 0.00000E+00 0.00000E+00 0.00000E+00
 -1      2935 4.64852E-13 4.64852E-13 4.64852E-13 0.00000E+00 0.00000E+00 0.00000E+00
 -1      2936 4.64852E-13 4.64852E-13 4.64852E-13 0.00000E+00 0.00000E+00 0.00000E+00
 -1      2937 4.64852E-13 4.64852E-13 4.64852E-13 0.00000E+00 0.00000E+00 0.00000E+00
 -1      2938 4.64852E-13 4.64852E-13 4.64852E-13 0.00000E+00 0.00000E+00 0.00000E+00
 -1      2939 4.64852E-13 4.64852E-13 4.64852E-13 0.00000E+00 0.00000E+00 0.00000E+00
 -1      2940 4.64852E-13 4.64852E-13 4.64852E-13 0.00000E+00 0.00000E+00 0.00000E+00
 -1      2941 4.64852E-13 4.64852E-13 4.64852E-13 0.00000E+00 0.00000E+00 0.00000E+00
 -1      2942 4.64852E-13 4.64852E-13 4.64852E-13 0.00000E+00 0.00000E+00 0.00000E+00
 -1      2943 4.64852E-13 4.64852E-13 4.64852E-13 0.00000E+00 0.00000E+00 0.00000E+00
 -1      2944 4.64852E-13 4.64852E-13 4.64852E-13 0.00000E+00 0.00000E+00 0.00000E+00
 -1      2945 4.64852E-13 4.64852E-13 4.64852E-13 0.00000E+00 0.00000E+00 0.00000E+00
 -1      2946 4.64852E-13 4.64852E-13 4.64852E-13 0.00000E+00 0.00000E+00 0.00000E+00
 -1      2947 4.64852E-13 4.64852E-13 4.64852E-13 0.00000E+00 0.00000E+00 0.00000E+00
 -1      2948 4.64852E-13 4.64852E-13 4.64852E-13 0.00000E+00 0.00000E+00 0.00000E+00
 -1      2949 4.64852E-13 4.64852E-13 4.64852E-13 0.00000E+00 0.00000E+00 0.00000E+00
 -1      2950 4.64852E-13 4.64852E-13 4.64852E-13 0.00000E+00 0.00000E+00 0.00000E+00
 -1      2951 4.64852E-13 4.64852E-13 4.64852E-13 0.00000E+00 0.00000E+00 0.00000E+00
 -1      2952 4.64852E-13 4.64852E-13 4.64852E-13 0.00000E+00 0.00000E+00 0.00000E+00
 -1      2953 4.64852E-13 4.64852E-13 4.64852E-13 0.00000E+00 0.00000E+00 0.00000E+00
 -1      2954 4.64852E-13 4.64852E-13 4.64852E-13 0.00000E+00 0.00000E+00 0.00000E+00
 -1      2955 4.64852E-13 4.64852E-13 4.64852E-13 0.00000E+00 0.00000E+00 0.00000E+00
 -1      2956 4.64852E-13 4.64852E-13 4.64852E-13 0.00000E+00 0.00000E+00 0.00000E+00
 -1      2957 4.64852E-13 4.64852E-13 4.64852E-13 0.00000E+00 0.00000E+00 0.00000E+00
 -1      2958 4.64852E-13 4.64852E-13 4.64852E-13 0.00000E+00 0.00000E+00 0.00000E+00
 -1      2959 4.64852E-13 4.64852E-13 4.64852E-13 0.00000E+00 0.00000E+00 0.00000E+00
 -1      2960 4.64852E-13 4.64852E-13 4.64852E-13 0.00000E+00 0.00000E+00 0.00000E+00
 -1      2961 4.64852E-13 4.64852E-13 4.64852E-13 0.00000E+00 0.00000E+00 0.00000E+00
 -1      2962 4.64852E-13 4.64852E-13 4.64852E-13 0.00000E+00 0.00000E+00 0.00000E+00
 -1      2963 4.64852E-13 4.64852E-13 4.64852E-13 0.00000E+00 0.00000E+00 0.00000E+00
 -1      2964 4.64852E-13 4.64852E-13 4.64852E-13 0.00000E+00 0.00000E+00 0.00000E+00
 -1      2965 4.64852E-13 4.64852E-13 4.64852E-13 0.00000E+00 0.00000E+00 0.00000E+00
 -1      2966 4.64852E-13 4.64852E-13 4.64852E-13 0.00000E+00 0.00000E+00 0.00000E+00
 -1      2967 4.64852E-13 4.64852E-13 4.64852E-13 0.00000E+00 0.00000E+00 0.00000E+00
 -1      2968 4.64852E-13 4.64852E-13 4.64852E-13 0.00000E+00 0.00000E+00 0.00000E+00
 -1      2969 4.64852E-13 4.64852E-13 4.64852E-13 0.00000E+00 0.00000E+00 0.00000E+00
 -1      2970 4.64852E-13 4.64852E-13 4.64852E-13 0.00000E+00 0.00000E+00 0.00000E+00
 -1      2971 4.55997E-13 4.55997E-13 4.55997E-13 0.00000E+00 0.00000E+00 0.00000E+00
 -1      2972 4.38289E-13 4.38289E-13 4.38289E-13 0.00000E+00 0.00000E+00 0.00000E+00
 -1      2973 4.38289E-13 4.38289E-13 4.38289E-13 0.00000E+00 0.00000E+00 0.00000E+00
 -1      2974 4.64852E-13 4.64852E-13 4.64852E-13 0.00000E+00 0.00000E+00 0.00000E+00
 -1      2975 4.51570E-13 4.51570E-13 4.51570E-13 0.00000E+00 0.00000E+00 0.00000E+00
 -1      2976 4.64852E-13 4.64852E-13 4.64852E-13 0.00000E+00 0.00000E+00 0.00000E+00
 -1      2977 4.64852E-13 4.64852E-13 4.64852E-13 0.00000E+00 0.00000E+00 0.00000E+00
 -1      2978 4.60425E-13 4.60425E-13 4.60425E-13 0.00000E+00 0.00000E+00 0.00000E+00
 -1      2979 4.38289E-13 4.38289E-13 4.38289E-13 0.00000E+00 0.00000E+00 0.00000E+00
 -1      2980 4.40502E-13 4.40502E-13 4.40502E-13 0.00000E+00 0.00000E+00 0.00000E+00
 -1      2981 4.55997E-13 4.55997E-13 4.55997E-13 0.00000E+00 0.00000E+00 0.00000E+00
 -1      2982 4.48914E-13 4.48914E-13 4.48914E-13 0.00000E+00 0.00000E+00 0.00000E+00
 -1      2983 4.38289E-13 4.38289E-13 4.38289E-13 0.00000E+00 0.00000E+00 0.00000E+00
 -1      2984 4.38289E-13 4.38289E-13 4.38289E-13 0.00000E+00 0.00000E+00 0.00000E+00
 -1      2985 4.38289E-13 4.38289E-13 4.38289E-13 0.00000E+00 0.00000E+00 0.00000E+00
 -1      2986 4.64852E-13 4.64852E-13 4.64852E-13 0.00000E+00 0.00000E+00 0.00000E+00
 -1      2987 4.60425E-13 4.60425E-13 4.60425E-13 0.00000E+00 0.00000E+00 0.00000E+00
 -1      2988 4.62638E-13 4.62638E-13 4.62638E-13 0.00000E+00 0.00000E+00 0.00000E+00
 -1      2989 4.49357E-13 4.49357E-13 4.49357E-13 0.00000E+00 0.00000E+00 0.00000E+00
 -1      2990 4.55997E-13 4.55997E-13 4.55997E-13 0.00000E+00 0.00000E+00 0.00000E+00
 -1      2991 4.51570E-13 4.51570E-13 4.51570E-13 0.00000E+00 0.00000E+00 0.00000E+00
 -1      2992 4.47143E-13 4.47143E-13 4.47143E-13 0.00000E+00 0.00000E+00 0.00000E+00
 -1      2993 4.60425E-13 4.60425E-13 4.60425E-13 0.00000E+00 0.00000E+00 0.00000E+00
 -1      2994 4.64852E-13 4.64852E-13 4.64852E-13 0.00000E+00 0.00000E+00 0.00000E+00
 -1      2995 4.64852E-13 4.64852E-13 4.64852E-13 0.00000E+00 0.00000E+00 0.00000E+00
 -1      2996 4.64852E-13 4.64852E-13 4.64852E-13 0.00000E+00 0.00000E+00 0.00000E+00
 -1      2997 4.64852E-13 4.64852E-13 4.64852E-13 0.00000E+00 0.00000E+00 0.00000E+00
 -1      2998 4.64852E-13 4.64852E-13 4.64852E-13 0.00000E+00 0.00000E+00 0.00000E+00
 -1      2999 4.64852E-13 4.64852E-13 4.64852E-13 0.00000E+00 0.00000E+00 0.00000E+00
 -1      3000 4.64852E-13 4.64852E-13 4.64852E-13 0.00000E+00 0.00000E+00 0.00000E+00
 -1      3001 4.64852E-13 4.64852E-13 4.64852E-13 0.00000E+00 0.00000E+00 0.00000E+00
 -1      3002 4.64852E-13 4.64852E-13 4.64852E-13 0.00000E+00 0.00000E+00 0.00000E+00
 -1      3003 4.64852E-13 4.64852E-13 4.64852E-13 0.00000E+00 0.00000E+00 0.00000E+00
 -1      3004 4.49357E-13 4.49357E-13 4.49357E-13 0.00000E+00 0.00000E+00 0.00000E+00
 -1      3005 4.64852E-13 4.64852E-13 4.64852E-13 0.00000E+00 0.00000E+00 0.00000E+00
 -1      3006 4.64852E-13 4.64852E-13 4.64852E-13 0.00000E+00 0.00000E+00 0.00000E+00
 -1      3007 4.53784E-13 4.53784E-13 4.53784E-13 0.00000E+00 0.00000E+00 0.00000E+00
 -1      3008 4.64852E-13 4.64852E-13 4.64852E-13 0.00000E+00 0.00000E+00 0.00000E+00
 -1      3009 4.42716E-13 4.42716E-13 4.42716E-13 0.00000E+00 0.00000E+00 0.00000E+00
 -1      3010 4.55997E-13 4.55997E-13 4.55997E-13 0.00000E+00 0.00000E+00 0.00000E+00
 -1      3011 4.51570E-13 4.51570E-13 4.51570E-13 0.00000E+00 0.00000E+00 0.00000E+00
 -1      3012 4.53784E-13 4.53784E-13 4.53784E-13 0.00000E+00 0.00000E+00 0.00000E+00
 -1      3013 4.64852E-13 4.64852E-13 4.64852E-13 0.00000E+00 0.00000E+00 0.00000E+00
 -1      3014 4.64852E-13 4.64852E-13 4.64852E-13 0.00000E+00 0.00000E+00 0.00000E+00
 -1      3015 4.64852E-13 4.64852E-13 4.64852E-13 0.00000E+00 0.00000E+00 0.00000E+00
 -1      3016 4.64852E-13 4.64852E-13 4.64852E-13 0.00000E+00 0.00000E+00 0.00000E+00
 -1      3017 4.64852E-13 4.64852E-13 4.64852E-13 0.00000E+00 0.00000E+00 0.00000E+00
 -1      3018 4.64852E-13 4.64852E-13 4.64852E-13 0.00000E+00 0.00000E+00 0.00000E+00
 -1      3019 4.64852E-13 4.64852E-13 4.64852E-13 0.00000E+00 0.00000E+00 0.00000E+00
 -1      3020 4.64852E-13 4.64852E-13 4.64852E-13 0.00000E+00 0.00000E+00 0.00000E+00
 -1      3021 4.64852E-13 4.64852E-13 4.64852E-13 0.00000E+00 0.00000E+00 0.00000E+00
 -1      3022 4.64852E-13 4.64852E-13 4.64852E-13 0.00000E+00 0.00000E+00 0.00000E+00
 -1      3023 4.64852E-13 4.64852E-13 4.64852E-13 0.00000E+00 0.00000E+00 0.00000E+00
 -1      3024 4.64852E-13 4.64852E-13 4.64852E-13 0.00000E+00 0.00000E+00 0.00000E+00
 -1      3025 4.64852E-13 4.64852E-13 4.64852E-13 0.00000E+00 0.00000E+00 0.00000E+00
 -1      3026 4.64852E-13 4.64852E-13 4.64852E-13 0.00000E+00 0.00000E+00 0.00000E+00
 -1      3027 4.64852E-13 4.64852E-13 4.64852E-13 0.00000E+00 0.00000E+00 0.00000E+00
 -1      3028 4.64852E-13 4.64852E-13 4.64852E-13 0.00000E+00 0.00000E+00 0.00000E+00
 -1      3029 4.64852E-13 4.64852E-13 4.64852E-13 0.00000E+00 0.00000E+00 0.00000E+00
 -1      3030 4.64852E-13 4.64852E-13 4.64852E-13 0.00000E+00 0.00000E+00 0.00000E+00
 -1      3031 4.64852E-13 4.64852E-13 4.64852E-13 0.00000E+00 0.00000E+00 0.00000E+00
 -1      3032 4.64852E-13 4.64852E-13 4.64852E-13 0.00000E+00 0.00000E+00 0.00000E+00
 -1      3033 4.64852E-13 4.64852E-13 4.64852E-13 0.00000E+00 0.00000E+00 0.00000E+00
 -1      3034 4.64852E-13 4.64852E-13 4.64852E-13 0.00000E+00 0.00000E+00 0.00000E+00
 -1      3035 4.64852E-13 4.64852E-13 4.64852E-13 0.00000E+00 0.00000E+00 0.00000E+00
 -1      3036 4.64852E-13 4.64852E-13 4.64852E-13 0.00000E+00 0.00000E+00 0.00000E+00
 -1      3037 4.64852E-13 4.64852E-13 4.64852E-13 0.00000E+00 0.00000E+00 0.00000E+00
 -1      3038 4.64852E-13 4.64852E-13 4.64852E-13 0.00000E+00 0.00000E+00 0.00000E+00
 -1      3039 4.64852E-13 4.64852E-13 4.64852E-13 0.00000E+00 0.00000E+00 0.00000E+00
 -1      3040 4.64852E-13 4.64852E-13 4.64852E-13 0.00000E+00 0.00000E+00 0.00000E+00
 -1      3041 4.64852E-13 4.64852E-13 4.64852E-13 0.00000E+00 0.00000E+00 0.00000E+00
 -1      3042 4.64852E-13 4.64852E-13 4.64852E-13 0.00000E+00 0.00000E+00 0.00000E+00
 -1      3043 4.64852E-13 4.64852E-13 4.64852E-13 0.00000E+00 0.00000E+00 0.00000E+00
 -1      3044 4.64852E-13 4.64852E-13 4.64852E-13 0.00000E+00 0.00000E+00 0.00000E+00
 -1      3045 4.64852E-13 4.64852E-13 4.64852E-13 0.00000E+00 0.00000E+00 0.00000E+00
 -1      3046 4.64852E-13 4.64852E-13 4.64852E-13 0.00000E+00 0.00000E+00 0.00000E+00
 -1      3047 4.64852E-13 4.64852E-13 4.64852E-13 0.00000E+00 0.00000E+00 0.00000E+00
 -1      3048 4.64852E-13 4.64852E-13 4.64852E-13 0.00000E+00 0.00000E+00 0.00000E+00
 -1      3049 4.64852E-13 4.64852E-13 4.64852E-13 0.00000E+00 0.00000E+00 0.00000E+00
 -1      3050 4.64852E-13 4.64852E-13 4.64852E-13 0.00000E+00 0.00000E+00 0.00000E+00
 -1      3051 4.64852E-13 4.64852E-13 4.64852E-13 0.00000E+00 0.00000E+00 0.00000E+00
 -1      3052 4.64852E-13 4.64852E-13 4.64852E-13 0.00000E+00 0.00000E+00 0.00000E+00
 -1      3053 4.64852E-13 4.64852E-13 4.64852E-13 0.00000E+00 0.00000E+00 0.00000E+00
 -1      3054 4.64852E-13 4.64852E-13 4.64852E-13 0.00000E+00 0.00000E+00 0.00000E+00
 -1      3055 4.64852E-13 4.64852E-13 4.64852E-13 0.00000E+00 0.00000E+00 0.00000E+00
 -1      3056 4.64852E-13 4.64852E-13 4.64852E-13 0.00000E+00 0.00000E+00 0.00000E+00
 -1      3057 4.64852E-13 4.64852E-13 4.64852E-13 0.00000E+00 0.00000E+00 0.00000E+00
 -1      3058 4.64852E-13 4.64852E-13 4.64852E-13 0.00000E+00 0.00000E+00 0.00000E+00
 -1      3059 4.64852E-13 4.64852E-13 4.64852E-13 0.00000E+00 0.00000E+00 0.00000E+00
 -1      3060 4.64852E-13 4.64852E-13 4.64852E-13 0.00000E+00 0.00000E+00 0.00000E+00
 -1      3061 4.64852E-13 4.64852E-13 4.64852E-13 0.00000E+00 0.00000E+00 0.00000E+00
 -1      3062 4.47143E-13 4.47143E-13 4.47143E-13 0.00000E+00 0.00000E+00 0.00000E+00
 -1      3063 4.58211E-13 4.58211E-13 4.58211E-13 0.00000E+00 0.00000E+00 0.00000E+00
 -1      3064 4.42716E-13 4.42716E-13 4.42716E-13 0.00000E+00 0.00000E+00 0.00000E+00
 -1      3065 4.42716E-13 4.42716E-13 4.42716E-13 0.00000E+00 0.00000E+00 0.00000E+00
 -1      3066 4.64852E-13 4.64852E-13 4.64852E-13 0.00000E+00 0.00000E+00 0.00000E+00
 -1      3067 4.64852E-13 4.64852E-13 4.64852E-13 0.00000E+00 0.00000E+00 0.00000E+00
 -1      3068 4.64852E-13 4.64852E-13 4.64852E-13 0.00000E+00 0.00000E+00 0.00000E+00
 -1      3069 4.55997E-13 4.55997E-13 4.55997E-13 0.00000E+00 0.00000E+00 0.00000E+00
 -1      3070 4.64852E-13 4.64852E-13 4.64852E-13 0.00000E+00 0.00000E+00 0.00000E+00
 -1      3071 4.55997E-13 4.55997E-13 4.55997E-13 0.00000E+00 0.00000E+00 0.00000E+00
 -1      3072 4.38289E-13 4.38289E-13 4.38289E-13 0.00000E+00 0.00000E+00 0.00000E+00
 -1      3073 4.38289E-13 4.38289E-13 4.38289E-13 0.00000E+00 0.00000E+00 0.00000E+00
 -1      3074 4.64852E-13 4.64852E-13 4.64852E-13 0.00000E+00 0.00000E+00 0.00000E+00
 -1      3075 4.62638E-13 4.62638E-13 4.62638E-13 0.00000E+00 0.00000E+00 0.00000E+00
 -1      3076 4.46258E-13 4.46258E-13 4.46258E-13 0.00000E+00 0.00000E+00 0.00000E+00
 -1      3077 4.38289E-13 4.38289E-13 4.38289E-13 0.00000E+00 0.00000E+00 0.00000E+00
 -1      3078 4.64852E-13 4.64852E-13 4.64852E-13 0.00000E+00 0.00000E+00 0.00000E+00
 -1      3079 4.64852E-13 4.64852E-13 4.64852E-13 0.00000E+00 0.00000E+00 0.00000E+00
 -1      3080 4.62638E-13 4.62638E-13 4.62638E-13 0.00000E+00 0.00000E+00 0.00000E+00
 -1      3081 4.38289E-13 4.38289E-13 4.38289E-13 0.00000E+00 0.00000E+00 0.00000E+00
 -1      3082 4.38289E-13 4.38289E-13 4.38289E-13 0.00000E+00 0.00000E+00 0.00000E+00
 -1      3083 4.40502E-13 4.40502E-13 4.40502E-13 0.00000E+00 0.00000E+00 0.00000E+00
 -1      3084 4.64852E-13 4.64852E-13 4.64852E-13 0.00000E+00 0.00000E+00 0.00000E+00
 -1      3085 4.64852E-13 4.64852E-13 4.64852E-13 0.00000E+00 0.00000E+00 0.00000E+00
 -1      3086 4.64852E-13 4.64852E-13 4.64852E-13 0.00000E+00 0.00000E+00 0.00000E+00
 -1      3087 4.64852E-13 4.64852E-13 4.64852E-13 0.00000E+00 0.00000E+00 0.00000E+00
 -1      3088 4.58211E-13 4.58211E-13 4.58211E-13 0.00000E+00 0.00000E+00 0.00000E+00
 -1      3089 4.64852E-13 4.64852E-13 4.64852E-13 0.00000E+00 0.00000E+00 0.00000E+00
 -1      3090 4.40502E-13 4.40502E-13 4.40502E-13 0.00000E+00 0.00000E+00 0.00000E+00
 -1      3091 4.42716E-13 4.42716E-13 4.42716E-13 0.00000E+00 0.00000E+00 0.00000E+00
 -1      3092 4.49357E-13 4.49357E-13 4.49357E-13 0.00000E+00 0.00000E+00 0.00000E+00
 -1      3093 4.42716E-13 4.42716E-13 4.42716E-13 0.00000E+00 0.00000E+00 0.00000E+00
 -1      3094 4.38289E-13 4.38289E-13 4.38289E-13 0.00000E+00 0.00000E+00 0.00000E+00
 -1      3095 4.38289E-13 4.38289E-13 4.38289E-13 0.00000E+00 0.00000E+00 0.00000E+00
 -1      3096 4.42716E-13 4.42716E-13 4.42716E-13 0.00000E+00 0.00000E+00 0.00000E+00
 -1      3097 4.49357E-13 4.49357E-13 4.49357E-13 0.00000E+00 0.00000E+00 0.00000E+00
 -1      3098 4.49357E-13 4.49357E-13 4.49357E-13 0.00000E+00 0.00000E+00 0.00000E+00
 -1      3099 4.62638E-13 4.62638E-13 4.62638E-13 0.00000E+00 0.00000E+00 0.00000E+00
 -1      3100 4.53784E-13 4.53784E-13 4.53784E-13 0.00000E+00 0.00000E+00 0.00000E+00
 -1      3101 4.62638E-13 4.62638E-13 4.62638E-13 0.00000E+00 0.00000E+00 0.00000E+00
 -1      3102 4.47143E-13 4.47143E-13 4.47143E-13 0.00000E+00 0.00000E+00 0.00000E+00
 -1      3103 4.38289E-13 4.38289E-13 4.38289E-13 0.00000E+00 0.00000E+00 0.00000E+00
 -1      3104 4.64852E-13 4.64852E-13 4.64852E-13 0.00000E+00 0.00000E+00 0.00000E+00
 -1      3105 4.64852E-13 4.64852E-13 4.64852E-13 0.00000E+00 0.00000E+00 0.00000E+00
 -1      3106 4.47143E-13 4.47143E-13 4.47143E-13 0.00000E+00 0.00000E+00 0.00000E+00
 -1      3107 4.47143E-13 4.47143E-13 4.47143E-13 0.00000E+00 0.00000E+00 0.00000E+00
 -1      3108 4.64852E-13 4.64852E-13 4.64852E-13 0.00000E+00 0.00000E+00 0.00000E+00
 -1      3109 4.62638E-13 4.62638E-13 4.62638E-13 0.00000E+00 0.00000E+00 0.00000E+00
 -1      3110 4.38289E-13 4.38289E-13 4.38289E-13 0.00000E+00 0.00000E+00 0.00000E+00
 -1      3111 4.42716E-13 4.42716E-13 4.42716E-13 0.00000E+00 0.00000E+00 0.00000E+00
 -1      3112 4.38289E-13 4.38289E-13 4.38289E-13 0.00000E+00 0.00000E+00 0.00000E+00
 -1      3113 4.47143E-13 4.47143E-13 4.47143E-13 0.00000E+00 0.00000E+00 0.00000E+00
 -1      3114 4.38289E-13 4.38289E-13 4.38289E-13 0.00000E+00 0.00000E+00 0.00000E+00
 -1      3115 4.62638E-13 4.62638E-13 4.62638E-13 0.00000E+00 0.00000E+00 0.00000E+00
 -1      3116 4.58211E-13 4.58211E-13 4.58211E-13 0.00000E+00 0.00000E+00 0.00000E+00
 -1      3117 4.42716E-13 4.42716E-13 4.42716E-13 0.00000E+00 0.00000E+00 0.00000E+00
 -1      3118 4.40945E-13 4.40945E-13 4.40945E-13 0.00000E+00 0.00000E+00 0.00000E+00
 -1      3119 4.38289E-13 4.38289E-13 4.38289E-13 0.00000E+00 0.00000E+00 0.00000E+00
 -1      3120 4.53784E-13 4.53784E-13 4.53784E-13 0.00000E+00 0.00000E+00 0.00000E+00
 -1      3121 4.64852E-13 4.64852E-13 4.64852E-13 0.00000E+00 0.00000E+00 0.00000E+00
 -1      3122 4.64852E-13 4.64852E-13 4.64852E-13 0.00000E+00 0.00000E+00 0.00000E+00
 -1      3123 4.40502E-13 4.40502E-13 4.40502E-13 0.00000E+00 0.00000E+00 0.00000E+00
 -1      3124 4.38289E-13 4.38289E-13 4.38289E-13 0.00000E+00 0.00000E+00 0.00000E+00
 -1      3125 4.38289E-13 4.38289E-13 4.38289E-13 0.00000E+00 0.00000E+00 0.00000E+00
 -1      3126 4.47143E-13 4.47143E-13 4.47143E-13 0.00000E+00 0.00000E+00 0.00000E+00
 -1      3127 4.42716E-13 4.42716E-13 4.42716E-13 0.00000E+00 0.00000E+00 0.00000E+00
 -1      3128 4.55365E-13 4.55365E-13 4.55365E-13 0.00000E+00 0.00000E+00 0.00000E+00
 -1      3129 4.38289E-13 4.38289E-13 4.38289E-13 0.00000E+00 0.00000E+00 0.00000E+00
 -1      3130 4.38289E-13 4.38289E-13 4.38289E-13 0.00000E+00 0.00000E+00 0.00000E+00
 -1      3131 4.38289E-13 4.38289E-13 4.38289E-13 0.00000E+00 0.00000E+00 0.00000E+00
 -1      3132 4.38289E-13 4.38289E-13 4.38289E-13 0.00000E+00 0.00000E+00 0.00000E+00
 -1      3133 4.38289E-13 4.38289E-13 4.38289E-13 0.00000E+00 0.00000E+00 0.00000E+00
 -1      3134 4.38289E-13 4.38289E-13 4.38289E-13 0.00000E+00 0.00000E+00 0.00000E+00
 -1      3135 4.38289E-13 4.38289E-13 4.38289E-13 0.00000E+00 0.00000E+00 0.00000E+00
 -1      3136 4.38289E-13 4.38289E-13 4.38289E-13 0.00000E+00 0.00000E+00 0.00000E+00
 -1      3137 4.38289E-13 4.38289E-13 4.38289E-13 0.00000E+00 0.00000E+00 0.00000E+00
 -1      3138 4.38289E-13 4.38289E-13 4.38289E-13 0.00000E+00 0.00000E+00 0.00000E+00
 -1      3139 4.38289E-13 4.38289E-13 4.38289E-13 0.00000E+00 0.00000E+00 0.00000E+00
 -1      3140 4.38289E-13 4.38289E-13 4.38289E-13 0.00000E+00 0.00000E+00 0.00000E+00
 -1      3141 4.38289E-13 4.38289E-13 4.38289E-13 0.00000E+00 0.00000E+00 0.00000E+00
 -1      3142 4.38289E-13 4.38289E-13 4.38289E-13 0.00000E+00 0.00000E+00 0.00000E+00
 -1      3143 4.38289E-13 4.38289E-13 4.38289E-13 0.00000E+00 0.00000E+00 0.00000E+00
 -1      3144 4.38289E-13 4.38289E-13 4.38289E-13 0.00000E+00 0.00000E+00 0.00000E+00
 -1      3145 4.38289E-13 4.38289E-13 4.38289E-13 0.00000E+00 0.00000E+00 0.00000E+00
 -1      3146 4.38289E-13 4.38289E-13 4.38289E-13 0.00000E+00 0.00000E+00 0.00000E+00
 -1      3147 4.38289E-13 4.38289E-13 4.38289E-13 0.00000E+00 0.00000E+00 0.00000E+00
 -1      3148 4.38289E-13 4.38289E-13 4.38289E-13 0.00000E+00 0.00000E+00 0.00000E+00
 -1      3149 4.38289E-13 4.38289E-13 4.38289E-13 0.00000E+00 0.00000E+00 0.00000E+00
 -1      3150 4.38289E-13 4.38289E-13 4.38289E-13 0.00000E+00 0.00000E+00 0.00000E+00
 -1      3151 4.38289E-13 4.38289E-13 4.38289E-13 0.00000E+00 0.00000E+00 0.00000E+00
 -1      3152 4.38289E-13 4.38289E-13 4.38289E-13 0.00000E+00 0.00000E+00 0.00000E+00
 -1      3153 4.38289E-13 4.38289E-13 4.38289E-13 0.00000E+00 0.00000E+00 0.00000E+00
 -1      3154 4.38289E-13 4.38289E-13 4.38289E-13 0.00000E+00 0.00000E+00 0.00000E+00
 -1      3155 4.38289E-13 4.38289E-13 4.38289E-13 0.00000E+00 0.00000E+00 0.00000E+00
 -1      3156 4.38289E-13 4.38289E-13 4.38289E-13 0.00000E+00 0.00000E+00 0.00000E+00
 -1      3157 4.38289E-13 4.38289E-13 4.38289E-13 0.00000E+00 0.00000E+00 0.00000E+00
 -1      3158 4.38289E-13 4.38289E-13 4.38289E-13 0.00000E+00 0.00000E+00 0.00000E+00
 -1      3159 4.38289E-13 4.38289E-13 4.38289E-13 0.00000E+00 0.00000E+00 0.00000E+00
 -1      3160 4.38289E-13 4.38289E-13 4.38289E-13 0.00000E+00 0.00000E+00 0.00000E+00
 -1      3161 4.38289E-13 4.38289E-13 4.38289E-13 0.00000E+00 0.00000E+00 0.00000E+00
 -1      3162 4.38289E-13 4.38289E-13 4.38289E-13 0.00000E+00 0.00000E+00 0.00000E+00
 -1      3163 4.38289E-13 4.38289E-13 4.38289E-13 0.00000E+00 0.00000E+00 0.00000E+00
 -1      3164 4.38289E-13 4.38289E-13 4.38289E-13 0.00000E+00 0.00000E+00 0.00000E+00
 -1      3165 4.38289E-13 4.38289E-13 4.38289E-13 0.00000E+00 0.00000E+00 0.00000E+00
 -1      3166 4.38289E-13 4.38289E-13 4.38289E-13 0.00000E+00 0.00000E+00 0.00000E+00
 -1      3167 4.38289E-13 4.38289E-13 4.38289E-13 0.00000E+00 0.00000E+00 0.00000E+00
 -1      3168 4.38289E-13 4.38289E-13 4.38289E-13 0.00000E+00 0.00000E+00 0.00000E+00
 -1      3169 4.38289E-13 4.38289E-13 4.38289E-13 0.00000E+00 0.00000E+00 0.00000E+00
 -1      3170 4.38289E-13 4.38289E-13 4.38289E-13 0.00000E+00 0.00000E+00 0.00000E+00
 -1      3171 4.38289E-13 4.38289E-13 4.38289E-13 0.00000E+00 0.00000E+00 0.00000E+00
 -1      3172 4.38289E-13 4.38289E-13 4.38289E-13 0.00000E+00 0.00000E+00 0.00000E+00
 -1      3173 4.38289E-13 4.38289E-13 4.38289E-13 0.00000E+00 0.00000E+00 0.00000E+00
 -1      3174 4.38289E-13 4.38289E-13 4.38289E-13 0.00000E+00 0.00000E+00 0.00000E+00
 -1      3175 4.38289E-13 4.38289E-13 4.38289E-13 0.00000E+00 0.00000E+00 0.00000E+00
 -1      3176 4.38289E-13 4.38289E-13 4.38289E-13 0.00000E+00 0.00000E+00 0.00000E+00
 -1      3177 4.38289E-13 4.38289E-13 4.38289E-13 0.00000E+00 0.00000E+00 0.00000E+00
 -1      3178 4.38289E-13 4.38289E-13 4.38289E-13 0.00000E+00 0.00000E+00 0.00000E+00
 -1      3179 4.38289E-13 4.38289E-13 4.38289E-13 0.00000E+00 0.00000E+00 0.00000E+00
 -1      3180 4.38289E-13 4.38289E-13 4.38289E-13 0.00000E+00 0.00000E+00 0.00000E+00
 -1      3181 4.38289E-13 4.38289E-13 4.38289E-13 0.00000E+00 0.00000E+00 0.00000E+00
 -1      3182 4.38289E-13 4.38289E-13 4.38289E-13 0.00000E+00 0.00000E+00 0.00000E+00
 -1      3183 4.38289E-13 4.38289E-13 4.38289E-13 0.00000E+00 0.00000E+00 0.00000E+00
 -1      3184 4.38289E-13 4.38289E-13 4.38289E-13 0.00000E+00 0.00000E+00 0.00000E+00
 -1      3185 4.38289E-13 4.38289E-13 4.38289E-13 0.00000E+00 0.00000E+00 0.00000E+00
 -1      3186 4.38289E-13 4.38289E-13 4.38289E-13 0.00000E+00 0.00000E+00 0.00000E+00
 -1      3187 4.38289E-13 4.38289E-13 4.38289E-13 0.00000E+00 0.00000E+00 0.00000E+00
 -1      3188 4.38289E-13 4.38289E-13 4.38289E-13 0.00000E+00 0.00000E+00 0.00000E+00
 -1      3189 4.38289E-13 4.38289E-13 4.38289E-13 0.00000E+00 0.00000E+00 0.00000E+00
 -1      3190 4.38289E-13 4.38289E-13 4.38289E-13 0.00000E+00 0.00000E+00 0.00000E+00
 -1      3191 4.38289E-13 4.38289E-13 4.38289E-13 0.00000E+00 0.00000E+00 0.00000E+00
 -1      3192 4.38289E-13 4.38289E-13 4.38289E-13 0.00000E+00 0.00000E+00 0.00000E+00
 -1      3193 4.38289E-13 4.38289E-13 4.38289E-13 0.00000E+00 0.00000E+00 0.00000E+00
 -1      3194 4.38289E-13 4.38289E-13 4.38289E-13 0.00000E+00 0.00000E+00 0.00000E+00
 -1      3195 4.38289E-13 4.38289E-13 4.38289E-13 0.00000E+00 0.00000E+00 0.00000E+00
 -1      3196 4.38289E-13 4.38289E-13 4.38289E-13 0.00000E+00 0.00000E+00 0.00000E+00
 -1      3197 4.38289E-13 4.38289E-13 4.38289E-13 0.00000E+00 0.00000E+00 0.00000E+00
 -1      3198 4.38289E-13 4.38289E-13 4.38289E-13 0.00000E+00 0.00000E+00 0.00000E+00
 -1      3199 4.38289E-13 4.38289E-13 4.38289E-13 0.00000E+00 0.00000E+00 0.00000E+00
 -1      3200 4.38289E-13 4.38289E-13 4.38289E-13 0.00000E+00 0.00000E+00 0.00000E+00
 -1      3201 4.38289E-13 4.38289E-13 4.38289E-13 0.00000E+00 0.00000E+00 0.00000E+00
 -1      3202 4.38289E-13 4.38289E-13 4.38289E-13 0.00000E+00 0.00000E+00 0.00000E+00
 -1      3203 4.38289E-13 4.38289E-13 4.38289E-13 0.00000E+00 0.00000E+00 0.00000E+00
 -1      3204 4.38289E-13 4.38289E-13 4.38289E-13 0.00000E+00 0.00000E+00 0.00000E+00
 -1      3205 4.38289E-13 4.38289E-13 4.38289E-13 0.00000E+00 0.00000E+00 0.00000E+00
 -1      3206 4.40502E-13 4.40502E-13 4.40502E-13 0.00000E+00 0.00000E+00 0.00000E+00
 -1      3207 4.38289E-13 4.38289E-13 4.38289E-13 0.00000E+00 0.00000E+00 0.00000E+00
 -1      3208 4.42716E-13 4.42716E-13 4.42716E-13 0.00000E+00 0.00000E+00 0.00000E+00
 -1      3209 4.38289E-13 4.38289E-13 4.38289E-13 0.00000E+00 0.00000E+00 0.00000E+00
 -1      3210 4.38289E-13 4.38289E-13 4.38289E-13 0.00000E+00 0.00000E+00 0.00000E+00
 -1      3211 4.42716E-13 4.42716E-13 4.42716E-13 0.00000E+00 0.00000E+00 0.00000E+00
 -1      3212 4.40502E-13 4.40502E-13 4.40502E-13 0.00000E+00 0.00000E+00 0.00000E+00
 -1      3213 4.51570E-13 4.51570E-13 4.51570E-13 0.00000E+00 0.00000E+00 0.00000E+00
 -1      3214 4.42716E-13 4.42716E-13 4.42716E-13 0.00000E+00 0.00000E+00 0.00000E+00
 -1      3215 4.51570E-13 4.51570E-13 4.51570E-13 0.00000E+00 0.00000E+00 0.00000E+00
 -1      3216 4.38289E-13 4.38289E-13 4.38289E-13 0.00000E+00 0.00000E+00 0.00000E+00
 -1      3217 4.42716E-13 4.42716E-13 4.42716E-13 0.00000E+00 0.00000E+00 0.00000E+00
 -1      3218 4.38289E-13 4.38289E-13 4.38289E-13 0.00000E+00 0.00000E+00 0.00000E+00
 -1      3219 4.38289E-13 4.38289E-13 4.38289E-13 0.00000E+00 0.00000E+00 0.00000E+00
 -1      3220 4.38289E-13 4.38289E-13 4.38289E-13 0.00000E+00 0.00000E+00 0.00000E+00
 -1      3221 4.44929E-13 4.44929E-13 4.44929E-13 0.00000E+00 0.00000E+00 0.00000E+00
 -1      3222 4.38289E-13 4.38289E-13 4.38289E-13 0.00000E+00 0.00000E+00 0.00000E+00
 -1      3223 4.38289E-13 4.38289E-13 4.38289E-13 0.00000E+00 0.00000E+00 0.00000E+00
 -1      3224 4.38289E-13 4.38289E-13 4.38289E-13 0.00000E+00 0.00000E+00 0.00000E+00
 -1      3225 4.38289E-13 4.38289E-13 4.38289E-13 0.00000E+00 0.00000E+00 0.00000E+00
 -1      3226 4.38289E-13 4.38289E-13 4.38289E-13 0.00000E+00 0.00000E+00 0.00000E+00
 -1      3227 4.40502E-13 4.40502E-13 4.40502E-13 0.00000E+00 0.00000E+00 0.00000E+00
 -1      3228 4.38289E-13 4.38289E-13 4.38289E-13 0.00000E+00 0.00000E+00 0.00000E+00
 -1      3229 4.38289E-13 4.38289E-13 4.38289E-13 0.00000E+00 0.00000E+00 0.00000E+00
 -1      3230 4.42716E-13 4.42716E-13 4.42716E-13 0.00000E+00 0.00000E+00 0.00000E+00
 -1      3231 4.38289E-13 4.38289E-13 4.38289E-13 0.00000E+00 0.00000E+00 0.00000E+00
 -1      3232 4.38289E-13 4.38289E-13 4.38289E-13 0.00000E+00 0.00000E+00 0.00000E+00
 -1      3233 4.38289E-13 4.38289E-13 4.38289E-13 0.00000E+00 0.00000E+00 0.00000E+00
 -1      3234 4.38289E-13 4.38289E-13 4.38289E-13 0.00000E+00 0.00000E+00 0.00000E+00
 -1      3235 4.38289E-13 4.38289E-13 4.38289E-13 0.00000E+00 0.00000E+00 0.00000E+00
 -1      3236 4.38289E-13 4.38289E-13 4.38289E-13 0.00000E+00 0.00000E+00 0.00000E+00
 -1      3237 4.40502E-13 4.40502E-13 4.40502E-13 0.00000E+00 0.00000E+00 0.00000E+00
 -1      3238 4.38289E-13 4.38289E-13 4.38289E-13 0.00000E+00 0.00000E+00 0.00000E+00
 -1      3239 4.49357E-13 4.49357E-13 4.49357E-13 0.00000E+00 0.00000E+00 0.00000E+00
 -1      3240 4.38289E-13 4.38289E-13 4.38289E-13 0.00000E+00 0.00000E+00 0.00000E+00
 -1      3241 4.38289E-13 4.38289E-13 4.38289E-13 0.00000E+00 0.00000E+00 0.00000E+00
 -1      3242 4.38289E-13 4.38289E-13 4.38289E-13 0.00000E+00 0.00000E+00 0.00000E+00
 -1      3243 4.38289E-13 4.38289E-13 4.38289E-13 0.00000E+00 0.00000E+00 0.00000E+00
 -1      3244 4.38289E-13 4.38289E-13 4.38289E-13 0.00000E+00 0.00000E+00 0.00000E+00
 -1      3245 4.38289E-13 4.38289E-13 4.38289E-13 0.00000E+00 0.00000E+00 0.00000E+00
 -1      3246 4.38289E-13 4.38289E-13 4.38289E-13 0.00000E+00 0.00000E+00 0.00000E+00
 -1      3247 4.38289E-13 4.38289E-13 4.38289E-13 0.00000E+00 0.00000E+00 0.00000E+00
 -1      3248 4.42716E-13 4.42716E-13 4.42716E-13 0.00000E+00 0.00000E+00 0.00000E+00
 -1      3249 4.38289E-13 4.38289E-13 4.38289E-13 0.00000E+00 0.00000E+00 0.00000E+00
 -1      3250 4.38289E-13 4.38289E-13 4.38289E-13 0.00000E+00 0.00000E+00 0.00000E+00
 -1      3251 4.38289E-13 4.38289E-13 4.38289E-13 0.00000E+00 0.00000E+00 0.00000E+00
 -1      3252 4.38289E-13 4.38289E-13 4.38289E-13 0.00000E+00 0.00000E+00 0.00000E+00
 -1      3253 4.42716E-13 4.42716E-13 4.42716E-13 0.00000E+00 0.00000E+00 0.00000E+00
 -1      3254 4.42716E-13 4.42716E-13 4.42716E-13 0.00000E+00 0.00000E+00 0.00000E+00
 -1      3255 4.38289E-13 4.38289E-13 4.38289E-13 0.00000E+00 0.00000E+00 0.00000E+00
 -1      3256 4.38289E-13 4.38289E-13 4.38289E-13 0.00000E+00 0.00000E+00 0.00000E+00
 -1      3257 4.38289E-13 4.38289E-13 4.38289E-13 0.00000E+00 0.00000E+00 0.00000E+00
 -1      3258 4.38289E-13 4.38289E-13 4.38289E-13 0.00000E+00 0.00000E+00 0.00000E+00
 -1      3259 4.38289E-13 4.38289E-13 4.38289E-13 0.00000E+00 0.00000E+00 0.00000E+00
 -1      3260 4.38289E-13 4.38289E-13 4.38289E-13 0.00000E+00 0.00000E+00 0.00000E+00
 -1      3261 4.64852E-13 4.64852E-13 4.64852E-13 0.00000E+00 0.00000E+00 0.00000E+00
 -1      3262 4.64852E-13 4.64852E-13 4.64852E-13 0.00000E+00 0.00000E+00 0.00000E+00
 -1      3263 4.64852E-13 4.64852E-13 4.64852E-13 0.00000E+00 0.00000E+00 0.00000E+00
 -1      3264 4.64852E-13 4.64852E-13 4.64852E-13 0.00000E+00 0.00000E+00 0.00000E+00
 -1      3265 4.64852E-13 4.64852E-13 4.64852E-13 0.00000E+00 0.00000E+00 0.00000E+00
 -1      3266 4.64852E-13 4.64852E-13 4.64852E-13 0.00000E+00 0.00000E+00 0.00000E+00
 -1      3267 4.64852E-13 4.64852E-13 4.64852E-13 0.00000E+00 0.00000E+00 0.00000E+00
 -1      3268 4.64852E-13 4.64852E-13 4.64852E-13 0.00000E+00 0.00000E+00 0.00000E+00
 -1      3269 4.64852E-13 4.64852E-13 4.64852E-13 0.00000E+00 0.00000E+00 0.00000E+00
 -1      3270 4.64852E-13 4.64852E-13 4.64852E-13 0.00000E+00 0.00000E+00 0.00000E+00
 -1      3271 4.64852E-13 4.64852E-13 4.64852E-13 0.00000E+00 0.00000E+00 0.00000E+00
 -1      3272 4.64852E-13 4.64852E-13 4.64852E-13 0.00000E+00 0.00000E+00 0.00000E+00
 -1      3273 4.64852E-13 4.64852E-13 4.64852E-13 0.00000E+00 0.00000E+00 0.00000E+00
 -1      3274 4.64852E-13 4.64852E-13 4.64852E-13 0.00000E+00 0.00000E+00 0.00000E+00
 -1      3275 4.64852E-13 4.64852E-13 4.64852E-13 0.00000E+00 0.00000E+00 0.00000E+00
 -1      3276 4.64852E-13 4.64852E-13 4.64852E-13 0.00000E+00 0.00000E+00 0.00000E+00
 -1      3277 4.64852E-13 4.64852E-13 4.64852E-13 0.00000E+00 0.00000E+00 0.00000E+00
 -1      3278 4.64852E-13 4.64852E-13 4.64852E-13 0.00000E+00 0.00000E+00 0.00000E+00
 -1      3279 4.64852E-13 4.64852E-13 4.64852E-13 0.00000E+00 0.00000E+00 0.00000E+00
 -1      3280 4.64852E-13 4.64852E-13 4.64852E-13 0.00000E+00 0.00000E+00 0.00000E+00
 -1      3281 4.64852E-13 4.64852E-13 4.64852E-13 0.00000E+00 0.00000E+00 0.00000E+00
 -1      3282 4.64852E-13 4.64852E-13 4.64852E-13 0.00000E+00 0.00000E+00 0.00000E+00
 -1      3283 4.64852E-13 4.64852E-13 4.64852E-13 0.00000E+00 0.00000E+00 0.00000E+00
 -1      3284 4.64852E-13 4.64852E-13 4.64852E-13 0.00000E+00 0.00000E+00 0.00000E+00
 -1      3285 4.64852E-13 4.64852E-13 4.64852E-13 0.00000E+00 0.00000E+00 0.00000E+00
 -1      3286 4.64852E-13 4.64852E-13 4.64852E-13 0.00000E+00 0.00000E+00 0.00000E+00
 -1      3287 4.64852E-13 4.64852E-13 4.64852E-13 0.00000E+00 0.00000E+00 0.00000E+00
 -1      3288 4.64852E-13 4.64852E-13 4.64852E-13 0.00000E+00 0.00000E+00 0.00000E+00
 -1      3289 4.64852E-13 4.64852E-13 4.64852E-13 0.00000E+00 0.00000E+00 0.00000E+00
 -1      3290 4.64852E-13 4.64852E-13 4.64852E-13 0.00000E+00 0.00000E+00 0.00000E+00
 -1      3291 4.64852E-13 4.64852E-13 4.64852E-13 0.00000E+00 0.00000E+00 0.00000E+00
 -1      3292 4.64852E-13 4.64852E-13 4.64852E-13 0.00000E+00 0.00000E+00 0.00000E+00
 -1      3293 4.64852E-13 4.64852E-13 4.64852E-13 0.00000E+00 0.00000E+00 0.00000E+00
 -1      3294 4.64852E-13 4.64852E-13 4.64852E-13 0.00000E+00 0.00000E+00 0.00000E+00
 -1      3295 4.64852E-13 4.64852E-13 4.64852E-13 0.00000E+00 0.00000E+00 0.00000E+00
 -1      3296 4.64852E-13 4.64852E-13 4.64852E-13 0.00000E+00 0.00000E+00 0.00000E+00
 -1      3297 4.64852E-13 4.64852E-13 4.64852E-13 0.00000E+00 0.00000E+00 0.00000E+00
 -1      3298 4.64852E-13 4.64852E-13 4.64852E-13 0.00000E+00 0.00000E+00 0.00000E+00
 -1      3299 4.64852E-13 4.64852E-13 4.64852E-13 0.00000E+00 0.00000E+00 0.00000E+00
 -1      3300 4.64852E-13 4.64852E-13 4.64852E-13 0.00000E+00 0.00000E+00 0.00000E+00
 -1      3301 4.64852E-13 4.64852E-13 4.64852E-13 0.00000E+00 0.00000E+00 0.00000E+00
 -1      3302 4.64852E-13 4.64852E-13 4.64852E-13 0.00000E+00 0.00000E+00 0.00000E+00
 -1      3303 4.64852E-13 4.64852E-13 4.64852E-13 0.00000E+00 0.00000E+00 0.00000E+00
 -1      3304 4.64852E-13 4.64852E-13 4.64852E-13 0.00000E+00 0.00000E+00 0.00000E+00
 -1      3305 4.64852E-13 4.64852E-13 4.64852E-13 0.00000E+00 0.00000E+00 0.00000E+00
 -1      3306 4.64852E-13 4.64852E-13 4.64852E-13 0.00000E+00 0.00000E+00 0.00000E+00
 -1      3307 4.64852E-13 4.64852E-13 4.64852E-13 0.00000E+00 0.00000E+00 0.00000E+00
 -1      3308 4.64852E-13 4.64852E-13 4.64852E-13 0.00000E+00 0.00000E+00 0.00000E+00
 -1      3309 4.64852E-13 4.64852E-13 4.64852E-13 0.00000E+00 0.00000E+00 0.00000E+00
 -1      3310 4.64852E-13 4.64852E-13 4.64852E-13 0.00000E+00 0.00000E+00 0.00000E+00
 -1      3311 4.64852E-13 4.64852E-13 4.64852E-13 0.00000E+00 0.00000E+00 0.00000E+00
 -1      3312 4.64852E-13 4.64852E-13 4.64852E-13 0.00000E+00 0.00000E+00 0.00000E+00
 -1      3313 4.64852E-13 4.64852E-13 4.64852E-13 0.00000E+00 0.00000E+00 0.00000E+00
 -1      3314 4.64852E-13 4.64852E-13 4.64852E-13 0.00000E+00 0.00000E+00 0.00000E+00
 -1      3315 4.64852E-13 4.64852E-13 4.64852E-13 0.00000E+00 0.00000E+00 0.00000E+00
 -1      3316 4.64852E-13 4.64852E-13 4.64852E-13 0.00000E+00 0.00000E+00 0.00000E+00
 -1      3317 4.64852E-13 4.64852E-13 4.64852E-13 0.00000E+00 0.00000E+00 0.00000E+00
 -1      3318 4.64852E-13 4.64852E-13 4.64852E-13 0.00000E+00 0.00000E+00 0.00000E+00
 -1      3319 4.64852E-13 4.64852E-13 4.64852E-13 0.00000E+00 0.00000E+00 0.00000E+00
 -1      3320 4.64852E-13 4.64852E-13 4.64852E-13 0.00000E+00 0.00000E+00 0.00000E+00
 -1      3321 4.64852E-13 4.64852E-13 4.64852E-13 0.00000E+00 0.00000E+00 0.00000E+00
 -1      3322 4.64852E-13 4.64852E-13 4.64852E-13 0.00000E+00 0.00000E+00 0.00000E+00
 -1      3323 4.64852E-13 4.64852E-13 4.64852E-13 0.00000E+00 0.00000E+00 0.00000E+00
 -1      3324 4.64852E-13 4.64852E-13 4.64852E-13 0.00000E+00 0.00000E+00 0.00000E+00
 -1      3325 4.64852E-13 4.64852E-13 4.64852E-13 0.00000E+00 0.00000E+00 0.00000E+00
 -1      3326 4.64852E-13 4.64852E-13 4.64852E-13 0.00000E+00 0.00000E+00 0.00000E+00
 -1      3327 4.64852E-13 4.64852E-13 4.64852E-13 0.00000E+00 0.00000E+00 0.00000E+00
 -1      3328 4.64852E-13 4.64852E-13 4.64852E-13 0.00000E+00 0.00000E+00 0.00000E+00
 -1      3329 4.64852E-13 4.64852E-13 4.64852E-13 0.00000E+00 0.00000E+00 0.00000E+00
 -1      3330 4.64852E-13 4.64852E-13 4.64852E-13 0.00000E+00 0.00000E+00 0.00000E+00
 -1      3331 4.64852E-13 4.64852E-13 4.64852E-13 0.00000E+00 0.00000E+00 0.00000E+00
 -1      3332 4.64852E-13 4.64852E-13 4.64852E-13 0.00000E+00 0.00000E+00 0.00000E+00
 -1      3333 4.64852E-13 4.64852E-13 4.64852E-13 0.00000E+00 0.00000E+00 0.00000E+00
 -1      3334 4.64852E-13 4.64852E-13 4.64852E-13 0.00000E+00 0.00000E+00 0.00000E+00
 -1      3335 4.64852E-13 4.64852E-13 4.64852E-13 0.00000E+00 0.00000E+00 0.00000E+00
 -1      3336 4.64852E-13 4.64852E-13 4.64852E-13 0.00000E+00 0.00000E+00 0.00000E+00
 -1      3337 4.64852E-13 4.64852E-13 4.64852E-13 0.00000E+00 0.00000E+00 0.00000E+00
 -1      3338 4.64852E-13 4.64852E-13 4.64852E-13 0.00000E+00 0.00000E+00 0.00000E+00
 -1      3339 4.64852E-13 4.64852E-13 4.64852E-13 0.00000E+00 0.00000E+00 0.00000E+00
 -1      3340 4.64852E-13 4.64852E-13 4.64852E-13 0.00000E+00 0.00000E+00 0.00000E+00
 -1      3341 4.64852E-13 4.64852E-13 4.64852E-13 0.00000E+00 0.00000E+00 0.00000E+00
 -1      3342 4.64852E-13 4.64852E-13 4.64852E-13 0.00000E+00 0.00000E+00 0.00000E+00
 -1      3343 4.64852E-13 4.64852E-13 4.64852E-13 0.00000E+00 0.00000E+00 0.00000E+00
 -1      3344 4.64852E-13 4.64852E-13 4.64852E-13 0.00000E+00 0.00000E+00 0.00000E+00
 -1      3345 4.64852E-13 4.64852E-13 4.64852E-13 0.00000E+00 0.00000E+00 0.00000E+00
 -1      3346 4.64852E-13 4.64852E-13 4.64852E-13 0.00000E+00 0.00000E+00 0.00000E+00
 -1      3347 4.64852E-13 4.64852E-13 4.64852E-13 0.00000E+00 0.00000E+00 0.00000E+00
 -1      3348 4.64852E-13 4.64852E-13 4.64852E-13 0.00000E+00 0.00000E+00 0.00000E+00
 -1      3349 4.64852E-13 4.64852E-13 4.64852E-13 0.00000E+00 0.00000E+00 0.00000E+00
 -1      3350 4.64852E-13 4.64852E-13 4.64852E-13 0.00000E+00 0.00000E+00 0.00000E+00
 -1      3351 4.64852E-13 4.64852E-13 4.64852E-13 0.00000E+00 0.00000E+00 0.00000E+00
 -1      3352 4.64852E-13 4.64852E-13 4.64852E-13 0.00000E+00 0.00000E+00 0.00000E+00
 -1      3353 4.64852E-13 4.64852E-13 4.64852E-13 0.00000E+00 0.00000E+00 0.00000E+00
 -1      3354 4.64852E-13 4.64852E-13 4.64852E-13 0.00000E+00 0.00000E+00 0.00000E+00
 -1      3355 4.64852E-13 4.64852E-13 4.64852E-13 0.00000E+00 0.00000E+00 0.00000E+00
 -1      3356 4.64852E-13 4.64852E-13 4.64852E-13 0.00000E+00 0.00000E+00 0.00000E+00
 -1      3357 4.64852E-13 4.64852E-13 4.64852E-13 0.00000E+00 0.00000E+00 0.00000E+00
 -1      3358 4.64852E-13 4.64852E-13 4.64852E-13 0.00000E+00 0.00000E+00 0.00000E+00
 -1      3359 4.64852E-13 4.64852E-13 4.64852E-13 0.00000E+00 0.00000E+00 0.00000E+00
 -1      3360 4.64852E-13 4.64852E-13 4.64852E-13 0.00000E+00 0.00000E+00 0.00000E+00
 -1      3361 4.64852E-13 4.64852E-13 4.64852E-13 0.00000E+00 0.00000E+00 0.00000E+00
 -1      3362 4.64852E-13 4.64852E-13 4.64852E-13 0.00000E+00 0.00000E+00 0.00000E+00
 -1      3363 4.64852E-13 4.64852E-13 4.64852E-13 0.00000E+00 0.00000E+00 0.00000E+00
 -1      3364 4.64852E-13 4.64852E-13 4.64852E-13 0.00000E+00 0.00000E+00 0.00000E+00
 -1      3365 4.64852E-13 4.64852E-13 4.64852E-13 0.00000E+00 0.00000E+00 0.00000E+00
 -1      3366 4.64852E-13 4.64852E-13 4.64852E-13 0.00000E+00 0.00000E+00 0.00000E+00
 -1      3367 4.64852E-13 4.64852E-13 4.64852E-13 0.00000E+00 0.00000E+00 0.00000E+00
 -1      3368 4.64852E-13 4.64852E-13 4.64852E-13 0.00000E+00 0.00000E+00 0.00000E+00
 -1      3369 4.64852E-13 4.64852E-13 4.64852E-13 0.00000E+00 0.00000E+00 0.00000E+00
 -1      3370 4.64852E-13 4.64852E-13 4.64852E-13 0.00000E+00 0.00000E+00 0.00000E+00
 -1      3371 4.64852E-13 4.64852E-13 4.64852E-13 0.00000E+00 0.00000E+00 0.00000E+00
 -1      3372 4.64852E-13 4.64852E-13 4.64852E-13 0.00000E+00 0.00000E+00 0.00000E+00
 -1      3373 4.64852E-13 4.64852E-13 4.64852E-13 0.00000E+00 0.00000E+00 0.00000E+00
 -1      3374 4.64852E-13 4.64852E-13 4.64852E-13 0.00000E+00 0.00000E+00 0.00000E+00
 -1      3375 4.64852E-13 4.64852E-13 4.64852E-13 0.00000E+00 0.00000E+00 0.00000E+00
 -1      3376 4.64852E-13 4.64852E-13 4.64852E-13 0.00000E+00 0.00000E+00 0.00000E+00
 -1      3377 4.64852E-13 4.64852E-13 4.64852E-13 0.00000E+00 0.00000E+00 0.00000E+00
 -1      3378 4.64852E-13 4.64852E-13 4.64852E-13 0.00000E+00 0.00000E+00 0.00000E+00
 -1      3379 4.64852E-13 4.64852E-13 4.64852E-13 0.00000E+00 0.00000E+00 0.00000E+00
 -1      3380 4.64852E-13 4.64852E-13 4.64852E-13 0.00000E+00 0.00000E+00 0.00000E+00
 -1      3381 4.64852E-13 4.64852E-13 4.64852E-13 0.00000E+00 0.00000E+00 0.00000E+00
 -1      3382 4.64852E-13 4.64852E-13 4.64852E-13 0.00000E+00 0.00000E+00 0.00000E+00
 -1      3383 4.64852E-13 4.64852E-13 4.64852E-13 0.00000E+00 0.00000E+00 0.00000E+00
 -1      3384 4.64852E-13 4.64852E-13 4.64852E-13 0.00000E+00 0.00000E+00 0.00000E+00
 -1      3385 4.64852E-13 4.64852E-13 4.64852E-13 0.00000E+00 0.00000E+00 0.00000E+00
 -1      3386 4.64852E-13 4.64852E-13 4.64852E-13 0.00000E+00 0.00000E+00 0.00000E+00
 -1      3387 4.64852E-13 4.64852E-13 4.64852E-13 0.00000E+00 0.00000E+00 0.00000E+00
 -1      3388 4.64852E-13 4.64852E-13 4.64852E-13 0.00000E+00 0.00000E+00 0.00000E+00
 -1      3389 4.64852E-13 4.64852E-13 4.64852E-13 0.00000E+00 0.00000E+00 0.00000E+00
 -1      3390 4.64852E-13 4.64852E-13 4.64852E-13 0.00000E+00 0.00000E+00 0.00000E+00
 -1      3391 4.64852E-13 4.64852E-13 4.64852E-13 0.00000E+00 0.00000E+00 0.00000E+00
 -1      3392 4.64852E-13 4.64852E-13 4.64852E-13 0.00000E+00 0.00000E+00 0.00000E+00
 -1      3393 4.64852E-13 4.64852E-13 4.64852E-13 0.00000E+00 0.00000E+00 0.00000E+00
 -1      3394 4.64852E-13 4.64852E-13 4.64852E-13 0.00000E+00 0.00000E+00 0.00000E+00
 -1      3395 4.64852E-13 4.64852E-13 4.64852E-13 0.00000E+00 0.00000E+00 0.00000E+00
 -1      3396 4.64852E-13 4.64852E-13 4.64852E-13 0.00000E+00 0.00000E+00 0.00000E+00
 -1      3397 4.64852E-13 4.64852E-13 4.64852E-13 0.00000E+00 0.00000E+00 0.00000E+00
 -1      3398 4.64852E-13 4.64852E-13 4.64852E-13 0.00000E+00 0.00000E+00 0.00000E+00
 -1      3399 4.64852E-13 4.64852E-13 4.64852E-13 0.00000E+00 0.00000E+00 0.00000E+00
 -1      3400 4.64852E-13 4.64852E-13 4.64852E-13 0.00000E+00 0.00000E+00 0.00000E+00
 -1      3401 4.64852E-13 4.64852E-13 4.64852E-13 0.00000E+00 0.00000E+00 0.00000E+00
 -1      3402 4.64852E-13 4.64852E-13 4.64852E-13 0.00000E+00 0.00000E+00 0.00000E+00
 -1      3403 4.64852E-13 4.64852E-13 4.64852E-13 0.00000E+00 0.00000E+00 0.00000E+00
 -1      3404 4.64852E-13 4.64852E-13 4.64852E-13 0.00000E+00 0.00000E+00 0.00000E+00
 -1      3405 4.64852E-13 4.64852E-13 4.64852E-13 0.00000E+00 0.00000E+00 0.00000E+00
 -1      3406 4.64852E-13 4.64852E-13 4.64852E-13 0.00000E+00 0.00000E+00 0.00000E+00
 -1      3407 4.64852E-13 4.64852E-13 4.64852E-13 0.00000E+00 0.00000E+00 0.00000E+00
 -1      3408 4.64852E-13 4.64852E-13 4.64852E-13 0.00000E+00 0.00000E+00 0.00000E+00
 -1      3409 4.64852E-13 4.64852E-13 4.64852E-13 0.00000E+00 0.00000E+00 0.00000E+00
 -1      3410 4.64852E-13 4.64852E-13 4.64852E-13 0.00000E+00 0.00000E+00 0.00000E+00
 -1      3411 4.64852E-13 4.64852E-13 4.64852E-13 0.00000E+00 0.00000E+00 0.00000E+00
 -1      3412 4.64852E-13 4.64852E-13 4.64852E-13 0.00000E+00 0.00000E+00 0.00000E+00
 -1      3413 4.64852E-13 4.64852E-13 4.64852E-13 0.00000E+00 0.00000E+00 0.00000E+00
 -1      3414 4.64852E-13 4.64852E-13 4.64852E-13 0.00000E+00 0.00000E+00 0.00000E+00
 -1      3415 4.64852E-13 4.64852E-13 4.64852E-13 0.00000E+00 0.00000E+00 0.00000E+00
 -1      3416 4.64852E-13 4.64852E-13 4.64852E-13 0.00000E+00 0.00000E+00 0.00000E+00
 -1      3417 4.64852E-13 4.64852E-13 4.64852E-13 0.00000E+00 0.00000E+00 0.00000E+00
 -1      3418 4.64852E-13 4.64852E-13 4.64852E-13 0.00000E+00 0.00000E+00 0.00000E+00
 -1      3419 4.64852E-13 4.64852E-13 4.64852E-13 0.00000E+00 0.00000E+00 0.00000E+00
 -1      3420 4.64852E-13 4.64852E-13 4.64852E-13 0.00000E+00 0.00000E+00 0.00000E+00
 -1      3421 4.64852E-13 4.64852E-13 4.64852E-13 0.00000E+00 0.00000E+00 0.00000E+00
 -1      3422 4.64852E-13 4.64852E-13 4.64852E-13 0.00000E+00 0.00000E+00 0.00000E+00
 -1      3423 4.64852E-13 4.64852E-13 4.64852E-13 0.00000E+00 0.00000E+00 0.00000E+00
 -1      3424 4.64852E-13 4.64852E-13 4.64852E-13 0.00000E+00 0.00000E+00 0.00000E+00
 -1      3425 4.64852E-13 4.64852E-13 4.64852E-13 0.00000E+00 0.00000E+00 0.00000E+00
 -1      3426 4.64852E-13 4.64852E-13 4.64852E-13 0.00000E+00 0.00000E+00 0.00000E+00
 -1      3427 4.64852E-13 4.64852E-13 4.64852E-13 0.00000E+00 0.00000E+00 0.00000E+00
 -1      3428 4.64852E-13 4.64852E-13 4.64852E-13 0.00000E+00 0.00000E+00 0.00000E+00
 -1      3429 4.64852E-13 4.64852E-13 4.64852E-13 0.00000E+00 0.00000E+00 0.00000E+00
 -1      3430 4.64852E-13 4.64852E-13 4.64852E-13 0.00000E+00 0.00000E+00 0.00000E+00
 -1      3431 4.64852E-13 4.64852E-13 4.64852E-13 0.00000E+00 0.00000E+00 0.00000E+00
 -1      3432 4.64852E-13 4.64852E-13 4.64852E-13 0.00000E+00 0.00000E+00 0.00000E+00
 -1      3433 4.64852E-13 4.64852E-13 4.64852E-13 0.00000E+00 0.00000E+00 0.00000E+00
 -1      3434 4.64852E-13 4.64852E-13 4.64852E-13 0.00000E+00 0.00000E+00 0.00000E+00
 -1      3435 4.64852E-13 4.64852E-13 4.64852E-13 0.00000E+00 0.00000E+00 0.00000E+00
 -1      3436 4.64852E-13 4.64852E-13 4.64852E-13 0.00000E+00 0.00000E+00 0.00000E+00
 -1      3437 4.64852E-13 4.64852E-13 4.64852E-13 0.00000E+00 0.00000E+00 0.00000E+00
 -1      3438 4.64852E-13 4.64852E-13 4.64852E-13 0.00000E+00 0.00000E+00 0.00000E+00
 -1      3439 4.64852E-13 4.64852E-13 4.64852E-13 0.00000E+00 0.00000E+00 0.00000E+00
 -1      3440 4.64852E-13 4.64852E-13 4.64852E-13 0.00000E+00 0.00000E+00 0.00000E+00
 -1      3441 4.64852E-13 4.64852E-13 4.64852E-13 0.00000E+00 0.00000E+00 0.00000E+00
 -1      3442 4.64852E-13 4.64852E-13 4.64852E-13 0.00000E+00 0.00000E+00 0.00000E+00
 -1      3443 4.64852E-13 4.64852E-13 4.64852E-13 0.00000E+00 0.00000E+00 0.00000E+00
 -1      3444 4.64852E-13 4.64852E-13 4.64852E-13 0.00000E+00 0.00000E+00 0.00000E+00
 -1      3445 4.64852E-13 4.64852E-13 4.64852E-13 0.00000E+00 0.00000E+00 0.00000E+00
 -1      3446 4.64852E-13 4.64852E-13 4.64852E-13 0.00000E+00 0.00000E+00 0.00000E+00
 -1      3447 4.64852E-13 4.64852E-13 4.64852E-13 0.00000E+00 0.00000E+00 0.00000E+00
 -1      3448 4.64852E-13 4.64852E-13 4.64852E-13 0.00000E+00 0.00000E+00 0.00000E+00
 -1      3449 4.64852E-13 4.64852E-13 4.64852E-13 0.00000E+00 0.00000E+00 0.00000E+00
 -1      3450 4.64852E-13 4.64852E-13 4.64852E-13 0.00000E+00 0.00000E+00 0.00000E+00
 -1      3451 4.64852E-13 4.64852E-13 4.64852E-13 0.00000E+00 0.00000E+00 0.00000E+00
 -1      3452 4.64852E-13 4.64852E-13 4.64852E-13 0.00000E+00 0.00000E+00 0.00000E+00
 -1      3453 4.64852E-13 4.64852E-13 4.64852E-13 0.00000E+00 0.00000E+00 0.00000E+00
 -1      3454 4.64852E-13 4.64852E-13 4.64852E-13 0.00000E+00 0.00000E+00 0.00000E+00
 -1      3455 4.64852E-13 4.64852E-13 4.64852E-13 0.00000E+00 0.00000E+00 0.00000E+00
 -1      3456 4.64852E-13 4.64852E-13 4.64852E-13 0.00000E+00 0.00000E+00 0.00000E+00
 -1      3457 4.64852E-13 4.64852E-13 4.64852E-13 0.00000E+00 0.00000E+00 0.00000E+00
 -1      3458 4.64852E-13 4.64852E-13 4.64852E-13 0.00000E+00 0.00000E+00 0.00000E+00
 -1      3459 4.64852E-13 4.64852E-13 4.64852E-13 0.00000E+00 0.00000E+00 0.00000E+00
 -1      3460 4.64852E-13 4.64852E-13 4.64852E-13 0.00000E+00 0.00000E+00 0.00000E+00
 -1      3461 4.64852E-13 4.64852E-13 4.64852E-13 0.00000E+00 0.00000E+00 0.00000E+00
 -1      3462 4.64852E-13 4.64852E-13 4.64852E-13 0.00000E+00 0.00000E+00 0.00000E+00
 -1      3463 4.64852E-13 4.64852E-13 4.64852E-13 0.00000E+00 0.00000E+00 0.00000E+00
 -1      3464 4.64852E-13 4.64852E-13 4.64852E-13 0.00000E+00 0.00000E+00 0.00000E+00
 -1      3465 4.64852E-13 4.64852E-13 4.64852E-13 0.00000E+00 0.00000E+00 0.00000E+00
 -1      3466 4.58211E-13 4.58211E-13 4.58211E-13 0.00000E+00 0.00000E+00 0.00000E+00
 -1      3467 4.64852E-13 4.64852E-13 4.64852E-13 0.00000E+00 0.00000E+00 0.00000E+00
 -1      3468 4.64852E-13 4.64852E-13 4.64852E-13 0.00000E+00 0.00000E+00 0.00000E+00
 -1      3469 4.64852E-13 4.64852E-13 4.64852E-13 0.00000E+00 0.00000E+00 0.00000E+00
 -1      3470 4.64852E-13 4.64852E-13 4.64852E-13 0.00000E+00 0.00000E+00 0.00000E+00
 -1      3471 4.64852E-13 4.64852E-13 4.64852E-13 0.00000E+00 0.00000E+00 0.00000E+00
 -1      3472 4.64852E-13 4.64852E-13 4.64852E-13 0.00000E+00 0.00000E+00 0.00000E+00
 -1      3473 4.38289E-13 4.38289E-13 4.38289E-13 0.00000E+00 0.00000E+00 0.00000E+00
 -1      3474 4.42716E-13 4.42716E-13 4.42716E-13 0.00000E+00 0.00000E+00 0.00000E+00
 -1      3475 4.47143E-13 4.47143E-13 4.47143E-13 0.00000E+00 0.00000E+00 0.00000E+00
 -1      3476 4.61057E-13 4.61057E-13 4.61057E-13 0.00000E+00 0.00000E+00 0.00000E+00
 -1      3477 4.64852E-13 4.64852E-13 4.64852E-13 0.00000E+00 0.00000E+00 0.00000E+00
 -1      3478 4.42716E-13 4.42716E-13 4.42716E-13 0.00000E+00 0.00000E+00 0.00000E+00
 -1      3479 4.51570E-13 4.51570E-13 4.51570E-13 0.00000E+00 0.00000E+00 0.00000E+00
 -1      3480 4.38289E-13 4.38289E-13 4.38289E-13 0.00000E+00 0.00000E+00 0.00000E+00
 -1      3481 4.38289E-13 4.38289E-13 4.38289E-13 0.00000E+00 0.00000E+00 0.00000E+00
 -1      3482 4.38289E-13 4.38289E-13 4.38289E-13 0.00000E+00 0.00000E+00 0.00000E+00
 -1      3483 4.64852E-13 4.64852E-13 4.64852E-13 0.00000E+00 0.00000E+00 0.00000E+00
 -1      3484 4.49357E-13 4.49357E-13 4.49357E-13 0.00000E+00 0.00000E+00 0.00000E+00
 -1      3485 4.64852E-13 4.64852E-13 4.64852E-13 0.00000E+00 0.00000E+00 0.00000E+00
 -1      3486 4.44929E-13 4.44929E-13 4.44929E-13 0.00000E+00 0.00000E+00 0.00000E+00
 -1      3487 4.40186E-13 4.40186E-13 4.40186E-13 0.00000E+00 0.00000E+00 0.00000E+00
 -1      3488 4.38289E-13 4.38289E-13 4.38289E-13 0.00000E+00 0.00000E+00 0.00000E+00
 -1      3489 4.53468E-13 4.53468E-13 4.53468E-13 0.00000E+00 0.00000E+00 0.00000E+00
 -1      3490 4.64852E-13 4.64852E-13 4.64852E-13 0.00000E+00 0.00000E+00 0.00000E+00
 -1      3491 4.38289E-13 4.38289E-13 4.38289E-13 0.00000E+00 0.00000E+00 0.00000E+00
 -1      3492 4.45878E-13 4.45878E-13 4.45878E-13 0.00000E+00 0.00000E+00 0.00000E+00
 -1      3493 4.64852E-13 4.64852E-13 4.64852E-13 0.00000E+00 0.00000E+00 0.00000E+00
 -1      3494 4.64852E-13 4.64852E-13 4.64852E-13 0.00000E+00 0.00000E+00 0.00000E+00
 -1      3495 4.38289E-13 4.38289E-13 4.38289E-13 0.00000E+00 0.00000E+00 0.00000E+00
 -1      3496 4.42716E-13 4.42716E-13 4.42716E-13 0.00000E+00 0.00000E+00 0.00000E+00
 -1      3497 4.64852E-13 4.64852E-13 4.64852E-13 0.00000E+00 0.00000E+00 0.00000E+00
 -1      3498 4.64852E-13 4.64852E-13 4.64852E-13 0.00000E+00 0.00000E+00 0.00000E+00
 -1      3499 4.58211E-13 4.58211E-13 4.58211E-13 0.00000E+00 0.00000E+00 0.00000E+00
 -1      3500 4.60425E-13 4.60425E-13 4.60425E-13 0.00000E+00 0.00000E+00 0.00000E+00
 -1      3501 4.64852E-13 4.64852E-13 4.64852E-13 0.00000E+00 0.00000E+00 0.00000E+00
 -1      3502 4.62638E-13 4.62638E-13 4.62638E-13 0.00000E+00 0.00000E+00 0.00000E+00
 -1      3503 4.62638E-13 4.62638E-13 4.62638E-13 0.00000E+00 0.00000E+00 0.00000E+00
 -1      3504 4.64852E-13 4.64852E-13 4.64852E-13 0.00000E+00 0.00000E+00 0.00000E+00
 -1      3505 4.51570E-13 4.51570E-13 4.51570E-13 0.00000E+00 0.00000E+00 0.00000E+00
 -1      3506 4.55997E-13 4.55997E-13 4.55997E-13 0.00000E+00 0.00000E+00 0.00000E+00
 -1      3507 4.51570E-13 4.51570E-13 4.51570E-13 0.00000E+00 0.00000E+00 0.00000E+00
 -1      3508 4.44929E-13 4.44929E-13 4.44929E-13 0.00000E+00 0.00000E+00 0.00000E+00
 -1      3509 4.47143E-13 4.47143E-13 4.47143E-13 0.00000E+00 0.00000E+00 0.00000E+00
 -1      3510 4.47143E-13 4.47143E-13 4.47143E-13 0.00000E+00 0.00000E+00 0.00000E+00
 -1      3511 4.60425E-13 4.60425E-13 4.60425E-13 0.00000E+00 0.00000E+00 0.00000E+00
 -1      3512 4.47143E-13 4.47143E-13 4.47143E-13 0.00000E+00 0.00000E+00 0.00000E+00
 -1      3513 4.40502E-13 4.40502E-13 4.40502E-13 0.00000E+00 0.00000E+00 0.00000E+00
 -1      3514 4.51570E-13 4.51570E-13 4.51570E-13 0.00000E+00 0.00000E+00 0.00000E+00
 -1      3515 4.49357E-13 4.49357E-13 4.49357E-13 0.00000E+00 0.00000E+00 0.00000E+00
 -1      3516 4.64852E-13 4.64852E-13 4.64852E-13 0.00000E+00 0.00000E+00 0.00000E+00
 -1      3517 4.47775E-13 4.47775E-13 4.47775E-13 0.00000E+00 0.00000E+00 0.00000E+00
 -1      3518 4.64852E-13 4.64852E-13 4.64852E-13 0.00000E+00 0.00000E+00 0.00000E+00
 -1      3519 4.64852E-13 4.64852E-13 4.64852E-13 0.00000E+00 0.00000E+00 0.00000E+00
 -1      3520 4.58211E-13 4.58211E-13 4.58211E-13 0.00000E+00 0.00000E+00 0.00000E+00
 -1      3521 4.62638E-13 4.62638E-13 4.62638E-13 0.00000E+00 0.00000E+00 0.00000E+00
 -1      3522 4.64852E-13 4.64852E-13 4.64852E-13 0.00000E+00 0.00000E+00 0.00000E+00
 -1      3523 4.44929E-13 4.44929E-13 4.44929E-13 0.00000E+00 0.00000E+00 0.00000E+00
 -1      3524 4.42716E-13 4.42716E-13 4.42716E-13 0.00000E+00 0.00000E+00 0.00000E+00
 -1      3525 4.44929E-13 4.44929E-13 4.44929E-13 0.00000E+00 0.00000E+00 0.00000E+00
 -1      3526 4.42716E-13 4.42716E-13 4.42716E-13 0.00000E+00 0.00000E+00 0.00000E+00
 -1      3527 4.38289E-13 4.38289E-13 4.38289E-13 0.00000E+00 0.00000E+00 0.00000E+00
 -1      3528 4.38289E-13 4.38289E-13 4.38289E-13 0.00000E+00 0.00000E+00 0.00000E+00
 -1      3529 4.38289E-13 4.38289E-13 4.38289E-13 0.00000E+00 0.00000E+00 0.00000E+00
 -1      3530 4.64852E-13 4.64852E-13 4.64852E-13 0.00000E+00 0.00000E+00 0.00000E+00
 -1      3531 4.38289E-13 4.38289E-13 4.38289E-13 0.00000E+00 0.00000E+00 0.00000E+00
 -1      3532 4.64852E-13 4.64852E-13 4.64852E-13 0.00000E+00 0.00000E+00 0.00000E+00
 -1      3533 4.64852E-13 4.64852E-13 4.64852E-13 0.00000E+00 0.00000E+00 0.00000E+00
 -1      3534 4.64852E-13 4.64852E-13 4.64852E-13 0.00000E+00 0.00000E+00 0.00000E+00
 -1      3535 4.38289E-13 4.38289E-13 4.38289E-13 0.00000E+00 0.00000E+00 0.00000E+00
 -1      3536 4.64852E-13 4.64852E-13 4.64852E-13 0.00000E+00 0.00000E+00 0.00000E+00
 -1      3537 4.47143E-13 4.47143E-13 4.47143E-13 0.00000E+00 0.00000E+00 0.00000E+00
 -1      3538 4.55997E-13 4.55997E-13 4.55997E-13 0.00000E+00 0.00000E+00 0.00000E+00
 -1      3539 4.64852E-13 4.64852E-13 4.64852E-13 0.00000E+00 0.00000E+00 0.00000E+00
 -1      3540 4.64852E-13 4.64852E-13 4.64852E-13 0.00000E+00 0.00000E+00 0.00000E+00
 -1      3541 4.64852E-13 4.64852E-13 4.64852E-13 0.00000E+00 0.00000E+00 0.00000E+00
 -1      3542 4.64852E-13 4.64852E-13 4.64852E-13 0.00000E+00 0.00000E+00 0.00000E+00
 -1      3543 4.64852E-13 4.64852E-13 4.64852E-13 0.00000E+00 0.00000E+00 0.00000E+00
 -1      3544 4.44929E-13 4.44929E-13 4.44929E-13 0.00000E+00 0.00000E+00 0.00000E+00
 -1      3545 4.64852E-13 4.64852E-13 4.64852E-13 0.00000E+00 0.00000E+00 0.00000E+00
 -1      3546 4.64852E-13 4.64852E-13 4.64852E-13 0.00000E+00 0.00000E+00 0.00000E+00
 -1      3547 4.38289E-13 4.38289E-13 4.38289E-13 0.00000E+00 0.00000E+00 0.00000E+00
 -1      3548 4.38289E-13 4.38289E-13 4.38289E-13 0.00000E+00 0.00000E+00 0.00000E+00
 -1      3549 4.64852E-13 4.64852E-13 4.64852E-13 0.00000E+00 0.00000E+00 0.00000E+00
 -1      3550 4.64852E-13 4.64852E-13 4.64852E-13 0.00000E+00 0.00000E+00 0.00000E+00
 -1      3551 4.64852E-13 4.64852E-13 4.64852E-13 0.00000E+00 0.00000E+00 0.00000E+00
 -1      3552 4.64852E-13 4.64852E-13 4.64852E-13 0.00000E+00 0.00000E+00 0.00000E+00
 -1      3553 4.64852E-13 4.64852E-13 4.64852E-13 0.00000E+00 0.00000E+00 0.00000E+00
 -1      3554 4.64852E-13 4.64852E-13 4.64852E-13 0.00000E+00 0.00000E+00 0.00000E+00
 -1      3555 4.64852E-13 4.64852E-13 4.64852E-13 0.00000E+00 0.00000E+00 0.00000E+00
 -1      3556 4.38289E-13 4.38289E-13 4.38289E-13 0.00000E+00 0.00000E+00 0.00000E+00
 -1      3557 4.62954E-13 4.62954E-13 4.62954E-13 0.00000E+00 0.00000E+00 0.00000E+00
 -1      3558 4.55365E-13 4.55365E-13 4.55365E-13 0.00000E+00 0.00000E+00 0.00000E+00
 -1      3559 4.47775E-13 4.47775E-13 4.47775E-13 0.00000E+00 0.00000E+00 0.00000E+00
 -1      3560 4.38289E-13 4.38289E-13 4.38289E-13 0.00000E+00 0.00000E+00 0.00000E+00
 -1      3561 4.38289E-13 4.38289E-13 4.38289E-13 0.00000E+00 0.00000E+00 0.00000E+00
 -1      3562 4.64852E-13 4.64852E-13 4.64852E-13 0.00000E+00 0.00000E+00 0.00000E+00
 -1      3563 4.59160E-13 4.59160E-13 4.59160E-13 0.00000E+00 0.00000E+00 0.00000E+00
 -1      3564 4.61057E-13 4.61057E-13 4.61057E-13 0.00000E+00 0.00000E+00 0.00000E+00
 -1      3565 4.60425E-13 4.60425E-13 4.60425E-13 0.00000E+00 0.00000E+00 0.00000E+00
 -1      3566 4.62638E-13 4.62638E-13 4.62638E-13 0.00000E+00 0.00000E+00 0.00000E+00
 -1      3567 4.64852E-13 4.64852E-13 4.64852E-13 0.00000E+00 0.00000E+00 0.00000E+00
 -1      3568 4.38289E-13 4.38289E-13 4.38289E-13 0.00000E+00 0.00000E+00 0.00000E+00
 -1      3569 4.38289E-13 4.38289E-13 4.38289E-13 0.00000E+00 0.00000E+00 0.00000E+00
 -1      3570 4.64852E-13 4.64852E-13 4.64852E-13 0.00000E+00 0.00000E+00 0.00000E+00
 -1      3571 4.38289E-13 4.38289E-13 4.38289E-13 0.00000E+00 0.00000E+00 0.00000E+00
 -1      3572 4.64852E-13 4.64852E-13 4.64852E-13 0.00000E+00 0.00000E+00 0.00000E+00
 -1      3573 4.64852E-13 4.64852E-13 4.64852E-13 0.00000E+00 0.00000E+00 0.00000E+00
 -1      3574 4.42716E-13 4.42716E-13 4.42716E-13 0.00000E+00 0.00000E+00 0.00000E+00
 -1      3575 4.40186E-13 4.40186E-13 4.40186E-13 0.00000E+00 0.00000E+00 0.00000E+00
 -1      3576 4.43601E-13 4.43601E-13 4.43601E-13 0.00000E+00 0.00000E+00 0.00000E+00
 -1      3577 4.42716E-13 4.42716E-13 4.42716E-13 0.00000E+00 0.00000E+00 0.00000E+00
 -1      3578 4.38289E-13 4.38289E-13 4.38289E-13 0.00000E+00 0.00000E+00 0.00000E+00
 -1      3579 4.38289E-13 4.38289E-13 4.38289E-13 0.00000E+00 0.00000E+00 0.00000E+00
 -1      3580 4.38289E-13 4.38289E-13 4.38289E-13 0.00000E+00 0.00000E+00 0.00000E+00
 -1      3581 4.64852E-13 4.64852E-13 4.64852E-13 0.00000E+00 0.00000E+00 0.00000E+00
 -1      3582 4.64852E-13 4.64852E-13 4.64852E-13 0.00000E+00 0.00000E+00 0.00000E+00
 -1      3583 4.38289E-13 4.38289E-13 4.38289E-13 0.00000E+00 0.00000E+00 0.00000E+00
 -1      3584 4.64852E-13 4.64852E-13 4.64852E-13 0.00000E+00 0.00000E+00 0.00000E+00
 -1      3585 4.64852E-13 4.64852E-13 4.64852E-13 0.00000E+00 0.00000E+00 0.00000E+00
 -1      3586 4.64852E-13 4.64852E-13 4.64852E-13 0.00000E+00 0.00000E+00 0.00000E+00
 -1      3587 4.64852E-13 4.64852E-13 4.64852E-13 0.00000E+00 0.00000E+00 0.00000E+00
 -1      3588 4.64852E-13 4.64852E-13 4.64852E-13 0.00000E+00 0.00000E+00 0.00000E+00
 -1      3589 4.64852E-13 4.64852E-13 4.64852E-13 0.00000E+00 0.00000E+00 0.00000E+00
 -1      3590 4.64852E-13 4.64852E-13 4.64852E-13 0.00000E+00 0.00000E+00 0.00000E+00
 -1      3591 4.64852E-13 4.64852E-13 4.64852E-13 0.00000E+00 0.00000E+00 0.00000E+00
 -1      3592 4.64852E-13 4.64852E-13 4.64852E-13 0.00000E+00 0.00000E+00 0.00000E+00
 -1      3593 4.60425E-13 4.60425E-13 4.60425E-13 0.00000E+00 0.00000E+00 0.00000E+00
 -1      3594 4.64852E-13 4.64852E-13 4.64852E-13 0.00000E+00 0.00000E+00 0.00000E+00
 -1      3595 4.53784E-13 4.53784E-13 4.53784E-13 0.00000E+00 0.00000E+00 0.00000E+00
 -1      3596 4.64852E-13 4.64852E-13 4.64852E-13 0.00000E+00 0.00000E+00 0.00000E+00
 -1      3597 4.64852E-13 4.64852E-13 4.64852E-13 0.00000E+00 0.00000E+00 0.00000E+00
 -1      3598 4.38289E-13 4.38289E-13 4.38289E-13 0.00000E+00 0.00000E+00 0.00000E+00
 -1      3599 4.38289E-13 4.38289E-13 4.38289E-13 0.00000E+00 0.00000E+00 0.00000E+00
 -1      3600 4.38289E-13 4.38289E-13 4.38289E-13 0.00000E+00 0.00000E+00 0.00000E+00
 -1      3601 4.38289E-13 4.38289E-13 4.38289E-13 0.00000E+00 0.00000E+00 0.00000E+00
 -1      3602 4.38289E-13 4.38289E-13 4.38289E-13 0.00000E+00 0.00000E+00 0.00000E+00
 -1      3603 4.38289E-13 4.38289E-13 4.38289E-13 0.00000E+00 0.00000E+00 0.00000E+00
 -1      3604 4.38289E-13 4.38289E-13 4.38289E-13 0.00000E+00 0.00000E+00 0.00000E+00
 -1      3605 4.38289E-13 4.38289E-13 4.38289E-13 0.00000E+00 0.00000E+00 0.00000E+00
 -1      3606 4.64852E-13 4.64852E-13 4.64852E-13 0.00000E+00 0.00000E+00 0.00000E+00
 -1      3607 4.45878E-13 4.45878E-13 4.45878E-13 0.00000E+00 0.00000E+00 0.00000E+00
 -1      3608 4.38289E-13 4.38289E-13 4.38289E-13 0.00000E+00 0.00000E+00 0.00000E+00
 -1      3609 4.38289E-13 4.38289E-13 4.38289E-13 0.00000E+00 0.00000E+00 0.00000E+00
 -1      3610 4.38289E-13 4.38289E-13 4.38289E-13 0.00000E+00 0.00000E+00 0.00000E+00
 -1      3611 4.64852E-13 4.64852E-13 4.64852E-13 0.00000E+00 0.00000E+00 0.00000E+00
 -1      3612 4.38289E-13 4.38289E-13 4.38289E-13 0.00000E+00 0.00000E+00 0.00000E+00
 -1      3613 4.64852E-13 4.64852E-13 4.64852E-13 0.00000E+00 0.00000E+00 0.00000E+00
 -1      3614 4.38289E-13 4.38289E-13 4.38289E-13 0.00000E+00 0.00000E+00 0.00000E+00
 -1      3615 4.38289E-13 4.38289E-13 4.38289E-13 0.00000E+00 0.00000E+00 0.00000E+00
 -1      3616 4.38289E-13 4.38289E-13 4.38289E-13 0.00000E+00 0.00000E+00 0.00000E+00
 -1      3617 4.60425E-13 4.60425E-13 4.60425E-13 0.00000E+00 0.00000E+00 0.00000E+00
 -1      3618 4.55997E-13 4.55997E-13 4.55997E-13 0.00000E+00 0.00000E+00 0.00000E+00
 -1      3619 4.64852E-13 4.64852E-13 4.64852E-13 0.00000E+00 0.00000E+00 0.00000E+00
 -1      3620 4.64852E-13 4.64852E-13 4.64852E-13 0.00000E+00 0.00000E+00 0.00000E+00
 -1      3621 4.64852E-13 4.64852E-13 4.64852E-13 0.00000E+00 0.00000E+00 0.00000E+00
 -1      3622 4.64852E-13 4.64852E-13 4.64852E-13 0.00000E+00 0.00000E+00 0.00000E+00
 -1      3623 4.64852E-13 4.64852E-13 4.64852E-13 0.00000E+00 0.00000E+00 0.00000E+00
 -1      3624 4.38289E-13 4.38289E-13 4.38289E-13 0.00000E+00 0.00000E+00 0.00000E+00
 -1      3625 4.38289E-13 4.38289E-13 4.38289E-13 0.00000E+00 0.00000E+00 0.00000E+00
 -1      3626 4.38289E-13 4.38289E-13 4.38289E-13 0.00000E+00 0.00000E+00 0.00000E+00
 -1      3627 4.64852E-13 4.64852E-13 4.64852E-13 0.00000E+00 0.00000E+00 0.00000E+00
 -1      3628 4.64852E-13 4.64852E-13 4.64852E-13 0.00000E+00 0.00000E+00 0.00000E+00
 -1      3629 4.64852E-13 4.64852E-13 4.64852E-13 0.00000E+00 0.00000E+00 0.00000E+00
 -1      3630 4.42716E-13 4.42716E-13 4.42716E-13 0.00000E+00 0.00000E+00 0.00000E+00
 -1      3631 4.64852E-13 4.64852E-13 4.64852E-13 0.00000E+00 0.00000E+00 0.00000E+00
 -1      3632 4.47143E-13 4.47143E-13 4.47143E-13 0.00000E+00 0.00000E+00 0.00000E+00
 -1      3633 4.42716E-13 4.42716E-13 4.42716E-13 0.00000E+00 0.00000E+00 0.00000E+00
 -1      3634 4.38289E-13 4.38289E-13 4.38289E-13 0.00000E+00 0.00000E+00 0.00000E+00
 -1      3635 4.38289E-13 4.38289E-13 4.38289E-13 0.00000E+00 0.00000E+00 0.00000E+00
 -1      3636 4.38289E-13 4.38289E-13 4.38289E-13 0.00000E+00 0.00000E+00 0.00000E+00
 -1      3637 4.42716E-13 4.42716E-13 4.42716E-13 0.00000E+00 0.00000E+00 0.00000E+00
 -1      3638 4.38289E-13 4.38289E-13 4.38289E-13 0.00000E+00 0.00000E+00 0.00000E+00
 -1      3639 4.38289E-13 4.38289E-13 4.38289E-13 0.00000E+00 0.00000E+00 0.00000E+00
 -1      3640 4.40502E-13 4.40502E-13 4.40502E-13 0.00000E+00 0.00000E+00 0.00000E+00
 -1      3641 4.40502E-13 4.40502E-13 4.40502E-13 0.00000E+00 0.00000E+00 0.00000E+00
 -1      3642 4.38289E-13 4.38289E-13 4.38289E-13 0.00000E+00 0.00000E+00 0.00000E+00
 -1      3643 4.38289E-13 4.38289E-13 4.38289E-13 0.00000E+00 0.00000E+00 0.00000E+00
 -1      3644 4.38289E-13 4.38289E-13 4.38289E-13 0.00000E+00 0.00000E+00 0.00000E+00
 -1      3645 4.42716E-13 4.42716E-13 4.42716E-13 0.00000E+00 0.00000E+00 0.00000E+00
 -1      3646 4.38289E-13 4.38289E-13 4.38289E-13 0.00000E+00 0.00000E+00 0.00000E+00
 -1      3647 4.51570E-13 4.51570E-13 4.51570E-13 0.00000E+00 0.00000E+00 0.00000E+00
 -1      3648 4.38289E-13 4.38289E-13 4.38289E-13 0.00000E+00 0.00000E+00 0.00000E+00
 -1      3649 4.38289E-13 4.38289E-13 4.38289E-13 0.00000E+00 0.00000E+00 0.00000E+00
 -1      3650 4.42716E-13 4.42716E-13 4.42716E-13 0.00000E+00 0.00000E+00 0.00000E+00
 -1      3651 4.38289E-13 4.38289E-13 4.38289E-13 0.00000E+00 0.00000E+00 0.00000E+00
 -1      3652 4.40502E-13 4.40502E-13 4.40502E-13 0.00000E+00 0.00000E+00 0.00000E+00
 -1      3653 4.38289E-13 4.38289E-13 4.38289E-13 0.00000E+00 0.00000E+00 0.00000E+00
 -1      3654 4.38289E-13 4.38289E-13 4.38289E-13 0.00000E+00 0.00000E+00 0.00000E+00
 -1      3655 4.38289E-13 4.38289E-13 4.38289E-13 0.00000E+00 0.00000E+00 0.00000E+00
 -1      3656 4.38289E-13 4.38289E-13 4.38289E-13 0.00000E+00 0.00000E+00 0.00000E+00
 -1      3657 4.38289E-13 4.38289E-13 4.38289E-13 0.00000E+00 0.00000E+00 0.00000E+00
 -1      3658 4.38289E-13 4.38289E-13 4.38289E-13 0.00000E+00 0.00000E+00 0.00000E+00
 -1      3659 4.38289E-13 4.38289E-13 4.38289E-13 0.00000E+00 0.00000E+00 0.00000E+00
 -1      3660 4.42716E-13 4.42716E-13 4.42716E-13 0.00000E+00 0.00000E+00 0.00000E+00
 -1      3661 4.40502E-13 4.40502E-13 4.40502E-13 0.00000E+00 0.00000E+00 0.00000E+00
 -1      3662 4.53784E-13 4.53784E-13 4.53784E-13 0.00000E+00 0.00000E+00 0.00000E+00
 -1      3663 4.49357E-13 4.49357E-13 4.49357E-13 0.00000E+00 0.00000E+00 0.00000E+00
 -1      3664 4.62638E-13 4.62638E-13 4.62638E-13 0.00000E+00 0.00000E+00 0.00000E+00
 -1      3665 4.51570E-13 4.51570E-13 4.51570E-13 0.00000E+00 0.00000E+00 0.00000E+00
 -1      3666 4.47143E-13 4.47143E-13 4.47143E-13 0.00000E+00 0.00000E+00 0.00000E+00
 -1      3667 4.58211E-13 4.58211E-13 4.58211E-13 0.00000E+00 0.00000E+00 0.00000E+00
 -1      3668 4.47143E-13 4.47143E-13 4.47143E-13 0.00000E+00 0.00000E+00 0.00000E+00
 -1      3669 4.42716E-13 4.42716E-13 4.42716E-13 0.00000E+00 0.00000E+00 0.00000E+00
 -1      3670 4.51570E-13 4.51570E-13 4.51570E-13 0.00000E+00 0.00000E+00 0.00000E+00
 -1      3671 4.40502E-13 4.40502E-13 4.40502E-13 0.00000E+00 0.00000E+00 0.00000E+00
 -1      3672 4.51570E-13 4.51570E-13 4.51570E-13 0.00000E+00 0.00000E+00 0.00000E+00
 -1      3673 4.51570E-13 4.51570E-13 4.51570E-13 0.00000E+00 0.00000E+00 0.00000E+00
 -1      3674 4.42716E-13 4.42716E-13 4.42716E-13 0.00000E+00 0.00000E+00 0.00000E+00
 -1      3675 4.44929E-13 4.44929E-13 4.44929E-13 0.00000E+00 0.00000E+00 0.00000E+00
 -1      3676 4.44929E-13 4.44929E-13 4.44929E-13 0.00000E+00 0.00000E+00 0.00000E+00
 -1      3677 4.47143E-13 4.47143E-13 4.47143E-13 0.00000E+00 0.00000E+00 0.00000E+00
 -1      3678 4.60425E-13 4.60425E-13 4.60425E-13 0.00000E+00 0.00000E+00 0.00000E+00
 -1      3679 4.55997E-13 4.55997E-13 4.55997E-13 0.00000E+00 0.00000E+00 0.00000E+00
 -1      3680 4.62638E-13 4.62638E-13 4.62638E-13 0.00000E+00 0.00000E+00 0.00000E+00
 -1      3681 4.58211E-13 4.58211E-13 4.58211E-13 0.00000E+00 0.00000E+00 0.00000E+00
 -1      3682 4.58211E-13 4.58211E-13 4.58211E-13 0.00000E+00 0.00000E+00 0.00000E+00
 -1      3683 4.55997E-13 4.55997E-13 4.55997E-13 0.00000E+00 0.00000E+00 0.00000E+00
 -1      3684 4.55997E-13 4.55997E-13 4.55997E-13 0.00000E+00 0.00000E+00 0.00000E+00
 -1      3685 4.53784E-13 4.53784E-13 4.53784E-13 0.00000E+00 0.00000E+00 0.00000E+00
 -1      3686 4.53784E-13 4.53784E-13 4.53784E-13 0.00000E+00 0.00000E+00 0.00000E+00
 -1      3687 4.51570E-13 4.51570E-13 4.51570E-13 0.00000E+00 0.00000E+00 0.00000E+00
 -1      3688 4.55997E-13 4.55997E-13 4.55997E-13 0.00000E+00 0.00000E+00 0.00000E+00
 -1      3689 4.58211E-13 4.58211E-13 4.58211E-13 0.00000E+00 0.00000E+00 0.00000E+00
 -1      3690 4.62638E-13 4.62638E-13 4.62638E-13 0.00000E+00 0.00000E+00 0.00000E+00
 -1      3691 4.64852E-13 4.64852E-13 4.64852E-13 0.00000E+00 0.00000E+00 0.00000E+00
 -1      3692 4.55997E-13 4.55997E-13 4.55997E-13 0.00000E+00 0.00000E+00 0.00000E+00
 -1      3693 4.64852E-13 4.64852E-13 4.64852E-13 0.00000E+00 0.00000E+00 0.00000E+00
 -1      3694 4.64852E-13 4.64852E-13 4.64852E-13 0.00000E+00 0.00000E+00 0.00000E+00
 -1      3695 4.62638E-13 4.62638E-13 4.62638E-13 0.00000E+00 0.00000E+00 0.00000E+00
 -1      3696 4.62638E-13 4.62638E-13 4.62638E-13 0.00000E+00 0.00000E+00 0.00000E+00
 -1      3697 4.60425E-13 4.60425E-13 4.60425E-13 0.00000E+00 0.00000E+00 0.00000E+00
 -1      3698 4.51570E-13 4.51570E-13 4.51570E-13 0.00000E+00 0.00000E+00 0.00000E+00
 -1      3699 4.47143E-13 4.47143E-13 4.47143E-13 0.00000E+00 0.00000E+00 0.00000E+00
 -1      3700 4.58211E-13 4.58211E-13 4.58211E-13 0.00000E+00 0.00000E+00 0.00000E+00
 -1      3701 4.62638E-13 4.62638E-13 4.62638E-13 0.00000E+00 0.00000E+00 0.00000E+00
 -1      3702 4.47143E-13 4.47143E-13 4.47143E-13 0.00000E+00 0.00000E+00 0.00000E+00
 -1      3703 4.40502E-13 4.40502E-13 4.40502E-13 0.00000E+00 0.00000E+00 0.00000E+00
 -1      3704 4.42716E-13 4.42716E-13 4.42716E-13 0.00000E+00 0.00000E+00 0.00000E+00
 -1      3705 4.38289E-13 4.38289E-13 4.38289E-13 0.00000E+00 0.00000E+00 0.00000E+00
 -1      3706 4.38289E-13 4.38289E-13 4.38289E-13 0.00000E+00 0.00000E+00 0.00000E+00
 -1      3707 4.44929E-13 4.44929E-13 4.44929E-13 0.00000E+00 0.00000E+00 0.00000E+00
 -1      3708 4.47143E-13 4.47143E-13 4.47143E-13 0.00000E+00 0.00000E+00 0.00000E+00
 -1      3709 4.60425E-13 4.60425E-13 4.60425E-13 0.00000E+00 0.00000E+00 0.00000E+00
 -1      3710 4.49357E-13 4.49357E-13 4.49357E-13 0.00000E+00 0.00000E+00 0.00000E+00
 -1      3711 4.47143E-13 4.47143E-13 4.47143E-13 0.00000E+00 0.00000E+00 0.00000E+00
 -1      3712 4.38289E-13 4.38289E-13 4.38289E-13 0.00000E+00 0.00000E+00 0.00000E+00
 -1      3713 4.40502E-13 4.40502E-13 4.40502E-13 0.00000E+00 0.00000E+00 0.00000E+00
 -1      3714 4.55997E-13 4.55997E-13 4.55997E-13 0.00000E+00 0.00000E+00 0.00000E+00
 -1      3715 4.58211E-13 4.58211E-13 4.58211E-13 0.00000E+00 0.00000E+00 0.00000E+00
 -1      3716 4.53784E-13 4.53784E-13 4.53784E-13 0.00000E+00 0.00000E+00 0.00000E+00
 -1      3717 4.38289E-13 4.38289E-13 4.38289E-13 0.00000E+00 0.00000E+00 0.00000E+00
 -1      3718 4.38289E-13 4.38289E-13 4.38289E-13 0.00000E+00 0.00000E+00 0.00000E+00
 -1      3719 4.42716E-13 4.42716E-13 4.42716E-13 0.00000E+00 0.00000E+00 0.00000E+00
 -1      3720 4.38289E-13 4.38289E-13 4.38289E-13 0.00000E+00 0.00000E+00 0.00000E+00
 -1      3721 4.47143E-13 4.47143E-13 4.47143E-13 0.00000E+00 0.00000E+00 0.00000E+00
 -1      3722 4.44929E-13 4.44929E-13 4.44929E-13 0.00000E+00 0.00000E+00 0.00000E+00
 -1      3723 4.51570E-13 4.51570E-13 4.51570E-13 0.00000E+00 0.00000E+00 0.00000E+00
 -1      3724 4.49357E-13 4.49357E-13 4.49357E-13 0.00000E+00 0.00000E+00 0.00000E+00
 -1      3725 4.42716E-13 4.42716E-13 4.42716E-13 0.00000E+00 0.00000E+00 0.00000E+00
 -1      3726 4.42716E-13 4.42716E-13 4.42716E-13 0.00000E+00 0.00000E+00 0.00000E+00
 -1      3727 4.38289E-13 4.38289E-13 4.38289E-13 0.00000E+00 0.00000E+00 0.00000E+00
 -1      3728 4.38289E-13 4.38289E-13 4.38289E-13 0.00000E+00 0.00000E+00 0.00000E+00
 -1      3729 4.38289E-13 4.38289E-13 4.38289E-13 0.00000E+00 0.00000E+00 0.00000E+00
 -1      3730 4.38289E-13 4.38289E-13 4.38289E-13 0.00000E+00 0.00000E+00 0.00000E+00
 -1      3731 4.38289E-13 4.38289E-13 4.38289E-13 0.00000E+00 0.00000E+00 0.00000E+00
 -1      3732 4.38289E-13 4.38289E-13 4.38289E-13 0.00000E+00 0.00000E+00 0.00000E+00
 -1      3733 4.42716E-13 4.42716E-13 4.42716E-13 0.00000E+00 0.00000E+00 0.00000E+00
 -1      3734 4.40502E-13 4.40502E-13 4.40502E-13 0.00000E+00 0.00000E+00 0.00000E+00
 -1      3735 4.49357E-13 4.49357E-13 4.49357E-13 0.00000E+00 0.00000E+00 0.00000E+00
 -1      3736 4.42716E-13 4.42716E-13 4.42716E-13 0.00000E+00 0.00000E+00 0.00000E+00
 -1      3737 4.51570E-13 4.51570E-13 4.51570E-13 0.00000E+00 0.00000E+00 0.00000E+00
 -1      3738 4.42716E-13 4.42716E-13 4.42716E-13 0.00000E+00 0.00000E+00 0.00000E+00
 -1      3739 4.51570E-13 4.51570E-13 4.51570E-13 0.00000E+00 0.00000E+00 0.00000E+00
 -1      3740 4.47143E-13 4.47143E-13 4.47143E-13 0.00000E+00 0.00000E+00 0.00000E+00
 -1      3741 4.55997E-13 4.55997E-13 4.55997E-13 0.00000E+00 0.00000E+00 0.00000E+00
 -1      3742 4.55997E-13 4.55997E-13 4.55997E-13 0.00000E+00 0.00000E+00 0.00000E+00
 -1      3743 4.55997E-13 4.55997E-13 4.55997E-13 0.00000E+00 0.00000E+00 0.00000E+00
 -1      3744 4.58211E-13 4.58211E-13 4.58211E-13 0.00000E+00 0.00000E+00 0.00000E+00
 -1      3745 4.51570E-13 4.51570E-13 4.51570E-13 0.00000E+00 0.00000E+00 0.00000E+00
 -1      3746 4.62638E-13 4.62638E-13 4.62638E-13 0.00000E+00 0.00000E+00 0.00000E+00
 -1      3747 4.53784E-13 4.53784E-13 4.53784E-13 0.00000E+00 0.00000E+00 0.00000E+00
 -1      3748 4.62638E-13 4.62638E-13 4.62638E-13 0.00000E+00 0.00000E+00 0.00000E+00
 -1      3749 4.60425E-13 4.60425E-13 4.60425E-13 0.00000E+00 0.00000E+00 0.00000E+00
 -1      3750 4.55997E-13 4.55997E-13 4.55997E-13 0.00000E+00 0.00000E+00 0.00000E+00
 -1      3751 4.64852E-13 4.64852E-13 4.64852E-13 0.00000E+00 0.00000E+00 0.00000E+00
 -1      3752 4.62638E-13 4.62638E-13 4.62638E-13 0.00000E+00 0.00000E+00 0.00000E+00
 -1      3753 4.64852E-13 4.64852E-13 4.64852E-13 0.00000E+00 0.00000E+00 0.00000E+00
 -1      3754 4.64852E-13 4.64852E-13 4.64852E-13 0.00000E+00 0.00000E+00 0.00000E+00
 -1      3755 4.64852E-13 4.64852E-13 4.64852E-13 0.00000E+00 0.00000E+00 0.00000E+00
 -1      3756 4.64852E-13 4.64852E-13 4.64852E-13 0.00000E+00 0.00000E+00 0.00000E+00
 -1      3757 4.64852E-13 4.64852E-13 4.64852E-13 0.00000E+00 0.00000E+00 0.00000E+00
 -1      3758 4.64852E-13 4.64852E-13 4.64852E-13 0.00000E+00 0.00000E+00 0.00000E+00
 -1      3759 4.64852E-13 4.64852E-13 4.64852E-13 0.00000E+00 0.00000E+00 0.00000E+00
 -1      3760 4.62638E-13 4.62638E-13 4.62638E-13 0.00000E+00 0.00000E+00 0.00000E+00
 -1      3761 4.58211E-13 4.58211E-13 4.58211E-13 0.00000E+00 0.00000E+00 0.00000E+00
 -1      3762 4.55997E-13 4.55997E-13 4.55997E-13 0.00000E+00 0.00000E+00 0.00000E+00
 -1      3763 4.62638E-13 4.62638E-13 4.62638E-13 0.00000E+00 0.00000E+00 0.00000E+00
 -1      3764 4.62638E-13 4.62638E-13 4.62638E-13 0.00000E+00 0.00000E+00 0.00000E+00
 -1      3765 4.60425E-13 4.60425E-13 4.60425E-13 0.00000E+00 0.00000E+00 0.00000E+00
 -1      3766 4.64852E-13 4.64852E-13 4.64852E-13 0.00000E+00 0.00000E+00 0.00000E+00
 -1      3767 4.38289E-13 4.38289E-13 4.38289E-13 0.00000E+00 0.00000E+00 0.00000E+00
 -1      3768 4.38289E-13 4.38289E-13 4.38289E-13 0.00000E+00 0.00000E+00 0.00000E+00
 -1      3769 4.42716E-13 4.42716E-13 4.42716E-13 0.00000E+00 0.00000E+00 0.00000E+00
 -1      3770 4.47143E-13 4.47143E-13 4.47143E-13 0.00000E+00 0.00000E+00 0.00000E+00
 -1      3771 4.47143E-13 4.47143E-13 4.47143E-13 0.00000E+00 0.00000E+00 0.00000E+00
 -1      3772 4.62638E-13 4.62638E-13 4.62638E-13 0.00000E+00 0.00000E+00 0.00000E+00
 -1      3773 4.38289E-13 4.38289E-13 4.38289E-13 0.00000E+00 0.00000E+00 0.00000E+00
 -1      3774 4.64852E-13 4.64852E-13 4.64852E-13 0.00000E+00 0.00000E+00 0.00000E+00
 -1      3775 4.49357E-13 4.49357E-13 4.49357E-13 0.00000E+00 0.00000E+00 0.00000E+00
 -1      3776 4.64852E-13 4.64852E-13 4.64852E-13 0.00000E+00 0.00000E+00 0.00000E+00
 -1      3777 4.47143E-13 4.47143E-13 4.47143E-13 0.00000E+00 0.00000E+00 0.00000E+00
 -1      3778 4.44929E-13 4.44929E-13 4.44929E-13 0.00000E+00 0.00000E+00 0.00000E+00
 -1      3779 4.64852E-13 4.64852E-13 4.64852E-13 0.00000E+00 0.00000E+00 0.00000E+00
 -1      3780 4.64852E-13 4.64852E-13 4.64852E-13 0.00000E+00 0.00000E+00 0.00000E+00
 -1      3781 4.38289E-13 4.38289E-13 4.38289E-13 0.00000E+00 0.00000E+00 0.00000E+00
 -1      3782 4.38289E-13 4.38289E-13 4.38289E-13 0.00000E+00 0.00000E+00 0.00000E+00
 -1      3783 4.40502E-13 4.40502E-13 4.40502E-13 0.00000E+00 0.00000E+00 0.00000E+00
 -1      3784 4.53784E-13 4.53784E-13 4.53784E-13 0.00000E+00 0.00000E+00 0.00000E+00
 -1      3785 4.42716E-13 4.42716E-13 4.42716E-13 0.00000E+00 0.00000E+00 0.00000E+00
 -1      3786 4.42716E-13 4.42716E-13 4.42716E-13 0.00000E+00 0.00000E+00 0.00000E+00
 -1      3787 4.64852E-13 4.64852E-13 4.64852E-13 0.00000E+00 0.00000E+00 0.00000E+00
 -1      3788 4.42716E-13 4.42716E-13 4.42716E-13 0.00000E+00 0.00000E+00 0.00000E+00
 -1      3789 4.38289E-13 4.38289E-13 4.38289E-13 0.00000E+00 0.00000E+00 0.00000E+00
 -1      3790 4.62638E-13 4.62638E-13 4.62638E-13 0.00000E+00 0.00000E+00 0.00000E+00
 -1      3791 4.62638E-13 4.62638E-13 4.62638E-13 0.00000E+00 0.00000E+00 0.00000E+00
 -1      3792 4.64852E-13 4.64852E-13 4.64852E-13 0.00000E+00 0.00000E+00 0.00000E+00
 -1      3793 4.38289E-13 4.38289E-13 4.38289E-13 0.00000E+00 0.00000E+00 0.00000E+00
 -1      3794 4.42716E-13 4.42716E-13 4.42716E-13 0.00000E+00 0.00000E+00 0.00000E+00
 -1      3795 4.38289E-13 4.38289E-13 4.38289E-13 0.00000E+00 0.00000E+00 0.00000E+00
 -1      3796 4.38289E-13 4.38289E-13 4.38289E-13 0.00000E+00 0.00000E+00 0.00000E+00
 -1      3797 4.38289E-13 4.38289E-13 4.38289E-13 0.00000E+00 0.00000E+00 0.00000E+00
 -1      3798 4.44929E-13 4.44929E-13 4.44929E-13 0.00000E+00 0.00000E+00 0.00000E+00
 -1      3799 4.42716E-13 4.42716E-13 4.42716E-13 0.00000E+00 0.00000E+00 0.00000E+00
 -1      3800 4.38289E-13 4.38289E-13 4.38289E-13 0.00000E+00 0.00000E+00 0.00000E+00
 -1      3801 4.47143E-13 4.47143E-13 4.47143E-13 0.00000E+00 0.00000E+00 0.00000E+00
 -1      3802 4.58211E-13 4.58211E-13 4.58211E-13 0.00000E+00 0.00000E+00 0.00000E+00
 -1      3803 4.60425E-13 4.60425E-13 4.60425E-13 0.00000E+00 0.00000E+00 0.00000E+00
 -1      3804 4.38289E-13 4.38289E-13 4.38289E-13 0.00000E+00 0.00000E+00 0.00000E+00
 -1      3805 4.38289E-13 4.38289E-13 4.38289E-13 0.00000E+00 0.00000E+00 0.00000E+00
 -1      3806 4.47143E-13 4.47143E-13 4.47143E-13 0.00000E+00 0.00000E+00 0.00000E+00
 -1      3807 4.44929E-13 4.44929E-13 4.44929E-13 0.00000E+00 0.00000E+00 0.00000E+00
 -1      3808 4.62638E-13 4.62638E-13 4.62638E-13 0.00000E+00 0.00000E+00 0.00000E+00
 -1      3809 4.60425E-13 4.60425E-13 4.60425E-13 0.00000E+00 0.00000E+00 0.00000E+00
 -1      3810 4.64852E-13 4.64852E-13 4.64852E-13 0.00000E+00 0.00000E+00 0.00000E+00
 -1      3811 4.64852E-13 4.64852E-13 4.64852E-13 0.00000E+00 0.00000E+00 0.00000E+00
 -1      3812 4.62638E-13 4.62638E-13 4.62638E-13 0.00000E+00 0.00000E+00 0.00000E+00
 -1      3813 4.58211E-13 4.58211E-13 4.58211E-13 0.00000E+00 0.00000E+00 0.00000E+00
 -1      3814 4.55997E-13 4.55997E-13 4.55997E-13 0.00000E+00 0.00000E+00 0.00000E+00
 -1      3815 4.60425E-13 4.60425E-13 4.60425E-13 0.00000E+00 0.00000E+00 0.00000E+00
 -1      3816 4.60425E-13 4.60425E-13 4.60425E-13 0.00000E+00 0.00000E+00 0.00000E+00
 -1      3817 4.58211E-13 4.58211E-13 4.58211E-13 0.00000E+00 0.00000E+00 0.00000E+00
 -1      3818 4.44929E-13 4.44929E-13 4.44929E-13 0.00000E+00 0.00000E+00 0.00000E+00
 -1      3819 4.42716E-13 4.42716E-13 4.42716E-13 0.00000E+00 0.00000E+00 0.00000E+00
 -1      3820 4.47143E-13 4.47143E-13 4.47143E-13 0.00000E+00 0.00000E+00 0.00000E+00
 -1      3821 4.55997E-13 4.55997E-13 4.55997E-13 0.00000E+00 0.00000E+00 0.00000E+00
 -1      3822 4.62638E-13 4.62638E-13 4.62638E-13 0.00000E+00 0.00000E+00 0.00000E+00
 -1      3823 4.64852E-13 4.64852E-13 4.64852E-13 0.00000E+00 0.00000E+00 0.00000E+00
 -1      3824 4.64852E-13 4.64852E-13 4.64852E-13 0.00000E+00 0.00000E+00 0.00000E+00
 -1      3825 4.62638E-13 4.62638E-13 4.62638E-13 0.00000E+00 0.00000E+00 0.00000E+00
 -1      3826 4.55997E-13 4.55997E-13 4.55997E-13 0.00000E+00 0.00000E+00 0.00000E+00
 -1      3827 4.53784E-13 4.53784E-13 4.53784E-13 0.00000E+00 0.00000E+00 0.00000E+00
 -1      3828 4.42716E-13 4.42716E-13 4.42716E-13 0.00000E+00 0.00000E+00 0.00000E+00
 -1      3829 4.42716E-13 4.42716E-13 4.42716E-13 0.00000E+00 0.00000E+00 0.00000E+00
 -1      3830 4.40502E-13 4.40502E-13 4.40502E-13 0.00000E+00 0.00000E+00 0.00000E+00
 -1      3831 4.42716E-13 4.42716E-13 4.42716E-13 0.00000E+00 0.00000E+00 0.00000E+00
 -1      3832 4.47143E-13 4.47143E-13 4.47143E-13 0.00000E+00 0.00000E+00 0.00000E+00
 -1      3833 4.38289E-13 4.38289E-13 4.38289E-13 0.00000E+00 0.00000E+00 0.00000E+00
 -1      3834 4.47143E-13 4.47143E-13 4.47143E-13 0.00000E+00 0.00000E+00 0.00000E+00
 -1      3835 4.38289E-13 4.38289E-13 4.38289E-13 0.00000E+00 0.00000E+00 0.00000E+00
 -1      3836 4.42716E-13 4.42716E-13 4.42716E-13 0.00000E+00 0.00000E+00 0.00000E+00
 -1      3837 4.38289E-13 4.38289E-13 4.38289E-13 0.00000E+00 0.00000E+00 0.00000E+00
 -1      3838 4.38289E-13 4.38289E-13 4.38289E-13 0.00000E+00 0.00000E+00 0.00000E+00
 -1      3839 4.51570E-13 4.51570E-13 4.51570E-13 0.00000E+00 0.00000E+00 0.00000E+00
 -1      3840 4.47143E-13 4.47143E-13 4.47143E-13 0.00000E+00 0.00000E+00 0.00000E+00
 -1      3841 4.38289E-13 4.38289E-13 4.38289E-13 0.00000E+00 0.00000E+00 0.00000E+00
 -1      3842 4.40502E-13 4.40502E-13 4.40502E-13 0.00000E+00 0.00000E+00 0.00000E+00
 -1      3843 4.38289E-13 4.38289E-13 4.38289E-13 0.00000E+00 0.00000E+00 0.00000E+00
 -1      3844 4.38289E-13 4.38289E-13 4.38289E-13 0.00000E+00 0.00000E+00 0.00000E+00
 -1      3845 4.58211E-13 4.58211E-13 4.58211E-13 0.00000E+00 0.00000E+00 0.00000E+00
 -1      3846 4.47143E-13 4.47143E-13 4.47143E-13 0.00000E+00 0.00000E+00 0.00000E+00
 -1      3847 4.64852E-13 4.64852E-13 4.64852E-13 0.00000E+00 0.00000E+00 0.00000E+00
 -1      3848 4.38289E-13 4.38289E-13 4.38289E-13 0.00000E+00 0.00000E+00 0.00000E+00
 -1      3849 4.38289E-13 4.38289E-13 4.38289E-13 0.00000E+00 0.00000E+00 0.00000E+00
 -1      3850 4.40502E-13 4.40502E-13 4.40502E-13 0.00000E+00 0.00000E+00 0.00000E+00
 -1      3851 4.38289E-13 4.38289E-13 4.38289E-13 0.00000E+00 0.00000E+00 0.00000E+00
 -1      3852 4.38289E-13 4.38289E-13 4.38289E-13 0.00000E+00 0.00000E+00 0.00000E+00
 -1      3853 4.38289E-13 4.38289E-13 4.38289E-13 0.00000E+00 0.00000E+00 0.00000E+00
 -1      3854 4.60425E-13 4.60425E-13 4.60425E-13 0.00000E+00 0.00000E+00 0.00000E+00
 -1      3855 4.58211E-13 4.58211E-13 4.58211E-13 0.00000E+00 0.00000E+00 0.00000E+00
 -1      3856 4.47143E-13 4.47143E-13 4.47143E-13 0.00000E+00 0.00000E+00 0.00000E+00
 -1      3857 4.58211E-13 4.58211E-13 4.58211E-13 0.00000E+00 0.00000E+00 0.00000E+00
 -1      3858 4.64852E-13 4.64852E-13 4.64852E-13 0.00000E+00 0.00000E+00 0.00000E+00
 -1      3859 4.60425E-13 4.60425E-13 4.60425E-13 0.00000E+00 0.00000E+00 0.00000E+00
 -1      3860 4.64852E-13 4.64852E-13 4.64852E-13 0.00000E+00 0.00000E+00 0.00000E+00
 -1      3861 4.62638E-13 4.62638E-13 4.62638E-13 0.00000E+00 0.00000E+00 0.00000E+00
 -1      3862 4.60425E-13 4.60425E-13 4.60425E-13 0.00000E+00 0.00000E+00 0.00000E+00
 -1      3863 4.53784E-13 4.53784E-13 4.53784E-13 0.00000E+00 0.00000E+00 0.00000E+00
 -1      3864 4.49357E-13 4.49357E-13 4.49357E-13 0.00000E+00 0.00000E+00 0.00000E+00
 -1      3865 4.62638E-13 4.62638E-13 4.62638E-13 0.00000E+00 0.00000E+00 0.00000E+00
 -1      3866 4.51570E-13 4.51570E-13 4.51570E-13 0.00000E+00 0.00000E+00 0.00000E+00
 -1      3867 4.55997E-13 4.55997E-13 4.55997E-13 0.00000E+00 0.00000E+00 0.00000E+00
 -1      3868 4.62638E-13 4.62638E-13 4.62638E-13 0.00000E+00 0.00000E+00 0.00000E+00
 -1      3869 4.53784E-13 4.53784E-13 4.53784E-13 0.00000E+00 0.00000E+00 0.00000E+00
 -1      3870 4.62638E-13 4.62638E-13 4.62638E-13 0.00000E+00 0.00000E+00 0.00000E+00
 -1      3871 4.58211E-13 4.58211E-13 4.58211E-13 0.00000E+00 0.00000E+00 0.00000E+00
 -1      3872 4.62638E-13 4.62638E-13 4.62638E-13 0.00000E+00 0.00000E+00 0.00000E+00
 -1      3873 4.62638E-13 4.62638E-13 4.62638E-13 0.00000E+00 0.00000E+00 0.00000E+00
 -1      3874 4.51570E-13 4.51570E-13 4.51570E-13 0.00000E+00 0.00000E+00 0.00000E+00
 -1      3875 4.51570E-13 4.51570E-13 4.51570E-13 0.00000E+00 0.00000E+00 0.00000E+00
 -1      3876 4.58211E-13 4.58211E-13 4.58211E-13 0.00000E+00 0.00000E+00 0.00000E+00
 -1      3877 4.42716E-13 4.42716E-13 4.42716E-13 0.00000E+00 0.00000E+00 0.00000E+00
 -1      3878 4.60425E-13 4.60425E-13 4.60425E-13 0.00000E+00 0.00000E+00 0.00000E+00
 -1      3879 4.62638E-13 4.62638E-13 4.62638E-13 0.00000E+00 0.00000E+00 0.00000E+00
 -1      3880 4.53784E-13 4.53784E-13 4.53784E-13 0.00000E+00 0.00000E+00 0.00000E+00
 -1      3881 4.55997E-13 4.55997E-13 4.55997E-13 0.00000E+00 0.00000E+00 0.00000E+00
 -1      3882 4.47143E-13 4.47143E-13 4.47143E-13 0.00000E+00 0.00000E+00 0.00000E+00
 -1      3883 4.51570E-13 4.51570E-13 4.51570E-13 0.00000E+00 0.00000E+00 0.00000E+00
 -1      3884 4.51570E-13 4.51570E-13 4.51570E-13 0.00000E+00 0.00000E+00 0.00000E+00
 -1      3885 4.38289E-13 4.38289E-13 4.38289E-13 0.00000E+00 0.00000E+00 0.00000E+00
 -1      3886 4.42716E-13 4.42716E-13 4.42716E-13 0.00000E+00 0.00000E+00 0.00000E+00
 -1      3887 4.42716E-13 4.42716E-13 4.42716E-13 0.00000E+00 0.00000E+00 0.00000E+00
 -1      3888 4.58211E-13 4.58211E-13 4.58211E-13 0.00000E+00 0.00000E+00 0.00000E+00
 -1      3889 4.38289E-13 4.38289E-13 4.38289E-13 0.00000E+00 0.00000E+00 0.00000E+00
 -1      3890 4.38289E-13 4.38289E-13 4.38289E-13 0.00000E+00 0.00000E+00 0.00000E+00
 -1      3891 4.38289E-13 4.38289E-13 4.38289E-13 0.00000E+00 0.00000E+00 0.00000E+00
 -1      3892 4.38289E-13 4.38289E-13 4.38289E-13 0.00000E+00 0.00000E+00 0.00000E+00
 -1      3893 4.38289E-13 4.38289E-13 4.38289E-13 0.00000E+00 0.00000E+00 0.00000E+00
 -1      3894 4.38289E-13 4.38289E-13 4.38289E-13 0.00000E+00 0.00000E+00 0.00000E+00
 -1      3895 4.38289E-13 4.38289E-13 4.38289E-13 0.00000E+00 0.00000E+00 0.00000E+00
 -1      3896 4.38289E-13 4.38289E-13 4.38289E-13 0.00000E+00 0.00000E+00 0.00000E+00
 -1      3897 4.38289E-13 4.38289E-13 4.38289E-13 0.00000E+00 0.00000E+00 0.00000E+00
 -1      3898 4.42716E-13 4.42716E-13 4.42716E-13 0.00000E+00 0.00000E+00 0.00000E+00
 -1      3899 4.38289E-13 4.38289E-13 4.38289E-13 0.00000E+00 0.00000E+00 0.00000E+00
 -1      3900 4.38289E-13 4.38289E-13 4.38289E-13 0.00000E+00 0.00000E+00 0.00000E+00
 -1      3901 4.38289E-13 4.38289E-13 4.38289E-13 0.00000E+00 0.00000E+00 0.00000E+00
 -1      3902 4.40502E-13 4.40502E-13 4.40502E-13 0.00000E+00 0.00000E+00 0.00000E+00
 -1      3903 4.38289E-13 4.38289E-13 4.38289E-13 0.00000E+00 0.00000E+00 0.00000E+00
 -1      3904 4.38289E-13 4.38289E-13 4.38289E-13 0.00000E+00 0.00000E+00 0.00000E+00
 -1      3905 4.38289E-13 4.38289E-13 4.38289E-13 0.00000E+00 0.00000E+00 0.00000E+00
 -1      3906 4.38289E-13 4.38289E-13 4.38289E-13 0.00000E+00 0.00000E+00 0.00000E+00
 -1      3907 4.38289E-13 4.38289E-13 4.38289E-13 0.00000E+00 0.00000E+00 0.00000E+00
 -1      3908 4.38289E-13 4.38289E-13 4.38289E-13 0.00000E+00 0.00000E+00 0.00000E+00
 -1      3909 4.60425E-13 4.60425E-13 4.60425E-13 0.00000E+00 0.00000E+00 0.00000E+00
 -1      3910 4.58211E-13 4.58211E-13 4.58211E-13 0.00000E+00 0.00000E+00 0.00000E+00
 -1      3911 4.49357E-13 4.49357E-13 4.49357E-13 0.00000E+00 0.00000E+00 0.00000E+00
 -1      3912 4.49357E-13 4.49357E-13 4.49357E-13 0.00000E+00 0.00000E+00 0.00000E+00
 -1      3913 4.53784E-13 4.53784E-13 4.53784E-13 0.00000E+00 0.00000E+00 0.00000E+00
 -1      3914 4.42716E-13 4.42716E-13 4.42716E-13 0.00000E+00 0.00000E+00 0.00000E+00
 -1      3915 4.38289E-13 4.38289E-13 4.38289E-13 0.00000E+00 0.00000E+00 0.00000E+00
 -1      3916 4.51570E-13 4.51570E-13 4.51570E-13 0.00000E+00 0.00000E+00 0.00000E+00
 -1      3917 4.38289E-13 4.38289E-13 4.38289E-13 0.00000E+00 0.00000E+00 0.00000E+00
 -1      3918 4.38289E-13 4.38289E-13 4.38289E-13 0.00000E+00 0.00000E+00 0.00000E+00
 -1      3919 4.42716E-13 4.42716E-13 4.42716E-13 0.00000E+00 0.00000E+00 0.00000E+00
 -1      3920 4.47143E-13 4.47143E-13 4.47143E-13 0.00000E+00 0.00000E+00 0.00000E+00
 -1      3921 4.47143E-13 4.47143E-13 4.47143E-13 0.00000E+00 0.00000E+00 0.00000E+00
 -1      3922 4.47143E-13 4.47143E-13 4.47143E-13 0.00000E+00 0.00000E+00 0.00000E+00
 -1      3923 4.51570E-13 4.51570E-13 4.51570E-13 0.00000E+00 0.00000E+00 0.00000E+00
 -1      3924 4.64852E-13 4.64852E-13 4.64852E-13 0.00000E+00 0.00000E+00 0.00000E+00
 -1      3925 4.64852E-13 4.64852E-13 4.64852E-13 0.00000E+00 0.00000E+00 0.00000E+00
 -1      3926 4.64852E-13 4.64852E-13 4.64852E-13 0.00000E+00 0.00000E+00 0.00000E+00
 -1      3927 4.53784E-13 4.53784E-13 4.53784E-13 0.00000E+00 0.00000E+00 0.00000E+00
 -1      3928 4.60425E-13 4.60425E-13 4.60425E-13 0.00000E+00 0.00000E+00 0.00000E+00
 -1      3929 4.58211E-13 4.58211E-13 4.58211E-13 0.00000E+00 0.00000E+00 0.00000E+00
 -1      3930 4.38289E-13 4.38289E-13 4.38289E-13 0.00000E+00 0.00000E+00 0.00000E+00
 -1      3931 4.38289E-13 4.38289E-13 4.38289E-13 0.00000E+00 0.00000E+00 0.00000E+00
 -1      3932 4.38289E-13 4.38289E-13 4.38289E-13 0.00000E+00 0.00000E+00 0.00000E+00
 -1      3933 4.55997E-13 4.55997E-13 4.55997E-13 0.00000E+00 0.00000E+00 0.00000E+00
 -1      3934 4.51570E-13 4.51570E-13 4.51570E-13 0.00000E+00 0.00000E+00 0.00000E+00
 -1      3935 4.53784E-13 4.53784E-13 4.53784E-13 0.00000E+00 0.00000E+00 0.00000E+00
 -1      3936 4.47143E-13 4.47143E-13 4.47143E-13 0.00000E+00 0.00000E+00 0.00000E+00
 -1      3937 4.64852E-13 4.64852E-13 4.64852E-13 0.00000E+00 0.00000E+00 0.00000E+00
 -1      3938 4.55997E-13 4.55997E-13 4.55997E-13 0.00000E+00 0.00000E+00 0.00000E+00
 -1      3939 4.47143E-13 4.47143E-13 4.47143E-13 0.00000E+00 0.00000E+00 0.00000E+00
 -1      3940 4.38289E-13 4.38289E-13 4.38289E-13 0.00000E+00 0.00000E+00 0.00000E+00
 -1      3941 4.38289E-13 4.38289E-13 4.38289E-13 0.00000E+00 0.00000E+00 0.00000E+00
 -1      3942 4.38289E-13 4.38289E-13 4.38289E-13 0.00000E+00 0.00000E+00 0.00000E+00
 -1      3943 4.38289E-13 4.38289E-13 4.38289E-13 0.00000E+00 0.00000E+00 0.00000E+00
 -1      3944 4.42716E-13 4.42716E-13 4.42716E-13 0.00000E+00 0.00000E+00 0.00000E+00
 -1      3945 4.38289E-13 4.38289E-13 4.38289E-13 0.00000E+00 0.00000E+00 0.00000E+00
 -1      3946 4.55997E-13 4.55997E-13 4.55997E-13 0.00000E+00 0.00000E+00 0.00000E+00
 -1      3947 4.38289E-13 4.38289E-13 4.38289E-13 0.00000E+00 0.00000E+00 0.00000E+00
 -1      3948 4.38289E-13 4.38289E-13 4.38289E-13 0.00000E+00 0.00000E+00 0.00000E+00
 -1      3949 4.38289E-13 4.38289E-13 4.38289E-13 0.00000E+00 0.00000E+00 0.00000E+00
 -1      3950 4.38289E-13 4.38289E-13 4.38289E-13 0.00000E+00 0.00000E+00 0.00000E+00
 -1      3951 4.51570E-13 4.51570E-13 4.51570E-13 0.00000E+00 0.00000E+00 0.00000E+00
 -1      3952 4.47775E-13 4.47775E-13 4.47775E-13 0.00000E+00 0.00000E+00 0.00000E+00
 -1      3953 4.55997E-13 4.55997E-13 4.55997E-13 0.00000E+00 0.00000E+00 0.00000E+00
 -1      3954 4.64852E-13 4.64852E-13 4.64852E-13 0.00000E+00 0.00000E+00 0.00000E+00
 -1      3955 4.49357E-13 4.49357E-13 4.49357E-13 0.00000E+00 0.00000E+00 0.00000E+00
 -1      3956 4.42716E-13 4.42716E-13 4.42716E-13 0.00000E+00 0.00000E+00 0.00000E+00
 -1      3957 4.47143E-13 4.47143E-13 4.47143E-13 0.00000E+00 0.00000E+00 0.00000E+00
 -1      3958 4.38289E-13 4.38289E-13 4.38289E-13 0.00000E+00 0.00000E+00 0.00000E+00
 -1      3959 4.38289E-13 4.38289E-13 4.38289E-13 0.00000E+00 0.00000E+00 0.00000E+00
 -1      3960 4.38289E-13 4.38289E-13 4.38289E-13 0.00000E+00 0.00000E+00 0.00000E+00
 -1      3961 4.38289E-13 4.38289E-13 4.38289E-13 0.00000E+00 0.00000E+00 0.00000E+00
 -1      3962 4.38289E-13 4.38289E-13 4.38289E-13 0.00000E+00 0.00000E+00 0.00000E+00
 -1      3963 4.38289E-13 4.38289E-13 4.38289E-13 0.00000E+00 0.00000E+00 0.00000E+00
 -1      3964 4.64852E-13 4.64852E-13 4.64852E-13 0.00000E+00 0.00000E+00 0.00000E+00
 -1      3965 4.40186E-13 4.40186E-13 4.40186E-13 0.00000E+00 0.00000E+00 0.00000E+00
 -1      3966 4.49357E-13 4.49357E-13 4.49357E-13 0.00000E+00 0.00000E+00 0.00000E+00
 -1      3967 4.51570E-13 4.51570E-13 4.51570E-13 0.00000E+00 0.00000E+00 0.00000E+00
 -1      3968 4.46258E-13 4.46258E-13 4.46258E-13 0.00000E+00 0.00000E+00 0.00000E+00
 -1      3969 4.42716E-13 4.42716E-13 4.42716E-13 0.00000E+00 0.00000E+00 0.00000E+00
 -1      3970 4.38289E-13 4.38289E-13 4.38289E-13 0.00000E+00 0.00000E+00 0.00000E+00
 -1      3971 4.64852E-13 4.64852E-13 4.64852E-13 0.00000E+00 0.00000E+00 0.00000E+00
 -1      3972 4.64852E-13 4.64852E-13 4.64852E-13 0.00000E+00 0.00000E+00 0.00000E+00
 -1      3973 4.64852E-13 4.64852E-13 4.64852E-13 0.00000E+00 0.00000E+00 0.00000E+00
 -1      3974 4.64852E-13 4.64852E-13 4.64852E-13 0.00000E+00 0.00000E+00 0.00000E+00
 -1      3975 4.64852E-13 4.64852E-13 4.64852E-13 0.00000E+00 0.00000E+00 0.00000E+00
 -1      3976 4.64852E-13 4.64852E-13 4.64852E-13 0.00000E+00 0.00000E+00 0.00000E+00
 -1      3977 4.64852E-13 4.64852E-13 4.64852E-13 0.00000E+00 0.00000E+00 0.00000E+00
 -1      3978 4.64852E-13 4.64852E-13 4.64852E-13 0.00000E+00 0.00000E+00 0.00000E+00
 -1      3979 4.64852E-13 4.64852E-13 4.64852E-13 0.00000E+00 0.00000E+00 0.00000E+00
 -1      3980 4.64852E-13 4.64852E-13 4.64852E-13 0.00000E+00 0.00000E+00 0.00000E+00
 -1      3981 4.64852E-13 4.64852E-13 4.64852E-13 0.00000E+00 0.00000E+00 0.00000E+00
 -1      3982 4.62638E-13 4.62638E-13 4.62638E-13 0.00000E+00 0.00000E+00 0.00000E+00
 -1      3983 4.64852E-13 4.64852E-13 4.64852E-13 0.00000E+00 0.00000E+00 0.00000E+00
 -1      3984 4.64852E-13 4.64852E-13 4.64852E-13 0.00000E+00 0.00000E+00 0.00000E+00
 -1      3985 4.62638E-13 4.62638E-13 4.62638E-13 0.00000E+00 0.00000E+00 0.00000E+00
 -1      3986 4.64852E-13 4.64852E-13 4.64852E-13 0.00000E+00 0.00000E+00 0.00000E+00
 -1      3987 4.64852E-13 4.64852E-13 4.64852E-13 0.00000E+00 0.00000E+00 0.00000E+00
 -1      3988 4.64852E-13 4.64852E-13 4.64852E-13 0.00000E+00 0.00000E+00 0.00000E+00
 -1      3989 4.64852E-13 4.64852E-13 4.64852E-13 0.00000E+00 0.00000E+00 0.00000E+00
 -1      3990 4.60425E-13 4.60425E-13 4.60425E-13 0.00000E+00 0.00000E+00 0.00000E+00
 -1      3991 4.64852E-13 4.64852E-13 4.64852E-13 0.00000E+00 0.00000E+00 0.00000E+00
 -1      3992 4.62638E-13 4.62638E-13 4.62638E-13 0.00000E+00 0.00000E+00 0.00000E+00
 -1      3993 4.64852E-13 4.64852E-13 4.64852E-13 0.00000E+00 0.00000E+00 0.00000E+00
 -1      3994 4.64852E-13 4.64852E-13 4.64852E-13 0.00000E+00 0.00000E+00 0.00000E+00
 -1      3995 4.64852E-13 4.64852E-13 4.64852E-13 0.00000E+00 0.00000E+00 0.00000E+00
 -1      3996 4.64852E-13 4.64852E-13 4.64852E-13 0.00000E+00 0.00000E+00 0.00000E+00
 -1      3997 4.64852E-13 4.64852E-13 4.64852E-13 0.00000E+00 0.00000E+00 0.00000E+00
 -1      3998 4.64852E-13 4.64852E-13 4.64852E-13 0.00000E+00 0.00000E+00 0.00000E+00
 -1      3999 4.64852E-13 4.64852E-13 4.64852E-13 0.00000E+00 0.00000E+00 0.00000E+00
 -1      4000 4.64852E-13 4.64852E-13 4.64852E-13 0.00000E+00 0.00000E+00 0.00000E+00
 -1      4001 4.64852E-13 4.64852E-13 4.64852E-13 0.00000E+00 0.00000E+00 0.00000E+00
 -1      4002 4.64852E-13 4.64852E-13 4.64852E-13 0.00000E+00 0.00000E+00 0.00000E+00
 -1      4003 4.64852E-13 4.64852E-13 4.64852E-13 0.00000E+00 0.00000E+00 0.00000E+00
 -1      4004 4.64852E-13 4.64852E-13 4.64852E-13 0.00000E+00 0.00000E+00 0.00000E+00
 -1      4005 4.62638E-13 4.62638E-13 4.62638E-13 0.00000E+00 0.00000E+00 0.00000E+00
 -1      4006 4.62638E-13 4.62638E-13 4.62638E-13 0.00000E+00 0.00000E+00 0.00000E+00
 -1      4007 4.58211E-13 4.58211E-13 4.58211E-13 0.00000E+00 0.00000E+00 0.00000E+00
 -1      4008 4.62638E-13 4.62638E-13 4.62638E-13 0.00000E+00 0.00000E+00 0.00000E+00
 -1      4009 4.55997E-13 4.55997E-13 4.55997E-13 0.00000E+00 0.00000E+00 0.00000E+00
 -1      4010 4.62638E-13 4.62638E-13 4.62638E-13 0.00000E+00 0.00000E+00 0.00000E+00
 -1      4011 4.60425E-13 4.60425E-13 4.60425E-13 0.00000E+00 0.00000E+00 0.00000E+00
 -1      4012 4.64852E-13 4.64852E-13 4.64852E-13 0.00000E+00 0.00000E+00 0.00000E+00
 -1      4013 4.62638E-13 4.62638E-13 4.62638E-13 0.00000E+00 0.00000E+00 0.00000E+00
 -1      4014 4.58211E-13 4.58211E-13 4.58211E-13 0.00000E+00 0.00000E+00 0.00000E+00
 -1      4015 4.53784E-13 4.53784E-13 4.53784E-13 0.00000E+00 0.00000E+00 0.00000E+00
 -1      4016 4.42716E-13 4.42716E-13 4.42716E-13 0.00000E+00 0.00000E+00 0.00000E+00
 -1      4017 4.51570E-13 4.51570E-13 4.51570E-13 0.00000E+00 0.00000E+00 0.00000E+00
 -1      4018 4.49357E-13 4.49357E-13 4.49357E-13 0.00000E+00 0.00000E+00 0.00000E+00
 -1      4019 4.62638E-13 4.62638E-13 4.62638E-13 0.00000E+00 0.00000E+00 0.00000E+00
 -1      4020 4.64852E-13 4.64852E-13 4.64852E-13 0.00000E+00 0.00000E+00 0.00000E+00
 -1      4021 4.64852E-13 4.64852E-13 4.64852E-13 0.00000E+00 0.00000E+00 0.00000E+00
 -1      4022 4.64852E-13 4.64852E-13 4.64852E-13 0.00000E+00 0.00000E+00 0.00000E+00
 -1      4023 4.64852E-13 4.64852E-13 4.64852E-13 0.00000E+00 0.00000E+00 0.00000E+00
 -1      4024 4.64852E-13 4.64852E-13 4.64852E-13 0.00000E+00 0.00000E+00 0.00000E+00
 -1      4025 4.64852E-13 4.64852E-13 4.64852E-13 0.00000E+00 0.00000E+00 0.00000E+00
 -1      4026 4.64852E-13 4.64852E-13 4.64852E-13 0.00000E+00 0.00000E+00 0.00000E+00
 -1      4027 4.64852E-13 4.64852E-13 4.64852E-13 0.00000E+00 0.00000E+00 0.00000E+00
 -1      4028 4.64852E-13 4.64852E-13 4.64852E-13 0.00000E+00 0.00000E+00 0.00000E+00
 -1      4029 4.64852E-13 4.64852E-13 4.64852E-13 0.00000E+00 0.00000E+00 0.00000E+00
 -1      4030 4.64852E-13 4.64852E-13 4.64852E-13 0.00000E+00 0.00000E+00 0.00000E+00
 -1      4031 4.55997E-13 4.55997E-13 4.55997E-13 0.00000E+00 0.00000E+00 0.00000E+00
 -1      4032 4.62638E-13 4.62638E-13 4.62638E-13 0.00000E+00 0.00000E+00 0.00000E+00
 -1      4033 4.51570E-13 4.51570E-13 4.51570E-13 0.00000E+00 0.00000E+00 0.00000E+00
 -1      4034 4.64852E-13 4.64852E-13 4.64852E-13 0.00000E+00 0.00000E+00 0.00000E+00
 -1      4035 4.64852E-13 4.64852E-13 4.64852E-13 0.00000E+00 0.00000E+00 0.00000E+00
 -1      4036 4.55997E-13 4.55997E-13 4.55997E-13 0.00000E+00 0.00000E+00 0.00000E+00
 -1      4037 4.64852E-13 4.64852E-13 4.64852E-13 0.00000E+00 0.00000E+00 0.00000E+00
 -1      4038 4.60425E-13 4.60425E-13 4.60425E-13 0.00000E+00 0.00000E+00 0.00000E+00
 -1      4039 4.64852E-13 4.64852E-13 4.64852E-13 0.00000E+00 0.00000E+00 0.00000E+00
 -1      4040 4.47143E-13 4.47143E-13 4.47143E-13 0.00000E+00 0.00000E+00 0.00000E+00
 -1      4041 4.60425E-13 4.60425E-13 4.60425E-13 0.00000E+00 0.00000E+00 0.00000E+00
 -1      4042 4.64852E-13 4.64852E-13 4.64852E-13 0.00000E+00 0.00000E+00 0.00000E+00
 -1      4043 4.64852E-13 4.64852E-13 4.64852E-13 0.00000E+00 0.00000E+00 0.00000E+00
 -1      4044 4.64852E-13 4.64852E-13 4.64852E-13 0.00000E+00 0.00000E+00 0.00000E+00
 -1      4045 4.64852E-13 4.64852E-13 4.64852E-13 0.00000E+00 0.00000E+00 0.00000E+00
 -1      4046 4.64852E-13 4.64852E-13 4.64852E-13 0.00000E+00 0.00000E+00 0.00000E+00
 -1      4047 4.62638E-13 4.62638E-13 4.62638E-13 0.00000E+00 0.00000E+00 0.00000E+00
 -1      4048 4.64852E-13 4.64852E-13 4.64852E-13 0.00000E+00 0.00000E+00 0.00000E+00
 -1      4049 4.60425E-13 4.60425E-13 4.60425E-13 0.00000E+00 0.00000E+00 0.00000E+00
 -1      4050 4.64852E-13 4.64852E-13 4.64852E-13 0.00000E+00 0.00000E+00 0.00000E+00
 -1      4051 4.64852E-13 4.64852E-13 4.64852E-13 0.00000E+00 0.00000E+00 0.00000E+00
 -1      4052 4.64852E-13 4.64852E-13 4.64852E-13 0.00000E+00 0.00000E+00 0.00000E+00
 -1      4053 4.64852E-13 4.64852E-13 4.64852E-13 0.00000E+00 0.00000E+00 0.00000E+00
 -1      4054 4.64852E-13 4.64852E-13 4.64852E-13 0.00000E+00 0.00000E+00 0.00000E+00
 -1      4055 4.62638E-13 4.62638E-13 4.62638E-13 0.00000E+00 0.00000E+00 0.00000E+00
 -1      4056 4.64852E-13 4.64852E-13 4.64852E-13 0.00000E+00 0.00000E+00 0.00000E+00
 -1      4057 4.60425E-13 4.60425E-13 4.60425E-13 0.00000E+00 0.00000E+00 0.00000E+00
 -1      4058 4.64852E-13 4.64852E-13 4.64852E-13 0.00000E+00 0.00000E+00 0.00000E+00
 -1      4059 4.64852E-13 4.64852E-13 4.64852E-13 0.00000E+00 0.00000E+00 0.00000E+00
 -1      4060 4.55997E-13 4.55997E-13 4.55997E-13 0.00000E+00 0.00000E+00 0.00000E+00
 -1      4061 4.58211E-13 4.58211E-13 4.58211E-13 0.00000E+00 0.00000E+00 0.00000E+00
 -1      4062 4.42716E-13 4.42716E-13 4.42716E-13 0.00000E+00 0.00000E+00 0.00000E+00
 -1      4063 4.47143E-13 4.47143E-13 4.47143E-13 0.00000E+00 0.00000E+00 0.00000E+00
 -1      4064 4.40502E-13 4.40502E-13 4.40502E-13 0.00000E+00 0.00000E+00 0.00000E+00
 -1      4065 4.51570E-13 4.51570E-13 4.51570E-13 0.00000E+00 0.00000E+00 0.00000E+00
 -1      4066 4.58211E-13 4.58211E-13 4.58211E-13 0.00000E+00 0.00000E+00 0.00000E+00
 -1      4067 4.47143E-13 4.47143E-13 4.47143E-13 0.00000E+00 0.00000E+00 0.00000E+00
 -1      4068 4.64852E-13 4.64852E-13 4.64852E-13 0.00000E+00 0.00000E+00 0.00000E+00
 -1      4069 4.55997E-13 4.55997E-13 4.55997E-13 0.00000E+00 0.00000E+00 0.00000E+00
 -1      4070 4.60425E-13 4.60425E-13 4.60425E-13 0.00000E+00 0.00000E+00 0.00000E+00
 -1      4071 4.62638E-13 4.62638E-13 4.62638E-13 0.00000E+00 0.00000E+00 0.00000E+00
 -1      4072 4.53784E-13 4.53784E-13 4.53784E-13 0.00000E+00 0.00000E+00 0.00000E+00
 -1      4073 4.55997E-13 4.55997E-13 4.55997E-13 0.00000E+00 0.00000E+00 0.00000E+00
 -1      4074 4.47143E-13 4.47143E-13 4.47143E-13 0.00000E+00 0.00000E+00 0.00000E+00
 -1      4075 4.60425E-13 4.60425E-13 4.60425E-13 0.00000E+00 0.00000E+00 0.00000E+00
 -1      4076 4.51570E-13 4.51570E-13 4.51570E-13 0.00000E+00 0.00000E+00 0.00000E+00
 -1      4077 4.58211E-13 4.58211E-13 4.58211E-13 0.00000E+00 0.00000E+00 0.00000E+00
 -1      4078 4.47143E-13 4.47143E-13 4.47143E-13 0.00000E+00 0.00000E+00 0.00000E+00
 -1      4079 4.55997E-13 4.55997E-13 4.55997E-13 0.00000E+00 0.00000E+00 0.00000E+00
 -1      4080 4.51570E-13 4.51570E-13 4.51570E-13 0.00000E+00 0.00000E+00 0.00000E+00
 -1      4081 4.58211E-13 4.58211E-13 4.58211E-13 0.00000E+00 0.00000E+00 0.00000E+00
 -1      4082 4.51570E-13 4.51570E-13 4.51570E-13 0.00000E+00 0.00000E+00 0.00000E+00
 -1      4083 4.47143E-13 4.47143E-13 4.47143E-13 0.00000E+00 0.00000E+00 0.00000E+00
 -1      4084 4.40502E-13 4.40502E-13 4.40502E-13 0.00000E+00 0.00000E+00 0.00000E+00
 -1      4085 4.42716E-13 4.42716E-13 4.42716E-13 0.00000E+00 0.00000E+00 0.00000E+00
 -1      4086 4.38289E-13 4.38289E-13 4.38289E-13 0.00000E+00 0.00000E+00 0.00000E+00
 -1      4087 4.51570E-13 4.51570E-13 4.51570E-13 0.00000E+00 0.00000E+00 0.00000E+00
 -1      4088 4.51570E-13 4.51570E-13 4.51570E-13 0.00000E+00 0.00000E+00 0.00000E+00
 -1      4089 4.62638E-13 4.62638E-13 4.62638E-13 0.00000E+00 0.00000E+00 0.00000E+00
 -1      4090 4.60425E-13 4.60425E-13 4.60425E-13 0.00000E+00 0.00000E+00 0.00000E+00
 -1      4091 4.49357E-13 4.49357E-13 4.49357E-13 0.00000E+00 0.00000E+00 0.00000E+00
 -1      4092 4.42716E-13 4.42716E-13 4.42716E-13 0.00000E+00 0.00000E+00 0.00000E+00
 -1      4093 4.49357E-13 4.49357E-13 4.49357E-13 0.00000E+00 0.00000E+00 0.00000E+00
 -1      4094 4.47143E-13 4.47143E-13 4.47143E-13 0.00000E+00 0.00000E+00 0.00000E+00
 -1      4095 4.58211E-13 4.58211E-13 4.58211E-13 0.00000E+00 0.00000E+00 0.00000E+00
 -1      4096 4.38289E-13 4.38289E-13 4.38289E-13 0.00000E+00 0.00000E+00 0.00000E+00
 -1      4097 4.42716E-13 4.42716E-13 4.42716E-13 0.00000E+00 0.00000E+00 0.00000E+00
 -1      4098 4.60425E-13 4.60425E-13 4.60425E-13 0.00000E+00 0.00000E+00 0.00000E+00
 -1      4099 4.47143E-13 4.47143E-13 4.47143E-13 0.00000E+00 0.00000E+00 0.00000E+00
 -1      4100 4.62638E-13 4.62638E-13 4.62638E-13 0.00000E+00 0.00000E+00 0.00000E+00
 -1      4101 4.51570E-13 4.51570E-13 4.51570E-13 0.00000E+00 0.00000E+00 0.00000E+00
 -1      4102 4.64852E-13 4.64852E-13 4.64852E-13 0.00000E+00 0.00000E+00 0.00000E+00
 -1      4103 4.60425E-13 4.60425E-13 4.60425E-13 0.00000E+00 0.00000E+00 0.00000E+00
 -1      4104 4.47143E-13 4.47143E-13 4.47143E-13 0.00000E+00 0.00000E+00 0.00000E+00
 -1      4105 4.49357E-13 4.49357E-13 4.49357E-13 0.00000E+00 0.00000E+00 0.00000E+00
 -1      4106 4.60425E-13 4.60425E-13 4.60425E-13 0.00000E+00 0.00000E+00 0.00000E+00
 -1      4107 4.47143E-13 4.47143E-13 4.47143E-13 0.00000E+00 0.00000E+00 0.00000E+00
 -1      4108 4.47143E-13 4.47143E-13 4.47143E-13 0.00000E+00 0.00000E+00 0.00000E+00
 -1      4109 4.42716E-13 4.42716E-13 4.42716E-13 0.00000E+00 0.00000E+00 0.00000E+00
 -1      4110 4.38289E-13 4.38289E-13 4.38289E-13 0.00000E+00 0.00000E+00 0.00000E+00
 -1      4111 4.38289E-13 4.38289E-13 4.38289E-13 0.00000E+00 0.00000E+00 0.00000E+00
 -1      4112 4.58211E-13 4.58211E-13 4.58211E-13 0.00000E+00 0.00000E+00 0.00000E+00
 -1      4113 4.42716E-13 4.42716E-13 4.42716E-13 0.00000E+00 0.00000E+00 0.00000E+00
 -1      4114 4.38289E-13 4.38289E-13 4.38289E-13 0.00000E+00 0.00000E+00 0.00000E+00
 -1      4115 4.38289E-13 4.38289E-13 4.38289E-13 0.00000E+00 0.00000E+00 0.00000E+00
 -1      4116 4.38289E-13 4.38289E-13 4.38289E-13 0.00000E+00 0.00000E+00 0.00000E+00
 -1      4117 4.51570E-13 4.51570E-13 4.51570E-13 0.00000E+00 0.00000E+00 0.00000E+00
 -1      4118 4.42716E-13 4.42716E-13 4.42716E-13 0.00000E+00 0.00000E+00 0.00000E+00
 -1      4119 4.62954E-13 4.62954E-13 4.62954E-13 0.00000E+00 0.00000E+00 0.00000E+00
 -1      4120 4.49357E-13 4.49357E-13 4.49357E-13 0.00000E+00 0.00000E+00 0.00000E+00
 -1      4121 4.47143E-13 4.47143E-13 4.47143E-13 0.00000E+00 0.00000E+00 0.00000E+00
 -1      4122 4.42716E-13 4.42716E-13 4.42716E-13 0.00000E+00 0.00000E+00 0.00000E+00
 -1      4123 4.42716E-13 4.42716E-13 4.42716E-13 0.00000E+00 0.00000E+00 0.00000E+00
 -1      4124 4.38289E-13 4.38289E-13 4.38289E-13 0.00000E+00 0.00000E+00 0.00000E+00
 -1      4125 4.38289E-13 4.38289E-13 4.38289E-13 0.00000E+00 0.00000E+00 0.00000E+00
 -1      4126 4.47143E-13 4.47143E-13 4.47143E-13 0.00000E+00 0.00000E+00 0.00000E+00
 -1      4127 4.64852E-13 4.64852E-13 4.64852E-13 0.00000E+00 0.00000E+00 0.00000E+00
 -1      4128 4.55997E-13 4.55997E-13 4.55997E-13 0.00000E+00 0.00000E+00 0.00000E+00
 -1      4129 4.38289E-13 4.38289E-13 4.38289E-13 0.00000E+00 0.00000E+00 0.00000E+00
 -1      4130 4.38289E-13 4.38289E-13 4.38289E-13 0.00000E+00 0.00000E+00 0.00000E+00
 -1      4131 4.64852E-13 4.64852E-13 4.64852E-13 0.00000E+00 0.00000E+00 0.00000E+00
 -1      4132 4.47143E-13 4.47143E-13 4.47143E-13 0.00000E+00 0.00000E+00 0.00000E+00
 -1      4133 4.60425E-13 4.60425E-13 4.60425E-13 0.00000E+00 0.00000E+00 0.00000E+00
 -1      4134 4.47143E-13 4.47143E-13 4.47143E-13 0.00000E+00 0.00000E+00 0.00000E+00
 -1      4135 4.62638E-13 4.62638E-13 4.62638E-13 0.00000E+00 0.00000E+00 0.00000E+00
 -1      4136 4.62638E-13 4.62638E-13 4.62638E-13 0.00000E+00 0.00000E+00 0.00000E+00
 -1      4137 4.40502E-13 4.40502E-13 4.40502E-13 0.00000E+00 0.00000E+00 0.00000E+00
 -1      4138 4.38289E-13 4.38289E-13 4.38289E-13 0.00000E+00 0.00000E+00 0.00000E+00
 -1      4139 4.51570E-13 4.51570E-13 4.51570E-13 0.00000E+00 0.00000E+00 0.00000E+00
 -1      4140 4.57262E-13 4.57262E-13 4.57262E-13 0.00000E+00 0.00000E+00 0.00000E+00
 -1      4141 4.40502E-13 4.40502E-13 4.40502E-13 0.00000E+00 0.00000E+00 0.00000E+00
 -1      4142 4.42716E-13 4.42716E-13 4.42716E-13 0.00000E+00 0.00000E+00 0.00000E+00
 -1      4143 4.64852E-13 4.64852E-13 4.64852E-13 0.00000E+00 0.00000E+00 0.00000E+00
 -1      4144 4.64852E-13 4.64852E-13 4.64852E-13 0.00000E+00 0.00000E+00 0.00000E+00
 -1      4145 4.44929E-13 4.44929E-13 4.44929E-13 0.00000E+00 0.00000E+00 0.00000E+00
 -1      4146 4.40502E-13 4.40502E-13 4.40502E-13 0.00000E+00 0.00000E+00 0.00000E+00
 -1      4147 4.53784E-13 4.53784E-13 4.53784E-13 0.00000E+00 0.00000E+00 0.00000E+00
 -1      4148 4.60425E-13 4.60425E-13 4.60425E-13 0.00000E+00 0.00000E+00 0.00000E+00
 -1      4149 4.60425E-13 4.60425E-13 4.60425E-13 0.00000E+00 0.00000E+00 0.00000E+00
 -1      4150 4.42716E-13 4.42716E-13 4.42716E-13 0.00000E+00 0.00000E+00 0.00000E+00
 -1      4151 4.47143E-13 4.47143E-13 4.47143E-13 0.00000E+00 0.00000E+00 0.00000E+00
 -1      4152 4.42716E-13 4.42716E-13 4.42716E-13 0.00000E+00 0.00000E+00 0.00000E+00
 -1      4153 4.44929E-13 4.44929E-13 4.44929E-13 0.00000E+00 0.00000E+00 0.00000E+00
 -1      4154 4.58211E-13 4.58211E-13 4.58211E-13 0.00000E+00 0.00000E+00 0.00000E+00
 -1      4155 4.55997E-13 4.55997E-13 4.55997E-13 0.00000E+00 0.00000E+00 0.00000E+00
 -1      4156 4.42083E-13 4.42083E-13 4.42083E-13 0.00000E+00 0.00000E+00 0.00000E+00
 -1      4157 4.55997E-13 4.55997E-13 4.55997E-13 0.00000E+00 0.00000E+00 0.00000E+00
 -1      4158 4.38289E-13 4.38289E-13 4.38289E-13 0.00000E+00 0.00000E+00 0.00000E+00
 -1      4159 4.38289E-13 4.38289E-13 4.38289E-13 0.00000E+00 0.00000E+00 0.00000E+00
 -1      4160 4.38289E-13 4.38289E-13 4.38289E-13 0.00000E+00 0.00000E+00 0.00000E+00
 -1      4161 4.38289E-13 4.38289E-13 4.38289E-13 0.00000E+00 0.00000E+00 0.00000E+00
 -1      4162 4.38289E-13 4.38289E-13 4.38289E-13 0.00000E+00 0.00000E+00 0.00000E+00
 -1      4163 4.40502E-13 4.40502E-13 4.40502E-13 0.00000E+00 0.00000E+00 0.00000E+00
 -1      4164 4.53784E-13 4.53784E-13 4.53784E-13 0.00000E+00 0.00000E+00 0.00000E+00
 -1      4165 4.42716E-13 4.42716E-13 4.42716E-13 0.00000E+00 0.00000E+00 0.00000E+00
 -1      4166 4.42716E-13 4.42716E-13 4.42716E-13 0.00000E+00 0.00000E+00 0.00000E+00
 -1      4167 4.64852E-13 4.64852E-13 4.64852E-13 0.00000E+00 0.00000E+00 0.00000E+00
 -1      4168 4.42716E-13 4.42716E-13 4.42716E-13 0.00000E+00 0.00000E+00 0.00000E+00
 -1      4169 4.44929E-13 4.44929E-13 4.44929E-13 0.00000E+00 0.00000E+00 0.00000E+00
 -1      4170 4.55997E-13 4.55997E-13 4.55997E-13 0.00000E+00 0.00000E+00 0.00000E+00
 -1      4171 4.40502E-13 4.40502E-13 4.40502E-13 0.00000E+00 0.00000E+00 0.00000E+00
 -1      4172 4.64852E-13 4.64852E-13 4.64852E-13 0.00000E+00 0.00000E+00 0.00000E+00
 -1      4173 4.64852E-13 4.64852E-13 4.64852E-13 0.00000E+00 0.00000E+00 0.00000E+00
 -1      4174 4.38289E-13 4.38289E-13 4.38289E-13 0.00000E+00 0.00000E+00 0.00000E+00
 -1      4175 4.38289E-13 4.38289E-13 4.38289E-13 0.00000E+00 0.00000E+00 0.00000E+00
 -1      4176 4.42716E-13 4.42716E-13 4.42716E-13 0.00000E+00 0.00000E+00 0.00000E+00
 -1      4177 4.49357E-13 4.49357E-13 4.49357E-13 0.00000E+00 0.00000E+00 0.00000E+00
 -1      4178 4.62638E-13 4.62638E-13 4.62638E-13 0.00000E+00 0.00000E+00 0.00000E+00
 -1      4179 4.53784E-13 4.53784E-13 4.53784E-13 0.00000E+00 0.00000E+00 0.00000E+00
 -1      4180 4.47143E-13 4.47143E-13 4.47143E-13 0.00000E+00 0.00000E+00 0.00000E+00
 -1      4181 4.60425E-13 4.60425E-13 4.60425E-13 0.00000E+00 0.00000E+00 0.00000E+00
 -1      4182 4.62638E-13 4.62638E-13 4.62638E-13 0.00000E+00 0.00000E+00 0.00000E+00
 -1      4183 4.60425E-13 4.60425E-13 4.60425E-13 0.00000E+00 0.00000E+00 0.00000E+00
 -1      4184 4.62638E-13 4.62638E-13 4.62638E-13 0.00000E+00 0.00000E+00 0.00000E+00
 -1      4185 4.51570E-13 4.51570E-13 4.51570E-13 0.00000E+00 0.00000E+00 0.00000E+00
 -1      4186 4.44929E-13 4.44929E-13 4.44929E-13 0.00000E+00 0.00000E+00 0.00000E+00
 -1      4187 4.58211E-13 4.58211E-13 4.58211E-13 0.00000E+00 0.00000E+00 0.00000E+00
 -1      4188 4.62638E-13 4.62638E-13 4.62638E-13 0.00000E+00 0.00000E+00 0.00000E+00
 -1      4189 4.64852E-13 4.64852E-13 4.64852E-13 0.00000E+00 0.00000E+00 0.00000E+00
 -1      4190 4.47143E-13 4.47143E-13 4.47143E-13 0.00000E+00 0.00000E+00 0.00000E+00
 -1      4191 4.51570E-13 4.51570E-13 4.51570E-13 0.00000E+00 0.00000E+00 0.00000E+00
 -1      4192 4.47143E-13 4.47143E-13 4.47143E-13 0.00000E+00 0.00000E+00 0.00000E+00
 -1      4193 4.64852E-13 4.64852E-13 4.64852E-13 0.00000E+00 0.00000E+00 0.00000E+00
 -1      4194 4.64852E-13 4.64852E-13 4.64852E-13 0.00000E+00 0.00000E+00 0.00000E+00
 -1      4195 4.64852E-13 4.64852E-13 4.64852E-13 0.00000E+00 0.00000E+00 0.00000E+00
 -1      4196 4.64852E-13 4.64852E-13 4.64852E-13 0.00000E+00 0.00000E+00 0.00000E+00
 -1      4197 4.64852E-13 4.64852E-13 4.64852E-13 0.00000E+00 0.00000E+00 0.00000E+00
 -1      4198 4.64852E-13 4.64852E-13 4.64852E-13 0.00000E+00 0.00000E+00 0.00000E+00
 -1      4199 4.64852E-13 4.64852E-13 4.64852E-13 0.00000E+00 0.00000E+00 0.00000E+00
 -1      4200 4.62638E-13 4.62638E-13 4.62638E-13 0.00000E+00 0.00000E+00 0.00000E+00
 -1      4201 4.64852E-13 4.64852E-13 4.64852E-13 0.00000E+00 0.00000E+00 0.00000E+00
 -1      4202 4.64852E-13 4.64852E-13 4.64852E-13 0.00000E+00 0.00000E+00 0.00000E+00
 -1      4203 4.64852E-13 4.64852E-13 4.64852E-13 0.00000E+00 0.00000E+00 0.00000E+00
 -1      4204 4.64852E-13 4.64852E-13 4.64852E-13 0.00000E+00 0.00000E+00 0.00000E+00
 -1      4205 4.64852E-13 4.64852E-13 4.64852E-13 0.00000E+00 0.00000E+00 0.00000E+00
 -1      4206 4.64852E-13 4.64852E-13 4.64852E-13 0.00000E+00 0.00000E+00 0.00000E+00
 -1      4207 4.64852E-13 4.64852E-13 4.64852E-13 0.00000E+00 0.00000E+00 0.00000E+00
 -1      4208 4.64852E-13 4.64852E-13 4.64852E-13 0.00000E+00 0.00000E+00 0.00000E+00
 -1      4209 4.60425E-13 4.60425E-13 4.60425E-13 0.00000E+00 0.00000E+00 0.00000E+00
 -1      4210 4.64852E-13 4.64852E-13 4.64852E-13 0.00000E+00 0.00000E+00 0.00000E+00
 -1      4211 4.62638E-13 4.62638E-13 4.62638E-13 0.00000E+00 0.00000E+00 0.00000E+00
 -1      4212 4.60425E-13 4.60425E-13 4.60425E-13 0.00000E+00 0.00000E+00 0.00000E+00
 -1      4213 4.64852E-13 4.64852E-13 4.64852E-13 0.00000E+00 0.00000E+00 0.00000E+00
 -1      4214 4.64852E-13 4.64852E-13 4.64852E-13 0.00000E+00 0.00000E+00 0.00000E+00
 -1      4215 4.64852E-13 4.64852E-13 4.64852E-13 0.00000E+00 0.00000E+00 0.00000E+00
 -1      4216 4.64852E-13 4.64852E-13 4.64852E-13 0.00000E+00 0.00000E+00 0.00000E+00
 -1      4217 4.64852E-13 4.64852E-13 4.64852E-13 0.00000E+00 0.00000E+00 0.00000E+00
 -1      4218 4.64852E-13 4.64852E-13 4.64852E-13 0.00000E+00 0.00000E+00 0.00000E+00
 -1      4219 4.62638E-13 4.62638E-13 4.62638E-13 0.00000E+00 0.00000E+00 0.00000E+00
 -1      4220 4.55997E-13 4.55997E-13 4.55997E-13 0.00000E+00 0.00000E+00 0.00000E+00
 -1      4221 4.64852E-13 4.64852E-13 4.64852E-13 0.00000E+00 0.00000E+00 0.00000E+00
 -1      4222 4.42716E-13 4.42716E-13 4.42716E-13 0.00000E+00 0.00000E+00 0.00000E+00
 -1      4223 4.38289E-13 4.38289E-13 4.38289E-13 0.00000E+00 0.00000E+00 0.00000E+00
 -1      4224 4.38289E-13 4.38289E-13 4.38289E-13 0.00000E+00 0.00000E+00 0.00000E+00
 -1      4225 4.38289E-13 4.38289E-13 4.38289E-13 0.00000E+00 0.00000E+00 0.00000E+00
 -1      4226 4.42716E-13 4.42716E-13 4.42716E-13 0.00000E+00 0.00000E+00 0.00000E+00
 -1      4227 4.38289E-13 4.38289E-13 4.38289E-13 0.00000E+00 0.00000E+00 0.00000E+00
 -1      4228 4.64852E-13 4.64852E-13 4.64852E-13 0.00000E+00 0.00000E+00 0.00000E+00
 -1      4229 4.64852E-13 4.64852E-13 4.64852E-13 0.00000E+00 0.00000E+00 0.00000E+00
 -1      4230 4.58211E-13 4.58211E-13 4.58211E-13 0.00000E+00 0.00000E+00 0.00000E+00
 -1      4231 4.40502E-13 4.40502E-13 4.40502E-13 0.00000E+00 0.00000E+00 0.00000E+00
 -1      4232 4.49357E-13 4.49357E-13 4.49357E-13 0.00000E+00 0.00000E+00 0.00000E+00
 -1      4233 4.38289E-13 4.38289E-13 4.38289E-13 0.00000E+00 0.00000E+00 0.00000E+00
 -1      4234 4.47143E-13 4.47143E-13 4.47143E-13 0.00000E+00 0.00000E+00 0.00000E+00
 -1      4235 4.42716E-13 4.42716E-13 4.42716E-13 0.00000E+00 0.00000E+00 0.00000E+00
 -1      4236 4.55997E-13 4.55997E-13 4.55997E-13 0.00000E+00 0.00000E+00 0.00000E+00
 -1      4237 4.60425E-13 4.60425E-13 4.60425E-13 0.00000E+00 0.00000E+00 0.00000E+00
 -1      4238 4.64852E-13 4.64852E-13 4.64852E-13 0.00000E+00 0.00000E+00 0.00000E+00
 -1      4239 4.64852E-13 4.64852E-13 4.64852E-13 0.00000E+00 0.00000E+00 0.00000E+00
 -1      4240 4.64852E-13 4.64852E-13 4.64852E-13 0.00000E+00 0.00000E+00 0.00000E+00
 -1      4241 4.64852E-13 4.64852E-13 4.64852E-13 0.00000E+00 0.00000E+00 0.00000E+00
 -1      4242 4.64852E-13 4.64852E-13 4.64852E-13 0.00000E+00 0.00000E+00 0.00000E+00
 -1      4243 4.62638E-13 4.62638E-13 4.62638E-13 0.00000E+00 0.00000E+00 0.00000E+00
 -1      4244 4.64852E-13 4.64852E-13 4.64852E-13 0.00000E+00 0.00000E+00 0.00000E+00
 -1      4245 4.53468E-13 4.53468E-13 4.53468E-13 0.00000E+00 0.00000E+00 0.00000E+00
 -1      4246 4.64852E-13 4.64852E-13 4.64852E-13 0.00000E+00 0.00000E+00 0.00000E+00
 -1      4247 4.64852E-13 4.64852E-13 4.64852E-13 0.00000E+00 0.00000E+00 0.00000E+00
 -1      4248 4.64852E-13 4.64852E-13 4.64852E-13 0.00000E+00 0.00000E+00 0.00000E+00
 -1      4249 4.64852E-13 4.64852E-13 4.64852E-13 0.00000E+00 0.00000E+00 0.00000E+00
 -1      4250 4.64852E-13 4.64852E-13 4.64852E-13 0.00000E+00 0.00000E+00 0.00000E+00
 -1      4251 4.42716E-13 4.42716E-13 4.42716E-13 0.00000E+00 0.00000E+00 0.00000E+00
 -1      4252 4.64852E-13 4.64852E-13 4.64852E-13 0.00000E+00 0.00000E+00 0.00000E+00
 -1      4253 4.64852E-13 4.64852E-13 4.64852E-13 0.00000E+00 0.00000E+00 0.00000E+00
 -1      4254 4.60425E-13 4.60425E-13 4.60425E-13 0.00000E+00 0.00000E+00 0.00000E+00
 -1      4255 4.64852E-13 4.64852E-13 4.64852E-13 0.00000E+00 0.00000E+00 0.00000E+00
 -1      4256 4.64852E-13 4.64852E-13 4.64852E-13 0.00000E+00 0.00000E+00 0.00000E+00
 -1      4257 4.62638E-13 4.62638E-13 4.62638E-13 0.00000E+00 0.00000E+00 0.00000E+00
 -1      4258 4.38289E-13 4.38289E-13 4.38289E-13 0.00000E+00 0.00000E+00 0.00000E+00
 -1      4259 4.38289E-13 4.38289E-13 4.38289E-13 0.00000E+00 0.00000E+00 0.00000E+00
 -1      4260 4.38289E-13 4.38289E-13 4.38289E-13 0.00000E+00 0.00000E+00 0.00000E+00
 -1      4261 4.38289E-13 4.38289E-13 4.38289E-13 0.00000E+00 0.00000E+00 0.00000E+00
 -1      4262 4.38289E-13 4.38289E-13 4.38289E-13 0.00000E+00 0.00000E+00 0.00000E+00
 -1      4263 4.38289E-13 4.38289E-13 4.38289E-13 0.00000E+00 0.00000E+00 0.00000E+00
 -1      4264 4.60425E-13 4.60425E-13 4.60425E-13 0.00000E+00 0.00000E+00 0.00000E+00
 -1      4265 4.64852E-13 4.64852E-13 4.64852E-13 0.00000E+00 0.00000E+00 0.00000E+00
 -1      4266 4.64852E-13 4.64852E-13 4.64852E-13 0.00000E+00 0.00000E+00 0.00000E+00
 -1      4267 4.38289E-13 4.38289E-13 4.38289E-13 0.00000E+00 0.00000E+00 0.00000E+00
 -1      4268 4.64852E-13 4.64852E-13 4.64852E-13 0.00000E+00 0.00000E+00 0.00000E+00
 -1      4269 4.64852E-13 4.64852E-13 4.64852E-13 0.00000E+00 0.00000E+00 0.00000E+00
 -1      4270 4.64852E-13 4.64852E-13 4.64852E-13 0.00000E+00 0.00000E+00 0.00000E+00
 -1      4271 4.64852E-13 4.64852E-13 4.64852E-13 0.00000E+00 0.00000E+00 0.00000E+00
 -1      4272 4.64852E-13 4.64852E-13 4.64852E-13 0.00000E+00 0.00000E+00 0.00000E+00
 -1      4273 4.55365E-13 4.55365E-13 4.55365E-13 0.00000E+00 0.00000E+00 0.00000E+00
 -1      4274 4.38289E-13 4.38289E-13 4.38289E-13 0.00000E+00 0.00000E+00 0.00000E+00
 -1      4275 4.38289E-13 4.38289E-13 4.38289E-13 0.00000E+00 0.00000E+00 0.00000E+00
 -1      4276 4.38289E-13 4.38289E-13 4.38289E-13 0.00000E+00 0.00000E+00 0.00000E+00
 -1      4277 4.38289E-13 4.38289E-13 4.38289E-13 0.00000E+00 0.00000E+00 0.00000E+00
 -1      4278 4.38289E-13 4.38289E-13 4.38289E-13 0.00000E+00 0.00000E+00 0.00000E+00
 -1      4279 4.38289E-13 4.38289E-13 4.38289E-13 0.00000E+00 0.00000E+00 0.00000E+00
 -1      4280 4.38289E-13 4.38289E-13 4.38289E-13 0.00000E+00 0.00000E+00 0.00000E+00
 -1      4281 4.38289E-13 4.38289E-13 4.38289E-13 0.00000E+00 0.00000E+00 0.00000E+00
 -1      4282 4.64852E-13 4.64852E-13 4.64852E-13 0.00000E+00 0.00000E+00 0.00000E+00
 -1      4283 4.64852E-13 4.64852E-13 4.64852E-13 0.00000E+00 0.00000E+00 0.00000E+00
 -1      4284 4.64852E-13 4.64852E-13 4.64852E-13 0.00000E+00 0.00000E+00 0.00000E+00
 -1      4285 4.53784E-13 4.53784E-13 4.53784E-13 0.00000E+00 0.00000E+00 0.00000E+00
 -1      4286 4.64852E-13 4.64852E-13 4.64852E-13 0.00000E+00 0.00000E+00 0.00000E+00
 -1      4287 4.64852E-13 4.64852E-13 4.64852E-13 0.00000E+00 0.00000E+00 0.00000E+00
 -1      4288 4.64852E-13 4.64852E-13 4.64852E-13 0.00000E+00 0.00000E+00 0.00000E+00
 -1      4289 4.51570E-13 4.51570E-13 4.51570E-13 0.00000E+00 0.00000E+00 0.00000E+00
 -1      4290 4.64852E-13 4.64852E-13 4.64852E-13 0.00000E+00 0.00000E+00 0.00000E+00
 -1      4291 4.40502E-13 4.40502E-13 4.40502E-13 0.00000E+00 0.00000E+00 0.00000E+00
 -1      4292 4.64852E-13 4.64852E-13 4.64852E-13 0.00000E+00 0.00000E+00 0.00000E+00
 -1      4293 4.61057E-13 4.61057E-13 4.61057E-13 0.00000E+00 0.00000E+00 0.00000E+00
 -1      4294 4.38289E-13 4.38289E-13 4.38289E-13 0.00000E+00 0.00000E+00 0.00000E+00
 -1      4295 4.62954E-13 4.62954E-13 4.62954E-13 0.00000E+00 0.00000E+00 0.00000E+00
 -1      4296 4.42716E-13 4.42716E-13 4.42716E-13 0.00000E+00 0.00000E+00 0.00000E+00
 -1      4297 4.49357E-13 4.49357E-13 4.49357E-13 0.00000E+00 0.00000E+00 0.00000E+00
 -1      4298 4.64852E-13 4.64852E-13 4.64852E-13 0.00000E+00 0.00000E+00 0.00000E+00
 -1      4299 4.60425E-13 4.60425E-13 4.60425E-13 0.00000E+00 0.00000E+00 0.00000E+00
 -1      4300 4.47143E-13 4.47143E-13 4.47143E-13 0.00000E+00 0.00000E+00 0.00000E+00
 -1      4301 4.51570E-13 4.51570E-13 4.51570E-13 0.00000E+00 0.00000E+00 0.00000E+00
 -1      4302 4.40186E-13 4.40186E-13 4.40186E-13 0.00000E+00 0.00000E+00 0.00000E+00
 -1      4303 4.38289E-13 4.38289E-13 4.38289E-13 0.00000E+00 0.00000E+00 0.00000E+00
 -1      4304 4.38289E-13 4.38289E-13 4.38289E-13 0.00000E+00 0.00000E+00 0.00000E+00
 -1      4305 4.38289E-13 4.38289E-13 4.38289E-13 0.00000E+00 0.00000E+00 0.00000E+00
 -1      4306 4.38289E-13 4.38289E-13 4.38289E-13 0.00000E+00 0.00000E+00 0.00000E+00
 -1      4307 4.38289E-13 4.38289E-13 4.38289E-13 0.00000E+00 0.00000E+00 0.00000E+00
 -1      4308 4.38289E-13 4.38289E-13 4.38289E-13 0.00000E+00 0.00000E+00 0.00000E+00
 -1      4309 4.38289E-13 4.38289E-13 4.38289E-13 0.00000E+00 0.00000E+00 0.00000E+00
 -1      4310 4.64852E-13 4.64852E-13 4.64852E-13 0.00000E+00 0.00000E+00 0.00000E+00
 -1      4311 4.38289E-13 4.38289E-13 4.38289E-13 0.00000E+00 0.00000E+00 0.00000E+00
 -1      4312 4.38289E-13 4.38289E-13 4.38289E-13 0.00000E+00 0.00000E+00 0.00000E+00
 -1      4313 4.38289E-13 4.38289E-13 4.38289E-13 0.00000E+00 0.00000E+00 0.00000E+00
 -1      4314 4.40502E-13 4.40502E-13 4.40502E-13 0.00000E+00 0.00000E+00 0.00000E+00
 -1      4315 4.38289E-13 4.38289E-13 4.38289E-13 0.00000E+00 0.00000E+00 0.00000E+00
 -1      4316 4.38289E-13 4.38289E-13 4.38289E-13 0.00000E+00 0.00000E+00 0.00000E+00
 -1      4317 4.38289E-13 4.38289E-13 4.38289E-13 0.00000E+00 0.00000E+00 0.00000E+00
 -1      4318 4.38289E-13 4.38289E-13 4.38289E-13 0.00000E+00 0.00000E+00 0.00000E+00
 -1      4319 4.38289E-13 4.38289E-13 4.38289E-13 0.00000E+00 0.00000E+00 0.00000E+00
 -1      4320 4.64852E-13 4.64852E-13 4.64852E-13 0.00000E+00 0.00000E+00 0.00000E+00
 -1      4321 4.64852E-13 4.64852E-13 4.64852E-13 0.00000E+00 0.00000E+00 0.00000E+00
 -1      4322 4.64852E-13 4.64852E-13 4.64852E-13 0.00000E+00 0.00000E+00 0.00000E+00
 -1      4323 4.64852E-13 4.64852E-13 4.64852E-13 0.00000E+00 0.00000E+00 0.00000E+00
 -1      4324 4.64852E-13 4.64852E-13 4.64852E-13 0.00000E+00 0.00000E+00 0.00000E+00
 -1      4325 4.44929E-13 4.44929E-13 4.44929E-13 0.00000E+00 0.00000E+00 0.00000E+00
 -1      4326 4.44929E-13 4.44929E-13 4.44929E-13 0.00000E+00 0.00000E+00 0.00000E+00
 -1      4327 4.38289E-13 4.38289E-13 4.38289E-13 0.00000E+00 0.00000E+00 0.00000E+00
 -1      4328 4.38289E-13 4.38289E-13 4.38289E-13 0.00000E+00 0.00000E+00 0.00000E+00
 -1      4329 4.64852E-13 4.64852E-13 4.64852E-13 0.00000E+00 0.00000E+00 0.00000E+00
 -1      4330 4.64852E-13 4.64852E-13 4.64852E-13 0.00000E+00 0.00000E+00 0.00000E+00
 -1      4331 4.64852E-13 4.64852E-13 4.64852E-13 0.00000E+00 0.00000E+00 0.00000E+00
 -1      4332 4.62638E-13 4.62638E-13 4.62638E-13 0.00000E+00 0.00000E+00 0.00000E+00
 -1      4333 4.64852E-13 4.64852E-13 4.64852E-13 0.00000E+00 0.00000E+00 0.00000E+00
 -1      4334 4.38289E-13 4.38289E-13 4.38289E-13 0.00000E+00 0.00000E+00 0.00000E+00
 -1      4335 4.38289E-13 4.38289E-13 4.38289E-13 0.00000E+00 0.00000E+00 0.00000E+00
 -1      4336 4.38289E-13 4.38289E-13 4.38289E-13 0.00000E+00 0.00000E+00 0.00000E+00
 -1      4337 4.38289E-13 4.38289E-13 4.38289E-13 0.00000E+00 0.00000E+00 0.00000E+00
 -1      4338 4.62638E-13 4.62638E-13 4.62638E-13 0.00000E+00 0.00000E+00 0.00000E+00
 -1      4339 4.53784E-13 4.53784E-13 4.53784E-13 0.00000E+00 0.00000E+00 0.00000E+00
 -1      4340 4.47775E-13 4.47775E-13 4.47775E-13 0.00000E+00 0.00000E+00 0.00000E+00
 -1      4341 4.38289E-13 4.38289E-13 4.38289E-13 0.00000E+00 0.00000E+00 0.00000E+00
 -1      4342 4.38289E-13 4.38289E-13 4.38289E-13 0.00000E+00 0.00000E+00 0.00000E+00
 -1      4343 4.38289E-13 4.38289E-13 4.38289E-13 0.00000E+00 0.00000E+00 0.00000E+00
 -1      4344 4.62638E-13 4.62638E-13 4.62638E-13 0.00000E+00 0.00000E+00 0.00000E+00
 -1      4345 4.55997E-13 4.55997E-13 4.55997E-13 0.00000E+00 0.00000E+00 0.00000E+00
 -1      4346 4.62638E-13 4.62638E-13 4.62638E-13 0.00000E+00 0.00000E+00 0.00000E+00
 -1      4347 4.62638E-13 4.62638E-13 4.62638E-13 0.00000E+00 0.00000E+00 0.00000E+00
 -1      4348 4.62638E-13 4.62638E-13 4.62638E-13 0.00000E+00 0.00000E+00 0.00000E+00
 -1      4349 4.53784E-13 4.53784E-13 4.53784E-13 0.00000E+00 0.00000E+00 0.00000E+00
 -1      4350 4.40502E-13 4.40502E-13 4.40502E-13 0.00000E+00 0.00000E+00 0.00000E+00
 -1      4351 4.38289E-13 4.38289E-13 4.38289E-13 0.00000E+00 0.00000E+00 0.00000E+00
 -1      4352 4.62638E-13 4.62638E-13 4.62638E-13 0.00000E+00 0.00000E+00 0.00000E+00
 -1      4353 4.64852E-13 4.64852E-13 4.64852E-13 0.00000E+00 0.00000E+00 0.00000E+00
 -1      4354 4.64852E-13 4.64852E-13 4.64852E-13 0.00000E+00 0.00000E+00 0.00000E+00
 -1      4355 4.60425E-13 4.60425E-13 4.60425E-13 0.00000E+00 0.00000E+00 0.00000E+00
 -1      4356 4.43981E-13 4.43981E-13 4.43981E-13 0.00000E+00 0.00000E+00 0.00000E+00
 -1      4357 4.64852E-13 4.64852E-13 4.64852E-13 0.00000E+00 0.00000E+00 0.00000E+00
 -1      4358 4.60425E-13 4.60425E-13 4.60425E-13 0.00000E+00 0.00000E+00 0.00000E+00
 -1      4359 4.64852E-13 4.64852E-13 4.64852E-13 0.00000E+00 0.00000E+00 0.00000E+00
 -1      4360 4.60425E-13 4.60425E-13 4.60425E-13 0.00000E+00 0.00000E+00 0.00000E+00
 -1      4361 4.55997E-13 4.55997E-13 4.55997E-13 0.00000E+00 0.00000E+00 0.00000E+00
 -1      4362 4.64852E-13 4.64852E-13 4.64852E-13 0.00000E+00 0.00000E+00 0.00000E+00
 -1      4363 4.59539E-13 4.59539E-13 4.59539E-13 0.00000E+00 0.00000E+00 0.00000E+00
 -1      4364 4.38289E-13 4.38289E-13 4.38289E-13 0.00000E+00 0.00000E+00 0.00000E+00
 -1      4365 4.38289E-13 4.38289E-13 4.38289E-13 0.00000E+00 0.00000E+00 0.00000E+00
 -1      4366 4.38289E-13 4.38289E-13 4.38289E-13 0.00000E+00 0.00000E+00 0.00000E+00
 -1      4367 4.64852E-13 4.64852E-13 4.64852E-13 0.00000E+00 0.00000E+00 0.00000E+00
 -1      4368 4.38289E-13 4.38289E-13 4.38289E-13 0.00000E+00 0.00000E+00 0.00000E+00
 -1      4369 4.57262E-13 4.57262E-13 4.57262E-13 0.00000E+00 0.00000E+00 0.00000E+00
 -1      4370 4.58211E-13 4.58211E-13 4.58211E-13 0.00000E+00 0.00000E+00 0.00000E+00
 -1      4371 4.53784E-13 4.53784E-13 4.53784E-13 0.00000E+00 0.00000E+00 0.00000E+00
 -1      4372 4.40186E-13 4.40186E-13 4.40186E-13 0.00000E+00 0.00000E+00 0.00000E+00
 -1      4373 4.38289E-13 4.38289E-13 4.38289E-13 0.00000E+00 0.00000E+00 0.00000E+00
 -1      4374 4.38289E-13 4.38289E-13 4.38289E-13 0.00000E+00 0.00000E+00 0.00000E+00
 -1      4375 4.42716E-13 4.42716E-13 4.42716E-13 0.00000E+00 0.00000E+00 0.00000E+00
 -1      4376 4.40502E-13 4.40502E-13 4.40502E-13 0.00000E+00 0.00000E+00 0.00000E+00
 -1      4377 4.51570E-13 4.51570E-13 4.51570E-13 0.00000E+00 0.00000E+00 0.00000E+00
 -1      4378 4.38289E-13 4.38289E-13 4.38289E-13 0.00000E+00 0.00000E+00 0.00000E+00
 -1      4379 4.44929E-13 4.44929E-13 4.44929E-13 0.00000E+00 0.00000E+00 0.00000E+00
 -1      4380 4.38289E-13 4.38289E-13 4.38289E-13 0.00000E+00 0.00000E+00 0.00000E+00
 -1      4381 4.62638E-13 4.62638E-13 4.62638E-13 0.00000E+00 0.00000E+00 0.00000E+00
 -1      4382 4.64852E-13 4.64852E-13 4.64852E-13 0.00000E+00 0.00000E+00 0.00000E+00
 -1      4383 4.60425E-13 4.60425E-13 4.60425E-13 0.00000E+00 0.00000E+00 0.00000E+00
 -1      4384 4.55997E-13 4.55997E-13 4.55997E-13 0.00000E+00 0.00000E+00 0.00000E+00
 -1      4385 4.62638E-13 4.62638E-13 4.62638E-13 0.00000E+00 0.00000E+00 0.00000E+00
 -1      4386 4.55997E-13 4.55997E-13 4.55997E-13 0.00000E+00 0.00000E+00 0.00000E+00
 -1      4387 4.47143E-13 4.47143E-13 4.47143E-13 0.00000E+00 0.00000E+00 0.00000E+00
 -1      4388 4.38289E-13 4.38289E-13 4.38289E-13 0.00000E+00 0.00000E+00 0.00000E+00
 -1      4389 4.51570E-13 4.51570E-13 4.51570E-13 0.00000E+00 0.00000E+00 0.00000E+00
 -1      4390 4.58211E-13 4.58211E-13 4.58211E-13 0.00000E+00 0.00000E+00 0.00000E+00
 -1      4391 4.62638E-13 4.62638E-13 4.62638E-13 0.00000E+00 0.00000E+00 0.00000E+00
 -1      4392 4.53784E-13 4.53784E-13 4.53784E-13 0.00000E+00 0.00000E+00 0.00000E+00
 -1      4393 4.42083E-13 4.42083E-13 4.42083E-13 0.00000E+00 0.00000E+00 0.00000E+00
 -1      4394 4.38289E-13 4.38289E-13 4.38289E-13 0.00000E+00 0.00000E+00 0.00000E+00
 -1      4395 4.42716E-13 4.42716E-13 4.42716E-13 0.00000E+00 0.00000E+00 0.00000E+00
 -1      4396 4.38289E-13 4.38289E-13 4.38289E-13 0.00000E+00 0.00000E+00 0.00000E+00
 -1      4397 4.40502E-13 4.40502E-13 4.40502E-13 0.00000E+00 0.00000E+00 0.00000E+00
 -1      4398 4.51570E-13 4.51570E-13 4.51570E-13 0.00000E+00 0.00000E+00 0.00000E+00
 -1      4399 4.62954E-13 4.62954E-13 4.62954E-13 0.00000E+00 0.00000E+00 0.00000E+00
 -1      4400 4.43981E-13 4.43981E-13 4.43981E-13 0.00000E+00 0.00000E+00 0.00000E+00
 -1      4401 4.62638E-13 4.62638E-13 4.62638E-13 0.00000E+00 0.00000E+00 0.00000E+00
 -1      4402 4.58211E-13 4.58211E-13 4.58211E-13 0.00000E+00 0.00000E+00 0.00000E+00
 -1      4403 4.64852E-13 4.64852E-13 4.64852E-13 0.00000E+00 0.00000E+00 0.00000E+00
 -1      4404 4.62638E-13 4.62638E-13 4.62638E-13 0.00000E+00 0.00000E+00 0.00000E+00
 -1      4405 4.40502E-13 4.40502E-13 4.40502E-13 0.00000E+00 0.00000E+00 0.00000E+00
 -1      4406 4.47143E-13 4.47143E-13 4.47143E-13 0.00000E+00 0.00000E+00 0.00000E+00
 -1      4407 4.38289E-13 4.38289E-13 4.38289E-13 0.00000E+00 0.00000E+00 0.00000E+00
 -1      4408 4.38289E-13 4.38289E-13 4.38289E-13 0.00000E+00 0.00000E+00 0.00000E+00
 -1      4409 4.42716E-13 4.42716E-13 4.42716E-13 0.00000E+00 0.00000E+00 0.00000E+00
 -1      4410 4.42716E-13 4.42716E-13 4.42716E-13 0.00000E+00 0.00000E+00 0.00000E+00
 -1      4411 4.38289E-13 4.38289E-13 4.38289E-13 0.00000E+00 0.00000E+00 0.00000E+00
 -1      4412 4.53784E-13 4.53784E-13 4.53784E-13 0.00000E+00 0.00000E+00 0.00000E+00
 -1      4413 4.40186E-13 4.40186E-13 4.40186E-13 0.00000E+00 0.00000E+00 0.00000E+00
 -1      4414 4.38289E-13 4.38289E-13 4.38289E-13 0.00000E+00 0.00000E+00 0.00000E+00
 -1      4415 4.42083E-13 4.42083E-13 4.42083E-13 0.00000E+00 0.00000E+00 0.00000E+00
 -1      4416 4.47143E-13 4.47143E-13 4.47143E-13 0.00000E+00 0.00000E+00 0.00000E+00
 -1      4417 4.64852E-13 4.64852E-13 4.64852E-13 0.00000E+00 0.00000E+00 0.00000E+00
 -1      4418 4.42716E-13 4.42716E-13 4.42716E-13 0.00000E+00 0.00000E+00 0.00000E+00
 -1      4419 4.42716E-13 4.42716E-13 4.42716E-13 0.00000E+00 0.00000E+00 0.00000E+00
 -1      4420 4.64852E-13 4.64852E-13 4.64852E-13 0.00000E+00 0.00000E+00 0.00000E+00
 -1      4421 4.49357E-13 4.49357E-13 4.49357E-13 0.00000E+00 0.00000E+00 0.00000E+00
 -1      4422 4.60425E-13 4.60425E-13 4.60425E-13 0.00000E+00 0.00000E+00 0.00000E+00
 -1      4423 4.51570E-13 4.51570E-13 4.51570E-13 0.00000E+00 0.00000E+00 0.00000E+00
 -1      4424 4.42716E-13 4.42716E-13 4.42716E-13 0.00000E+00 0.00000E+00 0.00000E+00
 -1      4425 4.38289E-13 4.38289E-13 4.38289E-13 0.00000E+00 0.00000E+00 0.00000E+00
 -1      4426 4.38289E-13 4.38289E-13 4.38289E-13 0.00000E+00 0.00000E+00 0.00000E+00
 -1      4427 4.38289E-13 4.38289E-13 4.38289E-13 0.00000E+00 0.00000E+00 0.00000E+00
 -1      4428 4.47143E-13 4.47143E-13 4.47143E-13 0.00000E+00 0.00000E+00 0.00000E+00
 -1      4429 4.42716E-13 4.42716E-13 4.42716E-13 0.00000E+00 0.00000E+00 0.00000E+00
 -1      4430 4.38289E-13 4.38289E-13 4.38289E-13 0.00000E+00 0.00000E+00 0.00000E+00
 -1      4431 4.60425E-13 4.60425E-13 4.60425E-13 0.00000E+00 0.00000E+00 0.00000E+00
 -1      4432 4.51570E-13 4.51570E-13 4.51570E-13 0.00000E+00 0.00000E+00 0.00000E+00
 -1      4433 4.38289E-13 4.38289E-13 4.38289E-13 0.00000E+00 0.00000E+00 0.00000E+00
 -1      4434 4.38289E-13 4.38289E-13 4.38289E-13 0.00000E+00 0.00000E+00 0.00000E+00
 -1      4435 4.38289E-13 4.38289E-13 4.38289E-13 0.00000E+00 0.00000E+00 0.00000E+00
 -1      4436 4.58211E-13 4.58211E-13 4.58211E-13 0.00000E+00 0.00000E+00 0.00000E+00
 -1      4437 4.42716E-13 4.42716E-13 4.42716E-13 0.00000E+00 0.00000E+00 0.00000E+00
 -1      4438 4.55997E-13 4.55997E-13 4.55997E-13 0.00000E+00 0.00000E+00 0.00000E+00
 -1      4439 4.57262E-13 4.57262E-13 4.57262E-13 0.00000E+00 0.00000E+00 0.00000E+00
 -1      4440 4.42716E-13 4.42716E-13 4.42716E-13 0.00000E+00 0.00000E+00 0.00000E+00
 -1      4441 4.40502E-13 4.40502E-13 4.40502E-13 0.00000E+00 0.00000E+00 0.00000E+00
 -1      4442 4.53468E-13 4.53468E-13 4.53468E-13 0.00000E+00 0.00000E+00 0.00000E+00
 -1      4443 4.64852E-13 4.64852E-13 4.64852E-13 0.00000E+00 0.00000E+00 0.00000E+00
 -1      4444 4.64852E-13 4.64852E-13 4.64852E-13 0.00000E+00 0.00000E+00 0.00000E+00
 -1      4445 4.64852E-13 4.64852E-13 4.64852E-13 0.00000E+00 0.00000E+00 0.00000E+00
 -1      4446 4.64852E-13 4.64852E-13 4.64852E-13 0.00000E+00 0.00000E+00 0.00000E+00
 -1      4447 4.64852E-13 4.64852E-13 4.64852E-13 0.00000E+00 0.00000E+00 0.00000E+00
 -1      4448 4.64852E-13 4.64852E-13 4.64852E-13 0.00000E+00 0.00000E+00 0.00000E+00
 -1      4449 4.49357E-13 4.49357E-13 4.49357E-13 0.00000E+00 0.00000E+00 0.00000E+00
 -1      4450 4.64852E-13 4.64852E-13 4.64852E-13 0.00000E+00 0.00000E+00 0.00000E+00
 -1      4451 4.64852E-13 4.64852E-13 4.64852E-13 0.00000E+00 0.00000E+00 0.00000E+00
 -1      4452 4.64852E-13 4.64852E-13 4.64852E-13 0.00000E+00 0.00000E+00 0.00000E+00
 -1      4453 4.64852E-13 4.64852E-13 4.64852E-13 0.00000E+00 0.00000E+00 0.00000E+00
 -1      4454 4.42716E-13 4.42716E-13 4.42716E-13 0.00000E+00 0.00000E+00 0.00000E+00
 -1      4455 4.53784E-13 4.53784E-13 4.53784E-13 0.00000E+00 0.00000E+00 0.00000E+00
 -1      4456 4.62638E-13 4.62638E-13 4.62638E-13 0.00000E+00 0.00000E+00 0.00000E+00
 -1      4457 4.64852E-13 4.64852E-13 4.64852E-13 0.00000E+00 0.00000E+00 0.00000E+00
 -1      4458 4.38289E-13 4.38289E-13 4.38289E-13 0.00000E+00 0.00000E+00 0.00000E+00
 -1      4459 4.40502E-13 4.40502E-13 4.40502E-13 0.00000E+00 0.00000E+00 0.00000E+00
 -1      4460 4.49357E-13 4.49357E-13 4.49357E-13 0.00000E+00 0.00000E+00 0.00000E+00
 -1      4461 4.47143E-13 4.47143E-13 4.47143E-13 0.00000E+00 0.00000E+00 0.00000E+00
 -1      4462 4.49357E-13 4.49357E-13 4.49357E-13 0.00000E+00 0.00000E+00 0.00000E+00
 -1      4463 4.42716E-13 4.42716E-13 4.42716E-13 0.00000E+00 0.00000E+00 0.00000E+00
 -1      4464 4.55997E-13 4.55997E-13 4.55997E-13 0.00000E+00 0.00000E+00 0.00000E+00
 -1      4465 4.64852E-13 4.64852E-13 4.64852E-13 0.00000E+00 0.00000E+00 0.00000E+00
 -1      4466 4.42716E-13 4.42716E-13 4.42716E-13 0.00000E+00 0.00000E+00 0.00000E+00
 -1      4467 4.58211E-13 4.58211E-13 4.58211E-13 0.00000E+00 0.00000E+00 0.00000E+00
 -1      4468 4.64852E-13 4.64852E-13 4.64852E-13 0.00000E+00 0.00000E+00 0.00000E+00
 -1      4469 4.40186E-13 4.40186E-13 4.40186E-13 0.00000E+00 0.00000E+00 0.00000E+00
 -1      4470 4.40502E-13 4.40502E-13 4.40502E-13 0.00000E+00 0.00000E+00 0.00000E+00
 -1      4471 4.51570E-13 4.51570E-13 4.51570E-13 0.00000E+00 0.00000E+00 0.00000E+00
 -1      4472 4.44929E-13 4.44929E-13 4.44929E-13 0.00000E+00 0.00000E+00 0.00000E+00
 -1      4473 4.44929E-13 4.44929E-13 4.44929E-13 0.00000E+00 0.00000E+00 0.00000E+00
 -1      4474 4.42716E-13 4.42716E-13 4.42716E-13 0.00000E+00 0.00000E+00 0.00000E+00
 -1      4475 4.42716E-13 4.42716E-13 4.42716E-13 0.00000E+00 0.00000E+00 0.00000E+00
 -1      4476 4.42716E-13 4.42716E-13 4.42716E-13 0.00000E+00 0.00000E+00 0.00000E+00
 -1      4477 4.47775E-13 4.47775E-13 4.47775E-13 0.00000E+00 0.00000E+00 0.00000E+00
 -1      4478 4.45878E-13 4.45878E-13 4.45878E-13 0.00000E+00 0.00000E+00 0.00000E+00
 -1      4479 4.42716E-13 4.42716E-13 4.42716E-13 0.00000E+00 0.00000E+00 0.00000E+00
 -1      4480 4.62638E-13 4.62638E-13 4.62638E-13 0.00000E+00 0.00000E+00 0.00000E+00
 -1      4481 4.47143E-13 4.47143E-13 4.47143E-13 0.00000E+00 0.00000E+00 0.00000E+00
 -1      4482 4.38289E-13 4.38289E-13 4.38289E-13 0.00000E+00 0.00000E+00 0.00000E+00
 -1      4483 4.62638E-13 4.62638E-13 4.62638E-13 0.00000E+00 0.00000E+00 0.00000E+00
 -1      4484 4.38289E-13 4.38289E-13 4.38289E-13 0.00000E+00 0.00000E+00 0.00000E+00
 -1      4485 4.64852E-13 4.64852E-13 4.64852E-13 0.00000E+00 0.00000E+00 0.00000E+00
 -1      4486 4.44929E-13 4.44929E-13 4.44929E-13 0.00000E+00 0.00000E+00 0.00000E+00
 -1      4487 4.38289E-13 4.38289E-13 4.38289E-13 0.00000E+00 0.00000E+00 0.00000E+00
 -1      4488 4.42716E-13 4.42716E-13 4.42716E-13 0.00000E+00 0.00000E+00 0.00000E+00
 -1      4489 4.38289E-13 4.38289E-13 4.38289E-13 0.00000E+00 0.00000E+00 0.00000E+00
 -1      4490 4.51570E-13 4.51570E-13 4.51570E-13 0.00000E+00 0.00000E+00 0.00000E+00
 -1      4491 4.47775E-13 4.47775E-13 4.47775E-13 0.00000E+00 0.00000E+00 0.00000E+00
 -1      4492 4.38289E-13 4.38289E-13 4.38289E-13 0.00000E+00 0.00000E+00 0.00000E+00
 -1      4493 4.40502E-13 4.40502E-13 4.40502E-13 0.00000E+00 0.00000E+00 0.00000E+00
 -1      4494 4.40502E-13 4.40502E-13 4.40502E-13 0.00000E+00 0.00000E+00 0.00000E+00
 -1      4495 4.38289E-13 4.38289E-13 4.38289E-13 0.00000E+00 0.00000E+00 0.00000E+00
 -1      4496 4.47775E-13 4.47775E-13 4.47775E-13 0.00000E+00 0.00000E+00 0.00000E+00
 -1      4497 4.38289E-13 4.38289E-13 4.38289E-13 0.00000E+00 0.00000E+00 0.00000E+00
 -1      4498 4.60425E-13 4.60425E-13 4.60425E-13 0.00000E+00 0.00000E+00 0.00000E+00
 -1      4499 4.60425E-13 4.60425E-13 4.60425E-13 0.00000E+00 0.00000E+00 0.00000E+00
 -1      4500 4.38289E-13 4.38289E-13 4.38289E-13 0.00000E+00 0.00000E+00 0.00000E+00
 -1      4501 4.64852E-13 4.64852E-13 4.64852E-13 0.00000E+00 0.00000E+00 0.00000E+00
 -1      4502 4.38289E-13 4.38289E-13 4.38289E-13 0.00000E+00 0.00000E+00 0.00000E+00
 -1      4503 4.38289E-13 4.38289E-13 4.38289E-13 0.00000E+00 0.00000E+00 0.00000E+00
 -1      4504 4.64852E-13 4.64852E-13 4.64852E-13 0.00000E+00 0.00000E+00 0.00000E+00
 -1      4505 4.64852E-13 4.64852E-13 4.64852E-13 0.00000E+00 0.00000E+00 0.00000E+00
 -1      4506 4.64852E-13 4.64852E-13 4.64852E-13 0.00000E+00 0.00000E+00 0.00000E+00
 -1      4507 4.64852E-13 4.64852E-13 4.64852E-13 0.00000E+00 0.00000E+00 0.00000E+00
 -1      4508 4.38289E-13 4.38289E-13 4.38289E-13 0.00000E+00 0.00000E+00 0.00000E+00
 -1      4509 4.64852E-13 4.64852E-13 4.64852E-13 0.00000E+00 0.00000E+00 0.00000E+00
 -1      4510 4.64852E-13 4.64852E-13 4.64852E-13 0.00000E+00 0.00000E+00 0.00000E+00
 -1      4511 4.51570E-13 4.51570E-13 4.51570E-13 0.00000E+00 0.00000E+00 0.00000E+00
 -1      4512 4.64852E-13 4.64852E-13 4.64852E-13 0.00000E+00 0.00000E+00 0.00000E+00
 -1      4513 4.64852E-13 4.64852E-13 4.64852E-13 0.00000E+00 0.00000E+00 0.00000E+00
 -1      4514 4.64852E-13 4.64852E-13 4.64852E-13 0.00000E+00 0.00000E+00 0.00000E+00
 -1      4515 4.47143E-13 4.47143E-13 4.47143E-13 0.00000E+00 0.00000E+00 0.00000E+00
 -1      4516 4.42716E-13 4.42716E-13 4.42716E-13 0.00000E+00 0.00000E+00 0.00000E+00
 -1      4517 4.47143E-13 4.47143E-13 4.47143E-13 0.00000E+00 0.00000E+00 0.00000E+00
 -1      4518 4.64852E-13 4.64852E-13 4.64852E-13 0.00000E+00 0.00000E+00 0.00000E+00
 -1      4519 4.38289E-13 4.38289E-13 4.38289E-13 0.00000E+00 0.00000E+00 0.00000E+00
 -1      4520 4.38289E-13 4.38289E-13 4.38289E-13 0.00000E+00 0.00000E+00 0.00000E+00
 -1      4521 4.58211E-13 4.58211E-13 4.58211E-13 0.00000E+00 0.00000E+00 0.00000E+00
 -1      4522 4.38289E-13 4.38289E-13 4.38289E-13 0.00000E+00 0.00000E+00 0.00000E+00
 -1      4523 4.64852E-13 4.64852E-13 4.64852E-13 0.00000E+00 0.00000E+00 0.00000E+00
 -1      4524 4.64852E-13 4.64852E-13 4.64852E-13 0.00000E+00 0.00000E+00 0.00000E+00
 -1      4525 4.38289E-13 4.38289E-13 4.38289E-13 0.00000E+00 0.00000E+00 0.00000E+00
 -1      4526 4.38289E-13 4.38289E-13 4.38289E-13 0.00000E+00 0.00000E+00 0.00000E+00
 -1      4527 4.51570E-13 4.51570E-13 4.51570E-13 0.00000E+00 0.00000E+00 0.00000E+00
 -1      4528 4.64852E-13 4.64852E-13 4.64852E-13 0.00000E+00 0.00000E+00 0.00000E+00
 -1      4529 4.38289E-13 4.38289E-13 4.38289E-13 0.00000E+00 0.00000E+00 0.00000E+00
 -1      4530 4.38289E-13 4.38289E-13 4.38289E-13 0.00000E+00 0.00000E+00 0.00000E+00
 -1      4531 4.38289E-13 4.38289E-13 4.38289E-13 0.00000E+00 0.00000E+00 0.00000E+00
 -1      4532 4.42716E-13 4.42716E-13 4.42716E-13 0.00000E+00 0.00000E+00 0.00000E+00
 -1      4533 4.38289E-13 4.38289E-13 4.38289E-13 0.00000E+00 0.00000E+00 0.00000E+00
 -1      4534 4.53784E-13 4.53784E-13 4.53784E-13 0.00000E+00 0.00000E+00 0.00000E+00
 -1      4535 4.42716E-13 4.42716E-13 4.42716E-13 0.00000E+00 0.00000E+00 0.00000E+00
 -1      4536 4.60425E-13 4.60425E-13 4.60425E-13 0.00000E+00 0.00000E+00 0.00000E+00
 -1      4537 4.38289E-13 4.38289E-13 4.38289E-13 0.00000E+00 0.00000E+00 0.00000E+00
 -1      4538 4.38289E-13 4.38289E-13 4.38289E-13 0.00000E+00 0.00000E+00 0.00000E+00
 -1      4539 4.38289E-13 4.38289E-13 4.38289E-13 0.00000E+00 0.00000E+00 0.00000E+00
 -1      4540 4.51570E-13 4.51570E-13 4.51570E-13 0.00000E+00 0.00000E+00 0.00000E+00
 -1      4541 4.43269E-13 4.43269E-13 4.43269E-13 0.00000E+00 0.00000E+00 0.00000E+00
 -1      4542 4.64852E-13 4.64852E-13 4.64852E-13 0.00000E+00 0.00000E+00 0.00000E+00
 -1      4543 4.59539E-13 4.59539E-13 4.59539E-13 0.00000E+00 0.00000E+00 0.00000E+00
 -1      4544 4.38289E-13 4.38289E-13 4.38289E-13 0.00000E+00 0.00000E+00 0.00000E+00
 -1      4545 4.64852E-13 4.64852E-13 4.64852E-13 0.00000E+00 0.00000E+00 0.00000E+00
 -1      4546 4.64852E-13 4.64852E-13 4.64852E-13 0.00000E+00 0.00000E+00 0.00000E+00
 -1      4547 4.64852E-13 4.64852E-13 4.64852E-13 0.00000E+00 0.00000E+00 0.00000E+00
 -1      4548 4.38289E-13 4.38289E-13 4.38289E-13 0.00000E+00 0.00000E+00 0.00000E+00
 -1      4549 4.38289E-13 4.38289E-13 4.38289E-13 0.00000E+00 0.00000E+00 0.00000E+00
 -1      4550 4.49357E-13 4.49357E-13 4.49357E-13 0.00000E+00 0.00000E+00 0.00000E+00
 -1      4551 4.64852E-13 4.64852E-13 4.64852E-13 0.00000E+00 0.00000E+00 0.00000E+00
 -1      4552 4.47143E-13 4.47143E-13 4.47143E-13 0.00000E+00 0.00000E+00 0.00000E+00
 -1      4553 4.64852E-13 4.64852E-13 4.64852E-13 0.00000E+00 0.00000E+00 0.00000E+00
 -1      4554 4.38289E-13 4.38289E-13 4.38289E-13 0.00000E+00 0.00000E+00 0.00000E+00
 -1      4555 4.38289E-13 4.38289E-13 4.38289E-13 0.00000E+00 0.00000E+00 0.00000E+00
 -1      4556 4.47775E-13 4.47775E-13 4.47775E-13 0.00000E+00 0.00000E+00 0.00000E+00
 -1      4557 4.38289E-13 4.38289E-13 4.38289E-13 0.00000E+00 0.00000E+00 0.00000E+00
 -1      4558 4.38289E-13 4.38289E-13 4.38289E-13 0.00000E+00 0.00000E+00 0.00000E+00
 -1      4559 4.64852E-13 4.64852E-13 4.64852E-13 0.00000E+00 0.00000E+00 0.00000E+00
 -1      4560 4.64852E-13 4.64852E-13 4.64852E-13 0.00000E+00 0.00000E+00 0.00000E+00
 -1      4561 4.62638E-13 4.62638E-13 4.62638E-13 0.00000E+00 0.00000E+00 0.00000E+00
 -1      4562 4.64852E-13 4.64852E-13 4.64852E-13 0.00000E+00 0.00000E+00 0.00000E+00
 -1      4563 4.47143E-13 4.47143E-13 4.47143E-13 0.00000E+00 0.00000E+00 0.00000E+00
 -1      4564 4.38289E-13 4.38289E-13 4.38289E-13 0.00000E+00 0.00000E+00 0.00000E+00
 -1      4565 4.64852E-13 4.64852E-13 4.64852E-13 0.00000E+00 0.00000E+00 0.00000E+00
 -1      4566 4.64852E-13 4.64852E-13 4.64852E-13 0.00000E+00 0.00000E+00 0.00000E+00
 -1      4567 4.38289E-13 4.38289E-13 4.38289E-13 0.00000E+00 0.00000E+00 0.00000E+00
 -1      4568 4.38289E-13 4.38289E-13 4.38289E-13 0.00000E+00 0.00000E+00 0.00000E+00
 -1      4569 4.38289E-13 4.38289E-13 4.38289E-13 0.00000E+00 0.00000E+00 0.00000E+00
 -1      4570 4.64852E-13 4.64852E-13 4.64852E-13 0.00000E+00 0.00000E+00 0.00000E+00
 -1      4571 4.38289E-13 4.38289E-13 4.38289E-13 0.00000E+00 0.00000E+00 0.00000E+00
 -1      4572 4.64852E-13 4.64852E-13 4.64852E-13 0.00000E+00 0.00000E+00 0.00000E+00
 -1      4573 4.38289E-13 4.38289E-13 4.38289E-13 0.00000E+00 0.00000E+00 0.00000E+00
 -1      4574 4.64852E-13 4.64852E-13 4.64852E-13 0.00000E+00 0.00000E+00 0.00000E+00
 -1      4575 4.64852E-13 4.64852E-13 4.64852E-13 0.00000E+00 0.00000E+00 0.00000E+00
 -1      4576 4.64852E-13 4.64852E-13 4.64852E-13 0.00000E+00 0.00000E+00 0.00000E+00
 -1      4577 4.64852E-13 4.64852E-13 4.64852E-13 0.00000E+00 0.00000E+00 0.00000E+00
 -1      4578 4.64852E-13 4.64852E-13 4.64852E-13 0.00000E+00 0.00000E+00 0.00000E+00
 -1      4579 4.38289E-13 4.38289E-13 4.38289E-13 0.00000E+00 0.00000E+00 0.00000E+00
 -1      4580 4.38289E-13 4.38289E-13 4.38289E-13 0.00000E+00 0.00000E+00 0.00000E+00
 -1      4581 4.38289E-13 4.38289E-13 4.38289E-13 0.00000E+00 0.00000E+00 0.00000E+00
 -1      4582 4.47143E-13 4.47143E-13 4.47143E-13 0.00000E+00 0.00000E+00 0.00000E+00
 -1      4583 4.38289E-13 4.38289E-13 4.38289E-13 0.00000E+00 0.00000E+00 0.00000E+00
 -1      4584 4.64852E-13 4.64852E-13 4.64852E-13 0.00000E+00 0.00000E+00 0.00000E+00
 -1      4585 4.62638E-13 4.62638E-13 4.62638E-13 0.00000E+00 0.00000E+00 0.00000E+00
 -1      4586 4.55997E-13 4.55997E-13 4.55997E-13 0.00000E+00 0.00000E+00 0.00000E+00
 -1      4587 4.60425E-13 4.60425E-13 4.60425E-13 0.00000E+00 0.00000E+00 0.00000E+00
 -1      4588 4.38289E-13 4.38289E-13 4.38289E-13 0.00000E+00 0.00000E+00 0.00000E+00
 -1      4589 4.38289E-13 4.38289E-13 4.38289E-13 0.00000E+00 0.00000E+00 0.00000E+00
 -1      4590 4.38289E-13 4.38289E-13 4.38289E-13 0.00000E+00 0.00000E+00 0.00000E+00
 -1      4591 4.64852E-13 4.64852E-13 4.64852E-13 0.00000E+00 0.00000E+00 0.00000E+00
 -1      4592 4.60425E-13 4.60425E-13 4.60425E-13 0.00000E+00 0.00000E+00 0.00000E+00
 -1      4593 4.38289E-13 4.38289E-13 4.38289E-13 0.00000E+00 0.00000E+00 0.00000E+00
 -1      4594 4.64852E-13 4.64852E-13 4.64852E-13 0.00000E+00 0.00000E+00 0.00000E+00
 -1      4595 4.51570E-13 4.51570E-13 4.51570E-13 0.00000E+00 0.00000E+00 0.00000E+00
 -1      4596 4.64852E-13 4.64852E-13 4.64852E-13 0.00000E+00 0.00000E+00 0.00000E+00
 -1      4597 4.64852E-13 4.64852E-13 4.64852E-13 0.00000E+00 0.00000E+00 0.00000E+00
 -1      4598 4.64852E-13 4.64852E-13 4.64852E-13 0.00000E+00 0.00000E+00 0.00000E+00
 -1      4599 4.64852E-13 4.64852E-13 4.64852E-13 0.00000E+00 0.00000E+00 0.00000E+00
 -1      4600 4.59160E-13 4.59160E-13 4.59160E-13 0.00000E+00 0.00000E+00 0.00000E+00
 -1      4601 4.64852E-13 4.64852E-13 4.64852E-13 0.00000E+00 0.00000E+00 0.00000E+00
 -1      4602 4.40502E-13 4.40502E-13 4.40502E-13 0.00000E+00 0.00000E+00 0.00000E+00
 -1      4603 4.53784E-13 4.53784E-13 4.53784E-13 0.00000E+00 0.00000E+00 0.00000E+00
 -1      4604 4.38289E-13 4.38289E-13 4.38289E-13 0.00000E+00 0.00000E+00 0.00000E+00
 -1      4605 4.61057E-13 4.61057E-13 4.61057E-13 0.00000E+00 0.00000E+00 0.00000E+00
 -1      4606 4.47143E-13 4.47143E-13 4.47143E-13 0.00000E+00 0.00000E+00 0.00000E+00
 -1      4607 4.42716E-13 4.42716E-13 4.42716E-13 0.00000E+00 0.00000E+00 0.00000E+00
 -1      4608 4.43981E-13 4.43981E-13 4.43981E-13 0.00000E+00 0.00000E+00 0.00000E+00
 -1      4609 4.64852E-13 4.64852E-13 4.64852E-13 0.00000E+00 0.00000E+00 0.00000E+00
 -1      4610 4.38289E-13 4.38289E-13 4.38289E-13 0.00000E+00 0.00000E+00 0.00000E+00
 -1      4611 4.64852E-13 4.64852E-13 4.64852E-13 0.00000E+00 0.00000E+00 0.00000E+00
 -1      4612 4.64852E-13 4.64852E-13 4.64852E-13 0.00000E+00 0.00000E+00 0.00000E+00
 -1      4613 4.38289E-13 4.38289E-13 4.38289E-13 0.00000E+00 0.00000E+00 0.00000E+00
 -1      4614 4.64852E-13 4.64852E-13 4.64852E-13 0.00000E+00 0.00000E+00 0.00000E+00
 -1      4615 4.40502E-13 4.40502E-13 4.40502E-13 0.00000E+00 0.00000E+00 0.00000E+00
 -1      4616 4.38289E-13 4.38289E-13 4.38289E-13 0.00000E+00 0.00000E+00 0.00000E+00
 -1      4617 4.64852E-13 4.64852E-13 4.64852E-13 0.00000E+00 0.00000E+00 0.00000E+00
 -1      4618 4.62954E-13 4.62954E-13 4.62954E-13 0.00000E+00 0.00000E+00 0.00000E+00
 -1      4619 4.38289E-13 4.38289E-13 4.38289E-13 0.00000E+00 0.00000E+00 0.00000E+00
 -1      4620 4.64852E-13 4.64852E-13 4.64852E-13 0.00000E+00 0.00000E+00 0.00000E+00
 -1      4621 4.40186E-13 4.40186E-13 4.40186E-13 0.00000E+00 0.00000E+00 0.00000E+00
 -1      4622 4.42083E-13 4.42083E-13 4.42083E-13 0.00000E+00 0.00000E+00 0.00000E+00
 -1      4623 4.42716E-13 4.42716E-13 4.42716E-13 0.00000E+00 0.00000E+00 0.00000E+00
 -1      4624 4.47143E-13 4.47143E-13 4.47143E-13 0.00000E+00 0.00000E+00 0.00000E+00
 -1      4625 4.42716E-13 4.42716E-13 4.42716E-13 0.00000E+00 0.00000E+00 0.00000E+00
 -1      4626 4.38289E-13 4.38289E-13 4.38289E-13 0.00000E+00 0.00000E+00 0.00000E+00
 -1      4627 4.38289E-13 4.38289E-13 4.38289E-13 0.00000E+00 0.00000E+00 0.00000E+00
 -1      4628 4.64852E-13 4.64852E-13 4.64852E-13 0.00000E+00 0.00000E+00 0.00000E+00
 -1      4629 4.53468E-13 4.53468E-13 4.53468E-13 0.00000E+00 0.00000E+00 0.00000E+00
 -1      4630 4.62954E-13 4.62954E-13 4.62954E-13 0.00000E+00 0.00000E+00 0.00000E+00
 -1      4631 4.42083E-13 4.42083E-13 4.42083E-13 0.00000E+00 0.00000E+00 0.00000E+00
 -1      4632 4.49357E-13 4.49357E-13 4.49357E-13 0.00000E+00 0.00000E+00 0.00000E+00
 -1      4633 4.62954E-13 4.62954E-13 4.62954E-13 0.00000E+00 0.00000E+00 0.00000E+00
 -1      4634 4.51570E-13 4.51570E-13 4.51570E-13 0.00000E+00 0.00000E+00 0.00000E+00
 -1      4635 4.53784E-13 4.53784E-13 4.53784E-13 0.00000E+00 0.00000E+00 0.00000E+00
 -1      4636 4.62954E-13 4.62954E-13 4.62954E-13 0.00000E+00 0.00000E+00 0.00000E+00
 -1      4637 4.42083E-13 4.42083E-13 4.42083E-13 0.00000E+00 0.00000E+00 0.00000E+00
 -1      4638 4.38289E-13 4.38289E-13 4.38289E-13 0.00000E+00 0.00000E+00 0.00000E+00
 -1      4639 4.40186E-13 4.40186E-13 4.40186E-13 0.00000E+00 0.00000E+00 0.00000E+00
 -1      4640 4.53784E-13 4.53784E-13 4.53784E-13 0.00000E+00 0.00000E+00 0.00000E+00
 -1      4641 4.62954E-13 4.62954E-13 4.62954E-13 0.00000E+00 0.00000E+00 0.00000E+00
 -1      4642 4.53784E-13 4.53784E-13 4.53784E-13 0.00000E+00 0.00000E+00 0.00000E+00
 -1      4643 4.42716E-13 4.42716E-13 4.42716E-13 0.00000E+00 0.00000E+00 0.00000E+00
 -1      4644 4.40502E-13 4.40502E-13 4.40502E-13 0.00000E+00 0.00000E+00 0.00000E+00
 -1      4645 4.53784E-13 4.53784E-13 4.53784E-13 0.00000E+00 0.00000E+00 0.00000E+00
 -1      4646 4.64852E-13 4.64852E-13 4.64852E-13 0.00000E+00 0.00000E+00 0.00000E+00
 -1      4647 4.64852E-13 4.64852E-13 4.64852E-13 0.00000E+00 0.00000E+00 0.00000E+00
 -1      4648 4.64852E-13 4.64852E-13 4.64852E-13 0.00000E+00 0.00000E+00 0.00000E+00
 -1      4649 4.62638E-13 4.62638E-13 4.62638E-13 0.00000E+00 0.00000E+00 0.00000E+00
 -1      4650 4.62638E-13 4.62638E-13 4.62638E-13 0.00000E+00 0.00000E+00 0.00000E+00
 -1      4651 4.64852E-13 4.64852E-13 4.64852E-13 0.00000E+00 0.00000E+00 0.00000E+00
 -1      4652 4.64852E-13 4.64852E-13 4.64852E-13 0.00000E+00 0.00000E+00 0.00000E+00
 -1      4653 4.64852E-13 4.64852E-13 4.64852E-13 0.00000E+00 0.00000E+00 0.00000E+00
 -1      4654 4.62638E-13 4.62638E-13 4.62638E-13 0.00000E+00 0.00000E+00 0.00000E+00
 -1      4655 4.64852E-13 4.64852E-13 4.64852E-13 0.00000E+00 0.00000E+00 0.00000E+00
 -1      4656 4.64852E-13 4.64852E-13 4.64852E-13 0.00000E+00 0.00000E+00 0.00000E+00
 -1      4657 4.64852E-13 4.64852E-13 4.64852E-13 0.00000E+00 0.00000E+00 0.00000E+00
 -1      4658 4.64852E-13 4.64852E-13 4.64852E-13 0.00000E+00 0.00000E+00 0.00000E+00
 -1      4659 4.64852E-13 4.64852E-13 4.64852E-13 0.00000E+00 0.00000E+00 0.00000E+00
 -1      4660 4.64852E-13 4.64852E-13 4.64852E-13 0.00000E+00 0.00000E+00 0.00000E+00
 -1      4661 4.64852E-13 4.64852E-13 4.64852E-13 0.00000E+00 0.00000E+00 0.00000E+00
 -1      4662 4.64852E-13 4.64852E-13 4.64852E-13 0.00000E+00 0.00000E+00 0.00000E+00
 -1      4663 4.64852E-13 4.64852E-13 4.64852E-13 0.00000E+00 0.00000E+00 0.00000E+00
 -1      4664 4.64852E-13 4.64852E-13 4.64852E-13 0.00000E+00 0.00000E+00 0.00000E+00
 -1      4665 4.64852E-13 4.64852E-13 4.64852E-13 0.00000E+00 0.00000E+00 0.00000E+00
 -1      4666 4.64852E-13 4.64852E-13 4.64852E-13 0.00000E+00 0.00000E+00 0.00000E+00
 -1      4667 4.64852E-13 4.64852E-13 4.64852E-13 0.00000E+00 0.00000E+00 0.00000E+00
 -1      4668 4.64852E-13 4.64852E-13 4.64852E-13 0.00000E+00 0.00000E+00 0.00000E+00
 -1      4669 4.64852E-13 4.64852E-13 4.64852E-13 0.00000E+00 0.00000E+00 0.00000E+00
 -1      4670 4.64852E-13 4.64852E-13 4.64852E-13 0.00000E+00 0.00000E+00 0.00000E+00
 -1      4671 4.64852E-13 4.64852E-13 4.64852E-13 0.00000E+00 0.00000E+00 0.00000E+00
 -1      4672 4.64852E-13 4.64852E-13 4.64852E-13 0.00000E+00 0.00000E+00 0.00000E+00
 -1      4673 4.64852E-13 4.64852E-13 4.64852E-13 0.00000E+00 0.00000E+00 0.00000E+00
 -1      4674 4.64852E-13 4.64852E-13 4.64852E-13 0.00000E+00 0.00000E+00 0.00000E+00
 -1      4675 4.44929E-13 4.44929E-13 4.44929E-13 0.00000E+00 0.00000E+00 0.00000E+00
 -1      4676 4.42716E-13 4.42716E-13 4.42716E-13 0.00000E+00 0.00000E+00 0.00000E+00
 -1      4677 4.51570E-13 4.51570E-13 4.51570E-13 0.00000E+00 0.00000E+00 0.00000E+00
 -1      4678 4.38289E-13 4.38289E-13 4.38289E-13 0.00000E+00 0.00000E+00 0.00000E+00
 -1      4679 4.51570E-13 4.51570E-13 4.51570E-13 0.00000E+00 0.00000E+00 0.00000E+00
 -1      4680 4.62638E-13 4.62638E-13 4.62638E-13 0.00000E+00 0.00000E+00 0.00000E+00
 -1      4681 4.64852E-13 4.64852E-13 4.64852E-13 0.00000E+00 0.00000E+00 0.00000E+00
 -1      4682 4.38289E-13 4.38289E-13 4.38289E-13 0.00000E+00 0.00000E+00 0.00000E+00
 -1      4683 4.64852E-13 4.64852E-13 4.64852E-13 0.00000E+00 0.00000E+00 0.00000E+00
 -1      4684 4.64852E-13 4.64852E-13 4.64852E-13 0.00000E+00 0.00000E+00 0.00000E+00
 -1      4685 4.64852E-13 4.64852E-13 4.64852E-13 0.00000E+00 0.00000E+00 0.00000E+00
 -1      4686 4.64852E-13 4.64852E-13 4.64852E-13 0.00000E+00 0.00000E+00 0.00000E+00
 -1      4687 4.62638E-13 4.62638E-13 4.62638E-13 0.00000E+00 0.00000E+00 0.00000E+00
 -1      4688 4.51570E-13 4.51570E-13 4.51570E-13 0.00000E+00 0.00000E+00 0.00000E+00
 -1      4689 4.55997E-13 4.55997E-13 4.55997E-13 0.00000E+00 0.00000E+00 0.00000E+00
 -1      4690 4.58211E-13 4.58211E-13 4.58211E-13 0.00000E+00 0.00000E+00 0.00000E+00
 -1      4691 4.58211E-13 4.58211E-13 4.58211E-13 0.00000E+00 0.00000E+00 0.00000E+00
 -1      4692 4.60425E-13 4.60425E-13 4.60425E-13 0.00000E+00 0.00000E+00 0.00000E+00
 -1      4693 4.42716E-13 4.42716E-13 4.42716E-13 0.00000E+00 0.00000E+00 0.00000E+00
 -1      4694 4.51570E-13 4.51570E-13 4.51570E-13 0.00000E+00 0.00000E+00 0.00000E+00
 -1      4695 4.42083E-13 4.42083E-13 4.42083E-13 0.00000E+00 0.00000E+00 0.00000E+00
 -1      4696 4.64852E-13 4.64852E-13 4.64852E-13 0.00000E+00 0.00000E+00 0.00000E+00
 -1      4697 4.38289E-13 4.38289E-13 4.38289E-13 0.00000E+00 0.00000E+00 0.00000E+00
 -1      4698 4.38289E-13 4.38289E-13 4.38289E-13 0.00000E+00 0.00000E+00 0.00000E+00
 -1      4699 4.38289E-13 4.38289E-13 4.38289E-13 0.00000E+00 0.00000E+00 0.00000E+00
 -1      4700 4.38289E-13 4.38289E-13 4.38289E-13 0.00000E+00 0.00000E+00 0.00000E+00
 -1      4701 4.38289E-13 4.38289E-13 4.38289E-13 0.00000E+00 0.00000E+00 0.00000E+00
 -1      4702 4.38289E-13 4.38289E-13 4.38289E-13 0.00000E+00 0.00000E+00 0.00000E+00
 -1      4703 4.38289E-13 4.38289E-13 4.38289E-13 0.00000E+00 0.00000E+00 0.00000E+00
 -1      4704 4.38289E-13 4.38289E-13 4.38289E-13 0.00000E+00 0.00000E+00 0.00000E+00
 -1      4705 4.64852E-13 4.64852E-13 4.64852E-13 0.00000E+00 0.00000E+00 0.00000E+00
 -1      4706 4.64852E-13 4.64852E-13 4.64852E-13 0.00000E+00 0.00000E+00 0.00000E+00
 -1      4707 4.64852E-13 4.64852E-13 4.64852E-13 0.00000E+00 0.00000E+00 0.00000E+00
 -1      4708 4.64852E-13 4.64852E-13 4.64852E-13 0.00000E+00 0.00000E+00 0.00000E+00
 -1      4709 4.62638E-13 4.62638E-13 4.62638E-13 0.00000E+00 0.00000E+00 0.00000E+00
 -1      4710 4.38289E-13 4.38289E-13 4.38289E-13 0.00000E+00 0.00000E+00 0.00000E+00
 -1      4711 4.64852E-13 4.64852E-13 4.64852E-13 0.00000E+00 0.00000E+00 0.00000E+00
 -1      4712 4.64852E-13 4.64852E-13 4.64852E-13 0.00000E+00 0.00000E+00 0.00000E+00
 -1      4713 4.64852E-13 4.64852E-13 4.64852E-13 0.00000E+00 0.00000E+00 0.00000E+00
 -1      4714 4.38289E-13 4.38289E-13 4.38289E-13 0.00000E+00 0.00000E+00 0.00000E+00
 -1      4715 4.64852E-13 4.64852E-13 4.64852E-13 0.00000E+00 0.00000E+00 0.00000E+00
 -1      4716 4.38289E-13 4.38289E-13 4.38289E-13 0.00000E+00 0.00000E+00 0.00000E+00
 -1      4717 4.64852E-13 4.64852E-13 4.64852E-13 0.00000E+00 0.00000E+00 0.00000E+00
 -1      4718 4.64852E-13 4.64852E-13 4.64852E-13 0.00000E+00 0.00000E+00 0.00000E+00
 -1      4719 4.64852E-13 4.64852E-13 4.64852E-13 0.00000E+00 0.00000E+00 0.00000E+00
 -1      4720 4.64852E-13 4.64852E-13 4.64852E-13 0.00000E+00 0.00000E+00 0.00000E+00
 -1      4721 4.64852E-13 4.64852E-13 4.64852E-13 0.00000E+00 0.00000E+00 0.00000E+00
 -1      4722 4.64852E-13 4.64852E-13 4.64852E-13 0.00000E+00 0.00000E+00 0.00000E+00
 -1      4723 4.64852E-13 4.64852E-13 4.64852E-13 0.00000E+00 0.00000E+00 0.00000E+00
 -1      4724 4.64852E-13 4.64852E-13 4.64852E-13 0.00000E+00 0.00000E+00 0.00000E+00
 -1      4725 4.64852E-13 4.64852E-13 4.64852E-13 0.00000E+00 0.00000E+00 0.00000E+00
 -1      4726 4.62195E-13 4.62195E-13 4.62195E-13 0.00000E+00 0.00000E+00 0.00000E+00
 -1      4727 4.64852E-13 4.64852E-13 4.64852E-13 0.00000E+00 0.00000E+00 0.00000E+00
 -1      4728 4.64852E-13 4.64852E-13 4.64852E-13 0.00000E+00 0.00000E+00 0.00000E+00
 -1      4729 4.64852E-13 4.64852E-13 4.64852E-13 0.00000E+00 0.00000E+00 0.00000E+00
 -1      4730 4.38289E-13 4.38289E-13 4.38289E-13 0.00000E+00 0.00000E+00 0.00000E+00
 -1      4731 4.42716E-13 4.42716E-13 4.42716E-13 0.00000E+00 0.00000E+00 0.00000E+00
 -1      4732 4.55997E-13 4.55997E-13 4.55997E-13 0.00000E+00 0.00000E+00 0.00000E+00
 -1      4733 4.51570E-13 4.51570E-13 4.51570E-13 0.00000E+00 0.00000E+00 0.00000E+00
 -1      4734 4.51570E-13 4.51570E-13 4.51570E-13 0.00000E+00 0.00000E+00 0.00000E+00
 -1      4735 4.64852E-13 4.64852E-13 4.64852E-13 0.00000E+00 0.00000E+00 0.00000E+00
 -1      4736 4.64852E-13 4.64852E-13 4.64852E-13 0.00000E+00 0.00000E+00 0.00000E+00
 -1      4737 4.64852E-13 4.64852E-13 4.64852E-13 0.00000E+00 0.00000E+00 0.00000E+00
 -1      4738 4.64852E-13 4.64852E-13 4.64852E-13 0.00000E+00 0.00000E+00 0.00000E+00
 -1      4739 4.64852E-13 4.64852E-13 4.64852E-13 0.00000E+00 0.00000E+00 0.00000E+00
 -1      4740 4.64852E-13 4.64852E-13 4.64852E-13 0.00000E+00 0.00000E+00 0.00000E+00
 -1      4741 4.64852E-13 4.64852E-13 4.64852E-13 0.00000E+00 0.00000E+00 0.00000E+00
 -1      4742 4.64852E-13 4.64852E-13 4.64852E-13 0.00000E+00 0.00000E+00 0.00000E+00
 -1      4743 4.64852E-13 4.64852E-13 4.64852E-13 0.00000E+00 0.00000E+00 0.00000E+00
 -1      4744 4.64852E-13 4.64852E-13 4.64852E-13 0.00000E+00 0.00000E+00 0.00000E+00
 -1      4745 4.64852E-13 4.64852E-13 4.64852E-13 0.00000E+00 0.00000E+00 0.00000E+00
 -1      4746 4.64852E-13 4.64852E-13 4.64852E-13 0.00000E+00 0.00000E+00 0.00000E+00
 -1      4747 4.64852E-13 4.64852E-13 4.64852E-13 0.00000E+00 0.00000E+00 0.00000E+00
 -1      4748 4.64852E-13 4.64852E-13 4.64852E-13 0.00000E+00 0.00000E+00 0.00000E+00
 -1      4749 4.64852E-13 4.64852E-13 4.64852E-13 0.00000E+00 0.00000E+00 0.00000E+00
 -1      4750 4.64852E-13 4.64852E-13 4.64852E-13 0.00000E+00 0.00000E+00 0.00000E+00
 -1      4751 4.47143E-13 4.47143E-13 4.47143E-13 0.00000E+00 0.00000E+00 0.00000E+00
 -1      4752 4.38289E-13 4.38289E-13 4.38289E-13 0.00000E+00 0.00000E+00 0.00000E+00
 -1      4753 4.38289E-13 4.38289E-13 4.38289E-13 0.00000E+00 0.00000E+00 0.00000E+00
 -1      4754 4.38289E-13 4.38289E-13 4.38289E-13 0.00000E+00 0.00000E+00 0.00000E+00
 -1      4755 4.38289E-13 4.38289E-13 4.38289E-13 0.00000E+00 0.00000E+00 0.00000E+00
 -1      4756 4.64852E-13 4.64852E-13 4.64852E-13 0.00000E+00 0.00000E+00 0.00000E+00
 -1      4757 4.64852E-13 4.64852E-13 4.64852E-13 0.00000E+00 0.00000E+00 0.00000E+00
 -1      4758 4.64852E-13 4.64852E-13 4.64852E-13 0.00000E+00 0.00000E+00 0.00000E+00
 -1      4759 4.64852E-13 4.64852E-13 4.64852E-13 0.00000E+00 0.00000E+00 0.00000E+00
 -1      4760 4.51570E-13 4.51570E-13 4.51570E-13 0.00000E+00 0.00000E+00 0.00000E+00
 -1      4761 4.38289E-13 4.38289E-13 4.38289E-13 0.00000E+00 0.00000E+00 0.00000E+00
 -1      4762 4.64852E-13 4.64852E-13 4.64852E-13 0.00000E+00 0.00000E+00 0.00000E+00
 -1      4763 4.64852E-13 4.64852E-13 4.64852E-13 0.00000E+00 0.00000E+00 0.00000E+00
 -1      4764 4.59160E-13 4.59160E-13 4.59160E-13 0.00000E+00 0.00000E+00 0.00000E+00
 -1      4765 4.64852E-13 4.64852E-13 4.64852E-13 0.00000E+00 0.00000E+00 0.00000E+00
 -1      4766 4.64852E-13 4.64852E-13 4.64852E-13 0.00000E+00 0.00000E+00 0.00000E+00
 -1      4767 4.64852E-13 4.64852E-13 4.64852E-13 0.00000E+00 0.00000E+00 0.00000E+00
 -1      4768 4.64852E-13 4.64852E-13 4.64852E-13 0.00000E+00 0.00000E+00 0.00000E+00
 -1      4769 4.42716E-13 4.42716E-13 4.42716E-13 0.00000E+00 0.00000E+00 0.00000E+00
 -1      4770 4.64852E-13 4.64852E-13 4.64852E-13 0.00000E+00 0.00000E+00 0.00000E+00
 -1      4771 4.38289E-13 4.38289E-13 4.38289E-13 0.00000E+00 0.00000E+00 0.00000E+00
 -1      4772 4.64852E-13 4.64852E-13 4.64852E-13 0.00000E+00 0.00000E+00 0.00000E+00
 -1      4773 4.64852E-13 4.64852E-13 4.64852E-13 0.00000E+00 0.00000E+00 0.00000E+00
 -1      4774 4.58211E-13 4.58211E-13 4.58211E-13 0.00000E+00 0.00000E+00 0.00000E+00
 -1      4775 4.62195E-13 4.62195E-13 4.62195E-13 0.00000E+00 0.00000E+00 0.00000E+00
 -1      4776 4.38289E-13 4.38289E-13 4.38289E-13 0.00000E+00 0.00000E+00 0.00000E+00
 -1      4777 4.64852E-13 4.64852E-13 4.64852E-13 0.00000E+00 0.00000E+00 0.00000E+00
 -1      4778 4.40186E-13 4.40186E-13 4.40186E-13 0.00000E+00 0.00000E+00 0.00000E+00
 -1      4779 4.40186E-13 4.40186E-13 4.40186E-13 0.00000E+00 0.00000E+00 0.00000E+00
 -1      4780 4.64852E-13 4.64852E-13 4.64852E-13 0.00000E+00 0.00000E+00 0.00000E+00
 -1      4781 4.64852E-13 4.64852E-13 4.64852E-13 0.00000E+00 0.00000E+00 0.00000E+00
 -1      4782 4.43981E-13 4.43981E-13 4.43981E-13 0.00000E+00 0.00000E+00 0.00000E+00
 -1      4783 4.38289E-13 4.38289E-13 4.38289E-13 0.00000E+00 0.00000E+00 0.00000E+00
 -1      4784 4.42083E-13 4.42083E-13 4.42083E-13 0.00000E+00 0.00000E+00 0.00000E+00
 -1      4785 4.64852E-13 4.64852E-13 4.64852E-13 0.00000E+00 0.00000E+00 0.00000E+00
 -1      4786 4.64852E-13 4.64852E-13 4.64852E-13 0.00000E+00 0.00000E+00 0.00000E+00
 -1      4787 4.64852E-13 4.64852E-13 4.64852E-13 0.00000E+00 0.00000E+00 0.00000E+00
 -1      4788 4.64852E-13 4.64852E-13 4.64852E-13 0.00000E+00 0.00000E+00 0.00000E+00
 -1      4789 4.64852E-13 4.64852E-13 4.64852E-13 0.00000E+00 0.00000E+00 0.00000E+00
 -1      4790 4.64852E-13 4.64852E-13 4.64852E-13 0.00000E+00 0.00000E+00 0.00000E+00
 -1      4791 4.83825E-13 4.83825E-13 4.83825E-13 0.00000E+00 0.00000E+00 0.00000E+00
 -1      4792 4.73706E-13 4.73706E-13 4.73706E-13 0.00000E+00 0.00000E+00 0.00000E+00
 -1      4793 4.64852E-13 4.64852E-13 4.64852E-13 0.00000E+00 0.00000E+00 0.00000E+00
 -1      4794 4.64852E-13 4.64852E-13 4.64852E-13 0.00000E+00 0.00000E+00 0.00000E+00
 -1      4795 4.64852E-13 4.64852E-13 4.64852E-13 0.00000E+00 0.00000E+00 0.00000E+00
 -1      4796 4.64852E-13 4.64852E-13 4.64852E-13 0.00000E+00 0.00000E+00 0.00000E+00
 -1      4797 4.64852E-13 4.64852E-13 4.64852E-13 0.00000E+00 0.00000E+00 0.00000E+00
 -1      4798 4.58211E-13 4.58211E-13 4.58211E-13 0.00000E+00 0.00000E+00 0.00000E+00
 -1      4799 4.42083E-13 4.42083E-13 4.42083E-13 0.00000E+00 0.00000E+00 0.00000E+00
 -1      4800 4.42716E-13 4.42716E-13 4.42716E-13 0.00000E+00 0.00000E+00 0.00000E+00
 -1      4801 4.64852E-13 4.64852E-13 4.64852E-13 0.00000E+00 0.00000E+00 0.00000E+00
 -1      4802 4.40502E-13 4.40502E-13 4.40502E-13 0.00000E+00 0.00000E+00 0.00000E+00
 -1      4803 4.38289E-13 4.38289E-13 4.38289E-13 0.00000E+00 0.00000E+00 0.00000E+00
 -1      4804 4.51570E-13 4.51570E-13 4.51570E-13 0.00000E+00 0.00000E+00 0.00000E+00
 -1      4805 4.64852E-13 4.64852E-13 4.64852E-13 0.00000E+00 0.00000E+00 0.00000E+00
 -1      4806 4.42083E-13 4.42083E-13 4.42083E-13 0.00000E+00 0.00000E+00 0.00000E+00
 -1      4807 4.38289E-13 4.38289E-13 4.38289E-13 0.00000E+00 0.00000E+00 0.00000E+00
 -1      4808 4.38289E-13 4.38289E-13 4.38289E-13 0.00000E+00 0.00000E+00 0.00000E+00
 -1      4809 4.64852E-13 4.64852E-13 4.64852E-13 0.00000E+00 0.00000E+00 0.00000E+00
 -1      4810 4.64852E-13 4.64852E-13 4.64852E-13 0.00000E+00 0.00000E+00 0.00000E+00
 -1      4811 4.64852E-13 4.64852E-13 4.64852E-13 0.00000E+00 0.00000E+00 0.00000E+00
 -1      4812 4.64852E-13 4.64852E-13 4.64852E-13 0.00000E+00 0.00000E+00 0.00000E+00
 -1      4813 4.64852E-13 4.64852E-13 4.64852E-13 0.00000E+00 0.00000E+00 0.00000E+00
 -1      4814 4.64852E-13 4.64852E-13 4.64852E-13 0.00000E+00 0.00000E+00 0.00000E+00
 -1      4815 4.38289E-13 4.38289E-13 4.38289E-13 0.00000E+00 0.00000E+00 0.00000E+00
 -1      4816 4.45878E-13 4.45878E-13 4.45878E-13 0.00000E+00 0.00000E+00 0.00000E+00
 -1      4817 4.64852E-13 4.64852E-13 4.64852E-13 0.00000E+00 0.00000E+00 0.00000E+00
 -1      4818 4.44929E-13 4.44929E-13 4.44929E-13 0.00000E+00 0.00000E+00 0.00000E+00
 -1      4819 4.64852E-13 4.64852E-13 4.64852E-13 0.00000E+00 0.00000E+00 0.00000E+00
 -1      4820 4.64852E-13 4.64852E-13 4.64852E-13 0.00000E+00 0.00000E+00 0.00000E+00
 -1      4821 4.64852E-13 4.64852E-13 4.64852E-13 0.00000E+00 0.00000E+00 0.00000E+00
 -1      4822 4.38289E-13 4.38289E-13 4.38289E-13 0.00000E+00 0.00000E+00 0.00000E+00
 -1      4823 4.64852E-13 4.64852E-13 4.64852E-13 0.00000E+00 0.00000E+00 0.00000E+00
 -1      4824 4.38289E-13 4.38289E-13 4.38289E-13 0.00000E+00 0.00000E+00 0.00000E+00
 -1      4825 4.64852E-13 4.64852E-13 4.64852E-13 0.00000E+00 0.00000E+00 0.00000E+00
 -1      4826 4.42083E-13 4.42083E-13 4.42083E-13 0.00000E+00 0.00000E+00 0.00000E+00
 -1      4827 4.38289E-13 4.38289E-13 4.38289E-13 0.00000E+00 0.00000E+00 0.00000E+00
 -1      4828 4.64852E-13 4.64852E-13 4.64852E-13 0.00000E+00 0.00000E+00 0.00000E+00
 -1      4829 4.38289E-13 4.38289E-13 4.38289E-13 0.00000E+00 0.00000E+00 0.00000E+00
 -1      4830 4.53468E-13 4.53468E-13 4.53468E-13 0.00000E+00 0.00000E+00 0.00000E+00
 -1      4831 4.38289E-13 4.38289E-13 4.38289E-13 0.00000E+00 0.00000E+00 0.00000E+00
 -1      4832 4.38289E-13 4.38289E-13 4.38289E-13 0.00000E+00 0.00000E+00 0.00000E+00
 -1      4833 4.38289E-13 4.38289E-13 4.38289E-13 0.00000E+00 0.00000E+00 0.00000E+00
 -1      4834 4.64852E-13 4.64852E-13 4.64852E-13 0.00000E+00 0.00000E+00 0.00000E+00
 -1      4835 4.64852E-13 4.64852E-13 4.64852E-13 0.00000E+00 0.00000E+00 0.00000E+00
 -1      4836 4.38289E-13 4.38289E-13 4.38289E-13 0.00000E+00 0.00000E+00 0.00000E+00
 -1      4837 4.40502E-13 4.40502E-13 4.40502E-13 0.00000E+00 0.00000E+00 0.00000E+00
 -1      4838 4.64852E-13 4.64852E-13 4.64852E-13 0.00000E+00 0.00000E+00 0.00000E+00
 -1      4839 4.49673E-13 4.49673E-13 4.49673E-13 0.00000E+00 0.00000E+00 0.00000E+00
 -1      4840 4.60425E-13 4.60425E-13 4.60425E-13 0.00000E+00 0.00000E+00 0.00000E+00
 -1      4841 4.64852E-13 4.64852E-13 4.64852E-13 0.00000E+00 0.00000E+00 0.00000E+00
 -1      4842 4.64852E-13 4.64852E-13 4.64852E-13 0.00000E+00 0.00000E+00 0.00000E+00
 -1      4843 4.40502E-13 4.40502E-13 4.40502E-13 0.00000E+00 0.00000E+00 0.00000E+00
 -1      4844 4.38289E-13 4.38289E-13 4.38289E-13 0.00000E+00 0.00000E+00 0.00000E+00
 -1      4845 4.42716E-13 4.42716E-13 4.42716E-13 0.00000E+00 0.00000E+00 0.00000E+00
 -1      4846 4.38289E-13 4.38289E-13 4.38289E-13 0.00000E+00 0.00000E+00 0.00000E+00
 -1      4847 4.64852E-13 4.64852E-13 4.64852E-13 0.00000E+00 0.00000E+00 0.00000E+00
 -1      4848 4.64852E-13 4.64852E-13 4.64852E-13 0.00000E+00 0.00000E+00 0.00000E+00
 -1      4849 4.60425E-13 4.60425E-13 4.60425E-13 0.00000E+00 0.00000E+00 0.00000E+00
 -1      4850 4.60425E-13 4.60425E-13 4.60425E-13 0.00000E+00 0.00000E+00 0.00000E+00
 -1      4851 4.64852E-13 4.64852E-13 4.64852E-13 0.00000E+00 0.00000E+00 0.00000E+00
 -1      4852 4.64852E-13 4.64852E-13 4.64852E-13 0.00000E+00 0.00000E+00 0.00000E+00
 -1      4853 4.38289E-13 4.38289E-13 4.38289E-13 0.00000E+00 0.00000E+00 0.00000E+00
 -1      4854 4.51570E-13 4.51570E-13 4.51570E-13 0.00000E+00 0.00000E+00 0.00000E+00
 -1      4855 4.38289E-13 4.38289E-13 4.38289E-13 0.00000E+00 0.00000E+00 0.00000E+00
 -1      4856 4.64852E-13 4.64852E-13 4.64852E-13 0.00000E+00 0.00000E+00 0.00000E+00
 -1      4857 4.38289E-13 4.38289E-13 4.38289E-13 0.00000E+00 0.00000E+00 0.00000E+00
 -1      4858 4.64852E-13 4.64852E-13 4.64852E-13 0.00000E+00 0.00000E+00 0.00000E+00
 -1      4859 4.64852E-13 4.64852E-13 4.64852E-13 0.00000E+00 0.00000E+00 0.00000E+00
 -1      4860 4.64852E-13 4.64852E-13 4.64852E-13 0.00000E+00 0.00000E+00 0.00000E+00
 -1      4861 4.38289E-13 4.38289E-13 4.38289E-13 0.00000E+00 0.00000E+00 0.00000E+00
 -1      4862 4.38289E-13 4.38289E-13 4.38289E-13 0.00000E+00 0.00000E+00 0.00000E+00
 -1      4863 4.64852E-13 4.64852E-13 4.64852E-13 0.00000E+00 0.00000E+00 0.00000E+00
 -1      4864 4.64852E-13 4.64852E-13 4.64852E-13 0.00000E+00 0.00000E+00 0.00000E+00
 -1      4865 4.38289E-13 4.38289E-13 4.38289E-13 0.00000E+00 0.00000E+00 0.00000E+00
 -1      4866 4.64852E-13 4.64852E-13 4.64852E-13 0.00000E+00 0.00000E+00 0.00000E+00
 -1      4867 4.64852E-13 4.64852E-13 4.64852E-13 0.00000E+00 0.00000E+00 0.00000E+00
 -1      4868 4.62638E-13 4.62638E-13 4.62638E-13 0.00000E+00 0.00000E+00 0.00000E+00
 -1      4869 4.45878E-13 4.45878E-13 4.45878E-13 0.00000E+00 0.00000E+00 0.00000E+00
 -1      4870 4.62638E-13 4.62638E-13 4.62638E-13 0.00000E+00 0.00000E+00 0.00000E+00
 -1      4871 4.51570E-13 4.51570E-13 4.51570E-13 0.00000E+00 0.00000E+00 0.00000E+00
 -1      4872 4.64852E-13 4.64852E-13 4.64852E-13 0.00000E+00 0.00000E+00 0.00000E+00
 -1      4873 4.38289E-13 4.38289E-13 4.38289E-13 0.00000E+00 0.00000E+00 0.00000E+00
 -1      4874 4.64852E-13 4.64852E-13 4.64852E-13 0.00000E+00 0.00000E+00 0.00000E+00
 -1      4875 4.42083E-13 4.42083E-13 4.42083E-13 0.00000E+00 0.00000E+00 0.00000E+00
 -1      4876 4.38289E-13 4.38289E-13 4.38289E-13 0.00000E+00 0.00000E+00 0.00000E+00
 -1      4877 4.38289E-13 4.38289E-13 4.38289E-13 0.00000E+00 0.00000E+00 0.00000E+00
 -1      4878 4.38289E-13 4.38289E-13 4.38289E-13 0.00000E+00 0.00000E+00 0.00000E+00
 -1      4879 4.38289E-13 4.38289E-13 4.38289E-13 0.00000E+00 0.00000E+00 0.00000E+00
 -1      4880 4.38289E-13 4.38289E-13 4.38289E-13 0.00000E+00 0.00000E+00 0.00000E+00
 -1      4881 4.42716E-13 4.42716E-13 4.42716E-13 0.00000E+00 0.00000E+00 0.00000E+00
 -1      4882 4.47143E-13 4.47143E-13 4.47143E-13 0.00000E+00 0.00000E+00 0.00000E+00
 -1      4883 4.38289E-13 4.38289E-13 4.38289E-13 0.00000E+00 0.00000E+00 0.00000E+00
 -1      4884 4.64852E-13 4.64852E-13 4.64852E-13 0.00000E+00 0.00000E+00 0.00000E+00
 -1      4885 4.38289E-13 4.38289E-13 4.38289E-13 0.00000E+00 0.00000E+00 0.00000E+00
 -1      4886 4.38289E-13 4.38289E-13 4.38289E-13 0.00000E+00 0.00000E+00 0.00000E+00
 -1      4887 4.38289E-13 4.38289E-13 4.38289E-13 0.00000E+00 0.00000E+00 0.00000E+00
 -1      4888 4.38289E-13 4.38289E-13 4.38289E-13 0.00000E+00 0.00000E+00 0.00000E+00
 -1      4889 4.64852E-13 4.64852E-13 4.64852E-13 0.00000E+00 0.00000E+00 0.00000E+00
 -1      4890 4.38289E-13 4.38289E-13 4.38289E-13 0.00000E+00 0.00000E+00 0.00000E+00
 -1      4891 4.64852E-13 4.64852E-13 4.64852E-13 0.00000E+00 0.00000E+00 0.00000E+00
 -1      4892 4.47143E-13 4.47143E-13 4.47143E-13 0.00000E+00 0.00000E+00 0.00000E+00
 -1      4893 4.38289E-13 4.38289E-13 4.38289E-13 0.00000E+00 0.00000E+00 0.00000E+00
 -1      4894 4.38289E-13 4.38289E-13 4.38289E-13 0.00000E+00 0.00000E+00 0.00000E+00
 -1      4895 4.64852E-13 4.64852E-13 4.64852E-13 0.00000E+00 0.00000E+00 0.00000E+00
 -1      4896 4.38289E-13 4.38289E-13 4.38289E-13 0.00000E+00 0.00000E+00 0.00000E+00
 -1      4897 4.42083E-13 4.42083E-13 4.42083E-13 0.00000E+00 0.00000E+00 0.00000E+00
 -1      4898 4.64852E-13 4.64852E-13 4.64852E-13 0.00000E+00 0.00000E+00 0.00000E+00
 -1      4899 4.64852E-13 4.64852E-13 4.64852E-13 0.00000E+00 0.00000E+00 0.00000E+00
 -1      4900 4.38289E-13 4.38289E-13 4.38289E-13 0.00000E+00 0.00000E+00 0.00000E+00
 -1      4901 4.64852E-13 4.64852E-13 4.64852E-13 0.00000E+00 0.00000E+00 0.00000E+00
 -1      4902 4.38289E-13 4.38289E-13 4.38289E-13 0.00000E+00 0.00000E+00 0.00000E+00
 -1      4903 4.38289E-13 4.38289E-13 4.38289E-13 0.00000E+00 0.00000E+00 0.00000E+00
 -1      4904 4.38289E-13 4.38289E-13 4.38289E-13 0.00000E+00 0.00000E+00 0.00000E+00
 -1      4905 4.38289E-13 4.38289E-13 4.38289E-13 0.00000E+00 0.00000E+00 0.00000E+00
 -1      4906 4.38289E-13 4.38289E-13 4.38289E-13 0.00000E+00 0.00000E+00 0.00000E+00
 -1      4907 4.47143E-13 4.47143E-13 4.47143E-13 0.00000E+00 0.00000E+00 0.00000E+00
 -1      4908 4.40502E-13 4.40502E-13 4.40502E-13 0.00000E+00 0.00000E+00 0.00000E+00
 -1      4909 4.55997E-13 4.55997E-13 4.55997E-13 0.00000E+00 0.00000E+00 0.00000E+00
 -1      4910 4.49357E-13 4.49357E-13 4.49357E-13 0.00000E+00 0.00000E+00 0.00000E+00
 -1      4911 4.49357E-13 4.49357E-13 4.49357E-13 0.00000E+00 0.00000E+00 0.00000E+00
 -1      4912 4.47143E-13 4.47143E-13 4.47143E-13 0.00000E+00 0.00000E+00 0.00000E+00
 -1      4913 4.44929E-13 4.44929E-13 4.44929E-13 0.00000E+00 0.00000E+00 0.00000E+00
 -1      4914 4.44929E-13 4.44929E-13 4.44929E-13 0.00000E+00 0.00000E+00 0.00000E+00
 -1      4915 4.47143E-13 4.47143E-13 4.47143E-13 0.00000E+00 0.00000E+00 0.00000E+00
 -1      4916 4.44929E-13 4.44929E-13 4.44929E-13 0.00000E+00 0.00000E+00 0.00000E+00
 -1      4917 4.51570E-13 4.51570E-13 4.51570E-13 0.00000E+00 0.00000E+00 0.00000E+00
 -1      4918 4.44929E-13 4.44929E-13 4.44929E-13 0.00000E+00 0.00000E+00 0.00000E+00
 -1      4919 4.49357E-13 4.49357E-13 4.49357E-13 0.00000E+00 0.00000E+00 0.00000E+00
 -1      4920 4.38289E-13 4.38289E-13 4.38289E-13 0.00000E+00 0.00000E+00 0.00000E+00
 -1      4921 4.38289E-13 4.38289E-13 4.38289E-13 0.00000E+00 0.00000E+00 0.00000E+00
 -1      4922 4.42716E-13 4.42716E-13 4.42716E-13 0.00000E+00 0.00000E+00 0.00000E+00
 -1      4923 4.40502E-13 4.40502E-13 4.40502E-13 0.00000E+00 0.00000E+00 0.00000E+00
 -1      4924 4.42716E-13 4.42716E-13 4.42716E-13 0.00000E+00 0.00000E+00 0.00000E+00
 -1      4925 4.47143E-13 4.47143E-13 4.47143E-13 0.00000E+00 0.00000E+00 0.00000E+00
 -1      4926 4.38289E-13 4.38289E-13 4.38289E-13 0.00000E+00 0.00000E+00 0.00000E+00
 -1      4927 4.42716E-13 4.42716E-13 4.42716E-13 0.00000E+00 0.00000E+00 0.00000E+00
 -1      4928 4.40502E-13 4.40502E-13 4.40502E-13 0.00000E+00 0.00000E+00 0.00000E+00
 -1      4929 4.58211E-13 4.58211E-13 4.58211E-13 0.00000E+00 0.00000E+00 0.00000E+00
 -1      4930 4.47143E-13 4.47143E-13 4.47143E-13 0.00000E+00 0.00000E+00 0.00000E+00
 -1      4931 4.58211E-13 4.58211E-13 4.58211E-13 0.00000E+00 0.00000E+00 0.00000E+00
 -1      4932 4.38289E-13 4.38289E-13 4.38289E-13 0.00000E+00 0.00000E+00 0.00000E+00
 -1      4933 4.38289E-13 4.38289E-13 4.38289E-13 0.00000E+00 0.00000E+00 0.00000E+00
 -1      4934 4.38289E-13 4.38289E-13 4.38289E-13 0.00000E+00 0.00000E+00 0.00000E+00
 -1      4935 4.38289E-13 4.38289E-13 4.38289E-13 0.00000E+00 0.00000E+00 0.00000E+00
 -1      4936 4.38289E-13 4.38289E-13 4.38289E-13 0.00000E+00 0.00000E+00 0.00000E+00
 -1      4937 4.38289E-13 4.38289E-13 4.38289E-13 0.00000E+00 0.00000E+00 0.00000E+00
 -1      4938 4.64852E-13 4.64852E-13 4.64852E-13 0.00000E+00 0.00000E+00 0.00000E+00
 -1      4939 4.38289E-13 4.38289E-13 4.38289E-13 0.00000E+00 0.00000E+00 0.00000E+00
 -1      4940 4.60425E-13 4.60425E-13 4.60425E-13 0.00000E+00 0.00000E+00 0.00000E+00
 -1      4941 4.62638E-13 4.62638E-13 4.62638E-13 0.00000E+00 0.00000E+00 0.00000E+00
 -1      4942 4.64852E-13 4.64852E-13 4.64852E-13 0.00000E+00 0.00000E+00 0.00000E+00
 -1      4943 4.64852E-13 4.64852E-13 4.64852E-13 0.00000E+00 0.00000E+00 0.00000E+00
 -1      4944 4.62638E-13 4.62638E-13 4.62638E-13 0.00000E+00 0.00000E+00 0.00000E+00
 -1      4945 4.64852E-13 4.64852E-13 4.64852E-13 0.00000E+00 0.00000E+00 0.00000E+00
 -1      4946 4.64852E-13 4.64852E-13 4.64852E-13 0.00000E+00 0.00000E+00 0.00000E+00
 -1      4947 4.64852E-13 4.64852E-13 4.64852E-13 0.00000E+00 0.00000E+00 0.00000E+00
 -1      4948 4.64852E-13 4.64852E-13 4.64852E-13 0.00000E+00 0.00000E+00 0.00000E+00
 -1      4949 4.62638E-13 4.62638E-13 4.62638E-13 0.00000E+00 0.00000E+00 0.00000E+00
 -1      4950 4.62638E-13 4.62638E-13 4.62638E-13 0.00000E+00 0.00000E+00 0.00000E+00
 -1      4951 4.62638E-13 4.62638E-13 4.62638E-13 0.00000E+00 0.00000E+00 0.00000E+00
 -1      4952 4.64852E-13 4.64852E-13 4.64852E-13 0.00000E+00 0.00000E+00 0.00000E+00
 -1      4953 4.64852E-13 4.64852E-13 4.64852E-13 0.00000E+00 0.00000E+00 0.00000E+00
 -1      4954 4.62638E-13 4.62638E-13 4.62638E-13 0.00000E+00 0.00000E+00 0.00000E+00
 -1      4955 4.64852E-13 4.64852E-13 4.64852E-13 0.00000E+00 0.00000E+00 0.00000E+00
 -1      4956 4.64852E-13 4.64852E-13 4.64852E-13 0.00000E+00 0.00000E+00 0.00000E+00
 -1      4957 4.64852E-13 4.64852E-13 4.64852E-13 0.00000E+00 0.00000E+00 0.00000E+00
 -1      4958 4.64852E-13 4.64852E-13 4.64852E-13 0.00000E+00 0.00000E+00 0.00000E+00
 -1      4959 4.64852E-13 4.64852E-13 4.64852E-13 0.00000E+00 0.00000E+00 0.00000E+00
 -1      4960 4.64852E-13 4.64852E-13 4.64852E-13 0.00000E+00 0.00000E+00 0.00000E+00
 -1      4961 4.64852E-13 4.64852E-13 4.64852E-13 0.00000E+00 0.00000E+00 0.00000E+00
 -1      4962 4.64852E-13 4.64852E-13 4.64852E-13 0.00000E+00 0.00000E+00 0.00000E+00
 -1      4963 4.58211E-13 4.58211E-13 4.58211E-13 0.00000E+00 0.00000E+00 0.00000E+00
 -1      4964 4.58211E-13 4.58211E-13 4.58211E-13 0.00000E+00 0.00000E+00 0.00000E+00
 -1      4965 4.64852E-13 4.64852E-13 4.64852E-13 0.00000E+00 0.00000E+00 0.00000E+00
 -1      4966 4.64852E-13 4.64852E-13 4.64852E-13 0.00000E+00 0.00000E+00 0.00000E+00
 -1      4967 4.64852E-13 4.64852E-13 4.64852E-13 0.00000E+00 0.00000E+00 0.00000E+00
 -1      4968 4.64852E-13 4.64852E-13 4.64852E-13 0.00000E+00 0.00000E+00 0.00000E+00
 -1      4969 4.64852E-13 4.64852E-13 4.64852E-13 0.00000E+00 0.00000E+00 0.00000E+00
 -1      4970 4.64852E-13 4.64852E-13 4.64852E-13 0.00000E+00 0.00000E+00 0.00000E+00
 -1      4971 4.64852E-13 4.64852E-13 4.64852E-13 0.00000E+00 0.00000E+00 0.00000E+00
 -1      4972 4.64852E-13 4.64852E-13 4.64852E-13 0.00000E+00 0.00000E+00 0.00000E+00
 -1      4973 4.64852E-13 4.64852E-13 4.64852E-13 0.00000E+00 0.00000E+00 0.00000E+00
 -1      4974 4.64852E-13 4.64852E-13 4.64852E-13 0.00000E+00 0.00000E+00 0.00000E+00
 -1      4975 4.64852E-13 4.64852E-13 4.64852E-13 0.00000E+00 0.00000E+00 0.00000E+00
 -1      4976 4.64852E-13 4.64852E-13 4.64852E-13 0.00000E+00 0.00000E+00 0.00000E+00
 -1      4977 4.60425E-13 4.60425E-13 4.60425E-13 0.00000E+00 0.00000E+00 0.00000E+00
 -1      4978 4.38289E-13 4.38289E-13 4.38289E-13 0.00000E+00 0.00000E+00 0.00000E+00
 -1      4979 4.38289E-13 4.38289E-13 4.38289E-13 0.00000E+00 0.00000E+00 0.00000E+00
 -1      4980 4.38289E-13 4.38289E-13 4.38289E-13 0.00000E+00 0.00000E+00 0.00000E+00
 -1      4981 4.38289E-13 4.38289E-13 4.38289E-13 0.00000E+00 0.00000E+00 0.00000E+00
 -1      4982 4.40502E-13 4.40502E-13 4.40502E-13 0.00000E+00 0.00000E+00 0.00000E+00
 -1      4983 4.38289E-13 4.38289E-13 4.38289E-13 0.00000E+00 0.00000E+00 0.00000E+00
 -1      4984 4.42716E-13 4.42716E-13 4.42716E-13 0.00000E+00 0.00000E+00 0.00000E+00
 -1      4985 4.42716E-13 4.42716E-13 4.42716E-13 0.00000E+00 0.00000E+00 0.00000E+00
 -1      4986 4.64852E-13 4.64852E-13 4.64852E-13 0.00000E+00 0.00000E+00 0.00000E+00
 -1      4987 4.64852E-13 4.64852E-13 4.64852E-13 0.00000E+00 0.00000E+00 0.00000E+00
 -1      4988 4.38289E-13 4.38289E-13 4.38289E-13 0.00000E+00 0.00000E+00 0.00000E+00
 -1      4989 4.38289E-13 4.38289E-13 4.38289E-13 0.00000E+00 0.00000E+00 0.00000E+00
 -1      4990 4.62638E-13 4.62638E-13 4.62638E-13 0.00000E+00 0.00000E+00 0.00000E+00
 -1      4991 4.64852E-13 4.64852E-13 4.64852E-13 0.00000E+00 0.00000E+00 0.00000E+00
 -1      4992 4.64852E-13 4.64852E-13 4.64852E-13 0.00000E+00 0.00000E+00 0.00000E+00
 -1      4993 4.38289E-13 4.38289E-13 4.38289E-13 0.00000E+00 0.00000E+00 0.00000E+00
 -1      4994 4.42716E-13 4.42716E-13 4.42716E-13 0.00000E+00 0.00000E+00 0.00000E+00
 -1      4995 4.64852E-13 4.64852E-13 4.64852E-13 0.00000E+00 0.00000E+00 0.00000E+00
 -1      4996 4.42716E-13 4.42716E-13 4.42716E-13 0.00000E+00 0.00000E+00 0.00000E+00
 -1      4997 4.42716E-13 4.42716E-13 4.42716E-13 0.00000E+00 0.00000E+00 0.00000E+00
 -1      4998 4.47143E-13 4.47143E-13 4.47143E-13 0.00000E+00 0.00000E+00 0.00000E+00
 -1      4999 4.64852E-13 4.64852E-13 4.64852E-13 0.00000E+00 0.00000E+00 0.00000E+00
 -1      5000 4.38289E-13 4.38289E-13 4.38289E-13 0.00000E+00 0.00000E+00 0.00000E+00
 -1      5001 4.38289E-13 4.38289E-13 4.38289E-13 0.00000E+00 0.00000E+00 0.00000E+00
 -1      5002 4.53784E-13 4.53784E-13 4.53784E-13 0.00000E+00 0.00000E+00 0.00000E+00
 -1      5003 4.64852E-13 4.64852E-13 4.64852E-13 0.00000E+00 0.00000E+00 0.00000E+00
 -1      5004 4.64852E-13 4.64852E-13 4.64852E-13 0.00000E+00 0.00000E+00 0.00000E+00
 -1      5005 4.53784E-13 4.53784E-13 4.53784E-13 0.00000E+00 0.00000E+00 0.00000E+00
 -1      5006 4.53784E-13 4.53784E-13 4.53784E-13 0.00000E+00 0.00000E+00 0.00000E+00
 -1      5007 4.62638E-13 4.62638E-13 4.62638E-13 0.00000E+00 0.00000E+00 0.00000E+00
 -1      5008 4.64852E-13 4.64852E-13 4.64852E-13 0.00000E+00 0.00000E+00 0.00000E+00
 -1      5009 4.40502E-13 4.40502E-13 4.40502E-13 0.00000E+00 0.00000E+00 0.00000E+00
 -1      5010 4.53784E-13 4.53784E-13 4.53784E-13 0.00000E+00 0.00000E+00 0.00000E+00
 -1      5011 4.42716E-13 4.42716E-13 4.42716E-13 0.00000E+00 0.00000E+00 0.00000E+00
 -1      5012 4.55997E-13 4.55997E-13 4.55997E-13 0.00000E+00 0.00000E+00 0.00000E+00
 -1      5013 4.64852E-13 4.64852E-13 4.64852E-13 0.00000E+00 0.00000E+00 0.00000E+00
 -1      5014 4.64852E-13 4.64852E-13 4.64852E-13 0.00000E+00 0.00000E+00 0.00000E+00
 -1      5015 4.38289E-13 4.38289E-13 4.38289E-13 0.00000E+00 0.00000E+00 0.00000E+00
 -1      5016 4.38289E-13 4.38289E-13 4.38289E-13 0.00000E+00 0.00000E+00 0.00000E+00
 -1      5017 4.38289E-13 4.38289E-13 4.38289E-13 0.00000E+00 0.00000E+00 0.00000E+00
 -1      5018 4.42716E-13 4.42716E-13 4.42716E-13 0.00000E+00 0.00000E+00 0.00000E+00
 -1      5019 4.42716E-13 4.42716E-13 4.42716E-13 0.00000E+00 0.00000E+00 0.00000E+00
 -1      5020 4.58211E-13 4.58211E-13 4.58211E-13 0.00000E+00 0.00000E+00 0.00000E+00
 -1      5021 4.42716E-13 4.42716E-13 4.42716E-13 0.00000E+00 0.00000E+00 0.00000E+00
 -1      5022 4.64852E-13 4.64852E-13 4.64852E-13 0.00000E+00 0.00000E+00 0.00000E+00
 -1      5023 4.64852E-13 4.64852E-13 4.64852E-13 0.00000E+00 0.00000E+00 0.00000E+00
 -1      5024 4.64852E-13 4.64852E-13 4.64852E-13 0.00000E+00 0.00000E+00 0.00000E+00
 -1      5025 4.58211E-13 4.58211E-13 4.58211E-13 0.00000E+00 0.00000E+00 0.00000E+00
 -1      5026 4.62638E-13 4.62638E-13 4.62638E-13 0.00000E+00 0.00000E+00 0.00000E+00
 -1      5027 4.56883E-13 4.56883E-13 4.56883E-13 0.00000E+00 0.00000E+00 0.00000E+00
 -1      5028 4.38289E-13 4.38289E-13 4.38289E-13 0.00000E+00 0.00000E+00 0.00000E+00
 -1      5029 4.38289E-13 4.38289E-13 4.38289E-13 0.00000E+00 0.00000E+00 0.00000E+00
 -1      5030 4.64852E-13 4.64852E-13 4.64852E-13 0.00000E+00 0.00000E+00 0.00000E+00
 -1      5031 4.64852E-13 4.64852E-13 4.64852E-13 0.00000E+00 0.00000E+00 0.00000E+00
 -1      5032 4.64852E-13 4.64852E-13 4.64852E-13 0.00000E+00 0.00000E+00 0.00000E+00
 -1      5033 4.64852E-13 4.64852E-13 4.64852E-13 0.00000E+00 0.00000E+00 0.00000E+00
 -1      5034 4.47143E-13 4.47143E-13 4.47143E-13 0.00000E+00 0.00000E+00 0.00000E+00
 -1      5035 4.38289E-13 4.38289E-13 4.38289E-13 0.00000E+00 0.00000E+00 0.00000E+00
 -1      5036 4.38289E-13 4.38289E-13 4.38289E-13 0.00000E+00 0.00000E+00 0.00000E+00
 -1      5037 4.38289E-13 4.38289E-13 4.38289E-13 0.00000E+00 0.00000E+00 0.00000E+00
 -1      5038 4.38289E-13 4.38289E-13 4.38289E-13 0.00000E+00 0.00000E+00 0.00000E+00
 -1      5039 4.53784E-13 4.53784E-13 4.53784E-13 0.00000E+00 0.00000E+00 0.00000E+00
 -1      5040 4.62954E-13 4.62954E-13 4.62954E-13 0.00000E+00 0.00000E+00 0.00000E+00
 -1      5041 4.62638E-13 4.62638E-13 4.62638E-13 0.00000E+00 0.00000E+00 0.00000E+00
 -1      5042 4.64852E-13 4.64852E-13 4.64852E-13 0.00000E+00 0.00000E+00 0.00000E+00
 -1      5043 4.38289E-13 4.38289E-13 4.38289E-13 0.00000E+00 0.00000E+00 0.00000E+00
 -1      5044 4.62638E-13 4.62638E-13 4.62638E-13 0.00000E+00 0.00000E+00 0.00000E+00
 -1      5045 4.49357E-13 4.49357E-13 4.49357E-13 0.00000E+00 0.00000E+00 0.00000E+00
 -1      5046 4.64852E-13 4.64852E-13 4.64852E-13 0.00000E+00 0.00000E+00 0.00000E+00
 -1      5047 4.61057E-13 4.61057E-13 4.61057E-13 0.00000E+00 0.00000E+00 0.00000E+00
 -1      5048 4.64852E-13 4.64852E-13 4.64852E-13 0.00000E+00 0.00000E+00 0.00000E+00
 -1      5049 4.43601E-13 4.43601E-13 4.43601E-13 0.00000E+00 0.00000E+00 0.00000E+00
 -1      5050 4.43981E-13 4.43981E-13 4.43981E-13 0.00000E+00 0.00000E+00 0.00000E+00
 -1      5051 4.38289E-13 4.38289E-13 4.38289E-13 0.00000E+00 0.00000E+00 0.00000E+00
 -1      5052 4.49357E-13 4.49357E-13 4.49357E-13 0.00000E+00 0.00000E+00 0.00000E+00
 -1      5053 4.51570E-13 4.51570E-13 4.51570E-13 0.00000E+00 0.00000E+00 0.00000E+00
 -1      5054 4.58211E-13 4.58211E-13 4.58211E-13 0.00000E+00 0.00000E+00 0.00000E+00
 -1      5055 4.55997E-13 4.55997E-13 4.55997E-13 0.00000E+00 0.00000E+00 0.00000E+00
 -1      5056 4.55997E-13 4.55997E-13 4.55997E-13 0.00000E+00 0.00000E+00 0.00000E+00
 -1      5057 4.51570E-13 4.51570E-13 4.51570E-13 0.00000E+00 0.00000E+00 0.00000E+00
 -1      5058 4.51570E-13 4.51570E-13 4.51570E-13 0.00000E+00 0.00000E+00 0.00000E+00
 -1      5059 4.58211E-13 4.58211E-13 4.58211E-13 0.00000E+00 0.00000E+00 0.00000E+00
 -1      5060 4.62638E-13 4.62638E-13 4.62638E-13 0.00000E+00 0.00000E+00 0.00000E+00
 -1      5061 4.64852E-13 4.64852E-13 4.64852E-13 0.00000E+00 0.00000E+00 0.00000E+00
 -1      5062 4.64852E-13 4.64852E-13 4.64852E-13 0.00000E+00 0.00000E+00 0.00000E+00
 -1      5063 4.64852E-13 4.64852E-13 4.64852E-13 0.00000E+00 0.00000E+00 0.00000E+00
 -1      5064 4.64852E-13 4.64852E-13 4.64852E-13 0.00000E+00 0.00000E+00 0.00000E+00
 -1      5065 4.64852E-13 4.64852E-13 4.64852E-13 0.00000E+00 0.00000E+00 0.00000E+00
 -1      5066 4.60425E-13 4.60425E-13 4.60425E-13 0.00000E+00 0.00000E+00 0.00000E+00
 -1      5067 4.62638E-13 4.62638E-13 4.62638E-13 0.00000E+00 0.00000E+00 0.00000E+00
 -1      5068 4.58211E-13 4.58211E-13 4.58211E-13 0.00000E+00 0.00000E+00 0.00000E+00
 -1      5069 4.49357E-13 4.49357E-13 4.49357E-13 0.00000E+00 0.00000E+00 0.00000E+00
 -1      5070 4.47143E-13 4.47143E-13 4.47143E-13 0.00000E+00 0.00000E+00 0.00000E+00
 -1      5071 4.42716E-13 4.42716E-13 4.42716E-13 0.00000E+00 0.00000E+00 0.00000E+00
 -1      5072 4.62638E-13 4.62638E-13 4.62638E-13 0.00000E+00 0.00000E+00 0.00000E+00
 -1      5073 4.44929E-13 4.44929E-13 4.44929E-13 0.00000E+00 0.00000E+00 0.00000E+00
 -1      5074 4.49357E-13 4.49357E-13 4.49357E-13 0.00000E+00 0.00000E+00 0.00000E+00
 -1      5075 4.49357E-13 4.49357E-13 4.49357E-13 0.00000E+00 0.00000E+00 0.00000E+00
 -1      5076 4.51570E-13 4.51570E-13 4.51570E-13 0.00000E+00 0.00000E+00 0.00000E+00
 -1      5077 4.47143E-13 4.47143E-13 4.47143E-13 0.00000E+00 0.00000E+00 0.00000E+00
 -1      5078 4.58211E-13 4.58211E-13 4.58211E-13 0.00000E+00 0.00000E+00 0.00000E+00
 -1      5079 4.55997E-13 4.55997E-13 4.55997E-13 0.00000E+00 0.00000E+00 0.00000E+00
 -1      5080 4.64852E-13 4.64852E-13 4.64852E-13 0.00000E+00 0.00000E+00 0.00000E+00
 -1      5081 4.42716E-13 4.42716E-13 4.42716E-13 0.00000E+00 0.00000E+00 0.00000E+00
 -1      5082 4.38289E-13 4.38289E-13 4.38289E-13 0.00000E+00 0.00000E+00 0.00000E+00
 -1      5083 4.51570E-13 4.51570E-13 4.51570E-13 0.00000E+00 0.00000E+00 0.00000E+00
 -1      5084 4.40186E-13 4.40186E-13 4.40186E-13 0.00000E+00 0.00000E+00 0.00000E+00
 -1      5085 4.64852E-13 4.64852E-13 4.64852E-13 0.00000E+00 0.00000E+00 0.00000E+00
 -1      5086 4.57262E-13 4.57262E-13 4.57262E-13 0.00000E+00 0.00000E+00 0.00000E+00
 -1      5087 4.38289E-13 4.38289E-13 4.38289E-13 0.00000E+00 0.00000E+00 0.00000E+00
 -1      5088 4.38289E-13 4.38289E-13 4.38289E-13 0.00000E+00 0.00000E+00 0.00000E+00
 -1      5089 4.64852E-13 4.64852E-13 4.64852E-13 0.00000E+00 0.00000E+00 0.00000E+00
 -1      5090 4.44929E-13 4.44929E-13 4.44929E-13 0.00000E+00 0.00000E+00 0.00000E+00
 -1      5091 4.64852E-13 4.64852E-13 4.64852E-13 0.00000E+00 0.00000E+00 0.00000E+00
 -1      5092 4.44929E-13 4.44929E-13 4.44929E-13 0.00000E+00 0.00000E+00 0.00000E+00
 -1      5093 4.64852E-13 4.64852E-13 4.64852E-13 0.00000E+00 0.00000E+00 0.00000E+00
 -1      5094 4.55997E-13 4.55997E-13 4.55997E-13 0.00000E+00 0.00000E+00 0.00000E+00
 -1      5095 4.42716E-13 4.42716E-13 4.42716E-13 0.00000E+00 0.00000E+00 0.00000E+00
 -1      5096 4.38289E-13 4.38289E-13 4.38289E-13 0.00000E+00 0.00000E+00 0.00000E+00
 -1      5097 4.64852E-13 4.64852E-13 4.64852E-13 0.00000E+00 0.00000E+00 0.00000E+00
 -1      5098 4.38289E-13 4.38289E-13 4.38289E-13 0.00000E+00 0.00000E+00 0.00000E+00
 -1      5099 4.62954E-13 4.62954E-13 4.62954E-13 0.00000E+00 0.00000E+00 0.00000E+00
 -1      5100 4.38289E-13 4.38289E-13 4.38289E-13 0.00000E+00 0.00000E+00 0.00000E+00
 -1      5101 4.38289E-13 4.38289E-13 4.38289E-13 0.00000E+00 0.00000E+00 0.00000E+00
 -1      5102 4.64852E-13 4.64852E-13 4.64852E-13 0.00000E+00 0.00000E+00 0.00000E+00
 -1      5103 4.64852E-13 4.64852E-13 4.64852E-13 0.00000E+00 0.00000E+00 0.00000E+00
 -1      5104 4.64852E-13 4.64852E-13 4.64852E-13 0.00000E+00 0.00000E+00 0.00000E+00
 -1      5105 4.64852E-13 4.64852E-13 4.64852E-13 0.00000E+00 0.00000E+00 0.00000E+00
 -1      5106 4.64852E-13 4.64852E-13 4.64852E-13 0.00000E+00 0.00000E+00 0.00000E+00
 -1      5107 4.64852E-13 4.64852E-13 4.64852E-13 0.00000E+00 0.00000E+00 0.00000E+00
 -1      5108 4.64852E-13 4.64852E-13 4.64852E-13 0.00000E+00 0.00000E+00 0.00000E+00
 -1      5109 4.64852E-13 4.64852E-13 4.64852E-13 0.00000E+00 0.00000E+00 0.00000E+00
 -1      5110 4.38289E-13 4.38289E-13 4.38289E-13 0.00000E+00 0.00000E+00 0.00000E+00
 -1      5111 4.38289E-13 4.38289E-13 4.38289E-13 0.00000E+00 0.00000E+00 0.00000E+00
 -1      5112 4.40502E-13 4.40502E-13 4.40502E-13 0.00000E+00 0.00000E+00 0.00000E+00
 -1      5113 4.42716E-13 4.42716E-13 4.42716E-13 0.00000E+00 0.00000E+00 0.00000E+00
 -1      5114 4.64852E-13 4.64852E-13 4.64852E-13 0.00000E+00 0.00000E+00 0.00000E+00
 -1      5115 4.38289E-13 4.38289E-13 4.38289E-13 0.00000E+00 0.00000E+00 0.00000E+00
 -1      5116 4.40502E-13 4.40502E-13 4.40502E-13 0.00000E+00 0.00000E+00 0.00000E+00
 -1      5117 4.42716E-13 4.42716E-13 4.42716E-13 0.00000E+00 0.00000E+00 0.00000E+00
 -1      5118 4.44929E-13 4.44929E-13 4.44929E-13 0.00000E+00 0.00000E+00 0.00000E+00
 -1      5119 4.42716E-13 4.42716E-13 4.42716E-13 0.00000E+00 0.00000E+00 0.00000E+00
 -1      5120 4.38289E-13 4.38289E-13 4.38289E-13 0.00000E+00 0.00000E+00 0.00000E+00
 -1      5121 4.38289E-13 4.38289E-13 4.38289E-13 0.00000E+00 0.00000E+00 0.00000E+00
 -1      5122 4.38289E-13 4.38289E-13 4.38289E-13 0.00000E+00 0.00000E+00 0.00000E+00
 -1      5123 4.40502E-13 4.40502E-13 4.40502E-13 0.00000E+00 0.00000E+00 0.00000E+00
 -1      5124 4.47143E-13 4.47143E-13 4.47143E-13 0.00000E+00 0.00000E+00 0.00000E+00
 -1      5125 4.49357E-13 4.49357E-13 4.49357E-13 0.00000E+00 0.00000E+00 0.00000E+00
 -1      5126 4.38289E-13 4.38289E-13 4.38289E-13 0.00000E+00 0.00000E+00 0.00000E+00
 -1      5127 4.53784E-13 4.53784E-13 4.53784E-13 0.00000E+00 0.00000E+00 0.00000E+00
 -1      5128 4.64852E-13 4.64852E-13 4.64852E-13 0.00000E+00 0.00000E+00 0.00000E+00
 -1      5129 4.64852E-13 4.64852E-13 4.64852E-13 0.00000E+00 0.00000E+00 0.00000E+00
 -1      5130 4.64852E-13 4.64852E-13 4.64852E-13 0.00000E+00 0.00000E+00 0.00000E+00
 -1      5131 4.64852E-13 4.64852E-13 4.64852E-13 0.00000E+00 0.00000E+00 0.00000E+00
 -1      5132 4.60425E-13 4.60425E-13 4.60425E-13 0.00000E+00 0.00000E+00 0.00000E+00
 -1      5133 4.64852E-13 4.64852E-13 4.64852E-13 0.00000E+00 0.00000E+00 0.00000E+00
 -1      5134 4.64852E-13 4.64852E-13 4.64852E-13 0.00000E+00 0.00000E+00 0.00000E+00
 -1      5135 4.60425E-13 4.60425E-13 4.60425E-13 0.00000E+00 0.00000E+00 0.00000E+00
 -1      5136 4.64852E-13 4.64852E-13 4.64852E-13 0.00000E+00 0.00000E+00 0.00000E+00
 -1      5137 4.64852E-13 4.64852E-13 4.64852E-13 0.00000E+00 0.00000E+00 0.00000E+00
 -1      5138 4.64852E-13 4.64852E-13 4.64852E-13 0.00000E+00 0.00000E+00 0.00000E+00
 -1      5139 4.64852E-13 4.64852E-13 4.64852E-13 0.00000E+00 0.00000E+00 0.00000E+00
 -1      5140 4.38289E-13 4.38289E-13 4.38289E-13 0.00000E+00 0.00000E+00 0.00000E+00
 -1      5141 4.64852E-13 4.64852E-13 4.64852E-13 0.00000E+00 0.00000E+00 0.00000E+00
 -1      5142 4.64852E-13 4.64852E-13 4.64852E-13 0.00000E+00 0.00000E+00 0.00000E+00
 -1      5143 4.38289E-13 4.38289E-13 4.38289E-13 0.00000E+00 0.00000E+00 0.00000E+00
 -1      5144 4.64852E-13 4.64852E-13 4.64852E-13 0.00000E+00 0.00000E+00 0.00000E+00
 -1      5145 4.64852E-13 4.64852E-13 4.64852E-13 0.00000E+00 0.00000E+00 0.00000E+00
 -1      5146 4.64852E-13 4.64852E-13 4.64852E-13 0.00000E+00 0.00000E+00 0.00000E+00
 -1      5147 4.64852E-13 4.64852E-13 4.64852E-13 0.00000E+00 0.00000E+00 0.00000E+00
 -1      5148 4.40502E-13 4.40502E-13 4.40502E-13 0.00000E+00 0.00000E+00 0.00000E+00
 -1      5149 4.64852E-13 4.64852E-13 4.64852E-13 0.00000E+00 0.00000E+00 0.00000E+00
 -1      5150 4.38289E-13 4.38289E-13 4.38289E-13 0.00000E+00 0.00000E+00 0.00000E+00
 -1      5151 4.42716E-13 4.42716E-13 4.42716E-13 0.00000E+00 0.00000E+00 0.00000E+00
 -1      5152 4.64852E-13 4.64852E-13 4.64852E-13 0.00000E+00 0.00000E+00 0.00000E+00
 -1      5153 4.64852E-13 4.64852E-13 4.64852E-13 0.00000E+00 0.00000E+00 0.00000E+00
 -1      5154 4.60425E-13 4.60425E-13 4.60425E-13 0.00000E+00 0.00000E+00 0.00000E+00
 -1      5155 4.60425E-13 4.60425E-13 4.60425E-13 0.00000E+00 0.00000E+00 0.00000E+00
 -1      5156 4.64852E-13 4.64852E-13 4.64852E-13 0.00000E+00 0.00000E+00 0.00000E+00
 -1      5157 4.64852E-13 4.64852E-13 4.64852E-13 0.00000E+00 0.00000E+00 0.00000E+00
 -1      5158 4.64852E-13 4.64852E-13 4.64852E-13 0.00000E+00 0.00000E+00 0.00000E+00
 -1      5159 4.64852E-13 4.64852E-13 4.64852E-13 0.00000E+00 0.00000E+00 0.00000E+00
 -1      5160 4.38289E-13 4.38289E-13 4.38289E-13 0.00000E+00 0.00000E+00 0.00000E+00
 -1      5161 4.58211E-13 4.58211E-13 4.58211E-13 0.00000E+00 0.00000E+00 0.00000E+00
 -1      5162 4.64852E-13 4.64852E-13 4.64852E-13 0.00000E+00 0.00000E+00 0.00000E+00
 -1      5163 4.64852E-13 4.64852E-13 4.64852E-13 0.00000E+00 0.00000E+00 0.00000E+00
 -1      5164 4.64852E-13 4.64852E-13 4.64852E-13 0.00000E+00 0.00000E+00 0.00000E+00
 -1      5165 4.64852E-13 4.64852E-13 4.64852E-13 0.00000E+00 0.00000E+00 0.00000E+00
 -1      5166 4.64852E-13 4.64852E-13 4.64852E-13 0.00000E+00 0.00000E+00 0.00000E+00
 -1      5167 4.64852E-13 4.64852E-13 4.64852E-13 0.00000E+00 0.00000E+00 0.00000E+00
 -1      5168 4.64852E-13 4.64852E-13 4.64852E-13 0.00000E+00 0.00000E+00 0.00000E+00
 -1      5169 4.64852E-13 4.64852E-13 4.64852E-13 0.00000E+00 0.00000E+00 0.00000E+00
 -1      5170 4.64852E-13 4.64852E-13 4.64852E-13 0.00000E+00 0.00000E+00 0.00000E+00
 -1      5171 4.38289E-13 4.38289E-13 4.38289E-13 0.00000E+00 0.00000E+00 0.00000E+00
 -1      5172 4.38289E-13 4.38289E-13 4.38289E-13 0.00000E+00 0.00000E+00 0.00000E+00
 -1      5173 4.38289E-13 4.38289E-13 4.38289E-13 0.00000E+00 0.00000E+00 0.00000E+00
 -1      5174 4.38289E-13 4.38289E-13 4.38289E-13 0.00000E+00 0.00000E+00 0.00000E+00
 -1      5175 4.38289E-13 4.38289E-13 4.38289E-13 0.00000E+00 0.00000E+00 0.00000E+00
 -1      5176 4.38289E-13 4.38289E-13 4.38289E-13 0.00000E+00 0.00000E+00 0.00000E+00
 -1      5177 4.38289E-13 4.38289E-13 4.38289E-13 0.00000E+00 0.00000E+00 0.00000E+00
 -1      5178 4.38289E-13 4.38289E-13 4.38289E-13 0.00000E+00 0.00000E+00 0.00000E+00
 -1      5179 4.38289E-13 4.38289E-13 4.38289E-13 0.00000E+00 0.00000E+00 0.00000E+00
 -1      5180 4.64852E-13 4.64852E-13 4.64852E-13 0.00000E+00 0.00000E+00 0.00000E+00
 -1      5181 4.64852E-13 4.64852E-13 4.64852E-13 0.00000E+00 0.00000E+00 0.00000E+00
 -1      5182 4.64852E-13 4.64852E-13 4.64852E-13 0.00000E+00 0.00000E+00 0.00000E+00
 -1      5183 4.64852E-13 4.64852E-13 4.64852E-13 0.00000E+00 0.00000E+00 0.00000E+00
 -1      5184 4.64852E-13 4.64852E-13 4.64852E-13 0.00000E+00 0.00000E+00 0.00000E+00
 -1      5185 4.64852E-13 4.64852E-13 4.64852E-13 0.00000E+00 0.00000E+00 0.00000E+00
 -1      5186 4.64852E-13 4.64852E-13 4.64852E-13 0.00000E+00 0.00000E+00 0.00000E+00
 -1      5187 4.64852E-13 4.64852E-13 4.64852E-13 0.00000E+00 0.00000E+00 0.00000E+00
 -1      5188 4.64852E-13 4.64852E-13 4.64852E-13 0.00000E+00 0.00000E+00 0.00000E+00
 -1      5189 4.38289E-13 4.38289E-13 4.38289E-13 0.00000E+00 0.00000E+00 0.00000E+00
 -1      5190 4.38289E-13 4.38289E-13 4.38289E-13 0.00000E+00 0.00000E+00 0.00000E+00
 -1      5191 4.64852E-13 4.64852E-13 4.64852E-13 0.00000E+00 0.00000E+00 0.00000E+00
 -1      5192 4.64852E-13 4.64852E-13 4.64852E-13 0.00000E+00 0.00000E+00 0.00000E+00
 -1      5193 4.64852E-13 4.64852E-13 4.64852E-13 0.00000E+00 0.00000E+00 0.00000E+00
 -1      5194 4.64852E-13 4.64852E-13 4.64852E-13 0.00000E+00 0.00000E+00 0.00000E+00
 -1      5195 4.64852E-13 4.64852E-13 4.64852E-13 0.00000E+00 0.00000E+00 0.00000E+00
 -1      5196 4.64852E-13 4.64852E-13 4.64852E-13 0.00000E+00 0.00000E+00 0.00000E+00
 -1      5197 4.64852E-13 4.64852E-13 4.64852E-13 0.00000E+00 0.00000E+00 0.00000E+00
 -1      5198 4.64852E-13 4.64852E-13 4.64852E-13 0.00000E+00 0.00000E+00 0.00000E+00
 -1      5199 4.44929E-13 4.44929E-13 4.44929E-13 0.00000E+00 0.00000E+00 0.00000E+00
 -1      5200 4.60425E-13 4.60425E-13 4.60425E-13 0.00000E+00 0.00000E+00 0.00000E+00
 -1      5201 4.55997E-13 4.55997E-13 4.55997E-13 0.00000E+00 0.00000E+00 0.00000E+00
 -1      5202 4.62638E-13 4.62638E-13 4.62638E-13 0.00000E+00 0.00000E+00 0.00000E+00
 -1      5203 4.38289E-13 4.38289E-13 4.38289E-13 0.00000E+00 0.00000E+00 0.00000E+00
 -1      5204 4.64852E-13 4.64852E-13 4.64852E-13 0.00000E+00 0.00000E+00 0.00000E+00
 -1      5205 4.64852E-13 4.64852E-13 4.64852E-13 0.00000E+00 0.00000E+00 0.00000E+00
 -1      5206 4.64852E-13 4.64852E-13 4.64852E-13 0.00000E+00 0.00000E+00 0.00000E+00
 -1      5207 4.64852E-13 4.64852E-13 4.64852E-13 0.00000E+00 0.00000E+00 0.00000E+00
 -1      5208 4.64852E-13 4.64852E-13 4.64852E-13 0.00000E+00 0.00000E+00 0.00000E+00
 -1      5209 4.64852E-13 4.64852E-13 4.64852E-13 0.00000E+00 0.00000E+00 0.00000E+00
 -1      5210 4.64852E-13 4.64852E-13 4.64852E-13 0.00000E+00 0.00000E+00 0.00000E+00
 -1      5211 4.38289E-13 4.38289E-13 4.38289E-13 0.00000E+00 0.00000E+00 0.00000E+00
 -1      5212 4.38289E-13 4.38289E-13 4.38289E-13 0.00000E+00 0.00000E+00 0.00000E+00
 -1      5213 4.38289E-13 4.38289E-13 4.38289E-13 0.00000E+00 0.00000E+00 0.00000E+00
 -1      5214 4.38289E-13 4.38289E-13 4.38289E-13 0.00000E+00 0.00000E+00 0.00000E+00
 -1      5215 4.38289E-13 4.38289E-13 4.38289E-13 0.00000E+00 0.00000E+00 0.00000E+00
 -1      5216 4.38289E-13 4.38289E-13 4.38289E-13 0.00000E+00 0.00000E+00 0.00000E+00
 -1      5217 4.38289E-13 4.38289E-13 4.38289E-13 0.00000E+00 0.00000E+00 0.00000E+00
 -1      5218 4.64852E-13 4.64852E-13 4.64852E-13 0.00000E+00 0.00000E+00 0.00000E+00
 -1      5219 4.38289E-13 4.38289E-13 4.38289E-13 0.00000E+00 0.00000E+00 0.00000E+00
 -1      5220 4.38289E-13 4.38289E-13 4.38289E-13 0.00000E+00 0.00000E+00 0.00000E+00
 -1      5221 4.64852E-13 4.64852E-13 4.64852E-13 0.00000E+00 0.00000E+00 0.00000E+00
 -1      5222 4.64852E-13 4.64852E-13 4.64852E-13 0.00000E+00 0.00000E+00 0.00000E+00
 -1      5223 4.42716E-13 4.42716E-13 4.42716E-13 0.00000E+00 0.00000E+00 0.00000E+00
 -1      5224 4.49357E-13 4.49357E-13 4.49357E-13 0.00000E+00 0.00000E+00 0.00000E+00
 -1      5225 4.44929E-13 4.44929E-13 4.44929E-13 0.00000E+00 0.00000E+00 0.00000E+00
 -1      5226 4.64852E-13 4.64852E-13 4.64852E-13 0.00000E+00 0.00000E+00 0.00000E+00
 -1      5227 4.64852E-13 4.64852E-13 4.64852E-13 0.00000E+00 0.00000E+00 0.00000E+00
 -1      5228 4.64852E-13 4.64852E-13 4.64852E-13 0.00000E+00 0.00000E+00 0.00000E+00
 -1      5229 4.64852E-13 4.64852E-13 4.64852E-13 0.00000E+00 0.00000E+00 0.00000E+00
 -1      5230 4.64852E-13 4.64852E-13 4.64852E-13 0.00000E+00 0.00000E+00 0.00000E+00
 -1      5231 4.64852E-13 4.64852E-13 4.64852E-13 0.00000E+00 0.00000E+00 0.00000E+00
 -1      5232 4.38289E-13 4.38289E-13 4.38289E-13 0.00000E+00 0.00000E+00 0.00000E+00
 -1      5233 4.64852E-13 4.64852E-13 4.64852E-13 0.00000E+00 0.00000E+00 0.00000E+00
 -1      5234 4.64852E-13 4.64852E-13 4.64852E-13 0.00000E+00 0.00000E+00 0.00000E+00
 -1      5235 4.49357E-13 4.49357E-13 4.49357E-13 0.00000E+00 0.00000E+00 0.00000E+00
 -1      5236 4.64852E-13 4.64852E-13 4.64852E-13 0.00000E+00 0.00000E+00 0.00000E+00
 -1      5237 4.58211E-13 4.58211E-13 4.58211E-13 0.00000E+00 0.00000E+00 0.00000E+00
 -1      5238 4.64852E-13 4.64852E-13 4.64852E-13 0.00000E+00 0.00000E+00 0.00000E+00
 -1      5239 4.38289E-13 4.38289E-13 4.38289E-13 0.00000E+00 0.00000E+00 0.00000E+00
 -1      5240 4.47143E-13 4.47143E-13 4.47143E-13 0.00000E+00 0.00000E+00 0.00000E+00
 -1      5241 4.64852E-13 4.64852E-13 4.64852E-13 0.00000E+00 0.00000E+00 0.00000E+00
 -1      5242 4.64852E-13 4.64852E-13 4.64852E-13 0.00000E+00 0.00000E+00 0.00000E+00
 -1      5243 4.64852E-13 4.64852E-13 4.64852E-13 0.00000E+00 0.00000E+00 0.00000E+00
 -1      5244 4.64852E-13 4.64852E-13 4.64852E-13 0.00000E+00 0.00000E+00 0.00000E+00
 -1      5245 4.44929E-13 4.44929E-13 4.44929E-13 0.00000E+00 0.00000E+00 0.00000E+00
 -1      5246 4.38289E-13 4.38289E-13 4.38289E-13 0.00000E+00 0.00000E+00 0.00000E+00
 -1      5247 4.38289E-13 4.38289E-13 4.38289E-13 0.00000E+00 0.00000E+00 0.00000E+00
 -1      5248 4.40502E-13 4.40502E-13 4.40502E-13 0.00000E+00 0.00000E+00 0.00000E+00
 -1      5249 4.64852E-13 4.64852E-13 4.64852E-13 0.00000E+00 0.00000E+00 0.00000E+00
 -1      5250 4.58211E-13 4.58211E-13 4.58211E-13 0.00000E+00 0.00000E+00 0.00000E+00
 -1      5251 4.49357E-13 4.49357E-13 4.49357E-13 0.00000E+00 0.00000E+00 0.00000E+00
 -1      5252 4.40502E-13 4.40502E-13 4.40502E-13 0.00000E+00 0.00000E+00 0.00000E+00
 -1      5253 4.43981E-13 4.43981E-13 4.43981E-13 0.00000E+00 0.00000E+00 0.00000E+00
 -1      5254 4.53784E-13 4.53784E-13 4.53784E-13 0.00000E+00 0.00000E+00 0.00000E+00
 -1      5255 4.64852E-13 4.64852E-13 4.64852E-13 0.00000E+00 0.00000E+00 0.00000E+00
 -1      5256 4.62638E-13 4.62638E-13 4.62638E-13 0.00000E+00 0.00000E+00 0.00000E+00
 -1      5257 4.64852E-13 4.64852E-13 4.64852E-13 0.00000E+00 0.00000E+00 0.00000E+00
 -1      5258 4.62638E-13 4.62638E-13 4.62638E-13 0.00000E+00 0.00000E+00 0.00000E+00
 -1      5259 4.62954E-13 4.62954E-13 4.62954E-13 0.00000E+00 0.00000E+00 0.00000E+00
 -1      5260 4.64852E-13 4.64852E-13 4.64852E-13 0.00000E+00 0.00000E+00 0.00000E+00
 -1      5261 4.64852E-13 4.64852E-13 4.64852E-13 0.00000E+00 0.00000E+00 0.00000E+00
 -1      5262 4.62638E-13 4.62638E-13 4.62638E-13 0.00000E+00 0.00000E+00 0.00000E+00
 -1      5263 4.64852E-13 4.64852E-13 4.64852E-13 0.00000E+00 0.00000E+00 0.00000E+00
 -1      5264 4.60425E-13 4.60425E-13 4.60425E-13 0.00000E+00 0.00000E+00 0.00000E+00
 -1      5265 4.60425E-13 4.60425E-13 4.60425E-13 0.00000E+00 0.00000E+00 0.00000E+00
 -1      5266 4.64852E-13 4.64852E-13 4.64852E-13 0.00000E+00 0.00000E+00 0.00000E+00
 -1      5267 4.64852E-13 4.64852E-13 4.64852E-13 0.00000E+00 0.00000E+00 0.00000E+00
 -1      5268 4.64852E-13 4.64852E-13 4.64852E-13 0.00000E+00 0.00000E+00 0.00000E+00
 -1      5269 4.64852E-13 4.64852E-13 4.64852E-13 0.00000E+00 0.00000E+00 0.00000E+00
 -1      5270 4.64852E-13 4.64852E-13 4.64852E-13 0.00000E+00 0.00000E+00 0.00000E+00
 -1      5271 4.64852E-13 4.64852E-13 4.64852E-13 0.00000E+00 0.00000E+00 0.00000E+00
 -1      5272 4.64852E-13 4.64852E-13 4.64852E-13 0.00000E+00 0.00000E+00 0.00000E+00
 -1      5273 4.64852E-13 4.64852E-13 4.64852E-13 0.00000E+00 0.00000E+00 0.00000E+00
 -1      5274 4.64852E-13 4.64852E-13 4.64852E-13 0.00000E+00 0.00000E+00 0.00000E+00
 -1      5275 4.64852E-13 4.64852E-13 4.64852E-13 0.00000E+00 0.00000E+00 0.00000E+00
 -1      5276 4.64852E-13 4.64852E-13 4.64852E-13 0.00000E+00 0.00000E+00 0.00000E+00
 -1      5277 4.64852E-13 4.64852E-13 4.64852E-13 0.00000E+00 0.00000E+00 0.00000E+00
 -1      5278 4.64852E-13 4.64852E-13 4.64852E-13 0.00000E+00 0.00000E+00 0.00000E+00
 -1      5279 4.38289E-13 4.38289E-13 4.38289E-13 0.00000E+00 0.00000E+00 0.00000E+00
 -1      5280 4.38289E-13 4.38289E-13 4.38289E-13 0.00000E+00 0.00000E+00 0.00000E+00
 -1      5281 4.38289E-13 4.38289E-13 4.38289E-13 0.00000E+00 0.00000E+00 0.00000E+00
 -1      5282 4.42716E-13 4.42716E-13 4.42716E-13 0.00000E+00 0.00000E+00 0.00000E+00
 -1      5283 4.42083E-13 4.42083E-13 4.42083E-13 0.00000E+00 0.00000E+00 0.00000E+00
 -1      5284 4.38289E-13 4.38289E-13 4.38289E-13 0.00000E+00 0.00000E+00 0.00000E+00
 -1      5285 4.42716E-13 4.42716E-13 4.42716E-13 0.00000E+00 0.00000E+00 0.00000E+00
 -1      5286 4.38289E-13 4.38289E-13 4.38289E-13 0.00000E+00 0.00000E+00 0.00000E+00
 -1      5287 4.42083E-13 4.42083E-13 4.42083E-13 0.00000E+00 0.00000E+00 0.00000E+00
 -1      5288 4.42716E-13 4.42716E-13 4.42716E-13 0.00000E+00 0.00000E+00 0.00000E+00
 -1      5289 4.42716E-13 4.42716E-13 4.42716E-13 0.00000E+00 0.00000E+00 0.00000E+00
 -1      5290 4.42716E-13 4.42716E-13 4.42716E-13 0.00000E+00 0.00000E+00 0.00000E+00
 -1      5291 4.61057E-13 4.61057E-13 4.61057E-13 0.00000E+00 0.00000E+00 0.00000E+00
 -1      5292 4.64852E-13 4.64852E-13 4.64852E-13 0.00000E+00 0.00000E+00 0.00000E+00
 -1      5293 4.64852E-13 4.64852E-13 4.64852E-13 0.00000E+00 0.00000E+00 0.00000E+00
 -1      5294 4.64852E-13 4.64852E-13 4.64852E-13 0.00000E+00 0.00000E+00 0.00000E+00
 -1      5295 4.64852E-13 4.64852E-13 4.64852E-13 0.00000E+00 0.00000E+00 0.00000E+00
 -1      5296 4.64852E-13 4.64852E-13 4.64852E-13 0.00000E+00 0.00000E+00 0.00000E+00
 -1      5297 4.64852E-13 4.64852E-13 4.64852E-13 0.00000E+00 0.00000E+00 0.00000E+00
 -1      5298 4.64852E-13 4.64852E-13 4.64852E-13 0.00000E+00 0.00000E+00 0.00000E+00
 -1      5299 4.64852E-13 4.64852E-13 4.64852E-13 0.00000E+00 0.00000E+00 0.00000E+00
 -1      5300 4.64852E-13 4.64852E-13 4.64852E-13 0.00000E+00 0.00000E+00 0.00000E+00
 -1      5301 4.64852E-13 4.64852E-13 4.64852E-13 0.00000E+00 0.00000E+00 0.00000E+00
 -1      5302 4.64852E-13 4.64852E-13 4.64852E-13 0.00000E+00 0.00000E+00 0.00000E+00
 -1      5303 4.64852E-13 4.64852E-13 4.64852E-13 0.00000E+00 0.00000E+00 0.00000E+00
 -1      5304 4.64852E-13 4.64852E-13 4.64852E-13 0.00000E+00 0.00000E+00 0.00000E+00
 -1      5305 4.64852E-13 4.64852E-13 4.64852E-13 0.00000E+00 0.00000E+00 0.00000E+00
 -1      5306 4.64852E-13 4.64852E-13 4.64852E-13 0.00000E+00 0.00000E+00 0.00000E+00
 -1      5307 4.64852E-13 4.64852E-13 4.64852E-13 0.00000E+00 0.00000E+00 0.00000E+00
 -1      5308 4.64852E-13 4.64852E-13 4.64852E-13 0.00000E+00 0.00000E+00 0.00000E+00
 -1      5309 4.38289E-13 4.38289E-13 4.38289E-13 0.00000E+00 0.00000E+00 0.00000E+00
 -1      5310 4.38289E-13 4.38289E-13 4.38289E-13 0.00000E+00 0.00000E+00 0.00000E+00
 -1      5311 4.38289E-13 4.38289E-13 4.38289E-13 0.00000E+00 0.00000E+00 0.00000E+00
 -1      5312 4.38289E-13 4.38289E-13 4.38289E-13 0.00000E+00 0.00000E+00 0.00000E+00
 -1      5313 4.38289E-13 4.38289E-13 4.38289E-13 0.00000E+00 0.00000E+00 0.00000E+00
 -1      5314 4.38289E-13 4.38289E-13 4.38289E-13 0.00000E+00 0.00000E+00 0.00000E+00
 -1      5315 4.38289E-13 4.38289E-13 4.38289E-13 0.00000E+00 0.00000E+00 0.00000E+00
 -1      5316 4.64852E-13 4.64852E-13 4.64852E-13 0.00000E+00 0.00000E+00 0.00000E+00
 -1      5317 4.38289E-13 4.38289E-13 4.38289E-13 0.00000E+00 0.00000E+00 0.00000E+00
 -1      5318 4.60425E-13 4.60425E-13 4.60425E-13 0.00000E+00 0.00000E+00 0.00000E+00
 -1      5319 4.38289E-13 4.38289E-13 4.38289E-13 0.00000E+00 0.00000E+00 0.00000E+00
 -1      5320 4.64852E-13 4.64852E-13 4.64852E-13 0.00000E+00 0.00000E+00 0.00000E+00
 -1      5321 4.49357E-13 4.49357E-13 4.49357E-13 0.00000E+00 0.00000E+00 0.00000E+00
 -1      5322 4.44929E-13 4.44929E-13 4.44929E-13 0.00000E+00 0.00000E+00 0.00000E+00
 -1      5323 4.64852E-13 4.64852E-13 4.64852E-13 0.00000E+00 0.00000E+00 0.00000E+00
 -1      5324 4.64852E-13 4.64852E-13 4.64852E-13 0.00000E+00 0.00000E+00 0.00000E+00
 -1      5325 4.64852E-13 4.64852E-13 4.64852E-13 0.00000E+00 0.00000E+00 0.00000E+00
 -1      5326 4.64852E-13 4.64852E-13 4.64852E-13 0.00000E+00 0.00000E+00 0.00000E+00
 -1      5327 4.64852E-13 4.64852E-13 4.64852E-13 0.00000E+00 0.00000E+00 0.00000E+00
 -1      5328 4.64852E-13 4.64852E-13 4.64852E-13 0.00000E+00 0.00000E+00 0.00000E+00
 -1      5329 4.64852E-13 4.64852E-13 4.64852E-13 0.00000E+00 0.00000E+00 0.00000E+00
 -1      5330 4.60425E-13 4.60425E-13 4.60425E-13 0.00000E+00 0.00000E+00 0.00000E+00
 -1      5331 4.64852E-13 4.64852E-13 4.64852E-13 0.00000E+00 0.00000E+00 0.00000E+00
 -1      5332 4.62638E-13 4.62638E-13 4.62638E-13 0.00000E+00 0.00000E+00 0.00000E+00
 -1      5333 4.44929E-13 4.44929E-13 4.44929E-13 0.00000E+00 0.00000E+00 0.00000E+00
 -1      5334 4.55997E-13 4.55997E-13 4.55997E-13 0.00000E+00 0.00000E+00 0.00000E+00
 -1      5335 4.38289E-13 4.38289E-13 4.38289E-13 0.00000E+00 0.00000E+00 0.00000E+00
 -1      5336 4.38289E-13 4.38289E-13 4.38289E-13 0.00000E+00 0.00000E+00 0.00000E+00
 -1      5337 4.64852E-13 4.64852E-13 4.64852E-13 0.00000E+00 0.00000E+00 0.00000E+00
 -1      5338 4.64852E-13 4.64852E-13 4.64852E-13 0.00000E+00 0.00000E+00 0.00000E+00
 -1      5339 4.64852E-13 4.64852E-13 4.64852E-13 0.00000E+00 0.00000E+00 0.00000E+00
 -1      5340 4.64852E-13 4.64852E-13 4.64852E-13 0.00000E+00 0.00000E+00 0.00000E+00
 -1      5341 4.64852E-13 4.64852E-13 4.64852E-13 0.00000E+00 0.00000E+00 0.00000E+00
 -1      5342 4.64852E-13 4.64852E-13 4.64852E-13 0.00000E+00 0.00000E+00 0.00000E+00
 -1      5343 4.64852E-13 4.64852E-13 4.64852E-13 0.00000E+00 0.00000E+00 0.00000E+00
 -1      5344 4.64852E-13 4.64852E-13 4.64852E-13 0.00000E+00 0.00000E+00 0.00000E+00
 -1      5345 4.49357E-13 4.49357E-13 4.49357E-13 0.00000E+00 0.00000E+00 0.00000E+00
 -1      5346 4.40502E-13 4.40502E-13 4.40502E-13 0.00000E+00 0.00000E+00 0.00000E+00
 -1      5347 4.38289E-13 4.38289E-13 4.38289E-13 0.00000E+00 0.00000E+00 0.00000E+00
 -1      5348 4.40502E-13 4.40502E-13 4.40502E-13 0.00000E+00 0.00000E+00 0.00000E+00
 -1      5349 4.40502E-13 4.40502E-13 4.40502E-13 0.00000E+00 0.00000E+00 0.00000E+00
 -1      5350 4.38289E-13 4.38289E-13 4.38289E-13 0.00000E+00 0.00000E+00 0.00000E+00
 -1      5351 4.44929E-13 4.44929E-13 4.44929E-13 0.00000E+00 0.00000E+00 0.00000E+00
 -1      5352 4.42716E-13 4.42716E-13 4.42716E-13 0.00000E+00 0.00000E+00 0.00000E+00
 -1      5353 4.58211E-13 4.58211E-13 4.58211E-13 0.00000E+00 0.00000E+00 0.00000E+00
 -1      5354 4.42716E-13 4.42716E-13 4.42716E-13 0.00000E+00 0.00000E+00 0.00000E+00
 -1      5355 4.64852E-13 4.64852E-13 4.64852E-13 0.00000E+00 0.00000E+00 0.00000E+00
 -1      5356 4.64852E-13 4.64852E-13 4.64852E-13 0.00000E+00 0.00000E+00 0.00000E+00
 -1      5357 4.64852E-13 4.64852E-13 4.64852E-13 0.00000E+00 0.00000E+00 0.00000E+00
 -1      5358 4.64852E-13 4.64852E-13 4.64852E-13 0.00000E+00 0.00000E+00 0.00000E+00
 -1      5359 4.64852E-13 4.64852E-13 4.64852E-13 0.00000E+00 0.00000E+00 0.00000E+00
 -1      5360 4.38289E-13 4.38289E-13 4.38289E-13 0.00000E+00 0.00000E+00 0.00000E+00
 -1      5361 4.55997E-13 4.55997E-13 4.55997E-13 0.00000E+00 0.00000E+00 0.00000E+00
 -1      5362 4.64852E-13 4.64852E-13 4.64852E-13 0.00000E+00 0.00000E+00 0.00000E+00
 -1      5363 4.64852E-13 4.64852E-13 4.64852E-13 0.00000E+00 0.00000E+00 0.00000E+00
 -1      5364 4.38289E-13 4.38289E-13 4.38289E-13 0.00000E+00 0.00000E+00 0.00000E+00
 -1      5365 4.38289E-13 4.38289E-13 4.38289E-13 0.00000E+00 0.00000E+00 0.00000E+00
 -1      5366 4.40502E-13 4.40502E-13 4.40502E-13 0.00000E+00 0.00000E+00 0.00000E+00
 -1      5367 4.60425E-13 4.60425E-13 4.60425E-13 0.00000E+00 0.00000E+00 0.00000E+00
 -1      5368 4.55997E-13 4.55997E-13 4.55997E-13 0.00000E+00 0.00000E+00 0.00000E+00
 -1      5369 4.64852E-13 4.64852E-13 4.64852E-13 0.00000E+00 0.00000E+00 0.00000E+00
 -1      5370 4.64852E-13 4.64852E-13 4.64852E-13 0.00000E+00 0.00000E+00 0.00000E+00
 -1      5371 4.58211E-13 4.58211E-13 4.58211E-13 0.00000E+00 0.00000E+00 0.00000E+00
 -1      5372 4.38289E-13 4.38289E-13 4.38289E-13 0.00000E+00 0.00000E+00 0.00000E+00
 -1      5373 4.49357E-13 4.49357E-13 4.49357E-13 0.00000E+00 0.00000E+00 0.00000E+00
 -1      5374 4.42716E-13 4.42716E-13 4.42716E-13 0.00000E+00 0.00000E+00 0.00000E+00
 -1      5375 4.40502E-13 4.40502E-13 4.40502E-13 0.00000E+00 0.00000E+00 0.00000E+00
 -1      5376 4.49357E-13 4.49357E-13 4.49357E-13 0.00000E+00 0.00000E+00 0.00000E+00
 -1      5377 4.40502E-13 4.40502E-13 4.40502E-13 0.00000E+00 0.00000E+00 0.00000E+00
 -1      5378 4.55997E-13 4.55997E-13 4.55997E-13 0.00000E+00 0.00000E+00 0.00000E+00
 -1      5379 4.42716E-13 4.42716E-13 4.42716E-13 0.00000E+00 0.00000E+00 0.00000E+00
 -1      5380 4.64852E-13 4.64852E-13 4.64852E-13 0.00000E+00 0.00000E+00 0.00000E+00
 -1      5381 4.64852E-13 4.64852E-13 4.64852E-13 0.00000E+00 0.00000E+00 0.00000E+00
 -1      5382 4.44929E-13 4.44929E-13 4.44929E-13 0.00000E+00 0.00000E+00 0.00000E+00
 -1      5383 4.42716E-13 4.42716E-13 4.42716E-13 0.00000E+00 0.00000E+00 0.00000E+00
 -1      5384 4.38289E-13 4.38289E-13 4.38289E-13 0.00000E+00 0.00000E+00 0.00000E+00
 -1      5385 4.42716E-13 4.42716E-13 4.42716E-13 0.00000E+00 0.00000E+00 0.00000E+00
 -1      5386 4.38289E-13 4.38289E-13 4.38289E-13 0.00000E+00 0.00000E+00 0.00000E+00
 -1      5387 4.53784E-13 4.53784E-13 4.53784E-13 0.00000E+00 0.00000E+00 0.00000E+00
 -1      5388 4.64852E-13 4.64852E-13 4.64852E-13 0.00000E+00 0.00000E+00 0.00000E+00
 -1      5389 4.62638E-13 4.62638E-13 4.62638E-13 0.00000E+00 0.00000E+00 0.00000E+00
 -1      5390 4.64852E-13 4.64852E-13 4.64852E-13 0.00000E+00 0.00000E+00 0.00000E+00
 -1      5391 4.49357E-13 4.49357E-13 4.49357E-13 0.00000E+00 0.00000E+00 0.00000E+00
 -1      5392 4.44929E-13 4.44929E-13 4.44929E-13 0.00000E+00 0.00000E+00 0.00000E+00
 -1      5393 4.51570E-13 4.51570E-13 4.51570E-13 0.00000E+00 0.00000E+00 0.00000E+00
 -1      5394 4.55997E-13 4.55997E-13 4.55997E-13 0.00000E+00 0.00000E+00 0.00000E+00
 -1      5395 4.64852E-13 4.64852E-13 4.64852E-13 0.00000E+00 0.00000E+00 0.00000E+00
 -1      5396 4.60425E-13 4.60425E-13 4.60425E-13 0.00000E+00 0.00000E+00 0.00000E+00
 -1      5397 4.47143E-13 4.47143E-13 4.47143E-13 0.00000E+00 0.00000E+00 0.00000E+00
 -1      5398 4.47143E-13 4.47143E-13 4.47143E-13 0.00000E+00 0.00000E+00 0.00000E+00
 -1      5399 4.64852E-13 4.64852E-13 4.64852E-13 0.00000E+00 0.00000E+00 0.00000E+00
 -1      5400 4.38289E-13 4.38289E-13 4.38289E-13 0.00000E+00 0.00000E+00 0.00000E+00
 -1      5401 4.64852E-13 4.64852E-13 4.64852E-13 0.00000E+00 0.00000E+00 0.00000E+00
 -1      5402 4.47143E-13 4.47143E-13 4.47143E-13 0.00000E+00 0.00000E+00 0.00000E+00
 -1      5403 4.42716E-13 4.42716E-13 4.42716E-13 0.00000E+00 0.00000E+00 0.00000E+00
 -1      5404 4.61057E-13 4.61057E-13 4.61057E-13 0.00000E+00 0.00000E+00 0.00000E+00
 -1      5405 4.49357E-13 4.49357E-13 4.49357E-13 0.00000E+00 0.00000E+00 0.00000E+00
 -1      5406 4.38289E-13 4.38289E-13 4.38289E-13 0.00000E+00 0.00000E+00 0.00000E+00
 -1      5407 4.42716E-13 4.42716E-13 4.42716E-13 0.00000E+00 0.00000E+00 0.00000E+00
 -1      5408 4.38289E-13 4.38289E-13 4.38289E-13 0.00000E+00 0.00000E+00 0.00000E+00
 -1      5409 4.47143E-13 4.47143E-13 4.47143E-13 0.00000E+00 0.00000E+00 0.00000E+00
 -1      5410 4.64852E-13 4.64852E-13 4.64852E-13 0.00000E+00 0.00000E+00 0.00000E+00
 -1      5411 4.38289E-13 4.38289E-13 4.38289E-13 0.00000E+00 0.00000E+00 0.00000E+00
 -1      5412 4.42716E-13 4.42716E-13 4.42716E-13 0.00000E+00 0.00000E+00 0.00000E+00
 -1      5413 4.64852E-13 4.64852E-13 4.64852E-13 0.00000E+00 0.00000E+00 0.00000E+00
 -1      5414 4.64852E-13 4.64852E-13 4.64852E-13 0.00000E+00 0.00000E+00 0.00000E+00
 -1      5415 4.60425E-13 4.60425E-13 4.60425E-13 0.00000E+00 0.00000E+00 0.00000E+00
 -1      5416 4.62638E-13 4.62638E-13 4.62638E-13 0.00000E+00 0.00000E+00 0.00000E+00
 -1      5417 4.42716E-13 4.42716E-13 4.42716E-13 0.00000E+00 0.00000E+00 0.00000E+00
 -1      5418 4.47143E-13 4.47143E-13 4.47143E-13 0.00000E+00 0.00000E+00 0.00000E+00
 -1      5419 4.44929E-13 4.44929E-13 4.44929E-13 0.00000E+00 0.00000E+00 0.00000E+00
 -1      5420 4.38289E-13 4.38289E-13 4.38289E-13 0.00000E+00 0.00000E+00 0.00000E+00
 -1      5421 4.38289E-13 4.38289E-13 4.38289E-13 0.00000E+00 0.00000E+00 0.00000E+00
 -1      5422 4.51570E-13 4.51570E-13 4.51570E-13 0.00000E+00 0.00000E+00 0.00000E+00
 -1      5423 4.55997E-13 4.55997E-13 4.55997E-13 0.00000E+00 0.00000E+00 0.00000E+00
 -1      5424 4.64852E-13 4.64852E-13 4.64852E-13 0.00000E+00 0.00000E+00 0.00000E+00
 -1      5425 4.64852E-13 4.64852E-13 4.64852E-13 0.00000E+00 0.00000E+00 0.00000E+00
 -1      5426 4.64852E-13 4.64852E-13 4.64852E-13 0.00000E+00 0.00000E+00 0.00000E+00
 -1      5427 4.64852E-13 4.64852E-13 4.64852E-13 0.00000E+00 0.00000E+00 0.00000E+00
 -1      5428 4.64852E-13 4.64852E-13 4.64852E-13 0.00000E+00 0.00000E+00 0.00000E+00
 -1      5429 4.64852E-13 4.64852E-13 4.64852E-13 0.00000E+00 0.00000E+00 0.00000E+00
 -1      5430 4.44929E-13 4.44929E-13 4.44929E-13 0.00000E+00 0.00000E+00 0.00000E+00
 -1      5431 4.38289E-13 4.38289E-13 4.38289E-13 0.00000E+00 0.00000E+00 0.00000E+00
 -1      5432 4.64852E-13 4.64852E-13 4.64852E-13 0.00000E+00 0.00000E+00 0.00000E+00
 -1      5433 4.51570E-13 4.51570E-13 4.51570E-13 0.00000E+00 0.00000E+00 0.00000E+00
 -1      5434 4.38289E-13 4.38289E-13 4.38289E-13 0.00000E+00 0.00000E+00 0.00000E+00
 -1      5435 4.64852E-13 4.64852E-13 4.64852E-13 0.00000E+00 0.00000E+00 0.00000E+00
 -1      5436 4.42716E-13 4.42716E-13 4.42716E-13 0.00000E+00 0.00000E+00 0.00000E+00
 -1      5437 4.38289E-13 4.38289E-13 4.38289E-13 0.00000E+00 0.00000E+00 0.00000E+00
 -1      5438 4.64852E-13 4.64852E-13 4.64852E-13 0.00000E+00 0.00000E+00 0.00000E+00
 -1      5439 4.64852E-13 4.64852E-13 4.64852E-13 0.00000E+00 0.00000E+00 0.00000E+00
 -1      5440 4.49357E-13 4.49357E-13 4.49357E-13 0.00000E+00 0.00000E+00 0.00000E+00
 -1      5441 4.38289E-13 4.38289E-13 4.38289E-13 0.00000E+00 0.00000E+00 0.00000E+00
 -1      5442 4.53784E-13 4.53784E-13 4.53784E-13 0.00000E+00 0.00000E+00 0.00000E+00
 -1      5443 4.38289E-13 4.38289E-13 4.38289E-13 0.00000E+00 0.00000E+00 0.00000E+00
 -1      5444 4.47143E-13 4.47143E-13 4.47143E-13 0.00000E+00 0.00000E+00 0.00000E+00
 -1      5445 4.64852E-13 4.64852E-13 4.64852E-13 0.00000E+00 0.00000E+00 0.00000E+00
 -1      5446 4.53784E-13 4.53784E-13 4.53784E-13 0.00000E+00 0.00000E+00 0.00000E+00
 -1      5447 4.44929E-13 4.44929E-13 4.44929E-13 0.00000E+00 0.00000E+00 0.00000E+00
 -1      5448 4.62638E-13 4.62638E-13 4.62638E-13 0.00000E+00 0.00000E+00 0.00000E+00
 -1      5449 4.60425E-13 4.60425E-13 4.60425E-13 0.00000E+00 0.00000E+00 0.00000E+00
 -1      5450 4.55997E-13 4.55997E-13 4.55997E-13 0.00000E+00 0.00000E+00 0.00000E+00
 -1      5451 4.55997E-13 4.55997E-13 4.55997E-13 0.00000E+00 0.00000E+00 0.00000E+00
 -1      5452 4.60425E-13 4.60425E-13 4.60425E-13 0.00000E+00 0.00000E+00 0.00000E+00
 -1      5453 4.49357E-13 4.49357E-13 4.49357E-13 0.00000E+00 0.00000E+00 0.00000E+00
 -1      5454 4.38289E-13 4.38289E-13 4.38289E-13 0.00000E+00 0.00000E+00 0.00000E+00
 -1      5455 4.64852E-13 4.64852E-13 4.64852E-13 0.00000E+00 0.00000E+00 0.00000E+00
 -1      5456 4.55997E-13 4.55997E-13 4.55997E-13 0.00000E+00 0.00000E+00 0.00000E+00
 -1      5457 4.55997E-13 4.55997E-13 4.55997E-13 0.00000E+00 0.00000E+00 0.00000E+00
 -1      5458 4.62638E-13 4.62638E-13 4.62638E-13 0.00000E+00 0.00000E+00 0.00000E+00
 -1      5459 4.42716E-13 4.42716E-13 4.42716E-13 0.00000E+00 0.00000E+00 0.00000E+00
 -1      5460 4.38289E-13 4.38289E-13 4.38289E-13 0.00000E+00 0.00000E+00 0.00000E+00
 -1      5461 4.44929E-13 4.44929E-13 4.44929E-13 0.00000E+00 0.00000E+00 0.00000E+00
 -1      5462 4.38289E-13 4.38289E-13 4.38289E-13 0.00000E+00 0.00000E+00 0.00000E+00
 -1      5463 4.64852E-13 4.64852E-13 4.64852E-13 0.00000E+00 0.00000E+00 0.00000E+00
 -1      5464 4.49357E-13 4.49357E-13 4.49357E-13 0.00000E+00 0.00000E+00 0.00000E+00
 -1      5465 4.38289E-13 4.38289E-13 4.38289E-13 0.00000E+00 0.00000E+00 0.00000E+00
 -1      5466 4.53784E-13 4.53784E-13 4.53784E-13 0.00000E+00 0.00000E+00 0.00000E+00
 -1      5467 4.42716E-13 4.42716E-13 4.42716E-13 0.00000E+00 0.00000E+00 0.00000E+00
 -1      5468 4.44929E-13 4.44929E-13 4.44929E-13 0.00000E+00 0.00000E+00 0.00000E+00
 -1      5469 4.42716E-13 4.42716E-13 4.42716E-13 0.00000E+00 0.00000E+00 0.00000E+00
 -1      5470 4.62638E-13 4.62638E-13 4.62638E-13 0.00000E+00 0.00000E+00 0.00000E+00
 -1      5471 4.51570E-13 4.51570E-13 4.51570E-13 0.00000E+00 0.00000E+00 0.00000E+00
 -1      5472 4.38289E-13 4.38289E-13 4.38289E-13 0.00000E+00 0.00000E+00 0.00000E+00
 -1      5473 4.38289E-13 4.38289E-13 4.38289E-13 0.00000E+00 0.00000E+00 0.00000E+00
 -1      5474 4.40502E-13 4.40502E-13 4.40502E-13 0.00000E+00 0.00000E+00 0.00000E+00
 -1      5475 4.38289E-13 4.38289E-13 4.38289E-13 0.00000E+00 0.00000E+00 0.00000E+00
 -1      5476 4.60425E-13 4.60425E-13 4.60425E-13 0.00000E+00 0.00000E+00 0.00000E+00
 -1      5477 4.51570E-13 4.51570E-13 4.51570E-13 0.00000E+00 0.00000E+00 0.00000E+00
 -1      5478 4.49357E-13 4.49357E-13 4.49357E-13 0.00000E+00 0.00000E+00 0.00000E+00
 -1      5479 4.47143E-13 4.47143E-13 4.47143E-13 0.00000E+00 0.00000E+00 0.00000E+00
 -1      5480 4.51570E-13 4.51570E-13 4.51570E-13 0.00000E+00 0.00000E+00 0.00000E+00
 -1      5481 4.64852E-13 4.64852E-13 4.64852E-13 0.00000E+00 0.00000E+00 0.00000E+00
 -1      5482 4.62638E-13 4.62638E-13 4.62638E-13 0.00000E+00 0.00000E+00 0.00000E+00
 -1      5483 4.49357E-13 4.49357E-13 4.49357E-13 0.00000E+00 0.00000E+00 0.00000E+00
 -1      5484 4.49357E-13 4.49357E-13 4.49357E-13 0.00000E+00 0.00000E+00 0.00000E+00
 -1      5485 4.64852E-13 4.64852E-13 4.64852E-13 0.00000E+00 0.00000E+00 0.00000E+00
 -1      5486 4.38289E-13 4.38289E-13 4.38289E-13 0.00000E+00 0.00000E+00 0.00000E+00
 -1      5487 4.38289E-13 4.38289E-13 4.38289E-13 0.00000E+00 0.00000E+00 0.00000E+00
 -1      5488 4.51570E-13 4.51570E-13 4.51570E-13 0.00000E+00 0.00000E+00 0.00000E+00
 -1      5489 4.55997E-13 4.55997E-13 4.55997E-13 0.00000E+00 0.00000E+00 0.00000E+00
 -1      5490 4.57262E-13 4.57262E-13 4.57262E-13 0.00000E+00 0.00000E+00 0.00000E+00
 -1      5491 4.58211E-13 4.58211E-13 4.58211E-13 0.00000E+00 0.00000E+00 0.00000E+00
 -1      5492 4.64852E-13 4.64852E-13 4.64852E-13 0.00000E+00 0.00000E+00 0.00000E+00
 -1      5493 4.64852E-13 4.64852E-13 4.64852E-13 0.00000E+00 0.00000E+00 0.00000E+00
 -1      5494 4.64852E-13 4.64852E-13 4.64852E-13 0.00000E+00 0.00000E+00 0.00000E+00
 -1      5495 4.64852E-13 4.64852E-13 4.64852E-13 0.00000E+00 0.00000E+00 0.00000E+00
 -1      5496 4.64852E-13 4.64852E-13 4.64852E-13 0.00000E+00 0.00000E+00 0.00000E+00
 -1      5497 4.64852E-13 4.64852E-13 4.64852E-13 0.00000E+00 0.00000E+00 0.00000E+00
 -1      5498 4.64852E-13 4.64852E-13 4.64852E-13 0.00000E+00 0.00000E+00 0.00000E+00
 -1      5499 4.64852E-13 4.64852E-13 4.64852E-13 0.00000E+00 0.00000E+00 0.00000E+00
 -1      5500 4.59160E-13 4.59160E-13 4.59160E-13 0.00000E+00 0.00000E+00 0.00000E+00
 -1      5501 4.64852E-13 4.64852E-13 4.64852E-13 0.00000E+00 0.00000E+00 0.00000E+00
 -1      5502 4.64852E-13 4.64852E-13 4.64852E-13 0.00000E+00 0.00000E+00 0.00000E+00
 -1      5503 4.64852E-13 4.64852E-13 4.64852E-13 0.00000E+00 0.00000E+00 0.00000E+00
 -1      5504 4.42716E-13 4.42716E-13 4.42716E-13 0.00000E+00 0.00000E+00 0.00000E+00
 -1      5505 4.64852E-13 4.64852E-13 4.64852E-13 0.00000E+00 0.00000E+00 0.00000E+00
 -1      5506 4.38289E-13 4.38289E-13 4.38289E-13 0.00000E+00 0.00000E+00 0.00000E+00
 -1      5507 4.42716E-13 4.42716E-13 4.42716E-13 0.00000E+00 0.00000E+00 0.00000E+00
 -1      5508 4.64852E-13 4.64852E-13 4.64852E-13 0.00000E+00 0.00000E+00 0.00000E+00
 -1      5509 4.64852E-13 4.64852E-13 4.64852E-13 0.00000E+00 0.00000E+00 0.00000E+00
 -1      5510 4.64852E-13 4.64852E-13 4.64852E-13 0.00000E+00 0.00000E+00 0.00000E+00
 -1      5511 4.64852E-13 4.64852E-13 4.64852E-13 0.00000E+00 0.00000E+00 0.00000E+00
 -1      5512 4.38289E-13 4.38289E-13 4.38289E-13 0.00000E+00 0.00000E+00 0.00000E+00
 -1      5513 4.38289E-13 4.38289E-13 4.38289E-13 0.00000E+00 0.00000E+00 0.00000E+00
 -1      5514 4.62638E-13 4.62638E-13 4.62638E-13 0.00000E+00 0.00000E+00 0.00000E+00
 -1      5515 4.58211E-13 4.58211E-13 4.58211E-13 0.00000E+00 0.00000E+00 0.00000E+00
 -1      5516 4.53784E-13 4.53784E-13 4.53784E-13 0.00000E+00 0.00000E+00 0.00000E+00
 -1      5517 4.44929E-13 4.44929E-13 4.44929E-13 0.00000E+00 0.00000E+00 0.00000E+00
 -1      5518 4.40502E-13 4.40502E-13 4.40502E-13 0.00000E+00 0.00000E+00 0.00000E+00
 -1      5519 4.64852E-13 4.64852E-13 4.64852E-13 0.00000E+00 0.00000E+00 0.00000E+00
 -1      5520 4.47143E-13 4.47143E-13 4.47143E-13 0.00000E+00 0.00000E+00 0.00000E+00
 -1      5521 4.55997E-13 4.55997E-13 4.55997E-13 0.00000E+00 0.00000E+00 0.00000E+00
 -1      5522 4.38289E-13 4.38289E-13 4.38289E-13 0.00000E+00 0.00000E+00 0.00000E+00
 -1      5523 4.55997E-13 4.55997E-13 4.55997E-13 0.00000E+00 0.00000E+00 0.00000E+00
 -1      5524 4.44929E-13 4.44929E-13 4.44929E-13 0.00000E+00 0.00000E+00 0.00000E+00
 -1      5525 4.58211E-13 4.58211E-13 4.58211E-13 0.00000E+00 0.00000E+00 0.00000E+00
 -1      5526 4.38289E-13 4.38289E-13 4.38289E-13 0.00000E+00 0.00000E+00 0.00000E+00
 -1      5527 4.44929E-13 4.44929E-13 4.44929E-13 0.00000E+00 0.00000E+00 0.00000E+00
 -1      5528 4.38289E-13 4.38289E-13 4.38289E-13 0.00000E+00 0.00000E+00 0.00000E+00
 -1      5529 4.64852E-13 4.64852E-13 4.64852E-13 0.00000E+00 0.00000E+00 0.00000E+00
 -1      5530 4.55365E-13 4.55365E-13 4.55365E-13 0.00000E+00 0.00000E+00 0.00000E+00
 -1      5531 4.47143E-13 4.47143E-13 4.47143E-13 0.00000E+00 0.00000E+00 0.00000E+00
 -1      5532 4.64852E-13 4.64852E-13 4.64852E-13 0.00000E+00 0.00000E+00 0.00000E+00
 -1      5533 4.64852E-13 4.64852E-13 4.64852E-13 0.00000E+00 0.00000E+00 0.00000E+00
 -1      5534 4.38289E-13 4.38289E-13 4.38289E-13 0.00000E+00 0.00000E+00 0.00000E+00
 -1      5535 4.53784E-13 4.53784E-13 4.53784E-13 0.00000E+00 0.00000E+00 0.00000E+00
 -1      5536 4.53468E-13 4.53468E-13 4.53468E-13 0.00000E+00 0.00000E+00 0.00000E+00
 -1      5537 4.47143E-13 4.47143E-13 4.47143E-13 0.00000E+00 0.00000E+00 0.00000E+00
 -1      5538 4.38289E-13 4.38289E-13 4.38289E-13 0.00000E+00 0.00000E+00 0.00000E+00
 -1      5539 4.42716E-13 4.42716E-13 4.42716E-13 0.00000E+00 0.00000E+00 0.00000E+00
 -1      5540 4.42716E-13 4.42716E-13 4.42716E-13 0.00000E+00 0.00000E+00 0.00000E+00
 -1      5541 4.64852E-13 4.64852E-13 4.64852E-13 0.00000E+00 0.00000E+00 0.00000E+00
 -1      5542 4.64852E-13 4.64852E-13 4.64852E-13 0.00000E+00 0.00000E+00 0.00000E+00
 -1      5543 4.64852E-13 4.64852E-13 4.64852E-13 0.00000E+00 0.00000E+00 0.00000E+00
 -1      5544 4.64852E-13 4.64852E-13 4.64852E-13 0.00000E+00 0.00000E+00 0.00000E+00
 -1      5545 4.38289E-13 4.38289E-13 4.38289E-13 0.00000E+00 0.00000E+00 0.00000E+00
 -1      5546 4.64852E-13 4.64852E-13 4.64852E-13 0.00000E+00 0.00000E+00 0.00000E+00
 -1      5547 4.42716E-13 4.42716E-13 4.42716E-13 0.00000E+00 0.00000E+00 0.00000E+00
 -1      5548 4.42716E-13 4.42716E-13 4.42716E-13 0.00000E+00 0.00000E+00 0.00000E+00
 -1      5549 4.47143E-13 4.47143E-13 4.47143E-13 0.00000E+00 0.00000E+00 0.00000E+00
 -1      5550 4.38289E-13 4.38289E-13 4.38289E-13 0.00000E+00 0.00000E+00 0.00000E+00
 -1      5551 4.38289E-13 4.38289E-13 4.38289E-13 0.00000E+00 0.00000E+00 0.00000E+00
 -1      5552 4.64852E-13 4.64852E-13 4.64852E-13 0.00000E+00 0.00000E+00 0.00000E+00
 -1      5553 4.64852E-13 4.64852E-13 4.64852E-13 0.00000E+00 0.00000E+00 0.00000E+00
 -1      5554 4.47143E-13 4.47143E-13 4.47143E-13 0.00000E+00 0.00000E+00 0.00000E+00
 -1      5555 4.58211E-13 4.58211E-13 4.58211E-13 0.00000E+00 0.00000E+00 0.00000E+00
 -1      5556 4.47143E-13 4.47143E-13 4.47143E-13 0.00000E+00 0.00000E+00 0.00000E+00
 -1      5557 4.47143E-13 4.47143E-13 4.47143E-13 0.00000E+00 0.00000E+00 0.00000E+00
 -1      5558 4.58211E-13 4.58211E-13 4.58211E-13 0.00000E+00 0.00000E+00 0.00000E+00
 -1      5559 4.59160E-13 4.59160E-13 4.59160E-13 0.00000E+00 0.00000E+00 0.00000E+00
 -1      5560 4.64852E-13 4.64852E-13 4.64852E-13 0.00000E+00 0.00000E+00 0.00000E+00
 -1      5561 4.40502E-13 4.40502E-13 4.40502E-13 0.00000E+00 0.00000E+00 0.00000E+00
 -1      5562 4.38289E-13 4.38289E-13 4.38289E-13 0.00000E+00 0.00000E+00 0.00000E+00
 -1      5563 4.38289E-13 4.38289E-13 4.38289E-13 0.00000E+00 0.00000E+00 0.00000E+00
 -1      5564 4.38289E-13 4.38289E-13 4.38289E-13 0.00000E+00 0.00000E+00 0.00000E+00
 -1      5565 4.38289E-13 4.38289E-13 4.38289E-13 0.00000E+00 0.00000E+00 0.00000E+00
 -1      5566 4.44929E-13 4.44929E-13 4.44929E-13 0.00000E+00 0.00000E+00 0.00000E+00
 -1      5567 4.40502E-13 4.40502E-13 4.40502E-13 0.00000E+00 0.00000E+00 0.00000E+00
 -1      5568 4.40502E-13 4.40502E-13 4.40502E-13 0.00000E+00 0.00000E+00 0.00000E+00
 -1      5569 4.64852E-13 4.64852E-13 4.64852E-13 0.00000E+00 0.00000E+00 0.00000E+00
 -1      5570 4.58211E-13 4.58211E-13 4.58211E-13 0.00000E+00 0.00000E+00 0.00000E+00
 -1      5571 4.40502E-13 4.40502E-13 4.40502E-13 0.00000E+00 0.00000E+00 0.00000E+00
 -1      5572 4.64852E-13 4.64852E-13 4.64852E-13 0.00000E+00 0.00000E+00 0.00000E+00
 -1      5573 4.64852E-13 4.64852E-13 4.64852E-13 0.00000E+00 0.00000E+00 0.00000E+00
 -1      5574 4.64852E-13 4.64852E-13 4.64852E-13 0.00000E+00 0.00000E+00 0.00000E+00
 -1      5575 4.53784E-13 4.53784E-13 4.53784E-13 0.00000E+00 0.00000E+00 0.00000E+00
 -1      5576 4.64852E-13 4.64852E-13 4.64852E-13 0.00000E+00 0.00000E+00 0.00000E+00
 -1      5577 4.64852E-13 4.64852E-13 4.64852E-13 0.00000E+00 0.00000E+00 0.00000E+00
 -1      5578 4.64852E-13 4.64852E-13 4.64852E-13 0.00000E+00 0.00000E+00 0.00000E+00
 -1      5579 4.62638E-13 4.62638E-13 4.62638E-13 0.00000E+00 0.00000E+00 0.00000E+00
 -1      5580 4.55365E-13 4.55365E-13 4.55365E-13 0.00000E+00 0.00000E+00 0.00000E+00
 -1      5581 4.51570E-13 4.51570E-13 4.51570E-13 0.00000E+00 0.00000E+00 0.00000E+00
 -1      5582 4.62638E-13 4.62638E-13 4.62638E-13 0.00000E+00 0.00000E+00 0.00000E+00
 -1      5583 4.55997E-13 4.55997E-13 4.55997E-13 0.00000E+00 0.00000E+00 0.00000E+00
 -1      5584 4.40502E-13 4.40502E-13 4.40502E-13 0.00000E+00 0.00000E+00 0.00000E+00
 -1      5585 4.47143E-13 4.47143E-13 4.47143E-13 0.00000E+00 0.00000E+00 0.00000E+00
 -1      5586 4.64852E-13 4.64852E-13 4.64852E-13 0.00000E+00 0.00000E+00 0.00000E+00
 -1      5587 4.51570E-13 4.51570E-13 4.51570E-13 0.00000E+00 0.00000E+00 0.00000E+00
 -1      5588 4.42716E-13 4.42716E-13 4.42716E-13 0.00000E+00 0.00000E+00 0.00000E+00
 -1      5589 4.51570E-13 4.51570E-13 4.51570E-13 0.00000E+00 0.00000E+00 0.00000E+00
 -1      5590 4.51570E-13 4.51570E-13 4.51570E-13 0.00000E+00 0.00000E+00 0.00000E+00
 -1      5591 4.62638E-13 4.62638E-13 4.62638E-13 0.00000E+00 0.00000E+00 0.00000E+00
 -1      5592 4.64852E-13 4.64852E-13 4.64852E-13 0.00000E+00 0.00000E+00 0.00000E+00
 -1      5593 4.64852E-13 4.64852E-13 4.64852E-13 0.00000E+00 0.00000E+00 0.00000E+00
 -1      5594 4.64852E-13 4.64852E-13 4.64852E-13 0.00000E+00 0.00000E+00 0.00000E+00
 -1      5595 4.64852E-13 4.64852E-13 4.64852E-13 0.00000E+00 0.00000E+00 0.00000E+00
 -1      5596 4.64852E-13 4.64852E-13 4.64852E-13 0.00000E+00 0.00000E+00 0.00000E+00
 -1      5597 4.64852E-13 4.64852E-13 4.64852E-13 0.00000E+00 0.00000E+00 0.00000E+00
 -1      5598 4.64852E-13 4.64852E-13 4.64852E-13 0.00000E+00 0.00000E+00 0.00000E+00
 -1      5599 4.64852E-13 4.64852E-13 4.64852E-13 0.00000E+00 0.00000E+00 0.00000E+00
 -1      5600 4.64852E-13 4.64852E-13 4.64852E-13 0.00000E+00 0.00000E+00 0.00000E+00
 -1      5601 4.64852E-13 4.64852E-13 4.64852E-13 0.00000E+00 0.00000E+00 0.00000E+00
 -1      5602 4.64852E-13 4.64852E-13 4.64852E-13 0.00000E+00 0.00000E+00 0.00000E+00
 -1      5603 4.64852E-13 4.64852E-13 4.64852E-13 0.00000E+00 0.00000E+00 0.00000E+00
 -1      5604 4.64852E-13 4.64852E-13 4.64852E-13 0.00000E+00 0.00000E+00 0.00000E+00
 -1      5605 4.60425E-13 4.60425E-13 4.60425E-13 0.00000E+00 0.00000E+00 0.00000E+00
 -1      5606 4.60425E-13 4.60425E-13 4.60425E-13 0.00000E+00 0.00000E+00 0.00000E+00
 -1      5607 4.47143E-13 4.47143E-13 4.47143E-13 0.00000E+00 0.00000E+00 0.00000E+00
 -1      5608 4.53784E-13 4.53784E-13 4.53784E-13 0.00000E+00 0.00000E+00 0.00000E+00
 -1      5609 4.42716E-13 4.42716E-13 4.42716E-13 0.00000E+00 0.00000E+00 0.00000E+00
 -1      5610 4.64852E-13 4.64852E-13 4.64852E-13 0.00000E+00 0.00000E+00 0.00000E+00
 -1      5611 4.47143E-13 4.47143E-13 4.47143E-13 0.00000E+00 0.00000E+00 0.00000E+00
 -1      5612 4.55997E-13 4.55997E-13 4.55997E-13 0.00000E+00 0.00000E+00 0.00000E+00
 -1      5613 4.49357E-13 4.49357E-13 4.49357E-13 0.00000E+00 0.00000E+00 0.00000E+00
 -1      5614 4.64852E-13 4.64852E-13 4.64852E-13 0.00000E+00 0.00000E+00 0.00000E+00
 -1      5615 4.64852E-13 4.64852E-13 4.64852E-13 0.00000E+00 0.00000E+00 0.00000E+00
 -1      5616 4.64852E-13 4.64852E-13 4.64852E-13 0.00000E+00 0.00000E+00 0.00000E+00
 -1      5617 4.38289E-13 4.38289E-13 4.38289E-13 0.00000E+00 0.00000E+00 0.00000E+00
 -1      5618 4.42716E-13 4.42716E-13 4.42716E-13 0.00000E+00 0.00000E+00 0.00000E+00
 -1      5619 4.64852E-13 4.64852E-13 4.64852E-13 0.00000E+00 0.00000E+00 0.00000E+00
 -1      5620 4.60425E-13 4.60425E-13 4.60425E-13 0.00000E+00 0.00000E+00 0.00000E+00
 -1      5621 4.64852E-13 4.64852E-13 4.64852E-13 0.00000E+00 0.00000E+00 0.00000E+00
 -1      5622 4.64852E-13 4.64852E-13 4.64852E-13 0.00000E+00 0.00000E+00 0.00000E+00
 -1      5623 4.64852E-13 4.64852E-13 4.64852E-13 0.00000E+00 0.00000E+00 0.00000E+00
 -1      5624 4.60425E-13 4.60425E-13 4.60425E-13 0.00000E+00 0.00000E+00 0.00000E+00
 -1      5625 4.62954E-13 4.62954E-13 4.62954E-13 0.00000E+00 0.00000E+00 0.00000E+00
 -1      5626 4.64852E-13 4.64852E-13 4.64852E-13 0.00000E+00 0.00000E+00 0.00000E+00
 -1      5627 4.64852E-13 4.64852E-13 4.64852E-13 0.00000E+00 0.00000E+00 0.00000E+00
 -1      5628 4.64852E-13 4.64852E-13 4.64852E-13 0.00000E+00 0.00000E+00 0.00000E+00
 -1      5629 4.38289E-13 4.38289E-13 4.38289E-13 0.00000E+00 0.00000E+00 0.00000E+00
 -1      5630 4.55997E-13 4.55997E-13 4.55997E-13 0.00000E+00 0.00000E+00 0.00000E+00
 -1      5631 4.61057E-13 4.61057E-13 4.61057E-13 0.00000E+00 0.00000E+00 0.00000E+00
 -1      5632 4.64852E-13 4.64852E-13 4.64852E-13 0.00000E+00 0.00000E+00 0.00000E+00
 -1      5633 4.64852E-13 4.64852E-13 4.64852E-13 0.00000E+00 0.00000E+00 0.00000E+00
 -1      5634 4.40502E-13 4.40502E-13 4.40502E-13 0.00000E+00 0.00000E+00 0.00000E+00
 -1      5635 4.53784E-13 4.53784E-13 4.53784E-13 0.00000E+00 0.00000E+00 0.00000E+00
 -1      5636 4.44929E-13 4.44929E-13 4.44929E-13 0.00000E+00 0.00000E+00 0.00000E+00
 -1      5637 4.38289E-13 4.38289E-13 4.38289E-13 0.00000E+00 0.00000E+00 0.00000E+00
 -1      5638 4.44929E-13 4.44929E-13 4.44929E-13 0.00000E+00 0.00000E+00 0.00000E+00
 -1      5639 4.42716E-13 4.42716E-13 4.42716E-13 0.00000E+00 0.00000E+00 0.00000E+00
 -1      5640 4.60425E-13 4.60425E-13 4.60425E-13 0.00000E+00 0.00000E+00 0.00000E+00
 -1      5641 4.44929E-13 4.44929E-13 4.44929E-13 0.00000E+00 0.00000E+00 0.00000E+00
 -1      5642 4.64852E-13 4.64852E-13 4.64852E-13 0.00000E+00 0.00000E+00 0.00000E+00
 -1      5643 4.64852E-13 4.64852E-13 4.64852E-13 0.00000E+00 0.00000E+00 0.00000E+00
 -1      5644 4.51570E-13 4.51570E-13 4.51570E-13 0.00000E+00 0.00000E+00 0.00000E+00
 -1      5645 4.49357E-13 4.49357E-13 4.49357E-13 0.00000E+00 0.00000E+00 0.00000E+00
 -1      5646 4.64852E-13 4.64852E-13 4.64852E-13 0.00000E+00 0.00000E+00 0.00000E+00
 -1      5647 4.38289E-13 4.38289E-13 4.38289E-13 0.00000E+00 0.00000E+00 0.00000E+00
 -1      5648 4.64852E-13 4.64852E-13 4.64852E-13 0.00000E+00 0.00000E+00 0.00000E+00
 -1      5649 4.64852E-13 4.64852E-13 4.64852E-13 0.00000E+00 0.00000E+00 0.00000E+00
 -1      5650 4.64852E-13 4.64852E-13 4.64852E-13 0.00000E+00 0.00000E+00 0.00000E+00
 -1      5651 4.49357E-13 4.49357E-13 4.49357E-13 0.00000E+00 0.00000E+00 0.00000E+00
 -1      5652 4.64852E-13 4.64852E-13 4.64852E-13 0.00000E+00 0.00000E+00 0.00000E+00
 -1      5653 4.60425E-13 4.60425E-13 4.60425E-13 0.00000E+00 0.00000E+00 0.00000E+00
 -1      5654 4.38289E-13 4.38289E-13 4.38289E-13 0.00000E+00 0.00000E+00 0.00000E+00
 -1      5655 4.61057E-13 4.61057E-13 4.61057E-13 0.00000E+00 0.00000E+00 0.00000E+00
 -1      5656 4.58211E-13 4.58211E-13 4.58211E-13 0.00000E+00 0.00000E+00 0.00000E+00
 -1      5657 4.40502E-13 4.40502E-13 4.40502E-13 0.00000E+00 0.00000E+00 0.00000E+00
 -1      5658 4.62638E-13 4.62638E-13 4.62638E-13 0.00000E+00 0.00000E+00 0.00000E+00
 -1      5659 4.64852E-13 4.64852E-13 4.64852E-13 0.00000E+00 0.00000E+00 0.00000E+00
 -1      5660 4.64852E-13 4.64852E-13 4.64852E-13 0.00000E+00 0.00000E+00 0.00000E+00
 -1      5661 4.64852E-13 4.64852E-13 4.64852E-13 0.00000E+00 0.00000E+00 0.00000E+00
 -1      5662 4.38289E-13 4.38289E-13 4.38289E-13 0.00000E+00 0.00000E+00 0.00000E+00
 -1      5663 4.60425E-13 4.60425E-13 4.60425E-13 0.00000E+00 0.00000E+00 0.00000E+00
 -1      5664 4.60425E-13 4.60425E-13 4.60425E-13 0.00000E+00 0.00000E+00 0.00000E+00
 -1      5665 4.40502E-13 4.40502E-13 4.40502E-13 0.00000E+00 0.00000E+00 0.00000E+00
 -1      5666 4.58211E-13 4.58211E-13 4.58211E-13 0.00000E+00 0.00000E+00 0.00000E+00
 -1      5667 4.64852E-13 4.64852E-13 4.64852E-13 0.00000E+00 0.00000E+00 0.00000E+00
 -1      5668 4.55997E-13 4.55997E-13 4.55997E-13 0.00000E+00 0.00000E+00 0.00000E+00
 -1      5669 4.64852E-13 4.64852E-13 4.64852E-13 0.00000E+00 0.00000E+00 0.00000E+00
 -1      5670 4.64852E-13 4.64852E-13 4.64852E-13 0.00000E+00 0.00000E+00 0.00000E+00
 -1      5671 4.38289E-13 4.38289E-13 4.38289E-13 0.00000E+00 0.00000E+00 0.00000E+00
 -1      5672 4.42716E-13 4.42716E-13 4.42716E-13 0.00000E+00 0.00000E+00 0.00000E+00
 -1      5673 4.64852E-13 4.64852E-13 4.64852E-13 0.00000E+00 0.00000E+00 0.00000E+00
 -1      5674 4.62638E-13 4.62638E-13 4.62638E-13 0.00000E+00 0.00000E+00 0.00000E+00
 -1      5675 4.62638E-13 4.62638E-13 4.62638E-13 0.00000E+00 0.00000E+00 0.00000E+00
 -1      5676 4.47143E-13 4.47143E-13 4.47143E-13 0.00000E+00 0.00000E+00 0.00000E+00
 -1      5677 4.60425E-13 4.60425E-13 4.60425E-13 0.00000E+00 0.00000E+00 0.00000E+00
 -1      5678 4.40186E-13 4.40186E-13 4.40186E-13 0.00000E+00 0.00000E+00 0.00000E+00
 -1      5679 4.38289E-13 4.38289E-13 4.38289E-13 0.00000E+00 0.00000E+00 0.00000E+00
 -1      5680 4.62638E-13 4.62638E-13 4.62638E-13 0.00000E+00 0.00000E+00 0.00000E+00
 -1      5681 4.42716E-13 4.42716E-13 4.42716E-13 0.00000E+00 0.00000E+00 0.00000E+00
 -1      5682 4.55997E-13 4.55997E-13 4.55997E-13 0.00000E+00 0.00000E+00 0.00000E+00
 -1      5683 4.62638E-13 4.62638E-13 4.62638E-13 0.00000E+00 0.00000E+00 0.00000E+00
 -1      5684 4.51570E-13 4.51570E-13 4.51570E-13 0.00000E+00 0.00000E+00 0.00000E+00
 -1      5685 4.58211E-13 4.58211E-13 4.58211E-13 0.00000E+00 0.00000E+00 0.00000E+00
 -1      5686 4.38289E-13 4.38289E-13 4.38289E-13 0.00000E+00 0.00000E+00 0.00000E+00
 -1      5687 4.42716E-13 4.42716E-13 4.42716E-13 0.00000E+00 0.00000E+00 0.00000E+00
 -1      5688 4.40502E-13 4.40502E-13 4.40502E-13 0.00000E+00 0.00000E+00 0.00000E+00
 -1      5689 4.58211E-13 4.58211E-13 4.58211E-13 0.00000E+00 0.00000E+00 0.00000E+00
 -1      5690 4.64852E-13 4.64852E-13 4.64852E-13 0.00000E+00 0.00000E+00 0.00000E+00
 -1      5691 4.44929E-13 4.44929E-13 4.44929E-13 0.00000E+00 0.00000E+00 0.00000E+00
 -1      5692 4.40502E-13 4.40502E-13 4.40502E-13 0.00000E+00 0.00000E+00 0.00000E+00
 -1      5693 4.38289E-13 4.38289E-13 4.38289E-13 0.00000E+00 0.00000E+00 0.00000E+00
 -1      5694 4.49357E-13 4.49357E-13 4.49357E-13 0.00000E+00 0.00000E+00 0.00000E+00
 -1      5695 4.62638E-13 4.62638E-13 4.62638E-13 0.00000E+00 0.00000E+00 0.00000E+00
 -1      5696 4.44929E-13 4.44929E-13 4.44929E-13 0.00000E+00 0.00000E+00 0.00000E+00
 -1      5697 4.64852E-13 4.64852E-13 4.64852E-13 0.00000E+00 0.00000E+00 0.00000E+00
 -1      5698 4.62638E-13 4.62638E-13 4.62638E-13 0.00000E+00 0.00000E+00 0.00000E+00
 -1      5699 4.38289E-13 4.38289E-13 4.38289E-13 0.00000E+00 0.00000E+00 0.00000E+00
 -1      5700 4.60425E-13 4.60425E-13 4.60425E-13 0.00000E+00 0.00000E+00 0.00000E+00
 -1      5701 4.55997E-13 4.55997E-13 4.55997E-13 0.00000E+00 0.00000E+00 0.00000E+00
 -1      5702 4.64852E-13 4.64852E-13 4.64852E-13 0.00000E+00 0.00000E+00 0.00000E+00
 -1      5703 4.38289E-13 4.38289E-13 4.38289E-13 0.00000E+00 0.00000E+00 0.00000E+00
 -1      5704 4.55997E-13 4.55997E-13 4.55997E-13 0.00000E+00 0.00000E+00 0.00000E+00
 -1      5705 4.38289E-13 4.38289E-13 4.38289E-13 0.00000E+00 0.00000E+00 0.00000E+00
 -1      5706 4.38289E-13 4.38289E-13 4.38289E-13 0.00000E+00 0.00000E+00 0.00000E+00
 -1      5707 4.42716E-13 4.42716E-13 4.42716E-13 0.00000E+00 0.00000E+00 0.00000E+00
 -1      5708 4.64852E-13 4.64852E-13 4.64852E-13 0.00000E+00 0.00000E+00 0.00000E+00
 -1      5709 4.49673E-13 4.49673E-13 4.49673E-13 0.00000E+00 0.00000E+00 0.00000E+00
 -1      5710 4.38289E-13 4.38289E-13 4.38289E-13 0.00000E+00 0.00000E+00 0.00000E+00
 -1      5711 4.38289E-13 4.38289E-13 4.38289E-13 0.00000E+00 0.00000E+00 0.00000E+00
 -1      5712 4.64852E-13 4.64852E-13 4.64852E-13 0.00000E+00 0.00000E+00 0.00000E+00
 -1      5713 4.64852E-13 4.64852E-13 4.64852E-13 0.00000E+00 0.00000E+00 0.00000E+00
 -1      5714 4.38289E-13 4.38289E-13 4.38289E-13 0.00000E+00 0.00000E+00 0.00000E+00
 -1      5715 4.38289E-13 4.38289E-13 4.38289E-13 0.00000E+00 0.00000E+00 0.00000E+00
 -1      5716 4.44929E-13 4.44929E-13 4.44929E-13 0.00000E+00 0.00000E+00 0.00000E+00
 -1      5717 4.62638E-13 4.62638E-13 4.62638E-13 0.00000E+00 0.00000E+00 0.00000E+00
 -1      5718 4.42716E-13 4.42716E-13 4.42716E-13 0.00000E+00 0.00000E+00 0.00000E+00
 -1      5719 4.53784E-13 4.53784E-13 4.53784E-13 0.00000E+00 0.00000E+00 0.00000E+00
 -1      5720 4.42716E-13 4.42716E-13 4.42716E-13 0.00000E+00 0.00000E+00 0.00000E+00
 -1      5721 4.38289E-13 4.38289E-13 4.38289E-13 0.00000E+00 0.00000E+00 0.00000E+00
 -1      5722 4.38289E-13 4.38289E-13 4.38289E-13 0.00000E+00 0.00000E+00 0.00000E+00
 -1      5723 4.38289E-13 4.38289E-13 4.38289E-13 0.00000E+00 0.00000E+00 0.00000E+00
 -1      5724 4.60425E-13 4.60425E-13 4.60425E-13 0.00000E+00 0.00000E+00 0.00000E+00
 -1      5725 4.51570E-13 4.51570E-13 4.51570E-13 0.00000E+00 0.00000E+00 0.00000E+00
 -1      5726 4.55997E-13 4.55997E-13 4.55997E-13 0.00000E+00 0.00000E+00 0.00000E+00
 -1      5727 4.58211E-13 4.58211E-13 4.58211E-13 0.00000E+00 0.00000E+00 0.00000E+00
 -1      5728 4.51570E-13 4.51570E-13 4.51570E-13 0.00000E+00 0.00000E+00 0.00000E+00
 -1      5729 4.38289E-13 4.38289E-13 4.38289E-13 0.00000E+00 0.00000E+00 0.00000E+00
 -1      5730 4.42716E-13 4.42716E-13 4.42716E-13 0.00000E+00 0.00000E+00 0.00000E+00
 -1      5731 4.42716E-13 4.42716E-13 4.42716E-13 0.00000E+00 0.00000E+00 0.00000E+00
 -1      5732 4.38289E-13 4.38289E-13 4.38289E-13 0.00000E+00 0.00000E+00 0.00000E+00
 -1      5733 4.40502E-13 4.40502E-13 4.40502E-13 0.00000E+00 0.00000E+00 0.00000E+00
 -1      5734 4.55997E-13 4.55997E-13 4.55997E-13 0.00000E+00 0.00000E+00 0.00000E+00
 -1      5735 4.60425E-13 4.60425E-13 4.60425E-13 0.00000E+00 0.00000E+00 0.00000E+00
 -1      5736 4.49357E-13 4.49357E-13 4.49357E-13 0.00000E+00 0.00000E+00 0.00000E+00
 -1      5737 4.38289E-13 4.38289E-13 4.38289E-13 0.00000E+00 0.00000E+00 0.00000E+00
 -1      5738 4.38289E-13 4.38289E-13 4.38289E-13 0.00000E+00 0.00000E+00 0.00000E+00
 -1      5739 4.38289E-13 4.38289E-13 4.38289E-13 0.00000E+00 0.00000E+00 0.00000E+00
 -1      5740 4.38289E-13 4.38289E-13 4.38289E-13 0.00000E+00 0.00000E+00 0.00000E+00
 -1      5741 4.64852E-13 4.64852E-13 4.64852E-13 0.00000E+00 0.00000E+00 0.00000E+00
 -1      5742 4.38289E-13 4.38289E-13 4.38289E-13 0.00000E+00 0.00000E+00 0.00000E+00
 -1      5743 4.38289E-13 4.38289E-13 4.38289E-13 0.00000E+00 0.00000E+00 0.00000E+00
 -1      5744 4.47143E-13 4.47143E-13 4.47143E-13 0.00000E+00 0.00000E+00 0.00000E+00
 -1      5745 4.38289E-13 4.38289E-13 4.38289E-13 0.00000E+00 0.00000E+00 0.00000E+00
 -1      5746 4.62638E-13 4.62638E-13 4.62638E-13 0.00000E+00 0.00000E+00 0.00000E+00
 -1      5747 4.38289E-13 4.38289E-13 4.38289E-13 0.00000E+00 0.00000E+00 0.00000E+00
 -1      5748 4.60425E-13 4.60425E-13 4.60425E-13 0.00000E+00 0.00000E+00 0.00000E+00
 -1      5749 4.53784E-13 4.53784E-13 4.53784E-13 0.00000E+00 0.00000E+00 0.00000E+00
 -1      5750 4.58211E-13 4.58211E-13 4.58211E-13 0.00000E+00 0.00000E+00 0.00000E+00
 -1      5751 4.49357E-13 4.49357E-13 4.49357E-13 0.00000E+00 0.00000E+00 0.00000E+00
 -1      5752 4.38289E-13 4.38289E-13 4.38289E-13 0.00000E+00 0.00000E+00 0.00000E+00
 -1      5753 4.42716E-13 4.42716E-13 4.42716E-13 0.00000E+00 0.00000E+00 0.00000E+00
 -1      5754 4.55997E-13 4.55997E-13 4.55997E-13 0.00000E+00 0.00000E+00 0.00000E+00
 -1      5755 4.64852E-13 4.64852E-13 4.64852E-13 0.00000E+00 0.00000E+00 0.00000E+00
 -1      5756 4.38289E-13 4.38289E-13 4.38289E-13 0.00000E+00 0.00000E+00 0.00000E+00
 -1      5757 4.38289E-13 4.38289E-13 4.38289E-13 0.00000E+00 0.00000E+00 0.00000E+00
 -1      5758 4.64852E-13 4.64852E-13 4.64852E-13 0.00000E+00 0.00000E+00 0.00000E+00
 -1      5759 4.64852E-13 4.64852E-13 4.64852E-13 0.00000E+00 0.00000E+00 0.00000E+00
 -1      5760 4.44929E-13 4.44929E-13 4.44929E-13 0.00000E+00 0.00000E+00 0.00000E+00
 -1      5761 4.64852E-13 4.64852E-13 4.64852E-13 0.00000E+00 0.00000E+00 0.00000E+00
 -1      5762 4.62638E-13 4.62638E-13 4.62638E-13 0.00000E+00 0.00000E+00 0.00000E+00
 -1      5763 4.64852E-13 4.64852E-13 4.64852E-13 0.00000E+00 0.00000E+00 0.00000E+00
 -1      5764 4.38289E-13 4.38289E-13 4.38289E-13 0.00000E+00 0.00000E+00 0.00000E+00
 -1      5765 4.58211E-13 4.58211E-13 4.58211E-13 0.00000E+00 0.00000E+00 0.00000E+00
 -1      5766 4.38289E-13 4.38289E-13 4.38289E-13 0.00000E+00 0.00000E+00 0.00000E+00
 -1      5767 4.49357E-13 4.49357E-13 4.49357E-13 0.00000E+00 0.00000E+00 0.00000E+00
 -1      5768 4.38289E-13 4.38289E-13 4.38289E-13 0.00000E+00 0.00000E+00 0.00000E+00
 -1      5769 4.38289E-13 4.38289E-13 4.38289E-13 0.00000E+00 0.00000E+00 0.00000E+00
 -1      5770 4.40502E-13 4.40502E-13 4.40502E-13 0.00000E+00 0.00000E+00 0.00000E+00
 -1      5771 4.40502E-13 4.40502E-13 4.40502E-13 0.00000E+00 0.00000E+00 0.00000E+00
 -1      5772 4.40502E-13 4.40502E-13 4.40502E-13 0.00000E+00 0.00000E+00 0.00000E+00
 -1      5773 4.64852E-13 4.64852E-13 4.64852E-13 0.00000E+00 0.00000E+00 0.00000E+00
 -1      5774 4.64852E-13 4.64852E-13 4.64852E-13 0.00000E+00 0.00000E+00 0.00000E+00
 -1      5775 4.64852E-13 4.64852E-13 4.64852E-13 0.00000E+00 0.00000E+00 0.00000E+00
 -1      5776 4.38289E-13 4.38289E-13 4.38289E-13 0.00000E+00 0.00000E+00 0.00000E+00
 -1      5777 4.58211E-13 4.58211E-13 4.58211E-13 0.00000E+00 0.00000E+00 0.00000E+00
 -1      5778 4.64852E-13 4.64852E-13 4.64852E-13 0.00000E+00 0.00000E+00 0.00000E+00
 -1      5779 4.38289E-13 4.38289E-13 4.38289E-13 0.00000E+00 0.00000E+00 0.00000E+00
 -1      5780 4.44929E-13 4.44929E-13 4.44929E-13 0.00000E+00 0.00000E+00 0.00000E+00
 -1      5781 4.64852E-13 4.64852E-13 4.64852E-13 0.00000E+00 0.00000E+00 0.00000E+00
 -1      5782 4.38289E-13 4.38289E-13 4.38289E-13 0.00000E+00 0.00000E+00 0.00000E+00
 -1      5783 4.64852E-13 4.64852E-13 4.64852E-13 0.00000E+00 0.00000E+00 0.00000E+00
 -1      5784 4.64852E-13 4.64852E-13 4.64852E-13 0.00000E+00 0.00000E+00 0.00000E+00
 -1      5785 4.38289E-13 4.38289E-13 4.38289E-13 0.00000E+00 0.00000E+00 0.00000E+00
 -1      5786 4.38289E-13 4.38289E-13 4.38289E-13 0.00000E+00 0.00000E+00 0.00000E+00
 -1      5787 4.64852E-13 4.64852E-13 4.64852E-13 0.00000E+00 0.00000E+00 0.00000E+00
 -1      5788 4.62638E-13 4.62638E-13 4.62638E-13 0.00000E+00 0.00000E+00 0.00000E+00
 -1      5789 4.57262E-13 4.57262E-13 4.57262E-13 0.00000E+00 0.00000E+00 0.00000E+00
 -1      5790 4.64852E-13 4.64852E-13 4.64852E-13 0.00000E+00 0.00000E+00 0.00000E+00
 -1      5791 4.44929E-13 4.44929E-13 4.44929E-13 0.00000E+00 0.00000E+00 0.00000E+00
 -1      5792 4.38289E-13 4.38289E-13 4.38289E-13 0.00000E+00 0.00000E+00 0.00000E+00
 -1      5793 4.64852E-13 4.64852E-13 4.64852E-13 0.00000E+00 0.00000E+00 0.00000E+00
 -1      5794 4.38289E-13 4.38289E-13 4.38289E-13 0.00000E+00 0.00000E+00 0.00000E+00
 -1      5795 4.62638E-13 4.62638E-13 4.62638E-13 0.00000E+00 0.00000E+00 0.00000E+00
 -1      5796 4.57262E-13 4.57262E-13 4.57262E-13 0.00000E+00 0.00000E+00 0.00000E+00
 -1      5797 4.47775E-13 4.47775E-13 4.47775E-13 0.00000E+00 0.00000E+00 0.00000E+00
 -1      5798 4.40502E-13 4.40502E-13 4.40502E-13 0.00000E+00 0.00000E+00 0.00000E+00
 -1      5799 4.64852E-13 4.64852E-13 4.64852E-13 0.00000E+00 0.00000E+00 0.00000E+00
 -1      5800 4.64852E-13 4.64852E-13 4.64852E-13 0.00000E+00 0.00000E+00 0.00000E+00
 -1      5801 4.42716E-13 4.42716E-13 4.42716E-13 0.00000E+00 0.00000E+00 0.00000E+00
 -1      5802 4.64852E-13 4.64852E-13 4.64852E-13 0.00000E+00 0.00000E+00 0.00000E+00
 -1      5803 4.38289E-13 4.38289E-13 4.38289E-13 0.00000E+00 0.00000E+00 0.00000E+00
 -1      5804 4.47143E-13 4.47143E-13 4.47143E-13 0.00000E+00 0.00000E+00 0.00000E+00
 -1      5805 4.43981E-13 4.43981E-13 4.43981E-13 0.00000E+00 0.00000E+00 0.00000E+00
 -1      5806 4.64852E-13 4.64852E-13 4.64852E-13 0.00000E+00 0.00000E+00 0.00000E+00
 -1      5807 4.64852E-13 4.64852E-13 4.64852E-13 0.00000E+00 0.00000E+00 0.00000E+00
 -1      5808 4.64852E-13 4.64852E-13 4.64852E-13 0.00000E+00 0.00000E+00 0.00000E+00
 -1      5809 4.64852E-13 4.64852E-13 4.64852E-13 0.00000E+00 0.00000E+00 0.00000E+00
 -1      5810 4.64852E-13 4.64852E-13 4.64852E-13 0.00000E+00 0.00000E+00 0.00000E+00
 -1      5811 4.38289E-13 4.38289E-13 4.38289E-13 0.00000E+00 0.00000E+00 0.00000E+00
 -1      5812 4.73706E-13 4.73706E-13 4.73706E-13 0.00000E+00 0.00000E+00 0.00000E+00
 -1      5813 4.62638E-13 4.62638E-13 4.62638E-13 0.00000E+00 0.00000E+00 0.00000E+00
 -1      5814 4.64852E-13 4.64852E-13 4.64852E-13 0.00000E+00 0.00000E+00 0.00000E+00
 -1      5815 4.47143E-13 4.47143E-13 4.47143E-13 0.00000E+00 0.00000E+00 0.00000E+00
 -1      5816 4.38289E-13 4.38289E-13 4.38289E-13 0.00000E+00 0.00000E+00 0.00000E+00
 -1      5817 4.62638E-13 4.62638E-13 4.62638E-13 0.00000E+00 0.00000E+00 0.00000E+00
 -1      5818 4.42083E-13 4.42083E-13 4.42083E-13 0.00000E+00 0.00000E+00 0.00000E+00
 -1      5819 4.61057E-13 4.61057E-13 4.61057E-13 0.00000E+00 0.00000E+00 0.00000E+00
 -1      5820 4.38289E-13 4.38289E-13 4.38289E-13 0.00000E+00 0.00000E+00 0.00000E+00
 -1      5821 4.64852E-13 4.64852E-13 4.64852E-13 0.00000E+00 0.00000E+00 0.00000E+00
 -1      5822 4.40502E-13 4.40502E-13 4.40502E-13 0.00000E+00 0.00000E+00 0.00000E+00
 -1      5823 4.64852E-13 4.64852E-13 4.64852E-13 0.00000E+00 0.00000E+00 0.00000E+00
 -1      5824 4.44929E-13 4.44929E-13 4.44929E-13 0.00000E+00 0.00000E+00 0.00000E+00
 -1      5825 4.38289E-13 4.38289E-13 4.38289E-13 0.00000E+00 0.00000E+00 0.00000E+00
 -1      5826 4.60425E-13 4.60425E-13 4.60425E-13 0.00000E+00 0.00000E+00 0.00000E+00
 -1      5827 4.38289E-13 4.38289E-13 4.38289E-13 0.00000E+00 0.00000E+00 0.00000E+00
 -1      5828 4.64852E-13 4.64852E-13 4.64852E-13 0.00000E+00 0.00000E+00 0.00000E+00
 -1      5829 4.40502E-13 4.40502E-13 4.40502E-13 0.00000E+00 0.00000E+00 0.00000E+00
 -1      5830 4.64852E-13 4.64852E-13 4.64852E-13 0.00000E+00 0.00000E+00 0.00000E+00
 -1      5831 4.42716E-13 4.42716E-13 4.42716E-13 0.00000E+00 0.00000E+00 0.00000E+00
 -1      5832 4.64852E-13 4.64852E-13 4.64852E-13 0.00000E+00 0.00000E+00 0.00000E+00
 -1      5833 4.58211E-13 4.58211E-13 4.58211E-13 0.00000E+00 0.00000E+00 0.00000E+00
 -1      5834 4.42716E-13 4.42716E-13 4.42716E-13 0.00000E+00 0.00000E+00 0.00000E+00
 -1      5835 4.40502E-13 4.40502E-13 4.40502E-13 0.00000E+00 0.00000E+00 0.00000E+00
 -1      5836 4.38289E-13 4.38289E-13 4.38289E-13 0.00000E+00 0.00000E+00 0.00000E+00
 -1      5837 4.38289E-13 4.38289E-13 4.38289E-13 0.00000E+00 0.00000E+00 0.00000E+00
 -1      5838 4.64852E-13 4.64852E-13 4.64852E-13 0.00000E+00 0.00000E+00 0.00000E+00
 -1      5839 4.64852E-13 4.64852E-13 4.64852E-13 0.00000E+00 0.00000E+00 0.00000E+00
 -1      5840 4.64852E-13 4.64852E-13 4.64852E-13 0.00000E+00 0.00000E+00 0.00000E+00
 -1      5841 4.64852E-13 4.64852E-13 4.64852E-13 0.00000E+00 0.00000E+00 0.00000E+00
 -1      5842 4.40502E-13 4.40502E-13 4.40502E-13 0.00000E+00 0.00000E+00 0.00000E+00
 -1      5843 4.38289E-13 4.38289E-13 4.38289E-13 0.00000E+00 0.00000E+00 0.00000E+00
 -1      5844 4.60425E-13 4.60425E-13 4.60425E-13 0.00000E+00 0.00000E+00 0.00000E+00
 -1      5845 4.38289E-13 4.38289E-13 4.38289E-13 0.00000E+00 0.00000E+00 0.00000E+00
 -1      5846 4.64852E-13 4.64852E-13 4.64852E-13 0.00000E+00 0.00000E+00 0.00000E+00
 -1      5847 4.44929E-13 4.44929E-13 4.44929E-13 0.00000E+00 0.00000E+00 0.00000E+00
 -1      5848 4.64852E-13 4.64852E-13 4.64852E-13 0.00000E+00 0.00000E+00 0.00000E+00
 -1      5849 4.64852E-13 4.64852E-13 4.64852E-13 0.00000E+00 0.00000E+00 0.00000E+00
 -1      5850 4.38289E-13 4.38289E-13 4.38289E-13 0.00000E+00 0.00000E+00 0.00000E+00
 -1      5851 4.51570E-13 4.51570E-13 4.51570E-13 0.00000E+00 0.00000E+00 0.00000E+00
 -1      5852 4.60425E-13 4.60425E-13 4.60425E-13 0.00000E+00 0.00000E+00 0.00000E+00
 -1      5853 4.38289E-13 4.38289E-13 4.38289E-13 0.00000E+00 0.00000E+00 0.00000E+00
 -1      5854 4.64852E-13 4.64852E-13 4.64852E-13 0.00000E+00 0.00000E+00 0.00000E+00
 -1      5855 4.44929E-13 4.44929E-13 4.44929E-13 0.00000E+00 0.00000E+00 0.00000E+00
 -1      5856 4.64852E-13 4.64852E-13 4.64852E-13 0.00000E+00 0.00000E+00 0.00000E+00
 -1      5857 4.64852E-13 4.64852E-13 4.64852E-13 0.00000E+00 0.00000E+00 0.00000E+00
 -1      5858 4.44929E-13 4.44929E-13 4.44929E-13 0.00000E+00 0.00000E+00 0.00000E+00
 -1      5859 4.60425E-13 4.60425E-13 4.60425E-13 0.00000E+00 0.00000E+00 0.00000E+00
 -1      5860 4.42716E-13 4.42716E-13 4.42716E-13 0.00000E+00 0.00000E+00 0.00000E+00
 -1      5861 4.64852E-13 4.64852E-13 4.64852E-13 0.00000E+00 0.00000E+00 0.00000E+00
 -1      5862 4.64852E-13 4.64852E-13 4.64852E-13 0.00000E+00 0.00000E+00 0.00000E+00
 -1      5863 4.38289E-13 4.38289E-13 4.38289E-13 0.00000E+00 0.00000E+00 0.00000E+00
 -1      5864 4.38289E-13 4.38289E-13 4.38289E-13 0.00000E+00 0.00000E+00 0.00000E+00
 -1      5865 4.49357E-13 4.49357E-13 4.49357E-13 0.00000E+00 0.00000E+00 0.00000E+00
 -1      5866 4.40502E-13 4.40502E-13 4.40502E-13 0.00000E+00 0.00000E+00 0.00000E+00
 -1      5867 4.42716E-13 4.42716E-13 4.42716E-13 0.00000E+00 0.00000E+00 0.00000E+00
 -1      5868 4.64852E-13 4.64852E-13 4.64852E-13 0.00000E+00 0.00000E+00 0.00000E+00
 -1      5869 4.44929E-13 4.44929E-13 4.44929E-13 0.00000E+00 0.00000E+00 0.00000E+00
 -1      5870 4.64852E-13 4.64852E-13 4.64852E-13 0.00000E+00 0.00000E+00 0.00000E+00
 -1      5871 4.53784E-13 4.53784E-13 4.53784E-13 0.00000E+00 0.00000E+00 0.00000E+00
 -1      5872 4.42716E-13 4.42716E-13 4.42716E-13 0.00000E+00 0.00000E+00 0.00000E+00
 -1      5873 4.64852E-13 4.64852E-13 4.64852E-13 0.00000E+00 0.00000E+00 0.00000E+00
 -1      5874 4.64852E-13 4.64852E-13 4.64852E-13 0.00000E+00 0.00000E+00 0.00000E+00
 -1      5875 4.51570E-13 4.51570E-13 4.51570E-13 0.00000E+00 0.00000E+00 0.00000E+00
 -1      5876 4.55997E-13 4.55997E-13 4.55997E-13 0.00000E+00 0.00000E+00 0.00000E+00
 -1      5877 4.38289E-13 4.38289E-13 4.38289E-13 0.00000E+00 0.00000E+00 0.00000E+00
 -1      5878 4.42716E-13 4.42716E-13 4.42716E-13 0.00000E+00 0.00000E+00 0.00000E+00
 -1      5879 4.49357E-13 4.49357E-13 4.49357E-13 0.00000E+00 0.00000E+00 0.00000E+00
 -1      5880 4.58211E-13 4.58211E-13 4.58211E-13 0.00000E+00 0.00000E+00 0.00000E+00
 -1      5881 4.40502E-13 4.40502E-13 4.40502E-13 0.00000E+00 0.00000E+00 0.00000E+00
 -1      5882 4.47143E-13 4.47143E-13 4.47143E-13 0.00000E+00 0.00000E+00 0.00000E+00
 -1      5883 4.38289E-13 4.38289E-13 4.38289E-13 0.00000E+00 0.00000E+00 0.00000E+00
 -1      5884 4.64852E-13 4.64852E-13 4.64852E-13 0.00000E+00 0.00000E+00 0.00000E+00
 -1      5885 4.64852E-13 4.64852E-13 4.64852E-13 0.00000E+00 0.00000E+00 0.00000E+00
 -1      5886 4.64852E-13 4.64852E-13 4.64852E-13 0.00000E+00 0.00000E+00 0.00000E+00
 -1      5887 4.64852E-13 4.64852E-13 4.64852E-13 0.00000E+00 0.00000E+00 0.00000E+00
 -1      5888 4.60425E-13 4.60425E-13 4.60425E-13 0.00000E+00 0.00000E+00 0.00000E+00
 -1      5889 4.40502E-13 4.40502E-13 4.40502E-13 0.00000E+00 0.00000E+00 0.00000E+00
 -1      5890 4.38289E-13 4.38289E-13 4.38289E-13 0.00000E+00 0.00000E+00 0.00000E+00
 -1      5891 4.40502E-13 4.40502E-13 4.40502E-13 0.00000E+00 0.00000E+00 0.00000E+00
 -1      5892 4.38289E-13 4.38289E-13 4.38289E-13 0.00000E+00 0.00000E+00 0.00000E+00
 -1      5893 4.64852E-13 4.64852E-13 4.64852E-13 0.00000E+00 0.00000E+00 0.00000E+00
 -1      5894 4.40502E-13 4.40502E-13 4.40502E-13 0.00000E+00 0.00000E+00 0.00000E+00
 -1      5895 4.44929E-13 4.44929E-13 4.44929E-13 0.00000E+00 0.00000E+00 0.00000E+00
 -1      5896 4.38289E-13 4.38289E-13 4.38289E-13 0.00000E+00 0.00000E+00 0.00000E+00
 -1      5897 4.64852E-13 4.64852E-13 4.64852E-13 0.00000E+00 0.00000E+00 0.00000E+00
 -1      5898 4.62638E-13 4.62638E-13 4.62638E-13 0.00000E+00 0.00000E+00 0.00000E+00
 -1      5899 4.40502E-13 4.40502E-13 4.40502E-13 0.00000E+00 0.00000E+00 0.00000E+00
 -1      5900 4.60425E-13 4.60425E-13 4.60425E-13 0.00000E+00 0.00000E+00 0.00000E+00
 -1      5901 4.53784E-13 4.53784E-13 4.53784E-13 0.00000E+00 0.00000E+00 0.00000E+00
 -1      5902 4.58211E-13 4.58211E-13 4.58211E-13 0.00000E+00 0.00000E+00 0.00000E+00
 -1      5903 4.40502E-13 4.40502E-13 4.40502E-13 0.00000E+00 0.00000E+00 0.00000E+00
 -1      5904 4.42716E-13 4.42716E-13 4.42716E-13 0.00000E+00 0.00000E+00 0.00000E+00
 -1      5905 4.64852E-13 4.64852E-13 4.64852E-13 0.00000E+00 0.00000E+00 0.00000E+00
 -1      5906 4.64852E-13 4.64852E-13 4.64852E-13 0.00000E+00 0.00000E+00 0.00000E+00
 -1      5907 4.38289E-13 4.38289E-13 4.38289E-13 0.00000E+00 0.00000E+00 0.00000E+00
 -1      5908 4.38289E-13 4.38289E-13 4.38289E-13 0.00000E+00 0.00000E+00 0.00000E+00
 -1      5909 4.53784E-13 4.53784E-13 4.53784E-13 0.00000E+00 0.00000E+00 0.00000E+00
 -1      5910 4.55997E-13 4.55997E-13 4.55997E-13 0.00000E+00 0.00000E+00 0.00000E+00
 -1      5911 4.64852E-13 4.64852E-13 4.64852E-13 0.00000E+00 0.00000E+00 0.00000E+00
 -1      5912 4.47143E-13 4.47143E-13 4.47143E-13 0.00000E+00 0.00000E+00 0.00000E+00
 -1      5913 4.44929E-13 4.44929E-13 4.44929E-13 0.00000E+00 0.00000E+00 0.00000E+00
 -1      5914 4.38289E-13 4.38289E-13 4.38289E-13 0.00000E+00 0.00000E+00 0.00000E+00
 -1      5915 4.38289E-13 4.38289E-13 4.38289E-13 0.00000E+00 0.00000E+00 0.00000E+00
 -1      5916 4.64852E-13 4.64852E-13 4.64852E-13 0.00000E+00 0.00000E+00 0.00000E+00
 -1      5917 4.64852E-13 4.64852E-13 4.64852E-13 0.00000E+00 0.00000E+00 0.00000E+00
 -1      5918 4.42716E-13 4.42716E-13 4.42716E-13 0.00000E+00 0.00000E+00 0.00000E+00
 -1      5919 4.44929E-13 4.44929E-13 4.44929E-13 0.00000E+00 0.00000E+00 0.00000E+00
 -1      5920 4.64852E-13 4.64852E-13 4.64852E-13 0.00000E+00 0.00000E+00 0.00000E+00
 -1      5921 4.64852E-13 4.64852E-13 4.64852E-13 0.00000E+00 0.00000E+00 0.00000E+00
 -1      5922 4.64852E-13 4.64852E-13 4.64852E-13 0.00000E+00 0.00000E+00 0.00000E+00
 -1      5923 4.47143E-13 4.47143E-13 4.47143E-13 0.00000E+00 0.00000E+00 0.00000E+00
 -1      5924 4.38289E-13 4.38289E-13 4.38289E-13 0.00000E+00 0.00000E+00 0.00000E+00
 -1      5925 4.53784E-13 4.53784E-13 4.53784E-13 0.00000E+00 0.00000E+00 0.00000E+00
 -1      5926 4.42716E-13 4.42716E-13 4.42716E-13 0.00000E+00 0.00000E+00 0.00000E+00
 -1      5927 4.64852E-13 4.64852E-13 4.64852E-13 0.00000E+00 0.00000E+00 0.00000E+00
 -1      5928 4.64852E-13 4.64852E-13 4.64852E-13 0.00000E+00 0.00000E+00 0.00000E+00
 -1      5929 4.38289E-13 4.38289E-13 4.38289E-13 0.00000E+00 0.00000E+00 0.00000E+00
 -1      5930 4.44929E-13 4.44929E-13 4.44929E-13 0.00000E+00 0.00000E+00 0.00000E+00
 -1      5931 4.64852E-13 4.64852E-13 4.64852E-13 0.00000E+00 0.00000E+00 0.00000E+00
 -1      5932 4.38289E-13 4.38289E-13 4.38289E-13 0.00000E+00 0.00000E+00 0.00000E+00
 -1      5933 4.64852E-13 4.64852E-13 4.64852E-13 0.00000E+00 0.00000E+00 0.00000E+00
 -1      5934 4.44929E-13 4.44929E-13 4.44929E-13 0.00000E+00 0.00000E+00 0.00000E+00
 -1      5935 4.64852E-13 4.64852E-13 4.64852E-13 0.00000E+00 0.00000E+00 0.00000E+00
 -1      5936 4.38289E-13 4.38289E-13 4.38289E-13 0.00000E+00 0.00000E+00 0.00000E+00
 -1      5937 4.64852E-13 4.64852E-13 4.64852E-13 0.00000E+00 0.00000E+00 0.00000E+00
 -1      5938 4.53784E-13 4.53784E-13 4.53784E-13 0.00000E+00 0.00000E+00 0.00000E+00
 -1      5939 4.62638E-13 4.62638E-13 4.62638E-13 0.00000E+00 0.00000E+00 0.00000E+00
 -1      5940 4.64852E-13 4.64852E-13 4.64852E-13 0.00000E+00 0.00000E+00 0.00000E+00
 -1      5941 4.64852E-13 4.64852E-13 4.64852E-13 0.00000E+00 0.00000E+00 0.00000E+00
 -1      5942 4.60425E-13 4.60425E-13 4.60425E-13 0.00000E+00 0.00000E+00 0.00000E+00
 -1      5943 4.47143E-13 4.47143E-13 4.47143E-13 0.00000E+00 0.00000E+00 0.00000E+00
 -1      5944 4.40502E-13 4.40502E-13 4.40502E-13 0.00000E+00 0.00000E+00 0.00000E+00
 -1      5945 4.42083E-13 4.42083E-13 4.42083E-13 0.00000E+00 0.00000E+00 0.00000E+00
 -1      5946 4.38289E-13 4.38289E-13 4.38289E-13 0.00000E+00 0.00000E+00 0.00000E+00
 -1      5947 4.38289E-13 4.38289E-13 4.38289E-13 0.00000E+00 0.00000E+00 0.00000E+00
 -1      5948 4.64852E-13 4.64852E-13 4.64852E-13 0.00000E+00 0.00000E+00 0.00000E+00
 -1      5949 4.64852E-13 4.64852E-13 4.64852E-13 0.00000E+00 0.00000E+00 0.00000E+00
 -1      5950 4.38289E-13 4.38289E-13 4.38289E-13 0.00000E+00 0.00000E+00 0.00000E+00
 -1      5951 4.38289E-13 4.38289E-13 4.38289E-13 0.00000E+00 0.00000E+00 0.00000E+00
 -1      5952 4.64852E-13 4.64852E-13 4.64852E-13 0.00000E+00 0.00000E+00 0.00000E+00
 -1      5953 4.64852E-13 4.64852E-13 4.64852E-13 0.00000E+00 0.00000E+00 0.00000E+00
 -1      5954 4.44929E-13 4.44929E-13 4.44929E-13 0.00000E+00 0.00000E+00 0.00000E+00
 -1      5955 4.64852E-13 4.64852E-13 4.64852E-13 0.00000E+00 0.00000E+00 0.00000E+00
 -1      5956 4.64852E-13 4.64852E-13 4.64852E-13 0.00000E+00 0.00000E+00 0.00000E+00
 -1      5957 4.60425E-13 4.60425E-13 4.60425E-13 0.00000E+00 0.00000E+00 0.00000E+00
 -1      5958 4.60425E-13 4.60425E-13 4.60425E-13 0.00000E+00 0.00000E+00 0.00000E+00
 -1      5959 4.64852E-13 4.64852E-13 4.64852E-13 0.00000E+00 0.00000E+00 0.00000E+00
 -1      5960 4.38289E-13 4.38289E-13 4.38289E-13 0.00000E+00 0.00000E+00 0.00000E+00
 -1      5961 4.44929E-13 4.44929E-13 4.44929E-13 0.00000E+00 0.00000E+00 0.00000E+00
 -1      5962 4.64852E-13 4.64852E-13 4.64852E-13 0.00000E+00 0.00000E+00 0.00000E+00
 -1      5963 4.64852E-13 4.64852E-13 4.64852E-13 0.00000E+00 0.00000E+00 0.00000E+00
 -1      5964 4.40502E-13 4.40502E-13 4.40502E-13 0.00000E+00 0.00000E+00 0.00000E+00
 -1      5965 4.38289E-13 4.38289E-13 4.38289E-13 0.00000E+00 0.00000E+00 0.00000E+00
 -1      5966 4.53784E-13 4.53784E-13 4.53784E-13 0.00000E+00 0.00000E+00 0.00000E+00
 -1      5967 4.51570E-13 4.51570E-13 4.51570E-13 0.00000E+00 0.00000E+00 0.00000E+00
 -1      5968 4.51570E-13 4.51570E-13 4.51570E-13 0.00000E+00 0.00000E+00 0.00000E+00
 -1      5969 4.64852E-13 4.64852E-13 4.64852E-13 0.00000E+00 0.00000E+00 0.00000E+00
 -1      5970 4.64852E-13 4.64852E-13 4.64852E-13 0.00000E+00 0.00000E+00 0.00000E+00
 -1      5971 4.42716E-13 4.42716E-13 4.42716E-13 0.00000E+00 0.00000E+00 0.00000E+00
 -1      5972 4.64852E-13 4.64852E-13 4.64852E-13 0.00000E+00 0.00000E+00 0.00000E+00
 -1      5973 4.60425E-13 4.60425E-13 4.60425E-13 0.00000E+00 0.00000E+00 0.00000E+00
 -1      5974 4.42716E-13 4.42716E-13 4.42716E-13 0.00000E+00 0.00000E+00 0.00000E+00
 -1      5975 4.38289E-13 4.38289E-13 4.38289E-13 0.00000E+00 0.00000E+00 0.00000E+00
 -1      5976 4.38289E-13 4.38289E-13 4.38289E-13 0.00000E+00 0.00000E+00 0.00000E+00
 -1      5977 4.64852E-13 4.64852E-13 4.64852E-13 0.00000E+00 0.00000E+00 0.00000E+00
 -1      5978 4.38289E-13 4.38289E-13 4.38289E-13 0.00000E+00 0.00000E+00 0.00000E+00
 -1      5979 4.64852E-13 4.64852E-13 4.64852E-13 0.00000E+00 0.00000E+00 0.00000E+00
 -1      5980 4.38289E-13 4.38289E-13 4.38289E-13 0.00000E+00 0.00000E+00 0.00000E+00
 -1      5981 4.64852E-13 4.64852E-13 4.64852E-13 0.00000E+00 0.00000E+00 0.00000E+00
 -1      5982 4.64852E-13 4.64852E-13 4.64852E-13 0.00000E+00 0.00000E+00 0.00000E+00
 -1      5983 4.53784E-13 4.53784E-13 4.53784E-13 0.00000E+00 0.00000E+00 0.00000E+00
 -1      5984 4.64852E-13 4.64852E-13 4.64852E-13 0.00000E+00 0.00000E+00 0.00000E+00
 -1      5985 4.38289E-13 4.38289E-13 4.38289E-13 0.00000E+00 0.00000E+00 0.00000E+00
 -1      5986 4.64852E-13 4.64852E-13 4.64852E-13 0.00000E+00 0.00000E+00 0.00000E+00
 -1      5987 4.55997E-13 4.55997E-13 4.55997E-13 0.00000E+00 0.00000E+00 0.00000E+00
 -1      5988 4.64852E-13 4.64852E-13 4.64852E-13 0.00000E+00 0.00000E+00 0.00000E+00
 -1      5989 4.64852E-13 4.64852E-13 4.64852E-13 0.00000E+00 0.00000E+00 0.00000E+00
 -1      5990 4.64852E-13 4.64852E-13 4.64852E-13 0.00000E+00 0.00000E+00 0.00000E+00
 -1      5991 4.64852E-13 4.64852E-13 4.64852E-13 0.00000E+00 0.00000E+00 0.00000E+00
 -1      5992 4.38289E-13 4.38289E-13 4.38289E-13 0.00000E+00 0.00000E+00 0.00000E+00
 -1      5993 4.38289E-13 4.38289E-13 4.38289E-13 0.00000E+00 0.00000E+00 0.00000E+00
 -1      5994 4.38289E-13 4.38289E-13 4.38289E-13 0.00000E+00 0.00000E+00 0.00000E+00
 -1      5995 4.38289E-13 4.38289E-13 4.38289E-13 0.00000E+00 0.00000E+00 0.00000E+00
 -1      5996 4.59160E-13 4.59160E-13 4.59160E-13 0.00000E+00 0.00000E+00 0.00000E+00
 -1      5997 4.47775E-13 4.47775E-13 4.47775E-13 0.00000E+00 0.00000E+00 0.00000E+00
 -1      5998 4.44929E-13 4.44929E-13 4.44929E-13 0.00000E+00 0.00000E+00 0.00000E+00
 -1      5999 4.64852E-13 4.64852E-13 4.64852E-13 0.00000E+00 0.00000E+00 0.00000E+00
 -1      6000 4.51570E-13 4.51570E-13 4.51570E-13 0.00000E+00 0.00000E+00 0.00000E+00
 -1      6001 4.38289E-13 4.38289E-13 4.38289E-13 0.00000E+00 0.00000E+00 0.00000E+00
 -1      6002 4.38289E-13 4.38289E-13 4.38289E-13 0.00000E+00 0.00000E+00 0.00000E+00
 -1      6003 4.60425E-13 4.60425E-13 4.60425E-13 0.00000E+00 0.00000E+00 0.00000E+00
 -1      6004 4.64852E-13 4.64852E-13 4.64852E-13 0.00000E+00 0.00000E+00 0.00000E+00
 -1      6005 4.38289E-13 4.38289E-13 4.38289E-13 0.00000E+00 0.00000E+00 0.00000E+00
 -1      6006 4.64852E-13 4.64852E-13 4.64852E-13 0.00000E+00 0.00000E+00 0.00000E+00
 -1      6007 4.40502E-13 4.40502E-13 4.40502E-13 0.00000E+00 0.00000E+00 0.00000E+00
 -1      6008 4.64852E-13 4.64852E-13 4.64852E-13 0.00000E+00 0.00000E+00 0.00000E+00
 -1      6009 4.49357E-13 4.49357E-13 4.49357E-13 0.00000E+00 0.00000E+00 0.00000E+00
 -1      6010 4.38289E-13 4.38289E-13 4.38289E-13 0.00000E+00 0.00000E+00 0.00000E+00
 -1      6011 4.44929E-13 4.44929E-13 4.44929E-13 0.00000E+00 0.00000E+00 0.00000E+00
 -1      6012 4.64852E-13 4.64852E-13 4.64852E-13 0.00000E+00 0.00000E+00 0.00000E+00
 -1      6013 4.51570E-13 4.51570E-13 4.51570E-13 0.00000E+00 0.00000E+00 0.00000E+00
 -1      6014 4.64852E-13 4.64852E-13 4.64852E-13 0.00000E+00 0.00000E+00 0.00000E+00
 -1      6015 4.60425E-13 4.60425E-13 4.60425E-13 0.00000E+00 0.00000E+00 0.00000E+00
 -1      6016 4.64852E-13 4.64852E-13 4.64852E-13 0.00000E+00 0.00000E+00 0.00000E+00
 -1      6017 4.38289E-13 4.38289E-13 4.38289E-13 0.00000E+00 0.00000E+00 0.00000E+00
 -1      6018 4.49357E-13 4.49357E-13 4.49357E-13 0.00000E+00 0.00000E+00 0.00000E+00
 -1      6019 4.64852E-13 4.64852E-13 4.64852E-13 0.00000E+00 0.00000E+00 0.00000E+00
 -1      6020 4.53468E-13 4.53468E-13 4.53468E-13 0.00000E+00 0.00000E+00 0.00000E+00
 -1      6021 4.38289E-13 4.38289E-13 4.38289E-13 0.00000E+00 0.00000E+00 0.00000E+00
 -1      6022 4.38289E-13 4.38289E-13 4.38289E-13 0.00000E+00 0.00000E+00 0.00000E+00
 -1      6023 4.38289E-13 4.38289E-13 4.38289E-13 0.00000E+00 0.00000E+00 0.00000E+00
 -1      6024 4.64852E-13 4.64852E-13 4.64852E-13 0.00000E+00 0.00000E+00 0.00000E+00
 -1      6025 4.64852E-13 4.64852E-13 4.64852E-13 0.00000E+00 0.00000E+00 0.00000E+00
 -1      6026 4.40502E-13 4.40502E-13 4.40502E-13 0.00000E+00 0.00000E+00 0.00000E+00
 -1      6027 4.64852E-13 4.64852E-13 4.64852E-13 0.00000E+00 0.00000E+00 0.00000E+00
 -1      6028 4.64852E-13 4.64852E-13 4.64852E-13 0.00000E+00 0.00000E+00 0.00000E+00
 -1      6029 4.55997E-13 4.55997E-13 4.55997E-13 0.00000E+00 0.00000E+00 0.00000E+00
 -1      6030 4.64852E-13 4.64852E-13 4.64852E-13 0.00000E+00 0.00000E+00 0.00000E+00
 -1      6031 4.60425E-13 4.60425E-13 4.60425E-13 0.00000E+00 0.00000E+00 0.00000E+00
 -1      6032 4.55997E-13 4.55997E-13 4.55997E-13 0.00000E+00 0.00000E+00 0.00000E+00
 -1      6033 4.64852E-13 4.64852E-13 4.64852E-13 0.00000E+00 0.00000E+00 0.00000E+00
 -1      6034 4.64852E-13 4.64852E-13 4.64852E-13 0.00000E+00 0.00000E+00 0.00000E+00
 -1      6035 4.60425E-13 4.60425E-13 4.60425E-13 0.00000E+00 0.00000E+00 0.00000E+00
 -1      6036 4.60425E-13 4.60425E-13 4.60425E-13 0.00000E+00 0.00000E+00 0.00000E+00
 -1      6037 4.64852E-13 4.64852E-13 4.64852E-13 0.00000E+00 0.00000E+00 0.00000E+00
 -1      6038 4.53784E-13 4.53784E-13 4.53784E-13 0.00000E+00 0.00000E+00 0.00000E+00
 -1      6039 4.64852E-13 4.64852E-13 4.64852E-13 0.00000E+00 0.00000E+00 0.00000E+00
 -1      6040 4.51570E-13 4.51570E-13 4.51570E-13 0.00000E+00 0.00000E+00 0.00000E+00
 -1      6041 4.40502E-13 4.40502E-13 4.40502E-13 0.00000E+00 0.00000E+00 0.00000E+00
 -1      6042 4.38289E-13 4.38289E-13 4.38289E-13 0.00000E+00 0.00000E+00 0.00000E+00
 -1      6043 4.64852E-13 4.64852E-13 4.64852E-13 0.00000E+00 0.00000E+00 0.00000E+00
 -1      6044 4.64852E-13 4.64852E-13 4.64852E-13 0.00000E+00 0.00000E+00 0.00000E+00
 -1      6045 4.64852E-13 4.64852E-13 4.64852E-13 0.00000E+00 0.00000E+00 0.00000E+00
 -1      6046 4.40502E-13 4.40502E-13 4.40502E-13 0.00000E+00 0.00000E+00 0.00000E+00
 -1      6047 4.64852E-13 4.64852E-13 4.64852E-13 0.00000E+00 0.00000E+00 0.00000E+00
 -1      6048 4.64852E-13 4.64852E-13 4.64852E-13 0.00000E+00 0.00000E+00 0.00000E+00
 -1      6049 4.64852E-13 4.64852E-13 4.64852E-13 0.00000E+00 0.00000E+00 0.00000E+00
 -1      6050 4.64852E-13 4.64852E-13 4.64852E-13 0.00000E+00 0.00000E+00 0.00000E+00
 -1      6051 4.38289E-13 4.38289E-13 4.38289E-13 0.00000E+00 0.00000E+00 0.00000E+00
 -1      6052 4.64852E-13 4.64852E-13 4.64852E-13 0.00000E+00 0.00000E+00 0.00000E+00
 -1      6053 4.38289E-13 4.38289E-13 4.38289E-13 0.00000E+00 0.00000E+00 0.00000E+00
 -1      6054 4.64852E-13 4.64852E-13 4.64852E-13 0.00000E+00 0.00000E+00 0.00000E+00
 -1      6055 4.38289E-13 4.38289E-13 4.38289E-13 0.00000E+00 0.00000E+00 0.00000E+00
 -1      6056 4.64852E-13 4.64852E-13 4.64852E-13 0.00000E+00 0.00000E+00 0.00000E+00
 -1      6057 4.49357E-13 4.49357E-13 4.49357E-13 0.00000E+00 0.00000E+00 0.00000E+00
 -1      6058 4.51570E-13 4.51570E-13 4.51570E-13 0.00000E+00 0.00000E+00 0.00000E+00
 -1      6059 4.64852E-13 4.64852E-13 4.64852E-13 0.00000E+00 0.00000E+00 0.00000E+00
 -1      6060 4.53784E-13 4.53784E-13 4.53784E-13 0.00000E+00 0.00000E+00 0.00000E+00
 -1      6061 4.38289E-13 4.38289E-13 4.38289E-13 0.00000E+00 0.00000E+00 0.00000E+00
 -1      6062 4.38289E-13 4.38289E-13 4.38289E-13 0.00000E+00 0.00000E+00 0.00000E+00
 -1      6063 4.44929E-13 4.44929E-13 4.44929E-13 0.00000E+00 0.00000E+00 0.00000E+00
 -1      6064 4.62638E-13 4.62638E-13 4.62638E-13 0.00000E+00 0.00000E+00 0.00000E+00
 -1      6065 4.59160E-13 4.59160E-13 4.59160E-13 0.00000E+00 0.00000E+00 0.00000E+00
 -1      6066 4.64852E-13 4.64852E-13 4.64852E-13 0.00000E+00 0.00000E+00 0.00000E+00
 -1      6067 4.64852E-13 4.64852E-13 4.64852E-13 0.00000E+00 0.00000E+00 0.00000E+00
 -1      6068 4.64852E-13 4.64852E-13 4.64852E-13 0.00000E+00 0.00000E+00 0.00000E+00
 -1      6069 4.60425E-13 4.60425E-13 4.60425E-13 0.00000E+00 0.00000E+00 0.00000E+00
 -1      6070 4.42083E-13 4.42083E-13 4.42083E-13 0.00000E+00 0.00000E+00 0.00000E+00
 -1      6071 4.64852E-13 4.64852E-13 4.64852E-13 0.00000E+00 0.00000E+00 0.00000E+00
 -1      6072 4.64852E-13 4.64852E-13 4.64852E-13 0.00000E+00 0.00000E+00 0.00000E+00
 -1      6073 4.42716E-13 4.42716E-13 4.42716E-13 0.00000E+00 0.00000E+00 0.00000E+00
 -1      6074 4.38289E-13 4.38289E-13 4.38289E-13 0.00000E+00 0.00000E+00 0.00000E+00
 -1      6075 4.64852E-13 4.64852E-13 4.64852E-13 0.00000E+00 0.00000E+00 0.00000E+00
 -1      6076 4.38289E-13 4.38289E-13 4.38289E-13 0.00000E+00 0.00000E+00 0.00000E+00
 -1      6077 4.51570E-13 4.51570E-13 4.51570E-13 0.00000E+00 0.00000E+00 0.00000E+00
 -1      6078 4.40186E-13 4.40186E-13 4.40186E-13 0.00000E+00 0.00000E+00 0.00000E+00
 -1      6079 4.38289E-13 4.38289E-13 4.38289E-13 0.00000E+00 0.00000E+00 0.00000E+00
 -1      6080 4.38289E-13 4.38289E-13 4.38289E-13 0.00000E+00 0.00000E+00 0.00000E+00
 -1      6081 4.58211E-13 4.58211E-13 4.58211E-13 0.00000E+00 0.00000E+00 0.00000E+00
 -1      6082 4.64852E-13 4.64852E-13 4.64852E-13 0.00000E+00 0.00000E+00 0.00000E+00
 -1      6083 4.38289E-13 4.38289E-13 4.38289E-13 0.00000E+00 0.00000E+00 0.00000E+00
 -1      6084 4.38289E-13 4.38289E-13 4.38289E-13 0.00000E+00 0.00000E+00 0.00000E+00
 -1      6085 4.64852E-13 4.64852E-13 4.64852E-13 0.00000E+00 0.00000E+00 0.00000E+00
 -1      6086 4.64852E-13 4.64852E-13 4.64852E-13 0.00000E+00 0.00000E+00 0.00000E+00
 -1      6087 4.64852E-13 4.64852E-13 4.64852E-13 0.00000E+00 0.00000E+00 0.00000E+00
 -1      6088 4.40502E-13 4.40502E-13 4.40502E-13 0.00000E+00 0.00000E+00 0.00000E+00
 -1      6089 4.64852E-13 4.64852E-13 4.64852E-13 0.00000E+00 0.00000E+00 0.00000E+00
 -1      6090 4.40502E-13 4.40502E-13 4.40502E-13 0.00000E+00 0.00000E+00 0.00000E+00
 -1      6091 4.64852E-13 4.64852E-13 4.64852E-13 0.00000E+00 0.00000E+00 0.00000E+00
 -1      6092 4.58211E-13 4.58211E-13 4.58211E-13 0.00000E+00 0.00000E+00 0.00000E+00
 -1      6093 4.47143E-13 4.47143E-13 4.47143E-13 0.00000E+00 0.00000E+00 0.00000E+00
 -1      6094 4.64852E-13 4.64852E-13 4.64852E-13 0.00000E+00 0.00000E+00 0.00000E+00
 -1      6095 4.64852E-13 4.64852E-13 4.64852E-13 0.00000E+00 0.00000E+00 0.00000E+00
 -1      6096 4.64852E-13 4.64852E-13 4.64852E-13 0.00000E+00 0.00000E+00 0.00000E+00
 -1      6097 4.64852E-13 4.64852E-13 4.64852E-13 0.00000E+00 0.00000E+00 0.00000E+00
 -1      6098 4.64852E-13 4.64852E-13 4.64852E-13 0.00000E+00 0.00000E+00 0.00000E+00
 -1      6099 4.40502E-13 4.40502E-13 4.40502E-13 0.00000E+00 0.00000E+00 0.00000E+00
 -1      6100 4.53784E-13 4.53784E-13 4.53784E-13 0.00000E+00 0.00000E+00 0.00000E+00
 -1      6101 4.38289E-13 4.38289E-13 4.38289E-13 0.00000E+00 0.00000E+00 0.00000E+00
 -1      6102 4.64852E-13 4.64852E-13 4.64852E-13 0.00000E+00 0.00000E+00 0.00000E+00
 -1      6103 4.40502E-13 4.40502E-13 4.40502E-13 0.00000E+00 0.00000E+00 0.00000E+00
 -1      6104 4.58211E-13 4.58211E-13 4.58211E-13 0.00000E+00 0.00000E+00 0.00000E+00
 -1      6105 4.53784E-13 4.53784E-13 4.53784E-13 0.00000E+00 0.00000E+00 0.00000E+00
 -1      6106 4.58211E-13 4.58211E-13 4.58211E-13 0.00000E+00 0.00000E+00 0.00000E+00
 -1      6107 4.64852E-13 4.64852E-13 4.64852E-13 0.00000E+00 0.00000E+00 0.00000E+00
 -1      6108 4.38289E-13 4.38289E-13 4.38289E-13 0.00000E+00 0.00000E+00 0.00000E+00
 -1      6109 4.64852E-13 4.64852E-13 4.64852E-13 0.00000E+00 0.00000E+00 0.00000E+00
 -1      6110 4.38289E-13 4.38289E-13 4.38289E-13 0.00000E+00 0.00000E+00 0.00000E+00
 -1      6111 4.38289E-13 4.38289E-13 4.38289E-13 0.00000E+00 0.00000E+00 0.00000E+00
 -1      6112 4.64852E-13 4.64852E-13 4.64852E-13 0.00000E+00 0.00000E+00 0.00000E+00
 -1      6113 4.38289E-13 4.38289E-13 4.38289E-13 0.00000E+00 0.00000E+00 0.00000E+00
 -1      6114 4.44929E-13 4.44929E-13 4.44929E-13 0.00000E+00 0.00000E+00 0.00000E+00
 -1      6115 4.38289E-13 4.38289E-13 4.38289E-13 0.00000E+00 0.00000E+00 0.00000E+00
 -1      6116 4.64852E-13 4.64852E-13 4.64852E-13 0.00000E+00 0.00000E+00 0.00000E+00
 -1      6117 4.64852E-13 4.64852E-13 4.64852E-13 0.00000E+00 0.00000E+00 0.00000E+00
 -1      6118 4.60425E-13 4.60425E-13 4.60425E-13 0.00000E+00 0.00000E+00 0.00000E+00
 -1      6119 4.38289E-13 4.38289E-13 4.38289E-13 0.00000E+00 0.00000E+00 0.00000E+00
 -1      6120 4.57262E-13 4.57262E-13 4.57262E-13 0.00000E+00 0.00000E+00 0.00000E+00
 -1      6121 4.60425E-13 4.60425E-13 4.60425E-13 0.00000E+00 0.00000E+00 0.00000E+00
 -1      6122 4.62638E-13 4.62638E-13 4.62638E-13 0.00000E+00 0.00000E+00 0.00000E+00
 -1      6123 4.47143E-13 4.47143E-13 4.47143E-13 0.00000E+00 0.00000E+00 0.00000E+00
 -1      6124 4.38289E-13 4.38289E-13 4.38289E-13 0.00000E+00 0.00000E+00 0.00000E+00
 -1      6125 4.64852E-13 4.64852E-13 4.64852E-13 0.00000E+00 0.00000E+00 0.00000E+00
 -1      6126 4.38289E-13 4.38289E-13 4.38289E-13 0.00000E+00 0.00000E+00 0.00000E+00
 -1      6127 4.40502E-13 4.40502E-13 4.40502E-13 0.00000E+00 0.00000E+00 0.00000E+00
 -1      6128 4.64852E-13 4.64852E-13 4.64852E-13 0.00000E+00 0.00000E+00 0.00000E+00
 -1      6129 4.64852E-13 4.64852E-13 4.64852E-13 0.00000E+00 0.00000E+00 0.00000E+00
 -1      6130 4.42716E-13 4.42716E-13 4.42716E-13 0.00000E+00 0.00000E+00 0.00000E+00
 -1      6131 4.64852E-13 4.64852E-13 4.64852E-13 0.00000E+00 0.00000E+00 0.00000E+00
 -1      6132 4.47143E-13 4.47143E-13 4.47143E-13 0.00000E+00 0.00000E+00 0.00000E+00
 -1      6133 4.38289E-13 4.38289E-13 4.38289E-13 0.00000E+00 0.00000E+00 0.00000E+00
 -1      6134 4.44929E-13 4.44929E-13 4.44929E-13 0.00000E+00 0.00000E+00 0.00000E+00
 -1      6135 4.38289E-13 4.38289E-13 4.38289E-13 0.00000E+00 0.00000E+00 0.00000E+00
 -1      6136 4.64852E-13 4.64852E-13 4.64852E-13 0.00000E+00 0.00000E+00 0.00000E+00
 -1      6137 4.64852E-13 4.64852E-13 4.64852E-13 0.00000E+00 0.00000E+00 0.00000E+00
 -1      6138 4.40186E-13 4.40186E-13 4.40186E-13 0.00000E+00 0.00000E+00 0.00000E+00
 -1      6139 4.38289E-13 4.38289E-13 4.38289E-13 0.00000E+00 0.00000E+00 0.00000E+00
 -1      6140 4.60425E-13 4.60425E-13 4.60425E-13 0.00000E+00 0.00000E+00 0.00000E+00
 -1      6141 4.60425E-13 4.60425E-13 4.60425E-13 0.00000E+00 0.00000E+00 0.00000E+00
 -1      6142 4.38289E-13 4.38289E-13 4.38289E-13 0.00000E+00 0.00000E+00 0.00000E+00
 -1      6143 4.61057E-13 4.61057E-13 4.61057E-13 0.00000E+00 0.00000E+00 0.00000E+00
 -1      6144 4.40502E-13 4.40502E-13 4.40502E-13 0.00000E+00 0.00000E+00 0.00000E+00
 -1      6145 4.64852E-13 4.64852E-13 4.64852E-13 0.00000E+00 0.00000E+00 0.00000E+00
 -1      6146 4.40502E-13 4.40502E-13 4.40502E-13 0.00000E+00 0.00000E+00 0.00000E+00
 -1      6147 4.44929E-13 4.44929E-13 4.44929E-13 0.00000E+00 0.00000E+00 0.00000E+00
 -1      6148 4.64852E-13 4.64852E-13 4.64852E-13 0.00000E+00 0.00000E+00 0.00000E+00
 -1      6149 4.53468E-13 4.53468E-13 4.53468E-13 0.00000E+00 0.00000E+00 0.00000E+00
 -1      6150 4.64852E-13 4.64852E-13 4.64852E-13 0.00000E+00 0.00000E+00 0.00000E+00
 -1      6151 4.64852E-13 4.64852E-13 4.64852E-13 0.00000E+00 0.00000E+00 0.00000E+00
 -1      6152 4.38289E-13 4.38289E-13 4.38289E-13 0.00000E+00 0.00000E+00 0.00000E+00
 -1      6153 4.38289E-13 4.38289E-13 4.38289E-13 0.00000E+00 0.00000E+00 0.00000E+00
 -1      6154 4.64852E-13 4.64852E-13 4.64852E-13 0.00000E+00 0.00000E+00 0.00000E+00
 -1      6155 4.38289E-13 4.38289E-13 4.38289E-13 0.00000E+00 0.00000E+00 0.00000E+00
 -1      6156 4.44929E-13 4.44929E-13 4.44929E-13 0.00000E+00 0.00000E+00 0.00000E+00
 -1      6157 4.62638E-13 4.62638E-13 4.62638E-13 0.00000E+00 0.00000E+00 0.00000E+00
 -1      6158 4.38289E-13 4.38289E-13 4.38289E-13 0.00000E+00 0.00000E+00 0.00000E+00
 -1      6159 4.55997E-13 4.55997E-13 4.55997E-13 0.00000E+00 0.00000E+00 0.00000E+00
 -1      6160 4.51570E-13 4.51570E-13 4.51570E-13 0.00000E+00 0.00000E+00 0.00000E+00
 -1      6161 4.62638E-13 4.62638E-13 4.62638E-13 0.00000E+00 0.00000E+00 0.00000E+00
 -1      6162 4.62638E-13 4.62638E-13 4.62638E-13 0.00000E+00 0.00000E+00 0.00000E+00
 -1      6163 4.60425E-13 4.60425E-13 4.60425E-13 0.00000E+00 0.00000E+00 0.00000E+00
 -1      6164 4.42716E-13 4.42716E-13 4.42716E-13 0.00000E+00 0.00000E+00 0.00000E+00
 -1      6165 4.42716E-13 4.42716E-13 4.42716E-13 0.00000E+00 0.00000E+00 0.00000E+00
 -1      6166 4.60425E-13 4.60425E-13 4.60425E-13 0.00000E+00 0.00000E+00 0.00000E+00
 -1      6167 4.42716E-13 4.42716E-13 4.42716E-13 0.00000E+00 0.00000E+00 0.00000E+00
 -1      6168 4.53784E-13 4.53784E-13 4.53784E-13 0.00000E+00 0.00000E+00 0.00000E+00
 -1      6169 4.42716E-13 4.42716E-13 4.42716E-13 0.00000E+00 0.00000E+00 0.00000E+00
 -1      6170 4.42716E-13 4.42716E-13 4.42716E-13 0.00000E+00 0.00000E+00 0.00000E+00
 -1      6171 4.64852E-13 4.64852E-13 4.64852E-13 0.00000E+00 0.00000E+00 0.00000E+00
 -1      6172 4.38289E-13 4.38289E-13 4.38289E-13 0.00000E+00 0.00000E+00 0.00000E+00
 -1      6173 4.64852E-13 4.64852E-13 4.64852E-13 0.00000E+00 0.00000E+00 0.00000E+00
 -1      6174 4.64852E-13 4.64852E-13 4.64852E-13 0.00000E+00 0.00000E+00 0.00000E+00
 -1      6175 4.38289E-13 4.38289E-13 4.38289E-13 0.00000E+00 0.00000E+00 0.00000E+00
 -1      6176 4.64852E-13 4.64852E-13 4.64852E-13 0.00000E+00 0.00000E+00 0.00000E+00
 -1      6177 4.55997E-13 4.55997E-13 4.55997E-13 0.00000E+00 0.00000E+00 0.00000E+00
 -1      6178 4.40502E-13 4.40502E-13 4.40502E-13 0.00000E+00 0.00000E+00 0.00000E+00
 -1      6179 4.40502E-13 4.40502E-13 4.40502E-13 0.00000E+00 0.00000E+00 0.00000E+00
 -1      6180 4.64852E-13 4.64852E-13 4.64852E-13 0.00000E+00 0.00000E+00 0.00000E+00
 -1      6181 4.38289E-13 4.38289E-13 4.38289E-13 0.00000E+00 0.00000E+00 0.00000E+00
 -1      6182 4.38289E-13 4.38289E-13 4.38289E-13 0.00000E+00 0.00000E+00 0.00000E+00
 -1      6183 4.64852E-13 4.64852E-13 4.64852E-13 0.00000E+00 0.00000E+00 0.00000E+00
 -1      6184 4.38289E-13 4.38289E-13 4.38289E-13 0.00000E+00 0.00000E+00 0.00000E+00
 -1      6185 4.38289E-13 4.38289E-13 4.38289E-13 0.00000E+00 0.00000E+00 0.00000E+00
 -1      6186 4.40502E-13 4.40502E-13 4.40502E-13 0.00000E+00 0.00000E+00 0.00000E+00
 -1      6187 4.57262E-13 4.57262E-13 4.57262E-13 0.00000E+00 0.00000E+00 0.00000E+00
 -1      6188 4.38289E-13 4.38289E-13 4.38289E-13 0.00000E+00 0.00000E+00 0.00000E+00
 -1      6189 4.64852E-13 4.64852E-13 4.64852E-13 0.00000E+00 0.00000E+00 0.00000E+00
 -1      6190 4.64852E-13 4.64852E-13 4.64852E-13 0.00000E+00 0.00000E+00 0.00000E+00
 -1      6191 4.64852E-13 4.64852E-13 4.64852E-13 0.00000E+00 0.00000E+00 0.00000E+00
 -1      6192 4.40502E-13 4.40502E-13 4.40502E-13 0.00000E+00 0.00000E+00 0.00000E+00
 -1      6193 4.64852E-13 4.64852E-13 4.64852E-13 0.00000E+00 0.00000E+00 0.00000E+00
 -1      6194 4.55997E-13 4.55997E-13 4.55997E-13 0.00000E+00 0.00000E+00 0.00000E+00
 -1      6195 4.64852E-13 4.64852E-13 4.64852E-13 0.00000E+00 0.00000E+00 0.00000E+00
 -1      6196 4.58211E-13 4.58211E-13 4.58211E-13 0.00000E+00 0.00000E+00 0.00000E+00
 -1      6197 4.55365E-13 4.55365E-13 4.55365E-13 0.00000E+00 0.00000E+00 0.00000E+00
 -1      6198 4.38289E-13 4.38289E-13 4.38289E-13 0.00000E+00 0.00000E+00 0.00000E+00
 -1      6199 4.40502E-13 4.40502E-13 4.40502E-13 0.00000E+00 0.00000E+00 0.00000E+00
 -1      6200 4.64852E-13 4.64852E-13 4.64852E-13 0.00000E+00 0.00000E+00 0.00000E+00
 -1      6201 4.62638E-13 4.62638E-13 4.62638E-13 0.00000E+00 0.00000E+00 0.00000E+00
 -1      6202 4.38289E-13 4.38289E-13 4.38289E-13 0.00000E+00 0.00000E+00 0.00000E+00
 -1      6203 4.44929E-13 4.44929E-13 4.44929E-13 0.00000E+00 0.00000E+00 0.00000E+00
 -1      6204 4.58211E-13 4.58211E-13 4.58211E-13 0.00000E+00 0.00000E+00 0.00000E+00
 -1      6205 4.64852E-13 4.64852E-13 4.64852E-13 0.00000E+00 0.00000E+00 0.00000E+00
 -1      6206 4.64852E-13 4.64852E-13 4.64852E-13 0.00000E+00 0.00000E+00 0.00000E+00
 -1      6207 4.64852E-13 4.64852E-13 4.64852E-13 0.00000E+00 0.00000E+00 0.00000E+00
 -1      6208 4.47143E-13 4.47143E-13 4.47143E-13 0.00000E+00 0.00000E+00 0.00000E+00
 -1      6209 4.64852E-13 4.64852E-13 4.64852E-13 0.00000E+00 0.00000E+00 0.00000E+00
 -1      6210 4.38289E-13 4.38289E-13 4.38289E-13 0.00000E+00 0.00000E+00 0.00000E+00
 -1      6211 4.38289E-13 4.38289E-13 4.38289E-13 0.00000E+00 0.00000E+00 0.00000E+00
 -1      6212 4.64852E-13 4.64852E-13 4.64852E-13 0.00000E+00 0.00000E+00 0.00000E+00
 -1      6213 4.38289E-13 4.38289E-13 4.38289E-13 0.00000E+00 0.00000E+00 0.00000E+00
 -1      6214 4.38289E-13 4.38289E-13 4.38289E-13 0.00000E+00 0.00000E+00 0.00000E+00
 -1      6215 4.38289E-13 4.38289E-13 4.38289E-13 0.00000E+00 0.00000E+00 0.00000E+00
 -1      6216 4.38289E-13 4.38289E-13 4.38289E-13 0.00000E+00 0.00000E+00 0.00000E+00
 -1      6217 4.64852E-13 4.64852E-13 4.64852E-13 0.00000E+00 0.00000E+00 0.00000E+00
 -1      6218 4.38289E-13 4.38289E-13 4.38289E-13 0.00000E+00 0.00000E+00 0.00000E+00
 -1      6219 4.64852E-13 4.64852E-13 4.64852E-13 0.00000E+00 0.00000E+00 0.00000E+00
 -1      6220 4.42716E-13 4.42716E-13 4.42716E-13 0.00000E+00 0.00000E+00 0.00000E+00
 -1      6221 4.38289E-13 4.38289E-13 4.38289E-13 0.00000E+00 0.00000E+00 0.00000E+00
 -1      6222 4.64852E-13 4.64852E-13 4.64852E-13 0.00000E+00 0.00000E+00 0.00000E+00
 -1      6223 4.42716E-13 4.42716E-13 4.42716E-13 0.00000E+00 0.00000E+00 0.00000E+00
 -1      6224 4.64852E-13 4.64852E-13 4.64852E-13 0.00000E+00 0.00000E+00 0.00000E+00
 -1      6225 4.64852E-13 4.64852E-13 4.64852E-13 0.00000E+00 0.00000E+00 0.00000E+00
 -1      6226 4.64852E-13 4.64852E-13 4.64852E-13 0.00000E+00 0.00000E+00 0.00000E+00
 -1      6227 4.40502E-13 4.40502E-13 4.40502E-13 0.00000E+00 0.00000E+00 0.00000E+00
 -1      6228 4.38289E-13 4.38289E-13 4.38289E-13 0.00000E+00 0.00000E+00 0.00000E+00
 -1      6229 4.64852E-13 4.64852E-13 4.64852E-13 0.00000E+00 0.00000E+00 0.00000E+00
 -1      6230 4.42716E-13 4.42716E-13 4.42716E-13 0.00000E+00 0.00000E+00 0.00000E+00
 -1      6231 4.42716E-13 4.42716E-13 4.42716E-13 0.00000E+00 0.00000E+00 0.00000E+00
 -1      6232 4.60425E-13 4.60425E-13 4.60425E-13 0.00000E+00 0.00000E+00 0.00000E+00
 -1      6233 4.38289E-13 4.38289E-13 4.38289E-13 0.00000E+00 0.00000E+00 0.00000E+00
 -1      6234 4.64852E-13 4.64852E-13 4.64852E-13 0.00000E+00 0.00000E+00 0.00000E+00
 -1      6235 4.47143E-13 4.47143E-13 4.47143E-13 0.00000E+00 0.00000E+00 0.00000E+00
 -1      6236 4.53784E-13 4.53784E-13 4.53784E-13 0.00000E+00 0.00000E+00 0.00000E+00
 -1      6237 4.38289E-13 4.38289E-13 4.38289E-13 0.00000E+00 0.00000E+00 0.00000E+00
 -1      6238 4.64852E-13 4.64852E-13 4.64852E-13 0.00000E+00 0.00000E+00 0.00000E+00
 -1      6239 4.64852E-13 4.64852E-13 4.64852E-13 0.00000E+00 0.00000E+00 0.00000E+00
 -1      6240 4.64852E-13 4.64852E-13 4.64852E-13 0.00000E+00 0.00000E+00 0.00000E+00
 -1      6241 4.38289E-13 4.38289E-13 4.38289E-13 0.00000E+00 0.00000E+00 0.00000E+00
 -1      6242 4.47143E-13 4.47143E-13 4.47143E-13 0.00000E+00 0.00000E+00 0.00000E+00
 -1      6243 4.64852E-13 4.64852E-13 4.64852E-13 0.00000E+00 0.00000E+00 0.00000E+00
 -1      6244 4.38289E-13 4.38289E-13 4.38289E-13 0.00000E+00 0.00000E+00 0.00000E+00
 -1      6245 4.47143E-13 4.47143E-13 4.47143E-13 0.00000E+00 0.00000E+00 0.00000E+00
 -1      6246 4.64852E-13 4.64852E-13 4.64852E-13 0.00000E+00 0.00000E+00 0.00000E+00
 -1      6247 4.38289E-13 4.38289E-13 4.38289E-13 0.00000E+00 0.00000E+00 0.00000E+00
 -1      6248 4.64852E-13 4.64852E-13 4.64852E-13 0.00000E+00 0.00000E+00 0.00000E+00
 -1      6249 4.38289E-13 4.38289E-13 4.38289E-13 0.00000E+00 0.00000E+00 0.00000E+00
 -1      6250 4.44929E-13 4.44929E-13 4.44929E-13 0.00000E+00 0.00000E+00 0.00000E+00
 -1      6251 4.49357E-13 4.49357E-13 4.49357E-13 0.00000E+00 0.00000E+00 0.00000E+00
 -1      6252 4.55997E-13 4.55997E-13 4.55997E-13 0.00000E+00 0.00000E+00 0.00000E+00
 -1      6253 4.47143E-13 4.47143E-13 4.47143E-13 0.00000E+00 0.00000E+00 0.00000E+00
 -1      6254 4.38289E-13 4.38289E-13 4.38289E-13 0.00000E+00 0.00000E+00 0.00000E+00
 -1      6255 4.38289E-13 4.38289E-13 4.38289E-13 0.00000E+00 0.00000E+00 0.00000E+00
 -1      6256 4.38289E-13 4.38289E-13 4.38289E-13 0.00000E+00 0.00000E+00 0.00000E+00
 -1      6257 4.42716E-13 4.42716E-13 4.42716E-13 0.00000E+00 0.00000E+00 0.00000E+00
 -1      6258 4.44929E-13 4.44929E-13 4.44929E-13 0.00000E+00 0.00000E+00 0.00000E+00
 -1      6259 4.57262E-13 4.57262E-13 4.57262E-13 0.00000E+00 0.00000E+00 0.00000E+00
 -1      6260 4.64852E-13 4.64852E-13 4.64852E-13 0.00000E+00 0.00000E+00 0.00000E+00
 -1      6261 4.64852E-13 4.64852E-13 4.64852E-13 0.00000E+00 0.00000E+00 0.00000E+00
 -1      6262 4.38289E-13 4.38289E-13 4.38289E-13 0.00000E+00 0.00000E+00 0.00000E+00
 -1      6263 4.64852E-13 4.64852E-13 4.64852E-13 0.00000E+00 0.00000E+00 0.00000E+00
 -1      6264 4.60425E-13 4.60425E-13 4.60425E-13 0.00000E+00 0.00000E+00 0.00000E+00
 -1      6265 4.64852E-13 4.64852E-13 4.64852E-13 0.00000E+00 0.00000E+00 0.00000E+00
 -1      6266 4.58211E-13 4.58211E-13 4.58211E-13 0.00000E+00 0.00000E+00 0.00000E+00
 -1      6267 4.59160E-13 4.59160E-13 4.59160E-13 0.00000E+00 0.00000E+00 0.00000E+00
 -1      6268 4.64852E-13 4.64852E-13 4.64852E-13 0.00000E+00 0.00000E+00 0.00000E+00
 -1      6269 4.60425E-13 4.60425E-13 4.60425E-13 0.00000E+00 0.00000E+00 0.00000E+00
 -1      6270 4.64852E-13 4.64852E-13 4.64852E-13 0.00000E+00 0.00000E+00 0.00000E+00
 -1      6271 4.57262E-13 4.57262E-13 4.57262E-13 0.00000E+00 0.00000E+00 0.00000E+00
 -1      6272 4.40502E-13 4.40502E-13 4.40502E-13 0.00000E+00 0.00000E+00 0.00000E+00
 -1      6273 4.64852E-13 4.64852E-13 4.64852E-13 0.00000E+00 0.00000E+00 0.00000E+00
 -1      6274 4.38289E-13 4.38289E-13 4.38289E-13 0.00000E+00 0.00000E+00 0.00000E+00
 -1      6275 4.38289E-13 4.38289E-13 4.38289E-13 0.00000E+00 0.00000E+00 0.00000E+00
 -1      6276 4.38289E-13 4.38289E-13 4.38289E-13 0.00000E+00 0.00000E+00 0.00000E+00
 -1      6277 4.53784E-13 4.53784E-13 4.53784E-13 0.00000E+00 0.00000E+00 0.00000E+00
 -1      6278 4.64852E-13 4.64852E-13 4.64852E-13 0.00000E+00 0.00000E+00 0.00000E+00
 -1      6279 4.64852E-13 4.64852E-13 4.64852E-13 0.00000E+00 0.00000E+00 0.00000E+00
 -1      6280 4.64852E-13 4.64852E-13 4.64852E-13 0.00000E+00 0.00000E+00 0.00000E+00
 -1      6281 4.64852E-13 4.64852E-13 4.64852E-13 0.00000E+00 0.00000E+00 0.00000E+00
 -1      6282 4.64852E-13 4.64852E-13 4.64852E-13 0.00000E+00 0.00000E+00 0.00000E+00
 -1      6283 4.38289E-13 4.38289E-13 4.38289E-13 0.00000E+00 0.00000E+00 0.00000E+00
 -1      6284 4.64852E-13 4.64852E-13 4.64852E-13 0.00000E+00 0.00000E+00 0.00000E+00
 -1      6285 4.38289E-13 4.38289E-13 4.38289E-13 0.00000E+00 0.00000E+00 0.00000E+00
 -1      6286 4.44929E-13 4.44929E-13 4.44929E-13 0.00000E+00 0.00000E+00 0.00000E+00
 -1      6287 4.38289E-13 4.38289E-13 4.38289E-13 0.00000E+00 0.00000E+00 0.00000E+00
 -1      6288 4.64852E-13 4.64852E-13 4.64852E-13 0.00000E+00 0.00000E+00 0.00000E+00
 -1      6289 4.64852E-13 4.64852E-13 4.64852E-13 0.00000E+00 0.00000E+00 0.00000E+00
 -1      6290 4.53784E-13 4.53784E-13 4.53784E-13 0.00000E+00 0.00000E+00 0.00000E+00
 -1      6291 4.64852E-13 4.64852E-13 4.64852E-13 0.00000E+00 0.00000E+00 0.00000E+00
 -1      6292 4.60425E-13 4.60425E-13 4.60425E-13 0.00000E+00 0.00000E+00 0.00000E+00
 -1      6293 4.38289E-13 4.38289E-13 4.38289E-13 0.00000E+00 0.00000E+00 0.00000E+00
 -1      6294 4.64852E-13 4.64852E-13 4.64852E-13 0.00000E+00 0.00000E+00 0.00000E+00
 -1      6295 4.64852E-13 4.64852E-13 4.64852E-13 0.00000E+00 0.00000E+00 0.00000E+00
 -1      6296 4.64852E-13 4.64852E-13 4.64852E-13 0.00000E+00 0.00000E+00 0.00000E+00
 -1      6297 4.51570E-13 4.51570E-13 4.51570E-13 0.00000E+00 0.00000E+00 0.00000E+00
 -1      6298 4.40502E-13 4.40502E-13 4.40502E-13 0.00000E+00 0.00000E+00 0.00000E+00
 -1      6299 4.38289E-13 4.38289E-13 4.38289E-13 0.00000E+00 0.00000E+00 0.00000E+00
 -1      6300 4.49357E-13 4.49357E-13 4.49357E-13 0.00000E+00 0.00000E+00 0.00000E+00
 -1      6301 4.38289E-13 4.38289E-13 4.38289E-13 0.00000E+00 0.00000E+00 0.00000E+00
 -1      6302 4.38289E-13 4.38289E-13 4.38289E-13 0.00000E+00 0.00000E+00 0.00000E+00
 -1      6303 4.64852E-13 4.64852E-13 4.64852E-13 0.00000E+00 0.00000E+00 0.00000E+00
 -1      6304 4.64852E-13 4.64852E-13 4.64852E-13 0.00000E+00 0.00000E+00 0.00000E+00
 -1      6305 4.64852E-13 4.64852E-13 4.64852E-13 0.00000E+00 0.00000E+00 0.00000E+00
 -1      6306 4.64852E-13 4.64852E-13 4.64852E-13 0.00000E+00 0.00000E+00 0.00000E+00
 -1      6307 4.38289E-13 4.38289E-13 4.38289E-13 0.00000E+00 0.00000E+00 0.00000E+00
 -1      6308 4.38289E-13 4.38289E-13 4.38289E-13 0.00000E+00 0.00000E+00 0.00000E+00
 -1      6309 4.64852E-13 4.64852E-13 4.64852E-13 0.00000E+00 0.00000E+00 0.00000E+00
 -1      6310 4.58211E-13 4.58211E-13 4.58211E-13 0.00000E+00 0.00000E+00 0.00000E+00
 -1      6311 4.47775E-13 4.47775E-13 4.47775E-13 0.00000E+00 0.00000E+00 0.00000E+00
 -1      6312 4.49357E-13 4.49357E-13 4.49357E-13 0.00000E+00 0.00000E+00 0.00000E+00
 -1      6313 4.53784E-13 4.53784E-13 4.53784E-13 0.00000E+00 0.00000E+00 0.00000E+00
 -1      6314 4.58211E-13 4.58211E-13 4.58211E-13 0.00000E+00 0.00000E+00 0.00000E+00
 -1      6315 4.64852E-13 4.64852E-13 4.64852E-13 0.00000E+00 0.00000E+00 0.00000E+00
 -1      6316 4.40186E-13 4.40186E-13 4.40186E-13 0.00000E+00 0.00000E+00 0.00000E+00
 -1      6317 4.64852E-13 4.64852E-13 4.64852E-13 0.00000E+00 0.00000E+00 0.00000E+00
 -1      6318 4.64852E-13 4.64852E-13 4.64852E-13 0.00000E+00 0.00000E+00 0.00000E+00
 -1      6319 4.64852E-13 4.64852E-13 4.64852E-13 0.00000E+00 0.00000E+00 0.00000E+00
 -1      6320 4.64852E-13 4.64852E-13 4.64852E-13 0.00000E+00 0.00000E+00 0.00000E+00
 -1      6321 4.44929E-13 4.44929E-13 4.44929E-13 0.00000E+00 0.00000E+00 0.00000E+00
 -1      6322 4.44929E-13 4.44929E-13 4.44929E-13 0.00000E+00 0.00000E+00 0.00000E+00
 -1      6323 4.64852E-13 4.64852E-13 4.64852E-13 0.00000E+00 0.00000E+00 0.00000E+00
 -1      6324 4.64852E-13 4.64852E-13 4.64852E-13 0.00000E+00 0.00000E+00 0.00000E+00
 -1      6325 4.62638E-13 4.62638E-13 4.62638E-13 0.00000E+00 0.00000E+00 0.00000E+00
 -1      6326 4.38289E-13 4.38289E-13 4.38289E-13 0.00000E+00 0.00000E+00 0.00000E+00
 -1      6327 4.42716E-13 4.42716E-13 4.42716E-13 0.00000E+00 0.00000E+00 0.00000E+00
 -1      6328 4.40502E-13 4.40502E-13 4.40502E-13 0.00000E+00 0.00000E+00 0.00000E+00
 -1      6329 4.38289E-13 4.38289E-13 4.38289E-13 0.00000E+00 0.00000E+00 0.00000E+00
 -1      6330 4.64852E-13 4.64852E-13 4.64852E-13 0.00000E+00 0.00000E+00 0.00000E+00
 -1      6331 4.49673E-13 4.49673E-13 4.49673E-13 0.00000E+00 0.00000E+00 0.00000E+00
 -1      6332 4.38289E-13 4.38289E-13 4.38289E-13 0.00000E+00 0.00000E+00 0.00000E+00
 -1      6333 4.38289E-13 4.38289E-13 4.38289E-13 0.00000E+00 0.00000E+00 0.00000E+00
 -1      6334 4.64852E-13 4.64852E-13 4.64852E-13 0.00000E+00 0.00000E+00 0.00000E+00
 -1      6335 4.38289E-13 4.38289E-13 4.38289E-13 0.00000E+00 0.00000E+00 0.00000E+00
 -1      6336 4.38289E-13 4.38289E-13 4.38289E-13 0.00000E+00 0.00000E+00 0.00000E+00
 -1      6337 4.38289E-13 4.38289E-13 4.38289E-13 0.00000E+00 0.00000E+00 0.00000E+00
 -1      6338 4.42716E-13 4.42716E-13 4.42716E-13 0.00000E+00 0.00000E+00 0.00000E+00
 -1      6339 4.64852E-13 4.64852E-13 4.64852E-13 0.00000E+00 0.00000E+00 0.00000E+00
 -1      6340 4.69279E-13 4.69279E-13 4.69279E-13 0.00000E+00 0.00000E+00 0.00000E+00
 -1      6341 4.40186E-13 4.40186E-13 4.40186E-13 0.00000E+00 0.00000E+00 0.00000E+00
 -1      6342 4.38289E-13 4.38289E-13 4.38289E-13 0.00000E+00 0.00000E+00 0.00000E+00
 -1      6343 4.60425E-13 4.60425E-13 4.60425E-13 0.00000E+00 0.00000E+00 0.00000E+00
 -1      6344 4.64852E-13 4.64852E-13 4.64852E-13 0.00000E+00 0.00000E+00 0.00000E+00
 -1      6345 4.53784E-13 4.53784E-13 4.53784E-13 0.00000E+00 0.00000E+00 0.00000E+00
 -1      6346 4.38289E-13 4.38289E-13 4.38289E-13 0.00000E+00 0.00000E+00 0.00000E+00
 -1      6347 4.40186E-13 4.40186E-13 4.40186E-13 0.00000E+00 0.00000E+00 0.00000E+00
 -1      6348 4.60425E-13 4.60425E-13 4.60425E-13 0.00000E+00 0.00000E+00 0.00000E+00
 -1      6349 4.38289E-13 4.38289E-13 4.38289E-13 0.00000E+00 0.00000E+00 0.00000E+00
 -1      6350 4.64852E-13 4.64852E-13 4.64852E-13 0.00000E+00 0.00000E+00 0.00000E+00
 -1      6351 4.38289E-13 4.38289E-13 4.38289E-13 0.00000E+00 0.00000E+00 0.00000E+00
 -1      6352 4.64852E-13 4.64852E-13 4.64852E-13 0.00000E+00 0.00000E+00 0.00000E+00
 -1      6353 4.53784E-13 4.53784E-13 4.53784E-13 0.00000E+00 0.00000E+00 0.00000E+00
 -1      6354 4.53784E-13 4.53784E-13 4.53784E-13 0.00000E+00 0.00000E+00 0.00000E+00
 -1      6355 4.38289E-13 4.38289E-13 4.38289E-13 0.00000E+00 0.00000E+00 0.00000E+00
 -1      6356 4.38289E-13 4.38289E-13 4.38289E-13 0.00000E+00 0.00000E+00 0.00000E+00
 -1      6357 4.64852E-13 4.64852E-13 4.64852E-13 0.00000E+00 0.00000E+00 0.00000E+00
 -1      6358 4.64852E-13 4.64852E-13 4.64852E-13 0.00000E+00 0.00000E+00 0.00000E+00
 -1      6359 4.64852E-13 4.64852E-13 4.64852E-13 0.00000E+00 0.00000E+00 0.00000E+00
 -1      6360 4.44929E-13 4.44929E-13 4.44929E-13 0.00000E+00 0.00000E+00 0.00000E+00
 -1      6361 4.64852E-13 4.64852E-13 4.64852E-13 0.00000E+00 0.00000E+00 0.00000E+00
 -1      6362 4.38289E-13 4.38289E-13 4.38289E-13 0.00000E+00 0.00000E+00 0.00000E+00
 -1      6363 4.47143E-13 4.47143E-13 4.47143E-13 0.00000E+00 0.00000E+00 0.00000E+00
 -1      6364 4.42716E-13 4.42716E-13 4.42716E-13 0.00000E+00 0.00000E+00 0.00000E+00
 -1      6365 4.42716E-13 4.42716E-13 4.42716E-13 0.00000E+00 0.00000E+00 0.00000E+00
 -1      6366 4.51570E-13 4.51570E-13 4.51570E-13 0.00000E+00 0.00000E+00 0.00000E+00
 -1      6367 4.42716E-13 4.42716E-13 4.42716E-13 0.00000E+00 0.00000E+00 0.00000E+00
 -1      6368 4.59160E-13 4.59160E-13 4.59160E-13 0.00000E+00 0.00000E+00 0.00000E+00
 -1      6369 4.38289E-13 4.38289E-13 4.38289E-13 0.00000E+00 0.00000E+00 0.00000E+00
 -1      6370 4.64852E-13 4.64852E-13 4.64852E-13 0.00000E+00 0.00000E+00 0.00000E+00
 -1      6371 4.58211E-13 4.58211E-13 4.58211E-13 0.00000E+00 0.00000E+00 0.00000E+00
 -1      6372 4.64852E-13 4.64852E-13 4.64852E-13 0.00000E+00 0.00000E+00 0.00000E+00
 -1      6373 4.38289E-13 4.38289E-13 4.38289E-13 0.00000E+00 0.00000E+00 0.00000E+00
 -1      6374 4.38289E-13 4.38289E-13 4.38289E-13 0.00000E+00 0.00000E+00 0.00000E+00
 -1      6375 4.64852E-13 4.64852E-13 4.64852E-13 0.00000E+00 0.00000E+00 0.00000E+00
 -1      6376 4.59160E-13 4.59160E-13 4.59160E-13 0.00000E+00 0.00000E+00 0.00000E+00
 -1      6377 4.38289E-13 4.38289E-13 4.38289E-13 0.00000E+00 0.00000E+00 0.00000E+00
 -1      6378 4.42716E-13 4.42716E-13 4.42716E-13 0.00000E+00 0.00000E+00 0.00000E+00
 -1      6379 4.64852E-13 4.64852E-13 4.64852E-13 0.00000E+00 0.00000E+00 0.00000E+00
 -1      6380 4.64852E-13 4.64852E-13 4.64852E-13 0.00000E+00 0.00000E+00 0.00000E+00
 -1      6381 4.53784E-13 4.53784E-13 4.53784E-13 0.00000E+00 0.00000E+00 0.00000E+00
 -1      6382 4.44929E-13 4.44929E-13 4.44929E-13 0.00000E+00 0.00000E+00 0.00000E+00
 -1      6383 4.38289E-13 4.38289E-13 4.38289E-13 0.00000E+00 0.00000E+00 0.00000E+00
 -1      6384 4.64852E-13 4.64852E-13 4.64852E-13 0.00000E+00 0.00000E+00 0.00000E+00
 -1      6385 4.64852E-13 4.64852E-13 4.64852E-13 0.00000E+00 0.00000E+00 0.00000E+00
 -1      6386 4.64852E-13 4.64852E-13 4.64852E-13 0.00000E+00 0.00000E+00 0.00000E+00
 -1      6387 4.38289E-13 4.38289E-13 4.38289E-13 0.00000E+00 0.00000E+00 0.00000E+00
 -1      6388 4.42716E-13 4.42716E-13 4.42716E-13 0.00000E+00 0.00000E+00 0.00000E+00
 -1      6389 4.60425E-13 4.60425E-13 4.60425E-13 0.00000E+00 0.00000E+00 0.00000E+00
 -1      6390 4.64852E-13 4.64852E-13 4.64852E-13 0.00000E+00 0.00000E+00 0.00000E+00
 -1      6391 4.49357E-13 4.49357E-13 4.49357E-13 0.00000E+00 0.00000E+00 0.00000E+00
 -1      6392 4.64852E-13 4.64852E-13 4.64852E-13 0.00000E+00 0.00000E+00 0.00000E+00
 -1      6393 4.64852E-13 4.64852E-13 4.64852E-13 0.00000E+00 0.00000E+00 0.00000E+00
 -1      6394 4.51570E-13 4.51570E-13 4.51570E-13 0.00000E+00 0.00000E+00 0.00000E+00
 -1      6395 4.53784E-13 4.53784E-13 4.53784E-13 0.00000E+00 0.00000E+00 0.00000E+00
 -1      6396 4.38289E-13 4.38289E-13 4.38289E-13 0.00000E+00 0.00000E+00 0.00000E+00
 -1      6397 4.64852E-13 4.64852E-13 4.64852E-13 0.00000E+00 0.00000E+00 0.00000E+00
 -1      6398 4.64852E-13 4.64852E-13 4.64852E-13 0.00000E+00 0.00000E+00 0.00000E+00
 -1      6399 4.64852E-13 4.64852E-13 4.64852E-13 0.00000E+00 0.00000E+00 0.00000E+00
 -1      6400 4.49357E-13 4.49357E-13 4.49357E-13 0.00000E+00 0.00000E+00 0.00000E+00
 -1      6401 4.40502E-13 4.40502E-13 4.40502E-13 0.00000E+00 0.00000E+00 0.00000E+00
 -1      6402 4.38289E-13 4.38289E-13 4.38289E-13 0.00000E+00 0.00000E+00 0.00000E+00
 -1      6403 4.64852E-13 4.64852E-13 4.64852E-13 0.00000E+00 0.00000E+00 0.00000E+00
 -1      6404 4.64852E-13 4.64852E-13 4.64852E-13 0.00000E+00 0.00000E+00 0.00000E+00
 -1      6405 4.42716E-13 4.42716E-13 4.42716E-13 0.00000E+00 0.00000E+00 0.00000E+00
 -1      6406 4.38289E-13 4.38289E-13 4.38289E-13 0.00000E+00 0.00000E+00 0.00000E+00
 -1      6407 4.38289E-13 4.38289E-13 4.38289E-13 0.00000E+00 0.00000E+00 0.00000E+00
 -1      6408 4.38289E-13 4.38289E-13 4.38289E-13 0.00000E+00 0.00000E+00 0.00000E+00
 -1      6409 4.42083E-13 4.42083E-13 4.42083E-13 0.00000E+00 0.00000E+00 0.00000E+00
 -1      6410 4.38289E-13 4.38289E-13 4.38289E-13 0.00000E+00 0.00000E+00 0.00000E+00
 -1      6411 4.58211E-13 4.58211E-13 4.58211E-13 0.00000E+00 0.00000E+00 0.00000E+00
 -1      6412 4.42716E-13 4.42716E-13 4.42716E-13 0.00000E+00 0.00000E+00 0.00000E+00
 -1      6413 4.40502E-13 4.40502E-13 4.40502E-13 0.00000E+00 0.00000E+00 0.00000E+00
 -1      6414 4.38289E-13 4.38289E-13 4.38289E-13 0.00000E+00 0.00000E+00 0.00000E+00
 -1      6415 4.64852E-13 4.64852E-13 4.64852E-13 0.00000E+00 0.00000E+00 0.00000E+00
 -1      6416 4.64852E-13 4.64852E-13 4.64852E-13 0.00000E+00 0.00000E+00 0.00000E+00
 -1      6417 4.64852E-13 4.64852E-13 4.64852E-13 0.00000E+00 0.00000E+00 0.00000E+00
 -1      6418 4.64852E-13 4.64852E-13 4.64852E-13 0.00000E+00 0.00000E+00 0.00000E+00
 -1      6419 4.75920E-13 4.75920E-13 4.75920E-13 0.00000E+00 0.00000E+00 0.00000E+00
 -1      6420 4.53784E-13 4.53784E-13 4.53784E-13 0.00000E+00 0.00000E+00 0.00000E+00
 -1      6421 4.40502E-13 4.40502E-13 4.40502E-13 0.00000E+00 0.00000E+00 0.00000E+00
 -1      6422 4.64852E-13 4.64852E-13 4.64852E-13 0.00000E+00 0.00000E+00 0.00000E+00
 -1      6423 4.64852E-13 4.64852E-13 4.64852E-13 0.00000E+00 0.00000E+00 0.00000E+00
 -1      6424 4.49673E-13 4.49673E-13 4.49673E-13 0.00000E+00 0.00000E+00 0.00000E+00
 -1      6425 4.62954E-13 4.62954E-13 4.62954E-13 0.00000E+00 0.00000E+00 0.00000E+00
 -1      6426 4.64852E-13 4.64852E-13 4.64852E-13 0.00000E+00 0.00000E+00 0.00000E+00
 -1      6427 4.38289E-13 4.38289E-13 4.38289E-13 0.00000E+00 0.00000E+00 0.00000E+00
 -1      6428 4.64852E-13 4.64852E-13 4.64852E-13 0.00000E+00 0.00000E+00 0.00000E+00
 -1      6429 4.44929E-13 4.44929E-13 4.44929E-13 0.00000E+00 0.00000E+00 0.00000E+00
 -1      6430 4.38289E-13 4.38289E-13 4.38289E-13 0.00000E+00 0.00000E+00 0.00000E+00
 -1      6431 4.55365E-13 4.55365E-13 4.55365E-13 0.00000E+00 0.00000E+00 0.00000E+00
 -1      6432 4.64852E-13 4.64852E-13 4.64852E-13 0.00000E+00 0.00000E+00 0.00000E+00
 -1      6433 4.40502E-13 4.40502E-13 4.40502E-13 0.00000E+00 0.00000E+00 0.00000E+00
 -1      6434 4.38289E-13 4.38289E-13 4.38289E-13 0.00000E+00 0.00000E+00 0.00000E+00
 -1      6435 4.55997E-13 4.55997E-13 4.55997E-13 0.00000E+00 0.00000E+00 0.00000E+00
 -1      6436 4.64852E-13 4.64852E-13 4.64852E-13 0.00000E+00 0.00000E+00 0.00000E+00
 -1      6437 4.64852E-13 4.64852E-13 4.64852E-13 0.00000E+00 0.00000E+00 0.00000E+00
 -1      6438 4.64852E-13 4.64852E-13 4.64852E-13 0.00000E+00 0.00000E+00 0.00000E+00
 -1      6439 4.38289E-13 4.38289E-13 4.38289E-13 0.00000E+00 0.00000E+00 0.00000E+00
 -1      6440 4.64852E-13 4.64852E-13 4.64852E-13 0.00000E+00 0.00000E+00 0.00000E+00
 -1      6441 4.40502E-13 4.40502E-13 4.40502E-13 0.00000E+00 0.00000E+00 0.00000E+00
 -1      6442 4.49357E-13 4.49357E-13 4.49357E-13 0.00000E+00 0.00000E+00 0.00000E+00
 -1      6443 4.38289E-13 4.38289E-13 4.38289E-13 0.00000E+00 0.00000E+00 0.00000E+00
 -1      6444 4.64852E-13 4.64852E-13 4.64852E-13 0.00000E+00 0.00000E+00 0.00000E+00
 -1      6445 4.42716E-13 4.42716E-13 4.42716E-13 0.00000E+00 0.00000E+00 0.00000E+00
 -1      6446 4.38289E-13 4.38289E-13 4.38289E-13 0.00000E+00 0.00000E+00 0.00000E+00
 -1      6447 4.44929E-13 4.44929E-13 4.44929E-13 0.00000E+00 0.00000E+00 0.00000E+00
 -1      6448 4.55997E-13 4.55997E-13 4.55997E-13 0.00000E+00 0.00000E+00 0.00000E+00
 -1      6449 4.64852E-13 4.64852E-13 4.64852E-13 0.00000E+00 0.00000E+00 0.00000E+00
 -1      6450 4.38289E-13 4.38289E-13 4.38289E-13 0.00000E+00 0.00000E+00 0.00000E+00
 -1      6451 4.64852E-13 4.64852E-13 4.64852E-13 0.00000E+00 0.00000E+00 0.00000E+00
 -1      6452 4.38289E-13 4.38289E-13 4.38289E-13 0.00000E+00 0.00000E+00 0.00000E+00
 -1      6453 4.43981E-13 4.43981E-13 4.43981E-13 0.00000E+00 0.00000E+00 0.00000E+00
 -1      6454 4.38289E-13 4.38289E-13 4.38289E-13 0.00000E+00 0.00000E+00 0.00000E+00
 -1      6455 4.42716E-13 4.42716E-13 4.42716E-13 0.00000E+00 0.00000E+00 0.00000E+00
 -1      6456 4.64852E-13 4.64852E-13 4.64852E-13 0.00000E+00 0.00000E+00 0.00000E+00
 -1      6457 4.64852E-13 4.64852E-13 4.64852E-13 0.00000E+00 0.00000E+00 0.00000E+00
 -1      6458 4.64852E-13 4.64852E-13 4.64852E-13 0.00000E+00 0.00000E+00 0.00000E+00
 -1      6459 4.64852E-13 4.64852E-13 4.64852E-13 0.00000E+00 0.00000E+00 0.00000E+00
 -1      6460 4.40502E-13 4.40502E-13 4.40502E-13 0.00000E+00 0.00000E+00 0.00000E+00
 -1      6461 4.62638E-13 4.62638E-13 4.62638E-13 0.00000E+00 0.00000E+00 0.00000E+00
 -1      6462 4.64852E-13 4.64852E-13 4.64852E-13 0.00000E+00 0.00000E+00 0.00000E+00
 -1      6463 4.62638E-13 4.62638E-13 4.62638E-13 0.00000E+00 0.00000E+00 0.00000E+00
 -1      6464 4.40502E-13 4.40502E-13 4.40502E-13 0.00000E+00 0.00000E+00 0.00000E+00
 -1      6465 4.64852E-13 4.64852E-13 4.64852E-13 0.00000E+00 0.00000E+00 0.00000E+00
 -1      6466 4.62638E-13 4.62638E-13 4.62638E-13 0.00000E+00 0.00000E+00 0.00000E+00
 -1      6467 4.62638E-13 4.62638E-13 4.62638E-13 0.00000E+00 0.00000E+00 0.00000E+00
 -1      6468 4.38289E-13 4.38289E-13 4.38289E-13 0.00000E+00 0.00000E+00 0.00000E+00
 -1      6469 4.38289E-13 4.38289E-13 4.38289E-13 0.00000E+00 0.00000E+00 0.00000E+00
 -1      6470 4.64852E-13 4.64852E-13 4.64852E-13 0.00000E+00 0.00000E+00 0.00000E+00
 -1      6471 4.58211E-13 4.58211E-13 4.58211E-13 0.00000E+00 0.00000E+00 0.00000E+00
 -1      6472 4.58211E-13 4.58211E-13 4.58211E-13 0.00000E+00 0.00000E+00 0.00000E+00
 -1      6473 4.64852E-13 4.64852E-13 4.64852E-13 0.00000E+00 0.00000E+00 0.00000E+00
 -1      6474 4.64852E-13 4.64852E-13 4.64852E-13 0.00000E+00 0.00000E+00 0.00000E+00
 -1      6475 4.64852E-13 4.64852E-13 4.64852E-13 0.00000E+00 0.00000E+00 0.00000E+00
 -1      6476 4.57262E-13 4.57262E-13 4.57262E-13 0.00000E+00 0.00000E+00 0.00000E+00
 -1      6477 4.59160E-13 4.59160E-13 4.59160E-13 0.00000E+00 0.00000E+00 0.00000E+00
 -1      6478 4.64852E-13 4.64852E-13 4.64852E-13 0.00000E+00 0.00000E+00 0.00000E+00
 -1      6479 4.64852E-13 4.64852E-13 4.64852E-13 0.00000E+00 0.00000E+00 0.00000E+00
 -1      6480 4.64852E-13 4.64852E-13 4.64852E-13 0.00000E+00 0.00000E+00 0.00000E+00
 -1      6481 4.38289E-13 4.38289E-13 4.38289E-13 0.00000E+00 0.00000E+00 0.00000E+00
 -1      6482 4.57262E-13 4.57262E-13 4.57262E-13 0.00000E+00 0.00000E+00 0.00000E+00
 -1      6483 4.64852E-13 4.64852E-13 4.64852E-13 0.00000E+00 0.00000E+00 0.00000E+00
 -1      6484 4.58211E-13 4.58211E-13 4.58211E-13 0.00000E+00 0.00000E+00 0.00000E+00
 -1      6485 4.64852E-13 4.64852E-13 4.64852E-13 0.00000E+00 0.00000E+00 0.00000E+00
 -1      6486 4.58211E-13 4.58211E-13 4.58211E-13 0.00000E+00 0.00000E+00 0.00000E+00
 -1      6487 4.64852E-13 4.64852E-13 4.64852E-13 0.00000E+00 0.00000E+00 0.00000E+00
 -1      6488 4.51570E-13 4.51570E-13 4.51570E-13 0.00000E+00 0.00000E+00 0.00000E+00
 -1      6489 4.43601E-13 4.43601E-13 4.43601E-13 0.00000E+00 0.00000E+00 0.00000E+00
 -1      6490 4.64852E-13 4.64852E-13 4.64852E-13 0.00000E+00 0.00000E+00 0.00000E+00
 -1      6491 4.38289E-13 4.38289E-13 4.38289E-13 0.00000E+00 0.00000E+00 0.00000E+00
 -1      6492 4.64852E-13 4.64852E-13 4.64852E-13 0.00000E+00 0.00000E+00 0.00000E+00
 -1      6493 4.64852E-13 4.64852E-13 4.64852E-13 0.00000E+00 0.00000E+00 0.00000E+00
 -1      6494 4.64852E-13 4.64852E-13 4.64852E-13 0.00000E+00 0.00000E+00 0.00000E+00
 -1      6495 4.38289E-13 4.38289E-13 4.38289E-13 0.00000E+00 0.00000E+00 0.00000E+00
 -1      6496 4.38289E-13 4.38289E-13 4.38289E-13 0.00000E+00 0.00000E+00 0.00000E+00
 -1      6497 4.62638E-13 4.62638E-13 4.62638E-13 0.00000E+00 0.00000E+00 0.00000E+00
 -1      6498 4.64852E-13 4.64852E-13 4.64852E-13 0.00000E+00 0.00000E+00 0.00000E+00
 -1      6499 4.60425E-13 4.60425E-13 4.60425E-13 0.00000E+00 0.00000E+00 0.00000E+00
 -1      6500 4.64852E-13 4.64852E-13 4.64852E-13 0.00000E+00 0.00000E+00 0.00000E+00
 -1      6501 4.64852E-13 4.64852E-13 4.64852E-13 0.00000E+00 0.00000E+00 0.00000E+00
 -1      6502 4.64852E-13 4.64852E-13 4.64852E-13 0.00000E+00 0.00000E+00 0.00000E+00
 -1      6503 4.62638E-13 4.62638E-13 4.62638E-13 0.00000E+00 0.00000E+00 0.00000E+00
 -1      6504 4.58211E-13 4.58211E-13 4.58211E-13 0.00000E+00 0.00000E+00 0.00000E+00
 -1      6505 4.60425E-13 4.60425E-13 4.60425E-13 0.00000E+00 0.00000E+00 0.00000E+00
 -1      6506 4.53784E-13 4.53784E-13 4.53784E-13 0.00000E+00 0.00000E+00 0.00000E+00
 -1      6507 4.49357E-13 4.49357E-13 4.49357E-13 0.00000E+00 0.00000E+00 0.00000E+00
 -1      6508 4.64852E-13 4.64852E-13 4.64852E-13 0.00000E+00 0.00000E+00 0.00000E+00
 -1      6509 4.64852E-13 4.64852E-13 4.64852E-13 0.00000E+00 0.00000E+00 0.00000E+00
 -1      6510 4.64852E-13 4.64852E-13 4.64852E-13 0.00000E+00 0.00000E+00 0.00000E+00
 -1      6511 4.64852E-13 4.64852E-13 4.64852E-13 0.00000E+00 0.00000E+00 0.00000E+00
 -1      6512 4.64852E-13 4.64852E-13 4.64852E-13 0.00000E+00 0.00000E+00 0.00000E+00
 -1      6513 4.64852E-13 4.64852E-13 4.64852E-13 0.00000E+00 0.00000E+00 0.00000E+00
 -1      6514 4.47143E-13 4.47143E-13 4.47143E-13 0.00000E+00 0.00000E+00 0.00000E+00
 -1      6515 4.64852E-13 4.64852E-13 4.64852E-13 0.00000E+00 0.00000E+00 0.00000E+00
 -1      6516 4.51570E-13 4.51570E-13 4.51570E-13 0.00000E+00 0.00000E+00 0.00000E+00
 -1      6517 4.38289E-13 4.38289E-13 4.38289E-13 0.00000E+00 0.00000E+00 0.00000E+00
 -1      6518 4.38289E-13 4.38289E-13 4.38289E-13 0.00000E+00 0.00000E+00 0.00000E+00
 -1      6519 4.64852E-13 4.64852E-13 4.64852E-13 0.00000E+00 0.00000E+00 0.00000E+00
 -1      6520 4.64852E-13 4.64852E-13 4.64852E-13 0.00000E+00 0.00000E+00 0.00000E+00
 -1      6521 4.64852E-13 4.64852E-13 4.64852E-13 0.00000E+00 0.00000E+00 0.00000E+00
 -1      6522 4.38289E-13 4.38289E-13 4.38289E-13 0.00000E+00 0.00000E+00 0.00000E+00
 -1      6523 4.64852E-13 4.64852E-13 4.64852E-13 0.00000E+00 0.00000E+00 0.00000E+00
 -1      6524 4.53784E-13 4.53784E-13 4.53784E-13 0.00000E+00 0.00000E+00 0.00000E+00
 -1      6525 4.60425E-13 4.60425E-13 4.60425E-13 0.00000E+00 0.00000E+00 0.00000E+00
 -1      6526 4.58211E-13 4.58211E-13 4.58211E-13 0.00000E+00 0.00000E+00 0.00000E+00
 -1      6527 4.64852E-13 4.64852E-13 4.64852E-13 0.00000E+00 0.00000E+00 0.00000E+00
 -1      6528 4.64852E-13 4.64852E-13 4.64852E-13 0.00000E+00 0.00000E+00 0.00000E+00
 -1      6529 4.60425E-13 4.60425E-13 4.60425E-13 0.00000E+00 0.00000E+00 0.00000E+00
 -1      6530 4.64852E-13 4.64852E-13 4.64852E-13 0.00000E+00 0.00000E+00 0.00000E+00
 -1      6531 4.44929E-13 4.44929E-13 4.44929E-13 0.00000E+00 0.00000E+00 0.00000E+00
 -1      6532 4.40502E-13 4.40502E-13 4.40502E-13 0.00000E+00 0.00000E+00 0.00000E+00
 -1      6533 4.64852E-13 4.64852E-13 4.64852E-13 0.00000E+00 0.00000E+00 0.00000E+00
 -1      6534 4.38289E-13 4.38289E-13 4.38289E-13 0.00000E+00 0.00000E+00 0.00000E+00
 -1      6535 4.64852E-13 4.64852E-13 4.64852E-13 0.00000E+00 0.00000E+00 0.00000E+00
 -1      6536 4.40186E-13 4.40186E-13 4.40186E-13 0.00000E+00 0.00000E+00 0.00000E+00
 -1      6537 4.42716E-13 4.42716E-13 4.42716E-13 0.00000E+00 0.00000E+00 0.00000E+00
 -1      6538 4.62195E-13 4.62195E-13 4.62195E-13 0.00000E+00 0.00000E+00 0.00000E+00
 -1      6539 4.40945E-13 4.40945E-13 4.40945E-13 0.00000E+00 0.00000E+00 0.00000E+00
 -1      6540 4.42716E-13 4.42716E-13 4.42716E-13 0.00000E+00 0.00000E+00 0.00000E+00
 -1      6541 4.38289E-13 4.38289E-13 4.38289E-13 0.00000E+00 0.00000E+00 0.00000E+00
 -1      6542 4.64852E-13 4.64852E-13 4.64852E-13 0.00000E+00 0.00000E+00 0.00000E+00
 -1      6543 4.64852E-13 4.64852E-13 4.64852E-13 0.00000E+00 0.00000E+00 0.00000E+00
 -1      6544 4.42716E-13 4.42716E-13 4.42716E-13 0.00000E+00 0.00000E+00 0.00000E+00
 -1      6545 4.64852E-13 4.64852E-13 4.64852E-13 0.00000E+00 0.00000E+00 0.00000E+00
 -1      6546 4.53784E-13 4.53784E-13 4.53784E-13 0.00000E+00 0.00000E+00 0.00000E+00
 -1      6547 4.57262E-13 4.57262E-13 4.57262E-13 0.00000E+00 0.00000E+00 0.00000E+00
 -1      6548 4.38289E-13 4.38289E-13 4.38289E-13 0.00000E+00 0.00000E+00 0.00000E+00
 -1      6549 4.38289E-13 4.38289E-13 4.38289E-13 0.00000E+00 0.00000E+00 0.00000E+00
 -1      6550 4.64852E-13 4.64852E-13 4.64852E-13 0.00000E+00 0.00000E+00 0.00000E+00
 -1      6551 4.64852E-13 4.64852E-13 4.64852E-13 0.00000E+00 0.00000E+00 0.00000E+00
 -1      6552 4.51570E-13 4.51570E-13 4.51570E-13 0.00000E+00 0.00000E+00 0.00000E+00
 -1      6553 4.64852E-13 4.64852E-13 4.64852E-13 0.00000E+00 0.00000E+00 0.00000E+00
 -1      6554 4.64852E-13 4.64852E-13 4.64852E-13 0.00000E+00 0.00000E+00 0.00000E+00
 -1      6555 4.64852E-13 4.64852E-13 4.64852E-13 0.00000E+00 0.00000E+00 0.00000E+00
 -1      6556 4.40502E-13 4.40502E-13 4.40502E-13 0.00000E+00 0.00000E+00 0.00000E+00
 -1      6557 4.62638E-13 4.62638E-13 4.62638E-13 0.00000E+00 0.00000E+00 0.00000E+00
 -1      6558 4.42716E-13 4.42716E-13 4.42716E-13 0.00000E+00 0.00000E+00 0.00000E+00
 -1      6559 4.64852E-13 4.64852E-13 4.64852E-13 0.00000E+00 0.00000E+00 0.00000E+00
 -1      6560 4.40502E-13 4.40502E-13 4.40502E-13 0.00000E+00 0.00000E+00 0.00000E+00
 -1      6561 4.64852E-13 4.64852E-13 4.64852E-13 0.00000E+00 0.00000E+00 0.00000E+00
 -1      6562 4.38289E-13 4.38289E-13 4.38289E-13 0.00000E+00 0.00000E+00 0.00000E+00
 -1      6563 4.64852E-13 4.64852E-13 4.64852E-13 0.00000E+00 0.00000E+00 0.00000E+00
 -1      6564 4.61057E-13 4.61057E-13 4.61057E-13 0.00000E+00 0.00000E+00 0.00000E+00
 -1      6565 4.64852E-13 4.64852E-13 4.64852E-13 0.00000E+00 0.00000E+00 0.00000E+00
 -1      6566 4.47143E-13 4.47143E-13 4.47143E-13 0.00000E+00 0.00000E+00 0.00000E+00
 -1      6567 4.42716E-13 4.42716E-13 4.42716E-13 0.00000E+00 0.00000E+00 0.00000E+00
 -1      6568 4.38289E-13 4.38289E-13 4.38289E-13 0.00000E+00 0.00000E+00 0.00000E+00
 -1      6569 4.40502E-13 4.40502E-13 4.40502E-13 0.00000E+00 0.00000E+00 0.00000E+00
 -1      6570 4.49357E-13 4.49357E-13 4.49357E-13 0.00000E+00 0.00000E+00 0.00000E+00
 -1      6571 4.64852E-13 4.64852E-13 4.64852E-13 0.00000E+00 0.00000E+00 0.00000E+00
 -1      6572 4.38289E-13 4.38289E-13 4.38289E-13 0.00000E+00 0.00000E+00 0.00000E+00
 -1      6573 4.64852E-13 4.64852E-13 4.64852E-13 0.00000E+00 0.00000E+00 0.00000E+00
 -1      6574 4.40502E-13 4.40502E-13 4.40502E-13 0.00000E+00 0.00000E+00 0.00000E+00
 -1      6575 4.38289E-13 4.38289E-13 4.38289E-13 0.00000E+00 0.00000E+00 0.00000E+00
 -1      6576 4.47143E-13 4.47143E-13 4.47143E-13 0.00000E+00 0.00000E+00 0.00000E+00
 -1      6577 4.64852E-13 4.64852E-13 4.64852E-13 0.00000E+00 0.00000E+00 0.00000E+00
 -1      6578 4.40502E-13 4.40502E-13 4.40502E-13 0.00000E+00 0.00000E+00 0.00000E+00
 -1      6579 4.58211E-13 4.58211E-13 4.58211E-13 0.00000E+00 0.00000E+00 0.00000E+00
 -1      6580 4.64852E-13 4.64852E-13 4.64852E-13 0.00000E+00 0.00000E+00 0.00000E+00
 -1      6581 4.38289E-13 4.38289E-13 4.38289E-13 0.00000E+00 0.00000E+00 0.00000E+00
 -1      6582 4.40502E-13 4.40502E-13 4.40502E-13 0.00000E+00 0.00000E+00 0.00000E+00
 -1      6583 4.38289E-13 4.38289E-13 4.38289E-13 0.00000E+00 0.00000E+00 0.00000E+00
 -1      6584 4.64852E-13 4.64852E-13 4.64852E-13 0.00000E+00 0.00000E+00 0.00000E+00
 -1      6585 4.64852E-13 4.64852E-13 4.64852E-13 0.00000E+00 0.00000E+00 0.00000E+00
 -1      6586 4.38289E-13 4.38289E-13 4.38289E-13 0.00000E+00 0.00000E+00 0.00000E+00
 -1      6587 4.40186E-13 4.40186E-13 4.40186E-13 0.00000E+00 0.00000E+00 0.00000E+00
 -1      6588 4.64852E-13 4.64852E-13 4.64852E-13 0.00000E+00 0.00000E+00 0.00000E+00
 -1      6589 4.42716E-13 4.42716E-13 4.42716E-13 0.00000E+00 0.00000E+00 0.00000E+00
 -1      6590 4.38289E-13 4.38289E-13 4.38289E-13 0.00000E+00 0.00000E+00 0.00000E+00
 -1      6591 4.38289E-13 4.38289E-13 4.38289E-13 0.00000E+00 0.00000E+00 0.00000E+00
 -1      6592 4.64852E-13 4.64852E-13 4.64852E-13 0.00000E+00 0.00000E+00 0.00000E+00
 -1      6593 4.64852E-13 4.64852E-13 4.64852E-13 0.00000E+00 0.00000E+00 0.00000E+00
 -1      6594 4.64852E-13 4.64852E-13 4.64852E-13 0.00000E+00 0.00000E+00 0.00000E+00
 -1      6595 4.47143E-13 4.47143E-13 4.47143E-13 0.00000E+00 0.00000E+00 0.00000E+00
 -1      6596 4.38289E-13 4.38289E-13 4.38289E-13 0.00000E+00 0.00000E+00 0.00000E+00
 -1      6597 4.40502E-13 4.40502E-13 4.40502E-13 0.00000E+00 0.00000E+00 0.00000E+00
 -1      6598 4.58211E-13 4.58211E-13 4.58211E-13 0.00000E+00 0.00000E+00 0.00000E+00
 -1      6599 4.38289E-13 4.38289E-13 4.38289E-13 0.00000E+00 0.00000E+00 0.00000E+00
 -1      6600 4.64852E-13 4.64852E-13 4.64852E-13 0.00000E+00 0.00000E+00 0.00000E+00
 -1      6601 4.64852E-13 4.64852E-13 4.64852E-13 0.00000E+00 0.00000E+00 0.00000E+00
 -1      6602 4.38289E-13 4.38289E-13 4.38289E-13 0.00000E+00 0.00000E+00 0.00000E+00
 -1      6603 4.64852E-13 4.64852E-13 4.64852E-13 0.00000E+00 0.00000E+00 0.00000E+00
 -1      6604 4.64852E-13 4.64852E-13 4.64852E-13 0.00000E+00 0.00000E+00 0.00000E+00
 -1      6605 4.64852E-13 4.64852E-13 4.64852E-13 0.00000E+00 0.00000E+00 0.00000E+00
 -1      6606 4.64852E-13 4.64852E-13 4.64852E-13 0.00000E+00 0.00000E+00 0.00000E+00
 -1      6607 4.38289E-13 4.38289E-13 4.38289E-13 0.00000E+00 0.00000E+00 0.00000E+00
 -1      6608 4.49357E-13 4.49357E-13 4.49357E-13 0.00000E+00 0.00000E+00 0.00000E+00
 -1      6609 4.38289E-13 4.38289E-13 4.38289E-13 0.00000E+00 0.00000E+00 0.00000E+00
 -1      6610 4.62638E-13 4.62638E-13 4.62638E-13 0.00000E+00 0.00000E+00 0.00000E+00
 -1      6611 4.64852E-13 4.64852E-13 4.64852E-13 0.00000E+00 0.00000E+00 0.00000E+00
 -1      6612 4.47143E-13 4.47143E-13 4.47143E-13 0.00000E+00 0.00000E+00 0.00000E+00
 -1      6613 4.44929E-13 4.44929E-13 4.44929E-13 0.00000E+00 0.00000E+00 0.00000E+00
 -1      6614 4.64852E-13 4.64852E-13 4.64852E-13 0.00000E+00 0.00000E+00 0.00000E+00
 -1      6615 4.64852E-13 4.64852E-13 4.64852E-13 0.00000E+00 0.00000E+00 0.00000E+00
 -1      6616 4.42716E-13 4.42716E-13 4.42716E-13 0.00000E+00 0.00000E+00 0.00000E+00
 -1      6617 4.49357E-13 4.49357E-13 4.49357E-13 0.00000E+00 0.00000E+00 0.00000E+00
 -1      6618 4.64852E-13 4.64852E-13 4.64852E-13 0.00000E+00 0.00000E+00 0.00000E+00
 -1      6619 4.60425E-13 4.60425E-13 4.60425E-13 0.00000E+00 0.00000E+00 0.00000E+00
 -1      6620 4.64852E-13 4.64852E-13 4.64852E-13 0.00000E+00 0.00000E+00 0.00000E+00
 -1      6621 4.38289E-13 4.38289E-13 4.38289E-13 0.00000E+00 0.00000E+00 0.00000E+00
 -1      6622 4.38289E-13 4.38289E-13 4.38289E-13 0.00000E+00 0.00000E+00 0.00000E+00
 -1      6623 4.64852E-13 4.64852E-13 4.64852E-13 0.00000E+00 0.00000E+00 0.00000E+00
 -1      6624 4.51570E-13 4.51570E-13 4.51570E-13 0.00000E+00 0.00000E+00 0.00000E+00
 -1      6625 4.64852E-13 4.64852E-13 4.64852E-13 0.00000E+00 0.00000E+00 0.00000E+00
 -1      6626 4.40502E-13 4.40502E-13 4.40502E-13 0.00000E+00 0.00000E+00 0.00000E+00
 -1      6627 4.38289E-13 4.38289E-13 4.38289E-13 0.00000E+00 0.00000E+00 0.00000E+00
 -1      6628 4.40502E-13 4.40502E-13 4.40502E-13 0.00000E+00 0.00000E+00 0.00000E+00
 -1      6629 4.64852E-13 4.64852E-13 4.64852E-13 0.00000E+00 0.00000E+00 0.00000E+00
 -1      6630 4.38289E-13 4.38289E-13 4.38289E-13 0.00000E+00 0.00000E+00 0.00000E+00
 -1      6631 4.64852E-13 4.64852E-13 4.64852E-13 0.00000E+00 0.00000E+00 0.00000E+00
 -1      6632 4.64852E-13 4.64852E-13 4.64852E-13 0.00000E+00 0.00000E+00 0.00000E+00
 -1      6633 4.64852E-13 4.64852E-13 4.64852E-13 0.00000E+00 0.00000E+00 0.00000E+00
 -1      6634 4.38289E-13 4.38289E-13 4.38289E-13 0.00000E+00 0.00000E+00 0.00000E+00
 -1      6635 4.55997E-13 4.55997E-13 4.55997E-13 0.00000E+00 0.00000E+00 0.00000E+00
 -1      6636 4.47143E-13 4.47143E-13 4.47143E-13 0.00000E+00 0.00000E+00 0.00000E+00
 -1      6637 4.64852E-13 4.64852E-13 4.64852E-13 0.00000E+00 0.00000E+00 0.00000E+00
 -1      6638 4.64852E-13 4.64852E-13 4.64852E-13 0.00000E+00 0.00000E+00 0.00000E+00
 -1      6639 4.47143E-13 4.47143E-13 4.47143E-13 0.00000E+00 0.00000E+00 0.00000E+00
 -1      6640 4.64852E-13 4.64852E-13 4.64852E-13 0.00000E+00 0.00000E+00 0.00000E+00
 -1      6641 4.38289E-13 4.38289E-13 4.38289E-13 0.00000E+00 0.00000E+00 0.00000E+00
 -1      6642 4.64852E-13 4.64852E-13 4.64852E-13 0.00000E+00 0.00000E+00 0.00000E+00
 -1      6643 4.38289E-13 4.38289E-13 4.38289E-13 0.00000E+00 0.00000E+00 0.00000E+00
 -1      6644 4.64852E-13 4.64852E-13 4.64852E-13 0.00000E+00 0.00000E+00 0.00000E+00
 -1      6645 4.38289E-13 4.38289E-13 4.38289E-13 0.00000E+00 0.00000E+00 0.00000E+00
 -1      6646 4.62195E-13 4.62195E-13 4.62195E-13 0.00000E+00 0.00000E+00 0.00000E+00
 -1      6647 4.64852E-13 4.64852E-13 4.64852E-13 0.00000E+00 0.00000E+00 0.00000E+00
 -1      6648 4.58211E-13 4.58211E-13 4.58211E-13 0.00000E+00 0.00000E+00 0.00000E+00
 -1      6649 4.64852E-13 4.64852E-13 4.64852E-13 0.00000E+00 0.00000E+00 0.00000E+00
 -1      6650 4.57262E-13 4.57262E-13 4.57262E-13 0.00000E+00 0.00000E+00 0.00000E+00
 -1      6651 4.38289E-13 4.38289E-13 4.38289E-13 0.00000E+00 0.00000E+00 0.00000E+00
 -1      6652 4.38289E-13 4.38289E-13 4.38289E-13 0.00000E+00 0.00000E+00 0.00000E+00
 -1      6653 4.64852E-13 4.64852E-13 4.64852E-13 0.00000E+00 0.00000E+00 0.00000E+00
 -1      6654 4.64852E-13 4.64852E-13 4.64852E-13 0.00000E+00 0.00000E+00 0.00000E+00
 -1      6655 4.64852E-13 4.64852E-13 4.64852E-13 0.00000E+00 0.00000E+00 0.00000E+00
 -1      6656 4.64852E-13 4.64852E-13 4.64852E-13 0.00000E+00 0.00000E+00 0.00000E+00
 -1      6657 4.64852E-13 4.64852E-13 4.64852E-13 0.00000E+00 0.00000E+00 0.00000E+00
 -1      6658 4.64852E-13 4.64852E-13 4.64852E-13 0.00000E+00 0.00000E+00 0.00000E+00
 -1      6659 4.40502E-13 4.40502E-13 4.40502E-13 0.00000E+00 0.00000E+00 0.00000E+00
 -1      6660 4.38289E-13 4.38289E-13 4.38289E-13 0.00000E+00 0.00000E+00 0.00000E+00
 -1      6661 4.64852E-13 4.64852E-13 4.64852E-13 0.00000E+00 0.00000E+00 0.00000E+00
 -1      6662 4.38289E-13 4.38289E-13 4.38289E-13 0.00000E+00 0.00000E+00 0.00000E+00
 -1      6663 4.64852E-13 4.64852E-13 4.64852E-13 0.00000E+00 0.00000E+00 0.00000E+00
 -1      6664 4.64852E-13 4.64852E-13 4.64852E-13 0.00000E+00 0.00000E+00 0.00000E+00
 -1      6665 4.64852E-13 4.64852E-13 4.64852E-13 0.00000E+00 0.00000E+00 0.00000E+00
 -1      6666 4.56883E-13 4.56883E-13 4.56883E-13 0.00000E+00 0.00000E+00 0.00000E+00
 -1      6667 4.58211E-13 4.58211E-13 4.58211E-13 0.00000E+00 0.00000E+00 0.00000E+00
 -1      6668 4.40502E-13 4.40502E-13 4.40502E-13 0.00000E+00 0.00000E+00 0.00000E+00
 -1      6669 4.64852E-13 4.64852E-13 4.64852E-13 0.00000E+00 0.00000E+00 0.00000E+00
 -1      6670 4.38289E-13 4.38289E-13 4.38289E-13 0.00000E+00 0.00000E+00 0.00000E+00
 -1      6671 4.38289E-13 4.38289E-13 4.38289E-13 0.00000E+00 0.00000E+00 0.00000E+00
 -1      6672 4.64852E-13 4.64852E-13 4.64852E-13 0.00000E+00 0.00000E+00 0.00000E+00
 -1      6673 4.42716E-13 4.42716E-13 4.42716E-13 0.00000E+00 0.00000E+00 0.00000E+00
 -1      6674 4.64852E-13 4.64852E-13 4.64852E-13 0.00000E+00 0.00000E+00 0.00000E+00
 -1      6675 4.64852E-13 4.64852E-13 4.64852E-13 0.00000E+00 0.00000E+00 0.00000E+00
 -1      6676 4.64852E-13 4.64852E-13 4.64852E-13 0.00000E+00 0.00000E+00 0.00000E+00
 -1      6677 4.38289E-13 4.38289E-13 4.38289E-13 0.00000E+00 0.00000E+00 0.00000E+00
 -1      6678 4.38289E-13 4.38289E-13 4.38289E-13 0.00000E+00 0.00000E+00 0.00000E+00
 -1      6679 4.38289E-13 4.38289E-13 4.38289E-13 0.00000E+00 0.00000E+00 0.00000E+00
 -1      6680 4.64852E-13 4.64852E-13 4.64852E-13 0.00000E+00 0.00000E+00 0.00000E+00
 -1      6681 4.64852E-13 4.64852E-13 4.64852E-13 0.00000E+00 0.00000E+00 0.00000E+00
 -1      6682 4.55997E-13 4.55997E-13 4.55997E-13 0.00000E+00 0.00000E+00 0.00000E+00
 -1      6683 4.64852E-13 4.64852E-13 4.64852E-13 0.00000E+00 0.00000E+00 0.00000E+00
 -1      6684 4.64852E-13 4.64852E-13 4.64852E-13 0.00000E+00 0.00000E+00 0.00000E+00
 -1      6685 4.38289E-13 4.38289E-13 4.38289E-13 0.00000E+00 0.00000E+00 0.00000E+00
 -1      6686 4.38289E-13 4.38289E-13 4.38289E-13 0.00000E+00 0.00000E+00 0.00000E+00
 -1      6687 4.58211E-13 4.58211E-13 4.58211E-13 0.00000E+00 0.00000E+00 0.00000E+00
 -1      6688 4.38289E-13 4.38289E-13 4.38289E-13 0.00000E+00 0.00000E+00 0.00000E+00
 -1      6689 4.64852E-13 4.64852E-13 4.64852E-13 0.00000E+00 0.00000E+00 0.00000E+00
 -1      6690 4.38289E-13 4.38289E-13 4.38289E-13 0.00000E+00 0.00000E+00 0.00000E+00
 -1      6691 4.64852E-13 4.64852E-13 4.64852E-13 0.00000E+00 0.00000E+00 0.00000E+00
 -1      6692 4.38289E-13 4.38289E-13 4.38289E-13 0.00000E+00 0.00000E+00 0.00000E+00
 -1      6693 4.38289E-13 4.38289E-13 4.38289E-13 0.00000E+00 0.00000E+00 0.00000E+00
 -1      6694 4.38289E-13 4.38289E-13 4.38289E-13 0.00000E+00 0.00000E+00 0.00000E+00
 -1      6695 4.64852E-13 4.64852E-13 4.64852E-13 0.00000E+00 0.00000E+00 0.00000E+00
 -1      6696 4.60425E-13 4.60425E-13 4.60425E-13 0.00000E+00 0.00000E+00 0.00000E+00
 -1      6697 4.44929E-13 4.44929E-13 4.44929E-13 0.00000E+00 0.00000E+00 0.00000E+00
 -1      6698 4.58211E-13 4.58211E-13 4.58211E-13 0.00000E+00 0.00000E+00 0.00000E+00
 -1      6699 4.38289E-13 4.38289E-13 4.38289E-13 0.00000E+00 0.00000E+00 0.00000E+00
 -1      6700 4.64852E-13 4.64852E-13 4.64852E-13 0.00000E+00 0.00000E+00 0.00000E+00
 -1      6701 4.38289E-13 4.38289E-13 4.38289E-13 0.00000E+00 0.00000E+00 0.00000E+00
 -1      6702 4.64852E-13 4.64852E-13 4.64852E-13 0.00000E+00 0.00000E+00 0.00000E+00
 -1      6703 4.62638E-13 4.62638E-13 4.62638E-13 0.00000E+00 0.00000E+00 0.00000E+00
 -1      6704 4.64852E-13 4.64852E-13 4.64852E-13 0.00000E+00 0.00000E+00 0.00000E+00
 -1      6705 4.44929E-13 4.44929E-13 4.44929E-13 0.00000E+00 0.00000E+00 0.00000E+00
 -1      6706 4.43601E-13 4.43601E-13 4.43601E-13 0.00000E+00 0.00000E+00 0.00000E+00
 -1      6707 4.64852E-13 4.64852E-13 4.64852E-13 0.00000E+00 0.00000E+00 0.00000E+00
 -1      6708 4.42716E-13 4.42716E-13 4.42716E-13 0.00000E+00 0.00000E+00 0.00000E+00
 -1      6709 4.64852E-13 4.64852E-13 4.64852E-13 0.00000E+00 0.00000E+00 0.00000E+00
 -1      6710 4.64852E-13 4.64852E-13 4.64852E-13 0.00000E+00 0.00000E+00 0.00000E+00
 -1      6711 4.64852E-13 4.64852E-13 4.64852E-13 0.00000E+00 0.00000E+00 0.00000E+00
 -1      6712 4.38289E-13 4.38289E-13 4.38289E-13 0.00000E+00 0.00000E+00 0.00000E+00
 -1      6713 4.51570E-13 4.51570E-13 4.51570E-13 0.00000E+00 0.00000E+00 0.00000E+00
 -1      6714 4.38289E-13 4.38289E-13 4.38289E-13 0.00000E+00 0.00000E+00 0.00000E+00
 -1      6715 4.47143E-13 4.47143E-13 4.47143E-13 0.00000E+00 0.00000E+00 0.00000E+00
 -1      6716 4.58211E-13 4.58211E-13 4.58211E-13 0.00000E+00 0.00000E+00 0.00000E+00
 -1      6717 4.43601E-13 4.43601E-13 4.43601E-13 0.00000E+00 0.00000E+00 0.00000E+00
 -1      6718 4.64852E-13 4.64852E-13 4.64852E-13 0.00000E+00 0.00000E+00 0.00000E+00
 -1      6719 4.40502E-13 4.40502E-13 4.40502E-13 0.00000E+00 0.00000E+00 0.00000E+00
 -1      6720 4.64852E-13 4.64852E-13 4.64852E-13 0.00000E+00 0.00000E+00 0.00000E+00
 -1      6721 4.64852E-13 4.64852E-13 4.64852E-13 0.00000E+00 0.00000E+00 0.00000E+00
 -1      6722 4.40502E-13 4.40502E-13 4.40502E-13 0.00000E+00 0.00000E+00 0.00000E+00
 -1      6723 4.38289E-13 4.38289E-13 4.38289E-13 0.00000E+00 0.00000E+00 0.00000E+00
 -1      6724 4.64852E-13 4.64852E-13 4.64852E-13 0.00000E+00 0.00000E+00 0.00000E+00
 -1      6725 4.42083E-13 4.42083E-13 4.42083E-13 0.00000E+00 0.00000E+00 0.00000E+00
 -1      6726 4.64852E-13 4.64852E-13 4.64852E-13 0.00000E+00 0.00000E+00 0.00000E+00
 -1      6727 4.46258E-13 4.46258E-13 4.46258E-13 0.00000E+00 0.00000E+00 0.00000E+00
 -1      6728 4.64852E-13 4.64852E-13 4.64852E-13 0.00000E+00 0.00000E+00 0.00000E+00
 -1      6729 4.64852E-13 4.64852E-13 4.64852E-13 0.00000E+00 0.00000E+00 0.00000E+00
 -1      6730 4.38289E-13 4.38289E-13 4.38289E-13 0.00000E+00 0.00000E+00 0.00000E+00
 -1      6731 4.64852E-13 4.64852E-13 4.64852E-13 0.00000E+00 0.00000E+00 0.00000E+00
 -1      6732 4.49357E-13 4.49357E-13 4.49357E-13 0.00000E+00 0.00000E+00 0.00000E+00
 -1      6733 4.38289E-13 4.38289E-13 4.38289E-13 0.00000E+00 0.00000E+00 0.00000E+00
 -1      6734 4.60425E-13 4.60425E-13 4.60425E-13 0.00000E+00 0.00000E+00 0.00000E+00
 -1      6735 4.38289E-13 4.38289E-13 4.38289E-13 0.00000E+00 0.00000E+00 0.00000E+00
 -1      6736 4.55997E-13 4.55997E-13 4.55997E-13 0.00000E+00 0.00000E+00 0.00000E+00
 -1      6737 4.64852E-13 4.64852E-13 4.64852E-13 0.00000E+00 0.00000E+00 0.00000E+00
 -1      6738 4.40502E-13 4.40502E-13 4.40502E-13 0.00000E+00 0.00000E+00 0.00000E+00
 -1      6739 4.62638E-13 4.62638E-13 4.62638E-13 0.00000E+00 0.00000E+00 0.00000E+00
 -1      6740 4.64852E-13 4.64852E-13 4.64852E-13 0.00000E+00 0.00000E+00 0.00000E+00
 -1      6741 4.38289E-13 4.38289E-13 4.38289E-13 0.00000E+00 0.00000E+00 0.00000E+00
 -1      6742 4.42716E-13 4.42716E-13 4.42716E-13 0.00000E+00 0.00000E+00 0.00000E+00
 -1      6743 4.57262E-13 4.57262E-13 4.57262E-13 0.00000E+00 0.00000E+00 0.00000E+00
 -1      6744 4.46258E-13 4.46258E-13 4.46258E-13 0.00000E+00 0.00000E+00 0.00000E+00
 -1      6745 4.38289E-13 4.38289E-13 4.38289E-13 0.00000E+00 0.00000E+00 0.00000E+00
 -1      6746 4.38289E-13 4.38289E-13 4.38289E-13 0.00000E+00 0.00000E+00 0.00000E+00
 -1      6747 4.60425E-13 4.60425E-13 4.60425E-13 0.00000E+00 0.00000E+00 0.00000E+00
 -1      6748 4.38289E-13 4.38289E-13 4.38289E-13 0.00000E+00 0.00000E+00 0.00000E+00
 -1      6749 4.44929E-13 4.44929E-13 4.44929E-13 0.00000E+00 0.00000E+00 0.00000E+00
 -1      6750 4.64852E-13 4.64852E-13 4.64852E-13 0.00000E+00 0.00000E+00 0.00000E+00
 -1      6751 4.38289E-13 4.38289E-13 4.38289E-13 0.00000E+00 0.00000E+00 0.00000E+00
 -1      6752 4.64852E-13 4.64852E-13 4.64852E-13 0.00000E+00 0.00000E+00 0.00000E+00
 -1      6753 4.64852E-13 4.64852E-13 4.64852E-13 0.00000E+00 0.00000E+00 0.00000E+00
 -1      6754 4.64852E-13 4.64852E-13 4.64852E-13 0.00000E+00 0.00000E+00 0.00000E+00
 -1      6755 4.64852E-13 4.64852E-13 4.64852E-13 0.00000E+00 0.00000E+00 0.00000E+00
 -1      6756 4.64852E-13 4.64852E-13 4.64852E-13 0.00000E+00 0.00000E+00 0.00000E+00
 -1      6757 4.38289E-13 4.38289E-13 4.38289E-13 0.00000E+00 0.00000E+00 0.00000E+00
 -1      6758 4.64852E-13 4.64852E-13 4.64852E-13 0.00000E+00 0.00000E+00 0.00000E+00
 -1      6759 4.53784E-13 4.53784E-13 4.53784E-13 0.00000E+00 0.00000E+00 0.00000E+00
 -1      6760 4.64852E-13 4.64852E-13 4.64852E-13 0.00000E+00 0.00000E+00 0.00000E+00
 -1      6761 4.38289E-13 4.38289E-13 4.38289E-13 0.00000E+00 0.00000E+00 0.00000E+00
 -1      6762 4.40502E-13 4.40502E-13 4.40502E-13 0.00000E+00 0.00000E+00 0.00000E+00
 -1      6763 4.38289E-13 4.38289E-13 4.38289E-13 0.00000E+00 0.00000E+00 0.00000E+00
 -1      6764 4.64852E-13 4.64852E-13 4.64852E-13 0.00000E+00 0.00000E+00 0.00000E+00
 -1      6765 4.64852E-13 4.64852E-13 4.64852E-13 0.00000E+00 0.00000E+00 0.00000E+00
 -1      6766 4.64852E-13 4.64852E-13 4.64852E-13 0.00000E+00 0.00000E+00 0.00000E+00
 -1      6767 4.64852E-13 4.64852E-13 4.64852E-13 0.00000E+00 0.00000E+00 0.00000E+00
 -1      6768 4.64852E-13 4.64852E-13 4.64852E-13 0.00000E+00 0.00000E+00 0.00000E+00
 -1      6769 4.64852E-13 4.64852E-13 4.64852E-13 0.00000E+00 0.00000E+00 0.00000E+00
 -1      6770 4.64852E-13 4.64852E-13 4.64852E-13 0.00000E+00 0.00000E+00 0.00000E+00
 -1      6771 4.64852E-13 4.64852E-13 4.64852E-13 0.00000E+00 0.00000E+00 0.00000E+00
 -1      6772 4.64852E-13 4.64852E-13 4.64852E-13 0.00000E+00 0.00000E+00 0.00000E+00
 -1      6773 4.46258E-13 4.46258E-13 4.46258E-13 0.00000E+00 0.00000E+00 0.00000E+00
 -1      6774 4.64852E-13 4.64852E-13 4.64852E-13 0.00000E+00 0.00000E+00 0.00000E+00
 -1      6775 4.62638E-13 4.62638E-13 4.62638E-13 0.00000E+00 0.00000E+00 0.00000E+00
 -1      6776 4.46258E-13 4.46258E-13 4.46258E-13 0.00000E+00 0.00000E+00 0.00000E+00
 -1      6777 4.64852E-13 4.64852E-13 4.64852E-13 0.00000E+00 0.00000E+00 0.00000E+00
 -1      6778 4.38289E-13 4.38289E-13 4.38289E-13 0.00000E+00 0.00000E+00 0.00000E+00
 -1      6779 4.64852E-13 4.64852E-13 4.64852E-13 0.00000E+00 0.00000E+00 0.00000E+00
 -1      6780 4.64852E-13 4.64852E-13 4.64852E-13 0.00000E+00 0.00000E+00 0.00000E+00
 -1      6781 4.64852E-13 4.64852E-13 4.64852E-13 0.00000E+00 0.00000E+00 0.00000E+00
 -1      6782 4.58211E-13 4.58211E-13 4.58211E-13 0.00000E+00 0.00000E+00 0.00000E+00
 -1      6783 4.49357E-13 4.49357E-13 4.49357E-13 0.00000E+00 0.00000E+00 0.00000E+00
 -1      6784 4.64852E-13 4.64852E-13 4.64852E-13 0.00000E+00 0.00000E+00 0.00000E+00
 -1      6785 4.64852E-13 4.64852E-13 4.64852E-13 0.00000E+00 0.00000E+00 0.00000E+00
 -1      6786 4.42716E-13 4.42716E-13 4.42716E-13 0.00000E+00 0.00000E+00 0.00000E+00
 -1      6787 4.64852E-13 4.64852E-13 4.64852E-13 0.00000E+00 0.00000E+00 0.00000E+00
 -1      6788 4.44929E-13 4.44929E-13 4.44929E-13 0.00000E+00 0.00000E+00 0.00000E+00
 -1      6789 4.64852E-13 4.64852E-13 4.64852E-13 0.00000E+00 0.00000E+00 0.00000E+00
 -1      6790 4.44929E-13 4.44929E-13 4.44929E-13 0.00000E+00 0.00000E+00 0.00000E+00
 -1      6791 4.40502E-13 4.40502E-13 4.40502E-13 0.00000E+00 0.00000E+00 0.00000E+00
 -1      6792 4.64852E-13 4.64852E-13 4.64852E-13 0.00000E+00 0.00000E+00 0.00000E+00
 -1      6793 4.64852E-13 4.64852E-13 4.64852E-13 0.00000E+00 0.00000E+00 0.00000E+00
 -1      6794 4.64852E-13 4.64852E-13 4.64852E-13 0.00000E+00 0.00000E+00 0.00000E+00
 -1      6795 4.64852E-13 4.64852E-13 4.64852E-13 0.00000E+00 0.00000E+00 0.00000E+00
 -1      6796 4.64852E-13 4.64852E-13 4.64852E-13 0.00000E+00 0.00000E+00 0.00000E+00
 -1      6797 4.38289E-13 4.38289E-13 4.38289E-13 0.00000E+00 0.00000E+00 0.00000E+00
 -1      6798 4.64852E-13 4.64852E-13 4.64852E-13 0.00000E+00 0.00000E+00 0.00000E+00
 -1      6799 4.64852E-13 4.64852E-13 4.64852E-13 0.00000E+00 0.00000E+00 0.00000E+00
 -1      6800 4.53784E-13 4.53784E-13 4.53784E-13 0.00000E+00 0.00000E+00 0.00000E+00
 -1      6801 4.38289E-13 4.38289E-13 4.38289E-13 0.00000E+00 0.00000E+00 0.00000E+00
 -1      6802 4.38289E-13 4.38289E-13 4.38289E-13 0.00000E+00 0.00000E+00 0.00000E+00
 -1      6803 4.38289E-13 4.38289E-13 4.38289E-13 0.00000E+00 0.00000E+00 0.00000E+00
 -1      6804 4.38289E-13 4.38289E-13 4.38289E-13 0.00000E+00 0.00000E+00 0.00000E+00
 -1      6805 4.64852E-13 4.64852E-13 4.64852E-13 0.00000E+00 0.00000E+00 0.00000E+00
 -1      6806 4.38289E-13 4.38289E-13 4.38289E-13 0.00000E+00 0.00000E+00 0.00000E+00
 -1      6807 4.42083E-13 4.42083E-13 4.42083E-13 0.00000E+00 0.00000E+00 0.00000E+00
 -1      6808 4.64852E-13 4.64852E-13 4.64852E-13 0.00000E+00 0.00000E+00 0.00000E+00
 -1      6809 4.38289E-13 4.38289E-13 4.38289E-13 0.00000E+00 0.00000E+00 0.00000E+00
 -1      6810 4.64852E-13 4.64852E-13 4.64852E-13 0.00000E+00 0.00000E+00 0.00000E+00
 -1      6811 4.64852E-13 4.64852E-13 4.64852E-13 0.00000E+00 0.00000E+00 0.00000E+00
 -1      6812 4.64852E-13 4.64852E-13 4.64852E-13 0.00000E+00 0.00000E+00 0.00000E+00
 -1      6813 4.55997E-13 4.55997E-13 4.55997E-13 0.00000E+00 0.00000E+00 0.00000E+00
 -1      6814 4.47143E-13 4.47143E-13 4.47143E-13 0.00000E+00 0.00000E+00 0.00000E+00
 -1      6815 4.64852E-13 4.64852E-13 4.64852E-13 0.00000E+00 0.00000E+00 0.00000E+00
 -1      6816 4.42716E-13 4.42716E-13 4.42716E-13 0.00000E+00 0.00000E+00 0.00000E+00
 -1      6817 4.42716E-13 4.42716E-13 4.42716E-13 0.00000E+00 0.00000E+00 0.00000E+00
 -1      6818 4.62195E-13 4.62195E-13 4.62195E-13 0.00000E+00 0.00000E+00 0.00000E+00
 -1      6819 4.38289E-13 4.38289E-13 4.38289E-13 0.00000E+00 0.00000E+00 0.00000E+00
 -1      6820 4.38289E-13 4.38289E-13 4.38289E-13 0.00000E+00 0.00000E+00 0.00000E+00
 -1      6821 4.64852E-13 4.64852E-13 4.64852E-13 0.00000E+00 0.00000E+00 0.00000E+00
 -1      6822 4.64852E-13 4.64852E-13 4.64852E-13 0.00000E+00 0.00000E+00 0.00000E+00
 -1      6823 4.51570E-13 4.51570E-13 4.51570E-13 0.00000E+00 0.00000E+00 0.00000E+00
 -1      6824 4.38289E-13 4.38289E-13 4.38289E-13 0.00000E+00 0.00000E+00 0.00000E+00
 -1      6825 4.64852E-13 4.64852E-13 4.64852E-13 0.00000E+00 0.00000E+00 0.00000E+00
 -1      6826 4.64852E-13 4.64852E-13 4.64852E-13 0.00000E+00 0.00000E+00 0.00000E+00
 -1      6827 4.38289E-13 4.38289E-13 4.38289E-13 0.00000E+00 0.00000E+00 0.00000E+00
 -1      6828 4.64852E-13 4.64852E-13 4.64852E-13 0.00000E+00 0.00000E+00 0.00000E+00
 -1      6829 4.64852E-13 4.64852E-13 4.64852E-13 0.00000E+00 0.00000E+00 0.00000E+00
 -1      6830 4.64852E-13 4.64852E-13 4.64852E-13 0.00000E+00 0.00000E+00 0.00000E+00
 -1      6831 4.64852E-13 4.64852E-13 4.64852E-13 0.00000E+00 0.00000E+00 0.00000E+00
 -1      6832 4.64852E-13 4.64852E-13 4.64852E-13 0.00000E+00 0.00000E+00 0.00000E+00
 -1      6833 4.53784E-13 4.53784E-13 4.53784E-13 0.00000E+00 0.00000E+00 0.00000E+00
 -1      6834 4.64852E-13 4.64852E-13 4.64852E-13 0.00000E+00 0.00000E+00 0.00000E+00
 -1      6835 4.38289E-13 4.38289E-13 4.38289E-13 0.00000E+00 0.00000E+00 0.00000E+00
 -1      6836 4.60425E-13 4.60425E-13 4.60425E-13 0.00000E+00 0.00000E+00 0.00000E+00
 -1      6837 4.64852E-13 4.64852E-13 4.64852E-13 0.00000E+00 0.00000E+00 0.00000E+00
 -1      6838 4.38289E-13 4.38289E-13 4.38289E-13 0.00000E+00 0.00000E+00 0.00000E+00
 -1      6839 4.64852E-13 4.64852E-13 4.64852E-13 0.00000E+00 0.00000E+00 0.00000E+00
 -1      6840 4.64852E-13 4.64852E-13 4.64852E-13 0.00000E+00 0.00000E+00 0.00000E+00
 -1      6841 4.38289E-13 4.38289E-13 4.38289E-13 0.00000E+00 0.00000E+00 0.00000E+00
 -1      6842 4.64852E-13 4.64852E-13 4.64852E-13 0.00000E+00 0.00000E+00 0.00000E+00
 -1      6843 4.44929E-13 4.44929E-13 4.44929E-13 0.00000E+00 0.00000E+00 0.00000E+00
 -1      6844 4.38289E-13 4.38289E-13 4.38289E-13 0.00000E+00 0.00000E+00 0.00000E+00
 -1      6845 4.42716E-13 4.42716E-13 4.42716E-13 0.00000E+00 0.00000E+00 0.00000E+00
 -1      6846 4.60425E-13 4.60425E-13 4.60425E-13 0.00000E+00 0.00000E+00 0.00000E+00
 -1      6847 4.51570E-13 4.51570E-13 4.51570E-13 0.00000E+00 0.00000E+00 0.00000E+00
 -1      6848 4.58211E-13 4.58211E-13 4.58211E-13 0.00000E+00 0.00000E+00 0.00000E+00
 -1      6849 4.49357E-13 4.49357E-13 4.49357E-13 0.00000E+00 0.00000E+00 0.00000E+00
 -1      6850 4.55997E-13 4.55997E-13 4.55997E-13 0.00000E+00 0.00000E+00 0.00000E+00
 -1      6851 4.40945E-13 4.40945E-13 4.40945E-13 0.00000E+00 0.00000E+00 0.00000E+00
 -1      6852 4.43601E-13 4.43601E-13 4.43601E-13 0.00000E+00 0.00000E+00 0.00000E+00
 -1      6853 4.38289E-13 4.38289E-13 4.38289E-13 0.00000E+00 0.00000E+00 0.00000E+00
 -1      6854 4.64852E-13 4.64852E-13 4.64852E-13 0.00000E+00 0.00000E+00 0.00000E+00
 -1      6855 4.42716E-13 4.42716E-13 4.42716E-13 0.00000E+00 0.00000E+00 0.00000E+00
 -1      6856 4.64852E-13 4.64852E-13 4.64852E-13 0.00000E+00 0.00000E+00 0.00000E+00
 -1      6857 4.38289E-13 4.38289E-13 4.38289E-13 0.00000E+00 0.00000E+00 0.00000E+00
 -1      6858 4.38289E-13 4.38289E-13 4.38289E-13 0.00000E+00 0.00000E+00 0.00000E+00
 -1      6859 4.44929E-13 4.44929E-13 4.44929E-13 0.00000E+00 0.00000E+00 0.00000E+00
 -1      6860 4.64852E-13 4.64852E-13 4.64852E-13 0.00000E+00 0.00000E+00 0.00000E+00
 -1      6861 4.64852E-13 4.64852E-13 4.64852E-13 0.00000E+00 0.00000E+00 0.00000E+00
 -1      6862 4.38289E-13 4.38289E-13 4.38289E-13 0.00000E+00 0.00000E+00 0.00000E+00
 -1      6863 4.64852E-13 4.64852E-13 4.64852E-13 0.00000E+00 0.00000E+00 0.00000E+00
 -1      6864 4.64852E-13 4.64852E-13 4.64852E-13 0.00000E+00 0.00000E+00 0.00000E+00
 -1      6865 4.64852E-13 4.64852E-13 4.64852E-13 0.00000E+00 0.00000E+00 0.00000E+00
 -1      6866 4.38289E-13 4.38289E-13 4.38289E-13 0.00000E+00 0.00000E+00 0.00000E+00
 -1      6867 4.64852E-13 4.64852E-13 4.64852E-13 0.00000E+00 0.00000E+00 0.00000E+00
 -1      6868 4.38289E-13 4.38289E-13 4.38289E-13 0.00000E+00 0.00000E+00 0.00000E+00
 -1      6869 4.64852E-13 4.64852E-13 4.64852E-13 0.00000E+00 0.00000E+00 0.00000E+00
 -1      6870 4.38289E-13 4.38289E-13 4.38289E-13 0.00000E+00 0.00000E+00 0.00000E+00
 -1      6871 4.40502E-13 4.40502E-13 4.40502E-13 0.00000E+00 0.00000E+00 0.00000E+00
 -1      6872 4.64852E-13 4.64852E-13 4.64852E-13 0.00000E+00 0.00000E+00 0.00000E+00
 -1      6873 4.38289E-13 4.38289E-13 4.38289E-13 0.00000E+00 0.00000E+00 0.00000E+00
 -1      6874 4.64852E-13 4.64852E-13 4.64852E-13 0.00000E+00 0.00000E+00 0.00000E+00
 -1      6875 4.38289E-13 4.38289E-13 4.38289E-13 0.00000E+00 0.00000E+00 0.00000E+00
 -1      6876 4.64852E-13 4.64852E-13 4.64852E-13 0.00000E+00 0.00000E+00 0.00000E+00
 -1      6877 4.38289E-13 4.38289E-13 4.38289E-13 0.00000E+00 0.00000E+00 0.00000E+00
 -1      6878 4.51570E-13 4.51570E-13 4.51570E-13 0.00000E+00 0.00000E+00 0.00000E+00
 -1      6879 4.64852E-13 4.64852E-13 4.64852E-13 0.00000E+00 0.00000E+00 0.00000E+00
 -1      6880 4.38289E-13 4.38289E-13 4.38289E-13 0.00000E+00 0.00000E+00 0.00000E+00
 -1      6881 4.64852E-13 4.64852E-13 4.64852E-13 0.00000E+00 0.00000E+00 0.00000E+00
 -1      6882 4.38289E-13 4.38289E-13 4.38289E-13 0.00000E+00 0.00000E+00 0.00000E+00
 -1      6883 4.44929E-13 4.44929E-13 4.44929E-13 0.00000E+00 0.00000E+00 0.00000E+00
 -1      6884 4.49357E-13 4.49357E-13 4.49357E-13 0.00000E+00 0.00000E+00 0.00000E+00
 -1      6885 4.56883E-13 4.56883E-13 4.56883E-13 0.00000E+00 0.00000E+00 0.00000E+00
 -1      6886 4.64852E-13 4.64852E-13 4.64852E-13 0.00000E+00 0.00000E+00 0.00000E+00
 -1      6887 4.56883E-13 4.56883E-13 4.56883E-13 0.00000E+00 0.00000E+00 0.00000E+00
 -1      6888 4.64852E-13 4.64852E-13 4.64852E-13 0.00000E+00 0.00000E+00 0.00000E+00
 -1      6889 4.40502E-13 4.40502E-13 4.40502E-13 0.00000E+00 0.00000E+00 0.00000E+00
 -1      6890 4.62638E-13 4.62638E-13 4.62638E-13 0.00000E+00 0.00000E+00 0.00000E+00
 -1      6891 4.38289E-13 4.38289E-13 4.38289E-13 0.00000E+00 0.00000E+00 0.00000E+00
 -1      6892 4.64852E-13 4.64852E-13 4.64852E-13 0.00000E+00 0.00000E+00 0.00000E+00
 -1      6893 4.40945E-13 4.40945E-13 4.40945E-13 0.00000E+00 0.00000E+00 0.00000E+00
 -1      6894 4.38289E-13 4.38289E-13 4.38289E-13 0.00000E+00 0.00000E+00 0.00000E+00
 -1      6895 4.43601E-13 4.43601E-13 4.43601E-13 0.00000E+00 0.00000E+00 0.00000E+00
 -1      6896 4.62195E-13 4.62195E-13 4.62195E-13 0.00000E+00 0.00000E+00 0.00000E+00
 -1      6897 4.38289E-13 4.38289E-13 4.38289E-13 0.00000E+00 0.00000E+00 0.00000E+00
 -1      6898 4.38289E-13 4.38289E-13 4.38289E-13 0.00000E+00 0.00000E+00 0.00000E+00
 -1      6899 4.38289E-13 4.38289E-13 4.38289E-13 0.00000E+00 0.00000E+00 0.00000E+00
 -1      6900 4.62638E-13 4.62638E-13 4.62638E-13 0.00000E+00 0.00000E+00 0.00000E+00
 -1      6901 4.62195E-13 4.62195E-13 4.62195E-13 0.00000E+00 0.00000E+00 0.00000E+00
 -1      6902 4.64852E-13 4.64852E-13 4.64852E-13 0.00000E+00 0.00000E+00 0.00000E+00
 -1      6903 4.64852E-13 4.64852E-13 4.64852E-13 0.00000E+00 0.00000E+00 0.00000E+00
 -1      6904 4.38289E-13 4.38289E-13 4.38289E-13 0.00000E+00 0.00000E+00 0.00000E+00
 -1      6905 4.64852E-13 4.64852E-13 4.64852E-13 0.00000E+00 0.00000E+00 0.00000E+00
 -1      6906 4.64852E-13 4.64852E-13 4.64852E-13 0.00000E+00 0.00000E+00 0.00000E+00
 -1      6907 4.56883E-13 4.56883E-13 4.56883E-13 0.00000E+00 0.00000E+00 0.00000E+00
 -1      6908 4.64852E-13 4.64852E-13 4.64852E-13 0.00000E+00 0.00000E+00 0.00000E+00
 -1      6909 4.42716E-13 4.42716E-13 4.42716E-13 0.00000E+00 0.00000E+00 0.00000E+00
 -1      6910 4.42716E-13 4.42716E-13 4.42716E-13 0.00000E+00 0.00000E+00 0.00000E+00
 -1      6911 4.38289E-13 4.38289E-13 4.38289E-13 0.00000E+00 0.00000E+00 0.00000E+00
 -1      6912 4.38289E-13 4.38289E-13 4.38289E-13 0.00000E+00 0.00000E+00 0.00000E+00
 -1      6913 4.38289E-13 4.38289E-13 4.38289E-13 0.00000E+00 0.00000E+00 0.00000E+00
 -1      6914 4.64852E-13 4.64852E-13 4.64852E-13 0.00000E+00 0.00000E+00 0.00000E+00
 -1      6915 4.64852E-13 4.64852E-13 4.64852E-13 0.00000E+00 0.00000E+00 0.00000E+00
 -1      6916 4.47143E-13 4.47143E-13 4.47143E-13 0.00000E+00 0.00000E+00 0.00000E+00
 -1      6917 4.64852E-13 4.64852E-13 4.64852E-13 0.00000E+00 0.00000E+00 0.00000E+00
 -1      6918 4.62638E-13 4.62638E-13 4.62638E-13 0.00000E+00 0.00000E+00 0.00000E+00
 -1      6919 4.64852E-13 4.64852E-13 4.64852E-13 0.00000E+00 0.00000E+00 0.00000E+00
 -1      6920 4.64852E-13 4.64852E-13 4.64852E-13 0.00000E+00 0.00000E+00 0.00000E+00
 -1      6921 4.38289E-13 4.38289E-13 4.38289E-13 0.00000E+00 0.00000E+00 0.00000E+00
 -1      6922 4.64852E-13 4.64852E-13 4.64852E-13 0.00000E+00 0.00000E+00 0.00000E+00
 -1      6923 4.64852E-13 4.64852E-13 4.64852E-13 0.00000E+00 0.00000E+00 0.00000E+00
 -1      6924 4.64852E-13 4.64852E-13 4.64852E-13 0.00000E+00 0.00000E+00 0.00000E+00
 -1      6925 4.64852E-13 4.64852E-13 4.64852E-13 0.00000E+00 0.00000E+00 0.00000E+00
 -1      6926 4.38289E-13 4.38289E-13 4.38289E-13 0.00000E+00 0.00000E+00 0.00000E+00
 -1      6927 4.64852E-13 4.64852E-13 4.64852E-13 0.00000E+00 0.00000E+00 0.00000E+00
 -1      6928 4.38289E-13 4.38289E-13 4.38289E-13 0.00000E+00 0.00000E+00 0.00000E+00
 -1      6929 4.64852E-13 4.64852E-13 4.64852E-13 0.00000E+00 0.00000E+00 0.00000E+00
 -1      6930 4.62638E-13 4.62638E-13 4.62638E-13 0.00000E+00 0.00000E+00 0.00000E+00
 -1      6931 4.64852E-13 4.64852E-13 4.64852E-13 0.00000E+00 0.00000E+00 0.00000E+00
 -1      6932 4.64852E-13 4.64852E-13 4.64852E-13 0.00000E+00 0.00000E+00 0.00000E+00
 -1      6933 4.38289E-13 4.38289E-13 4.38289E-13 0.00000E+00 0.00000E+00 0.00000E+00
 -1      6934 4.64852E-13 4.64852E-13 4.64852E-13 0.00000E+00 0.00000E+00 0.00000E+00
 -1      6935 4.38289E-13 4.38289E-13 4.38289E-13 0.00000E+00 0.00000E+00 0.00000E+00
 -1      6936 4.43601E-13 4.43601E-13 4.43601E-13 0.00000E+00 0.00000E+00 0.00000E+00
 -1      6937 4.64852E-13 4.64852E-13 4.64852E-13 0.00000E+00 0.00000E+00 0.00000E+00
 -1      6938 4.64852E-13 4.64852E-13 4.64852E-13 0.00000E+00 0.00000E+00 0.00000E+00
 -1      6939 4.42716E-13 4.42716E-13 4.42716E-13 0.00000E+00 0.00000E+00 0.00000E+00
 -1      6940 4.43601E-13 4.43601E-13 4.43601E-13 0.00000E+00 0.00000E+00 0.00000E+00
 -1      6941 4.64852E-13 4.64852E-13 4.64852E-13 0.00000E+00 0.00000E+00 0.00000E+00
 -1      6942 4.38289E-13 4.38289E-13 4.38289E-13 0.00000E+00 0.00000E+00 0.00000E+00
 -1      6943 4.64852E-13 4.64852E-13 4.64852E-13 0.00000E+00 0.00000E+00 0.00000E+00
 -1      6944 4.64852E-13 4.64852E-13 4.64852E-13 0.00000E+00 0.00000E+00 0.00000E+00
 -1      6945 4.64852E-13 4.64852E-13 4.64852E-13 0.00000E+00 0.00000E+00 0.00000E+00
 -1      6946 4.64852E-13 4.64852E-13 4.64852E-13 0.00000E+00 0.00000E+00 0.00000E+00
 -1      6947 4.64852E-13 4.64852E-13 4.64852E-13 0.00000E+00 0.00000E+00 0.00000E+00
 -1      6948 4.38289E-13 4.38289E-13 4.38289E-13 0.00000E+00 0.00000E+00 0.00000E+00
 -1      6949 4.64852E-13 4.64852E-13 4.64852E-13 0.00000E+00 0.00000E+00 0.00000E+00
 -1      6950 4.64852E-13 4.64852E-13 4.64852E-13 0.00000E+00 0.00000E+00 0.00000E+00
 -1      6951 4.62195E-13 4.62195E-13 4.62195E-13 0.00000E+00 0.00000E+00 0.00000E+00
 -1      6952 4.40502E-13 4.40502E-13 4.40502E-13 0.00000E+00 0.00000E+00 0.00000E+00
 -1      6953 4.64852E-13 4.64852E-13 4.64852E-13 0.00000E+00 0.00000E+00 0.00000E+00
 -1      6954 4.38289E-13 4.38289E-13 4.38289E-13 0.00000E+00 0.00000E+00 0.00000E+00
 -1      6955 4.43601E-13 4.43601E-13 4.43601E-13 0.00000E+00 0.00000E+00 0.00000E+00
 -1      6956 4.64852E-13 4.64852E-13 4.64852E-13 0.00000E+00 0.00000E+00 0.00000E+00
 -1      6957 4.62638E-13 4.62638E-13 4.62638E-13 0.00000E+00 0.00000E+00 0.00000E+00
 -1      6958 4.38289E-13 4.38289E-13 4.38289E-13 0.00000E+00 0.00000E+00 0.00000E+00
 -1      6959 4.58211E-13 4.58211E-13 4.58211E-13 0.00000E+00 0.00000E+00 0.00000E+00
 -1      6960 4.64852E-13 4.64852E-13 4.64852E-13 0.00000E+00 0.00000E+00 0.00000E+00
 -1      6961 4.51570E-13 4.51570E-13 4.51570E-13 0.00000E+00 0.00000E+00 0.00000E+00
 -1      6962 4.40502E-13 4.40502E-13 4.40502E-13 0.00000E+00 0.00000E+00 0.00000E+00
 -1      6963 4.64852E-13 4.64852E-13 4.64852E-13 0.00000E+00 0.00000E+00 0.00000E+00
 -1      6964 4.64852E-13 4.64852E-13 4.64852E-13 0.00000E+00 0.00000E+00 0.00000E+00
 -1      6965 4.38289E-13 4.38289E-13 4.38289E-13 0.00000E+00 0.00000E+00 0.00000E+00
 -1      6966 4.42716E-13 4.42716E-13 4.42716E-13 0.00000E+00 0.00000E+00 0.00000E+00
 -1      6967 4.64852E-13 4.64852E-13 4.64852E-13 0.00000E+00 0.00000E+00 0.00000E+00
 -1      6968 4.64852E-13 4.64852E-13 4.64852E-13 0.00000E+00 0.00000E+00 0.00000E+00
 -1      6969 4.64852E-13 4.64852E-13 4.64852E-13 0.00000E+00 0.00000E+00 0.00000E+00
 -1      6970 4.38289E-13 4.38289E-13 4.38289E-13 0.00000E+00 0.00000E+00 0.00000E+00
 -1      6971 4.60425E-13 4.60425E-13 4.60425E-13 0.00000E+00 0.00000E+00 0.00000E+00
 -1      6972 4.64852E-13 4.64852E-13 4.64852E-13 0.00000E+00 0.00000E+00 0.00000E+00
 -1      6973 4.64852E-13 4.64852E-13 4.64852E-13 0.00000E+00 0.00000E+00 0.00000E+00
 -1      6974 4.64852E-13 4.64852E-13 4.64852E-13 0.00000E+00 0.00000E+00 0.00000E+00
 -1      6975 4.38289E-13 4.38289E-13 4.38289E-13 0.00000E+00 0.00000E+00 0.00000E+00
 -1      6976 4.48914E-13 4.48914E-13 4.48914E-13 0.00000E+00 0.00000E+00 0.00000E+00
 -1      6977 4.53784E-13 4.53784E-13 4.53784E-13 0.00000E+00 0.00000E+00 0.00000E+00
 -1      6978 4.51570E-13 4.51570E-13 4.51570E-13 0.00000E+00 0.00000E+00 0.00000E+00
 -1      6979 4.64852E-13 4.64852E-13 4.64852E-13 0.00000E+00 0.00000E+00 0.00000E+00
 -1      6980 4.64852E-13 4.64852E-13 4.64852E-13 0.00000E+00 0.00000E+00 0.00000E+00
 -1      6981 4.38289E-13 4.38289E-13 4.38289E-13 0.00000E+00 0.00000E+00 0.00000E+00
 -1      6982 4.64852E-13 4.64852E-13 4.64852E-13 0.00000E+00 0.00000E+00 0.00000E+00
 -1      6983 4.38289E-13 4.38289E-13 4.38289E-13 0.00000E+00 0.00000E+00 0.00000E+00
 -1      6984 4.64852E-13 4.64852E-13 4.64852E-13 0.00000E+00 0.00000E+00 0.00000E+00
 -1      6985 4.64852E-13 4.64852E-13 4.64852E-13 0.00000E+00 0.00000E+00 0.00000E+00
 -1      6986 4.59539E-13 4.59539E-13 4.59539E-13 0.00000E+00 0.00000E+00 0.00000E+00
 -1      6987 4.38289E-13 4.38289E-13 4.38289E-13 0.00000E+00 0.00000E+00 0.00000E+00
 -1      6988 4.38289E-13 4.38289E-13 4.38289E-13 0.00000E+00 0.00000E+00 0.00000E+00
 -1      6989 4.64852E-13 4.64852E-13 4.64852E-13 0.00000E+00 0.00000E+00 0.00000E+00
 -1      6990 4.43601E-13 4.43601E-13 4.43601E-13 0.00000E+00 0.00000E+00 0.00000E+00
 -1      6991 4.58211E-13 4.58211E-13 4.58211E-13 0.00000E+00 0.00000E+00 0.00000E+00
 -1      6992 4.38289E-13 4.38289E-13 4.38289E-13 0.00000E+00 0.00000E+00 0.00000E+00
 -1      6993 4.64852E-13 4.64852E-13 4.64852E-13 0.00000E+00 0.00000E+00 0.00000E+00
 -1      6994 4.40945E-13 4.40945E-13 4.40945E-13 0.00000E+00 0.00000E+00 0.00000E+00
 -1      6995 4.38289E-13 4.38289E-13 4.38289E-13 0.00000E+00 0.00000E+00 0.00000E+00
 -1      6996 4.38289E-13 4.38289E-13 4.38289E-13 0.00000E+00 0.00000E+00 0.00000E+00
 -1      6997 4.48914E-13 4.48914E-13 4.48914E-13 0.00000E+00 0.00000E+00 0.00000E+00
 -1      6998 4.64852E-13 4.64852E-13 4.64852E-13 0.00000E+00 0.00000E+00 0.00000E+00
 -1      6999 4.64852E-13 4.64852E-13 4.64852E-13 0.00000E+00 0.00000E+00 0.00000E+00
 -1      7000 4.40945E-13 4.40945E-13 4.40945E-13 0.00000E+00 0.00000E+00 0.00000E+00
 -1      7001 4.64852E-13 4.64852E-13 4.64852E-13 0.00000E+00 0.00000E+00 0.00000E+00
 -1      7002 4.64852E-13 4.64852E-13 4.64852E-13 0.00000E+00 0.00000E+00 0.00000E+00
 -1      7003 4.38289E-13 4.38289E-13 4.38289E-13 0.00000E+00 0.00000E+00 0.00000E+00
 -1      7004 4.64852E-13 4.64852E-13 4.64852E-13 0.00000E+00 0.00000E+00 0.00000E+00
 -1      7005 4.64852E-13 4.64852E-13 4.64852E-13 0.00000E+00 0.00000E+00 0.00000E+00
 -1      7006 4.38289E-13 4.38289E-13 4.38289E-13 0.00000E+00 0.00000E+00 0.00000E+00
 -1      7007 4.38289E-13 4.38289E-13 4.38289E-13 0.00000E+00 0.00000E+00 0.00000E+00
 -1      7008 4.64852E-13 4.64852E-13 4.64852E-13 0.00000E+00 0.00000E+00 0.00000E+00
 -1      7009 4.64852E-13 4.64852E-13 4.64852E-13 0.00000E+00 0.00000E+00 0.00000E+00
 -1      7010 4.64852E-13 4.64852E-13 4.64852E-13 0.00000E+00 0.00000E+00 0.00000E+00
 -1      7011 4.64852E-13 4.64852E-13 4.64852E-13 0.00000E+00 0.00000E+00 0.00000E+00
 -1      7012 4.38289E-13 4.38289E-13 4.38289E-13 0.00000E+00 0.00000E+00 0.00000E+00
 -1      7013 4.64852E-13 4.64852E-13 4.64852E-13 0.00000E+00 0.00000E+00 0.00000E+00
 -1      7014 4.56883E-13 4.56883E-13 4.56883E-13 0.00000E+00 0.00000E+00 0.00000E+00
 -1      7015 4.40945E-13 4.40945E-13 4.40945E-13 0.00000E+00 0.00000E+00 0.00000E+00
 -1      7016 4.38289E-13 4.38289E-13 4.38289E-13 0.00000E+00 0.00000E+00 0.00000E+00
 -1      7017 4.64852E-13 4.64852E-13 4.64852E-13 0.00000E+00 0.00000E+00 0.00000E+00
 -1      7018 4.46258E-13 4.46258E-13 4.46258E-13 0.00000E+00 0.00000E+00 0.00000E+00
 -1      7019 4.64852E-13 4.64852E-13 4.64852E-13 0.00000E+00 0.00000E+00 0.00000E+00
 -1      7020 4.49357E-13 4.49357E-13 4.49357E-13 0.00000E+00 0.00000E+00 0.00000E+00
 -1      7021 4.64852E-13 4.64852E-13 4.64852E-13 0.00000E+00 0.00000E+00 0.00000E+00
 -1      7022 4.42716E-13 4.42716E-13 4.42716E-13 0.00000E+00 0.00000E+00 0.00000E+00
 -1      7023 4.64852E-13 4.64852E-13 4.64852E-13 0.00000E+00 0.00000E+00 0.00000E+00
 -1      7024 4.64852E-13 4.64852E-13 4.64852E-13 0.00000E+00 0.00000E+00 0.00000E+00
 -1      7025 4.64852E-13 4.64852E-13 4.64852E-13 0.00000E+00 0.00000E+00 0.00000E+00
 -1      7026 4.38289E-13 4.38289E-13 4.38289E-13 0.00000E+00 0.00000E+00 0.00000E+00
 -1      7027 4.64852E-13 4.64852E-13 4.64852E-13 0.00000E+00 0.00000E+00 0.00000E+00
 -1      7028 4.38289E-13 4.38289E-13 4.38289E-13 0.00000E+00 0.00000E+00 0.00000E+00
 -1      7029 4.62638E-13 4.62638E-13 4.62638E-13 0.00000E+00 0.00000E+00 0.00000E+00
 -1      7030 4.64852E-13 4.64852E-13 4.64852E-13 0.00000E+00 0.00000E+00 0.00000E+00
 -1      7031 4.64852E-13 4.64852E-13 4.64852E-13 0.00000E+00 0.00000E+00 0.00000E+00
 -1      7032 4.64852E-13 4.64852E-13 4.64852E-13 0.00000E+00 0.00000E+00 0.00000E+00
 -1      7033 4.38289E-13 4.38289E-13 4.38289E-13 0.00000E+00 0.00000E+00 0.00000E+00
 -1      7034 4.64852E-13 4.64852E-13 4.64852E-13 0.00000E+00 0.00000E+00 0.00000E+00
 -1      7035 4.62638E-13 4.62638E-13 4.62638E-13 0.00000E+00 0.00000E+00 0.00000E+00
 -1      7036 4.58211E-13 4.58211E-13 4.58211E-13 0.00000E+00 0.00000E+00 0.00000E+00
 -1      7037 4.40502E-13 4.40502E-13 4.40502E-13 0.00000E+00 0.00000E+00 0.00000E+00
 -1      7038 4.40502E-13 4.40502E-13 4.40502E-13 0.00000E+00 0.00000E+00 0.00000E+00
 -1      7039 4.64852E-13 4.64852E-13 4.64852E-13 0.00000E+00 0.00000E+00 0.00000E+00
 -1      7040 4.64852E-13 4.64852E-13 4.64852E-13 0.00000E+00 0.00000E+00 0.00000E+00
 -1      7041 4.38289E-13 4.38289E-13 4.38289E-13 0.00000E+00 0.00000E+00 0.00000E+00
 -1      7042 4.38289E-13 4.38289E-13 4.38289E-13 0.00000E+00 0.00000E+00 0.00000E+00
 -1      7043 4.38289E-13 4.38289E-13 4.38289E-13 0.00000E+00 0.00000E+00 0.00000E+00
 -1      7044 4.64852E-13 4.64852E-13 4.64852E-13 0.00000E+00 0.00000E+00 0.00000E+00
 -1      7045 4.64852E-13 4.64852E-13 4.64852E-13 0.00000E+00 0.00000E+00 0.00000E+00
 -1      7046 4.64852E-13 4.64852E-13 4.64852E-13 0.00000E+00 0.00000E+00 0.00000E+00
 -1      7047 4.70164E-13 4.70164E-13 4.70164E-13 0.00000E+00 0.00000E+00 0.00000E+00
 -1      7048 4.64852E-13 4.64852E-13 4.64852E-13 0.00000E+00 0.00000E+00 0.00000E+00
 -1      7049 4.64852E-13 4.64852E-13 4.64852E-13 0.00000E+00 0.00000E+00 0.00000E+00
 -1      7050 4.38289E-13 4.38289E-13 4.38289E-13 0.00000E+00 0.00000E+00 0.00000E+00
 -1      7051 4.38289E-13 4.38289E-13 4.38289E-13 0.00000E+00 0.00000E+00 0.00000E+00
 -1      7052 4.40945E-13 4.40945E-13 4.40945E-13 0.00000E+00 0.00000E+00 0.00000E+00
 -1      7053 4.38289E-13 4.38289E-13 4.38289E-13 0.00000E+00 0.00000E+00 0.00000E+00
 -1      7054 4.64852E-13 4.64852E-13 4.64852E-13 0.00000E+00 0.00000E+00 0.00000E+00
 -1      7055 4.64852E-13 4.64852E-13 4.64852E-13 0.00000E+00 0.00000E+00 0.00000E+00
 -1      7056 4.59539E-13 4.59539E-13 4.59539E-13 0.00000E+00 0.00000E+00 0.00000E+00
 -1      7057 4.40945E-13 4.40945E-13 4.40945E-13 0.00000E+00 0.00000E+00 0.00000E+00
 -1      7058 4.38289E-13 4.38289E-13 4.38289E-13 0.00000E+00 0.00000E+00 0.00000E+00
 -1      7059 4.64852E-13 4.64852E-13 4.64852E-13 0.00000E+00 0.00000E+00 0.00000E+00
 -1      7060 4.64852E-13 4.64852E-13 4.64852E-13 0.00000E+00 0.00000E+00 0.00000E+00
 -1      7061 4.38289E-13 4.38289E-13 4.38289E-13 0.00000E+00 0.00000E+00 0.00000E+00
 -1      7062 4.64852E-13 4.64852E-13 4.64852E-13 0.00000E+00 0.00000E+00 0.00000E+00
 -1      7063 4.38289E-13 4.38289E-13 4.38289E-13 0.00000E+00 0.00000E+00 0.00000E+00
 -1      7064 4.40945E-13 4.40945E-13 4.40945E-13 0.00000E+00 0.00000E+00 0.00000E+00
 -1      7065 4.64852E-13 4.64852E-13 4.64852E-13 0.00000E+00 0.00000E+00 0.00000E+00
 -1      7066 4.38289E-13 4.38289E-13 4.38289E-13 0.00000E+00 0.00000E+00 0.00000E+00
 -1      7067 4.43601E-13 4.43601E-13 4.43601E-13 0.00000E+00 0.00000E+00 0.00000E+00
 -1      7068 4.43601E-13 4.43601E-13 4.43601E-13 0.00000E+00 0.00000E+00 0.00000E+00
 -1      7069 4.51570E-13 4.51570E-13 4.51570E-13 0.00000E+00 0.00000E+00 0.00000E+00
 -1      7070 4.47143E-13 4.47143E-13 4.47143E-13 0.00000E+00 0.00000E+00 0.00000E+00
 -1      7071 4.40502E-13 4.40502E-13 4.40502E-13 0.00000E+00 0.00000E+00 0.00000E+00
 -1      7072 4.64852E-13 4.64852E-13 4.64852E-13 0.00000E+00 0.00000E+00 0.00000E+00
 -1      7073 4.38289E-13 4.38289E-13 4.38289E-13 0.00000E+00 0.00000E+00 0.00000E+00
 -1      7074 4.64852E-13 4.64852E-13 4.64852E-13 0.00000E+00 0.00000E+00 0.00000E+00
 -1      7075 4.40502E-13 4.40502E-13 4.40502E-13 0.00000E+00 0.00000E+00 0.00000E+00
 -1      7076 4.38289E-13 4.38289E-13 4.38289E-13 0.00000E+00 0.00000E+00 0.00000E+00
 -1      7077 4.46258E-13 4.46258E-13 4.46258E-13 0.00000E+00 0.00000E+00 0.00000E+00
 -1      7078 4.62195E-13 4.62195E-13 4.62195E-13 0.00000E+00 0.00000E+00 0.00000E+00
 -1      7079 4.42716E-13 4.42716E-13 4.42716E-13 0.00000E+00 0.00000E+00 0.00000E+00
 -1      7080 4.38289E-13 4.38289E-13 4.38289E-13 0.00000E+00 0.00000E+00 0.00000E+00
 -1      7081 4.64852E-13 4.64852E-13 4.64852E-13 0.00000E+00 0.00000E+00 0.00000E+00
 -1      7082 4.64852E-13 4.64852E-13 4.64852E-13 0.00000E+00 0.00000E+00 0.00000E+00
 -1      7083 4.64852E-13 4.64852E-13 4.64852E-13 0.00000E+00 0.00000E+00 0.00000E+00
 -1      7084 4.48914E-13 4.48914E-13 4.48914E-13 0.00000E+00 0.00000E+00 0.00000E+00
 -1      7085 4.40945E-13 4.40945E-13 4.40945E-13 0.00000E+00 0.00000E+00 0.00000E+00
 -1      7086 4.38289E-13 4.38289E-13 4.38289E-13 0.00000E+00 0.00000E+00 0.00000E+00
 -1      7087 4.62195E-13 4.62195E-13 4.62195E-13 0.00000E+00 0.00000E+00 0.00000E+00
 -1      7088 4.59539E-13 4.59539E-13 4.59539E-13 0.00000E+00 0.00000E+00 0.00000E+00
 -1      7089 4.38289E-13 4.38289E-13 4.38289E-13 0.00000E+00 0.00000E+00 0.00000E+00
 -1      7090 4.62195E-13 4.62195E-13 4.62195E-13 0.00000E+00 0.00000E+00 0.00000E+00
 -1      7091 4.42716E-13 4.42716E-13 4.42716E-13 0.00000E+00 0.00000E+00 0.00000E+00
 -1      7092 4.64852E-13 4.64852E-13 4.64852E-13 0.00000E+00 0.00000E+00 0.00000E+00
 -1      7093 4.38289E-13 4.38289E-13 4.38289E-13 0.00000E+00 0.00000E+00 0.00000E+00
 -1      7094 4.60425E-13 4.60425E-13 4.60425E-13 0.00000E+00 0.00000E+00 0.00000E+00
 -1      7095 4.38289E-13 4.38289E-13 4.38289E-13 0.00000E+00 0.00000E+00 0.00000E+00
 -1      7096 4.59539E-13 4.59539E-13 4.59539E-13 0.00000E+00 0.00000E+00 0.00000E+00
 -1      7097 4.48914E-13 4.48914E-13 4.48914E-13 0.00000E+00 0.00000E+00 0.00000E+00
 -1      7098 4.64852E-13 4.64852E-13 4.64852E-13 0.00000E+00 0.00000E+00 0.00000E+00
 -1      7099 4.64852E-13 4.64852E-13 4.64852E-13 0.00000E+00 0.00000E+00 0.00000E+00
 -1      7100 4.64852E-13 4.64852E-13 4.64852E-13 0.00000E+00 0.00000E+00 0.00000E+00
 -1      7101 4.64852E-13 4.64852E-13 4.64852E-13 0.00000E+00 0.00000E+00 0.00000E+00
 -1      7102 4.38289E-13 4.38289E-13 4.38289E-13 0.00000E+00 0.00000E+00 0.00000E+00
 -1      7103 4.38289E-13 4.38289E-13 4.38289E-13 0.00000E+00 0.00000E+00 0.00000E+00
 -1      7104 4.64852E-13 4.64852E-13 4.64852E-13 0.00000E+00 0.00000E+00 0.00000E+00
 -1      7105 4.59539E-13 4.59539E-13 4.59539E-13 0.00000E+00 0.00000E+00 0.00000E+00
 -1      7106 4.64852E-13 4.64852E-13 4.64852E-13 0.00000E+00 0.00000E+00 0.00000E+00
 -1      7107 4.64852E-13 4.64852E-13 4.64852E-13 0.00000E+00 0.00000E+00 0.00000E+00
 -1      7108 4.38289E-13 4.38289E-13 4.38289E-13 0.00000E+00 0.00000E+00 0.00000E+00
 -1      7109 4.38289E-13 4.38289E-13 4.38289E-13 0.00000E+00 0.00000E+00 0.00000E+00
 -1      7110 4.64852E-13 4.64852E-13 4.64852E-13 0.00000E+00 0.00000E+00 0.00000E+00
 -1      7111 4.62195E-13 4.62195E-13 4.62195E-13 0.00000E+00 0.00000E+00 0.00000E+00
 -1      7112 4.40502E-13 4.40502E-13 4.40502E-13 0.00000E+00 0.00000E+00 0.00000E+00
 -1      7113 4.38289E-13 4.38289E-13 4.38289E-13 0.00000E+00 0.00000E+00 0.00000E+00
 -1      7114 4.64852E-13 4.64852E-13 4.64852E-13 0.00000E+00 0.00000E+00 0.00000E+00
 -1      7115 4.64852E-13 4.64852E-13 4.64852E-13 0.00000E+00 0.00000E+00 0.00000E+00
 -1      7116 4.38289E-13 4.38289E-13 4.38289E-13 0.00000E+00 0.00000E+00 0.00000E+00
 -1      7117 4.43601E-13 4.43601E-13 4.43601E-13 0.00000E+00 0.00000E+00 0.00000E+00
 -1      7118 4.62638E-13 4.62638E-13 4.62638E-13 0.00000E+00 0.00000E+00 0.00000E+00
 -1      7119 4.43601E-13 4.43601E-13 4.43601E-13 0.00000E+00 0.00000E+00 0.00000E+00
 -1      7120 4.38289E-13 4.38289E-13 4.38289E-13 0.00000E+00 0.00000E+00 0.00000E+00
 -1      7121 4.38289E-13 4.38289E-13 4.38289E-13 0.00000E+00 0.00000E+00 0.00000E+00
 -1      7122 4.38289E-13 4.38289E-13 4.38289E-13 0.00000E+00 0.00000E+00 0.00000E+00
 -1      7123 4.64852E-13 4.64852E-13 4.64852E-13 0.00000E+00 0.00000E+00 0.00000E+00
 -1      7124 4.64852E-13 4.64852E-13 4.64852E-13 0.00000E+00 0.00000E+00 0.00000E+00
 -1      7125 4.64852E-13 4.64852E-13 4.64852E-13 0.00000E+00 0.00000E+00 0.00000E+00
 -1      7126 4.64852E-13 4.64852E-13 4.64852E-13 0.00000E+00 0.00000E+00 0.00000E+00
 -1      7127 4.38289E-13 4.38289E-13 4.38289E-13 0.00000E+00 0.00000E+00 0.00000E+00
 -1      7128 4.46258E-13 4.46258E-13 4.46258E-13 0.00000E+00 0.00000E+00 0.00000E+00
 -1      7129 4.64852E-13 4.64852E-13 4.64852E-13 0.00000E+00 0.00000E+00 0.00000E+00
 -1      7130 4.38289E-13 4.38289E-13 4.38289E-13 0.00000E+00 0.00000E+00 0.00000E+00
 -1      7131 4.40945E-13 4.40945E-13 4.40945E-13 0.00000E+00 0.00000E+00 0.00000E+00
 -1      7132 4.38289E-13 4.38289E-13 4.38289E-13 0.00000E+00 0.00000E+00 0.00000E+00
 -1      7133 4.38289E-13 4.38289E-13 4.38289E-13 0.00000E+00 0.00000E+00 0.00000E+00
 -1      7134 4.38289E-13 4.38289E-13 4.38289E-13 0.00000E+00 0.00000E+00 0.00000E+00
 -1      7135 4.64852E-13 4.64852E-13 4.64852E-13 0.00000E+00 0.00000E+00 0.00000E+00
 -1      7136 4.64852E-13 4.64852E-13 4.64852E-13 0.00000E+00 0.00000E+00 0.00000E+00
 -1      7137 4.59539E-13 4.59539E-13 4.59539E-13 0.00000E+00 0.00000E+00 0.00000E+00
 -1      7138 4.62195E-13 4.62195E-13 4.62195E-13 0.00000E+00 0.00000E+00 0.00000E+00
 -1      7139 4.64852E-13 4.64852E-13 4.64852E-13 0.00000E+00 0.00000E+00 0.00000E+00
 -1      7140 4.38289E-13 4.38289E-13 4.38289E-13 0.00000E+00 0.00000E+00 0.00000E+00
 -1      7141 4.64852E-13 4.64852E-13 4.64852E-13 0.00000E+00 0.00000E+00 0.00000E+00
 -1      7142 4.64852E-13 4.64852E-13 4.64852E-13 0.00000E+00 0.00000E+00 0.00000E+00
 -1      7143 4.64852E-13 4.64852E-13 4.64852E-13 0.00000E+00 0.00000E+00 0.00000E+00
 -1      7144 4.38289E-13 4.38289E-13 4.38289E-13 0.00000E+00 0.00000E+00 0.00000E+00
 -1      7145 4.40502E-13 4.40502E-13 4.40502E-13 0.00000E+00 0.00000E+00 0.00000E+00
 -1      7146 4.38289E-13 4.38289E-13 4.38289E-13 0.00000E+00 0.00000E+00 0.00000E+00
 -1      7147 4.64852E-13 4.64852E-13 4.64852E-13 0.00000E+00 0.00000E+00 0.00000E+00
 -1      7148 4.64852E-13 4.64852E-13 4.64852E-13 0.00000E+00 0.00000E+00 0.00000E+00
 -1      7149 4.64852E-13 4.64852E-13 4.64852E-13 0.00000E+00 0.00000E+00 0.00000E+00
 -1      7150 4.64852E-13 4.64852E-13 4.64852E-13 0.00000E+00 0.00000E+00 0.00000E+00
 -1      7151 4.64852E-13 4.64852E-13 4.64852E-13 0.00000E+00 0.00000E+00 0.00000E+00
 -1      7152 4.38289E-13 4.38289E-13 4.38289E-13 0.00000E+00 0.00000E+00 0.00000E+00
 -1      7153 4.38289E-13 4.38289E-13 4.38289E-13 0.00000E+00 0.00000E+00 0.00000E+00
 -1      7154 4.64852E-13 4.64852E-13 4.64852E-13 0.00000E+00 0.00000E+00 0.00000E+00
 -1      7155 4.48914E-13 4.48914E-13 4.48914E-13 0.00000E+00 0.00000E+00 0.00000E+00
 -1      7156 4.64852E-13 4.64852E-13 4.64852E-13 0.00000E+00 0.00000E+00 0.00000E+00
 -1      7157 4.64852E-13 4.64852E-13 4.64852E-13 0.00000E+00 0.00000E+00 0.00000E+00
 -1      7158 4.38289E-13 4.38289E-13 4.38289E-13 0.00000E+00 0.00000E+00 0.00000E+00
 -1      7159 4.64852E-13 4.64852E-13 4.64852E-13 0.00000E+00 0.00000E+00 0.00000E+00
 -1      7160 4.38289E-13 4.38289E-13 4.38289E-13 0.00000E+00 0.00000E+00 0.00000E+00
 -1      7161 4.64852E-13 4.64852E-13 4.64852E-13 0.00000E+00 0.00000E+00 0.00000E+00
 -1      7162 4.64852E-13 4.64852E-13 4.64852E-13 0.00000E+00 0.00000E+00 0.00000E+00
 -1      7163 4.56883E-13 4.56883E-13 4.56883E-13 0.00000E+00 0.00000E+00 0.00000E+00
 -1      7164 4.38289E-13 4.38289E-13 4.38289E-13 0.00000E+00 0.00000E+00 0.00000E+00
 -1      7165 4.64852E-13 4.64852E-13 4.64852E-13 0.00000E+00 0.00000E+00 0.00000E+00
 -1      7166 4.38289E-13 4.38289E-13 4.38289E-13 0.00000E+00 0.00000E+00 0.00000E+00
 -1      7167 4.64852E-13 4.64852E-13 4.64852E-13 0.00000E+00 0.00000E+00 0.00000E+00
 -1      7168 4.38289E-13 4.38289E-13 4.38289E-13 0.00000E+00 0.00000E+00 0.00000E+00
 -1      7169 4.64852E-13 4.64852E-13 4.64852E-13 0.00000E+00 0.00000E+00 0.00000E+00
 -1      7170 4.64852E-13 4.64852E-13 4.64852E-13 0.00000E+00 0.00000E+00 0.00000E+00
 -1      7171 4.62195E-13 4.62195E-13 4.62195E-13 0.00000E+00 0.00000E+00 0.00000E+00
 -1      7172 4.56883E-13 4.56883E-13 4.56883E-13 0.00000E+00 0.00000E+00 0.00000E+00
 -1      7173 4.38289E-13 4.38289E-13 4.38289E-13 0.00000E+00 0.00000E+00 0.00000E+00
 -1      7174 4.64852E-13 4.64852E-13 4.64852E-13 0.00000E+00 0.00000E+00 0.00000E+00
 -1      7175 4.38289E-13 4.38289E-13 4.38289E-13 0.00000E+00 0.00000E+00 0.00000E+00
 -1      7176 4.55997E-13 4.55997E-13 4.55997E-13 0.00000E+00 0.00000E+00 0.00000E+00
 -1      7177 4.38289E-13 4.38289E-13 4.38289E-13 0.00000E+00 0.00000E+00 0.00000E+00
 -1      7178 4.38289E-13 4.38289E-13 4.38289E-13 0.00000E+00 0.00000E+00 0.00000E+00
 -1      7179 4.64852E-13 4.64852E-13 4.64852E-13 0.00000E+00 0.00000E+00 0.00000E+00
 -1      7180 4.64852E-13 4.64852E-13 4.64852E-13 0.00000E+00 0.00000E+00 0.00000E+00
 -1      7181 4.40502E-13 4.40502E-13 4.40502E-13 0.00000E+00 0.00000E+00 0.00000E+00
 -1      7182 4.64852E-13 4.64852E-13 4.64852E-13 0.00000E+00 0.00000E+00 0.00000E+00
 -1      7183 4.59539E-13 4.59539E-13 4.59539E-13 0.00000E+00 0.00000E+00 0.00000E+00
 -1      7184 4.38289E-13 4.38289E-13 4.38289E-13 0.00000E+00 0.00000E+00 0.00000E+00
 -1      7185 4.38289E-13 4.38289E-13 4.38289E-13 0.00000E+00 0.00000E+00 0.00000E+00
 -1      7186 4.62195E-13 4.62195E-13 4.62195E-13 0.00000E+00 0.00000E+00 0.00000E+00
 -1      7187 4.38289E-13 4.38289E-13 4.38289E-13 0.00000E+00 0.00000E+00 0.00000E+00
 -1      7188 4.38289E-13 4.38289E-13 4.38289E-13 0.00000E+00 0.00000E+00 0.00000E+00
 -1      7189 4.64852E-13 4.64852E-13 4.64852E-13 0.00000E+00 0.00000E+00 0.00000E+00
 -1      7190 4.64852E-13 4.64852E-13 4.64852E-13 0.00000E+00 0.00000E+00 0.00000E+00
 -1      7191 4.64852E-13 4.64852E-13 4.64852E-13 0.00000E+00 0.00000E+00 0.00000E+00
 -1      7192 4.64852E-13 4.64852E-13 4.64852E-13 0.00000E+00 0.00000E+00 0.00000E+00
 -1      7193 4.38289E-13 4.38289E-13 4.38289E-13 0.00000E+00 0.00000E+00 0.00000E+00
 -1      7194 4.64852E-13 4.64852E-13 4.64852E-13 0.00000E+00 0.00000E+00 0.00000E+00
 -1      7195 4.64852E-13 4.64852E-13 4.64852E-13 0.00000E+00 0.00000E+00 0.00000E+00
 -1      7196 4.56883E-13 4.56883E-13 4.56883E-13 0.00000E+00 0.00000E+00 0.00000E+00
 -1      7197 4.64852E-13 4.64852E-13 4.64852E-13 0.00000E+00 0.00000E+00 0.00000E+00
 -1      7198 4.38289E-13 4.38289E-13 4.38289E-13 0.00000E+00 0.00000E+00 0.00000E+00
 -1      7199 4.64852E-13 4.64852E-13 4.64852E-13 0.00000E+00 0.00000E+00 0.00000E+00
 -1      7200 4.38289E-13 4.38289E-13 4.38289E-13 0.00000E+00 0.00000E+00 0.00000E+00
 -1      7201 4.64852E-13 4.64852E-13 4.64852E-13 0.00000E+00 0.00000E+00 0.00000E+00
 -1      7202 4.62195E-13 4.62195E-13 4.62195E-13 0.00000E+00 0.00000E+00 0.00000E+00
 -1      7203 4.42716E-13 4.42716E-13 4.42716E-13 0.00000E+00 0.00000E+00 0.00000E+00
 -1      7204 4.64852E-13 4.64852E-13 4.64852E-13 0.00000E+00 0.00000E+00 0.00000E+00
 -1      7205 4.64852E-13 4.64852E-13 4.64852E-13 0.00000E+00 0.00000E+00 0.00000E+00
 -1      7206 4.38289E-13 4.38289E-13 4.38289E-13 0.00000E+00 0.00000E+00 0.00000E+00
 -1      7207 4.38289E-13 4.38289E-13 4.38289E-13 0.00000E+00 0.00000E+00 0.00000E+00
 -1      7208 4.38289E-13 4.38289E-13 4.38289E-13 0.00000E+00 0.00000E+00 0.00000E+00
 -1      7209 4.64852E-13 4.64852E-13 4.64852E-13 0.00000E+00 0.00000E+00 0.00000E+00
 -1      7210 4.64852E-13 4.64852E-13 4.64852E-13 0.00000E+00 0.00000E+00 0.00000E+00
 -1      7211 4.64852E-13 4.64852E-13 4.64852E-13 0.00000E+00 0.00000E+00 0.00000E+00
 -1      7212 4.46258E-13 4.46258E-13 4.46258E-13 0.00000E+00 0.00000E+00 0.00000E+00
 -1      7213 4.64852E-13 4.64852E-13 4.64852E-13 0.00000E+00 0.00000E+00 0.00000E+00
 -1      7214 4.40945E-13 4.40945E-13 4.40945E-13 0.00000E+00 0.00000E+00 0.00000E+00
 -1      7215 4.64852E-13 4.64852E-13 4.64852E-13 0.00000E+00 0.00000E+00 0.00000E+00
 -1      7216 4.43601E-13 4.43601E-13 4.43601E-13 0.00000E+00 0.00000E+00 0.00000E+00
 -1      7217 4.38289E-13 4.38289E-13 4.38289E-13 0.00000E+00 0.00000E+00 0.00000E+00
 -1      7218 4.62195E-13 4.62195E-13 4.62195E-13 0.00000E+00 0.00000E+00 0.00000E+00
 -1      7219 4.40945E-13 4.40945E-13 4.40945E-13 0.00000E+00 0.00000E+00 0.00000E+00
 -1      7220 4.64852E-13 4.64852E-13 4.64852E-13 0.00000E+00 0.00000E+00 0.00000E+00
 -1      7221 4.64852E-13 4.64852E-13 4.64852E-13 0.00000E+00 0.00000E+00 0.00000E+00
 -1      7222 4.38289E-13 4.38289E-13 4.38289E-13 0.00000E+00 0.00000E+00 0.00000E+00
 -1      7223 4.64852E-13 4.64852E-13 4.64852E-13 0.00000E+00 0.00000E+00 0.00000E+00
 -1      7224 4.46258E-13 4.46258E-13 4.46258E-13 0.00000E+00 0.00000E+00 0.00000E+00
 -1      7225 4.64852E-13 4.64852E-13 4.64852E-13 0.00000E+00 0.00000E+00 0.00000E+00
 -1      7226 4.64852E-13 4.64852E-13 4.64852E-13 0.00000E+00 0.00000E+00 0.00000E+00
 -1      7227 4.40945E-13 4.40945E-13 4.40945E-13 0.00000E+00 0.00000E+00 0.00000E+00
 -1      7228 4.62195E-13 4.62195E-13 4.62195E-13 0.00000E+00 0.00000E+00 0.00000E+00
 -1      7229 4.59539E-13 4.59539E-13 4.59539E-13 0.00000E+00 0.00000E+00 0.00000E+00
 -1      7230 4.64852E-13 4.64852E-13 4.64852E-13 0.00000E+00 0.00000E+00 0.00000E+00
 -1      7231 4.43601E-13 4.43601E-13 4.43601E-13 0.00000E+00 0.00000E+00 0.00000E+00
 -1      7232 4.38289E-13 4.38289E-13 4.38289E-13 0.00000E+00 0.00000E+00 0.00000E+00
 -1      7233 4.40945E-13 4.40945E-13 4.40945E-13 0.00000E+00 0.00000E+00 0.00000E+00
 -1      7234 4.64852E-13 4.64852E-13 4.64852E-13 0.00000E+00 0.00000E+00 0.00000E+00
 -1      7235 4.43601E-13 4.43601E-13 4.43601E-13 0.00000E+00 0.00000E+00 0.00000E+00
 -1      7236 4.64852E-13 4.64852E-13 4.64852E-13 0.00000E+00 0.00000E+00 0.00000E+00
 -1      7237 4.40945E-13 4.40945E-13 4.40945E-13 0.00000E+00 0.00000E+00 0.00000E+00
 -1      7238 4.64852E-13 4.64852E-13 4.64852E-13 0.00000E+00 0.00000E+00 0.00000E+00
 -1      7239 4.38289E-13 4.38289E-13 4.38289E-13 0.00000E+00 0.00000E+00 0.00000E+00
 -1      7240 4.64852E-13 4.64852E-13 4.64852E-13 0.00000E+00 0.00000E+00 0.00000E+00
 -1      7241 4.64852E-13 4.64852E-13 4.64852E-13 0.00000E+00 0.00000E+00 0.00000E+00
 -1      7242 4.38289E-13 4.38289E-13 4.38289E-13 0.00000E+00 0.00000E+00 0.00000E+00
 -1      7243 4.38289E-13 4.38289E-13 4.38289E-13 0.00000E+00 0.00000E+00 0.00000E+00
 -1      7244 4.49357E-13 4.49357E-13 4.49357E-13 0.00000E+00 0.00000E+00 0.00000E+00
 -1      7245 4.64852E-13 4.64852E-13 4.64852E-13 0.00000E+00 0.00000E+00 0.00000E+00
 -1      7246 5.02040E-13 5.02040E-13 5.02040E-13 0.00000E+00 0.00000E+00 0.00000E+00
 -1      7247 4.40945E-13 4.40945E-13 4.40945E-13 0.00000E+00 0.00000E+00 0.00000E+00
 -1      7248 4.64852E-13 4.64852E-13 4.64852E-13 0.00000E+00 0.00000E+00 0.00000E+00
 -1      7249 4.64852E-13 4.64852E-13 4.64852E-13 0.00000E+00 0.00000E+00 0.00000E+00
 -1      7250 4.38289E-13 4.38289E-13 4.38289E-13 0.00000E+00 0.00000E+00 0.00000E+00
 -1      7251 4.64852E-13 4.64852E-13 4.64852E-13 0.00000E+00 0.00000E+00 0.00000E+00
 -1      7252 4.64852E-13 4.64852E-13 4.64852E-13 0.00000E+00 0.00000E+00 0.00000E+00
 -1      7253 4.38289E-13 4.38289E-13 4.38289E-13 0.00000E+00 0.00000E+00 0.00000E+00
 -1      7254 4.38289E-13 4.38289E-13 4.38289E-13 0.00000E+00 0.00000E+00 0.00000E+00
 -1      7255 4.42716E-13 4.42716E-13 4.42716E-13 0.00000E+00 0.00000E+00 0.00000E+00
 -1      7256 4.64852E-13 4.64852E-13 4.64852E-13 0.00000E+00 0.00000E+00 0.00000E+00
 -1      7257 4.44929E-13 4.44929E-13 4.44929E-13 0.00000E+00 0.00000E+00 0.00000E+00
 -1      7258 4.46258E-13 4.46258E-13 4.46258E-13 0.00000E+00 0.00000E+00 0.00000E+00
 -1      7259 4.38289E-13 4.38289E-13 4.38289E-13 0.00000E+00 0.00000E+00 0.00000E+00
 -1      7260 4.64852E-13 4.64852E-13 4.64852E-13 0.00000E+00 0.00000E+00 0.00000E+00
 -1      7261 4.64852E-13 4.64852E-13 4.64852E-13 0.00000E+00 0.00000E+00 0.00000E+00
 -1      7262 4.43601E-13 4.43601E-13 4.43601E-13 0.00000E+00 0.00000E+00 0.00000E+00
 -1      7263 4.64852E-13 4.64852E-13 4.64852E-13 0.00000E+00 0.00000E+00 0.00000E+00
 -1      7264 4.43601E-13 4.43601E-13 4.43601E-13 0.00000E+00 0.00000E+00 0.00000E+00
 -1      7265 4.38289E-13 4.38289E-13 4.38289E-13 0.00000E+00 0.00000E+00 0.00000E+00
 -1      7266 4.64852E-13 4.64852E-13 4.64852E-13 0.00000E+00 0.00000E+00 0.00000E+00
 -1      7267 4.64852E-13 4.64852E-13 4.64852E-13 0.00000E+00 0.00000E+00 0.00000E+00
 -1      7268 4.46258E-13 4.46258E-13 4.46258E-13 0.00000E+00 0.00000E+00 0.00000E+00
 -1      7269 4.64852E-13 4.64852E-13 4.64852E-13 0.00000E+00 0.00000E+00 0.00000E+00
 -1      7270 4.38289E-13 4.38289E-13 4.38289E-13 0.00000E+00 0.00000E+00 0.00000E+00
 -1      7271 4.64852E-13 4.64852E-13 4.64852E-13 0.00000E+00 0.00000E+00 0.00000E+00
 -1      7272 4.59539E-13 4.59539E-13 4.59539E-13 0.00000E+00 0.00000E+00 0.00000E+00
 -1      7273 4.56883E-13 4.56883E-13 4.56883E-13 0.00000E+00 0.00000E+00 0.00000E+00
 -1      7274 4.40945E-13 4.40945E-13 4.40945E-13 0.00000E+00 0.00000E+00 0.00000E+00
 -1      7275 4.40945E-13 4.40945E-13 4.40945E-13 0.00000E+00 0.00000E+00 0.00000E+00
 -1      7276 4.64852E-13 4.64852E-13 4.64852E-13 0.00000E+00 0.00000E+00 0.00000E+00
 -1      7277 4.38289E-13 4.38289E-13 4.38289E-13 0.00000E+00 0.00000E+00 0.00000E+00
 -1      7278 4.64852E-13 4.64852E-13 4.64852E-13 0.00000E+00 0.00000E+00 0.00000E+00
 -1      7279 4.38289E-13 4.38289E-13 4.38289E-13 0.00000E+00 0.00000E+00 0.00000E+00
 -1      7280 4.38289E-13 4.38289E-13 4.38289E-13 0.00000E+00 0.00000E+00 0.00000E+00
 -1      7281 4.64852E-13 4.64852E-13 4.64852E-13 0.00000E+00 0.00000E+00 0.00000E+00
 -1      7282 4.64852E-13 4.64852E-13 4.64852E-13 0.00000E+00 0.00000E+00 0.00000E+00
 -1      7283 4.64852E-13 4.64852E-13 4.64852E-13 0.00000E+00 0.00000E+00 0.00000E+00
 -1      7284 4.64852E-13 4.64852E-13 4.64852E-13 0.00000E+00 0.00000E+00 0.00000E+00
 -1      7285 4.64852E-13 4.64852E-13 4.64852E-13 0.00000E+00 0.00000E+00 0.00000E+00
 -1      7286 4.38289E-13 4.38289E-13 4.38289E-13 0.00000E+00 0.00000E+00 0.00000E+00
 -1      7287 4.38289E-13 4.38289E-13 4.38289E-13 0.00000E+00 0.00000E+00 0.00000E+00
 -1      7288 4.64852E-13 4.64852E-13 4.64852E-13 0.00000E+00 0.00000E+00 0.00000E+00
 -1      7289 4.64852E-13 4.64852E-13 4.64852E-13 0.00000E+00 0.00000E+00 0.00000E+00
 -1      7290 4.38289E-13 4.38289E-13 4.38289E-13 0.00000E+00 0.00000E+00 0.00000E+00
 -1      7291 4.64852E-13 4.64852E-13 4.64852E-13 0.00000E+00 0.00000E+00 0.00000E+00
 -1      7292 4.40502E-13 4.40502E-13 4.40502E-13 0.00000E+00 0.00000E+00 0.00000E+00
 -1      7293 4.62195E-13 4.62195E-13 4.62195E-13 0.00000E+00 0.00000E+00 0.00000E+00
 -1      7294 4.64852E-13 4.64852E-13 4.64852E-13 0.00000E+00 0.00000E+00 0.00000E+00
 -1      7295 4.38289E-13 4.38289E-13 4.38289E-13 0.00000E+00 0.00000E+00 0.00000E+00
 -1      7296 4.62195E-13 4.62195E-13 4.62195E-13 0.00000E+00 0.00000E+00 0.00000E+00
 -1      7297 4.40945E-13 4.40945E-13 4.40945E-13 0.00000E+00 0.00000E+00 0.00000E+00
 -1      7298 4.64852E-13 4.64852E-13 4.64852E-13 0.00000E+00 0.00000E+00 0.00000E+00
 -1      7299 4.64852E-13 4.64852E-13 4.64852E-13 0.00000E+00 0.00000E+00 0.00000E+00
 -1      7300 4.64852E-13 4.64852E-13 4.64852E-13 0.00000E+00 0.00000E+00 0.00000E+00
 -1      7301 4.38289E-13 4.38289E-13 4.38289E-13 0.00000E+00 0.00000E+00 0.00000E+00
 -1      7302 4.40945E-13 4.40945E-13 4.40945E-13 0.00000E+00 0.00000E+00 0.00000E+00
 -1      7303 4.64852E-13 4.64852E-13 4.64852E-13 0.00000E+00 0.00000E+00 0.00000E+00
 -1      7304 4.64852E-13 4.64852E-13 4.64852E-13 0.00000E+00 0.00000E+00 0.00000E+00
 -1      7305 4.38289E-13 4.38289E-13 4.38289E-13 0.00000E+00 0.00000E+00 0.00000E+00
 -1      7306 4.38289E-13 4.38289E-13 4.38289E-13 0.00000E+00 0.00000E+00 0.00000E+00
 -1      7307 4.38289E-13 4.38289E-13 4.38289E-13 0.00000E+00 0.00000E+00 0.00000E+00
 -1      7308 4.64852E-13 4.64852E-13 4.64852E-13 0.00000E+00 0.00000E+00 0.00000E+00
 -1      7309 4.38289E-13 4.38289E-13 4.38289E-13 0.00000E+00 0.00000E+00 0.00000E+00
 -1      7310 4.53784E-13 4.53784E-13 4.53784E-13 0.00000E+00 0.00000E+00 0.00000E+00
 -1      7311 4.38289E-13 4.38289E-13 4.38289E-13 0.00000E+00 0.00000E+00 0.00000E+00
 -1      7312 4.38289E-13 4.38289E-13 4.38289E-13 0.00000E+00 0.00000E+00 0.00000E+00
 -1      7313 4.64852E-13 4.64852E-13 4.64852E-13 0.00000E+00 0.00000E+00 0.00000E+00
 -1      7314 4.40945E-13 4.40945E-13 4.40945E-13 0.00000E+00 0.00000E+00 0.00000E+00
 -1      7315 4.64852E-13 4.64852E-13 4.64852E-13 0.00000E+00 0.00000E+00 0.00000E+00
 -1      7316 4.64852E-13 4.64852E-13 4.64852E-13 0.00000E+00 0.00000E+00 0.00000E+00
 -1      7317 4.38289E-13 4.38289E-13 4.38289E-13 0.00000E+00 0.00000E+00 0.00000E+00
 -1      7318 4.64852E-13 4.64852E-13 4.64852E-13 0.00000E+00 0.00000E+00 0.00000E+00
 -1      7319 4.38289E-13 4.38289E-13 4.38289E-13 0.00000E+00 0.00000E+00 0.00000E+00
 -1      7320 4.64852E-13 4.64852E-13 4.64852E-13 0.00000E+00 0.00000E+00 0.00000E+00
 -1      7321 4.40945E-13 4.40945E-13 4.40945E-13 0.00000E+00 0.00000E+00 0.00000E+00
 -1      7322 4.42716E-13 4.42716E-13 4.42716E-13 0.00000E+00 0.00000E+00 0.00000E+00
 -1      7323 4.38289E-13 4.38289E-13 4.38289E-13 0.00000E+00 0.00000E+00 0.00000E+00
 -1      7324 4.64852E-13 4.64852E-13 4.64852E-13 0.00000E+00 0.00000E+00 0.00000E+00
 -1      7325 4.64852E-13 4.64852E-13 4.64852E-13 0.00000E+00 0.00000E+00 0.00000E+00
 -1      7326 4.64852E-13 4.64852E-13 4.64852E-13 0.00000E+00 0.00000E+00 0.00000E+00
 -1      7327 4.40945E-13 4.40945E-13 4.40945E-13 0.00000E+00 0.00000E+00 0.00000E+00
 -1      7328 4.43601E-13 4.43601E-13 4.43601E-13 0.00000E+00 0.00000E+00 0.00000E+00
 -1      7329 4.38289E-13 4.38289E-13 4.38289E-13 0.00000E+00 0.00000E+00 0.00000E+00
 -1      7330 4.38289E-13 4.38289E-13 4.38289E-13 0.00000E+00 0.00000E+00 0.00000E+00
 -1      7331 4.43601E-13 4.43601E-13 4.43601E-13 0.00000E+00 0.00000E+00 0.00000E+00
 -1      7332 4.64852E-13 4.64852E-13 4.64852E-13 0.00000E+00 0.00000E+00 0.00000E+00
 -1      7333 4.38289E-13 4.38289E-13 4.38289E-13 0.00000E+00 0.00000E+00 0.00000E+00
 -1      7334 4.64852E-13 4.64852E-13 4.64852E-13 0.00000E+00 0.00000E+00 0.00000E+00
 -1      7335 4.64852E-13 4.64852E-13 4.64852E-13 0.00000E+00 0.00000E+00 0.00000E+00
 -1      7336 4.64852E-13 4.64852E-13 4.64852E-13 0.00000E+00 0.00000E+00 0.00000E+00
 -1      7337 4.64852E-13 4.64852E-13 4.64852E-13 0.00000E+00 0.00000E+00 0.00000E+00
 -1      7338 4.64852E-13 4.64852E-13 4.64852E-13 0.00000E+00 0.00000E+00 0.00000E+00
 -1      7339 4.38289E-13 4.38289E-13 4.38289E-13 0.00000E+00 0.00000E+00 0.00000E+00
 -1      7340 4.38289E-13 4.38289E-13 4.38289E-13 0.00000E+00 0.00000E+00 0.00000E+00
 -1      7341 4.64852E-13 4.64852E-13 4.64852E-13 0.00000E+00 0.00000E+00 0.00000E+00
 -1      7342 4.38289E-13 4.38289E-13 4.38289E-13 0.00000E+00 0.00000E+00 0.00000E+00
 -1      7343 4.43601E-13 4.43601E-13 4.43601E-13 0.00000E+00 0.00000E+00 0.00000E+00
 -1      7344 4.64852E-13 4.64852E-13 4.64852E-13 0.00000E+00 0.00000E+00 0.00000E+00
 -1      7345 4.64852E-13 4.64852E-13 4.64852E-13 0.00000E+00 0.00000E+00 0.00000E+00
 -1      7346 4.64852E-13 4.64852E-13 4.64852E-13 0.00000E+00 0.00000E+00 0.00000E+00
 -1      7347 4.64852E-13 4.64852E-13 4.64852E-13 0.00000E+00 0.00000E+00 0.00000E+00
 -1      7348 4.62638E-13 4.62638E-13 4.62638E-13 0.00000E+00 0.00000E+00 0.00000E+00
 -1      7349 4.64852E-13 4.64852E-13 4.64852E-13 0.00000E+00 0.00000E+00 0.00000E+00
 -1      7350 4.64852E-13 4.64852E-13 4.64852E-13 0.00000E+00 0.00000E+00 0.00000E+00
 -1      7351 4.38289E-13 4.38289E-13 4.38289E-13 0.00000E+00 0.00000E+00 0.00000E+00
 -1      7352 4.64852E-13 4.64852E-13 4.64852E-13 0.00000E+00 0.00000E+00 0.00000E+00
 -1      7353 4.38289E-13 4.38289E-13 4.38289E-13 0.00000E+00 0.00000E+00 0.00000E+00
 -1      7354 4.64852E-13 4.64852E-13 4.64852E-13 0.00000E+00 0.00000E+00 0.00000E+00
 -1      7355 4.64852E-13 4.64852E-13 4.64852E-13 0.00000E+00 0.00000E+00 0.00000E+00
 -1      7356 4.64852E-13 4.64852E-13 4.64852E-13 0.00000E+00 0.00000E+00 0.00000E+00
 -1      7357 4.64852E-13 4.64852E-13 4.64852E-13 0.00000E+00 0.00000E+00 0.00000E+00
 -1      7358 4.64852E-13 4.64852E-13 4.64852E-13 0.00000E+00 0.00000E+00 0.00000E+00
 -1      7359 4.64852E-13 4.64852E-13 4.64852E-13 0.00000E+00 0.00000E+00 0.00000E+00
 -1      7360 4.40945E-13 4.40945E-13 4.40945E-13 0.00000E+00 0.00000E+00 0.00000E+00
 -1      7361 4.64852E-13 4.64852E-13 4.64852E-13 0.00000E+00 0.00000E+00 0.00000E+00
 -1      7362 4.48914E-13 4.48914E-13 4.48914E-13 0.00000E+00 0.00000E+00 0.00000E+00
 -1      7363 4.64852E-13 4.64852E-13 4.64852E-13 0.00000E+00 0.00000E+00 0.00000E+00
 -1      7364 4.38289E-13 4.38289E-13 4.38289E-13 0.00000E+00 0.00000E+00 0.00000E+00
 -1      7365 4.47143E-13 4.47143E-13 4.47143E-13 0.00000E+00 0.00000E+00 0.00000E+00
 -1      7366 4.64852E-13 4.64852E-13 4.64852E-13 0.00000E+00 0.00000E+00 0.00000E+00
 -1      7367 4.38289E-13 4.38289E-13 4.38289E-13 0.00000E+00 0.00000E+00 0.00000E+00
 -1      7368 4.64852E-13 4.64852E-13 4.64852E-13 0.00000E+00 0.00000E+00 0.00000E+00
 -1      7369 4.38289E-13 4.38289E-13 4.38289E-13 0.00000E+00 0.00000E+00 0.00000E+00
 -1      7370 4.64852E-13 4.64852E-13 4.64852E-13 0.00000E+00 0.00000E+00 0.00000E+00
 -1      7371 4.64852E-13 4.64852E-13 4.64852E-13 0.00000E+00 0.00000E+00 0.00000E+00
 -1      7372 4.46258E-13 4.46258E-13 4.46258E-13 0.00000E+00 0.00000E+00 0.00000E+00
 -1      7373 4.64852E-13 4.64852E-13 4.64852E-13 0.00000E+00 0.00000E+00 0.00000E+00
 -1      7374 4.64852E-13 4.64852E-13 4.64852E-13 0.00000E+00 0.00000E+00 0.00000E+00
 -1      7375 4.64852E-13 4.64852E-13 4.64852E-13 0.00000E+00 0.00000E+00 0.00000E+00
 -1      7376 4.64852E-13 4.64852E-13 4.64852E-13 0.00000E+00 0.00000E+00 0.00000E+00
 -1      7377 4.38289E-13 4.38289E-13 4.38289E-13 0.00000E+00 0.00000E+00 0.00000E+00
 -1      7378 4.38289E-13 4.38289E-13 4.38289E-13 0.00000E+00 0.00000E+00 0.00000E+00
 -1      7379 4.48914E-13 4.48914E-13 4.48914E-13 0.00000E+00 0.00000E+00 0.00000E+00
 -1      7380 4.62195E-13 4.62195E-13 4.62195E-13 0.00000E+00 0.00000E+00 0.00000E+00
 -1      7381 4.70164E-13 4.70164E-13 4.70164E-13 0.00000E+00 0.00000E+00 0.00000E+00
 -1      7382 4.64852E-13 4.64852E-13 4.64852E-13 0.00000E+00 0.00000E+00 0.00000E+00
 -1      7383 4.64852E-13 4.64852E-13 4.64852E-13 0.00000E+00 0.00000E+00 0.00000E+00
 -1      7384 4.64852E-13 4.64852E-13 4.64852E-13 0.00000E+00 0.00000E+00 0.00000E+00
 -1      7385 4.64852E-13 4.64852E-13 4.64852E-13 0.00000E+00 0.00000E+00 0.00000E+00
 -1      7386 4.38289E-13 4.38289E-13 4.38289E-13 0.00000E+00 0.00000E+00 0.00000E+00
 -1      7387 4.40945E-13 4.40945E-13 4.40945E-13 0.00000E+00 0.00000E+00 0.00000E+00
 -1      7388 4.38289E-13 4.38289E-13 4.38289E-13 0.00000E+00 0.00000E+00 0.00000E+00
 -1      7389 4.64852E-13 4.64852E-13 4.64852E-13 0.00000E+00 0.00000E+00 0.00000E+00
 -1      7390 4.62638E-13 4.62638E-13 4.62638E-13 0.00000E+00 0.00000E+00 0.00000E+00
 -1      7391 4.64852E-13 4.64852E-13 4.64852E-13 0.00000E+00 0.00000E+00 0.00000E+00
 -1      7392 4.64852E-13 4.64852E-13 4.64852E-13 0.00000E+00 0.00000E+00 0.00000E+00
 -1      7393 4.64852E-13 4.64852E-13 4.64852E-13 0.00000E+00 0.00000E+00 0.00000E+00
 -1      7394 4.38289E-13 4.38289E-13 4.38289E-13 0.00000E+00 0.00000E+00 0.00000E+00
 -1      7395 4.64852E-13 4.64852E-13 4.64852E-13 0.00000E+00 0.00000E+00 0.00000E+00
 -1      7396 4.38289E-13 4.38289E-13 4.38289E-13 0.00000E+00 0.00000E+00 0.00000E+00
 -1      7397 4.64852E-13 4.64852E-13 4.64852E-13 0.00000E+00 0.00000E+00 0.00000E+00
 -1      7398 4.38289E-13 4.38289E-13 4.38289E-13 0.00000E+00 0.00000E+00 0.00000E+00
 -1      7399 4.59539E-13 4.59539E-13 4.59539E-13 0.00000E+00 0.00000E+00 0.00000E+00
 -1      7400 4.64852E-13 4.64852E-13 4.64852E-13 0.00000E+00 0.00000E+00 0.00000E+00
 -1      7401 4.38289E-13 4.38289E-13 4.38289E-13 0.00000E+00 0.00000E+00 0.00000E+00
 -1      7402 4.46258E-13 4.46258E-13 4.46258E-13 0.00000E+00 0.00000E+00 0.00000E+00
 -1      7403 4.38289E-13 4.38289E-13 4.38289E-13 0.00000E+00 0.00000E+00 0.00000E+00
 -1      7404 4.64852E-13 4.64852E-13 4.64852E-13 0.00000E+00 0.00000E+00 0.00000E+00
 -1      7405 4.38289E-13 4.38289E-13 4.38289E-13 0.00000E+00 0.00000E+00 0.00000E+00
 -1      7406 4.38289E-13 4.38289E-13 4.38289E-13 0.00000E+00 0.00000E+00 0.00000E+00
 -1      7407 4.64852E-13 4.64852E-13 4.64852E-13 0.00000E+00 0.00000E+00 0.00000E+00
 -1      7408 4.64852E-13 4.64852E-13 4.64852E-13 0.00000E+00 0.00000E+00 0.00000E+00
 -1      7409 4.38289E-13 4.38289E-13 4.38289E-13 0.00000E+00 0.00000E+00 0.00000E+00
 -1      7410 4.64852E-13 4.64852E-13 4.64852E-13 0.00000E+00 0.00000E+00 0.00000E+00
 -1      7411 4.62638E-13 4.62638E-13 4.62638E-13 0.00000E+00 0.00000E+00 0.00000E+00
 -1      7412 4.38289E-13 4.38289E-13 4.38289E-13 0.00000E+00 0.00000E+00 0.00000E+00
 -1      7413 4.38289E-13 4.38289E-13 4.38289E-13 0.00000E+00 0.00000E+00 0.00000E+00
 -1      7414 4.46258E-13 4.46258E-13 4.46258E-13 0.00000E+00 0.00000E+00 0.00000E+00
 -1      7415 4.38289E-13 4.38289E-13 4.38289E-13 0.00000E+00 0.00000E+00 0.00000E+00
 -1      7416 4.64852E-13 4.64852E-13 4.64852E-13 0.00000E+00 0.00000E+00 0.00000E+00
 -1      7417 4.38289E-13 4.38289E-13 4.38289E-13 0.00000E+00 0.00000E+00 0.00000E+00
 -1      7418 4.38289E-13 4.38289E-13 4.38289E-13 0.00000E+00 0.00000E+00 0.00000E+00
 -1      7419 4.64852E-13 4.64852E-13 4.64852E-13 0.00000E+00 0.00000E+00 0.00000E+00
 -1      7420 4.40945E-13 4.40945E-13 4.40945E-13 0.00000E+00 0.00000E+00 0.00000E+00
 -1      7421 4.38289E-13 4.38289E-13 4.38289E-13 0.00000E+00 0.00000E+00 0.00000E+00
 -1      7422 4.40502E-13 4.40502E-13 4.40502E-13 0.00000E+00 0.00000E+00 0.00000E+00
 -1      7423 4.40945E-13 4.40945E-13 4.40945E-13 0.00000E+00 0.00000E+00 0.00000E+00
 -1      7424 4.38289E-13 4.38289E-13 4.38289E-13 0.00000E+00 0.00000E+00 0.00000E+00
 -1      7425 4.62195E-13 4.62195E-13 4.62195E-13 0.00000E+00 0.00000E+00 0.00000E+00
 -1      7426 4.38289E-13 4.38289E-13 4.38289E-13 0.00000E+00 0.00000E+00 0.00000E+00
 -1      7427 4.64852E-13 4.64852E-13 4.64852E-13 0.00000E+00 0.00000E+00 0.00000E+00
 -1      7428 4.38289E-13 4.38289E-13 4.38289E-13 0.00000E+00 0.00000E+00 0.00000E+00
 -1      7429 4.64852E-13 4.64852E-13 4.64852E-13 0.00000E+00 0.00000E+00 0.00000E+00
 -1      7430 4.64852E-13 4.64852E-13 4.64852E-13 0.00000E+00 0.00000E+00 0.00000E+00
 -1      7431 4.64852E-13 4.64852E-13 4.64852E-13 0.00000E+00 0.00000E+00 0.00000E+00
 -1      7432 4.42716E-13 4.42716E-13 4.42716E-13 0.00000E+00 0.00000E+00 0.00000E+00
 -1      7433 4.38289E-13 4.38289E-13 4.38289E-13 0.00000E+00 0.00000E+00 0.00000E+00
 -1      7434 4.51570E-13 4.51570E-13 4.51570E-13 0.00000E+00 0.00000E+00 0.00000E+00
 -1      7435 4.38289E-13 4.38289E-13 4.38289E-13 0.00000E+00 0.00000E+00 0.00000E+00
 -1      7436 4.40945E-13 4.40945E-13 4.40945E-13 0.00000E+00 0.00000E+00 0.00000E+00
 -1      7437 4.64852E-13 4.64852E-13 4.64852E-13 0.00000E+00 0.00000E+00 0.00000E+00
 -1      7438 4.56883E-13 4.56883E-13 4.56883E-13 0.00000E+00 0.00000E+00 0.00000E+00
 -1      7439 4.38289E-13 4.38289E-13 4.38289E-13 0.00000E+00 0.00000E+00 0.00000E+00
 -1      7440 4.40945E-13 4.40945E-13 4.40945E-13 0.00000E+00 0.00000E+00 0.00000E+00
 -1      7441 4.46258E-13 4.46258E-13 4.46258E-13 0.00000E+00 0.00000E+00 0.00000E+00
 -1      7442 4.64852E-13 4.64852E-13 4.64852E-13 0.00000E+00 0.00000E+00 0.00000E+00
 -1      7443 4.64852E-13 4.64852E-13 4.64852E-13 0.00000E+00 0.00000E+00 0.00000E+00
 -1      7444 4.38289E-13 4.38289E-13 4.38289E-13 0.00000E+00 0.00000E+00 0.00000E+00
 -1      7445 4.61531E-13 4.61531E-13 4.61531E-13 0.00000E+00 0.00000E+00 0.00000E+00
 -1      7446 4.64852E-13 4.64852E-13 4.64852E-13 0.00000E+00 0.00000E+00 0.00000E+00
 -1      7447 4.38289E-13 4.38289E-13 4.38289E-13 0.00000E+00 0.00000E+00 0.00000E+00
 -1      7448 4.38289E-13 4.38289E-13 4.38289E-13 0.00000E+00 0.00000E+00 0.00000E+00
 -1      7449 4.38289E-13 4.38289E-13 4.38289E-13 0.00000E+00 0.00000E+00 0.00000E+00
 -1      7450 4.64852E-13 4.64852E-13 4.64852E-13 0.00000E+00 0.00000E+00 0.00000E+00
 -1      7451 4.38289E-13 4.38289E-13 4.38289E-13 0.00000E+00 0.00000E+00 0.00000E+00
 -1      7452 4.38289E-13 4.38289E-13 4.38289E-13 0.00000E+00 0.00000E+00 0.00000E+00
 -1      7453 4.64852E-13 4.64852E-13 4.64852E-13 0.00000E+00 0.00000E+00 0.00000E+00
 -1      7454 4.38289E-13 4.38289E-13 4.38289E-13 0.00000E+00 0.00000E+00 0.00000E+00
 -1      7455 4.64852E-13 4.64852E-13 4.64852E-13 0.00000E+00 0.00000E+00 0.00000E+00
 -1      7456 4.64852E-13 4.64852E-13 4.64852E-13 0.00000E+00 0.00000E+00 0.00000E+00
 -1      7457 4.38289E-13 4.38289E-13 4.38289E-13 0.00000E+00 0.00000E+00 0.00000E+00
 -1      7458 4.64852E-13 4.64852E-13 4.64852E-13 0.00000E+00 0.00000E+00 0.00000E+00
 -1      7459 4.64852E-13 4.64852E-13 4.64852E-13 0.00000E+00 0.00000E+00 0.00000E+00
 -1      7460 4.59539E-13 4.59539E-13 4.59539E-13 0.00000E+00 0.00000E+00 0.00000E+00
 -1      7461 4.38289E-13 4.38289E-13 4.38289E-13 0.00000E+00 0.00000E+00 0.00000E+00
 -1      7462 4.64852E-13 4.64852E-13 4.64852E-13 0.00000E+00 0.00000E+00 0.00000E+00
 -1      7463 4.64852E-13 4.64852E-13 4.64852E-13 0.00000E+00 0.00000E+00 0.00000E+00
 -1      7464 4.38289E-13 4.38289E-13 4.38289E-13 0.00000E+00 0.00000E+00 0.00000E+00
 -1      7465 4.38289E-13 4.38289E-13 4.38289E-13 0.00000E+00 0.00000E+00 0.00000E+00
 -1      7466 4.38289E-13 4.38289E-13 4.38289E-13 0.00000E+00 0.00000E+00 0.00000E+00
 -1      7467 4.64852E-13 4.64852E-13 4.64852E-13 0.00000E+00 0.00000E+00 0.00000E+00
 -1      7468 4.64852E-13 4.64852E-13 4.64852E-13 0.00000E+00 0.00000E+00 0.00000E+00
 -1      7469 4.64852E-13 4.64852E-13 4.64852E-13 0.00000E+00 0.00000E+00 0.00000E+00
 -1      7470 4.64852E-13 4.64852E-13 4.64852E-13 0.00000E+00 0.00000E+00 0.00000E+00
 -1      7471 4.41609E-13 4.41609E-13 4.41609E-13 0.00000E+00 0.00000E+00 0.00000E+00
 -1      7472 4.62195E-13 4.62195E-13 4.62195E-13 0.00000E+00 0.00000E+00 0.00000E+00
 -1      7473 4.64852E-13 4.64852E-13 4.64852E-13 0.00000E+00 0.00000E+00 0.00000E+00
 -1      7474 4.38289E-13 4.38289E-13 4.38289E-13 0.00000E+00 0.00000E+00 0.00000E+00
 -1      7475 4.64852E-13 4.64852E-13 4.64852E-13 0.00000E+00 0.00000E+00 0.00000E+00
 -1      7476 4.44929E-13 4.44929E-13 4.44929E-13 0.00000E+00 0.00000E+00 0.00000E+00
 -1      7477 4.40945E-13 4.40945E-13 4.40945E-13 0.00000E+00 0.00000E+00 0.00000E+00
 -1      7478 4.42716E-13 4.42716E-13 4.42716E-13 0.00000E+00 0.00000E+00 0.00000E+00
 -1      7479 4.38289E-13 4.38289E-13 4.38289E-13 0.00000E+00 0.00000E+00 0.00000E+00
 -1      7480 4.64852E-13 4.64852E-13 4.64852E-13 0.00000E+00 0.00000E+00 0.00000E+00
 -1      7481 4.64852E-13 4.64852E-13 4.64852E-13 0.00000E+00 0.00000E+00 0.00000E+00
 -1      7482 4.64852E-13 4.64852E-13 4.64852E-13 0.00000E+00 0.00000E+00 0.00000E+00
 -1      7483 4.64852E-13 4.64852E-13 4.64852E-13 0.00000E+00 0.00000E+00 0.00000E+00
 -1      7484 4.64852E-13 4.64852E-13 4.64852E-13 0.00000E+00 0.00000E+00 0.00000E+00
 -1      7485 4.59539E-13 4.59539E-13 4.59539E-13 0.00000E+00 0.00000E+00 0.00000E+00
 -1      7486 4.64852E-13 4.64852E-13 4.64852E-13 0.00000E+00 0.00000E+00 0.00000E+00
 -1      7487 4.43601E-13 4.43601E-13 4.43601E-13 0.00000E+00 0.00000E+00 0.00000E+00
 -1      7488 4.56883E-13 4.56883E-13 4.56883E-13 0.00000E+00 0.00000E+00 0.00000E+00
 -1      7489 4.64852E-13 4.64852E-13 4.64852E-13 0.00000E+00 0.00000E+00 0.00000E+00
 -1      7490 4.38289E-13 4.38289E-13 4.38289E-13 0.00000E+00 0.00000E+00 0.00000E+00
 -1      7491 4.40945E-13 4.40945E-13 4.40945E-13 0.00000E+00 0.00000E+00 0.00000E+00
 -1      7492 4.62195E-13 4.62195E-13 4.62195E-13 0.00000E+00 0.00000E+00 0.00000E+00
 -1      7493 4.64852E-13 4.64852E-13 4.64852E-13 0.00000E+00 0.00000E+00 0.00000E+00
 -1      7494 4.40945E-13 4.40945E-13 4.40945E-13 0.00000E+00 0.00000E+00 0.00000E+00
 -1      7495 4.38289E-13 4.38289E-13 4.38289E-13 0.00000E+00 0.00000E+00 0.00000E+00
 -1      7496 4.64852E-13 4.64852E-13 4.64852E-13 0.00000E+00 0.00000E+00 0.00000E+00
 -1      7497 4.38289E-13 4.38289E-13 4.38289E-13 0.00000E+00 0.00000E+00 0.00000E+00
 -1      7498 4.64852E-13 4.64852E-13 4.64852E-13 0.00000E+00 0.00000E+00 0.00000E+00
 -1      7499 4.64852E-13 4.64852E-13 4.64852E-13 0.00000E+00 0.00000E+00 0.00000E+00
 -1      7500 4.56883E-13 4.56883E-13 4.56883E-13 0.00000E+00 0.00000E+00 0.00000E+00
 -1      7501 4.64852E-13 4.64852E-13 4.64852E-13 0.00000E+00 0.00000E+00 0.00000E+00
 -1      7502 4.40945E-13 4.40945E-13 4.40945E-13 0.00000E+00 0.00000E+00 0.00000E+00
 -1      7503 4.38289E-13 4.38289E-13 4.38289E-13 0.00000E+00 0.00000E+00 0.00000E+00
 -1      7504 4.64852E-13 4.64852E-13 4.64852E-13 0.00000E+00 0.00000E+00 0.00000E+00
 -1      7505 4.64852E-13 4.64852E-13 4.64852E-13 0.00000E+00 0.00000E+00 0.00000E+00
 -1      7506 4.48914E-13 4.48914E-13 4.48914E-13 0.00000E+00 0.00000E+00 0.00000E+00
 -1      7507 4.40945E-13 4.40945E-13 4.40945E-13 0.00000E+00 0.00000E+00 0.00000E+00
 -1      7508 4.64852E-13 4.64852E-13 4.64852E-13 0.00000E+00 0.00000E+00 0.00000E+00
 -1      7509 4.64852E-13 4.64852E-13 4.64852E-13 0.00000E+00 0.00000E+00 0.00000E+00
 -1      7510 4.40945E-13 4.40945E-13 4.40945E-13 0.00000E+00 0.00000E+00 0.00000E+00
 -1      7511 4.64852E-13 4.64852E-13 4.64852E-13 0.00000E+00 0.00000E+00 0.00000E+00
 -1      7512 4.64852E-13 4.64852E-13 4.64852E-13 0.00000E+00 0.00000E+00 0.00000E+00
 -1      7513 4.38289E-13 4.38289E-13 4.38289E-13 0.00000E+00 0.00000E+00 0.00000E+00
 -1      7514 4.64852E-13 4.64852E-13 4.64852E-13 0.00000E+00 0.00000E+00 0.00000E+00
 -1      7515 4.64852E-13 4.64852E-13 4.64852E-13 0.00000E+00 0.00000E+00 0.00000E+00
 -1      7516 4.38289E-13 4.38289E-13 4.38289E-13 0.00000E+00 0.00000E+00 0.00000E+00
 -1      7517 4.64852E-13 4.64852E-13 4.64852E-13 0.00000E+00 0.00000E+00 0.00000E+00
 -1      7518 4.64852E-13 4.64852E-13 4.64852E-13 0.00000E+00 0.00000E+00 0.00000E+00
 -1      7519 4.64852E-13 4.64852E-13 4.64852E-13 0.00000E+00 0.00000E+00 0.00000E+00
 -1      7520 4.38289E-13 4.38289E-13 4.38289E-13 0.00000E+00 0.00000E+00 0.00000E+00
 -1      7521 4.64852E-13 4.64852E-13 4.64852E-13 0.00000E+00 0.00000E+00 0.00000E+00
 -1      7522 4.64852E-13 4.64852E-13 4.64852E-13 0.00000E+00 0.00000E+00 0.00000E+00
 -1      7523 4.64852E-13 4.64852E-13 4.64852E-13 0.00000E+00 0.00000E+00 0.00000E+00
 -1      7524 4.64852E-13 4.64852E-13 4.64852E-13 0.00000E+00 0.00000E+00 0.00000E+00
 -1      7525 4.38289E-13 4.38289E-13 4.38289E-13 0.00000E+00 0.00000E+00 0.00000E+00
 -1      7526 4.64852E-13 4.64852E-13 4.64852E-13 0.00000E+00 0.00000E+00 0.00000E+00
 -1      7527 4.64852E-13 4.64852E-13 4.64852E-13 0.00000E+00 0.00000E+00 0.00000E+00
 -1      7528 4.43601E-13 4.43601E-13 4.43601E-13 0.00000E+00 0.00000E+00 0.00000E+00
 -1      7529 4.64852E-13 4.64852E-13 4.64852E-13 0.00000E+00 0.00000E+00 0.00000E+00
 -1      7530 4.38289E-13 4.38289E-13 4.38289E-13 0.00000E+00 0.00000E+00 0.00000E+00
 -1      7531 4.64852E-13 4.64852E-13 4.64852E-13 0.00000E+00 0.00000E+00 0.00000E+00
 -1      7532 4.64852E-13 4.64852E-13 4.64852E-13 0.00000E+00 0.00000E+00 0.00000E+00
 -3
    1PSTEP                         4           1           1          
  100CL  101 1.000000000        7532                     0    1           1
 -4  TOSTRAIN    6    1
 -5  EXX         1    4    1    1
 -5  EYY         1    4    2    2
 -5  EZZ         1    4    3    3
 -5  EXY         1    4    1    2
 -5  EYZ         1    4    2    3
 -5  EZX         1    4    3    1
 -1         1 0.00000E+00 0.00000E+00 0.00000E+00 0.00000E+00 0.00000E+00 0.00000E+00
 -1         2 0.00000E+00 0.00000E+00 0.00000E+00 0.00000E+00 0.00000E+00 0.00000E+00
 -1         3 0.00000E+00 0.00000E+00 0.00000E+00 0.00000E+00 0.00000E+00 0.00000E+00
 -1         4 0.00000E+00 0.00000E+00 0.00000E+00 0.00000E+00 0.00000E+00 0.00000E+00
 -1         5 0.00000E+00 0.00000E+00 0.00000E+00 0.00000E+00 0.00000E+00 0.00000E+00
 -1         6 0.00000E+00 0.00000E+00 0.00000E+00 0.00000E+00 0.00000E+00 0.00000E+00
 -1         7 0.00000E+00 0.00000E+00 0.00000E+00 0.00000E+00 0.00000E+00 0.00000E+00
 -1         8 0.00000E+00 0.00000E+00 0.00000E+00 0.00000E+00 0.00000E+00 0.00000E+00
 -1         9 0.00000E+00 0.00000E+00 0.00000E+00 0.00000E+00 0.00000E+00 0.00000E+00
 -1        10 0.00000E+00 0.00000E+00 0.00000E+00 0.00000E+00 0.00000E+00 0.00000E+00
 -1        11 0.00000E+00 0.00000E+00 0.00000E+00 0.00000E+00 0.00000E+00 0.00000E+00
 -1        12 0.00000E+00 0.00000E+00 0.00000E+00 0.00000E+00 0.00000E+00 0.00000E+00
 -1        13 0.00000E+00 0.00000E+00 0.00000E+00 0.00000E+00 0.00000E+00 0.00000E+00
 -1        14 0.00000E+00 0.00000E+00 0.00000E+00 0.00000E+00 0.00000E+00 0.00000E+00
 -1        15 0.00000E+00 0.00000E+00 0.00000E+00 0.00000E+00 0.00000E+00 0.00000E+00
 -1        16 0.00000E+00 0.00000E+00 0.00000E+00 0.00000E+00 0.00000E+00 0.00000E+00
 -1        17 0.00000E+00 0.00000E+00 0.00000E+00 0.00000E+00 0.00000E+00 0.00000E+00
 -1        18 0.00000E+00 0.00000E+00 0.00000E+00 0.00000E+00 0.00000E+00 0.00000E+00
 -1        19 0.00000E+00 0.00000E+00 0.00000E+00 0.00000E+00 0.00000E+00 0.00000E+00
 -1        20 0.00000E+00 0.00000E+00 0.00000E+00 0.00000E+00 0.00000E+00 0.00000E+00
 -1        21 0.00000E+00 0.00000E+00 0.00000E+00 0.00000E+00 0.00000E+00 0.00000E+00
 -1        22 0.00000E+00 0.00000E+00 0.00000E+00 0.00000E+00 0.00000E+00 0.00000E+00
 -1        23 0.00000E+00 0.00000E+00 0.00000E+00 0.00000E+00 0.00000E+00 0.00000E+00
 -1        24 0.00000E+00 0.00000E+00 0.00000E+00 0.00000E+00 0.00000E+00 0.00000E+00
 -1        25 0.00000E+00 0.00000E+00 0.00000E+00 0.00000E+00 0.00000E+00 0.00000E+00
 -1        26 0.00000E+00 0.00000E+00 0.00000E+00 0.00000E+00 0.00000E+00 0.00000E+00
 -1        27 0.00000E+00 0.00000E+00 0.00000E+00 0.00000E+00 0.00000E+00 0.00000E+00
 -1        28 0.00000E+00 0.00000E+00 0.00000E+00 0.00000E+00 0.00000E+00 0.00000E+00
 -1        29 0.00000E+00 0.00000E+00 0.00000E+00 0.00000E+00 0.00000E+00 0.00000E+00
 -1        30 0.00000E+00 0.00000E+00 0.00000E+00 0.00000E+00 0.00000E+00 0.00000E+00
 -1        31 0.00000E+00 0.00000E+00 0.00000E+00 0.00000E+00 0.00000E+00 0.00000E+00
 -1        32 0.00000E+00 0.00000E+00 0.00000E+00 0.00000E+00 0.00000E+00 0.00000E+00
 -1        33 0.00000E+00 0.00000E+00 0.00000E+00 0.00000E+00 0.00000E+00 0.00000E+00
 -1        34 0.00000E+00 0.00000E+00 0.00000E+00 0.00000E+00 0.00000E+00 0.00000E+00
 -1        35 0.00000E+00 0.00000E+00 0.00000E+00 0.00000E+00 0.00000E+00 0.00000E+00
 -1        36 0.00000E+00 0.00000E+00 0.00000E+00 0.00000E+00 0.00000E+00 0.00000E+00
 -1        37 0.00000E+00 0.00000E+00 0.00000E+00 0.00000E+00 0.00000E+00 0.00000E+00
 -1        38 0.00000E+00 0.00000E+00 0.00000E+00 0.00000E+00 0.00000E+00 0.00000E+00
 -1        39 0.00000E+00 0.00000E+00 0.00000E+00 0.00000E+00 0.00000E+00 0.00000E+00
 -1        40 0.00000E+00 0.00000E+00 0.00000E+00 0.00000E+00 0.00000E+00 0.00000E+00
 -1        41 0.00000E+00 0.00000E+00 0.00000E+00 0.00000E+00 0.00000E+00 0.00000E+00
 -1        42 0.00000E+00 0.00000E+00 0.00000E+00 0.00000E+00 0.00000E+00 0.00000E+00
 -1        43 0.00000E+00 0.00000E+00 0.00000E+00 0.00000E+00 0.00000E+00 0.00000E+00
 -1        44 0.00000E+00 0.00000E+00 0.00000E+00 0.00000E+00 0.00000E+00 0.00000E+00
 -1        45 0.00000E+00 0.00000E+00 0.00000E+00 0.00000E+00 0.00000E+00 0.00000E+00
 -1        46 0.00000E+00 0.00000E+00 0.00000E+00 0.00000E+00 0.00000E+00 0.00000E+00
 -1        47 0.00000E+00 0.00000E+00 0.00000E+00 0.00000E+00 0.00000E+00 0.00000E+00
 -1        48 0.00000E+00 0.00000E+00 0.00000E+00 0.00000E+00 0.00000E+00 0.00000E+00
 -1        49 0.00000E+00 0.00000E+00 0.00000E+00 0.00000E+00 0.00000E+00 0.00000E+00
 -1        50 0.00000E+00 0.00000E+00 0.00000E+00 0.00000E+00 0.00000E+00 0.00000E+00
 -1        51 0.00000E+00 0.00000E+00 0.00000E+00 0.00000E+00 0.00000E+00 0.00000E+00
 -1        52 0.00000E+00 0.00000E+00 0.00000E+00 0.00000E+00 0.00000E+00 0.00000E+00
 -1        53 0.00000E+00 0.00000E+00 0.00000E+00 0.00000E+00 0.00000E+00 0.00000E+00
 -1        54 0.00000E+00 0.00000E+00 0.00000E+00 0.00000E+00 0.00000E+00 0.00000E+00
 -1        55 0.00000E+00 0.00000E+00 0.00000E+00 0.00000E+00 0.00000E+00 0.00000E+00
 -1        56 0.00000E+00 0.00000E+00 0.00000E+00 0.00000E+00 0.00000E+00 0.00000E+00
 -1        57 0.00000E+00 0.00000E+00 0.00000E+00 0.00000E+00 0.00000E+00 0.00000E+00
 -1        58 0.00000E+00 0.00000E+00 0.00000E+00 0.00000E+00 0.00000E+00 0.00000E+00
 -1        59 0.00000E+00 0.00000E+00 0.00000E+00 0.00000E+00 0.00000E+00 0.00000E+00
 -1        60 0.00000E+00 0.00000E+00 0.00000E+00 0.00000E+00 0.00000E+00 0.00000E+00
 -1        61 0.00000E+00 0.00000E+00 0.00000E+00 0.00000E+00 0.00000E+00 0.00000E+00
 -1        62 0.00000E+00 0.00000E+00 0.00000E+00 0.00000E+00 0.00000E+00 0.00000E+00
 -1        63 0.00000E+00 0.00000E+00 0.00000E+00 0.00000E+00 0.00000E+00 0.00000E+00
 -1        64 0.00000E+00 0.00000E+00 0.00000E+00 0.00000E+00 0.00000E+00 0.00000E+00
 -1        65 0.00000E+00 0.00000E+00 0.00000E+00 0.00000E+00 0.00000E+00 0.00000E+00
 -1        66 0.00000E+00 0.00000E+00 0.00000E+00 0.00000E+00 0.00000E+00 0.00000E+00
 -1        67 0.00000E+00 0.00000E+00 0.00000E+00 0.00000E+00 0.00000E+00 0.00000E+00
 -1        68 0.00000E+00 0.00000E+00 0.00000E+00 0.00000E+00 0.00000E+00 0.00000E+00
 -1        69 0.00000E+00 0.00000E+00 0.00000E+00 0.00000E+00 0.00000E+00 0.00000E+00
 -1        70 0.00000E+00 0.00000E+00 0.00000E+00 0.00000E+00 0.00000E+00 0.00000E+00
 -1        71 0.00000E+00 0.00000E+00 0.00000E+00 0.00000E+00 0.00000E+00 0.00000E+00
 -1        72 0.00000E+00 0.00000E+00 0.00000E+00 0.00000E+00 0.00000E+00 0.00000E+00
 -1        73 0.00000E+00 0.00000E+00 0.00000E+00 0.00000E+00 0.00000E+00 0.00000E+00
 -1        74 0.00000E+00 0.00000E+00 0.00000E+00 0.00000E+00 0.00000E+00 0.00000E+00
 -1        75 0.00000E+00 0.00000E+00 0.00000E+00 0.00000E+00 0.00000E+00 0.00000E+00
 -1        76 0.00000E+00 0.00000E+00 0.00000E+00 0.00000E+00 0.00000E+00 0.00000E+00
 -1        77 0.00000E+00 0.00000E+00 0.00000E+00 0.00000E+00 0.00000E+00 0.00000E+00
 -1        78 0.00000E+00 0.00000E+00 0.00000E+00 0.00000E+00 0.00000E+00 0.00000E+00
 -1        79 0.00000E+00 0.00000E+00 0.00000E+00 0.00000E+00 0.00000E+00 0.00000E+00
 -1        80 0.00000E+00 0.00000E+00 0.00000E+00 0.00000E+00 0.00000E+00 0.00000E+00
 -1        81 0.00000E+00 0.00000E+00 0.00000E+00 0.00000E+00 0.00000E+00 0.00000E+00
 -1        82 0.00000E+00 0.00000E+00 0.00000E+00 0.00000E+00 0.00000E+00 0.00000E+00
 -1        83 0.00000E+00 0.00000E+00 0.00000E+00 0.00000E+00 0.00000E+00 0.00000E+00
 -1        84 0.00000E+00 0.00000E+00 0.00000E+00 0.00000E+00 0.00000E+00 0.00000E+00
 -1        85 0.00000E+00 0.00000E+00 0.00000E+00 0.00000E+00 0.00000E+00 0.00000E+00
 -1        86 0.00000E+00 0.00000E+00 0.00000E+00 0.00000E+00 0.00000E+00 0.00000E+00
 -1        87 0.00000E+00 0.00000E+00 0.00000E+00 0.00000E+00 0.00000E+00 0.00000E+00
 -1        88 0.00000E+00 0.00000E+00 0.00000E+00 0.00000E+00 0.00000E+00 0.00000E+00
 -1        89 0.00000E+00 0.00000E+00 0.00000E+00 0.00000E+00 0.00000E+00 0.00000E+00
 -1        90 0.00000E+00 0.00000E+00 0.00000E+00 0.00000E+00 0.00000E+00 0.00000E+00
 -1        91 0.00000E+00 0.00000E+00 0.00000E+00 0.00000E+00 0.00000E+00 0.00000E+00
 -1        92 0.00000E+00 0.00000E+00 0.00000E+00 0.00000E+00 0.00000E+00 0.00000E+00
 -1        93 0.00000E+00 0.00000E+00 0.00000E+00 0.00000E+00 0.00000E+00 0.00000E+00
 -1        94 0.00000E+00 0.00000E+00 0.00000E+00 0.00000E+00 0.00000E+00 0.00000E+00
 -1        95 0.00000E+00 0.00000E+00 0.00000E+00 0.00000E+00 0.00000E+00 0.00000E+00
 -1        96 0.00000E+00 0.00000E+00 0.00000E+00 0.00000E+00 0.00000E+00 0.00000E+00
 -1        97 0.00000E+00 0.00000E+00 0.00000E+00 0.00000E+00 0.00000E+00 0.00000E+00
 -1        98 0.00000E+00 0.00000E+00 0.00000E+00 0.00000E+00 0.00000E+00 0.00000E+00
 -1        99 0.00000E+00 0.00000E+00 0.00000E+00 0.00000E+00 0.00000E+00 0.00000E+00
 -1       100 0.00000E+00 0.00000E+00 0.00000E+00 0.00000E+00 0.00000E+00 0.00000E+00
 -1       101 0.00000E+00 0.00000E+00 0.00000E+00 0.00000E+00 0.00000E+00 0.00000E+00
 -1       102 0.00000E+00 0.00000E+00 0.00000E+00 0.00000E+00 0.00000E+00 0.00000E+00
 -1       103 0.00000E+00 0.00000E+00 0.00000E+00 0.00000E+00 0.00000E+00 0.00000E+00
 -1       104 0.00000E+00 0.00000E+00 0.00000E+00 0.00000E+00 0.00000E+00 0.00000E+00
 -1       105 0.00000E+00 0.00000E+00 0.00000E+00 0.00000E+00 0.00000E+00 0.00000E+00
 -1       106 0.00000E+00 0.00000E+00 0.00000E+00 0.00000E+00 0.00000E+00 0.00000E+00
 -1       107 0.00000E+00 0.00000E+00 0.00000E+00 0.00000E+00 0.00000E+00 0.00000E+00
 -1       108 0.00000E+00 0.00000E+00 0.00000E+00 0.00000E+00 0.00000E+00 0.00000E+00
 -1       109 0.00000E+00 0.00000E+00 0.00000E+00 0.00000E+00 0.00000E+00 0.00000E+00
 -1       110 0.00000E+00 0.00000E+00 0.00000E+00 0.00000E+00 0.00000E+00 0.00000E+00
 -1       111 0.00000E+00 0.00000E+00 0.00000E+00 0.00000E+00 0.00000E+00 0.00000E+00
 -1       112 0.00000E+00 0.00000E+00 0.00000E+00 0.00000E+00 0.00000E+00 0.00000E+00
 -1       113 0.00000E+00 0.00000E+00 0.00000E+00 0.00000E+00 0.00000E+00 0.00000E+00
 -1       114 0.00000E+00 0.00000E+00 0.00000E+00 0.00000E+00 0.00000E+00 0.00000E+00
 -1       115 0.00000E+00 0.00000E+00 0.00000E+00 0.00000E+00 0.00000E+00 0.00000E+00
 -1       116 0.00000E+00 0.00000E+00 0.00000E+00 0.00000E+00 0.00000E+00 0.00000E+00
 -1       117 0.00000E+00 0.00000E+00 0.00000E+00 0.00000E+00 0.00000E+00 0.00000E+00
 -1       118 0.00000E+00 0.00000E+00 0.00000E+00 0.00000E+00 0.00000E+00 0.00000E+00
 -1       119 0.00000E+00 0.00000E+00 0.00000E+00 0.00000E+00 0.00000E+00 0.00000E+00
 -1       120 0.00000E+00 0.00000E+00 0.00000E+00 0.00000E+00 0.00000E+00 0.00000E+00
 -1       121 0.00000E+00 0.00000E+00 0.00000E+00 0.00000E+00 0.00000E+00 0.00000E+00
 -1       122 0.00000E+00 0.00000E+00 0.00000E+00 0.00000E+00 0.00000E+00 0.00000E+00
 -1       123 0.00000E+00 0.00000E+00 0.00000E+00 0.00000E+00 0.00000E+00 0.00000E+00
 -1       124 0.00000E+00 0.00000E+00 0.00000E+00 0.00000E+00 0.00000E+00 0.00000E+00
 -1       125 0.00000E+00 0.00000E+00 0.00000E+00 0.00000E+00 0.00000E+00 0.00000E+00
 -1       126 0.00000E+00 0.00000E+00 0.00000E+00 0.00000E+00 0.00000E+00 0.00000E+00
 -1       127 0.00000E+00 0.00000E+00 0.00000E+00 0.00000E+00 0.00000E+00 0.00000E+00
 -1       128 0.00000E+00 0.00000E+00 0.00000E+00 0.00000E+00 0.00000E+00 0.00000E+00
 -1       129 0.00000E+00 0.00000E+00 0.00000E+00 0.00000E+00 0.00000E+00 0.00000E+00
 -1       130 0.00000E+00 0.00000E+00 0.00000E+00 0.00000E+00 0.00000E+00 0.00000E+00
 -1       131 0.00000E+00 0.00000E+00 0.00000E+00 0.00000E+00 0.00000E+00 0.00000E+00
 -1       132 0.00000E+00 0.00000E+00 0.00000E+00 0.00000E+00 0.00000E+00 0.00000E+00
 -1       133 0.00000E+00 0.00000E+00 0.00000E+00 0.00000E+00 0.00000E+00 0.00000E+00
 -1       134 0.00000E+00 0.00000E+00 0.00000E+00 0.00000E+00 0.00000E+00 0.00000E+00
 -1       135 0.00000E+00 0.00000E+00 0.00000E+00 0.00000E+00 0.00000E+00 0.00000E+00
 -1       136 0.00000E+00 0.00000E+00 0.00000E+00 0.00000E+00 0.00000E+00 0.00000E+00
 -1       137 0.00000E+00 0.00000E+00 0.00000E+00 0.00000E+00 0.00000E+00 0.00000E+00
 -1       138 0.00000E+00 0.00000E+00 0.00000E+00 0.00000E+00 0.00000E+00 0.00000E+00
 -1       139 0.00000E+00 0.00000E+00 0.00000E+00 0.00000E+00 0.00000E+00 0.00000E+00
 -1       140 0.00000E+00 0.00000E+00 0.00000E+00 0.00000E+00 0.00000E+00 0.00000E+00
 -1       141 0.00000E+00 0.00000E+00 0.00000E+00 0.00000E+00 0.00000E+00 0.00000E+00
 -1       142 0.00000E+00 0.00000E+00 0.00000E+00 0.00000E+00 0.00000E+00 0.00000E+00
 -1       143 0.00000E+00 0.00000E+00 0.00000E+00 0.00000E+00 0.00000E+00 0.00000E+00
 -1       144 0.00000E+00 0.00000E+00 0.00000E+00 0.00000E+00 0.00000E+00 0.00000E+00
 -1       145 0.00000E+00 0.00000E+00 0.00000E+00 0.00000E+00 0.00000E+00 0.00000E+00
 -1       146 0.00000E+00 0.00000E+00 0.00000E+00 0.00000E+00 0.00000E+00 0.00000E+00
 -1       147 0.00000E+00 0.00000E+00 0.00000E+00 0.00000E+00 0.00000E+00 0.00000E+00
 -1       148 0.00000E+00 0.00000E+00 0.00000E+00 0.00000E+00 0.00000E+00 0.00000E+00
 -1       149 0.00000E+00 0.00000E+00 0.00000E+00 0.00000E+00 0.00000E+00 0.00000E+00
 -1       150 0.00000E+00 0.00000E+00 0.00000E+00 0.00000E+00 0.00000E+00 0.00000E+00
 -1       151 0.00000E+00 0.00000E+00 0.00000E+00 0.00000E+00 0.00000E+00 0.00000E+00
 -1       152 0.00000E+00 0.00000E+00 0.00000E+00 0.00000E+00 0.00000E+00 0.00000E+00
 -1       153 0.00000E+00 0.00000E+00 0.00000E+00 0.00000E+00 0.00000E+00 0.00000E+00
 -1       154 0.00000E+00 0.00000E+00 0.00000E+00 0.00000E+00 0.00000E+00 0.00000E+00
 -1       155 0.00000E+00 0.00000E+00 0.00000E+00 0.00000E+00 0.00000E+00 0.00000E+00
 -1       156 0.00000E+00 0.00000E+00 0.00000E+00 0.00000E+00 0.00000E+00 0.00000E+00
 -1       157 0.00000E+00 0.00000E+00 0.00000E+00 0.00000E+00 0.00000E+00 0.00000E+00
 -1       158 0.00000E+00 0.00000E+00 0.00000E+00 0.00000E+00 0.00000E+00 0.00000E+00
 -1       159 0.00000E+00 0.00000E+00 0.00000E+00 0.00000E+00 0.00000E+00 0.00000E+00
 -1       160 0.00000E+00 0.00000E+00 0.00000E+00 0.00000E+00 0.00000E+00 0.00000E+00
 -1       161 0.00000E+00 0.00000E+00 0.00000E+00 0.00000E+00 0.00000E+00 0.00000E+00
 -1       162 0.00000E+00 0.00000E+00 0.00000E+00 0.00000E+00 0.00000E+00 0.00000E+00
 -1       163 0.00000E+00 0.00000E+00 0.00000E+00 0.00000E+00 0.00000E+00 0.00000E+00
 -1       164 0.00000E+00 0.00000E+00 0.00000E+00 0.00000E+00 0.00000E+00 0.00000E+00
 -1       165 0.00000E+00 0.00000E+00 0.00000E+00 0.00000E+00 0.00000E+00 0.00000E+00
 -1       166 0.00000E+00 0.00000E+00 0.00000E+00 0.00000E+00 0.00000E+00 0.00000E+00
 -1       167 0.00000E+00 0.00000E+00 0.00000E+00 0.00000E+00 0.00000E+00 0.00000E+00
 -1       168 0.00000E+00 0.00000E+00 0.00000E+00 0.00000E+00 0.00000E+00 0.00000E+00
 -1       169 0.00000E+00 0.00000E+00 0.00000E+00 0.00000E+00 0.00000E+00 0.00000E+00
 -1       170 0.00000E+00 0.00000E+00 0.00000E+00 0.00000E+00 0.00000E+00 0.00000E+00
 -1       171 0.00000E+00 0.00000E+00 0.00000E+00 0.00000E+00 0.00000E+00 0.00000E+00
 -1       172 0.00000E+00 0.00000E+00 0.00000E+00 0.00000E+00 0.00000E+00 0.00000E+00
 -1       173 0.00000E+00 0.00000E+00 0.00000E+00 0.00000E+00 0.00000E+00 0.00000E+00
 -1       174 0.00000E+00 0.00000E+00 0.00000E+00 0.00000E+00 0.00000E+00 0.00000E+00
 -1       175 0.00000E+00 0.00000E+00 0.00000E+00 0.00000E+00 0.00000E+00 0.00000E+00
 -1       176 0.00000E+00 0.00000E+00 0.00000E+00 0.00000E+00 0.00000E+00 0.00000E+00
 -1       177 0.00000E+00 0.00000E+00 0.00000E+00 0.00000E+00 0.00000E+00 0.00000E+00
 -1       178 0.00000E+00 0.00000E+00 0.00000E+00 0.00000E+00 0.00000E+00 0.00000E+00
 -1       179 0.00000E+00 0.00000E+00 0.00000E+00 0.00000E+00 0.00000E+00 0.00000E+00
 -1       180 0.00000E+00 0.00000E+00 0.00000E+00 0.00000E+00 0.00000E+00 0.00000E+00
 -1       181 0.00000E+00 0.00000E+00 0.00000E+00 0.00000E+00 0.00000E+00 0.00000E+00
 -1       182 0.00000E+00 0.00000E+00 0.00000E+00 0.00000E+00 0.00000E+00 0.00000E+00
 -1       183 0.00000E+00 0.00000E+00 0.00000E+00 0.00000E+00 0.00000E+00 0.00000E+00
 -1       184 0.00000E+00 0.00000E+00 0.00000E+00 0.00000E+00 0.00000E+00 0.00000E+00
 -1       185 0.00000E+00 0.00000E+00 0.00000E+00 0.00000E+00 0.00000E+00 0.00000E+00
 -1       186 0.00000E+00 0.00000E+00 0.00000E+00 0.00000E+00 0.00000E+00 0.00000E+00
 -1       187 0.00000E+00 0.00000E+00 0.00000E+00 0.00000E+00 0.00000E+00 0.00000E+00
 -1       188 0.00000E+00 0.00000E+00 0.00000E+00 0.00000E+00 0.00000E+00 0.00000E+00
 -1       189 0.00000E+00 0.00000E+00 0.00000E+00 0.00000E+00 0.00000E+00 0.00000E+00
 -1       190 0.00000E+00 0.00000E+00 0.00000E+00 0.00000E+00 0.00000E+00 0.00000E+00
 -1       191 0.00000E+00 0.00000E+00 0.00000E+00 0.00000E+00 0.00000E+00 0.00000E+00
 -1       192 0.00000E+00 0.00000E+00 0.00000E+00 0.00000E+00 0.00000E+00 0.00000E+00
 -1       193 0.00000E+00 0.00000E+00 0.00000E+00 0.00000E+00 0.00000E+00 0.00000E+00
 -1       194 0.00000E+00 0.00000E+00 0.00000E+00 0.00000E+00 0.00000E+00 0.00000E+00
 -1       195 0.00000E+00 0.00000E+00 0.00000E+00 0.00000E+00 0.00000E+00 0.00000E+00
 -1       196 0.00000E+00 0.00000E+00 0.00000E+00 0.00000E+00 0.00000E+00 0.00000E+00
 -1       197 0.00000E+00 0.00000E+00 0.00000E+00 0.00000E+00 0.00000E+00 0.00000E+00
 -1       198 0.00000E+00 0.00000E+00 0.00000E+00 0.00000E+00 0.00000E+00 0.00000E+00
 -1       199 0.00000E+00 0.00000E+00 0.00000E+00 0.00000E+00 0.00000E+00 0.00000E+00
 -1       200 0.00000E+00 0.00000E+00 0.00000E+00 0.00000E+00 0.00000E+00 0.00000E+00
 -1       201 0.00000E+00 0.00000E+00 0.00000E+00 0.00000E+00 0.00000E+00 0.00000E+00
 -1       202 0.00000E+00 0.00000E+00 0.00000E+00 0.00000E+00 0.00000E+00 0.00000E+00
 -1       203 0.00000E+00 0.00000E+00 0.00000E+00 0.00000E+00 0.00000E+00 0.00000E+00
 -1       204 0.00000E+00 0.00000E+00 0.00000E+00 0.00000E+00 0.00000E+00 0.00000E+00
 -1       205 0.00000E+00 0.00000E+00 0.00000E+00 0.00000E+00 0.00000E+00 0.00000E+00
 -1       206 0.00000E+00 0.00000E+00 0.00000E+00 0.00000E+00 0.00000E+00 0.00000E+00
 -1       207 0.00000E+00 0.00000E+00 0.00000E+00 0.00000E+00 0.00000E+00 0.00000E+00
 -1       208 0.00000E+00 0.00000E+00 0.00000E+00 0.00000E+00 0.00000E+00 0.00000E+00
 -1       209 0.00000E+00 0.00000E+00 0.00000E+00 0.00000E+00 0.00000E+00 0.00000E+00
 -1       210 0.00000E+00 0.00000E+00 0.00000E+00 0.00000E+00 0.00000E+00 0.00000E+00
 -1       211 0.00000E+00 0.00000E+00 0.00000E+00 0.00000E+00 0.00000E+00 0.00000E+00
 -1       212 0.00000E+00 0.00000E+00 0.00000E+00 0.00000E+00 0.00000E+00 0.00000E+00
 -1       213 0.00000E+00 0.00000E+00 0.00000E+00 0.00000E+00 0.00000E+00 0.00000E+00
 -1       214 0.00000E+00 0.00000E+00 0.00000E+00 0.00000E+00 0.00000E+00 0.00000E+00
 -1       215 0.00000E+00 0.00000E+00 0.00000E+00 0.00000E+00 0.00000E+00 0.00000E+00
 -1       216 0.00000E+00 0.00000E+00 0.00000E+00 0.00000E+00 0.00000E+00 0.00000E+00
 -1       217 0.00000E+00 0.00000E+00 0.00000E+00 0.00000E+00 0.00000E+00 0.00000E+00
 -1       218 0.00000E+00 0.00000E+00 0.00000E+00 0.00000E+00 0.00000E+00 0.00000E+00
 -1       219 0.00000E+00 0.00000E+00 0.00000E+00 0.00000E+00 0.00000E+00 0.00000E+00
 -1       220 0.00000E+00 0.00000E+00 0.00000E+00 0.00000E+00 0.00000E+00 0.00000E+00
 -1       221 0.00000E+00 0.00000E+00 0.00000E+00 0.00000E+00 0.00000E+00 0.00000E+00
 -1       222 0.00000E+00 0.00000E+00 0.00000E+00 0.00000E+00 0.00000E+00 0.00000E+00
 -1       223 0.00000E+00 0.00000E+00 0.00000E+00 0.00000E+00 0.00000E+00 0.00000E+00
 -1       224 0.00000E+00 0.00000E+00 0.00000E+00 0.00000E+00 0.00000E+00 0.00000E+00
 -1       225 0.00000E+00 0.00000E+00 0.00000E+00 0.00000E+00 0.00000E+00 0.00000E+00
 -1       226 0.00000E+00 0.00000E+00 0.00000E+00 0.00000E+00 0.00000E+00 0.00000E+00
 -1       227 0.00000E+00 0.00000E+00 0.00000E+00 0.00000E+00 0.00000E+00 0.00000E+00
 -1       228 0.00000E+00 0.00000E+00 0.00000E+00 0.00000E+00 0.00000E+00 0.00000E+00
 -1       229 0.00000E+00 0.00000E+00 0.00000E+00 0.00000E+00 0.00000E+00 0.00000E+00
 -1       230 0.00000E+00 0.00000E+00 0.00000E+00 0.00000E+00 0.00000E+00 0.00000E+00
 -1       231 0.00000E+00 0.00000E+00 0.00000E+00 0.00000E+00 0.00000E+00 0.00000E+00
 -1       232 0.00000E+00 0.00000E+00 0.00000E+00 0.00000E+00 0.00000E+00 0.00000E+00
 -1       233 0.00000E+00 0.00000E+00 0.00000E+00 0.00000E+00 0.00000E+00 0.00000E+00
 -1       234 0.00000E+00 0.00000E+00 0.00000E+00 0.00000E+00 0.00000E+00 0.00000E+00
 -1       235 0.00000E+00 0.00000E+00 0.00000E+00 0.00000E+00 0.00000E+00 0.00000E+00
 -1       236 0.00000E+00 0.00000E+00 0.00000E+00 0.00000E+00 0.00000E+00 0.00000E+00
 -1       237 0.00000E+00 0.00000E+00 0.00000E+00 0.00000E+00 0.00000E+00 0.00000E+00
 -1       238 0.00000E+00 0.00000E+00 0.00000E+00 0.00000E+00 0.00000E+00 0.00000E+00
 -1       239 0.00000E+00 0.00000E+00 0.00000E+00 0.00000E+00 0.00000E+00 0.00000E+00
 -1       240 0.00000E+00 0.00000E+00 0.00000E+00 0.00000E+00 0.00000E+00 0.00000E+00
 -1       241 0.00000E+00 0.00000E+00 0.00000E+00 0.00000E+00 0.00000E+00 0.00000E+00
 -1       242 0.00000E+00 0.00000E+00 0.00000E+00 0.00000E+00 0.00000E+00 0.00000E+00
 -1       243 0.00000E+00 0.00000E+00 0.00000E+00 0.00000E+00 0.00000E+00 0.00000E+00
 -1       244 0.00000E+00 0.00000E+00 0.00000E+00 0.00000E+00 0.00000E+00 0.00000E+00
 -1       245 0.00000E+00 0.00000E+00 0.00000E+00 0.00000E+00 0.00000E+00 0.00000E+00
 -1       246 0.00000E+00 0.00000E+00 0.00000E+00 0.00000E+00 0.00000E+00 0.00000E+00
 -1       247 0.00000E+00 0.00000E+00 0.00000E+00 0.00000E+00 0.00000E+00 0.00000E+00
 -1       248 0.00000E+00 0.00000E+00 0.00000E+00 0.00000E+00 0.00000E+00 0.00000E+00
 -1       249 0.00000E+00 0.00000E+00 0.00000E+00 0.00000E+00 0.00000E+00 0.00000E+00
 -1       250 0.00000E+00 0.00000E+00 0.00000E+00 0.00000E+00 0.00000E+00 0.00000E+00
 -1       251 0.00000E+00 0.00000E+00 0.00000E+00 0.00000E+00 0.00000E+00 0.00000E+00
 -1       252 0.00000E+00 0.00000E+00 0.00000E+00 0.00000E+00 0.00000E+00 0.00000E+00
 -1       253 0.00000E+00 0.00000E+00 0.00000E+00 0.00000E+00 0.00000E+00 0.00000E+00
 -1       254 0.00000E+00 0.00000E+00 0.00000E+00 0.00000E+00 0.00000E+00 0.00000E+00
 -1       255 0.00000E+00 0.00000E+00 0.00000E+00 0.00000E+00 0.00000E+00 0.00000E+00
 -1       256 0.00000E+00 0.00000E+00 0.00000E+00 0.00000E+00 0.00000E+00 0.00000E+00
 -1       257 0.00000E+00 0.00000E+00 0.00000E+00 0.00000E+00 0.00000E+00 0.00000E+00
 -1       258 0.00000E+00 0.00000E+00 0.00000E+00 0.00000E+00 0.00000E+00 0.00000E+00
 -1       259 0.00000E+00 0.00000E+00 0.00000E+00 0.00000E+00 0.00000E+00 0.00000E+00
 -1       260 0.00000E+00 0.00000E+00 0.00000E+00 0.00000E+00 0.00000E+00 0.00000E+00
 -1       261 0.00000E+00 0.00000E+00 0.00000E+00 0.00000E+00 0.00000E+00 0.00000E+00
 -1       262 0.00000E+00 0.00000E+00 0.00000E+00 0.00000E+00 0.00000E+00 0.00000E+00
 -1       263 0.00000E+00 0.00000E+00 0.00000E+00 0.00000E+00 0.00000E+00 0.00000E+00
 -1       264 0.00000E+00 0.00000E+00 0.00000E+00 0.00000E+00 0.00000E+00 0.00000E+00
 -1       265 0.00000E+00 0.00000E+00 0.00000E+00 0.00000E+00 0.00000E+00 0.00000E+00
 -1       266 0.00000E+00 0.00000E+00 0.00000E+00 0.00000E+00 0.00000E+00 0.00000E+00
 -1       267 0.00000E+00 0.00000E+00 0.00000E+00 0.00000E+00 0.00000E+00 0.00000E+00
 -1       268 0.00000E+00 0.00000E+00 0.00000E+00 0.00000E+00 0.00000E+00 0.00000E+00
 -1       269 0.00000E+00 0.00000E+00 0.00000E+00 0.00000E+00 0.00000E+00 0.00000E+00
 -1       270 0.00000E+00 0.00000E+00 0.00000E+00 0.00000E+00 0.00000E+00 0.00000E+00
 -1       271 0.00000E+00 0.00000E+00 0.00000E+00 0.00000E+00 0.00000E+00 0.00000E+00
 -1       272 0.00000E+00 0.00000E+00 0.00000E+00 0.00000E+00 0.00000E+00 0.00000E+00
 -1       273 0.00000E+00 0.00000E+00 0.00000E+00 0.00000E+00 0.00000E+00 0.00000E+00
 -1       274 0.00000E+00 0.00000E+00 0.00000E+00 0.00000E+00 0.00000E+00 0.00000E+00
 -1       275 0.00000E+00 0.00000E+00 0.00000E+00 0.00000E+00 0.00000E+00 0.00000E+00
 -1       276 0.00000E+00 0.00000E+00 0.00000E+00 0.00000E+00 0.00000E+00 0.00000E+00
 -1       277 0.00000E+00 0.00000E+00 0.00000E+00 0.00000E+00 0.00000E+00 0.00000E+00
 -1       278 0.00000E+00 0.00000E+00 0.00000E+00 0.00000E+00 0.00000E+00 0.00000E+00
 -1       279 0.00000E+00 0.00000E+00 0.00000E+00 0.00000E+00 0.00000E+00 0.00000E+00
 -1       280 0.00000E+00 0.00000E+00 0.00000E+00 0.00000E+00 0.00000E+00 0.00000E+00
 -1       281 0.00000E+00 0.00000E+00 0.00000E+00 0.00000E+00 0.00000E+00 0.00000E+00
 -1       282 0.00000E+00 0.00000E+00 0.00000E+00 0.00000E+00 0.00000E+00 0.00000E+00
 -1       283 0.00000E+00 0.00000E+00 0.00000E+00 0.00000E+00 0.00000E+00 0.00000E+00
 -1       284 0.00000E+00 0.00000E+00 0.00000E+00 0.00000E+00 0.00000E+00 0.00000E+00
 -1       285 0.00000E+00 0.00000E+00 0.00000E+00 0.00000E+00 0.00000E+00 0.00000E+00
 -1       286 0.00000E+00 0.00000E+00 0.00000E+00 0.00000E+00 0.00000E+00 0.00000E+00
 -1       287 0.00000E+00 0.00000E+00 0.00000E+00 0.00000E+00 0.00000E+00 0.00000E+00
 -1       288 0.00000E+00 0.00000E+00 0.00000E+00 0.00000E+00 0.00000E+00 0.00000E+00
 -1       289 0.00000E+00 0.00000E+00 0.00000E+00 0.00000E+00 0.00000E+00 0.00000E+00
 -1       290 0.00000E+00 0.00000E+00 0.00000E+00 0.00000E+00 0.00000E+00 0.00000E+00
 -1       291 0.00000E+00 0.00000E+00 0.00000E+00 0.00000E+00 0.00000E+00 0.00000E+00
 -1       292 0.00000E+00 0.00000E+00 0.00000E+00 0.00000E+00 0.00000E+00 0.00000E+00
 -1       293 0.00000E+00 0.00000E+00 0.00000E+00 0.00000E+00 0.00000E+00 0.00000E+00
 -1       294 0.00000E+00 0.00000E+00 0.00000E+00 0.00000E+00 0.00000E+00 0.00000E+00
 -1       295 0.00000E+00 0.00000E+00 0.00000E+00 0.00000E+00 0.00000E+00 0.00000E+00
 -1       296 0.00000E+00 0.00000E+00 0.00000E+00 0.00000E+00 0.00000E+00 0.00000E+00
 -1       297 0.00000E+00 0.00000E+00 0.00000E+00 0.00000E+00 0.00000E+00 0.00000E+00
 -1       298 0.00000E+00 0.00000E+00 0.00000E+00 0.00000E+00 0.00000E+00 0.00000E+00
 -1       299 0.00000E+00 0.00000E+00 0.00000E+00 0.00000E+00 0.00000E+00 0.00000E+00
 -1       300 0.00000E+00 0.00000E+00 0.00000E+00 0.00000E+00 0.00000E+00 0.00000E+00
 -1       301 0.00000E+00 0.00000E+00 0.00000E+00 0.00000E+00 0.00000E+00 0.00000E+00
 -1       302 0.00000E+00 0.00000E+00 0.00000E+00 0.00000E+00 0.00000E+00 0.00000E+00
 -1       303 0.00000E+00 0.00000E+00 0.00000E+00 0.00000E+00 0.00000E+00 0.00000E+00
 -1       304 0.00000E+00 0.00000E+00 0.00000E+00 0.00000E+00 0.00000E+00 0.00000E+00
 -1       305 0.00000E+00 0.00000E+00 0.00000E+00 0.00000E+00 0.00000E+00 0.00000E+00
 -1       306 0.00000E+00 0.00000E+00 0.00000E+00 0.00000E+00 0.00000E+00 0.00000E+00
 -1       307 0.00000E+00 0.00000E+00 0.00000E+00 0.00000E+00 0.00000E+00 0.00000E+00
 -1       308 0.00000E+00 0.00000E+00 0.00000E+00 0.00000E+00 0.00000E+00 0.00000E+00
 -1       309 0.00000E+00 0.00000E+00 0.00000E+00 0.00000E+00 0.00000E+00 0.00000E+00
 -1       310 0.00000E+00 0.00000E+00 0.00000E+00 0.00000E+00 0.00000E+00 0.00000E+00
 -1       311 0.00000E+00 0.00000E+00 0.00000E+00 0.00000E+00 0.00000E+00 0.00000E+00
 -1       312 0.00000E+00 0.00000E+00 0.00000E+00 0.00000E+00 0.00000E+00 0.00000E+00
 -1       313 0.00000E+00 0.00000E+00 0.00000E+00 0.00000E+00 0.00000E+00 0.00000E+00
 -1       314 0.00000E+00 0.00000E+00 0.00000E+00 0.00000E+00 0.00000E+00 0.00000E+00
 -1       315 0.00000E+00 0.00000E+00 0.00000E+00 0.00000E+00 0.00000E+00 0.00000E+00
 -1       316 0.00000E+00 0.00000E+00 0.00000E+00 0.00000E+00 0.00000E+00 0.00000E+00
 -1       317 0.00000E+00 0.00000E+00 0.00000E+00 0.00000E+00 0.00000E+00 0.00000E+00
 -1       318 0.00000E+00 0.00000E+00 0.00000E+00 0.00000E+00 0.00000E+00 0.00000E+00
 -1       319 0.00000E+00 0.00000E+00 0.00000E+00 0.00000E+00 0.00000E+00 0.00000E+00
 -1       320 0.00000E+00 0.00000E+00 0.00000E+00 0.00000E+00 0.00000E+00 0.00000E+00
 -1       321 0.00000E+00 0.00000E+00 0.00000E+00 0.00000E+00 0.00000E+00 0.00000E+00
 -1       322 0.00000E+00 0.00000E+00 0.00000E+00 0.00000E+00 0.00000E+00 0.00000E+00
 -1       323 0.00000E+00 0.00000E+00 0.00000E+00 0.00000E+00 0.00000E+00 0.00000E+00
 -1       324 0.00000E+00 0.00000E+00 0.00000E+00 0.00000E+00 0.00000E+00 0.00000E+00
 -1       325 0.00000E+00 0.00000E+00 0.00000E+00 0.00000E+00 0.00000E+00 0.00000E+00
 -1       326 0.00000E+00 0.00000E+00 0.00000E+00 0.00000E+00 0.00000E+00 0.00000E+00
 -1       327 0.00000E+00 0.00000E+00 0.00000E+00 0.00000E+00 0.00000E+00 0.00000E+00
 -1       328 0.00000E+00 0.00000E+00 0.00000E+00 0.00000E+00 0.00000E+00 0.00000E+00
 -1       329 0.00000E+00 0.00000E+00 0.00000E+00 0.00000E+00 0.00000E+00 0.00000E+00
 -1       330 0.00000E+00 0.00000E+00 0.00000E+00 0.00000E+00 0.00000E+00 0.00000E+00
 -1       331 0.00000E+00 0.00000E+00 0.00000E+00 0.00000E+00 0.00000E+00 0.00000E+00
 -1       332 0.00000E+00 0.00000E+00 0.00000E+00 0.00000E+00 0.00000E+00 0.00000E+00
 -1       333 0.00000E+00 0.00000E+00 0.00000E+00 0.00000E+00 0.00000E+00 0.00000E+00
 -1       334 0.00000E+00 0.00000E+00 0.00000E+00 0.00000E+00 0.00000E+00 0.00000E+00
 -1       335 0.00000E+00 0.00000E+00 0.00000E+00 0.00000E+00 0.00000E+00 0.00000E+00
 -1       336 0.00000E+00 0.00000E+00 0.00000E+00 0.00000E+00 0.00000E+00 0.00000E+00
 -1       337 0.00000E+00 0.00000E+00 0.00000E+00 0.00000E+00 0.00000E+00 0.00000E+00
 -1       338 0.00000E+00 0.00000E+00 0.00000E+00 0.00000E+00 0.00000E+00 0.00000E+00
 -1       339 0.00000E+00 0.00000E+00 0.00000E+00 0.00000E+00 0.00000E+00 0.00000E+00
 -1       340 0.00000E+00 0.00000E+00 0.00000E+00 0.00000E+00 0.00000E+00 0.00000E+00
 -1       341 0.00000E+00 0.00000E+00 0.00000E+00 0.00000E+00 0.00000E+00 0.00000E+00
 -1       342 0.00000E+00 0.00000E+00 0.00000E+00 0.00000E+00 0.00000E+00 0.00000E+00
 -1       343 0.00000E+00 0.00000E+00 0.00000E+00 0.00000E+00 0.00000E+00 0.00000E+00
 -1       344 0.00000E+00 0.00000E+00 0.00000E+00 0.00000E+00 0.00000E+00 0.00000E+00
 -1       345 0.00000E+00 0.00000E+00 0.00000E+00 0.00000E+00 0.00000E+00 0.00000E+00
 -1       346 0.00000E+00 0.00000E+00 0.00000E+00 0.00000E+00 0.00000E+00 0.00000E+00
 -1       347 0.00000E+00 0.00000E+00 0.00000E+00 0.00000E+00 0.00000E+00 0.00000E+00
 -1       348 0.00000E+00 0.00000E+00 0.00000E+00 0.00000E+00 0.00000E+00 0.00000E+00
 -1       349 0.00000E+00 0.00000E+00 0.00000E+00 0.00000E+00 0.00000E+00 0.00000E+00
 -1       350 0.00000E+00 0.00000E+00 0.00000E+00 0.00000E+00 0.00000E+00 0.00000E+00
 -1       351 0.00000E+00 0.00000E+00 0.00000E+00 0.00000E+00 0.00000E+00 0.00000E+00
 -1       352 0.00000E+00 0.00000E+00 0.00000E+00 0.00000E+00 0.00000E+00 0.00000E+00
 -1       353 0.00000E+00 0.00000E+00 0.00000E+00 0.00000E+00 0.00000E+00 0.00000E+00
 -1       354 0.00000E+00 0.00000E+00 0.00000E+00 0.00000E+00 0.00000E+00 0.00000E+00
 -1       355 0.00000E+00 0.00000E+00 0.00000E+00 0.00000E+00 0.00000E+00 0.00000E+00
 -1       356 0.00000E+00 0.00000E+00 0.00000E+00 0.00000E+00 0.00000E+00 0.00000E+00
 -1       357 0.00000E+00 0.00000E+00 0.00000E+00 0.00000E+00 0.00000E+00 0.00000E+00
 -1       358 0.00000E+00 0.00000E+00 0.00000E+00 0.00000E+00 0.00000E+00 0.00000E+00
 -1       359 0.00000E+00 0.00000E+00 0.00000E+00 0.00000E+00 0.00000E+00 0.00000E+00
 -1       360 0.00000E+00 0.00000E+00 0.00000E+00 0.00000E+00 0.00000E+00 0.00000E+00
 -1       361 0.00000E+00 0.00000E+00 0.00000E+00 0.00000E+00 0.00000E+00 0.00000E+00
 -1       362 0.00000E+00 0.00000E+00 0.00000E+00 0.00000E+00 0.00000E+00 0.00000E+00
 -1       363 0.00000E+00 0.00000E+00 0.00000E+00 0.00000E+00 0.00000E+00 0.00000E+00
 -1       364 0.00000E+00 0.00000E+00 0.00000E+00 0.00000E+00 0.00000E+00 0.00000E+00
 -1       365 0.00000E+00 0.00000E+00 0.00000E+00 0.00000E+00 0.00000E+00 0.00000E+00
 -1       366 0.00000E+00 0.00000E+00 0.00000E+00 0.00000E+00 0.00000E+00 0.00000E+00
 -1       367 0.00000E+00 0.00000E+00 0.00000E+00 0.00000E+00 0.00000E+00 0.00000E+00
 -1       368 0.00000E+00 0.00000E+00 0.00000E+00 0.00000E+00 0.00000E+00 0.00000E+00
 -1       369 0.00000E+00 0.00000E+00 0.00000E+00 0.00000E+00 0.00000E+00 0.00000E+00
 -1       370 0.00000E+00 0.00000E+00 0.00000E+00 0.00000E+00 0.00000E+00 0.00000E+00
 -1       371 0.00000E+00 0.00000E+00 0.00000E+00 0.00000E+00 0.00000E+00 0.00000E+00
 -1       372 0.00000E+00 0.00000E+00 0.00000E+00 0.00000E+00 0.00000E+00 0.00000E+00
 -1       373 0.00000E+00 0.00000E+00 0.00000E+00 0.00000E+00 0.00000E+00 0.00000E+00
 -1       374 0.00000E+00 0.00000E+00 0.00000E+00 0.00000E+00 0.00000E+00 0.00000E+00
 -1       375 0.00000E+00 0.00000E+00 0.00000E+00 0.00000E+00 0.00000E+00 0.00000E+00
 -1       376 0.00000E+00 0.00000E+00 0.00000E+00 0.00000E+00 0.00000E+00 0.00000E+00
 -1       377 0.00000E+00 0.00000E+00 0.00000E+00 0.00000E+00 0.00000E+00 0.00000E+00
 -1       378 0.00000E+00 0.00000E+00 0.00000E+00 0.00000E+00 0.00000E+00 0.00000E+00
 -1       379 0.00000E+00 0.00000E+00 0.00000E+00 0.00000E+00 0.00000E+00 0.00000E+00
 -1       380 0.00000E+00 0.00000E+00 0.00000E+00 0.00000E+00 0.00000E+00 0.00000E+00
 -1       381 0.00000E+00 0.00000E+00 0.00000E+00 0.00000E+00 0.00000E+00 0.00000E+00
 -1       382 0.00000E+00 0.00000E+00 0.00000E+00 0.00000E+00 0.00000E+00 0.00000E+00
 -1       383 0.00000E+00 0.00000E+00 0.00000E+00 0.00000E+00 0.00000E+00 0.00000E+00
 -1       384 0.00000E+00 0.00000E+00 0.00000E+00 0.00000E+00 0.00000E+00 0.00000E+00
 -1       385 0.00000E+00 0.00000E+00 0.00000E+00 0.00000E+00 0.00000E+00 0.00000E+00
 -1       386 0.00000E+00 0.00000E+00 0.00000E+00 0.00000E+00 0.00000E+00 0.00000E+00
 -1       387 0.00000E+00 0.00000E+00 0.00000E+00 0.00000E+00 0.00000E+00 0.00000E+00
 -1       388 0.00000E+00 0.00000E+00 0.00000E+00 0.00000E+00 0.00000E+00 0.00000E+00
 -1       389 0.00000E+00 0.00000E+00 0.00000E+00 0.00000E+00 0.00000E+00 0.00000E+00
 -1       390 0.00000E+00 0.00000E+00 0.00000E+00 0.00000E+00 0.00000E+00 0.00000E+00
 -1       391 0.00000E+00 0.00000E+00 0.00000E+00 0.00000E+00 0.00000E+00 0.00000E+00
 -1       392 0.00000E+00 0.00000E+00 0.00000E+00 0.00000E+00 0.00000E+00 0.00000E+00
 -1       393 0.00000E+00 0.00000E+00 0.00000E+00 0.00000E+00 0.00000E+00 0.00000E+00
 -1       394 0.00000E+00 0.00000E+00 0.00000E+00 0.00000E+00 0.00000E+00 0.00000E+00
 -1       395 0.00000E+00 0.00000E+00 0.00000E+00 0.00000E+00 0.00000E+00 0.00000E+00
 -1       396 0.00000E+00 0.00000E+00 0.00000E+00 0.00000E+00 0.00000E+00 0.00000E+00
 -1       397 0.00000E+00 0.00000E+00 0.00000E+00 0.00000E+00 0.00000E+00 0.00000E+00
 -1       398 0.00000E+00 0.00000E+00 0.00000E+00 0.00000E+00 0.00000E+00 0.00000E+00
 -1       399 0.00000E+00 0.00000E+00 0.00000E+00 0.00000E+00 0.00000E+00 0.00000E+00
 -1       400 0.00000E+00 0.00000E+00 0.00000E+00 0.00000E+00 0.00000E+00 0.00000E+00
 -1       401 0.00000E+00 0.00000E+00 0.00000E+00 0.00000E+00 0.00000E+00 0.00000E+00
 -1       402 0.00000E+00 0.00000E+00 0.00000E+00 0.00000E+00 0.00000E+00 0.00000E+00
 -1       403 0.00000E+00 0.00000E+00 0.00000E+00 0.00000E+00 0.00000E+00 0.00000E+00
 -1       404 0.00000E+00 0.00000E+00 0.00000E+00 0.00000E+00 0.00000E+00 0.00000E+00
 -1       405 0.00000E+00 0.00000E+00 0.00000E+00 0.00000E+00 0.00000E+00 0.00000E+00
 -1       406 0.00000E+00 0.00000E+00 0.00000E+00 0.00000E+00 0.00000E+00 0.00000E+00
 -1       407 0.00000E+00 0.00000E+00 0.00000E+00 0.00000E+00 0.00000E+00 0.00000E+00
 -1       408 0.00000E+00 0.00000E+00 0.00000E+00 0.00000E+00 0.00000E+00 0.00000E+00
 -1       409 0.00000E+00 0.00000E+00 0.00000E+00 0.00000E+00 0.00000E+00 0.00000E+00
 -1       410 0.00000E+00 0.00000E+00 0.00000E+00 0.00000E+00 0.00000E+00 0.00000E+00
 -1       411 0.00000E+00 0.00000E+00 0.00000E+00 0.00000E+00 0.00000E+00 0.00000E+00
 -1       412 0.00000E+00 0.00000E+00 0.00000E+00 0.00000E+00 0.00000E+00 0.00000E+00
 -1       413 0.00000E+00 0.00000E+00 0.00000E+00 0.00000E+00 0.00000E+00 0.00000E+00
 -1       414 0.00000E+00 0.00000E+00 0.00000E+00 0.00000E+00 0.00000E+00 0.00000E+00
 -1       415 0.00000E+00 0.00000E+00 0.00000E+00 0.00000E+00 0.00000E+00 0.00000E+00
 -1       416 0.00000E+00 0.00000E+00 0.00000E+00 0.00000E+00 0.00000E+00 0.00000E+00
 -1       417 0.00000E+00 0.00000E+00 0.00000E+00 0.00000E+00 0.00000E+00 0.00000E+00
 -1       418 0.00000E+00 0.00000E+00 0.00000E+00 0.00000E+00 0.00000E+00 0.00000E+00
 -1       419 0.00000E+00 0.00000E+00 0.00000E+00 0.00000E+00 0.00000E+00 0.00000E+00
 -1       420 0.00000E+00 0.00000E+00 0.00000E+00 0.00000E+00 0.00000E+00 0.00000E+00
 -1       421 0.00000E+00 0.00000E+00 0.00000E+00 0.00000E+00 0.00000E+00 0.00000E+00
 -1       422 0.00000E+00 0.00000E+00 0.00000E+00 0.00000E+00 0.00000E+00 0.00000E+00
 -1       423 0.00000E+00 0.00000E+00 0.00000E+00 0.00000E+00 0.00000E+00 0.00000E+00
 -1       424 0.00000E+00 0.00000E+00 0.00000E+00 0.00000E+00 0.00000E+00 0.00000E+00
 -1       425 0.00000E+00 0.00000E+00 0.00000E+00 0.00000E+00 0.00000E+00 0.00000E+00
 -1       426 0.00000E+00 0.00000E+00 0.00000E+00 0.00000E+00 0.00000E+00 0.00000E+00
 -1       427 0.00000E+00 0.00000E+00 0.00000E+00 0.00000E+00 0.00000E+00 0.00000E+00
 -1       428 0.00000E+00 0.00000E+00 0.00000E+00 0.00000E+00 0.00000E+00 0.00000E+00
 -1       429 0.00000E+00 0.00000E+00 0.00000E+00 0.00000E+00 0.00000E+00 0.00000E+00
 -1       430 0.00000E+00 0.00000E+00 0.00000E+00 0.00000E+00 0.00000E+00 0.00000E+00
 -1       431 0.00000E+00 0.00000E+00 0.00000E+00 0.00000E+00 0.00000E+00 0.00000E+00
 -1       432 0.00000E+00 0.00000E+00 0.00000E+00 0.00000E+00 0.00000E+00 0.00000E+00
 -1       433 0.00000E+00 0.00000E+00 0.00000E+00 0.00000E+00 0.00000E+00 0.00000E+00
 -1       434 0.00000E+00 0.00000E+00 0.00000E+00 0.00000E+00 0.00000E+00 0.00000E+00
 -1       435 0.00000E+00 0.00000E+00 0.00000E+00 0.00000E+00 0.00000E+00 0.00000E+00
 -1       436 0.00000E+00 0.00000E+00 0.00000E+00 0.00000E+00 0.00000E+00 0.00000E+00
 -1       437 0.00000E+00 0.00000E+00 0.00000E+00 0.00000E+00 0.00000E+00 0.00000E+00
 -1       438 0.00000E+00 0.00000E+00 0.00000E+00 0.00000E+00 0.00000E+00 0.00000E+00
 -1       439 0.00000E+00 0.00000E+00 0.00000E+00 0.00000E+00 0.00000E+00 0.00000E+00
 -1       440 0.00000E+00 0.00000E+00 0.00000E+00 0.00000E+00 0.00000E+00 0.00000E+00
 -1       441 0.00000E+00 0.00000E+00 0.00000E+00 0.00000E+00 0.00000E+00 0.00000E+00
 -1       442 0.00000E+00 0.00000E+00 0.00000E+00 0.00000E+00 0.00000E+00 0.00000E+00
 -1       443 0.00000E+00 0.00000E+00 0.00000E+00 0.00000E+00 0.00000E+00 0.00000E+00
 -1       444 0.00000E+00 0.00000E+00 0.00000E+00 0.00000E+00 0.00000E+00 0.00000E+00
 -1       445 0.00000E+00 0.00000E+00 0.00000E+00 0.00000E+00 0.00000E+00 0.00000E+00
 -1       446 0.00000E+00 0.00000E+00 0.00000E+00 0.00000E+00 0.00000E+00 0.00000E+00
 -1       447 0.00000E+00 0.00000E+00 0.00000E+00 0.00000E+00 0.00000E+00 0.00000E+00
 -1       448 0.00000E+00 0.00000E+00 0.00000E+00 0.00000E+00 0.00000E+00 0.00000E+00
 -1       449 0.00000E+00 0.00000E+00 0.00000E+00 0.00000E+00 0.00000E+00 0.00000E+00
 -1       450 0.00000E+00 0.00000E+00 0.00000E+00 0.00000E+00 0.00000E+00 0.00000E+00
 -1       451 0.00000E+00 0.00000E+00 0.00000E+00 0.00000E+00 0.00000E+00 0.00000E+00
 -1       452 0.00000E+00 0.00000E+00 0.00000E+00 0.00000E+00 0.00000E+00 0.00000E+00
 -1       453 0.00000E+00 0.00000E+00 0.00000E+00 0.00000E+00 0.00000E+00 0.00000E+00
 -1       454 0.00000E+00 0.00000E+00 0.00000E+00 0.00000E+00 0.00000E+00 0.00000E+00
 -1       455 0.00000E+00 0.00000E+00 0.00000E+00 0.00000E+00 0.00000E+00 0.00000E+00
 -1       456 0.00000E+00 0.00000E+00 0.00000E+00 0.00000E+00 0.00000E+00 0.00000E+00
 -1       457 0.00000E+00 0.00000E+00 0.00000E+00 0.00000E+00 0.00000E+00 0.00000E+00
 -1       458 0.00000E+00 0.00000E+00 0.00000E+00 0.00000E+00 0.00000E+00 0.00000E+00
 -1       459 0.00000E+00 0.00000E+00 0.00000E+00 0.00000E+00 0.00000E+00 0.00000E+00
 -1       460 0.00000E+00 0.00000E+00 0.00000E+00 0.00000E+00 0.00000E+00 0.00000E+00
 -1       461 0.00000E+00 0.00000E+00 0.00000E+00 0.00000E+00 0.00000E+00 0.00000E+00
 -1       462 0.00000E+00 0.00000E+00 0.00000E+00 0.00000E+00 0.00000E+00 0.00000E+00
 -1       463 0.00000E+00 0.00000E+00 0.00000E+00 0.00000E+00 0.00000E+00 0.00000E+00
 -1       464 0.00000E+00 0.00000E+00 0.00000E+00 0.00000E+00 0.00000E+00 0.00000E+00
 -1       465 0.00000E+00 0.00000E+00 0.00000E+00 0.00000E+00 0.00000E+00 0.00000E+00
 -1       466 0.00000E+00 0.00000E+00 0.00000E+00 0.00000E+00 0.00000E+00 0.00000E+00
 -1       467 0.00000E+00 0.00000E+00 0.00000E+00 0.00000E+00 0.00000E+00 0.00000E+00
 -1       468 0.00000E+00 0.00000E+00 0.00000E+00 0.00000E+00 0.00000E+00 0.00000E+00
 -1       469 0.00000E+00 0.00000E+00 0.00000E+00 0.00000E+00 0.00000E+00 0.00000E+00
 -1       470 0.00000E+00 0.00000E+00 0.00000E+00 0.00000E+00 0.00000E+00 0.00000E+00
 -1       471 0.00000E+00 0.00000E+00 0.00000E+00 0.00000E+00 0.00000E+00 0.00000E+00
 -1       472 0.00000E+00 0.00000E+00 0.00000E+00 0.00000E+00 0.00000E+00 0.00000E+00
 -1       473 0.00000E+00 0.00000E+00 0.00000E+00 0.00000E+00 0.00000E+00 0.00000E+00
 -1       474 0.00000E+00 0.00000E+00 0.00000E+00 0.00000E+00 0.00000E+00 0.00000E+00
 -1       475 0.00000E+00 0.00000E+00 0.00000E+00 0.00000E+00 0.00000E+00 0.00000E+00
 -1       476 0.00000E+00 0.00000E+00 0.00000E+00 0.00000E+00 0.00000E+00 0.00000E+00
 -1       477 0.00000E+00 0.00000E+00 0.00000E+00 0.00000E+00 0.00000E+00 0.00000E+00
 -1       478 0.00000E+00 0.00000E+00 0.00000E+00 0.00000E+00 0.00000E+00 0.00000E+00
 -1       479 0.00000E+00 0.00000E+00 0.00000E+00 0.00000E+00 0.00000E+00 0.00000E+00
 -1       480 0.00000E+00 0.00000E+00 0.00000E+00 0.00000E+00 0.00000E+00 0.00000E+00
 -1       481 0.00000E+00 0.00000E+00 0.00000E+00 0.00000E+00 0.00000E+00 0.00000E+00
 -1       482 0.00000E+00 0.00000E+00 0.00000E+00 0.00000E+00 0.00000E+00 0.00000E+00
 -1       483 0.00000E+00 0.00000E+00 0.00000E+00 0.00000E+00 0.00000E+00 0.00000E+00
 -1       484 0.00000E+00 0.00000E+00 0.00000E+00 0.00000E+00 0.00000E+00 0.00000E+00
 -1       485 0.00000E+00 0.00000E+00 0.00000E+00 0.00000E+00 0.00000E+00 0.00000E+00
 -1       486 0.00000E+00 0.00000E+00 0.00000E+00 0.00000E+00 0.00000E+00 0.00000E+00
 -1       487 0.00000E+00 0.00000E+00 0.00000E+00 0.00000E+00 0.00000E+00 0.00000E+00
 -1       488 0.00000E+00 0.00000E+00 0.00000E+00 0.00000E+00 0.00000E+00 0.00000E+00
 -1       489 0.00000E+00 0.00000E+00 0.00000E+00 0.00000E+00 0.00000E+00 0.00000E+00
 -1       490 0.00000E+00 0.00000E+00 0.00000E+00 0.00000E+00 0.00000E+00 0.00000E+00
 -1       491 0.00000E+00 0.00000E+00 0.00000E+00 0.00000E+00 0.00000E+00 0.00000E+00
 -1       492 0.00000E+00 0.00000E+00 0.00000E+00 0.00000E+00 0.00000E+00 0.00000E+00
 -1       493 0.00000E+00 0.00000E+00 0.00000E+00 0.00000E+00 0.00000E+00 0.00000E+00
 -1       494 0.00000E+00 0.00000E+00 0.00000E+00 0.00000E+00 0.00000E+00 0.00000E+00
 -1       495 0.00000E+00 0.00000E+00 0.00000E+00 0.00000E+00 0.00000E+00 0.00000E+00
 -1       496 0.00000E+00 0.00000E+00 0.00000E+00 0.00000E+00 0.00000E+00 0.00000E+00
 -1       497 0.00000E+00 0.00000E+00 0.00000E+00 0.00000E+00 0.00000E+00 0.00000E+00
 -1       498 0.00000E+00 0.00000E+00 0.00000E+00 0.00000E+00 0.00000E+00 0.00000E+00
 -1       499 0.00000E+00 0.00000E+00 0.00000E+00 0.00000E+00 0.00000E+00 0.00000E+00
 -1       500 0.00000E+00 0.00000E+00 0.00000E+00 0.00000E+00 0.00000E+00 0.00000E+00
 -1       501 0.00000E+00 0.00000E+00 0.00000E+00 0.00000E+00 0.00000E+00 0.00000E+00
 -1       502 0.00000E+00 0.00000E+00 0.00000E+00 0.00000E+00 0.00000E+00 0.00000E+00
 -1       503 0.00000E+00 0.00000E+00 0.00000E+00 0.00000E+00 0.00000E+00 0.00000E+00
 -1       504 0.00000E+00 0.00000E+00 0.00000E+00 0.00000E+00 0.00000E+00 0.00000E+00
 -1       505 0.00000E+00 0.00000E+00 0.00000E+00 0.00000E+00 0.00000E+00 0.00000E+00
 -1       506 0.00000E+00 0.00000E+00 0.00000E+00 0.00000E+00 0.00000E+00 0.00000E+00
 -1       507 0.00000E+00 0.00000E+00 0.00000E+00 0.00000E+00 0.00000E+00 0.00000E+00
 -1       508 0.00000E+00 0.00000E+00 0.00000E+00 0.00000E+00 0.00000E+00 0.00000E+00
 -1       509 0.00000E+00 0.00000E+00 0.00000E+00 0.00000E+00 0.00000E+00 0.00000E+00
 -1       510 0.00000E+00 0.00000E+00 0.00000E+00 0.00000E+00 0.00000E+00 0.00000E+00
 -1       511 0.00000E+00 0.00000E+00 0.00000E+00 0.00000E+00 0.00000E+00 0.00000E+00
 -1       512 0.00000E+00 0.00000E+00 0.00000E+00 0.00000E+00 0.00000E+00 0.00000E+00
 -1       513 0.00000E+00 0.00000E+00 0.00000E+00 0.00000E+00 0.00000E+00 0.00000E+00
 -1       514 0.00000E+00 0.00000E+00 0.00000E+00 0.00000E+00 0.00000E+00 0.00000E+00
 -1       515 0.00000E+00 0.00000E+00 0.00000E+00 0.00000E+00 0.00000E+00 0.00000E+00
 -1       516 0.00000E+00 0.00000E+00 0.00000E+00 0.00000E+00 0.00000E+00 0.00000E+00
 -1       517 0.00000E+00 0.00000E+00 0.00000E+00 0.00000E+00 0.00000E+00 0.00000E+00
 -1       518 0.00000E+00 0.00000E+00 0.00000E+00 0.00000E+00 0.00000E+00 0.00000E+00
 -1       519 0.00000E+00 0.00000E+00 0.00000E+00 0.00000E+00 0.00000E+00 0.00000E+00
 -1       520 0.00000E+00 0.00000E+00 0.00000E+00 0.00000E+00 0.00000E+00 0.00000E+00
 -1       521 0.00000E+00 0.00000E+00 0.00000E+00 0.00000E+00 0.00000E+00 0.00000E+00
 -1       522 0.00000E+00 0.00000E+00 0.00000E+00 0.00000E+00 0.00000E+00 0.00000E+00
 -1       523 0.00000E+00 0.00000E+00 0.00000E+00 0.00000E+00 0.00000E+00 0.00000E+00
 -1       524 0.00000E+00 0.00000E+00 0.00000E+00 0.00000E+00 0.00000E+00 0.00000E+00
 -1       525 0.00000E+00 0.00000E+00 0.00000E+00 0.00000E+00 0.00000E+00 0.00000E+00
 -1       526 0.00000E+00 0.00000E+00 0.00000E+00 0.00000E+00 0.00000E+00 0.00000E+00
 -1       527 0.00000E+00 0.00000E+00 0.00000E+00 0.00000E+00 0.00000E+00 0.00000E+00
 -1       528 0.00000E+00 0.00000E+00 0.00000E+00 0.00000E+00 0.00000E+00 0.00000E+00
 -1       529 0.00000E+00 0.00000E+00 0.00000E+00 0.00000E+00 0.00000E+00 0.00000E+00
 -1       530 0.00000E+00 0.00000E+00 0.00000E+00 0.00000E+00 0.00000E+00 0.00000E+00
 -1       531 0.00000E+00 0.00000E+00 0.00000E+00 0.00000E+00 0.00000E+00 0.00000E+00
 -1       532 0.00000E+00 0.00000E+00 0.00000E+00 0.00000E+00 0.00000E+00 0.00000E+00
 -1       533 0.00000E+00 0.00000E+00 0.00000E+00 0.00000E+00 0.00000E+00 0.00000E+00
 -1       534 0.00000E+00 0.00000E+00 0.00000E+00 0.00000E+00 0.00000E+00 0.00000E+00
 -1       535 0.00000E+00 0.00000E+00 0.00000E+00 0.00000E+00 0.00000E+00 0.00000E+00
 -1       536 0.00000E+00 0.00000E+00 0.00000E+00 0.00000E+00 0.00000E+00 0.00000E+00
 -1       537 0.00000E+00 0.00000E+00 0.00000E+00 0.00000E+00 0.00000E+00 0.00000E+00
 -1       538 0.00000E+00 0.00000E+00 0.00000E+00 0.00000E+00 0.00000E+00 0.00000E+00
 -1       539 0.00000E+00 0.00000E+00 0.00000E+00 0.00000E+00 0.00000E+00 0.00000E+00
 -1       540 0.00000E+00 0.00000E+00 0.00000E+00 0.00000E+00 0.00000E+00 0.00000E+00
 -1       541 0.00000E+00 0.00000E+00 0.00000E+00 0.00000E+00 0.00000E+00 0.00000E+00
 -1       542 0.00000E+00 0.00000E+00 0.00000E+00 0.00000E+00 0.00000E+00 0.00000E+00
 -1       543 0.00000E+00 0.00000E+00 0.00000E+00 0.00000E+00 0.00000E+00 0.00000E+00
 -1       544 0.00000E+00 0.00000E+00 0.00000E+00 0.00000E+00 0.00000E+00 0.00000E+00
 -1       545 0.00000E+00 0.00000E+00 0.00000E+00 0.00000E+00 0.00000E+00 0.00000E+00
 -1       546 0.00000E+00 0.00000E+00 0.00000E+00 0.00000E+00 0.00000E+00 0.00000E+00
 -1       547 0.00000E+00 0.00000E+00 0.00000E+00 0.00000E+00 0.00000E+00 0.00000E+00
 -1       548 0.00000E+00 0.00000E+00 0.00000E+00 0.00000E+00 0.00000E+00 0.00000E+00
 -1       549 0.00000E+00 0.00000E+00 0.00000E+00 0.00000E+00 0.00000E+00 0.00000E+00
 -1       550 0.00000E+00 0.00000E+00 0.00000E+00 0.00000E+00 0.00000E+00 0.00000E+00
 -1       551 0.00000E+00 0.00000E+00 0.00000E+00 0.00000E+00 0.00000E+00 0.00000E+00
 -1       552 0.00000E+00 0.00000E+00 0.00000E+00 0.00000E+00 0.00000E+00 0.00000E+00
 -1       553 0.00000E+00 0.00000E+00 0.00000E+00 0.00000E+00 0.00000E+00 0.00000E+00
 -1       554 0.00000E+00 0.00000E+00 0.00000E+00 0.00000E+00 0.00000E+00 0.00000E+00
 -1       555 0.00000E+00 0.00000E+00 0.00000E+00 0.00000E+00 0.00000E+00 0.00000E+00
 -1       556 0.00000E+00 0.00000E+00 0.00000E+00 0.00000E+00 0.00000E+00 0.00000E+00
 -1       557 0.00000E+00 0.00000E+00 0.00000E+00 0.00000E+00 0.00000E+00 0.00000E+00
 -1       558 0.00000E+00 0.00000E+00 0.00000E+00 0.00000E+00 0.00000E+00 0.00000E+00
 -1       559 0.00000E+00 0.00000E+00 0.00000E+00 0.00000E+00 0.00000E+00 0.00000E+00
 -1       560 0.00000E+00 0.00000E+00 0.00000E+00 0.00000E+00 0.00000E+00 0.00000E+00
 -1       561 0.00000E+00 0.00000E+00 0.00000E+00 0.00000E+00 0.00000E+00 0.00000E+00
 -1       562 0.00000E+00 0.00000E+00 0.00000E+00 0.00000E+00 0.00000E+00 0.00000E+00
 -1       563 0.00000E+00 0.00000E+00 0.00000E+00 0.00000E+00 0.00000E+00 0.00000E+00
 -1       564 0.00000E+00 0.00000E+00 0.00000E+00 0.00000E+00 0.00000E+00 0.00000E+00
 -1       565 0.00000E+00 0.00000E+00 0.00000E+00 0.00000E+00 0.00000E+00 0.00000E+00
 -1       566 0.00000E+00 0.00000E+00 0.00000E+00 0.00000E+00 0.00000E+00 0.00000E+00
 -1       567 0.00000E+00 0.00000E+00 0.00000E+00 0.00000E+00 0.00000E+00 0.00000E+00
 -1       568 0.00000E+00 0.00000E+00 0.00000E+00 0.00000E+00 0.00000E+00 0.00000E+00
 -1       569 0.00000E+00 0.00000E+00 0.00000E+00 0.00000E+00 0.00000E+00 0.00000E+00
 -1       570 0.00000E+00 0.00000E+00 0.00000E+00 0.00000E+00 0.00000E+00 0.00000E+00
 -1       571 0.00000E+00 0.00000E+00 0.00000E+00 0.00000E+00 0.00000E+00 0.00000E+00
 -1       572 0.00000E+00 0.00000E+00 0.00000E+00 0.00000E+00 0.00000E+00 0.00000E+00
 -1       573 0.00000E+00 0.00000E+00 0.00000E+00 0.00000E+00 0.00000E+00 0.00000E+00
 -1       574 0.00000E+00 0.00000E+00 0.00000E+00 0.00000E+00 0.00000E+00 0.00000E+00
 -1       575 0.00000E+00 0.00000E+00 0.00000E+00 0.00000E+00 0.00000E+00 0.00000E+00
 -1       576 0.00000E+00 0.00000E+00 0.00000E+00 0.00000E+00 0.00000E+00 0.00000E+00
 -1       577 0.00000E+00 0.00000E+00 0.00000E+00 0.00000E+00 0.00000E+00 0.00000E+00
 -1       578 0.00000E+00 0.00000E+00 0.00000E+00 0.00000E+00 0.00000E+00 0.00000E+00
 -1       579 0.00000E+00 0.00000E+00 0.00000E+00 0.00000E+00 0.00000E+00 0.00000E+00
 -1       580 0.00000E+00 0.00000E+00 0.00000E+00 0.00000E+00 0.00000E+00 0.00000E+00
 -1       581 0.00000E+00 0.00000E+00 0.00000E+00 0.00000E+00 0.00000E+00 0.00000E+00
 -1       582 0.00000E+00 0.00000E+00 0.00000E+00 0.00000E+00 0.00000E+00 0.00000E+00
 -1       583 0.00000E+00 0.00000E+00 0.00000E+00 0.00000E+00 0.00000E+00 0.00000E+00
 -1       584 0.00000E+00 0.00000E+00 0.00000E+00 0.00000E+00 0.00000E+00 0.00000E+00
 -1       585 0.00000E+00 0.00000E+00 0.00000E+00 0.00000E+00 0.00000E+00 0.00000E+00
 -1       586 0.00000E+00 0.00000E+00 0.00000E+00 0.00000E+00 0.00000E+00 0.00000E+00
 -1       587 0.00000E+00 0.00000E+00 0.00000E+00 0.00000E+00 0.00000E+00 0.00000E+00
 -1       588 0.00000E+00 0.00000E+00 0.00000E+00 0.00000E+00 0.00000E+00 0.00000E+00
 -1       589 0.00000E+00 0.00000E+00 0.00000E+00 0.00000E+00 0.00000E+00 0.00000E+00
 -1       590 0.00000E+00 0.00000E+00 0.00000E+00 0.00000E+00 0.00000E+00 0.00000E+00
 -1       591 0.00000E+00 0.00000E+00 0.00000E+00 0.00000E+00 0.00000E+00 0.00000E+00
 -1       592 0.00000E+00 0.00000E+00 0.00000E+00 0.00000E+00 0.00000E+00 0.00000E+00
 -1       593 0.00000E+00 0.00000E+00 0.00000E+00 0.00000E+00 0.00000E+00 0.00000E+00
 -1       594 0.00000E+00 0.00000E+00 0.00000E+00 0.00000E+00 0.00000E+00 0.00000E+00
 -1       595 0.00000E+00 0.00000E+00 0.00000E+00 0.00000E+00 0.00000E+00 0.00000E+00
 -1       596 0.00000E+00 0.00000E+00 0.00000E+00 0.00000E+00 0.00000E+00 0.00000E+00
 -1       597 0.00000E+00 0.00000E+00 0.00000E+00 0.00000E+00 0.00000E+00 0.00000E+00
 -1       598 0.00000E+00 0.00000E+00 0.00000E+00 0.00000E+00 0.00000E+00 0.00000E+00
 -1       599 0.00000E+00 0.00000E+00 0.00000E+00 0.00000E+00 0.00000E+00 0.00000E+00
 -1       600 0.00000E+00 0.00000E+00 0.00000E+00 0.00000E+00 0.00000E+00 0.00000E+00
 -1       601 0.00000E+00 0.00000E+00 0.00000E+00 0.00000E+00 0.00000E+00 0.00000E+00
 -1       602 0.00000E+00 0.00000E+00 0.00000E+00 0.00000E+00 0.00000E+00 0.00000E+00
 -1       603 0.00000E+00 0.00000E+00 0.00000E+00 0.00000E+00 0.00000E+00 0.00000E+00
 -1       604 0.00000E+00 0.00000E+00 0.00000E+00 0.00000E+00 0.00000E+00 0.00000E+00
 -1       605 0.00000E+00 0.00000E+00 0.00000E+00 0.00000E+00 0.00000E+00 0.00000E+00
 -1       606 0.00000E+00 0.00000E+00 0.00000E+00 0.00000E+00 0.00000E+00 0.00000E+00
 -1       607 0.00000E+00 0.00000E+00 0.00000E+00 0.00000E+00 0.00000E+00 0.00000E+00
 -1       608 0.00000E+00 0.00000E+00 0.00000E+00 0.00000E+00 0.00000E+00 0.00000E+00
 -1       609 0.00000E+00 0.00000E+00 0.00000E+00 0.00000E+00 0.00000E+00 0.00000E+00
 -1       610 0.00000E+00 0.00000E+00 0.00000E+00 0.00000E+00 0.00000E+00 0.00000E+00
 -1       611 0.00000E+00 0.00000E+00 0.00000E+00 0.00000E+00 0.00000E+00 0.00000E+00
 -1       612 0.00000E+00 0.00000E+00 0.00000E+00 0.00000E+00 0.00000E+00 0.00000E+00
 -1       613 0.00000E+00 0.00000E+00 0.00000E+00 0.00000E+00 0.00000E+00 0.00000E+00
 -1       614 0.00000E+00 0.00000E+00 0.00000E+00 0.00000E+00 0.00000E+00 0.00000E+00
 -1       615 0.00000E+00 0.00000E+00 0.00000E+00 0.00000E+00 0.00000E+00 0.00000E+00
 -1       616 0.00000E+00 0.00000E+00 0.00000E+00 0.00000E+00 0.00000E+00 0.00000E+00
 -1       617 0.00000E+00 0.00000E+00 0.00000E+00 0.00000E+00 0.00000E+00 0.00000E+00
 -1       618 0.00000E+00 0.00000E+00 0.00000E+00 0.00000E+00 0.00000E+00 0.00000E+00
 -1       619 0.00000E+00 0.00000E+00 0.00000E+00 0.00000E+00 0.00000E+00 0.00000E+00
 -1       620 0.00000E+00 0.00000E+00 0.00000E+00 0.00000E+00 0.00000E+00 0.00000E+00
 -1       621 0.00000E+00 0.00000E+00 0.00000E+00 0.00000E+00 0.00000E+00 0.00000E+00
 -1       622 0.00000E+00 0.00000E+00 0.00000E+00 0.00000E+00 0.00000E+00 0.00000E+00
 -1       623 0.00000E+00 0.00000E+00 0.00000E+00 0.00000E+00 0.00000E+00 0.00000E+00
 -1       624 0.00000E+00 0.00000E+00 0.00000E+00 0.00000E+00 0.00000E+00 0.00000E+00
 -1       625 0.00000E+00 0.00000E+00 0.00000E+00 0.00000E+00 0.00000E+00 0.00000E+00
 -1       626 0.00000E+00 0.00000E+00 0.00000E+00 0.00000E+00 0.00000E+00 0.00000E+00
 -1       627 0.00000E+00 0.00000E+00 0.00000E+00 0.00000E+00 0.00000E+00 0.00000E+00
 -1       628 0.00000E+00 0.00000E+00 0.00000E+00 0.00000E+00 0.00000E+00 0.00000E+00
 -1       629 0.00000E+00 0.00000E+00 0.00000E+00 0.00000E+00 0.00000E+00 0.00000E+00
 -1       630 0.00000E+00 0.00000E+00 0.00000E+00 0.00000E+00 0.00000E+00 0.00000E+00
 -1       631 0.00000E+00 0.00000E+00 0.00000E+00 0.00000E+00 0.00000E+00 0.00000E+00
 -1       632 0.00000E+00 0.00000E+00 0.00000E+00 0.00000E+00 0.00000E+00 0.00000E+00
 -1       633 0.00000E+00 0.00000E+00 0.00000E+00 0.00000E+00 0.00000E+00 0.00000E+00
 -1       634 0.00000E+00 0.00000E+00 0.00000E+00 0.00000E+00 0.00000E+00 0.00000E+00
 -1       635 0.00000E+00 0.00000E+00 0.00000E+00 0.00000E+00 0.00000E+00 0.00000E+00
 -1       636 0.00000E+00 0.00000E+00 0.00000E+00 0.00000E+00 0.00000E+00 0.00000E+00
 -1       637 0.00000E+00 0.00000E+00 0.00000E+00 0.00000E+00 0.00000E+00 0.00000E+00
 -1       638 0.00000E+00 0.00000E+00 0.00000E+00 0.00000E+00 0.00000E+00 0.00000E+00
 -1       639 0.00000E+00 0.00000E+00 0.00000E+00 0.00000E+00 0.00000E+00 0.00000E+00
 -1       640 0.00000E+00 0.00000E+00 0.00000E+00 0.00000E+00 0.00000E+00 0.00000E+00
 -1       641 0.00000E+00 0.00000E+00 0.00000E+00 0.00000E+00 0.00000E+00 0.00000E+00
 -1       642 0.00000E+00 0.00000E+00 0.00000E+00 0.00000E+00 0.00000E+00 0.00000E+00
 -1       643 0.00000E+00 0.00000E+00 0.00000E+00 0.00000E+00 0.00000E+00 0.00000E+00
 -1       644 0.00000E+00 0.00000E+00 0.00000E+00 0.00000E+00 0.00000E+00 0.00000E+00
 -1       645 0.00000E+00 0.00000E+00 0.00000E+00 0.00000E+00 0.00000E+00 0.00000E+00
 -1       646 0.00000E+00 0.00000E+00 0.00000E+00 0.00000E+00 0.00000E+00 0.00000E+00
 -1       647 0.00000E+00 0.00000E+00 0.00000E+00 0.00000E+00 0.00000E+00 0.00000E+00
 -1       648 0.00000E+00 0.00000E+00 0.00000E+00 0.00000E+00 0.00000E+00 0.00000E+00
 -1       649 0.00000E+00 0.00000E+00 0.00000E+00 0.00000E+00 0.00000E+00 0.00000E+00
 -1       650 0.00000E+00 0.00000E+00 0.00000E+00 0.00000E+00 0.00000E+00 0.00000E+00
 -1       651 0.00000E+00 0.00000E+00 0.00000E+00 0.00000E+00 0.00000E+00 0.00000E+00
 -1       652 0.00000E+00 0.00000E+00 0.00000E+00 0.00000E+00 0.00000E+00 0.00000E+00
 -1       653 0.00000E+00 0.00000E+00 0.00000E+00 0.00000E+00 0.00000E+00 0.00000E+00
 -1       654 0.00000E+00 0.00000E+00 0.00000E+00 0.00000E+00 0.00000E+00 0.00000E+00
 -1       655 0.00000E+00 0.00000E+00 0.00000E+00 0.00000E+00 0.00000E+00 0.00000E+00
 -1       656 0.00000E+00 0.00000E+00 0.00000E+00 0.00000E+00 0.00000E+00 0.00000E+00
 -1       657 0.00000E+00 0.00000E+00 0.00000E+00 0.00000E+00 0.00000E+00 0.00000E+00
 -1       658 0.00000E+00 0.00000E+00 0.00000E+00 0.00000E+00 0.00000E+00 0.00000E+00
 -1       659 0.00000E+00 0.00000E+00 0.00000E+00 0.00000E+00 0.00000E+00 0.00000E+00
 -1       660 0.00000E+00 0.00000E+00 0.00000E+00 0.00000E+00 0.00000E+00 0.00000E+00
 -1       661 0.00000E+00 0.00000E+00 0.00000E+00 0.00000E+00 0.00000E+00 0.00000E+00
 -1       662 0.00000E+00 0.00000E+00 0.00000E+00 0.00000E+00 0.00000E+00 0.00000E+00
 -1       663 0.00000E+00 0.00000E+00 0.00000E+00 0.00000E+00 0.00000E+00 0.00000E+00
 -1       664 0.00000E+00 0.00000E+00 0.00000E+00 0.00000E+00 0.00000E+00 0.00000E+00
 -1       665 0.00000E+00 0.00000E+00 0.00000E+00 0.00000E+00 0.00000E+00 0.00000E+00
 -1       666 0.00000E+00 0.00000E+00 0.00000E+00 0.00000E+00 0.00000E+00 0.00000E+00
 -1       667 0.00000E+00 0.00000E+00 0.00000E+00 0.00000E+00 0.00000E+00 0.00000E+00
 -1       668 0.00000E+00 0.00000E+00 0.00000E+00 0.00000E+00 0.00000E+00 0.00000E+00
 -1       669 0.00000E+00 0.00000E+00 0.00000E+00 0.00000E+00 0.00000E+00 0.00000E+00
 -1       670 0.00000E+00 0.00000E+00 0.00000E+00 0.00000E+00 0.00000E+00 0.00000E+00
 -1       671 0.00000E+00 0.00000E+00 0.00000E+00 0.00000E+00 0.00000E+00 0.00000E+00
 -1       672 0.00000E+00 0.00000E+00 0.00000E+00 0.00000E+00 0.00000E+00 0.00000E+00
 -1       673 0.00000E+00 0.00000E+00 0.00000E+00 0.00000E+00 0.00000E+00 0.00000E+00
 -1       674 0.00000E+00 0.00000E+00 0.00000E+00 0.00000E+00 0.00000E+00 0.00000E+00
 -1       675 0.00000E+00 0.00000E+00 0.00000E+00 0.00000E+00 0.00000E+00 0.00000E+00
 -1       676 0.00000E+00 0.00000E+00 0.00000E+00 0.00000E+00 0.00000E+00 0.00000E+00
 -1       677 0.00000E+00 0.00000E+00 0.00000E+00 0.00000E+00 0.00000E+00 0.00000E+00
 -1       678 0.00000E+00 0.00000E+00 0.00000E+00 0.00000E+00 0.00000E+00 0.00000E+00
 -1       679 0.00000E+00 0.00000E+00 0.00000E+00 0.00000E+00 0.00000E+00 0.00000E+00
 -1       680 0.00000E+00 0.00000E+00 0.00000E+00 0.00000E+00 0.00000E+00 0.00000E+00
 -1       681 0.00000E+00 0.00000E+00 0.00000E+00 0.00000E+00 0.00000E+00 0.00000E+00
 -1       682 0.00000E+00 0.00000E+00 0.00000E+00 0.00000E+00 0.00000E+00 0.00000E+00
 -1       683 0.00000E+00 0.00000E+00 0.00000E+00 0.00000E+00 0.00000E+00 0.00000E+00
 -1       684 0.00000E+00 0.00000E+00 0.00000E+00 0.00000E+00 0.00000E+00 0.00000E+00
 -1       685 0.00000E+00 0.00000E+00 0.00000E+00 0.00000E+00 0.00000E+00 0.00000E+00
 -1       686 0.00000E+00 0.00000E+00 0.00000E+00 0.00000E+00 0.00000E+00 0.00000E+00
 -1       687 0.00000E+00 0.00000E+00 0.00000E+00 0.00000E+00 0.00000E+00 0.00000E+00
 -1       688 0.00000E+00 0.00000E+00 0.00000E+00 0.00000E+00 0.00000E+00 0.00000E+00
 -1       689 0.00000E+00 0.00000E+00 0.00000E+00 0.00000E+00 0.00000E+00 0.00000E+00
 -1       690 0.00000E+00 0.00000E+00 0.00000E+00 0.00000E+00 0.00000E+00 0.00000E+00
 -1       691 0.00000E+00 0.00000E+00 0.00000E+00 0.00000E+00 0.00000E+00 0.00000E+00
 -1       692 0.00000E+00 0.00000E+00 0.00000E+00 0.00000E+00 0.00000E+00 0.00000E+00
 -1       693 0.00000E+00 0.00000E+00 0.00000E+00 0.00000E+00 0.00000E+00 0.00000E+00
 -1       694 0.00000E+00 0.00000E+00 0.00000E+00 0.00000E+00 0.00000E+00 0.00000E+00
 -1       695 0.00000E+00 0.00000E+00 0.00000E+00 0.00000E+00 0.00000E+00 0.00000E+00
 -1       696 0.00000E+00 0.00000E+00 0.00000E+00 0.00000E+00 0.00000E+00 0.00000E+00
 -1       697 0.00000E+00 0.00000E+00 0.00000E+00 0.00000E+00 0.00000E+00 0.00000E+00
 -1       698 0.00000E+00 0.00000E+00 0.00000E+00 0.00000E+00 0.00000E+00 0.00000E+00
 -1       699 0.00000E+00 0.00000E+00 0.00000E+00 0.00000E+00 0.00000E+00 0.00000E+00
 -1       700 0.00000E+00 0.00000E+00 0.00000E+00 0.00000E+00 0.00000E+00 0.00000E+00
 -1       701 0.00000E+00 0.00000E+00 0.00000E+00 0.00000E+00 0.00000E+00 0.00000E+00
 -1       702 0.00000E+00 0.00000E+00 0.00000E+00 0.00000E+00 0.00000E+00 0.00000E+00
 -1       703 0.00000E+00 0.00000E+00 0.00000E+00 0.00000E+00 0.00000E+00 0.00000E+00
 -1       704 0.00000E+00 0.00000E+00 0.00000E+00 0.00000E+00 0.00000E+00 0.00000E+00
 -1       705 0.00000E+00 0.00000E+00 0.00000E+00 0.00000E+00 0.00000E+00 0.00000E+00
 -1       706 0.00000E+00 0.00000E+00 0.00000E+00 0.00000E+00 0.00000E+00 0.00000E+00
 -1       707 0.00000E+00 0.00000E+00 0.00000E+00 0.00000E+00 0.00000E+00 0.00000E+00
 -1       708 0.00000E+00 0.00000E+00 0.00000E+00 0.00000E+00 0.00000E+00 0.00000E+00
 -1       709 0.00000E+00 0.00000E+00 0.00000E+00 0.00000E+00 0.00000E+00 0.00000E+00
 -1       710 0.00000E+00 0.00000E+00 0.00000E+00 0.00000E+00 0.00000E+00 0.00000E+00
 -1       711 0.00000E+00 0.00000E+00 0.00000E+00 0.00000E+00 0.00000E+00 0.00000E+00
 -1       712 0.00000E+00 0.00000E+00 0.00000E+00 0.00000E+00 0.00000E+00 0.00000E+00
 -1       713 0.00000E+00 0.00000E+00 0.00000E+00 0.00000E+00 0.00000E+00 0.00000E+00
 -1       714 0.00000E+00 0.00000E+00 0.00000E+00 0.00000E+00 0.00000E+00 0.00000E+00
 -1       715 0.00000E+00 0.00000E+00 0.00000E+00 0.00000E+00 0.00000E+00 0.00000E+00
 -1       716 0.00000E+00 0.00000E+00 0.00000E+00 0.00000E+00 0.00000E+00 0.00000E+00
 -1       717 0.00000E+00 0.00000E+00 0.00000E+00 0.00000E+00 0.00000E+00 0.00000E+00
 -1       718 0.00000E+00 0.00000E+00 0.00000E+00 0.00000E+00 0.00000E+00 0.00000E+00
 -1       719 0.00000E+00 0.00000E+00 0.00000E+00 0.00000E+00 0.00000E+00 0.00000E+00
 -1       720 0.00000E+00 0.00000E+00 0.00000E+00 0.00000E+00 0.00000E+00 0.00000E+00
 -1       721 0.00000E+00 0.00000E+00 0.00000E+00 0.00000E+00 0.00000E+00 0.00000E+00
 -1       722 0.00000E+00 0.00000E+00 0.00000E+00 0.00000E+00 0.00000E+00 0.00000E+00
 -1       723 0.00000E+00 0.00000E+00 0.00000E+00 0.00000E+00 0.00000E+00 0.00000E+00
 -1       724 0.00000E+00 0.00000E+00 0.00000E+00 0.00000E+00 0.00000E+00 0.00000E+00
 -1       725 0.00000E+00 0.00000E+00 0.00000E+00 0.00000E+00 0.00000E+00 0.00000E+00
 -1       726 0.00000E+00 0.00000E+00 0.00000E+00 0.00000E+00 0.00000E+00 0.00000E+00
 -1       727 0.00000E+00 0.00000E+00 0.00000E+00 0.00000E+00 0.00000E+00 0.00000E+00
 -1       728 0.00000E+00 0.00000E+00 0.00000E+00 0.00000E+00 0.00000E+00 0.00000E+00
 -1       729 0.00000E+00 0.00000E+00 0.00000E+00 0.00000E+00 0.00000E+00 0.00000E+00
 -1       730 0.00000E+00 0.00000E+00 0.00000E+00 0.00000E+00 0.00000E+00 0.00000E+00
 -1       731 0.00000E+00 0.00000E+00 0.00000E+00 0.00000E+00 0.00000E+00 0.00000E+00
 -1       732 0.00000E+00 0.00000E+00 0.00000E+00 0.00000E+00 0.00000E+00 0.00000E+00
 -1       733 0.00000E+00 0.00000E+00 0.00000E+00 0.00000E+00 0.00000E+00 0.00000E+00
 -1       734 0.00000E+00 0.00000E+00 0.00000E+00 0.00000E+00 0.00000E+00 0.00000E+00
 -1       735 0.00000E+00 0.00000E+00 0.00000E+00 0.00000E+00 0.00000E+00 0.00000E+00
 -1       736 0.00000E+00 0.00000E+00 0.00000E+00 0.00000E+00 0.00000E+00 0.00000E+00
 -1       737 0.00000E+00 0.00000E+00 0.00000E+00 0.00000E+00 0.00000E+00 0.00000E+00
 -1       738 0.00000E+00 0.00000E+00 0.00000E+00 0.00000E+00 0.00000E+00 0.00000E+00
 -1       739 0.00000E+00 0.00000E+00 0.00000E+00 0.00000E+00 0.00000E+00 0.00000E+00
 -1       740 0.00000E+00 0.00000E+00 0.00000E+00 0.00000E+00 0.00000E+00 0.00000E+00
 -1       741 0.00000E+00 0.00000E+00 0.00000E+00 0.00000E+00 0.00000E+00 0.00000E+00
 -1       742 0.00000E+00 0.00000E+00 0.00000E+00 0.00000E+00 0.00000E+00 0.00000E+00
 -1       743 0.00000E+00 0.00000E+00 0.00000E+00 0.00000E+00 0.00000E+00 0.00000E+00
 -1       744 0.00000E+00 0.00000E+00 0.00000E+00 0.00000E+00 0.00000E+00 0.00000E+00
 -1       745 0.00000E+00 0.00000E+00 0.00000E+00 0.00000E+00 0.00000E+00 0.00000E+00
 -1       746 0.00000E+00 0.00000E+00 0.00000E+00 0.00000E+00 0.00000E+00 0.00000E+00
 -1       747 0.00000E+00 0.00000E+00 0.00000E+00 0.00000E+00 0.00000E+00 0.00000E+00
 -1       748 0.00000E+00 0.00000E+00 0.00000E+00 0.00000E+00 0.00000E+00 0.00000E+00
 -1       749 0.00000E+00 0.00000E+00 0.00000E+00 0.00000E+00 0.00000E+00 0.00000E+00
 -1       750 0.00000E+00 0.00000E+00 0.00000E+00 0.00000E+00 0.00000E+00 0.00000E+00
 -1       751 0.00000E+00 0.00000E+00 0.00000E+00 0.00000E+00 0.00000E+00 0.00000E+00
 -1       752 0.00000E+00 0.00000E+00 0.00000E+00 0.00000E+00 0.00000E+00 0.00000E+00
 -1       753 0.00000E+00 0.00000E+00 0.00000E+00 0.00000E+00 0.00000E+00 0.00000E+00
 -1       754 0.00000E+00 0.00000E+00 0.00000E+00 0.00000E+00 0.00000E+00 0.00000E+00
 -1       755 0.00000E+00 0.00000E+00 0.00000E+00 0.00000E+00 0.00000E+00 0.00000E+00
 -1       756 0.00000E+00 0.00000E+00 0.00000E+00 0.00000E+00 0.00000E+00 0.00000E+00
 -1       757 0.00000E+00 0.00000E+00 0.00000E+00 0.00000E+00 0.00000E+00 0.00000E+00
 -1       758 0.00000E+00 0.00000E+00 0.00000E+00 0.00000E+00 0.00000E+00 0.00000E+00
 -1       759 0.00000E+00 0.00000E+00 0.00000E+00 0.00000E+00 0.00000E+00 0.00000E+00
 -1       760 0.00000E+00 0.00000E+00 0.00000E+00 0.00000E+00 0.00000E+00 0.00000E+00
 -1       761 0.00000E+00 0.00000E+00 0.00000E+00 0.00000E+00 0.00000E+00 0.00000E+00
 -1       762 0.00000E+00 0.00000E+00 0.00000E+00 0.00000E+00 0.00000E+00 0.00000E+00
 -1       763 0.00000E+00 0.00000E+00 0.00000E+00 0.00000E+00 0.00000E+00 0.00000E+00
 -1       764 0.00000E+00 0.00000E+00 0.00000E+00 0.00000E+00 0.00000E+00 0.00000E+00
 -1       765 0.00000E+00 0.00000E+00 0.00000E+00 0.00000E+00 0.00000E+00 0.00000E+00
 -1       766 0.00000E+00 0.00000E+00 0.00000E+00 0.00000E+00 0.00000E+00 0.00000E+00
 -1       767 0.00000E+00 0.00000E+00 0.00000E+00 0.00000E+00 0.00000E+00 0.00000E+00
 -1       768 0.00000E+00 0.00000E+00 0.00000E+00 0.00000E+00 0.00000E+00 0.00000E+00
 -1       769 0.00000E+00 0.00000E+00 0.00000E+00 0.00000E+00 0.00000E+00 0.00000E+00
 -1       770 0.00000E+00 0.00000E+00 0.00000E+00 0.00000E+00 0.00000E+00 0.00000E+00
 -1       771 0.00000E+00 0.00000E+00 0.00000E+00 0.00000E+00 0.00000E+00 0.00000E+00
 -1       772 0.00000E+00 0.00000E+00 0.00000E+00 0.00000E+00 0.00000E+00 0.00000E+00
 -1       773 0.00000E+00 0.00000E+00 0.00000E+00 0.00000E+00 0.00000E+00 0.00000E+00
 -1       774 0.00000E+00 0.00000E+00 0.00000E+00 0.00000E+00 0.00000E+00 0.00000E+00
 -1       775 0.00000E+00 0.00000E+00 0.00000E+00 0.00000E+00 0.00000E+00 0.00000E+00
 -1       776 0.00000E+00 0.00000E+00 0.00000E+00 0.00000E+00 0.00000E+00 0.00000E+00
 -1       777 0.00000E+00 0.00000E+00 0.00000E+00 0.00000E+00 0.00000E+00 0.00000E+00
 -1       778 0.00000E+00 0.00000E+00 0.00000E+00 0.00000E+00 0.00000E+00 0.00000E+00
 -1       779 0.00000E+00 0.00000E+00 0.00000E+00 0.00000E+00 0.00000E+00 0.00000E+00
 -1       780 0.00000E+00 0.00000E+00 0.00000E+00 0.00000E+00 0.00000E+00 0.00000E+00
 -1       781 0.00000E+00 0.00000E+00 0.00000E+00 0.00000E+00 0.00000E+00 0.00000E+00
 -1       782 0.00000E+00 0.00000E+00 0.00000E+00 0.00000E+00 0.00000E+00 0.00000E+00
 -1       783 0.00000E+00 0.00000E+00 0.00000E+00 0.00000E+00 0.00000E+00 0.00000E+00
 -1       784 0.00000E+00 0.00000E+00 0.00000E+00 0.00000E+00 0.00000E+00 0.00000E+00
 -1       785 0.00000E+00 0.00000E+00 0.00000E+00 0.00000E+00 0.00000E+00 0.00000E+00
 -1       786 0.00000E+00 0.00000E+00 0.00000E+00 0.00000E+00 0.00000E+00 0.00000E+00
 -1       787 0.00000E+00 0.00000E+00 0.00000E+00 0.00000E+00 0.00000E+00 0.00000E+00
 -1       788 0.00000E+00 0.00000E+00 0.00000E+00 0.00000E+00 0.00000E+00 0.00000E+00
 -1       789 0.00000E+00 0.00000E+00 0.00000E+00 0.00000E+00 0.00000E+00 0.00000E+00
 -1       790 0.00000E+00 0.00000E+00 0.00000E+00 0.00000E+00 0.00000E+00 0.00000E+00
 -1       791 0.00000E+00 0.00000E+00 0.00000E+00 0.00000E+00 0.00000E+00 0.00000E+00
 -1       792 0.00000E+00 0.00000E+00 0.00000E+00 0.00000E+00 0.00000E+00 0.00000E+00
 -1       793 0.00000E+00 0.00000E+00 0.00000E+00 0.00000E+00 0.00000E+00 0.00000E+00
 -1       794 0.00000E+00 0.00000E+00 0.00000E+00 0.00000E+00 0.00000E+00 0.00000E+00
 -1       795 0.00000E+00 0.00000E+00 0.00000E+00 0.00000E+00 0.00000E+00 0.00000E+00
 -1       796 0.00000E+00 0.00000E+00 0.00000E+00 0.00000E+00 0.00000E+00 0.00000E+00
 -1       797 0.00000E+00 0.00000E+00 0.00000E+00 0.00000E+00 0.00000E+00 0.00000E+00
 -1       798 0.00000E+00 0.00000E+00 0.00000E+00 0.00000E+00 0.00000E+00 0.00000E+00
 -1       799 0.00000E+00 0.00000E+00 0.00000E+00 0.00000E+00 0.00000E+00 0.00000E+00
 -1       800 0.00000E+00 0.00000E+00 0.00000E+00 0.00000E+00 0.00000E+00 0.00000E+00
 -1       801 0.00000E+00 0.00000E+00 0.00000E+00 0.00000E+00 0.00000E+00 0.00000E+00
 -1       802 0.00000E+00 0.00000E+00 0.00000E+00 0.00000E+00 0.00000E+00 0.00000E+00
 -1       803 0.00000E+00 0.00000E+00 0.00000E+00 0.00000E+00 0.00000E+00 0.00000E+00
 -1       804 0.00000E+00 0.00000E+00 0.00000E+00 0.00000E+00 0.00000E+00 0.00000E+00
 -1       805 0.00000E+00 0.00000E+00 0.00000E+00 0.00000E+00 0.00000E+00 0.00000E+00
 -1       806 0.00000E+00 0.00000E+00 0.00000E+00 0.00000E+00 0.00000E+00 0.00000E+00
 -1       807 0.00000E+00 0.00000E+00 0.00000E+00 0.00000E+00 0.00000E+00 0.00000E+00
 -1       808 0.00000E+00 0.00000E+00 0.00000E+00 0.00000E+00 0.00000E+00 0.00000E+00
 -1       809 0.00000E+00 0.00000E+00 0.00000E+00 0.00000E+00 0.00000E+00 0.00000E+00
 -1       810 0.00000E+00 0.00000E+00 0.00000E+00 0.00000E+00 0.00000E+00 0.00000E+00
 -1       811 0.00000E+00 0.00000E+00 0.00000E+00 0.00000E+00 0.00000E+00 0.00000E+00
 -1       812 0.00000E+00 0.00000E+00 0.00000E+00 0.00000E+00 0.00000E+00 0.00000E+00
 -1       813 0.00000E+00 0.00000E+00 0.00000E+00 0.00000E+00 0.00000E+00 0.00000E+00
 -1       814 0.00000E+00 0.00000E+00 0.00000E+00 0.00000E+00 0.00000E+00 0.00000E+00
 -1       815 0.00000E+00 0.00000E+00 0.00000E+00 0.00000E+00 0.00000E+00 0.00000E+00
 -1       816 0.00000E+00 0.00000E+00 0.00000E+00 0.00000E+00 0.00000E+00 0.00000E+00
 -1       817 0.00000E+00 0.00000E+00 0.00000E+00 0.00000E+00 0.00000E+00 0.00000E+00
 -1       818 0.00000E+00 0.00000E+00 0.00000E+00 0.00000E+00 0.00000E+00 0.00000E+00
 -1       819 0.00000E+00 0.00000E+00 0.00000E+00 0.00000E+00 0.00000E+00 0.00000E+00
 -1       820 0.00000E+00 0.00000E+00 0.00000E+00 0.00000E+00 0.00000E+00 0.00000E+00
 -1       821 0.00000E+00 0.00000E+00 0.00000E+00 0.00000E+00 0.00000E+00 0.00000E+00
 -1       822 0.00000E+00 0.00000E+00 0.00000E+00 0.00000E+00 0.00000E+00 0.00000E+00
 -1       823 0.00000E+00 0.00000E+00 0.00000E+00 0.00000E+00 0.00000E+00 0.00000E+00
 -1       824 0.00000E+00 0.00000E+00 0.00000E+00 0.00000E+00 0.00000E+00 0.00000E+00
 -1       825 0.00000E+00 0.00000E+00 0.00000E+00 0.00000E+00 0.00000E+00 0.00000E+00
 -1       826 0.00000E+00 0.00000E+00 0.00000E+00 0.00000E+00 0.00000E+00 0.00000E+00
 -1       827 0.00000E+00 0.00000E+00 0.00000E+00 0.00000E+00 0.00000E+00 0.00000E+00
 -1       828 0.00000E+00 0.00000E+00 0.00000E+00 0.00000E+00 0.00000E+00 0.00000E+00
 -1       829 0.00000E+00 0.00000E+00 0.00000E+00 0.00000E+00 0.00000E+00 0.00000E+00
 -1       830 0.00000E+00 0.00000E+00 0.00000E+00 0.00000E+00 0.00000E+00 0.00000E+00
 -1       831 0.00000E+00 0.00000E+00 0.00000E+00 0.00000E+00 0.00000E+00 0.00000E+00
 -1       832 0.00000E+00 0.00000E+00 0.00000E+00 0.00000E+00 0.00000E+00 0.00000E+00
 -1       833 0.00000E+00 0.00000E+00 0.00000E+00 0.00000E+00 0.00000E+00 0.00000E+00
 -1       834 0.00000E+00 0.00000E+00 0.00000E+00 0.00000E+00 0.00000E+00 0.00000E+00
 -1       835 0.00000E+00 0.00000E+00 0.00000E+00 0.00000E+00 0.00000E+00 0.00000E+00
 -1       836 0.00000E+00 0.00000E+00 0.00000E+00 0.00000E+00 0.00000E+00 0.00000E+00
 -1       837 0.00000E+00 0.00000E+00 0.00000E+00 0.00000E+00 0.00000E+00 0.00000E+00
 -1       838 0.00000E+00 0.00000E+00 0.00000E+00 0.00000E+00 0.00000E+00 0.00000E+00
 -1       839 0.00000E+00 0.00000E+00 0.00000E+00 0.00000E+00 0.00000E+00 0.00000E+00
 -1       840 0.00000E+00 0.00000E+00 0.00000E+00 0.00000E+00 0.00000E+00 0.00000E+00
 -1       841 0.00000E+00 0.00000E+00 0.00000E+00 0.00000E+00 0.00000E+00 0.00000E+00
 -1       842 0.00000E+00 0.00000E+00 0.00000E+00 0.00000E+00 0.00000E+00 0.00000E+00
 -1       843 0.00000E+00 0.00000E+00 0.00000E+00 0.00000E+00 0.00000E+00 0.00000E+00
 -1       844 0.00000E+00 0.00000E+00 0.00000E+00 0.00000E+00 0.00000E+00 0.00000E+00
 -1       845 0.00000E+00 0.00000E+00 0.00000E+00 0.00000E+00 0.00000E+00 0.00000E+00
 -1       846 0.00000E+00 0.00000E+00 0.00000E+00 0.00000E+00 0.00000E+00 0.00000E+00
 -1       847 0.00000E+00 0.00000E+00 0.00000E+00 0.00000E+00 0.00000E+00 0.00000E+00
 -1       848 0.00000E+00 0.00000E+00 0.00000E+00 0.00000E+00 0.00000E+00 0.00000E+00
 -1       849 0.00000E+00 0.00000E+00 0.00000E+00 0.00000E+00 0.00000E+00 0.00000E+00
 -1       850 0.00000E+00 0.00000E+00 0.00000E+00 0.00000E+00 0.00000E+00 0.00000E+00
 -1       851 0.00000E+00 0.00000E+00 0.00000E+00 0.00000E+00 0.00000E+00 0.00000E+00
 -1       852 0.00000E+00 0.00000E+00 0.00000E+00 0.00000E+00 0.00000E+00 0.00000E+00
 -1       853 0.00000E+00 0.00000E+00 0.00000E+00 0.00000E+00 0.00000E+00 0.00000E+00
 -1       854 0.00000E+00 0.00000E+00 0.00000E+00 0.00000E+00 0.00000E+00 0.00000E+00
 -1       855 0.00000E+00 0.00000E+00 0.00000E+00 0.00000E+00 0.00000E+00 0.00000E+00
 -1       856 0.00000E+00 0.00000E+00 0.00000E+00 0.00000E+00 0.00000E+00 0.00000E+00
 -1       857 0.00000E+00 0.00000E+00 0.00000E+00 0.00000E+00 0.00000E+00 0.00000E+00
 -1       858 0.00000E+00 0.00000E+00 0.00000E+00 0.00000E+00 0.00000E+00 0.00000E+00
 -1       859 0.00000E+00 0.00000E+00 0.00000E+00 0.00000E+00 0.00000E+00 0.00000E+00
 -1       860 0.00000E+00 0.00000E+00 0.00000E+00 0.00000E+00 0.00000E+00 0.00000E+00
 -1       861 0.00000E+00 0.00000E+00 0.00000E+00 0.00000E+00 0.00000E+00 0.00000E+00
 -1       862 0.00000E+00 0.00000E+00 0.00000E+00 0.00000E+00 0.00000E+00 0.00000E+00
 -1       863 0.00000E+00 0.00000E+00 0.00000E+00 0.00000E+00 0.00000E+00 0.00000E+00
 -1       864 0.00000E+00 0.00000E+00 0.00000E+00 0.00000E+00 0.00000E+00 0.00000E+00
 -1       865 0.00000E+00 0.00000E+00 0.00000E+00 0.00000E+00 0.00000E+00 0.00000E+00
 -1       866 0.00000E+00 0.00000E+00 0.00000E+00 0.00000E+00 0.00000E+00 0.00000E+00
 -1       867 0.00000E+00 0.00000E+00 0.00000E+00 0.00000E+00 0.00000E+00 0.00000E+00
 -1       868 0.00000E+00 0.00000E+00 0.00000E+00 0.00000E+00 0.00000E+00 0.00000E+00
 -1       869 0.00000E+00 0.00000E+00 0.00000E+00 0.00000E+00 0.00000E+00 0.00000E+00
 -1       870 0.00000E+00 0.00000E+00 0.00000E+00 0.00000E+00 0.00000E+00 0.00000E+00
 -1       871 0.00000E+00 0.00000E+00 0.00000E+00 0.00000E+00 0.00000E+00 0.00000E+00
 -1       872 0.00000E+00 0.00000E+00 0.00000E+00 0.00000E+00 0.00000E+00 0.00000E+00
 -1       873 0.00000E+00 0.00000E+00 0.00000E+00 0.00000E+00 0.00000E+00 0.00000E+00
 -1       874 0.00000E+00 0.00000E+00 0.00000E+00 0.00000E+00 0.00000E+00 0.00000E+00
 -1       875 0.00000E+00 0.00000E+00 0.00000E+00 0.00000E+00 0.00000E+00 0.00000E+00
 -1       876 0.00000E+00 0.00000E+00 0.00000E+00 0.00000E+00 0.00000E+00 0.00000E+00
 -1       877 0.00000E+00 0.00000E+00 0.00000E+00 0.00000E+00 0.00000E+00 0.00000E+00
 -1       878 0.00000E+00 0.00000E+00 0.00000E+00 0.00000E+00 0.00000E+00 0.00000E+00
 -1       879 0.00000E+00 0.00000E+00 0.00000E+00 0.00000E+00 0.00000E+00 0.00000E+00
 -1       880 0.00000E+00 0.00000E+00 0.00000E+00 0.00000E+00 0.00000E+00 0.00000E+00
 -1       881 0.00000E+00 0.00000E+00 0.00000E+00 0.00000E+00 0.00000E+00 0.00000E+00
 -1       882 0.00000E+00 0.00000E+00 0.00000E+00 0.00000E+00 0.00000E+00 0.00000E+00
 -1       883 0.00000E+00 0.00000E+00 0.00000E+00 0.00000E+00 0.00000E+00 0.00000E+00
 -1       884 0.00000E+00 0.00000E+00 0.00000E+00 0.00000E+00 0.00000E+00 0.00000E+00
 -1       885 0.00000E+00 0.00000E+00 0.00000E+00 0.00000E+00 0.00000E+00 0.00000E+00
 -1       886 0.00000E+00 0.00000E+00 0.00000E+00 0.00000E+00 0.00000E+00 0.00000E+00
 -1       887 0.00000E+00 0.00000E+00 0.00000E+00 0.00000E+00 0.00000E+00 0.00000E+00
 -1       888 0.00000E+00 0.00000E+00 0.00000E+00 0.00000E+00 0.00000E+00 0.00000E+00
 -1       889 0.00000E+00 0.00000E+00 0.00000E+00 0.00000E+00 0.00000E+00 0.00000E+00
 -1       890 0.00000E+00 0.00000E+00 0.00000E+00 0.00000E+00 0.00000E+00 0.00000E+00
 -1       891 0.00000E+00 0.00000E+00 0.00000E+00 0.00000E+00 0.00000E+00 0.00000E+00
 -1       892 0.00000E+00 0.00000E+00 0.00000E+00 0.00000E+00 0.00000E+00 0.00000E+00
 -1       893 0.00000E+00 0.00000E+00 0.00000E+00 0.00000E+00 0.00000E+00 0.00000E+00
 -1       894 0.00000E+00 0.00000E+00 0.00000E+00 0.00000E+00 0.00000E+00 0.00000E+00
 -1       895 0.00000E+00 0.00000E+00 0.00000E+00 0.00000E+00 0.00000E+00 0.00000E+00
 -1       896 0.00000E+00 0.00000E+00 0.00000E+00 0.00000E+00 0.00000E+00 0.00000E+00
 -1       897 0.00000E+00 0.00000E+00 0.00000E+00 0.00000E+00 0.00000E+00 0.00000E+00
 -1       898 0.00000E+00 0.00000E+00 0.00000E+00 0.00000E+00 0.00000E+00 0.00000E+00
 -1       899 0.00000E+00 0.00000E+00 0.00000E+00 0.00000E+00 0.00000E+00 0.00000E+00
 -1       900 0.00000E+00 0.00000E+00 0.00000E+00 0.00000E+00 0.00000E+00 0.00000E+00
 -1       901 0.00000E+00 0.00000E+00 0.00000E+00 0.00000E+00 0.00000E+00 0.00000E+00
 -1       902 0.00000E+00 0.00000E+00 0.00000E+00 0.00000E+00 0.00000E+00 0.00000E+00
 -1       903 0.00000E+00 0.00000E+00 0.00000E+00 0.00000E+00 0.00000E+00 0.00000E+00
 -1       904 0.00000E+00 0.00000E+00 0.00000E+00 0.00000E+00 0.00000E+00 0.00000E+00
 -1       905 0.00000E+00 0.00000E+00 0.00000E+00 0.00000E+00 0.00000E+00 0.00000E+00
 -1       906 0.00000E+00 0.00000E+00 0.00000E+00 0.00000E+00 0.00000E+00 0.00000E+00
 -1       907 0.00000E+00 0.00000E+00 0.00000E+00 0.00000E+00 0.00000E+00 0.00000E+00
 -1       908 0.00000E+00 0.00000E+00 0.00000E+00 0.00000E+00 0.00000E+00 0.00000E+00
 -1       909 0.00000E+00 0.00000E+00 0.00000E+00 0.00000E+00 0.00000E+00 0.00000E+00
 -1       910 0.00000E+00 0.00000E+00 0.00000E+00 0.00000E+00 0.00000E+00 0.00000E+00
 -1       911 0.00000E+00 0.00000E+00 0.00000E+00 0.00000E+00 0.00000E+00 0.00000E+00
 -1       912 0.00000E+00 0.00000E+00 0.00000E+00 0.00000E+00 0.00000E+00 0.00000E+00
 -1       913 0.00000E+00 0.00000E+00 0.00000E+00 0.00000E+00 0.00000E+00 0.00000E+00
 -1       914 0.00000E+00 0.00000E+00 0.00000E+00 0.00000E+00 0.00000E+00 0.00000E+00
 -1       915 0.00000E+00 0.00000E+00 0.00000E+00 0.00000E+00 0.00000E+00 0.00000E+00
 -1       916 0.00000E+00 0.00000E+00 0.00000E+00 0.00000E+00 0.00000E+00 0.00000E+00
 -1       917 0.00000E+00 0.00000E+00 0.00000E+00 0.00000E+00 0.00000E+00 0.00000E+00
 -1       918 0.00000E+00 0.00000E+00 0.00000E+00 0.00000E+00 0.00000E+00 0.00000E+00
 -1       919 0.00000E+00 0.00000E+00 0.00000E+00 0.00000E+00 0.00000E+00 0.00000E+00
 -1       920 0.00000E+00 0.00000E+00 0.00000E+00 0.00000E+00 0.00000E+00 0.00000E+00
 -1       921 0.00000E+00 0.00000E+00 0.00000E+00 0.00000E+00 0.00000E+00 0.00000E+00
 -1       922 0.00000E+00 0.00000E+00 0.00000E+00 0.00000E+00 0.00000E+00 0.00000E+00
 -1       923 0.00000E+00 0.00000E+00 0.00000E+00 0.00000E+00 0.00000E+00 0.00000E+00
 -1       924 0.00000E+00 0.00000E+00 0.00000E+00 0.00000E+00 0.00000E+00 0.00000E+00
 -1       925 0.00000E+00 0.00000E+00 0.00000E+00 0.00000E+00 0.00000E+00 0.00000E+00
 -1       926 0.00000E+00 0.00000E+00 0.00000E+00 0.00000E+00 0.00000E+00 0.00000E+00
 -1       927 0.00000E+00 0.00000E+00 0.00000E+00 0.00000E+00 0.00000E+00 0.00000E+00
 -1       928 0.00000E+00 0.00000E+00 0.00000E+00 0.00000E+00 0.00000E+00 0.00000E+00
 -1       929 0.00000E+00 0.00000E+00 0.00000E+00 0.00000E+00 0.00000E+00 0.00000E+00
 -1       930 0.00000E+00 0.00000E+00 0.00000E+00 0.00000E+00 0.00000E+00 0.00000E+00
 -1       931 0.00000E+00 0.00000E+00 0.00000E+00 0.00000E+00 0.00000E+00 0.00000E+00
 -1       932 0.00000E+00 0.00000E+00 0.00000E+00 0.00000E+00 0.00000E+00 0.00000E+00
 -1       933 0.00000E+00 0.00000E+00 0.00000E+00 0.00000E+00 0.00000E+00 0.00000E+00
 -1       934 0.00000E+00 0.00000E+00 0.00000E+00 0.00000E+00 0.00000E+00 0.00000E+00
 -1       935 0.00000E+00 0.00000E+00 0.00000E+00 0.00000E+00 0.00000E+00 0.00000E+00
 -1       936 0.00000E+00 0.00000E+00 0.00000E+00 0.00000E+00 0.00000E+00 0.00000E+00
 -1       937 0.00000E+00 0.00000E+00 0.00000E+00 0.00000E+00 0.00000E+00 0.00000E+00
 -1       938 0.00000E+00 0.00000E+00 0.00000E+00 0.00000E+00 0.00000E+00 0.00000E+00
 -1       939 0.00000E+00 0.00000E+00 0.00000E+00 0.00000E+00 0.00000E+00 0.00000E+00
 -1       940 0.00000E+00 0.00000E+00 0.00000E+00 0.00000E+00 0.00000E+00 0.00000E+00
 -1       941 0.00000E+00 0.00000E+00 0.00000E+00 0.00000E+00 0.00000E+00 0.00000E+00
 -1       942 0.00000E+00 0.00000E+00 0.00000E+00 0.00000E+00 0.00000E+00 0.00000E+00
 -1       943 0.00000E+00 0.00000E+00 0.00000E+00 0.00000E+00 0.00000E+00 0.00000E+00
 -1       944 0.00000E+00 0.00000E+00 0.00000E+00 0.00000E+00 0.00000E+00 0.00000E+00
 -1       945 0.00000E+00 0.00000E+00 0.00000E+00 0.00000E+00 0.00000E+00 0.00000E+00
 -1       946 0.00000E+00 0.00000E+00 0.00000E+00 0.00000E+00 0.00000E+00 0.00000E+00
 -1       947 0.00000E+00 0.00000E+00 0.00000E+00 0.00000E+00 0.00000E+00 0.00000E+00
 -1       948 0.00000E+00 0.00000E+00 0.00000E+00 0.00000E+00 0.00000E+00 0.00000E+00
 -1       949 0.00000E+00 0.00000E+00 0.00000E+00 0.00000E+00 0.00000E+00 0.00000E+00
 -1       950 0.00000E+00 0.00000E+00 0.00000E+00 0.00000E+00 0.00000E+00 0.00000E+00
 -1       951 0.00000E+00 0.00000E+00 0.00000E+00 0.00000E+00 0.00000E+00 0.00000E+00
 -1       952 0.00000E+00 0.00000E+00 0.00000E+00 0.00000E+00 0.00000E+00 0.00000E+00
 -1       953 0.00000E+00 0.00000E+00 0.00000E+00 0.00000E+00 0.00000E+00 0.00000E+00
 -1       954 0.00000E+00 0.00000E+00 0.00000E+00 0.00000E+00 0.00000E+00 0.00000E+00
 -1       955 0.00000E+00 0.00000E+00 0.00000E+00 0.00000E+00 0.00000E+00 0.00000E+00
 -1       956 0.00000E+00 0.00000E+00 0.00000E+00 0.00000E+00 0.00000E+00 0.00000E+00
 -1       957 0.00000E+00 0.00000E+00 0.00000E+00 0.00000E+00 0.00000E+00 0.00000E+00
 -1       958 0.00000E+00 0.00000E+00 0.00000E+00 0.00000E+00 0.00000E+00 0.00000E+00
 -1       959 0.00000E+00 0.00000E+00 0.00000E+00 0.00000E+00 0.00000E+00 0.00000E+00
 -1       960 0.00000E+00 0.00000E+00 0.00000E+00 0.00000E+00 0.00000E+00 0.00000E+00
 -1       961 0.00000E+00 0.00000E+00 0.00000E+00 0.00000E+00 0.00000E+00 0.00000E+00
 -1       962 0.00000E+00 0.00000E+00 0.00000E+00 0.00000E+00 0.00000E+00 0.00000E+00
 -1       963 0.00000E+00 0.00000E+00 0.00000E+00 0.00000E+00 0.00000E+00 0.00000E+00
 -1       964 0.00000E+00 0.00000E+00 0.00000E+00 0.00000E+00 0.00000E+00 0.00000E+00
 -1       965 0.00000E+00 0.00000E+00 0.00000E+00 0.00000E+00 0.00000E+00 0.00000E+00
 -1       966 0.00000E+00 0.00000E+00 0.00000E+00 0.00000E+00 0.00000E+00 0.00000E+00
 -1       967 0.00000E+00 0.00000E+00 0.00000E+00 0.00000E+00 0.00000E+00 0.00000E+00
 -1       968 0.00000E+00 0.00000E+00 0.00000E+00 0.00000E+00 0.00000E+00 0.00000E+00
 -1       969 0.00000E+00 0.00000E+00 0.00000E+00 0.00000E+00 0.00000E+00 0.00000E+00
 -1       970 0.00000E+00 0.00000E+00 0.00000E+00 0.00000E+00 0.00000E+00 0.00000E+00
 -1       971 0.00000E+00 0.00000E+00 0.00000E+00 0.00000E+00 0.00000E+00 0.00000E+00
 -1       972 0.00000E+00 0.00000E+00 0.00000E+00 0.00000E+00 0.00000E+00 0.00000E+00
 -1       973 0.00000E+00 0.00000E+00 0.00000E+00 0.00000E+00 0.00000E+00 0.00000E+00
 -1       974 0.00000E+00 0.00000E+00 0.00000E+00 0.00000E+00 0.00000E+00 0.00000E+00
 -1       975 0.00000E+00 0.00000E+00 0.00000E+00 0.00000E+00 0.00000E+00 0.00000E+00
 -1       976 0.00000E+00 0.00000E+00 0.00000E+00 0.00000E+00 0.00000E+00 0.00000E+00
 -1       977 0.00000E+00 0.00000E+00 0.00000E+00 0.00000E+00 0.00000E+00 0.00000E+00
 -1       978 0.00000E+00 0.00000E+00 0.00000E+00 0.00000E+00 0.00000E+00 0.00000E+00
 -1       979 0.00000E+00 0.00000E+00 0.00000E+00 0.00000E+00 0.00000E+00 0.00000E+00
 -1       980 0.00000E+00 0.00000E+00 0.00000E+00 0.00000E+00 0.00000E+00 0.00000E+00
 -1       981 0.00000E+00 0.00000E+00 0.00000E+00 0.00000E+00 0.00000E+00 0.00000E+00
 -1       982 0.00000E+00 0.00000E+00 0.00000E+00 0.00000E+00 0.00000E+00 0.00000E+00
 -1       983 0.00000E+00 0.00000E+00 0.00000E+00 0.00000E+00 0.00000E+00 0.00000E+00
 -1       984 0.00000E+00 0.00000E+00 0.00000E+00 0.00000E+00 0.00000E+00 0.00000E+00
 -1       985 0.00000E+00 0.00000E+00 0.00000E+00 0.00000E+00 0.00000E+00 0.00000E+00
 -1       986 0.00000E+00 0.00000E+00 0.00000E+00 0.00000E+00 0.00000E+00 0.00000E+00
 -1       987 0.00000E+00 0.00000E+00 0.00000E+00 0.00000E+00 0.00000E+00 0.00000E+00
 -1       988 0.00000E+00 0.00000E+00 0.00000E+00 0.00000E+00 0.00000E+00 0.00000E+00
 -1       989 0.00000E+00 0.00000E+00 0.00000E+00 0.00000E+00 0.00000E+00 0.00000E+00
 -1       990 0.00000E+00 0.00000E+00 0.00000E+00 0.00000E+00 0.00000E+00 0.00000E+00
 -1       991 0.00000E+00 0.00000E+00 0.00000E+00 0.00000E+00 0.00000E+00 0.00000E+00
 -1       992 0.00000E+00 0.00000E+00 0.00000E+00 0.00000E+00 0.00000E+00 0.00000E+00
 -1       993 0.00000E+00 0.00000E+00 0.00000E+00 0.00000E+00 0.00000E+00 0.00000E+00
 -1       994 0.00000E+00 0.00000E+00 0.00000E+00 0.00000E+00 0.00000E+00 0.00000E+00
 -1       995 0.00000E+00 0.00000E+00 0.00000E+00 0.00000E+00 0.00000E+00 0.00000E+00
 -1       996 0.00000E+00 0.00000E+00 0.00000E+00 0.00000E+00 0.00000E+00 0.00000E+00
 -1       997 0.00000E+00 0.00000E+00 0.00000E+00 0.00000E+00 0.00000E+00 0.00000E+00
 -1       998 0.00000E+00 0.00000E+00 0.00000E+00 0.00000E+00 0.00000E+00 0.00000E+00
 -1       999 0.00000E+00 0.00000E+00 0.00000E+00 0.00000E+00 0.00000E+00 0.00000E+00
 -1      1000 0.00000E+00 0.00000E+00 0.00000E+00 0.00000E+00 0.00000E+00 0.00000E+00
 -1      1001 0.00000E+00 0.00000E+00 0.00000E+00 0.00000E+00 0.00000E+00 0.00000E+00
 -1      1002 0.00000E+00 0.00000E+00 0.00000E+00 0.00000E+00 0.00000E+00 0.00000E+00
 -1      1003 0.00000E+00 0.00000E+00 0.00000E+00 0.00000E+00 0.00000E+00 0.00000E+00
 -1      1004 0.00000E+00 0.00000E+00 0.00000E+00 0.00000E+00 0.00000E+00 0.00000E+00
 -1      1005 0.00000E+00 0.00000E+00 0.00000E+00 0.00000E+00 0.00000E+00 0.00000E+00
 -1      1006 0.00000E+00 0.00000E+00 0.00000E+00 0.00000E+00 0.00000E+00 0.00000E+00
 -1      1007 0.00000E+00 0.00000E+00 0.00000E+00 0.00000E+00 0.00000E+00 0.00000E+00
 -1      1008 0.00000E+00 0.00000E+00 0.00000E+00 0.00000E+00 0.00000E+00 0.00000E+00
 -1      1009 0.00000E+00 0.00000E+00 0.00000E+00 0.00000E+00 0.00000E+00 0.00000E+00
 -1      1010 0.00000E+00 0.00000E+00 0.00000E+00 0.00000E+00 0.00000E+00 0.00000E+00
 -1      1011 0.00000E+00 0.00000E+00 0.00000E+00 0.00000E+00 0.00000E+00 0.00000E+00
 -1      1012 0.00000E+00 0.00000E+00 0.00000E+00 0.00000E+00 0.00000E+00 0.00000E+00
 -1      1013 0.00000E+00 0.00000E+00 0.00000E+00 0.00000E+00 0.00000E+00 0.00000E+00
 -1      1014 0.00000E+00 0.00000E+00 0.00000E+00 0.00000E+00 0.00000E+00 0.00000E+00
 -1      1015 0.00000E+00 0.00000E+00 0.00000E+00 0.00000E+00 0.00000E+00 0.00000E+00
 -1      1016 0.00000E+00 0.00000E+00 0.00000E+00 0.00000E+00 0.00000E+00 0.00000E+00
 -1      1017 0.00000E+00 0.00000E+00 0.00000E+00 0.00000E+00 0.00000E+00 0.00000E+00
 -1      1018 0.00000E+00 0.00000E+00 0.00000E+00 0.00000E+00 0.00000E+00 0.00000E+00
 -1      1019 0.00000E+00 0.00000E+00 0.00000E+00 0.00000E+00 0.00000E+00 0.00000E+00
 -1      1020 0.00000E+00 0.00000E+00 0.00000E+00 0.00000E+00 0.00000E+00 0.00000E+00
 -1      1021 0.00000E+00 0.00000E+00 0.00000E+00 0.00000E+00 0.00000E+00 0.00000E+00
 -1      1022 0.00000E+00 0.00000E+00 0.00000E+00 0.00000E+00 0.00000E+00 0.00000E+00
 -1      1023 0.00000E+00 0.00000E+00 0.00000E+00 0.00000E+00 0.00000E+00 0.00000E+00
 -1      1024 0.00000E+00 0.00000E+00 0.00000E+00 0.00000E+00 0.00000E+00 0.00000E+00
 -1      1025 0.00000E+00 0.00000E+00 0.00000E+00 0.00000E+00 0.00000E+00 0.00000E+00
 -1      1026 0.00000E+00 0.00000E+00 0.00000E+00 0.00000E+00 0.00000E+00 0.00000E+00
 -1      1027 0.00000E+00 0.00000E+00 0.00000E+00 0.00000E+00 0.00000E+00 0.00000E+00
 -1      1028 0.00000E+00 0.00000E+00 0.00000E+00 0.00000E+00 0.00000E+00 0.00000E+00
 -1      1029 0.00000E+00 0.00000E+00 0.00000E+00 0.00000E+00 0.00000E+00 0.00000E+00
 -1      1030 0.00000E+00 0.00000E+00 0.00000E+00 0.00000E+00 0.00000E+00 0.00000E+00
 -1      1031 0.00000E+00 0.00000E+00 0.00000E+00 0.00000E+00 0.00000E+00 0.00000E+00
 -1      1032 0.00000E+00 0.00000E+00 0.00000E+00 0.00000E+00 0.00000E+00 0.00000E+00
 -1      1033 0.00000E+00 0.00000E+00 0.00000E+00 0.00000E+00 0.00000E+00 0.00000E+00
 -1      1034 0.00000E+00 0.00000E+00 0.00000E+00 0.00000E+00 0.00000E+00 0.00000E+00
 -1      1035 0.00000E+00 0.00000E+00 0.00000E+00 0.00000E+00 0.00000E+00 0.00000E+00
 -1      1036 0.00000E+00 0.00000E+00 0.00000E+00 0.00000E+00 0.00000E+00 0.00000E+00
 -1      1037 0.00000E+00 0.00000E+00 0.00000E+00 0.00000E+00 0.00000E+00 0.00000E+00
 -1      1038 0.00000E+00 0.00000E+00 0.00000E+00 0.00000E+00 0.00000E+00 0.00000E+00
 -1      1039 0.00000E+00 0.00000E+00 0.00000E+00 0.00000E+00 0.00000E+00 0.00000E+00
 -1      1040 0.00000E+00 0.00000E+00 0.00000E+00 0.00000E+00 0.00000E+00 0.00000E+00
 -1      1041 0.00000E+00 0.00000E+00 0.00000E+00 0.00000E+00 0.00000E+00 0.00000E+00
 -1      1042 0.00000E+00 0.00000E+00 0.00000E+00 0.00000E+00 0.00000E+00 0.00000E+00
 -1      1043 0.00000E+00 0.00000E+00 0.00000E+00 0.00000E+00 0.00000E+00 0.00000E+00
 -1      1044 0.00000E+00 0.00000E+00 0.00000E+00 0.00000E+00 0.00000E+00 0.00000E+00
 -1      1045 0.00000E+00 0.00000E+00 0.00000E+00 0.00000E+00 0.00000E+00 0.00000E+00
 -1      1046 0.00000E+00 0.00000E+00 0.00000E+00 0.00000E+00 0.00000E+00 0.00000E+00
 -1      1047 0.00000E+00 0.00000E+00 0.00000E+00 0.00000E+00 0.00000E+00 0.00000E+00
 -1      1048 0.00000E+00 0.00000E+00 0.00000E+00 0.00000E+00 0.00000E+00 0.00000E+00
 -1      1049 0.00000E+00 0.00000E+00 0.00000E+00 0.00000E+00 0.00000E+00 0.00000E+00
 -1      1050 0.00000E+00 0.00000E+00 0.00000E+00 0.00000E+00 0.00000E+00 0.00000E+00
 -1      1051 0.00000E+00 0.00000E+00 0.00000E+00 0.00000E+00 0.00000E+00 0.00000E+00
 -1      1052 0.00000E+00 0.00000E+00 0.00000E+00 0.00000E+00 0.00000E+00 0.00000E+00
 -1      1053 0.00000E+00 0.00000E+00 0.00000E+00 0.00000E+00 0.00000E+00 0.00000E+00
 -1      1054 0.00000E+00 0.00000E+00 0.00000E+00 0.00000E+00 0.00000E+00 0.00000E+00
 -1      1055 0.00000E+00 0.00000E+00 0.00000E+00 0.00000E+00 0.00000E+00 0.00000E+00
 -1      1056 0.00000E+00 0.00000E+00 0.00000E+00 0.00000E+00 0.00000E+00 0.00000E+00
 -1      1057 0.00000E+00 0.00000E+00 0.00000E+00 0.00000E+00 0.00000E+00 0.00000E+00
 -1      1058 0.00000E+00 0.00000E+00 0.00000E+00 0.00000E+00 0.00000E+00 0.00000E+00
 -1      1059 0.00000E+00 0.00000E+00 0.00000E+00 0.00000E+00 0.00000E+00 0.00000E+00
 -1      1060 0.00000E+00 0.00000E+00 0.00000E+00 0.00000E+00 0.00000E+00 0.00000E+00
 -1      1061 0.00000E+00 0.00000E+00 0.00000E+00 0.00000E+00 0.00000E+00 0.00000E+00
 -1      1062 0.00000E+00 0.00000E+00 0.00000E+00 0.00000E+00 0.00000E+00 0.00000E+00
 -1      1063 0.00000E+00 0.00000E+00 0.00000E+00 0.00000E+00 0.00000E+00 0.00000E+00
 -1      1064 0.00000E+00 0.00000E+00 0.00000E+00 0.00000E+00 0.00000E+00 0.00000E+00
 -1      1065 0.00000E+00 0.00000E+00 0.00000E+00 0.00000E+00 0.00000E+00 0.00000E+00
 -1      1066 0.00000E+00 0.00000E+00 0.00000E+00 0.00000E+00 0.00000E+00 0.00000E+00
 -1      1067 0.00000E+00 0.00000E+00 0.00000E+00 0.00000E+00 0.00000E+00 0.00000E+00
 -1      1068 0.00000E+00 0.00000E+00 0.00000E+00 0.00000E+00 0.00000E+00 0.00000E+00
 -1      1069 0.00000E+00 0.00000E+00 0.00000E+00 0.00000E+00 0.00000E+00 0.00000E+00
 -1      1070 0.00000E+00 0.00000E+00 0.00000E+00 0.00000E+00 0.00000E+00 0.00000E+00
 -1      1071 0.00000E+00 0.00000E+00 0.00000E+00 0.00000E+00 0.00000E+00 0.00000E+00
 -1      1072 0.00000E+00 0.00000E+00 0.00000E+00 0.00000E+00 0.00000E+00 0.00000E+00
 -1      1073 0.00000E+00 0.00000E+00 0.00000E+00 0.00000E+00 0.00000E+00 0.00000E+00
 -1      1074 0.00000E+00 0.00000E+00 0.00000E+00 0.00000E+00 0.00000E+00 0.00000E+00
 -1      1075 0.00000E+00 0.00000E+00 0.00000E+00 0.00000E+00 0.00000E+00 0.00000E+00
 -1      1076 0.00000E+00 0.00000E+00 0.00000E+00 0.00000E+00 0.00000E+00 0.00000E+00
 -1      1077 0.00000E+00 0.00000E+00 0.00000E+00 0.00000E+00 0.00000E+00 0.00000E+00
 -1      1078 0.00000E+00 0.00000E+00 0.00000E+00 0.00000E+00 0.00000E+00 0.00000E+00
 -1      1079 0.00000E+00 0.00000E+00 0.00000E+00 0.00000E+00 0.00000E+00 0.00000E+00
 -1      1080 0.00000E+00 0.00000E+00 0.00000E+00 0.00000E+00 0.00000E+00 0.00000E+00
 -1      1081 0.00000E+00 0.00000E+00 0.00000E+00 0.00000E+00 0.00000E+00 0.00000E+00
 -1      1082 0.00000E+00 0.00000E+00 0.00000E+00 0.00000E+00 0.00000E+00 0.00000E+00
 -1      1083 0.00000E+00 0.00000E+00 0.00000E+00 0.00000E+00 0.00000E+00 0.00000E+00
 -1      1084 0.00000E+00 0.00000E+00 0.00000E+00 0.00000E+00 0.00000E+00 0.00000E+00
 -1      1085 0.00000E+00 0.00000E+00 0.00000E+00 0.00000E+00 0.00000E+00 0.00000E+00
 -1      1086 0.00000E+00 0.00000E+00 0.00000E+00 0.00000E+00 0.00000E+00 0.00000E+00
 -1      1087 0.00000E+00 0.00000E+00 0.00000E+00 0.00000E+00 0.00000E+00 0.00000E+00
 -1      1088 0.00000E+00 0.00000E+00 0.00000E+00 0.00000E+00 0.00000E+00 0.00000E+00
 -1      1089 0.00000E+00 0.00000E+00 0.00000E+00 0.00000E+00 0.00000E+00 0.00000E+00
 -1      1090 0.00000E+00 0.00000E+00 0.00000E+00 0.00000E+00 0.00000E+00 0.00000E+00
 -1      1091 0.00000E+00 0.00000E+00 0.00000E+00 0.00000E+00 0.00000E+00 0.00000E+00
 -1      1092 0.00000E+00 0.00000E+00 0.00000E+00 0.00000E+00 0.00000E+00 0.00000E+00
 -1      1093 0.00000E+00 0.00000E+00 0.00000E+00 0.00000E+00 0.00000E+00 0.00000E+00
 -1      1094 0.00000E+00 0.00000E+00 0.00000E+00 0.00000E+00 0.00000E+00 0.00000E+00
 -1      1095 0.00000E+00 0.00000E+00 0.00000E+00 0.00000E+00 0.00000E+00 0.00000E+00
 -1      1096 0.00000E+00 0.00000E+00 0.00000E+00 0.00000E+00 0.00000E+00 0.00000E+00
 -1      1097 0.00000E+00 0.00000E+00 0.00000E+00 0.00000E+00 0.00000E+00 0.00000E+00
 -1      1098 0.00000E+00 0.00000E+00 0.00000E+00 0.00000E+00 0.00000E+00 0.00000E+00
 -1      1099 0.00000E+00 0.00000E+00 0.00000E+00 0.00000E+00 0.00000E+00 0.00000E+00
 -1      1100 0.00000E+00 0.00000E+00 0.00000E+00 0.00000E+00 0.00000E+00 0.00000E+00
 -1      1101 0.00000E+00 0.00000E+00 0.00000E+00 0.00000E+00 0.00000E+00 0.00000E+00
 -1      1102 0.00000E+00 0.00000E+00 0.00000E+00 0.00000E+00 0.00000E+00 0.00000E+00
 -1      1103 0.00000E+00 0.00000E+00 0.00000E+00 0.00000E+00 0.00000E+00 0.00000E+00
 -1      1104 0.00000E+00 0.00000E+00 0.00000E+00 0.00000E+00 0.00000E+00 0.00000E+00
 -1      1105 0.00000E+00 0.00000E+00 0.00000E+00 0.00000E+00 0.00000E+00 0.00000E+00
 -1      1106 0.00000E+00 0.00000E+00 0.00000E+00 0.00000E+00 0.00000E+00 0.00000E+00
 -1      1107 0.00000E+00 0.00000E+00 0.00000E+00 0.00000E+00 0.00000E+00 0.00000E+00
 -1      1108 0.00000E+00 0.00000E+00 0.00000E+00 0.00000E+00 0.00000E+00 0.00000E+00
 -1      1109 0.00000E+00 0.00000E+00 0.00000E+00 0.00000E+00 0.00000E+00 0.00000E+00
 -1      1110 0.00000E+00 0.00000E+00 0.00000E+00 0.00000E+00 0.00000E+00 0.00000E+00
 -1      1111 0.00000E+00 0.00000E+00 0.00000E+00 0.00000E+00 0.00000E+00 0.00000E+00
 -1      1112 0.00000E+00 0.00000E+00 0.00000E+00 0.00000E+00 0.00000E+00 0.00000E+00
 -1      1113 0.00000E+00 0.00000E+00 0.00000E+00 0.00000E+00 0.00000E+00 0.00000E+00
 -1      1114 0.00000E+00 0.00000E+00 0.00000E+00 0.00000E+00 0.00000E+00 0.00000E+00
 -1      1115 0.00000E+00 0.00000E+00 0.00000E+00 0.00000E+00 0.00000E+00 0.00000E+00
 -1      1116 0.00000E+00 0.00000E+00 0.00000E+00 0.00000E+00 0.00000E+00 0.00000E+00
 -1      1117 0.00000E+00 0.00000E+00 0.00000E+00 0.00000E+00 0.00000E+00 0.00000E+00
 -1      1118 0.00000E+00 0.00000E+00 0.00000E+00 0.00000E+00 0.00000E+00 0.00000E+00
 -1      1119 0.00000E+00 0.00000E+00 0.00000E+00 0.00000E+00 0.00000E+00 0.00000E+00
 -1      1120 0.00000E+00 0.00000E+00 0.00000E+00 0.00000E+00 0.00000E+00 0.00000E+00
 -1      1121 0.00000E+00 0.00000E+00 0.00000E+00 0.00000E+00 0.00000E+00 0.00000E+00
 -1      1122 0.00000E+00 0.00000E+00 0.00000E+00 0.00000E+00 0.00000E+00 0.00000E+00
 -1      1123 0.00000E+00 0.00000E+00 0.00000E+00 0.00000E+00 0.00000E+00 0.00000E+00
 -1      1124 0.00000E+00 0.00000E+00 0.00000E+00 0.00000E+00 0.00000E+00 0.00000E+00
 -1      1125 0.00000E+00 0.00000E+00 0.00000E+00 0.00000E+00 0.00000E+00 0.00000E+00
 -1      1126 0.00000E+00 0.00000E+00 0.00000E+00 0.00000E+00 0.00000E+00 0.00000E+00
 -1      1127 0.00000E+00 0.00000E+00 0.00000E+00 0.00000E+00 0.00000E+00 0.00000E+00
 -1      1128 0.00000E+00 0.00000E+00 0.00000E+00 0.00000E+00 0.00000E+00 0.00000E+00
 -1      1129 0.00000E+00 0.00000E+00 0.00000E+00 0.00000E+00 0.00000E+00 0.00000E+00
 -1      1130 0.00000E+00 0.00000E+00 0.00000E+00 0.00000E+00 0.00000E+00 0.00000E+00
 -1      1131 0.00000E+00 0.00000E+00 0.00000E+00 0.00000E+00 0.00000E+00 0.00000E+00
 -1      1132 0.00000E+00 0.00000E+00 0.00000E+00 0.00000E+00 0.00000E+00 0.00000E+00
 -1      1133 0.00000E+00 0.00000E+00 0.00000E+00 0.00000E+00 0.00000E+00 0.00000E+00
 -1      1134 0.00000E+00 0.00000E+00 0.00000E+00 0.00000E+00 0.00000E+00 0.00000E+00
 -1      1135 0.00000E+00 0.00000E+00 0.00000E+00 0.00000E+00 0.00000E+00 0.00000E+00
 -1      1136 0.00000E+00 0.00000E+00 0.00000E+00 0.00000E+00 0.00000E+00 0.00000E+00
 -1      1137 0.00000E+00 0.00000E+00 0.00000E+00 0.00000E+00 0.00000E+00 0.00000E+00
 -1      1138 0.00000E+00 0.00000E+00 0.00000E+00 0.00000E+00 0.00000E+00 0.00000E+00
 -1      1139 0.00000E+00 0.00000E+00 0.00000E+00 0.00000E+00 0.00000E+00 0.00000E+00
 -1      1140 0.00000E+00 0.00000E+00 0.00000E+00 0.00000E+00 0.00000E+00 0.00000E+00
 -1      1141 0.00000E+00 0.00000E+00 0.00000E+00 0.00000E+00 0.00000E+00 0.00000E+00
 -1      1142 0.00000E+00 0.00000E+00 0.00000E+00 0.00000E+00 0.00000E+00 0.00000E+00
 -1      1143 0.00000E+00 0.00000E+00 0.00000E+00 0.00000E+00 0.00000E+00 0.00000E+00
 -1      1144 0.00000E+00 0.00000E+00 0.00000E+00 0.00000E+00 0.00000E+00 0.00000E+00
 -1      1145 0.00000E+00 0.00000E+00 0.00000E+00 0.00000E+00 0.00000E+00 0.00000E+00
 -1      1146 0.00000E+00 0.00000E+00 0.00000E+00 0.00000E+00 0.00000E+00 0.00000E+00
 -1      1147 0.00000E+00 0.00000E+00 0.00000E+00 0.00000E+00 0.00000E+00 0.00000E+00
 -1      1148 0.00000E+00 0.00000E+00 0.00000E+00 0.00000E+00 0.00000E+00 0.00000E+00
 -1      1149 0.00000E+00 0.00000E+00 0.00000E+00 0.00000E+00 0.00000E+00 0.00000E+00
 -1      1150 0.00000E+00 0.00000E+00 0.00000E+00 0.00000E+00 0.00000E+00 0.00000E+00
 -1      1151 0.00000E+00 0.00000E+00 0.00000E+00 0.00000E+00 0.00000E+00 0.00000E+00
 -1      1152 0.00000E+00 0.00000E+00 0.00000E+00 0.00000E+00 0.00000E+00 0.00000E+00
 -1      1153 0.00000E+00 0.00000E+00 0.00000E+00 0.00000E+00 0.00000E+00 0.00000E+00
 -1      1154 0.00000E+00 0.00000E+00 0.00000E+00 0.00000E+00 0.00000E+00 0.00000E+00
 -1      1155 0.00000E+00 0.00000E+00 0.00000E+00 0.00000E+00 0.00000E+00 0.00000E+00
 -1      1156 0.00000E+00 0.00000E+00 0.00000E+00 0.00000E+00 0.00000E+00 0.00000E+00
 -1      1157 0.00000E+00 0.00000E+00 0.00000E+00 0.00000E+00 0.00000E+00 0.00000E+00
 -1      1158 0.00000E+00 0.00000E+00 0.00000E+00 0.00000E+00 0.00000E+00 0.00000E+00
 -1      1159 0.00000E+00 0.00000E+00 0.00000E+00 0.00000E+00 0.00000E+00 0.00000E+00
 -1      1160 0.00000E+00 0.00000E+00 0.00000E+00 0.00000E+00 0.00000E+00 0.00000E+00
 -1      1161 0.00000E+00 0.00000E+00 0.00000E+00 0.00000E+00 0.00000E+00 0.00000E+00
 -1      1162 0.00000E+00 0.00000E+00 0.00000E+00 0.00000E+00 0.00000E+00 0.00000E+00
 -1      1163 0.00000E+00 0.00000E+00 0.00000E+00 0.00000E+00 0.00000E+00 0.00000E+00
 -1      1164 0.00000E+00 0.00000E+00 0.00000E+00 0.00000E+00 0.00000E+00 0.00000E+00
 -1      1165 0.00000E+00 0.00000E+00 0.00000E+00 0.00000E+00 0.00000E+00 0.00000E+00
 -1      1166 0.00000E+00 0.00000E+00 0.00000E+00 0.00000E+00 0.00000E+00 0.00000E+00
 -1      1167 0.00000E+00 0.00000E+00 0.00000E+00 0.00000E+00 0.00000E+00 0.00000E+00
 -1      1168 0.00000E+00 0.00000E+00 0.00000E+00 0.00000E+00 0.00000E+00 0.00000E+00
 -1      1169 0.00000E+00 0.00000E+00 0.00000E+00 0.00000E+00 0.00000E+00 0.00000E+00
 -1      1170 0.00000E+00 0.00000E+00 0.00000E+00 0.00000E+00 0.00000E+00 0.00000E+00
 -1      1171 0.00000E+00 0.00000E+00 0.00000E+00 0.00000E+00 0.00000E+00 0.00000E+00
 -1      1172 0.00000E+00 0.00000E+00 0.00000E+00 0.00000E+00 0.00000E+00 0.00000E+00
 -1      1173 0.00000E+00 0.00000E+00 0.00000E+00 0.00000E+00 0.00000E+00 0.00000E+00
 -1      1174 0.00000E+00 0.00000E+00 0.00000E+00 0.00000E+00 0.00000E+00 0.00000E+00
 -1      1175 0.00000E+00 0.00000E+00 0.00000E+00 0.00000E+00 0.00000E+00 0.00000E+00
 -1      1176 0.00000E+00 0.00000E+00 0.00000E+00 0.00000E+00 0.00000E+00 0.00000E+00
 -1      1177 0.00000E+00 0.00000E+00 0.00000E+00 0.00000E+00 0.00000E+00 0.00000E+00
 -1      1178 0.00000E+00 0.00000E+00 0.00000E+00 0.00000E+00 0.00000E+00 0.00000E+00
 -1      1179 0.00000E+00 0.00000E+00 0.00000E+00 0.00000E+00 0.00000E+00 0.00000E+00
 -1      1180 0.00000E+00 0.00000E+00 0.00000E+00 0.00000E+00 0.00000E+00 0.00000E+00
 -1      1181 0.00000E+00 0.00000E+00 0.00000E+00 0.00000E+00 0.00000E+00 0.00000E+00
 -1      1182 0.00000E+00 0.00000E+00 0.00000E+00 0.00000E+00 0.00000E+00 0.00000E+00
 -1      1183 0.00000E+00 0.00000E+00 0.00000E+00 0.00000E+00 0.00000E+00 0.00000E+00
 -1      1184 0.00000E+00 0.00000E+00 0.00000E+00 0.00000E+00 0.00000E+00 0.00000E+00
 -1      1185 0.00000E+00 0.00000E+00 0.00000E+00 0.00000E+00 0.00000E+00 0.00000E+00
 -1      1186 0.00000E+00 0.00000E+00 0.00000E+00 0.00000E+00 0.00000E+00 0.00000E+00
 -1      1187 0.00000E+00 0.00000E+00 0.00000E+00 0.00000E+00 0.00000E+00 0.00000E+00
 -1      1188 0.00000E+00 0.00000E+00 0.00000E+00 0.00000E+00 0.00000E+00 0.00000E+00
 -1      1189 0.00000E+00 0.00000E+00 0.00000E+00 0.00000E+00 0.00000E+00 0.00000E+00
 -1      1190 0.00000E+00 0.00000E+00 0.00000E+00 0.00000E+00 0.00000E+00 0.00000E+00
 -1      1191 0.00000E+00 0.00000E+00 0.00000E+00 0.00000E+00 0.00000E+00 0.00000E+00
 -1      1192 0.00000E+00 0.00000E+00 0.00000E+00 0.00000E+00 0.00000E+00 0.00000E+00
 -1      1193 0.00000E+00 0.00000E+00 0.00000E+00 0.00000E+00 0.00000E+00 0.00000E+00
 -1      1194 0.00000E+00 0.00000E+00 0.00000E+00 0.00000E+00 0.00000E+00 0.00000E+00
 -1      1195 0.00000E+00 0.00000E+00 0.00000E+00 0.00000E+00 0.00000E+00 0.00000E+00
 -1      1196 0.00000E+00 0.00000E+00 0.00000E+00 0.00000E+00 0.00000E+00 0.00000E+00
 -1      1197 0.00000E+00 0.00000E+00 0.00000E+00 0.00000E+00 0.00000E+00 0.00000E+00
 -1      1198 0.00000E+00 0.00000E+00 0.00000E+00 0.00000E+00 0.00000E+00 0.00000E+00
 -1      1199 0.00000E+00 0.00000E+00 0.00000E+00 0.00000E+00 0.00000E+00 0.00000E+00
 -1      1200 0.00000E+00 0.00000E+00 0.00000E+00 0.00000E+00 0.00000E+00 0.00000E+00
 -1      1201 0.00000E+00 0.00000E+00 0.00000E+00 0.00000E+00 0.00000E+00 0.00000E+00
 -1      1202 0.00000E+00 0.00000E+00 0.00000E+00 0.00000E+00 0.00000E+00 0.00000E+00
 -1      1203 0.00000E+00 0.00000E+00 0.00000E+00 0.00000E+00 0.00000E+00 0.00000E+00
 -1      1204 0.00000E+00 0.00000E+00 0.00000E+00 0.00000E+00 0.00000E+00 0.00000E+00
 -1      1205 0.00000E+00 0.00000E+00 0.00000E+00 0.00000E+00 0.00000E+00 0.00000E+00
 -1      1206 0.00000E+00 0.00000E+00 0.00000E+00 0.00000E+00 0.00000E+00 0.00000E+00
 -1      1207 0.00000E+00 0.00000E+00 0.00000E+00 0.00000E+00 0.00000E+00 0.00000E+00
 -1      1208 0.00000E+00 0.00000E+00 0.00000E+00 0.00000E+00 0.00000E+00 0.00000E+00
 -1      1209 0.00000E+00 0.00000E+00 0.00000E+00 0.00000E+00 0.00000E+00 0.00000E+00
 -1      1210 0.00000E+00 0.00000E+00 0.00000E+00 0.00000E+00 0.00000E+00 0.00000E+00
 -1      1211 0.00000E+00 0.00000E+00 0.00000E+00 0.00000E+00 0.00000E+00 0.00000E+00
 -1      1212 0.00000E+00 0.00000E+00 0.00000E+00 0.00000E+00 0.00000E+00 0.00000E+00
 -1      1213 0.00000E+00 0.00000E+00 0.00000E+00 0.00000E+00 0.00000E+00 0.00000E+00
 -1      1214 0.00000E+00 0.00000E+00 0.00000E+00 0.00000E+00 0.00000E+00 0.00000E+00
 -1      1215 0.00000E+00 0.00000E+00 0.00000E+00 0.00000E+00 0.00000E+00 0.00000E+00
 -1      1216 0.00000E+00 0.00000E+00 0.00000E+00 0.00000E+00 0.00000E+00 0.00000E+00
 -1      1217 0.00000E+00 0.00000E+00 0.00000E+00 0.00000E+00 0.00000E+00 0.00000E+00
 -1      1218 0.00000E+00 0.00000E+00 0.00000E+00 0.00000E+00 0.00000E+00 0.00000E+00
 -1      1219 0.00000E+00 0.00000E+00 0.00000E+00 0.00000E+00 0.00000E+00 0.00000E+00
 -1      1220 0.00000E+00 0.00000E+00 0.00000E+00 0.00000E+00 0.00000E+00 0.00000E+00
 -1      1221 0.00000E+00 0.00000E+00 0.00000E+00 0.00000E+00 0.00000E+00 0.00000E+00
 -1      1222 0.00000E+00 0.00000E+00 0.00000E+00 0.00000E+00 0.00000E+00 0.00000E+00
 -1      1223 0.00000E+00 0.00000E+00 0.00000E+00 0.00000E+00 0.00000E+00 0.00000E+00
 -1      1224 0.00000E+00 0.00000E+00 0.00000E+00 0.00000E+00 0.00000E+00 0.00000E+00
 -1      1225 0.00000E+00 0.00000E+00 0.00000E+00 0.00000E+00 0.00000E+00 0.00000E+00
 -1      1226 0.00000E+00 0.00000E+00 0.00000E+00 0.00000E+00 0.00000E+00 0.00000E+00
 -1      1227 0.00000E+00 0.00000E+00 0.00000E+00 0.00000E+00 0.00000E+00 0.00000E+00
 -1      1228 0.00000E+00 0.00000E+00 0.00000E+00 0.00000E+00 0.00000E+00 0.00000E+00
 -1      1229 0.00000E+00 0.00000E+00 0.00000E+00 0.00000E+00 0.00000E+00 0.00000E+00
 -1      1230 0.00000E+00 0.00000E+00 0.00000E+00 0.00000E+00 0.00000E+00 0.00000E+00
 -1      1231 0.00000E+00 0.00000E+00 0.00000E+00 0.00000E+00 0.00000E+00 0.00000E+00
 -1      1232 0.00000E+00 0.00000E+00 0.00000E+00 0.00000E+00 0.00000E+00 0.00000E+00
 -1      1233 0.00000E+00 0.00000E+00 0.00000E+00 0.00000E+00 0.00000E+00 0.00000E+00
 -1      1234 0.00000E+00 0.00000E+00 0.00000E+00 0.00000E+00 0.00000E+00 0.00000E+00
 -1      1235 0.00000E+00 0.00000E+00 0.00000E+00 0.00000E+00 0.00000E+00 0.00000E+00
 -1      1236 0.00000E+00 0.00000E+00 0.00000E+00 0.00000E+00 0.00000E+00 0.00000E+00
 -1      1237 0.00000E+00 0.00000E+00 0.00000E+00 0.00000E+00 0.00000E+00 0.00000E+00
 -1      1238 0.00000E+00 0.00000E+00 0.00000E+00 0.00000E+00 0.00000E+00 0.00000E+00
 -1      1239 0.00000E+00 0.00000E+00 0.00000E+00 0.00000E+00 0.00000E+00 0.00000E+00
 -1      1240 0.00000E+00 0.00000E+00 0.00000E+00 0.00000E+00 0.00000E+00 0.00000E+00
 -1      1241 0.00000E+00 0.00000E+00 0.00000E+00 0.00000E+00 0.00000E+00 0.00000E+00
 -1      1242 0.00000E+00 0.00000E+00 0.00000E+00 0.00000E+00 0.00000E+00 0.00000E+00
 -1      1243 0.00000E+00 0.00000E+00 0.00000E+00 0.00000E+00 0.00000E+00 0.00000E+00
 -1      1244 0.00000E+00 0.00000E+00 0.00000E+00 0.00000E+00 0.00000E+00 0.00000E+00
 -1      1245 0.00000E+00 0.00000E+00 0.00000E+00 0.00000E+00 0.00000E+00 0.00000E+00
 -1      1246 0.00000E+00 0.00000E+00 0.00000E+00 0.00000E+00 0.00000E+00 0.00000E+00
 -1      1247 0.00000E+00 0.00000E+00 0.00000E+00 0.00000E+00 0.00000E+00 0.00000E+00
 -1      1248 0.00000E+00 0.00000E+00 0.00000E+00 0.00000E+00 0.00000E+00 0.00000E+00
 -1      1249 0.00000E+00 0.00000E+00 0.00000E+00 0.00000E+00 0.00000E+00 0.00000E+00
 -1      1250 0.00000E+00 0.00000E+00 0.00000E+00 0.00000E+00 0.00000E+00 0.00000E+00
 -1      1251 0.00000E+00 0.00000E+00 0.00000E+00 0.00000E+00 0.00000E+00 0.00000E+00
 -1      1252 0.00000E+00 0.00000E+00 0.00000E+00 0.00000E+00 0.00000E+00 0.00000E+00
 -1      1253 0.00000E+00 0.00000E+00 0.00000E+00 0.00000E+00 0.00000E+00 0.00000E+00
 -1      1254 0.00000E+00 0.00000E+00 0.00000E+00 0.00000E+00 0.00000E+00 0.00000E+00
 -1      1255 0.00000E+00 0.00000E+00 0.00000E+00 0.00000E+00 0.00000E+00 0.00000E+00
 -1      1256 0.00000E+00 0.00000E+00 0.00000E+00 0.00000E+00 0.00000E+00 0.00000E+00
 -1      1257 0.00000E+00 0.00000E+00 0.00000E+00 0.00000E+00 0.00000E+00 0.00000E+00
 -1      1258 0.00000E+00 0.00000E+00 0.00000E+00 0.00000E+00 0.00000E+00 0.00000E+00
 -1      1259 0.00000E+00 0.00000E+00 0.00000E+00 0.00000E+00 0.00000E+00 0.00000E+00
 -1      1260 0.00000E+00 0.00000E+00 0.00000E+00 0.00000E+00 0.00000E+00 0.00000E+00
 -1      1261 0.00000E+00 0.00000E+00 0.00000E+00 0.00000E+00 0.00000E+00 0.00000E+00
 -1      1262 0.00000E+00 0.00000E+00 0.00000E+00 0.00000E+00 0.00000E+00 0.00000E+00
 -1      1263 0.00000E+00 0.00000E+00 0.00000E+00 0.00000E+00 0.00000E+00 0.00000E+00
 -1      1264 0.00000E+00 0.00000E+00 0.00000E+00 0.00000E+00 0.00000E+00 0.00000E+00
 -1      1265 0.00000E+00 0.00000E+00 0.00000E+00 0.00000E+00 0.00000E+00 0.00000E+00
 -1      1266 0.00000E+00 0.00000E+00 0.00000E+00 0.00000E+00 0.00000E+00 0.00000E+00
 -1      1267 0.00000E+00 0.00000E+00 0.00000E+00 0.00000E+00 0.00000E+00 0.00000E+00
 -1      1268 0.00000E+00 0.00000E+00 0.00000E+00 0.00000E+00 0.00000E+00 0.00000E+00
 -1      1269 0.00000E+00 0.00000E+00 0.00000E+00 0.00000E+00 0.00000E+00 0.00000E+00
 -1      1270 0.00000E+00 0.00000E+00 0.00000E+00 0.00000E+00 0.00000E+00 0.00000E+00
 -1      1271 0.00000E+00 0.00000E+00 0.00000E+00 0.00000E+00 0.00000E+00 0.00000E+00
 -1      1272 0.00000E+00 0.00000E+00 0.00000E+00 0.00000E+00 0.00000E+00 0.00000E+00
 -1      1273 0.00000E+00 0.00000E+00 0.00000E+00 0.00000E+00 0.00000E+00 0.00000E+00
 -1      1274 0.00000E+00 0.00000E+00 0.00000E+00 0.00000E+00 0.00000E+00 0.00000E+00
 -1      1275 0.00000E+00 0.00000E+00 0.00000E+00 0.00000E+00 0.00000E+00 0.00000E+00
 -1      1276 0.00000E+00 0.00000E+00 0.00000E+00 0.00000E+00 0.00000E+00 0.00000E+00
 -1      1277 0.00000E+00 0.00000E+00 0.00000E+00 0.00000E+00 0.00000E+00 0.00000E+00
 -1      1278 0.00000E+00 0.00000E+00 0.00000E+00 0.00000E+00 0.00000E+00 0.00000E+00
 -1      1279 0.00000E+00 0.00000E+00 0.00000E+00 0.00000E+00 0.00000E+00 0.00000E+00
 -1      1280 0.00000E+00 0.00000E+00 0.00000E+00 0.00000E+00 0.00000E+00 0.00000E+00
 -1      1281 0.00000E+00 0.00000E+00 0.00000E+00 0.00000E+00 0.00000E+00 0.00000E+00
 -1      1282 0.00000E+00 0.00000E+00 0.00000E+00 0.00000E+00 0.00000E+00 0.00000E+00
 -1      1283 0.00000E+00 0.00000E+00 0.00000E+00 0.00000E+00 0.00000E+00 0.00000E+00
 -1      1284 0.00000E+00 0.00000E+00 0.00000E+00 0.00000E+00 0.00000E+00 0.00000E+00
 -1      1285 0.00000E+00 0.00000E+00 0.00000E+00 0.00000E+00 0.00000E+00 0.00000E+00
 -1      1286 0.00000E+00 0.00000E+00 0.00000E+00 0.00000E+00 0.00000E+00 0.00000E+00
 -1      1287 0.00000E+00 0.00000E+00 0.00000E+00 0.00000E+00 0.00000E+00 0.00000E+00
 -1      1288 0.00000E+00 0.00000E+00 0.00000E+00 0.00000E+00 0.00000E+00 0.00000E+00
 -1      1289 0.00000E+00 0.00000E+00 0.00000E+00 0.00000E+00 0.00000E+00 0.00000E+00
 -1      1290 0.00000E+00 0.00000E+00 0.00000E+00 0.00000E+00 0.00000E+00 0.00000E+00
 -1      1291 0.00000E+00 0.00000E+00 0.00000E+00 0.00000E+00 0.00000E+00 0.00000E+00
 -1      1292 0.00000E+00 0.00000E+00 0.00000E+00 0.00000E+00 0.00000E+00 0.00000E+00
 -1      1293 0.00000E+00 0.00000E+00 0.00000E+00 0.00000E+00 0.00000E+00 0.00000E+00
 -1      1294 0.00000E+00 0.00000E+00 0.00000E+00 0.00000E+00 0.00000E+00 0.00000E+00
 -1      1295 0.00000E+00 0.00000E+00 0.00000E+00 0.00000E+00 0.00000E+00 0.00000E+00
 -1      1296 0.00000E+00 0.00000E+00 0.00000E+00 0.00000E+00 0.00000E+00 0.00000E+00
 -1      1297 0.00000E+00 0.00000E+00 0.00000E+00 0.00000E+00 0.00000E+00 0.00000E+00
 -1      1298 0.00000E+00 0.00000E+00 0.00000E+00 0.00000E+00 0.00000E+00 0.00000E+00
 -1      1299 0.00000E+00 0.00000E+00 0.00000E+00 0.00000E+00 0.00000E+00 0.00000E+00
 -1      1300 0.00000E+00 0.00000E+00 0.00000E+00 0.00000E+00 0.00000E+00 0.00000E+00
 -1      1301 0.00000E+00 0.00000E+00 0.00000E+00 0.00000E+00 0.00000E+00 0.00000E+00
 -1      1302 0.00000E+00 0.00000E+00 0.00000E+00 0.00000E+00 0.00000E+00 0.00000E+00
 -1      1303 0.00000E+00 0.00000E+00 0.00000E+00 0.00000E+00 0.00000E+00 0.00000E+00
 -1      1304 0.00000E+00 0.00000E+00 0.00000E+00 0.00000E+00 0.00000E+00 0.00000E+00
 -1      1305 0.00000E+00 0.00000E+00 0.00000E+00 0.00000E+00 0.00000E+00 0.00000E+00
 -1      1306 0.00000E+00 0.00000E+00 0.00000E+00 0.00000E+00 0.00000E+00 0.00000E+00
 -1      1307 0.00000E+00 0.00000E+00 0.00000E+00 0.00000E+00 0.00000E+00 0.00000E+00
 -1      1308 0.00000E+00 0.00000E+00 0.00000E+00 0.00000E+00 0.00000E+00 0.00000E+00
 -1      1309 0.00000E+00 0.00000E+00 0.00000E+00 0.00000E+00 0.00000E+00 0.00000E+00
 -1      1310 0.00000E+00 0.00000E+00 0.00000E+00 0.00000E+00 0.00000E+00 0.00000E+00
 -1      1311 0.00000E+00 0.00000E+00 0.00000E+00 0.00000E+00 0.00000E+00 0.00000E+00
 -1      1312 0.00000E+00 0.00000E+00 0.00000E+00 0.00000E+00 0.00000E+00 0.00000E+00
 -1      1313 0.00000E+00 0.00000E+00 0.00000E+00 0.00000E+00 0.00000E+00 0.00000E+00
 -1      1314 0.00000E+00 0.00000E+00 0.00000E+00 0.00000E+00 0.00000E+00 0.00000E+00
 -1      1315 0.00000E+00 0.00000E+00 0.00000E+00 0.00000E+00 0.00000E+00 0.00000E+00
 -1      1316 0.00000E+00 0.00000E+00 0.00000E+00 0.00000E+00 0.00000E+00 0.00000E+00
 -1      1317 0.00000E+00 0.00000E+00 0.00000E+00 0.00000E+00 0.00000E+00 0.00000E+00
 -1      1318 0.00000E+00 0.00000E+00 0.00000E+00 0.00000E+00 0.00000E+00 0.00000E+00
 -1      1319 0.00000E+00 0.00000E+00 0.00000E+00 0.00000E+00 0.00000E+00 0.00000E+00
 -1      1320 0.00000E+00 0.00000E+00 0.00000E+00 0.00000E+00 0.00000E+00 0.00000E+00
 -1      1321 0.00000E+00 0.00000E+00 0.00000E+00 0.00000E+00 0.00000E+00 0.00000E+00
 -1      1322 0.00000E+00 0.00000E+00 0.00000E+00 0.00000E+00 0.00000E+00 0.00000E+00
 -1      1323 0.00000E+00 0.00000E+00 0.00000E+00 0.00000E+00 0.00000E+00 0.00000E+00
 -1      1324 0.00000E+00 0.00000E+00 0.00000E+00 0.00000E+00 0.00000E+00 0.00000E+00
 -1      1325 0.00000E+00 0.00000E+00 0.00000E+00 0.00000E+00 0.00000E+00 0.00000E+00
 -1      1326 0.00000E+00 0.00000E+00 0.00000E+00 0.00000E+00 0.00000E+00 0.00000E+00
 -1      1327 0.00000E+00 0.00000E+00 0.00000E+00 0.00000E+00 0.00000E+00 0.00000E+00
 -1      1328 0.00000E+00 0.00000E+00 0.00000E+00 0.00000E+00 0.00000E+00 0.00000E+00
 -1      1329 0.00000E+00 0.00000E+00 0.00000E+00 0.00000E+00 0.00000E+00 0.00000E+00
 -1      1330 0.00000E+00 0.00000E+00 0.00000E+00 0.00000E+00 0.00000E+00 0.00000E+00
 -1      1331 0.00000E+00 0.00000E+00 0.00000E+00 0.00000E+00 0.00000E+00 0.00000E+00
 -1      1332 0.00000E+00 0.00000E+00 0.00000E+00 0.00000E+00 0.00000E+00 0.00000E+00
 -1      1333 0.00000E+00 0.00000E+00 0.00000E+00 0.00000E+00 0.00000E+00 0.00000E+00
 -1      1334 0.00000E+00 0.00000E+00 0.00000E+00 0.00000E+00 0.00000E+00 0.00000E+00
 -1      1335 0.00000E+00 0.00000E+00 0.00000E+00 0.00000E+00 0.00000E+00 0.00000E+00
 -1      1336 0.00000E+00 0.00000E+00 0.00000E+00 0.00000E+00 0.00000E+00 0.00000E+00
 -1      1337 0.00000E+00 0.00000E+00 0.00000E+00 0.00000E+00 0.00000E+00 0.00000E+00
 -1      1338 0.00000E+00 0.00000E+00 0.00000E+00 0.00000E+00 0.00000E+00 0.00000E+00
 -1      1339 0.00000E+00 0.00000E+00 0.00000E+00 0.00000E+00 0.00000E+00 0.00000E+00
 -1      1340 0.00000E+00 0.00000E+00 0.00000E+00 0.00000E+00 0.00000E+00 0.00000E+00
 -1      1341 0.00000E+00 0.00000E+00 0.00000E+00 0.00000E+00 0.00000E+00 0.00000E+00
 -1      1342 0.00000E+00 0.00000E+00 0.00000E+00 0.00000E+00 0.00000E+00 0.00000E+00
 -1      1343 0.00000E+00 0.00000E+00 0.00000E+00 0.00000E+00 0.00000E+00 0.00000E+00
 -1      1344 0.00000E+00 0.00000E+00 0.00000E+00 0.00000E+00 0.00000E+00 0.00000E+00
 -1      1345 0.00000E+00 0.00000E+00 0.00000E+00 0.00000E+00 0.00000E+00 0.00000E+00
 -1      1346 0.00000E+00 0.00000E+00 0.00000E+00 0.00000E+00 0.00000E+00 0.00000E+00
 -1      1347 0.00000E+00 0.00000E+00 0.00000E+00 0.00000E+00 0.00000E+00 0.00000E+00
 -1      1348 0.00000E+00 0.00000E+00 0.00000E+00 0.00000E+00 0.00000E+00 0.00000E+00
 -1      1349 0.00000E+00 0.00000E+00 0.00000E+00 0.00000E+00 0.00000E+00 0.00000E+00
 -1      1350 0.00000E+00 0.00000E+00 0.00000E+00 0.00000E+00 0.00000E+00 0.00000E+00
 -1      1351 0.00000E+00 0.00000E+00 0.00000E+00 0.00000E+00 0.00000E+00 0.00000E+00
 -1      1352 0.00000E+00 0.00000E+00 0.00000E+00 0.00000E+00 0.00000E+00 0.00000E+00
 -1      1353 0.00000E+00 0.00000E+00 0.00000E+00 0.00000E+00 0.00000E+00 0.00000E+00
 -1      1354 0.00000E+00 0.00000E+00 0.00000E+00 0.00000E+00 0.00000E+00 0.00000E+00
 -1      1355 0.00000E+00 0.00000E+00 0.00000E+00 0.00000E+00 0.00000E+00 0.00000E+00
 -1      1356 0.00000E+00 0.00000E+00 0.00000E+00 0.00000E+00 0.00000E+00 0.00000E+00
 -1      1357 0.00000E+00 0.00000E+00 0.00000E+00 0.00000E+00 0.00000E+00 0.00000E+00
 -1      1358 0.00000E+00 0.00000E+00 0.00000E+00 0.00000E+00 0.00000E+00 0.00000E+00
 -1      1359 0.00000E+00 0.00000E+00 0.00000E+00 0.00000E+00 0.00000E+00 0.00000E+00
 -1      1360 0.00000E+00 0.00000E+00 0.00000E+00 0.00000E+00 0.00000E+00 0.00000E+00
 -1      1361 0.00000E+00 0.00000E+00 0.00000E+00 0.00000E+00 0.00000E+00 0.00000E+00
 -1      1362 0.00000E+00 0.00000E+00 0.00000E+00 0.00000E+00 0.00000E+00 0.00000E+00
 -1      1363 0.00000E+00 0.00000E+00 0.00000E+00 0.00000E+00 0.00000E+00 0.00000E+00
 -1      1364 0.00000E+00 0.00000E+00 0.00000E+00 0.00000E+00 0.00000E+00 0.00000E+00
 -1      1365 0.00000E+00 0.00000E+00 0.00000E+00 0.00000E+00 0.00000E+00 0.00000E+00
 -1      1366 0.00000E+00 0.00000E+00 0.00000E+00 0.00000E+00 0.00000E+00 0.00000E+00
 -1      1367 0.00000E+00 0.00000E+00 0.00000E+00 0.00000E+00 0.00000E+00 0.00000E+00
 -1      1368 0.00000E+00 0.00000E+00 0.00000E+00 0.00000E+00 0.00000E+00 0.00000E+00
 -1      1369 0.00000E+00 0.00000E+00 0.00000E+00 0.00000E+00 0.00000E+00 0.00000E+00
 -1      1370 0.00000E+00 0.00000E+00 0.00000E+00 0.00000E+00 0.00000E+00 0.00000E+00
 -1      1371 0.00000E+00 0.00000E+00 0.00000E+00 0.00000E+00 0.00000E+00 0.00000E+00
 -1      1372 0.00000E+00 0.00000E+00 0.00000E+00 0.00000E+00 0.00000E+00 0.00000E+00
 -1      1373 0.00000E+00 0.00000E+00 0.00000E+00 0.00000E+00 0.00000E+00 0.00000E+00
 -1      1374 0.00000E+00 0.00000E+00 0.00000E+00 0.00000E+00 0.00000E+00 0.00000E+00
 -1      1375 0.00000E+00 0.00000E+00 0.00000E+00 0.00000E+00 0.00000E+00 0.00000E+00
 -1      1376 0.00000E+00 0.00000E+00 0.00000E+00 0.00000E+00 0.00000E+00 0.00000E+00
 -1      1377 0.00000E+00 0.00000E+00 0.00000E+00 0.00000E+00 0.00000E+00 0.00000E+00
 -1      1378 0.00000E+00 0.00000E+00 0.00000E+00 0.00000E+00 0.00000E+00 0.00000E+00
 -1      1379 0.00000E+00 0.00000E+00 0.00000E+00 0.00000E+00 0.00000E+00 0.00000E+00
 -1      1380 0.00000E+00 0.00000E+00 0.00000E+00 0.00000E+00 0.00000E+00 0.00000E+00
 -1      1381 0.00000E+00 0.00000E+00 0.00000E+00 0.00000E+00 0.00000E+00 0.00000E+00
 -1      1382 0.00000E+00 0.00000E+00 0.00000E+00 0.00000E+00 0.00000E+00 0.00000E+00
 -1      1383 0.00000E+00 0.00000E+00 0.00000E+00 0.00000E+00 0.00000E+00 0.00000E+00
 -1      1384 0.00000E+00 0.00000E+00 0.00000E+00 0.00000E+00 0.00000E+00 0.00000E+00
 -1      1385 0.00000E+00 0.00000E+00 0.00000E+00 0.00000E+00 0.00000E+00 0.00000E+00
 -1      1386 0.00000E+00 0.00000E+00 0.00000E+00 0.00000E+00 0.00000E+00 0.00000E+00
 -1      1387 0.00000E+00 0.00000E+00 0.00000E+00 0.00000E+00 0.00000E+00 0.00000E+00
 -1      1388 0.00000E+00 0.00000E+00 0.00000E+00 0.00000E+00 0.00000E+00 0.00000E+00
 -1      1389 0.00000E+00 0.00000E+00 0.00000E+00 0.00000E+00 0.00000E+00 0.00000E+00
 -1      1390 0.00000E+00 0.00000E+00 0.00000E+00 0.00000E+00 0.00000E+00 0.00000E+00
 -1      1391 0.00000E+00 0.00000E+00 0.00000E+00 0.00000E+00 0.00000E+00 0.00000E+00
 -1      1392 0.00000E+00 0.00000E+00 0.00000E+00 0.00000E+00 0.00000E+00 0.00000E+00
 -1      1393 0.00000E+00 0.00000E+00 0.00000E+00 0.00000E+00 0.00000E+00 0.00000E+00
 -1      1394 0.00000E+00 0.00000E+00 0.00000E+00 0.00000E+00 0.00000E+00 0.00000E+00
 -1      1395 0.00000E+00 0.00000E+00 0.00000E+00 0.00000E+00 0.00000E+00 0.00000E+00
 -1      1396 0.00000E+00 0.00000E+00 0.00000E+00 0.00000E+00 0.00000E+00 0.00000E+00
 -1      1397 0.00000E+00 0.00000E+00 0.00000E+00 0.00000E+00 0.00000E+00 0.00000E+00
 -1      1398 0.00000E+00 0.00000E+00 0.00000E+00 0.00000E+00 0.00000E+00 0.00000E+00
 -1      1399 0.00000E+00 0.00000E+00 0.00000E+00 0.00000E+00 0.00000E+00 0.00000E+00
 -1      1400 0.00000E+00 0.00000E+00 0.00000E+00 0.00000E+00 0.00000E+00 0.00000E+00
 -1      1401 0.00000E+00 0.00000E+00 0.00000E+00 0.00000E+00 0.00000E+00 0.00000E+00
 -1      1402 0.00000E+00 0.00000E+00 0.00000E+00 0.00000E+00 0.00000E+00 0.00000E+00
 -1      1403 0.00000E+00 0.00000E+00 0.00000E+00 0.00000E+00 0.00000E+00 0.00000E+00
 -1      1404 0.00000E+00 0.00000E+00 0.00000E+00 0.00000E+00 0.00000E+00 0.00000E+00
 -1      1405 0.00000E+00 0.00000E+00 0.00000E+00 0.00000E+00 0.00000E+00 0.00000E+00
 -1      1406 0.00000E+00 0.00000E+00 0.00000E+00 0.00000E+00 0.00000E+00 0.00000E+00
 -1      1407 0.00000E+00 0.00000E+00 0.00000E+00 0.00000E+00 0.00000E+00 0.00000E+00
 -1      1408 0.00000E+00 0.00000E+00 0.00000E+00 0.00000E+00 0.00000E+00 0.00000E+00
 -1      1409 0.00000E+00 0.00000E+00 0.00000E+00 0.00000E+00 0.00000E+00 0.00000E+00
 -1      1410 0.00000E+00 0.00000E+00 0.00000E+00 0.00000E+00 0.00000E+00 0.00000E+00
 -1      1411 0.00000E+00 0.00000E+00 0.00000E+00 0.00000E+00 0.00000E+00 0.00000E+00
 -1      1412 0.00000E+00 0.00000E+00 0.00000E+00 0.00000E+00 0.00000E+00 0.00000E+00
 -1      1413 0.00000E+00 0.00000E+00 0.00000E+00 0.00000E+00 0.00000E+00 0.00000E+00
 -1      1414 0.00000E+00 0.00000E+00 0.00000E+00 0.00000E+00 0.00000E+00 0.00000E+00
 -1      1415 0.00000E+00 0.00000E+00 0.00000E+00 0.00000E+00 0.00000E+00 0.00000E+00
 -1      1416 0.00000E+00 0.00000E+00 0.00000E+00 0.00000E+00 0.00000E+00 0.00000E+00
 -1      1417 0.00000E+00 0.00000E+00 0.00000E+00 0.00000E+00 0.00000E+00 0.00000E+00
 -1      1418 0.00000E+00 0.00000E+00 0.00000E+00 0.00000E+00 0.00000E+00 0.00000E+00
 -1      1419 0.00000E+00 0.00000E+00 0.00000E+00 0.00000E+00 0.00000E+00 0.00000E+00
 -1      1420 0.00000E+00 0.00000E+00 0.00000E+00 0.00000E+00 0.00000E+00 0.00000E+00
 -1      1421 0.00000E+00 0.00000E+00 0.00000E+00 0.00000E+00 0.00000E+00 0.00000E+00
 -1      1422 0.00000E+00 0.00000E+00 0.00000E+00 0.00000E+00 0.00000E+00 0.00000E+00
 -1      1423 0.00000E+00 0.00000E+00 0.00000E+00 0.00000E+00 0.00000E+00 0.00000E+00
 -1      1424 0.00000E+00 0.00000E+00 0.00000E+00 0.00000E+00 0.00000E+00 0.00000E+00
 -1      1425 0.00000E+00 0.00000E+00 0.00000E+00 0.00000E+00 0.00000E+00 0.00000E+00
 -1      1426 0.00000E+00 0.00000E+00 0.00000E+00 0.00000E+00 0.00000E+00 0.00000E+00
 -1      1427 0.00000E+00 0.00000E+00 0.00000E+00 0.00000E+00 0.00000E+00 0.00000E+00
 -1      1428 0.00000E+00 0.00000E+00 0.00000E+00 0.00000E+00 0.00000E+00 0.00000E+00
 -1      1429 0.00000E+00 0.00000E+00 0.00000E+00 0.00000E+00 0.00000E+00 0.00000E+00
 -1      1430 0.00000E+00 0.00000E+00 0.00000E+00 0.00000E+00 0.00000E+00 0.00000E+00
 -1      1431 0.00000E+00 0.00000E+00 0.00000E+00 0.00000E+00 0.00000E+00 0.00000E+00
 -1      1432 0.00000E+00 0.00000E+00 0.00000E+00 0.00000E+00 0.00000E+00 0.00000E+00
 -1      1433 0.00000E+00 0.00000E+00 0.00000E+00 0.00000E+00 0.00000E+00 0.00000E+00
 -1      1434 0.00000E+00 0.00000E+00 0.00000E+00 0.00000E+00 0.00000E+00 0.00000E+00
 -1      1435 0.00000E+00 0.00000E+00 0.00000E+00 0.00000E+00 0.00000E+00 0.00000E+00
 -1      1436 0.00000E+00 0.00000E+00 0.00000E+00 0.00000E+00 0.00000E+00 0.00000E+00
 -1      1437 0.00000E+00 0.00000E+00 0.00000E+00 0.00000E+00 0.00000E+00 0.00000E+00
 -1      1438 0.00000E+00 0.00000E+00 0.00000E+00 0.00000E+00 0.00000E+00 0.00000E+00
 -1      1439 0.00000E+00 0.00000E+00 0.00000E+00 0.00000E+00 0.00000E+00 0.00000E+00
 -1      1440 0.00000E+00 0.00000E+00 0.00000E+00 0.00000E+00 0.00000E+00 0.00000E+00
 -1      1441 0.00000E+00 0.00000E+00 0.00000E+00 0.00000E+00 0.00000E+00 0.00000E+00
 -1      1442 0.00000E+00 0.00000E+00 0.00000E+00 0.00000E+00 0.00000E+00 0.00000E+00
 -1      1443 0.00000E+00 0.00000E+00 0.00000E+00 0.00000E+00 0.00000E+00 0.00000E+00
 -1      1444 0.00000E+00 0.00000E+00 0.00000E+00 0.00000E+00 0.00000E+00 0.00000E+00
 -1      1445 0.00000E+00 0.00000E+00 0.00000E+00 0.00000E+00 0.00000E+00 0.00000E+00
 -1      1446 0.00000E+00 0.00000E+00 0.00000E+00 0.00000E+00 0.00000E+00 0.00000E+00
 -1      1447 0.00000E+00 0.00000E+00 0.00000E+00 0.00000E+00 0.00000E+00 0.00000E+00
 -1      1448 0.00000E+00 0.00000E+00 0.00000E+00 0.00000E+00 0.00000E+00 0.00000E+00
 -1      1449 0.00000E+00 0.00000E+00 0.00000E+00 0.00000E+00 0.00000E+00 0.00000E+00
 -1      1450 0.00000E+00 0.00000E+00 0.00000E+00 0.00000E+00 0.00000E+00 0.00000E+00
 -1      1451 0.00000E+00 0.00000E+00 0.00000E+00 0.00000E+00 0.00000E+00 0.00000E+00
 -1      1452 0.00000E+00 0.00000E+00 0.00000E+00 0.00000E+00 0.00000E+00 0.00000E+00
 -1      1453 0.00000E+00 0.00000E+00 0.00000E+00 0.00000E+00 0.00000E+00 0.00000E+00
 -1      1454 0.00000E+00 0.00000E+00 0.00000E+00 0.00000E+00 0.00000E+00 0.00000E+00
 -1      1455 0.00000E+00 0.00000E+00 0.00000E+00 0.00000E+00 0.00000E+00 0.00000E+00
 -1      1456 0.00000E+00 0.00000E+00 0.00000E+00 0.00000E+00 0.00000E+00 0.00000E+00
 -1      1457 0.00000E+00 0.00000E+00 0.00000E+00 0.00000E+00 0.00000E+00 0.00000E+00
 -1      1458 0.00000E+00 0.00000E+00 0.00000E+00 0.00000E+00 0.00000E+00 0.00000E+00
 -1      1459 0.00000E+00 0.00000E+00 0.00000E+00 0.00000E+00 0.00000E+00 0.00000E+00
 -1      1460 0.00000E+00 0.00000E+00 0.00000E+00 0.00000E+00 0.00000E+00 0.00000E+00
 -1      1461 0.00000E+00 0.00000E+00 0.00000E+00 0.00000E+00 0.00000E+00 0.00000E+00
 -1      1462 0.00000E+00 0.00000E+00 0.00000E+00 0.00000E+00 0.00000E+00 0.00000E+00
 -1      1463 0.00000E+00 0.00000E+00 0.00000E+00 0.00000E+00 0.00000E+00 0.00000E+00
 -1      1464 0.00000E+00 0.00000E+00 0.00000E+00 0.00000E+00 0.00000E+00 0.00000E+00
 -1      1465 0.00000E+00 0.00000E+00 0.00000E+00 0.00000E+00 0.00000E+00 0.00000E+00
 -1      1466 0.00000E+00 0.00000E+00 0.00000E+00 0.00000E+00 0.00000E+00 0.00000E+00
 -1      1467 0.00000E+00 0.00000E+00 0.00000E+00 0.00000E+00 0.00000E+00 0.00000E+00
 -1      1468 0.00000E+00 0.00000E+00 0.00000E+00 0.00000E+00 0.00000E+00 0.00000E+00
 -1      1469 0.00000E+00 0.00000E+00 0.00000E+00 0.00000E+00 0.00000E+00 0.00000E+00
 -1      1470 0.00000E+00 0.00000E+00 0.00000E+00 0.00000E+00 0.00000E+00 0.00000E+00
 -1      1471 0.00000E+00 0.00000E+00 0.00000E+00 0.00000E+00 0.00000E+00 0.00000E+00
 -1      1472 0.00000E+00 0.00000E+00 0.00000E+00 0.00000E+00 0.00000E+00 0.00000E+00
 -1      1473 0.00000E+00 0.00000E+00 0.00000E+00 0.00000E+00 0.00000E+00 0.00000E+00
 -1      1474 0.00000E+00 0.00000E+00 0.00000E+00 0.00000E+00 0.00000E+00 0.00000E+00
 -1      1475 0.00000E+00 0.00000E+00 0.00000E+00 0.00000E+00 0.00000E+00 0.00000E+00
 -1      1476 0.00000E+00 0.00000E+00 0.00000E+00 0.00000E+00 0.00000E+00 0.00000E+00
 -1      1477 0.00000E+00 0.00000E+00 0.00000E+00 0.00000E+00 0.00000E+00 0.00000E+00
 -1      1478 0.00000E+00 0.00000E+00 0.00000E+00 0.00000E+00 0.00000E+00 0.00000E+00
 -1      1479 0.00000E+00 0.00000E+00 0.00000E+00 0.00000E+00 0.00000E+00 0.00000E+00
 -1      1480 0.00000E+00 0.00000E+00 0.00000E+00 0.00000E+00 0.00000E+00 0.00000E+00
 -1      1481 0.00000E+00 0.00000E+00 0.00000E+00 0.00000E+00 0.00000E+00 0.00000E+00
 -1      1482 0.00000E+00 0.00000E+00 0.00000E+00 0.00000E+00 0.00000E+00 0.00000E+00
 -1      1483 0.00000E+00 0.00000E+00 0.00000E+00 0.00000E+00 0.00000E+00 0.00000E+00
 -1      1484 0.00000E+00 0.00000E+00 0.00000E+00 0.00000E+00 0.00000E+00 0.00000E+00
 -1      1485 0.00000E+00 0.00000E+00 0.00000E+00 0.00000E+00 0.00000E+00 0.00000E+00
 -1      1486 0.00000E+00 0.00000E+00 0.00000E+00 0.00000E+00 0.00000E+00 0.00000E+00
 -1      1487 0.00000E+00 0.00000E+00 0.00000E+00 0.00000E+00 0.00000E+00 0.00000E+00
 -1      1488 0.00000E+00 0.00000E+00 0.00000E+00 0.00000E+00 0.00000E+00 0.00000E+00
 -1      1489 0.00000E+00 0.00000E+00 0.00000E+00 0.00000E+00 0.00000E+00 0.00000E+00
 -1      1490 0.00000E+00 0.00000E+00 0.00000E+00 0.00000E+00 0.00000E+00 0.00000E+00
 -1      1491 0.00000E+00 0.00000E+00 0.00000E+00 0.00000E+00 0.00000E+00 0.00000E+00
 -1      1492 0.00000E+00 0.00000E+00 0.00000E+00 0.00000E+00 0.00000E+00 0.00000E+00
 -1      1493 0.00000E+00 0.00000E+00 0.00000E+00 0.00000E+00 0.00000E+00 0.00000E+00
 -1      1494 0.00000E+00 0.00000E+00 0.00000E+00 0.00000E+00 0.00000E+00 0.00000E+00
 -1      1495 0.00000E+00 0.00000E+00 0.00000E+00 0.00000E+00 0.00000E+00 0.00000E+00
 -1      1496 0.00000E+00 0.00000E+00 0.00000E+00 0.00000E+00 0.00000E+00 0.00000E+00
 -1      1497 0.00000E+00 0.00000E+00 0.00000E+00 0.00000E+00 0.00000E+00 0.00000E+00
 -1      1498 0.00000E+00 0.00000E+00 0.00000E+00 0.00000E+00 0.00000E+00 0.00000E+00
 -1      1499 0.00000E+00 0.00000E+00 0.00000E+00 0.00000E+00 0.00000E+00 0.00000E+00
 -1      1500 0.00000E+00 0.00000E+00 0.00000E+00 0.00000E+00 0.00000E+00 0.00000E+00
 -1      1501 0.00000E+00 0.00000E+00 0.00000E+00 0.00000E+00 0.00000E+00 0.00000E+00
 -1      1502 0.00000E+00 0.00000E+00 0.00000E+00 0.00000E+00 0.00000E+00 0.00000E+00
 -1      1503 0.00000E+00 0.00000E+00 0.00000E+00 0.00000E+00 0.00000E+00 0.00000E+00
 -1      1504 0.00000E+00 0.00000E+00 0.00000E+00 0.00000E+00 0.00000E+00 0.00000E+00
 -1      1505 0.00000E+00 0.00000E+00 0.00000E+00 0.00000E+00 0.00000E+00 0.00000E+00
 -1      1506 0.00000E+00 0.00000E+00 0.00000E+00 0.00000E+00 0.00000E+00 0.00000E+00
 -1      1507 0.00000E+00 0.00000E+00 0.00000E+00 0.00000E+00 0.00000E+00 0.00000E+00
 -1      1508 0.00000E+00 0.00000E+00 0.00000E+00 0.00000E+00 0.00000E+00 0.00000E+00
 -1      1509 0.00000E+00 0.00000E+00 0.00000E+00 0.00000E+00 0.00000E+00 0.00000E+00
 -1      1510 0.00000E+00 0.00000E+00 0.00000E+00 0.00000E+00 0.00000E+00 0.00000E+00
 -1      1511 0.00000E+00 0.00000E+00 0.00000E+00 0.00000E+00 0.00000E+00 0.00000E+00
 -1      1512 0.00000E+00 0.00000E+00 0.00000E+00 0.00000E+00 0.00000E+00 0.00000E+00
 -1      1513 0.00000E+00 0.00000E+00 0.00000E+00 0.00000E+00 0.00000E+00 0.00000E+00
 -1      1514 0.00000E+00 0.00000E+00 0.00000E+00 0.00000E+00 0.00000E+00 0.00000E+00
 -1      1515 0.00000E+00 0.00000E+00 0.00000E+00 0.00000E+00 0.00000E+00 0.00000E+00
 -1      1516 0.00000E+00 0.00000E+00 0.00000E+00 0.00000E+00 0.00000E+00 0.00000E+00
 -1      1517 0.00000E+00 0.00000E+00 0.00000E+00 0.00000E+00 0.00000E+00 0.00000E+00
 -1      1518 0.00000E+00 0.00000E+00 0.00000E+00 0.00000E+00 0.00000E+00 0.00000E+00
 -1      1519 0.00000E+00 0.00000E+00 0.00000E+00 0.00000E+00 0.00000E+00 0.00000E+00
 -1      1520 0.00000E+00 0.00000E+00 0.00000E+00 0.00000E+00 0.00000E+00 0.00000E+00
 -1      1521 0.00000E+00 0.00000E+00 0.00000E+00 0.00000E+00 0.00000E+00 0.00000E+00
 -1      1522 0.00000E+00 0.00000E+00 0.00000E+00 0.00000E+00 0.00000E+00 0.00000E+00
 -1      1523 0.00000E+00 0.00000E+00 0.00000E+00 0.00000E+00 0.00000E+00 0.00000E+00
 -1      1524 0.00000E+00 0.00000E+00 0.00000E+00 0.00000E+00 0.00000E+00 0.00000E+00
 -1      1525 0.00000E+00 0.00000E+00 0.00000E+00 0.00000E+00 0.00000E+00 0.00000E+00
 -1      1526 0.00000E+00 0.00000E+00 0.00000E+00 0.00000E+00 0.00000E+00 0.00000E+00
 -1      1527 0.00000E+00 0.00000E+00 0.00000E+00 0.00000E+00 0.00000E+00 0.00000E+00
 -1      1528 0.00000E+00 0.00000E+00 0.00000E+00 0.00000E+00 0.00000E+00 0.00000E+00
 -1      1529 0.00000E+00 0.00000E+00 0.00000E+00 0.00000E+00 0.00000E+00 0.00000E+00
 -1      1530 0.00000E+00 0.00000E+00 0.00000E+00 0.00000E+00 0.00000E+00 0.00000E+00
 -1      1531 0.00000E+00 0.00000E+00 0.00000E+00 0.00000E+00 0.00000E+00 0.00000E+00
 -1      1532 0.00000E+00 0.00000E+00 0.00000E+00 0.00000E+00 0.00000E+00 0.00000E+00
 -1      1533 0.00000E+00 0.00000E+00 0.00000E+00 0.00000E+00 0.00000E+00 0.00000E+00
 -1      1534 0.00000E+00 0.00000E+00 0.00000E+00 0.00000E+00 0.00000E+00 0.00000E+00
 -1      1535 0.00000E+00 0.00000E+00 0.00000E+00 0.00000E+00 0.00000E+00 0.00000E+00
 -1      1536 0.00000E+00 0.00000E+00 0.00000E+00 0.00000E+00 0.00000E+00 0.00000E+00
 -1      1537 0.00000E+00 0.00000E+00 0.00000E+00 0.00000E+00 0.00000E+00 0.00000E+00
 -1      1538 0.00000E+00 0.00000E+00 0.00000E+00 0.00000E+00 0.00000E+00 0.00000E+00
 -1      1539 0.00000E+00 0.00000E+00 0.00000E+00 0.00000E+00 0.00000E+00 0.00000E+00
 -1      1540 0.00000E+00 0.00000E+00 0.00000E+00 0.00000E+00 0.00000E+00 0.00000E+00
 -1      1541 0.00000E+00 0.00000E+00 0.00000E+00 0.00000E+00 0.00000E+00 0.00000E+00
 -1      1542 0.00000E+00 0.00000E+00 0.00000E+00 0.00000E+00 0.00000E+00 0.00000E+00
 -1      1543 0.00000E+00 0.00000E+00 0.00000E+00 0.00000E+00 0.00000E+00 0.00000E+00
 -1      1544 0.00000E+00 0.00000E+00 0.00000E+00 0.00000E+00 0.00000E+00 0.00000E+00
 -1      1545 0.00000E+00 0.00000E+00 0.00000E+00 0.00000E+00 0.00000E+00 0.00000E+00
 -1      1546 0.00000E+00 0.00000E+00 0.00000E+00 0.00000E+00 0.00000E+00 0.00000E+00
 -1      1547 0.00000E+00 0.00000E+00 0.00000E+00 0.00000E+00 0.00000E+00 0.00000E+00
 -1      1548 0.00000E+00 0.00000E+00 0.00000E+00 0.00000E+00 0.00000E+00 0.00000E+00
 -1      1549 0.00000E+00 0.00000E+00 0.00000E+00 0.00000E+00 0.00000E+00 0.00000E+00
 -1      1550 0.00000E+00 0.00000E+00 0.00000E+00 0.00000E+00 0.00000E+00 0.00000E+00
 -1      1551 0.00000E+00 0.00000E+00 0.00000E+00 0.00000E+00 0.00000E+00 0.00000E+00
 -1      1552 0.00000E+00 0.00000E+00 0.00000E+00 0.00000E+00 0.00000E+00 0.00000E+00
 -1      1553 0.00000E+00 0.00000E+00 0.00000E+00 0.00000E+00 0.00000E+00 0.00000E+00
 -1      1554 0.00000E+00 0.00000E+00 0.00000E+00 0.00000E+00 0.00000E+00 0.00000E+00
 -1      1555 0.00000E+00 0.00000E+00 0.00000E+00 0.00000E+00 0.00000E+00 0.00000E+00
 -1      1556 0.00000E+00 0.00000E+00 0.00000E+00 0.00000E+00 0.00000E+00 0.00000E+00
 -1      1557 0.00000E+00 0.00000E+00 0.00000E+00 0.00000E+00 0.00000E+00 0.00000E+00
 -1      1558 0.00000E+00 0.00000E+00 0.00000E+00 0.00000E+00 0.00000E+00 0.00000E+00
 -1      1559 0.00000E+00 0.00000E+00 0.00000E+00 0.00000E+00 0.00000E+00 0.00000E+00
 -1      1560 0.00000E+00 0.00000E+00 0.00000E+00 0.00000E+00 0.00000E+00 0.00000E+00
 -1      1561 0.00000E+00 0.00000E+00 0.00000E+00 0.00000E+00 0.00000E+00 0.00000E+00
 -1      1562 0.00000E+00 0.00000E+00 0.00000E+00 0.00000E+00 0.00000E+00 0.00000E+00
 -1      1563 0.00000E+00 0.00000E+00 0.00000E+00 0.00000E+00 0.00000E+00 0.00000E+00
 -1      1564 0.00000E+00 0.00000E+00 0.00000E+00 0.00000E+00 0.00000E+00 0.00000E+00
 -1      1565 0.00000E+00 0.00000E+00 0.00000E+00 0.00000E+00 0.00000E+00 0.00000E+00
 -1      1566 0.00000E+00 0.00000E+00 0.00000E+00 0.00000E+00 0.00000E+00 0.00000E+00
 -1      1567 0.00000E+00 0.00000E+00 0.00000E+00 0.00000E+00 0.00000E+00 0.00000E+00
 -1      1568 0.00000E+00 0.00000E+00 0.00000E+00 0.00000E+00 0.00000E+00 0.00000E+00
 -1      1569 0.00000E+00 0.00000E+00 0.00000E+00 0.00000E+00 0.00000E+00 0.00000E+00
 -1      1570 0.00000E+00 0.00000E+00 0.00000E+00 0.00000E+00 0.00000E+00 0.00000E+00
 -1      1571 0.00000E+00 0.00000E+00 0.00000E+00 0.00000E+00 0.00000E+00 0.00000E+00
 -1      1572 0.00000E+00 0.00000E+00 0.00000E+00 0.00000E+00 0.00000E+00 0.00000E+00
 -1      1573 0.00000E+00 0.00000E+00 0.00000E+00 0.00000E+00 0.00000E+00 0.00000E+00
 -1      1574 0.00000E+00 0.00000E+00 0.00000E+00 0.00000E+00 0.00000E+00 0.00000E+00
 -1      1575 0.00000E+00 0.00000E+00 0.00000E+00 0.00000E+00 0.00000E+00 0.00000E+00
 -1      1576 0.00000E+00 0.00000E+00 0.00000E+00 0.00000E+00 0.00000E+00 0.00000E+00
 -1      1577 0.00000E+00 0.00000E+00 0.00000E+00 0.00000E+00 0.00000E+00 0.00000E+00
 -1      1578 0.00000E+00 0.00000E+00 0.00000E+00 0.00000E+00 0.00000E+00 0.00000E+00
 -1      1579 0.00000E+00 0.00000E+00 0.00000E+00 0.00000E+00 0.00000E+00 0.00000E+00
 -1      1580 0.00000E+00 0.00000E+00 0.00000E+00 0.00000E+00 0.00000E+00 0.00000E+00
 -1      1581 0.00000E+00 0.00000E+00 0.00000E+00 0.00000E+00 0.00000E+00 0.00000E+00
 -1      1582 0.00000E+00 0.00000E+00 0.00000E+00 0.00000E+00 0.00000E+00 0.00000E+00
 -1      1583 0.00000E+00 0.00000E+00 0.00000E+00 0.00000E+00 0.00000E+00 0.00000E+00
 -1      1584 0.00000E+00 0.00000E+00 0.00000E+00 0.00000E+00 0.00000E+00 0.00000E+00
 -1      1585 0.00000E+00 0.00000E+00 0.00000E+00 0.00000E+00 0.00000E+00 0.00000E+00
 -1      1586 0.00000E+00 0.00000E+00 0.00000E+00 0.00000E+00 0.00000E+00 0.00000E+00
 -1      1587 0.00000E+00 0.00000E+00 0.00000E+00 0.00000E+00 0.00000E+00 0.00000E+00
 -1      1588 0.00000E+00 0.00000E+00 0.00000E+00 0.00000E+00 0.00000E+00 0.00000E+00
 -1      1589 0.00000E+00 0.00000E+00 0.00000E+00 0.00000E+00 0.00000E+00 0.00000E+00
 -1      1590 0.00000E+00 0.00000E+00 0.00000E+00 0.00000E+00 0.00000E+00 0.00000E+00
 -1      1591 0.00000E+00 0.00000E+00 0.00000E+00 0.00000E+00 0.00000E+00 0.00000E+00
 -1      1592 0.00000E+00 0.00000E+00 0.00000E+00 0.00000E+00 0.00000E+00 0.00000E+00
 -1      1593 0.00000E+00 0.00000E+00 0.00000E+00 0.00000E+00 0.00000E+00 0.00000E+00
 -1      1594 0.00000E+00 0.00000E+00 0.00000E+00 0.00000E+00 0.00000E+00 0.00000E+00
 -1      1595 0.00000E+00 0.00000E+00 0.00000E+00 0.00000E+00 0.00000E+00 0.00000E+00
 -1      1596 0.00000E+00 0.00000E+00 0.00000E+00 0.00000E+00 0.00000E+00 0.00000E+00
 -1      1597 0.00000E+00 0.00000E+00 0.00000E+00 0.00000E+00 0.00000E+00 0.00000E+00
 -1      1598 0.00000E+00 0.00000E+00 0.00000E+00 0.00000E+00 0.00000E+00 0.00000E+00
 -1      1599 0.00000E+00 0.00000E+00 0.00000E+00 0.00000E+00 0.00000E+00 0.00000E+00
 -1      1600 0.00000E+00 0.00000E+00 0.00000E+00 0.00000E+00 0.00000E+00 0.00000E+00
 -1      1601 0.00000E+00 0.00000E+00 0.00000E+00 0.00000E+00 0.00000E+00 0.00000E+00
 -1      1602 0.00000E+00 0.00000E+00 0.00000E+00 0.00000E+00 0.00000E+00 0.00000E+00
 -1      1603 0.00000E+00 0.00000E+00 0.00000E+00 0.00000E+00 0.00000E+00 0.00000E+00
 -1      1604 0.00000E+00 0.00000E+00 0.00000E+00 0.00000E+00 0.00000E+00 0.00000E+00
 -1      1605 0.00000E+00 0.00000E+00 0.00000E+00 0.00000E+00 0.00000E+00 0.00000E+00
 -1      1606 0.00000E+00 0.00000E+00 0.00000E+00 0.00000E+00 0.00000E+00 0.00000E+00
 -1      1607 0.00000E+00 0.00000E+00 0.00000E+00 0.00000E+00 0.00000E+00 0.00000E+00
 -1      1608 0.00000E+00 0.00000E+00 0.00000E+00 0.00000E+00 0.00000E+00 0.00000E+00
 -1      1609 0.00000E+00 0.00000E+00 0.00000E+00 0.00000E+00 0.00000E+00 0.00000E+00
 -1      1610 0.00000E+00 0.00000E+00 0.00000E+00 0.00000E+00 0.00000E+00 0.00000E+00
 -1      1611 0.00000E+00 0.00000E+00 0.00000E+00 0.00000E+00 0.00000E+00 0.00000E+00
 -1      1612 0.00000E+00 0.00000E+00 0.00000E+00 0.00000E+00 0.00000E+00 0.00000E+00
 -1      1613 0.00000E+00 0.00000E+00 0.00000E+00 0.00000E+00 0.00000E+00 0.00000E+00
 -1      1614 0.00000E+00 0.00000E+00 0.00000E+00 0.00000E+00 0.00000E+00 0.00000E+00
 -1      1615 0.00000E+00 0.00000E+00 0.00000E+00 0.00000E+00 0.00000E+00 0.00000E+00
 -1      1616 0.00000E+00 0.00000E+00 0.00000E+00 0.00000E+00 0.00000E+00 0.00000E+00
 -1      1617 0.00000E+00 0.00000E+00 0.00000E+00 0.00000E+00 0.00000E+00 0.00000E+00
 -1      1618 0.00000E+00 0.00000E+00 0.00000E+00 0.00000E+00 0.00000E+00 0.00000E+00
 -1      1619 0.00000E+00 0.00000E+00 0.00000E+00 0.00000E+00 0.00000E+00 0.00000E+00
 -1      1620 0.00000E+00 0.00000E+00 0.00000E+00 0.00000E+00 0.00000E+00 0.00000E+00
 -1      1621 0.00000E+00 0.00000E+00 0.00000E+00 0.00000E+00 0.00000E+00 0.00000E+00
 -1      1622 0.00000E+00 0.00000E+00 0.00000E+00 0.00000E+00 0.00000E+00 0.00000E+00
 -1      1623 0.00000E+00 0.00000E+00 0.00000E+00 0.00000E+00 0.00000E+00 0.00000E+00
 -1      1624 0.00000E+00 0.00000E+00 0.00000E+00 0.00000E+00 0.00000E+00 0.00000E+00
 -1      1625 0.00000E+00 0.00000E+00 0.00000E+00 0.00000E+00 0.00000E+00 0.00000E+00
 -1      1626 0.00000E+00 0.00000E+00 0.00000E+00 0.00000E+00 0.00000E+00 0.00000E+00
 -1      1627 0.00000E+00 0.00000E+00 0.00000E+00 0.00000E+00 0.00000E+00 0.00000E+00
 -1      1628 0.00000E+00 0.00000E+00 0.00000E+00 0.00000E+00 0.00000E+00 0.00000E+00
 -1      1629 0.00000E+00 0.00000E+00 0.00000E+00 0.00000E+00 0.00000E+00 0.00000E+00
 -1      1630 0.00000E+00 0.00000E+00 0.00000E+00 0.00000E+00 0.00000E+00 0.00000E+00
 -1      1631 0.00000E+00 0.00000E+00 0.00000E+00 0.00000E+00 0.00000E+00 0.00000E+00
 -1      1632 0.00000E+00 0.00000E+00 0.00000E+00 0.00000E+00 0.00000E+00 0.00000E+00
 -1      1633 0.00000E+00 0.00000E+00 0.00000E+00 0.00000E+00 0.00000E+00 0.00000E+00
 -1      1634 0.00000E+00 0.00000E+00 0.00000E+00 0.00000E+00 0.00000E+00 0.00000E+00
 -1      1635 0.00000E+00 0.00000E+00 0.00000E+00 0.00000E+00 0.00000E+00 0.00000E+00
 -1      1636 0.00000E+00 0.00000E+00 0.00000E+00 0.00000E+00 0.00000E+00 0.00000E+00
 -1      1637 0.00000E+00 0.00000E+00 0.00000E+00 0.00000E+00 0.00000E+00 0.00000E+00
 -1      1638 0.00000E+00 0.00000E+00 0.00000E+00 0.00000E+00 0.00000E+00 0.00000E+00
 -1      1639 0.00000E+00 0.00000E+00 0.00000E+00 0.00000E+00 0.00000E+00 0.00000E+00
 -1      1640 0.00000E+00 0.00000E+00 0.00000E+00 0.00000E+00 0.00000E+00 0.00000E+00
 -1      1641 0.00000E+00 0.00000E+00 0.00000E+00 0.00000E+00 0.00000E+00 0.00000E+00
 -1      1642 0.00000E+00 0.00000E+00 0.00000E+00 0.00000E+00 0.00000E+00 0.00000E+00
 -1      1643 0.00000E+00 0.00000E+00 0.00000E+00 0.00000E+00 0.00000E+00 0.00000E+00
 -1      1644 0.00000E+00 0.00000E+00 0.00000E+00 0.00000E+00 0.00000E+00 0.00000E+00
 -1      1645 0.00000E+00 0.00000E+00 0.00000E+00 0.00000E+00 0.00000E+00 0.00000E+00
 -1      1646 0.00000E+00 0.00000E+00 0.00000E+00 0.00000E+00 0.00000E+00 0.00000E+00
 -1      1647 0.00000E+00 0.00000E+00 0.00000E+00 0.00000E+00 0.00000E+00 0.00000E+00
 -1      1648 0.00000E+00 0.00000E+00 0.00000E+00 0.00000E+00 0.00000E+00 0.00000E+00
 -1      1649 0.00000E+00 0.00000E+00 0.00000E+00 0.00000E+00 0.00000E+00 0.00000E+00
 -1      1650 0.00000E+00 0.00000E+00 0.00000E+00 0.00000E+00 0.00000E+00 0.00000E+00
 -1      1651 0.00000E+00 0.00000E+00 0.00000E+00 0.00000E+00 0.00000E+00 0.00000E+00
 -1      1652 0.00000E+00 0.00000E+00 0.00000E+00 0.00000E+00 0.00000E+00 0.00000E+00
 -1      1653 0.00000E+00 0.00000E+00 0.00000E+00 0.00000E+00 0.00000E+00 0.00000E+00
 -1      1654 0.00000E+00 0.00000E+00 0.00000E+00 0.00000E+00 0.00000E+00 0.00000E+00
 -1      1655 0.00000E+00 0.00000E+00 0.00000E+00 0.00000E+00 0.00000E+00 0.00000E+00
 -1      1656 0.00000E+00 0.00000E+00 0.00000E+00 0.00000E+00 0.00000E+00 0.00000E+00
 -1      1657 0.00000E+00 0.00000E+00 0.00000E+00 0.00000E+00 0.00000E+00 0.00000E+00
 -1      1658 0.00000E+00 0.00000E+00 0.00000E+00 0.00000E+00 0.00000E+00 0.00000E+00
 -1      1659 0.00000E+00 0.00000E+00 0.00000E+00 0.00000E+00 0.00000E+00 0.00000E+00
 -1      1660 0.00000E+00 0.00000E+00 0.00000E+00 0.00000E+00 0.00000E+00 0.00000E+00
 -1      1661 0.00000E+00 0.00000E+00 0.00000E+00 0.00000E+00 0.00000E+00 0.00000E+00
 -1      1662 0.00000E+00 0.00000E+00 0.00000E+00 0.00000E+00 0.00000E+00 0.00000E+00
 -1      1663 0.00000E+00 0.00000E+00 0.00000E+00 0.00000E+00 0.00000E+00 0.00000E+00
 -1      1664 0.00000E+00 0.00000E+00 0.00000E+00 0.00000E+00 0.00000E+00 0.00000E+00
 -1      1665 0.00000E+00 0.00000E+00 0.00000E+00 0.00000E+00 0.00000E+00 0.00000E+00
 -1      1666 0.00000E+00 0.00000E+00 0.00000E+00 0.00000E+00 0.00000E+00 0.00000E+00
 -1      1667 0.00000E+00 0.00000E+00 0.00000E+00 0.00000E+00 0.00000E+00 0.00000E+00
 -1      1668 0.00000E+00 0.00000E+00 0.00000E+00 0.00000E+00 0.00000E+00 0.00000E+00
 -1      1669 0.00000E+00 0.00000E+00 0.00000E+00 0.00000E+00 0.00000E+00 0.00000E+00
 -1      1670 0.00000E+00 0.00000E+00 0.00000E+00 0.00000E+00 0.00000E+00 0.00000E+00
 -1      1671 0.00000E+00 0.00000E+00 0.00000E+00 0.00000E+00 0.00000E+00 0.00000E+00
 -1      1672 0.00000E+00 0.00000E+00 0.00000E+00 0.00000E+00 0.00000E+00 0.00000E+00
 -1      1673 0.00000E+00 0.00000E+00 0.00000E+00 0.00000E+00 0.00000E+00 0.00000E+00
 -1      1674 0.00000E+00 0.00000E+00 0.00000E+00 0.00000E+00 0.00000E+00 0.00000E+00
 -1      1675 0.00000E+00 0.00000E+00 0.00000E+00 0.00000E+00 0.00000E+00 0.00000E+00
 -1      1676 0.00000E+00 0.00000E+00 0.00000E+00 0.00000E+00 0.00000E+00 0.00000E+00
 -1      1677 0.00000E+00 0.00000E+00 0.00000E+00 0.00000E+00 0.00000E+00 0.00000E+00
 -1      1678 0.00000E+00 0.00000E+00 0.00000E+00 0.00000E+00 0.00000E+00 0.00000E+00
 -1      1679 0.00000E+00 0.00000E+00 0.00000E+00 0.00000E+00 0.00000E+00 0.00000E+00
 -1      1680 0.00000E+00 0.00000E+00 0.00000E+00 0.00000E+00 0.00000E+00 0.00000E+00
 -1      1681 0.00000E+00 0.00000E+00 0.00000E+00 0.00000E+00 0.00000E+00 0.00000E+00
 -1      1682 0.00000E+00 0.00000E+00 0.00000E+00 0.00000E+00 0.00000E+00 0.00000E+00
 -1      1683 0.00000E+00 0.00000E+00 0.00000E+00 0.00000E+00 0.00000E+00 0.00000E+00
 -1      1684 0.00000E+00 0.00000E+00 0.00000E+00 0.00000E+00 0.00000E+00 0.00000E+00
 -1      1685 0.00000E+00 0.00000E+00 0.00000E+00 0.00000E+00 0.00000E+00 0.00000E+00
 -1      1686 0.00000E+00 0.00000E+00 0.00000E+00 0.00000E+00 0.00000E+00 0.00000E+00
 -1      1687 0.00000E+00 0.00000E+00 0.00000E+00 0.00000E+00 0.00000E+00 0.00000E+00
 -1      1688 0.00000E+00 0.00000E+00 0.00000E+00 0.00000E+00 0.00000E+00 0.00000E+00
 -1      1689 0.00000E+00 0.00000E+00 0.00000E+00 0.00000E+00 0.00000E+00 0.00000E+00
 -1      1690 0.00000E+00 0.00000E+00 0.00000E+00 0.00000E+00 0.00000E+00 0.00000E+00
 -1      1691 0.00000E+00 0.00000E+00 0.00000E+00 0.00000E+00 0.00000E+00 0.00000E+00
 -1      1692 0.00000E+00 0.00000E+00 0.00000E+00 0.00000E+00 0.00000E+00 0.00000E+00
 -1      1693 0.00000E+00 0.00000E+00 0.00000E+00 0.00000E+00 0.00000E+00 0.00000E+00
 -1      1694 0.00000E+00 0.00000E+00 0.00000E+00 0.00000E+00 0.00000E+00 0.00000E+00
 -1      1695 0.00000E+00 0.00000E+00 0.00000E+00 0.00000E+00 0.00000E+00 0.00000E+00
 -1      1696 0.00000E+00 0.00000E+00 0.00000E+00 0.00000E+00 0.00000E+00 0.00000E+00
 -1      1697 0.00000E+00 0.00000E+00 0.00000E+00 0.00000E+00 0.00000E+00 0.00000E+00
 -1      1698 0.00000E+00 0.00000E+00 0.00000E+00 0.00000E+00 0.00000E+00 0.00000E+00
 -1      1699 0.00000E+00 0.00000E+00 0.00000E+00 0.00000E+00 0.00000E+00 0.00000E+00
 -1      1700 0.00000E+00 0.00000E+00 0.00000E+00 0.00000E+00 0.00000E+00 0.00000E+00
 -1      1701 0.00000E+00 0.00000E+00 0.00000E+00 0.00000E+00 0.00000E+00 0.00000E+00
 -1      1702 0.00000E+00 0.00000E+00 0.00000E+00 0.00000E+00 0.00000E+00 0.00000E+00
 -1      1703 0.00000E+00 0.00000E+00 0.00000E+00 0.00000E+00 0.00000E+00 0.00000E+00
 -1      1704 0.00000E+00 0.00000E+00 0.00000E+00 0.00000E+00 0.00000E+00 0.00000E+00
 -1      1705 0.00000E+00 0.00000E+00 0.00000E+00 0.00000E+00 0.00000E+00 0.00000E+00
 -1      1706 0.00000E+00 0.00000E+00 0.00000E+00 0.00000E+00 0.00000E+00 0.00000E+00
 -1      1707 0.00000E+00 0.00000E+00 0.00000E+00 0.00000E+00 0.00000E+00 0.00000E+00
 -1      1708 0.00000E+00 0.00000E+00 0.00000E+00 0.00000E+00 0.00000E+00 0.00000E+00
 -1      1709 0.00000E+00 0.00000E+00 0.00000E+00 0.00000E+00 0.00000E+00 0.00000E+00
 -1      1710 0.00000E+00 0.00000E+00 0.00000E+00 0.00000E+00 0.00000E+00 0.00000E+00
 -1      1711 0.00000E+00 0.00000E+00 0.00000E+00 0.00000E+00 0.00000E+00 0.00000E+00
 -1      1712 0.00000E+00 0.00000E+00 0.00000E+00 0.00000E+00 0.00000E+00 0.00000E+00
 -1      1713 0.00000E+00 0.00000E+00 0.00000E+00 0.00000E+00 0.00000E+00 0.00000E+00
 -1      1714 0.00000E+00 0.00000E+00 0.00000E+00 0.00000E+00 0.00000E+00 0.00000E+00
 -1      1715 0.00000E+00 0.00000E+00 0.00000E+00 0.00000E+00 0.00000E+00 0.00000E+00
 -1      1716 0.00000E+00 0.00000E+00 0.00000E+00 0.00000E+00 0.00000E+00 0.00000E+00
 -1      1717 0.00000E+00 0.00000E+00 0.00000E+00 0.00000E+00 0.00000E+00 0.00000E+00
 -1      1718 0.00000E+00 0.00000E+00 0.00000E+00 0.00000E+00 0.00000E+00 0.00000E+00
 -1      1719 0.00000E+00 0.00000E+00 0.00000E+00 0.00000E+00 0.00000E+00 0.00000E+00
 -1      1720 0.00000E+00 0.00000E+00 0.00000E+00 0.00000E+00 0.00000E+00 0.00000E+00
 -1      1721 0.00000E+00 0.00000E+00 0.00000E+00 0.00000E+00 0.00000E+00 0.00000E+00
 -1      1722 0.00000E+00 0.00000E+00 0.00000E+00 0.00000E+00 0.00000E+00 0.00000E+00
 -1      1723 0.00000E+00 0.00000E+00 0.00000E+00 0.00000E+00 0.00000E+00 0.00000E+00
 -1      1724 0.00000E+00 0.00000E+00 0.00000E+00 0.00000E+00 0.00000E+00 0.00000E+00
 -1      1725 0.00000E+00 0.00000E+00 0.00000E+00 0.00000E+00 0.00000E+00 0.00000E+00
 -1      1726 0.00000E+00 0.00000E+00 0.00000E+00 0.00000E+00 0.00000E+00 0.00000E+00
 -1      1727 0.00000E+00 0.00000E+00 0.00000E+00 0.00000E+00 0.00000E+00 0.00000E+00
 -1      1728 0.00000E+00 0.00000E+00 0.00000E+00 0.00000E+00 0.00000E+00 0.00000E+00
 -1      1729 0.00000E+00 0.00000E+00 0.00000E+00 0.00000E+00 0.00000E+00 0.00000E+00
 -1      1730 0.00000E+00 0.00000E+00 0.00000E+00 0.00000E+00 0.00000E+00 0.00000E+00
 -1      1731 0.00000E+00 0.00000E+00 0.00000E+00 0.00000E+00 0.00000E+00 0.00000E+00
 -1      1732 0.00000E+00 0.00000E+00 0.00000E+00 0.00000E+00 0.00000E+00 0.00000E+00
 -1      1733 0.00000E+00 0.00000E+00 0.00000E+00 0.00000E+00 0.00000E+00 0.00000E+00
 -1      1734 0.00000E+00 0.00000E+00 0.00000E+00 0.00000E+00 0.00000E+00 0.00000E+00
 -1      1735 0.00000E+00 0.00000E+00 0.00000E+00 0.00000E+00 0.00000E+00 0.00000E+00
 -1      1736 0.00000E+00 0.00000E+00 0.00000E+00 0.00000E+00 0.00000E+00 0.00000E+00
 -1      1737 0.00000E+00 0.00000E+00 0.00000E+00 0.00000E+00 0.00000E+00 0.00000E+00
 -1      1738 0.00000E+00 0.00000E+00 0.00000E+00 0.00000E+00 0.00000E+00 0.00000E+00
 -1      1739 0.00000E+00 0.00000E+00 0.00000E+00 0.00000E+00 0.00000E+00 0.00000E+00
 -1      1740 0.00000E+00 0.00000E+00 0.00000E+00 0.00000E+00 0.00000E+00 0.00000E+00
 -1      1741 0.00000E+00 0.00000E+00 0.00000E+00 0.00000E+00 0.00000E+00 0.00000E+00
 -1      1742 0.00000E+00 0.00000E+00 0.00000E+00 0.00000E+00 0.00000E+00 0.00000E+00
 -1      1743 0.00000E+00 0.00000E+00 0.00000E+00 0.00000E+00 0.00000E+00 0.00000E+00
 -1      1744 0.00000E+00 0.00000E+00 0.00000E+00 0.00000E+00 0.00000E+00 0.00000E+00
 -1      1745 0.00000E+00 0.00000E+00 0.00000E+00 0.00000E+00 0.00000E+00 0.00000E+00
 -1      1746 0.00000E+00 0.00000E+00 0.00000E+00 0.00000E+00 0.00000E+00 0.00000E+00
 -1      1747 0.00000E+00 0.00000E+00 0.00000E+00 0.00000E+00 0.00000E+00 0.00000E+00
 -1      1748 0.00000E+00 0.00000E+00 0.00000E+00 0.00000E+00 0.00000E+00 0.00000E+00
 -1      1749 0.00000E+00 0.00000E+00 0.00000E+00 0.00000E+00 0.00000E+00 0.00000E+00
 -1      1750 0.00000E+00 0.00000E+00 0.00000E+00 0.00000E+00 0.00000E+00 0.00000E+00
 -1      1751 0.00000E+00 0.00000E+00 0.00000E+00 0.00000E+00 0.00000E+00 0.00000E+00
 -1      1752 0.00000E+00 0.00000E+00 0.00000E+00 0.00000E+00 0.00000E+00 0.00000E+00
 -1      1753 0.00000E+00 0.00000E+00 0.00000E+00 0.00000E+00 0.00000E+00 0.00000E+00
 -1      1754 0.00000E+00 0.00000E+00 0.00000E+00 0.00000E+00 0.00000E+00 0.00000E+00
 -1      1755 0.00000E+00 0.00000E+00 0.00000E+00 0.00000E+00 0.00000E+00 0.00000E+00
 -1      1756 0.00000E+00 0.00000E+00 0.00000E+00 0.00000E+00 0.00000E+00 0.00000E+00
 -1      1757 0.00000E+00 0.00000E+00 0.00000E+00 0.00000E+00 0.00000E+00 0.00000E+00
 -1      1758 0.00000E+00 0.00000E+00 0.00000E+00 0.00000E+00 0.00000E+00 0.00000E+00
 -1      1759 0.00000E+00 0.00000E+00 0.00000E+00 0.00000E+00 0.00000E+00 0.00000E+00
 -1      1760 0.00000E+00 0.00000E+00 0.00000E+00 0.00000E+00 0.00000E+00 0.00000E+00
 -1      1761 0.00000E+00 0.00000E+00 0.00000E+00 0.00000E+00 0.00000E+00 0.00000E+00
 -1      1762 0.00000E+00 0.00000E+00 0.00000E+00 0.00000E+00 0.00000E+00 0.00000E+00
 -1      1763 0.00000E+00 0.00000E+00 0.00000E+00 0.00000E+00 0.00000E+00 0.00000E+00
 -1      1764 0.00000E+00 0.00000E+00 0.00000E+00 0.00000E+00 0.00000E+00 0.00000E+00
 -1      1765 0.00000E+00 0.00000E+00 0.00000E+00 0.00000E+00 0.00000E+00 0.00000E+00
 -1      1766 0.00000E+00 0.00000E+00 0.00000E+00 0.00000E+00 0.00000E+00 0.00000E+00
 -1      1767 0.00000E+00 0.00000E+00 0.00000E+00 0.00000E+00 0.00000E+00 0.00000E+00
 -1      1768 0.00000E+00 0.00000E+00 0.00000E+00 0.00000E+00 0.00000E+00 0.00000E+00
 -1      1769 0.00000E+00 0.00000E+00 0.00000E+00 0.00000E+00 0.00000E+00 0.00000E+00
 -1      1770 0.00000E+00 0.00000E+00 0.00000E+00 0.00000E+00 0.00000E+00 0.00000E+00
 -1      1771 0.00000E+00 0.00000E+00 0.00000E+00 0.00000E+00 0.00000E+00 0.00000E+00
 -1      1772 0.00000E+00 0.00000E+00 0.00000E+00 0.00000E+00 0.00000E+00 0.00000E+00
 -1      1773 0.00000E+00 0.00000E+00 0.00000E+00 0.00000E+00 0.00000E+00 0.00000E+00
 -1      1774 0.00000E+00 0.00000E+00 0.00000E+00 0.00000E+00 0.00000E+00 0.00000E+00
 -1      1775 0.00000E+00 0.00000E+00 0.00000E+00 0.00000E+00 0.00000E+00 0.00000E+00
 -1      1776 0.00000E+00 0.00000E+00 0.00000E+00 0.00000E+00 0.00000E+00 0.00000E+00
 -1      1777 0.00000E+00 0.00000E+00 0.00000E+00 0.00000E+00 0.00000E+00 0.00000E+00
 -1      1778 0.00000E+00 0.00000E+00 0.00000E+00 0.00000E+00 0.00000E+00 0.00000E+00
 -1      1779 0.00000E+00 0.00000E+00 0.00000E+00 0.00000E+00 0.00000E+00 0.00000E+00
 -1      1780 0.00000E+00 0.00000E+00 0.00000E+00 0.00000E+00 0.00000E+00 0.00000E+00
 -1      1781 0.00000E+00 0.00000E+00 0.00000E+00 0.00000E+00 0.00000E+00 0.00000E+00
 -1      1782 0.00000E+00 0.00000E+00 0.00000E+00 0.00000E+00 0.00000E+00 0.00000E+00
 -1      1783 0.00000E+00 0.00000E+00 0.00000E+00 0.00000E+00 0.00000E+00 0.00000E+00
 -1      1784 0.00000E+00 0.00000E+00 0.00000E+00 0.00000E+00 0.00000E+00 0.00000E+00
 -1      1785 0.00000E+00 0.00000E+00 0.00000E+00 0.00000E+00 0.00000E+00 0.00000E+00
 -1      1786 0.00000E+00 0.00000E+00 0.00000E+00 0.00000E+00 0.00000E+00 0.00000E+00
 -1      1787 0.00000E+00 0.00000E+00 0.00000E+00 0.00000E+00 0.00000E+00 0.00000E+00
 -1      1788 0.00000E+00 0.00000E+00 0.00000E+00 0.00000E+00 0.00000E+00 0.00000E+00
 -1      1789 0.00000E+00 0.00000E+00 0.00000E+00 0.00000E+00 0.00000E+00 0.00000E+00
 -1      1790 0.00000E+00 0.00000E+00 0.00000E+00 0.00000E+00 0.00000E+00 0.00000E+00
 -1      1791 0.00000E+00 0.00000E+00 0.00000E+00 0.00000E+00 0.00000E+00 0.00000E+00
 -1      1792 0.00000E+00 0.00000E+00 0.00000E+00 0.00000E+00 0.00000E+00 0.00000E+00
 -1      1793 0.00000E+00 0.00000E+00 0.00000E+00 0.00000E+00 0.00000E+00 0.00000E+00
 -1      1794 0.00000E+00 0.00000E+00 0.00000E+00 0.00000E+00 0.00000E+00 0.00000E+00
 -1      1795 0.00000E+00 0.00000E+00 0.00000E+00 0.00000E+00 0.00000E+00 0.00000E+00
 -1      1796 0.00000E+00 0.00000E+00 0.00000E+00 0.00000E+00 0.00000E+00 0.00000E+00
 -1      1797 0.00000E+00 0.00000E+00 0.00000E+00 0.00000E+00 0.00000E+00 0.00000E+00
 -1      1798 0.00000E+00 0.00000E+00 0.00000E+00 0.00000E+00 0.00000E+00 0.00000E+00
 -1      1799 0.00000E+00 0.00000E+00 0.00000E+00 0.00000E+00 0.00000E+00 0.00000E+00
 -1      1800 0.00000E+00 0.00000E+00 0.00000E+00 0.00000E+00 0.00000E+00 0.00000E+00
 -1      1801 0.00000E+00 0.00000E+00 0.00000E+00 0.00000E+00 0.00000E+00 0.00000E+00
 -1      1802 0.00000E+00 0.00000E+00 0.00000E+00 0.00000E+00 0.00000E+00 0.00000E+00
 -1      1803 0.00000E+00 0.00000E+00 0.00000E+00 0.00000E+00 0.00000E+00 0.00000E+00
 -1      1804 0.00000E+00 0.00000E+00 0.00000E+00 0.00000E+00 0.00000E+00 0.00000E+00
 -1      1805 0.00000E+00 0.00000E+00 0.00000E+00 0.00000E+00 0.00000E+00 0.00000E+00
 -1      1806 0.00000E+00 0.00000E+00 0.00000E+00 0.00000E+00 0.00000E+00 0.00000E+00
 -1      1807 0.00000E+00 0.00000E+00 0.00000E+00 0.00000E+00 0.00000E+00 0.00000E+00
 -1      1808 0.00000E+00 0.00000E+00 0.00000E+00 0.00000E+00 0.00000E+00 0.00000E+00
 -1      1809 0.00000E+00 0.00000E+00 0.00000E+00 0.00000E+00 0.00000E+00 0.00000E+00
 -1      1810 0.00000E+00 0.00000E+00 0.00000E+00 0.00000E+00 0.00000E+00 0.00000E+00
 -1      1811 0.00000E+00 0.00000E+00 0.00000E+00 0.00000E+00 0.00000E+00 0.00000E+00
 -1      1812 0.00000E+00 0.00000E+00 0.00000E+00 0.00000E+00 0.00000E+00 0.00000E+00
 -1      1813 0.00000E+00 0.00000E+00 0.00000E+00 0.00000E+00 0.00000E+00 0.00000E+00
 -1      1814 0.00000E+00 0.00000E+00 0.00000E+00 0.00000E+00 0.00000E+00 0.00000E+00
 -1      1815 0.00000E+00 0.00000E+00 0.00000E+00 0.00000E+00 0.00000E+00 0.00000E+00
 -1      1816 0.00000E+00 0.00000E+00 0.00000E+00 0.00000E+00 0.00000E+00 0.00000E+00
 -1      1817 0.00000E+00 0.00000E+00 0.00000E+00 0.00000E+00 0.00000E+00 0.00000E+00
 -1      1818 0.00000E+00 0.00000E+00 0.00000E+00 0.00000E+00 0.00000E+00 0.00000E+00
 -1      1819 0.00000E+00 0.00000E+00 0.00000E+00 0.00000E+00 0.00000E+00 0.00000E+00
 -1      1820 0.00000E+00 0.00000E+00 0.00000E+00 0.00000E+00 0.00000E+00 0.00000E+00
 -1      1821 0.00000E+00 0.00000E+00 0.00000E+00 0.00000E+00 0.00000E+00 0.00000E+00
 -1      1822 0.00000E+00 0.00000E+00 0.00000E+00 0.00000E+00 0.00000E+00 0.00000E+00
 -1      1823 0.00000E+00 0.00000E+00 0.00000E+00 0.00000E+00 0.00000E+00 0.00000E+00
 -1      1824 0.00000E+00 0.00000E+00 0.00000E+00 0.00000E+00 0.00000E+00 0.00000E+00
 -1      1825 0.00000E+00 0.00000E+00 0.00000E+00 0.00000E+00 0.00000E+00 0.00000E+00
 -1      1826 0.00000E+00 0.00000E+00 0.00000E+00 0.00000E+00 0.00000E+00 0.00000E+00
 -1      1827 0.00000E+00 0.00000E+00 0.00000E+00 0.00000E+00 0.00000E+00 0.00000E+00
 -1      1828 0.00000E+00 0.00000E+00 0.00000E+00 0.00000E+00 0.00000E+00 0.00000E+00
 -1      1829 0.00000E+00 0.00000E+00 0.00000E+00 0.00000E+00 0.00000E+00 0.00000E+00
 -1      1830 0.00000E+00 0.00000E+00 0.00000E+00 0.00000E+00 0.00000E+00 0.00000E+00
 -1      1831 0.00000E+00 0.00000E+00 0.00000E+00 0.00000E+00 0.00000E+00 0.00000E+00
 -1      1832 0.00000E+00 0.00000E+00 0.00000E+00 0.00000E+00 0.00000E+00 0.00000E+00
 -1      1833 0.00000E+00 0.00000E+00 0.00000E+00 0.00000E+00 0.00000E+00 0.00000E+00
 -1      1834 0.00000E+00 0.00000E+00 0.00000E+00 0.00000E+00 0.00000E+00 0.00000E+00
 -1      1835 0.00000E+00 0.00000E+00 0.00000E+00 0.00000E+00 0.00000E+00 0.00000E+00
 -1      1836 0.00000E+00 0.00000E+00 0.00000E+00 0.00000E+00 0.00000E+00 0.00000E+00
 -1      1837 0.00000E+00 0.00000E+00 0.00000E+00 0.00000E+00 0.00000E+00 0.00000E+00
 -1      1838 0.00000E+00 0.00000E+00 0.00000E+00 0.00000E+00 0.00000E+00 0.00000E+00
 -1      1839 0.00000E+00 0.00000E+00 0.00000E+00 0.00000E+00 0.00000E+00 0.00000E+00
 -1      1840 0.00000E+00 0.00000E+00 0.00000E+00 0.00000E+00 0.00000E+00 0.00000E+00
 -1      1841 0.00000E+00 0.00000E+00 0.00000E+00 0.00000E+00 0.00000E+00 0.00000E+00
 -1      1842 0.00000E+00 0.00000E+00 0.00000E+00 0.00000E+00 0.00000E+00 0.00000E+00
 -1      1843 0.00000E+00 0.00000E+00 0.00000E+00 0.00000E+00 0.00000E+00 0.00000E+00
 -1      1844 0.00000E+00 0.00000E+00 0.00000E+00 0.00000E+00 0.00000E+00 0.00000E+00
 -1      1845 0.00000E+00 0.00000E+00 0.00000E+00 0.00000E+00 0.00000E+00 0.00000E+00
 -1      1846 0.00000E+00 0.00000E+00 0.00000E+00 0.00000E+00 0.00000E+00 0.00000E+00
 -1      1847 0.00000E+00 0.00000E+00 0.00000E+00 0.00000E+00 0.00000E+00 0.00000E+00
 -1      1848 0.00000E+00 0.00000E+00 0.00000E+00 0.00000E+00 0.00000E+00 0.00000E+00
 -1      1849 0.00000E+00 0.00000E+00 0.00000E+00 0.00000E+00 0.00000E+00 0.00000E+00
 -1      1850 0.00000E+00 0.00000E+00 0.00000E+00 0.00000E+00 0.00000E+00 0.00000E+00
 -1      1851 0.00000E+00 0.00000E+00 0.00000E+00 0.00000E+00 0.00000E+00 0.00000E+00
 -1      1852 0.00000E+00 0.00000E+00 0.00000E+00 0.00000E+00 0.00000E+00 0.00000E+00
 -1      1853 0.00000E+00 0.00000E+00 0.00000E+00 0.00000E+00 0.00000E+00 0.00000E+00
 -1      1854 0.00000E+00 0.00000E+00 0.00000E+00 0.00000E+00 0.00000E+00 0.00000E+00
 -1      1855 0.00000E+00 0.00000E+00 0.00000E+00 0.00000E+00 0.00000E+00 0.00000E+00
 -1      1856 0.00000E+00 0.00000E+00 0.00000E+00 0.00000E+00 0.00000E+00 0.00000E+00
 -1      1857 0.00000E+00 0.00000E+00 0.00000E+00 0.00000E+00 0.00000E+00 0.00000E+00
 -1      1858 0.00000E+00 0.00000E+00 0.00000E+00 0.00000E+00 0.00000E+00 0.00000E+00
 -1      1859 0.00000E+00 0.00000E+00 0.00000E+00 0.00000E+00 0.00000E+00 0.00000E+00
 -1      1860 0.00000E+00 0.00000E+00 0.00000E+00 0.00000E+00 0.00000E+00 0.00000E+00
 -1      1861 0.00000E+00 0.00000E+00 0.00000E+00 0.00000E+00 0.00000E+00 0.00000E+00
 -1      1862 0.00000E+00 0.00000E+00 0.00000E+00 0.00000E+00 0.00000E+00 0.00000E+00
 -1      1863 0.00000E+00 0.00000E+00 0.00000E+00 0.00000E+00 0.00000E+00 0.00000E+00
 -1      1864 0.00000E+00 0.00000E+00 0.00000E+00 0.00000E+00 0.00000E+00 0.00000E+00
 -1      1865 0.00000E+00 0.00000E+00 0.00000E+00 0.00000E+00 0.00000E+00 0.00000E+00
 -1      1866 0.00000E+00 0.00000E+00 0.00000E+00 0.00000E+00 0.00000E+00 0.00000E+00
 -1      1867 0.00000E+00 0.00000E+00 0.00000E+00 0.00000E+00 0.00000E+00 0.00000E+00
 -1      1868 0.00000E+00 0.00000E+00 0.00000E+00 0.00000E+00 0.00000E+00 0.00000E+00
 -1      1869 0.00000E+00 0.00000E+00 0.00000E+00 0.00000E+00 0.00000E+00 0.00000E+00
 -1      1870 0.00000E+00 0.00000E+00 0.00000E+00 0.00000E+00 0.00000E+00 0.00000E+00
 -1      1871 0.00000E+00 0.00000E+00 0.00000E+00 0.00000E+00 0.00000E+00 0.00000E+00
 -1      1872 0.00000E+00 0.00000E+00 0.00000E+00 0.00000E+00 0.00000E+00 0.00000E+00
 -1      1873 0.00000E+00 0.00000E+00 0.00000E+00 0.00000E+00 0.00000E+00 0.00000E+00
 -1      1874 0.00000E+00 0.00000E+00 0.00000E+00 0.00000E+00 0.00000E+00 0.00000E+00
 -1      1875 0.00000E+00 0.00000E+00 0.00000E+00 0.00000E+00 0.00000E+00 0.00000E+00
 -1      1876 0.00000E+00 0.00000E+00 0.00000E+00 0.00000E+00 0.00000E+00 0.00000E+00
 -1      1877 0.00000E+00 0.00000E+00 0.00000E+00 0.00000E+00 0.00000E+00 0.00000E+00
 -1      1878 0.00000E+00 0.00000E+00 0.00000E+00 0.00000E+00 0.00000E+00 0.00000E+00
 -1      1879 0.00000E+00 0.00000E+00 0.00000E+00 0.00000E+00 0.00000E+00 0.00000E+00
 -1      1880 0.00000E+00 0.00000E+00 0.00000E+00 0.00000E+00 0.00000E+00 0.00000E+00
 -1      1881 0.00000E+00 0.00000E+00 0.00000E+00 0.00000E+00 0.00000E+00 0.00000E+00
 -1      1882 0.00000E+00 0.00000E+00 0.00000E+00 0.00000E+00 0.00000E+00 0.00000E+00
 -1      1883 0.00000E+00 0.00000E+00 0.00000E+00 0.00000E+00 0.00000E+00 0.00000E+00
 -1      1884 0.00000E+00 0.00000E+00 0.00000E+00 0.00000E+00 0.00000E+00 0.00000E+00
 -1      1885 0.00000E+00 0.00000E+00 0.00000E+00 0.00000E+00 0.00000E+00 0.00000E+00
 -1      1886 0.00000E+00 0.00000E+00 0.00000E+00 0.00000E+00 0.00000E+00 0.00000E+00
 -1      1887 0.00000E+00 0.00000E+00 0.00000E+00 0.00000E+00 0.00000E+00 0.00000E+00
 -1      1888 0.00000E+00 0.00000E+00 0.00000E+00 0.00000E+00 0.00000E+00 0.00000E+00
 -1      1889 0.00000E+00 0.00000E+00 0.00000E+00 0.00000E+00 0.00000E+00 0.00000E+00
 -1      1890 0.00000E+00 0.00000E+00 0.00000E+00 0.00000E+00 0.00000E+00 0.00000E+00
 -1      1891 0.00000E+00 0.00000E+00 0.00000E+00 0.00000E+00 0.00000E+00 0.00000E+00
 -1      1892 0.00000E+00 0.00000E+00 0.00000E+00 0.00000E+00 0.00000E+00 0.00000E+00
 -1      1893 0.00000E+00 0.00000E+00 0.00000E+00 0.00000E+00 0.00000E+00 0.00000E+00
 -1      1894 0.00000E+00 0.00000E+00 0.00000E+00 0.00000E+00 0.00000E+00 0.00000E+00
 -1      1895 0.00000E+00 0.00000E+00 0.00000E+00 0.00000E+00 0.00000E+00 0.00000E+00
 -1      1896 0.00000E+00 0.00000E+00 0.00000E+00 0.00000E+00 0.00000E+00 0.00000E+00
 -1      1897 0.00000E+00 0.00000E+00 0.00000E+00 0.00000E+00 0.00000E+00 0.00000E+00
 -1      1898 0.00000E+00 0.00000E+00 0.00000E+00 0.00000E+00 0.00000E+00 0.00000E+00
 -1      1899 0.00000E+00 0.00000E+00 0.00000E+00 0.00000E+00 0.00000E+00 0.00000E+00
 -1      1900 0.00000E+00 0.00000E+00 0.00000E+00 0.00000E+00 0.00000E+00 0.00000E+00
 -1      1901 0.00000E+00 0.00000E+00 0.00000E+00 0.00000E+00 0.00000E+00 0.00000E+00
 -1      1902 0.00000E+00 0.00000E+00 0.00000E+00 0.00000E+00 0.00000E+00 0.00000E+00
 -1      1903 0.00000E+00 0.00000E+00 0.00000E+00 0.00000E+00 0.00000E+00 0.00000E+00
 -1      1904 0.00000E+00 0.00000E+00 0.00000E+00 0.00000E+00 0.00000E+00 0.00000E+00
 -1      1905 0.00000E+00 0.00000E+00 0.00000E+00 0.00000E+00 0.00000E+00 0.00000E+00
 -1      1906 0.00000E+00 0.00000E+00 0.00000E+00 0.00000E+00 0.00000E+00 0.00000E+00
 -1      1907 0.00000E+00 0.00000E+00 0.00000E+00 0.00000E+00 0.00000E+00 0.00000E+00
 -1      1908 0.00000E+00 0.00000E+00 0.00000E+00 0.00000E+00 0.00000E+00 0.00000E+00
 -1      1909 0.00000E+00 0.00000E+00 0.00000E+00 0.00000E+00 0.00000E+00 0.00000E+00
 -1      1910 0.00000E+00 0.00000E+00 0.00000E+00 0.00000E+00 0.00000E+00 0.00000E+00
 -1      1911 0.00000E+00 0.00000E+00 0.00000E+00 0.00000E+00 0.00000E+00 0.00000E+00
 -1      1912 0.00000E+00 0.00000E+00 0.00000E+00 0.00000E+00 0.00000E+00 0.00000E+00
 -1      1913 0.00000E+00 0.00000E+00 0.00000E+00 0.00000E+00 0.00000E+00 0.00000E+00
 -1      1914 0.00000E+00 0.00000E+00 0.00000E+00 0.00000E+00 0.00000E+00 0.00000E+00
 -1      1915 0.00000E+00 0.00000E+00 0.00000E+00 0.00000E+00 0.00000E+00 0.00000E+00
 -1      1916 0.00000E+00 0.00000E+00 0.00000E+00 0.00000E+00 0.00000E+00 0.00000E+00
 -1      1917 0.00000E+00 0.00000E+00 0.00000E+00 0.00000E+00 0.00000E+00 0.00000E+00
 -1      1918 0.00000E+00 0.00000E+00 0.00000E+00 0.00000E+00 0.00000E+00 0.00000E+00
 -1      1919 0.00000E+00 0.00000E+00 0.00000E+00 0.00000E+00 0.00000E+00 0.00000E+00
 -1      1920 0.00000E+00 0.00000E+00 0.00000E+00 0.00000E+00 0.00000E+00 0.00000E+00
 -1      1921 0.00000E+00 0.00000E+00 0.00000E+00 0.00000E+00 0.00000E+00 0.00000E+00
 -1      1922 0.00000E+00 0.00000E+00 0.00000E+00 0.00000E+00 0.00000E+00 0.00000E+00
 -1      1923 0.00000E+00 0.00000E+00 0.00000E+00 0.00000E+00 0.00000E+00 0.00000E+00
 -1      1924 0.00000E+00 0.00000E+00 0.00000E+00 0.00000E+00 0.00000E+00 0.00000E+00
 -1      1925 0.00000E+00 0.00000E+00 0.00000E+00 0.00000E+00 0.00000E+00 0.00000E+00
 -1      1926 0.00000E+00 0.00000E+00 0.00000E+00 0.00000E+00 0.00000E+00 0.00000E+00
 -1      1927 0.00000E+00 0.00000E+00 0.00000E+00 0.00000E+00 0.00000E+00 0.00000E+00
 -1      1928 0.00000E+00 0.00000E+00 0.00000E+00 0.00000E+00 0.00000E+00 0.00000E+00
 -1      1929 0.00000E+00 0.00000E+00 0.00000E+00 0.00000E+00 0.00000E+00 0.00000E+00
 -1      1930 0.00000E+00 0.00000E+00 0.00000E+00 0.00000E+00 0.00000E+00 0.00000E+00
 -1      1931 0.00000E+00 0.00000E+00 0.00000E+00 0.00000E+00 0.00000E+00 0.00000E+00
 -1      1932 0.00000E+00 0.00000E+00 0.00000E+00 0.00000E+00 0.00000E+00 0.00000E+00
 -1      1933 0.00000E+00 0.00000E+00 0.00000E+00 0.00000E+00 0.00000E+00 0.00000E+00
 -1      1934 0.00000E+00 0.00000E+00 0.00000E+00 0.00000E+00 0.00000E+00 0.00000E+00
 -1      1935 0.00000E+00 0.00000E+00 0.00000E+00 0.00000E+00 0.00000E+00 0.00000E+00
 -1      1936 0.00000E+00 0.00000E+00 0.00000E+00 0.00000E+00 0.00000E+00 0.00000E+00
 -1      1937 0.00000E+00 0.00000E+00 0.00000E+00 0.00000E+00 0.00000E+00 0.00000E+00
 -1      1938 0.00000E+00 0.00000E+00 0.00000E+00 0.00000E+00 0.00000E+00 0.00000E+00
 -1      1939 0.00000E+00 0.00000E+00 0.00000E+00 0.00000E+00 0.00000E+00 0.00000E+00
 -1      1940 0.00000E+00 0.00000E+00 0.00000E+00 0.00000E+00 0.00000E+00 0.00000E+00
 -1      1941 0.00000E+00 0.00000E+00 0.00000E+00 0.00000E+00 0.00000E+00 0.00000E+00
 -1      1942 0.00000E+00 0.00000E+00 0.00000E+00 0.00000E+00 0.00000E+00 0.00000E+00
 -1      1943 0.00000E+00 0.00000E+00 0.00000E+00 0.00000E+00 0.00000E+00 0.00000E+00
 -1      1944 0.00000E+00 0.00000E+00 0.00000E+00 0.00000E+00 0.00000E+00 0.00000E+00
 -1      1945 0.00000E+00 0.00000E+00 0.00000E+00 0.00000E+00 0.00000E+00 0.00000E+00
 -1      1946 0.00000E+00 0.00000E+00 0.00000E+00 0.00000E+00 0.00000E+00 0.00000E+00
 -1      1947 0.00000E+00 0.00000E+00 0.00000E+00 0.00000E+00 0.00000E+00 0.00000E+00
 -1      1948 0.00000E+00 0.00000E+00 0.00000E+00 0.00000E+00 0.00000E+00 0.00000E+00
 -1      1949 0.00000E+00 0.00000E+00 0.00000E+00 0.00000E+00 0.00000E+00 0.00000E+00
 -1      1950 0.00000E+00 0.00000E+00 0.00000E+00 0.00000E+00 0.00000E+00 0.00000E+00
 -1      1951 0.00000E+00 0.00000E+00 0.00000E+00 0.00000E+00 0.00000E+00 0.00000E+00
 -1      1952 0.00000E+00 0.00000E+00 0.00000E+00 0.00000E+00 0.00000E+00 0.00000E+00
 -1      1953 0.00000E+00 0.00000E+00 0.00000E+00 0.00000E+00 0.00000E+00 0.00000E+00
 -1      1954 0.00000E+00 0.00000E+00 0.00000E+00 0.00000E+00 0.00000E+00 0.00000E+00
 -1      1955 0.00000E+00 0.00000E+00 0.00000E+00 0.00000E+00 0.00000E+00 0.00000E+00
 -1      1956 0.00000E+00 0.00000E+00 0.00000E+00 0.00000E+00 0.00000E+00 0.00000E+00
 -1      1957 0.00000E+00 0.00000E+00 0.00000E+00 0.00000E+00 0.00000E+00 0.00000E+00
 -1      1958 0.00000E+00 0.00000E+00 0.00000E+00 0.00000E+00 0.00000E+00 0.00000E+00
 -1      1959 0.00000E+00 0.00000E+00 0.00000E+00 0.00000E+00 0.00000E+00 0.00000E+00
 -1      1960 0.00000E+00 0.00000E+00 0.00000E+00 0.00000E+00 0.00000E+00 0.00000E+00
 -1      1961 0.00000E+00 0.00000E+00 0.00000E+00 0.00000E+00 0.00000E+00 0.00000E+00
 -1      1962 0.00000E+00 0.00000E+00 0.00000E+00 0.00000E+00 0.00000E+00 0.00000E+00
 -1      1963 0.00000E+00 0.00000E+00 0.00000E+00 0.00000E+00 0.00000E+00 0.00000E+00
 -1      1964 0.00000E+00 0.00000E+00 0.00000E+00 0.00000E+00 0.00000E+00 0.00000E+00
 -1      1965 0.00000E+00 0.00000E+00 0.00000E+00 0.00000E+00 0.00000E+00 0.00000E+00
 -1      1966 0.00000E+00 0.00000E+00 0.00000E+00 0.00000E+00 0.00000E+00 0.00000E+00
 -1      1967 0.00000E+00 0.00000E+00 0.00000E+00 0.00000E+00 0.00000E+00 0.00000E+00
 -1      1968 0.00000E+00 0.00000E+00 0.00000E+00 0.00000E+00 0.00000E+00 0.00000E+00
 -1      1969 0.00000E+00 0.00000E+00 0.00000E+00 0.00000E+00 0.00000E+00 0.00000E+00
 -1      1970 0.00000E+00 0.00000E+00 0.00000E+00 0.00000E+00 0.00000E+00 0.00000E+00
 -1      1971 0.00000E+00 0.00000E+00 0.00000E+00 0.00000E+00 0.00000E+00 0.00000E+00
 -1      1972 0.00000E+00 0.00000E+00 0.00000E+00 0.00000E+00 0.00000E+00 0.00000E+00
 -1      1973 0.00000E+00 0.00000E+00 0.00000E+00 0.00000E+00 0.00000E+00 0.00000E+00
 -1      1974 0.00000E+00 0.00000E+00 0.00000E+00 0.00000E+00 0.00000E+00 0.00000E+00
 -1      1975 0.00000E+00 0.00000E+00 0.00000E+00 0.00000E+00 0.00000E+00 0.00000E+00
 -1      1976 0.00000E+00 0.00000E+00 0.00000E+00 0.00000E+00 0.00000E+00 0.00000E+00
 -1      1977 0.00000E+00 0.00000E+00 0.00000E+00 0.00000E+00 0.00000E+00 0.00000E+00
 -1      1978 0.00000E+00 0.00000E+00 0.00000E+00 0.00000E+00 0.00000E+00 0.00000E+00
 -1      1979 0.00000E+00 0.00000E+00 0.00000E+00 0.00000E+00 0.00000E+00 0.00000E+00
 -1      1980 0.00000E+00 0.00000E+00 0.00000E+00 0.00000E+00 0.00000E+00 0.00000E+00
 -1      1981 0.00000E+00 0.00000E+00 0.00000E+00 0.00000E+00 0.00000E+00 0.00000E+00
 -1      1982 0.00000E+00 0.00000E+00 0.00000E+00 0.00000E+00 0.00000E+00 0.00000E+00
 -1      1983 0.00000E+00 0.00000E+00 0.00000E+00 0.00000E+00 0.00000E+00 0.00000E+00
 -1      1984 0.00000E+00 0.00000E+00 0.00000E+00 0.00000E+00 0.00000E+00 0.00000E+00
 -1      1985 0.00000E+00 0.00000E+00 0.00000E+00 0.00000E+00 0.00000E+00 0.00000E+00
 -1      1986 0.00000E+00 0.00000E+00 0.00000E+00 0.00000E+00 0.00000E+00 0.00000E+00
 -1      1987 0.00000E+00 0.00000E+00 0.00000E+00 0.00000E+00 0.00000E+00 0.00000E+00
 -1      1988 0.00000E+00 0.00000E+00 0.00000E+00 0.00000E+00 0.00000E+00 0.00000E+00
 -1      1989 0.00000E+00 0.00000E+00 0.00000E+00 0.00000E+00 0.00000E+00 0.00000E+00
 -1      1990 0.00000E+00 0.00000E+00 0.00000E+00 0.00000E+00 0.00000E+00 0.00000E+00
 -1      1991 0.00000E+00 0.00000E+00 0.00000E+00 0.00000E+00 0.00000E+00 0.00000E+00
 -1      1992 0.00000E+00 0.00000E+00 0.00000E+00 0.00000E+00 0.00000E+00 0.00000E+00
 -1      1993 0.00000E+00 0.00000E+00 0.00000E+00 0.00000E+00 0.00000E+00 0.00000E+00
 -1      1994 0.00000E+00 0.00000E+00 0.00000E+00 0.00000E+00 0.00000E+00 0.00000E+00
 -1      1995 0.00000E+00 0.00000E+00 0.00000E+00 0.00000E+00 0.00000E+00 0.00000E+00
 -1      1996 0.00000E+00 0.00000E+00 0.00000E+00 0.00000E+00 0.00000E+00 0.00000E+00
 -1      1997 0.00000E+00 0.00000E+00 0.00000E+00 0.00000E+00 0.00000E+00 0.00000E+00
 -1      1998 0.00000E+00 0.00000E+00 0.00000E+00 0.00000E+00 0.00000E+00 0.00000E+00
 -1      1999 0.00000E+00 0.00000E+00 0.00000E+00 0.00000E+00 0.00000E+00 0.00000E+00
 -1      2000 0.00000E+00 0.00000E+00 0.00000E+00 0.00000E+00 0.00000E+00 0.00000E+00
 -1      2001 0.00000E+00 0.00000E+00 0.00000E+00 0.00000E+00 0.00000E+00 0.00000E+00
 -1      2002 0.00000E+00 0.00000E+00 0.00000E+00 0.00000E+00 0.00000E+00 0.00000E+00
 -1      2003 0.00000E+00 0.00000E+00 0.00000E+00 0.00000E+00 0.00000E+00 0.00000E+00
 -1      2004 0.00000E+00 0.00000E+00 0.00000E+00 0.00000E+00 0.00000E+00 0.00000E+00
 -1      2005 0.00000E+00 0.00000E+00 0.00000E+00 0.00000E+00 0.00000E+00 0.00000E+00
 -1      2006 0.00000E+00 0.00000E+00 0.00000E+00 0.00000E+00 0.00000E+00 0.00000E+00
 -1      2007 0.00000E+00 0.00000E+00 0.00000E+00 0.00000E+00 0.00000E+00 0.00000E+00
 -1      2008 0.00000E+00 0.00000E+00 0.00000E+00 0.00000E+00 0.00000E+00 0.00000E+00
 -1      2009 0.00000E+00 0.00000E+00 0.00000E+00 0.00000E+00 0.00000E+00 0.00000E+00
 -1      2010 0.00000E+00 0.00000E+00 0.00000E+00 0.00000E+00 0.00000E+00 0.00000E+00
 -1      2011 0.00000E+00 0.00000E+00 0.00000E+00 0.00000E+00 0.00000E+00 0.00000E+00
 -1      2012 0.00000E+00 0.00000E+00 0.00000E+00 0.00000E+00 0.00000E+00 0.00000E+00
 -1      2013 0.00000E+00 0.00000E+00 0.00000E+00 0.00000E+00 0.00000E+00 0.00000E+00
 -1      2014 0.00000E+00 0.00000E+00 0.00000E+00 0.00000E+00 0.00000E+00 0.00000E+00
 -1      2015 0.00000E+00 0.00000E+00 0.00000E+00 0.00000E+00 0.00000E+00 0.00000E+00
 -1      2016 0.00000E+00 0.00000E+00 0.00000E+00 0.00000E+00 0.00000E+00 0.00000E+00
 -1      2017 0.00000E+00 0.00000E+00 0.00000E+00 0.00000E+00 0.00000E+00 0.00000E+00
 -1      2018 0.00000E+00 0.00000E+00 0.00000E+00 0.00000E+00 0.00000E+00 0.00000E+00
 -1      2019 0.00000E+00 0.00000E+00 0.00000E+00 0.00000E+00 0.00000E+00 0.00000E+00
 -1      2020 0.00000E+00 0.00000E+00 0.00000E+00 0.00000E+00 0.00000E+00 0.00000E+00
 -1      2021 0.00000E+00 0.00000E+00 0.00000E+00 0.00000E+00 0.00000E+00 0.00000E+00
 -1      2022 0.00000E+00 0.00000E+00 0.00000E+00 0.00000E+00 0.00000E+00 0.00000E+00
 -1      2023 0.00000E+00 0.00000E+00 0.00000E+00 0.00000E+00 0.00000E+00 0.00000E+00
 -1      2024 0.00000E+00 0.00000E+00 0.00000E+00 0.00000E+00 0.00000E+00 0.00000E+00
 -1      2025 0.00000E+00 0.00000E+00 0.00000E+00 0.00000E+00 0.00000E+00 0.00000E+00
 -1      2026 0.00000E+00 0.00000E+00 0.00000E+00 0.00000E+00 0.00000E+00 0.00000E+00
 -1      2027 0.00000E+00 0.00000E+00 0.00000E+00 0.00000E+00 0.00000E+00 0.00000E+00
 -1      2028 0.00000E+00 0.00000E+00 0.00000E+00 0.00000E+00 0.00000E+00 0.00000E+00
 -1      2029 0.00000E+00 0.00000E+00 0.00000E+00 0.00000E+00 0.00000E+00 0.00000E+00
 -1      2030 0.00000E+00 0.00000E+00 0.00000E+00 0.00000E+00 0.00000E+00 0.00000E+00
 -1      2031 0.00000E+00 0.00000E+00 0.00000E+00 0.00000E+00 0.00000E+00 0.00000E+00
 -1      2032 0.00000E+00 0.00000E+00 0.00000E+00 0.00000E+00 0.00000E+00 0.00000E+00
 -1      2033 0.00000E+00 0.00000E+00 0.00000E+00 0.00000E+00 0.00000E+00 0.00000E+00
 -1      2034 0.00000E+00 0.00000E+00 0.00000E+00 0.00000E+00 0.00000E+00 0.00000E+00
 -1      2035 0.00000E+00 0.00000E+00 0.00000E+00 0.00000E+00 0.00000E+00 0.00000E+00
 -1      2036 0.00000E+00 0.00000E+00 0.00000E+00 0.00000E+00 0.00000E+00 0.00000E+00
 -1      2037 0.00000E+00 0.00000E+00 0.00000E+00 0.00000E+00 0.00000E+00 0.00000E+00
 -1      2038 0.00000E+00 0.00000E+00 0.00000E+00 0.00000E+00 0.00000E+00 0.00000E+00
 -1      2039 0.00000E+00 0.00000E+00 0.00000E+00 0.00000E+00 0.00000E+00 0.00000E+00
 -1      2040 0.00000E+00 0.00000E+00 0.00000E+00 0.00000E+00 0.00000E+00 0.00000E+00
 -1      2041 0.00000E+00 0.00000E+00 0.00000E+00 0.00000E+00 0.00000E+00 0.00000E+00
 -1      2042 0.00000E+00 0.00000E+00 0.00000E+00 0.00000E+00 0.00000E+00 0.00000E+00
 -1      2043 0.00000E+00 0.00000E+00 0.00000E+00 0.00000E+00 0.00000E+00 0.00000E+00
 -1      2044 0.00000E+00 0.00000E+00 0.00000E+00 0.00000E+00 0.00000E+00 0.00000E+00
 -1      2045 0.00000E+00 0.00000E+00 0.00000E+00 0.00000E+00 0.00000E+00 0.00000E+00
 -1      2046 0.00000E+00 0.00000E+00 0.00000E+00 0.00000E+00 0.00000E+00 0.00000E+00
 -1      2047 0.00000E+00 0.00000E+00 0.00000E+00 0.00000E+00 0.00000E+00 0.00000E+00
 -1      2048 0.00000E+00 0.00000E+00 0.00000E+00 0.00000E+00 0.00000E+00 0.00000E+00
 -1      2049 0.00000E+00 0.00000E+00 0.00000E+00 0.00000E+00 0.00000E+00 0.00000E+00
 -1      2050 0.00000E+00 0.00000E+00 0.00000E+00 0.00000E+00 0.00000E+00 0.00000E+00
 -1      2051 0.00000E+00 0.00000E+00 0.00000E+00 0.00000E+00 0.00000E+00 0.00000E+00
 -1      2052 0.00000E+00 0.00000E+00 0.00000E+00 0.00000E+00 0.00000E+00 0.00000E+00
 -1      2053 0.00000E+00 0.00000E+00 0.00000E+00 0.00000E+00 0.00000E+00 0.00000E+00
 -1      2054 0.00000E+00 0.00000E+00 0.00000E+00 0.00000E+00 0.00000E+00 0.00000E+00
 -1      2055 0.00000E+00 0.00000E+00 0.00000E+00 0.00000E+00 0.00000E+00 0.00000E+00
 -1      2056 0.00000E+00 0.00000E+00 0.00000E+00 0.00000E+00 0.00000E+00 0.00000E+00
 -1      2057 0.00000E+00 0.00000E+00 0.00000E+00 0.00000E+00 0.00000E+00 0.00000E+00
 -1      2058 0.00000E+00 0.00000E+00 0.00000E+00 0.00000E+00 0.00000E+00 0.00000E+00
 -1      2059 0.00000E+00 0.00000E+00 0.00000E+00 0.00000E+00 0.00000E+00 0.00000E+00
 -1      2060 0.00000E+00 0.00000E+00 0.00000E+00 0.00000E+00 0.00000E+00 0.00000E+00
 -1      2061 0.00000E+00 0.00000E+00 0.00000E+00 0.00000E+00 0.00000E+00 0.00000E+00
 -1      2062 0.00000E+00 0.00000E+00 0.00000E+00 0.00000E+00 0.00000E+00 0.00000E+00
 -1      2063 0.00000E+00 0.00000E+00 0.00000E+00 0.00000E+00 0.00000E+00 0.00000E+00
 -1      2064 0.00000E+00 0.00000E+00 0.00000E+00 0.00000E+00 0.00000E+00 0.00000E+00
 -1      2065 0.00000E+00 0.00000E+00 0.00000E+00 0.00000E+00 0.00000E+00 0.00000E+00
 -1      2066 0.00000E+00 0.00000E+00 0.00000E+00 0.00000E+00 0.00000E+00 0.00000E+00
 -1      2067 0.00000E+00 0.00000E+00 0.00000E+00 0.00000E+00 0.00000E+00 0.00000E+00
 -1      2068 0.00000E+00 0.00000E+00 0.00000E+00 0.00000E+00 0.00000E+00 0.00000E+00
 -1      2069 0.00000E+00 0.00000E+00 0.00000E+00 0.00000E+00 0.00000E+00 0.00000E+00
 -1      2070 0.00000E+00 0.00000E+00 0.00000E+00 0.00000E+00 0.00000E+00 0.00000E+00
 -1      2071 0.00000E+00 0.00000E+00 0.00000E+00 0.00000E+00 0.00000E+00 0.00000E+00
 -1      2072 0.00000E+00 0.00000E+00 0.00000E+00 0.00000E+00 0.00000E+00 0.00000E+00
 -1      2073 0.00000E+00 0.00000E+00 0.00000E+00 0.00000E+00 0.00000E+00 0.00000E+00
 -1      2074 0.00000E+00 0.00000E+00 0.00000E+00 0.00000E+00 0.00000E+00 0.00000E+00
 -1      2075 0.00000E+00 0.00000E+00 0.00000E+00 0.00000E+00 0.00000E+00 0.00000E+00
 -1      2076 0.00000E+00 0.00000E+00 0.00000E+00 0.00000E+00 0.00000E+00 0.00000E+00
 -1      2077 0.00000E+00 0.00000E+00 0.00000E+00 0.00000E+00 0.00000E+00 0.00000E+00
 -1      2078 0.00000E+00 0.00000E+00 0.00000E+00 0.00000E+00 0.00000E+00 0.00000E+00
 -1      2079 0.00000E+00 0.00000E+00 0.00000E+00 0.00000E+00 0.00000E+00 0.00000E+00
 -1      2080 0.00000E+00 0.00000E+00 0.00000E+00 0.00000E+00 0.00000E+00 0.00000E+00
 -1      2081 0.00000E+00 0.00000E+00 0.00000E+00 0.00000E+00 0.00000E+00 0.00000E+00
 -1      2082 0.00000E+00 0.00000E+00 0.00000E+00 0.00000E+00 0.00000E+00 0.00000E+00
 -1      2083 0.00000E+00 0.00000E+00 0.00000E+00 0.00000E+00 0.00000E+00 0.00000E+00
 -1      2084 0.00000E+00 0.00000E+00 0.00000E+00 0.00000E+00 0.00000E+00 0.00000E+00
 -1      2085 0.00000E+00 0.00000E+00 0.00000E+00 0.00000E+00 0.00000E+00 0.00000E+00
 -1      2086 0.00000E+00 0.00000E+00 0.00000E+00 0.00000E+00 0.00000E+00 0.00000E+00
 -1      2087 0.00000E+00 0.00000E+00 0.00000E+00 0.00000E+00 0.00000E+00 0.00000E+00
 -1      2088 0.00000E+00 0.00000E+00 0.00000E+00 0.00000E+00 0.00000E+00 0.00000E+00
 -1      2089 0.00000E+00 0.00000E+00 0.00000E+00 0.00000E+00 0.00000E+00 0.00000E+00
 -1      2090 0.00000E+00 0.00000E+00 0.00000E+00 0.00000E+00 0.00000E+00 0.00000E+00
 -1      2091 0.00000E+00 0.00000E+00 0.00000E+00 0.00000E+00 0.00000E+00 0.00000E+00
 -1      2092 0.00000E+00 0.00000E+00 0.00000E+00 0.00000E+00 0.00000E+00 0.00000E+00
 -1      2093 0.00000E+00 0.00000E+00 0.00000E+00 0.00000E+00 0.00000E+00 0.00000E+00
 -1      2094 0.00000E+00 0.00000E+00 0.00000E+00 0.00000E+00 0.00000E+00 0.00000E+00
 -1      2095 0.00000E+00 0.00000E+00 0.00000E+00 0.00000E+00 0.00000E+00 0.00000E+00
 -1      2096 0.00000E+00 0.00000E+00 0.00000E+00 0.00000E+00 0.00000E+00 0.00000E+00
 -1      2097 0.00000E+00 0.00000E+00 0.00000E+00 0.00000E+00 0.00000E+00 0.00000E+00
 -1      2098 0.00000E+00 0.00000E+00 0.00000E+00 0.00000E+00 0.00000E+00 0.00000E+00
 -1      2099 0.00000E+00 0.00000E+00 0.00000E+00 0.00000E+00 0.00000E+00 0.00000E+00
 -1      2100 0.00000E+00 0.00000E+00 0.00000E+00 0.00000E+00 0.00000E+00 0.00000E+00
 -1      2101 0.00000E+00 0.00000E+00 0.00000E+00 0.00000E+00 0.00000E+00 0.00000E+00
 -1      2102 0.00000E+00 0.00000E+00 0.00000E+00 0.00000E+00 0.00000E+00 0.00000E+00
 -1      2103 0.00000E+00 0.00000E+00 0.00000E+00 0.00000E+00 0.00000E+00 0.00000E+00
 -1      2104 0.00000E+00 0.00000E+00 0.00000E+00 0.00000E+00 0.00000E+00 0.00000E+00
 -1      2105 0.00000E+00 0.00000E+00 0.00000E+00 0.00000E+00 0.00000E+00 0.00000E+00
 -1      2106 0.00000E+00 0.00000E+00 0.00000E+00 0.00000E+00 0.00000E+00 0.00000E+00
 -1      2107 0.00000E+00 0.00000E+00 0.00000E+00 0.00000E+00 0.00000E+00 0.00000E+00
 -1      2108 0.00000E+00 0.00000E+00 0.00000E+00 0.00000E+00 0.00000E+00 0.00000E+00
 -1      2109 0.00000E+00 0.00000E+00 0.00000E+00 0.00000E+00 0.00000E+00 0.00000E+00
 -1      2110 0.00000E+00 0.00000E+00 0.00000E+00 0.00000E+00 0.00000E+00 0.00000E+00
 -1      2111 0.00000E+00 0.00000E+00 0.00000E+00 0.00000E+00 0.00000E+00 0.00000E+00
 -1      2112 0.00000E+00 0.00000E+00 0.00000E+00 0.00000E+00 0.00000E+00 0.00000E+00
 -1      2113 0.00000E+00 0.00000E+00 0.00000E+00 0.00000E+00 0.00000E+00 0.00000E+00
 -1      2114 0.00000E+00 0.00000E+00 0.00000E+00 0.00000E+00 0.00000E+00 0.00000E+00
 -1      2115 0.00000E+00 0.00000E+00 0.00000E+00 0.00000E+00 0.00000E+00 0.00000E+00
 -1      2116 0.00000E+00 0.00000E+00 0.00000E+00 0.00000E+00 0.00000E+00 0.00000E+00
 -1      2117 0.00000E+00 0.00000E+00 0.00000E+00 0.00000E+00 0.00000E+00 0.00000E+00
 -1      2118 0.00000E+00 0.00000E+00 0.00000E+00 0.00000E+00 0.00000E+00 0.00000E+00
 -1      2119 0.00000E+00 0.00000E+00 0.00000E+00 0.00000E+00 0.00000E+00 0.00000E+00
 -1      2120 0.00000E+00 0.00000E+00 0.00000E+00 0.00000E+00 0.00000E+00 0.00000E+00
 -1      2121 0.00000E+00 0.00000E+00 0.00000E+00 0.00000E+00 0.00000E+00 0.00000E+00
 -1      2122 0.00000E+00 0.00000E+00 0.00000E+00 0.00000E+00 0.00000E+00 0.00000E+00
 -1      2123 0.00000E+00 0.00000E+00 0.00000E+00 0.00000E+00 0.00000E+00 0.00000E+00
 -1      2124 0.00000E+00 0.00000E+00 0.00000E+00 0.00000E+00 0.00000E+00 0.00000E+00
 -1      2125 0.00000E+00 0.00000E+00 0.00000E+00 0.00000E+00 0.00000E+00 0.00000E+00
 -1      2126 0.00000E+00 0.00000E+00 0.00000E+00 0.00000E+00 0.00000E+00 0.00000E+00
 -1      2127 0.00000E+00 0.00000E+00 0.00000E+00 0.00000E+00 0.00000E+00 0.00000E+00
 -1      2128 0.00000E+00 0.00000E+00 0.00000E+00 0.00000E+00 0.00000E+00 0.00000E+00
 -1      2129 0.00000E+00 0.00000E+00 0.00000E+00 0.00000E+00 0.00000E+00 0.00000E+00
 -1      2130 0.00000E+00 0.00000E+00 0.00000E+00 0.00000E+00 0.00000E+00 0.00000E+00
 -1      2131 0.00000E+00 0.00000E+00 0.00000E+00 0.00000E+00 0.00000E+00 0.00000E+00
 -1      2132 0.00000E+00 0.00000E+00 0.00000E+00 0.00000E+00 0.00000E+00 0.00000E+00
 -1      2133 0.00000E+00 0.00000E+00 0.00000E+00 0.00000E+00 0.00000E+00 0.00000E+00
 -1      2134 0.00000E+00 0.00000E+00 0.00000E+00 0.00000E+00 0.00000E+00 0.00000E+00
 -1      2135 0.00000E+00 0.00000E+00 0.00000E+00 0.00000E+00 0.00000E+00 0.00000E+00
 -1      2136 0.00000E+00 0.00000E+00 0.00000E+00 0.00000E+00 0.00000E+00 0.00000E+00
 -1      2137 0.00000E+00 0.00000E+00 0.00000E+00 0.00000E+00 0.00000E+00 0.00000E+00
 -1      2138 0.00000E+00 0.00000E+00 0.00000E+00 0.00000E+00 0.00000E+00 0.00000E+00
 -1      2139 0.00000E+00 0.00000E+00 0.00000E+00 0.00000E+00 0.00000E+00 0.00000E+00
 -1      2140 0.00000E+00 0.00000E+00 0.00000E+00 0.00000E+00 0.00000E+00 0.00000E+00
 -1      2141 0.00000E+00 0.00000E+00 0.00000E+00 0.00000E+00 0.00000E+00 0.00000E+00
 -1      2142 0.00000E+00 0.00000E+00 0.00000E+00 0.00000E+00 0.00000E+00 0.00000E+00
 -1      2143 0.00000E+00 0.00000E+00 0.00000E+00 0.00000E+00 0.00000E+00 0.00000E+00
 -1      2144 0.00000E+00 0.00000E+00 0.00000E+00 0.00000E+00 0.00000E+00 0.00000E+00
 -1      2145 0.00000E+00 0.00000E+00 0.00000E+00 0.00000E+00 0.00000E+00 0.00000E+00
 -1      2146 0.00000E+00 0.00000E+00 0.00000E+00 0.00000E+00 0.00000E+00 0.00000E+00
 -1      2147 0.00000E+00 0.00000E+00 0.00000E+00 0.00000E+00 0.00000E+00 0.00000E+00
 -1      2148 0.00000E+00 0.00000E+00 0.00000E+00 0.00000E+00 0.00000E+00 0.00000E+00
 -1      2149 0.00000E+00 0.00000E+00 0.00000E+00 0.00000E+00 0.00000E+00 0.00000E+00
 -1      2150 0.00000E+00 0.00000E+00 0.00000E+00 0.00000E+00 0.00000E+00 0.00000E+00
 -1      2151 0.00000E+00 0.00000E+00 0.00000E+00 0.00000E+00 0.00000E+00 0.00000E+00
 -1      2152 0.00000E+00 0.00000E+00 0.00000E+00 0.00000E+00 0.00000E+00 0.00000E+00
 -1      2153 0.00000E+00 0.00000E+00 0.00000E+00 0.00000E+00 0.00000E+00 0.00000E+00
 -1      2154 0.00000E+00 0.00000E+00 0.00000E+00 0.00000E+00 0.00000E+00 0.00000E+00
 -1      2155 0.00000E+00 0.00000E+00 0.00000E+00 0.00000E+00 0.00000E+00 0.00000E+00
 -1      2156 0.00000E+00 0.00000E+00 0.00000E+00 0.00000E+00 0.00000E+00 0.00000E+00
 -1      2157 0.00000E+00 0.00000E+00 0.00000E+00 0.00000E+00 0.00000E+00 0.00000E+00
 -1      2158 0.00000E+00 0.00000E+00 0.00000E+00 0.00000E+00 0.00000E+00 0.00000E+00
 -1      2159 0.00000E+00 0.00000E+00 0.00000E+00 0.00000E+00 0.00000E+00 0.00000E+00
 -1      2160 0.00000E+00 0.00000E+00 0.00000E+00 0.00000E+00 0.00000E+00 0.00000E+00
 -1      2161 0.00000E+00 0.00000E+00 0.00000E+00 0.00000E+00 0.00000E+00 0.00000E+00
 -1      2162 0.00000E+00 0.00000E+00 0.00000E+00 0.00000E+00 0.00000E+00 0.00000E+00
 -1      2163 0.00000E+00 0.00000E+00 0.00000E+00 0.00000E+00 0.00000E+00 0.00000E+00
 -1      2164 0.00000E+00 0.00000E+00 0.00000E+00 0.00000E+00 0.00000E+00 0.00000E+00
 -1      2165 0.00000E+00 0.00000E+00 0.00000E+00 0.00000E+00 0.00000E+00 0.00000E+00
 -1      2166 0.00000E+00 0.00000E+00 0.00000E+00 0.00000E+00 0.00000E+00 0.00000E+00
 -1      2167 0.00000E+00 0.00000E+00 0.00000E+00 0.00000E+00 0.00000E+00 0.00000E+00
 -1      2168 0.00000E+00 0.00000E+00 0.00000E+00 0.00000E+00 0.00000E+00 0.00000E+00
 -1      2169 0.00000E+00 0.00000E+00 0.00000E+00 0.00000E+00 0.00000E+00 0.00000E+00
 -1      2170 0.00000E+00 0.00000E+00 0.00000E+00 0.00000E+00 0.00000E+00 0.00000E+00
 -1      2171 0.00000E+00 0.00000E+00 0.00000E+00 0.00000E+00 0.00000E+00 0.00000E+00
 -1      2172 0.00000E+00 0.00000E+00 0.00000E+00 0.00000E+00 0.00000E+00 0.00000E+00
 -1      2173 0.00000E+00 0.00000E+00 0.00000E+00 0.00000E+00 0.00000E+00 0.00000E+00
 -1      2174 0.00000E+00 0.00000E+00 0.00000E+00 0.00000E+00 0.00000E+00 0.00000E+00
 -1      2175 0.00000E+00 0.00000E+00 0.00000E+00 0.00000E+00 0.00000E+00 0.00000E+00
 -1      2176 0.00000E+00 0.00000E+00 0.00000E+00 0.00000E+00 0.00000E+00 0.00000E+00
 -1      2177 0.00000E+00 0.00000E+00 0.00000E+00 0.00000E+00 0.00000E+00 0.00000E+00
 -1      2178 0.00000E+00 0.00000E+00 0.00000E+00 0.00000E+00 0.00000E+00 0.00000E+00
 -1      2179 0.00000E+00 0.00000E+00 0.00000E+00 0.00000E+00 0.00000E+00 0.00000E+00
 -1      2180 0.00000E+00 0.00000E+00 0.00000E+00 0.00000E+00 0.00000E+00 0.00000E+00
 -1      2181 0.00000E+00 0.00000E+00 0.00000E+00 0.00000E+00 0.00000E+00 0.00000E+00
 -1      2182 0.00000E+00 0.00000E+00 0.00000E+00 0.00000E+00 0.00000E+00 0.00000E+00
 -1      2183 0.00000E+00 0.00000E+00 0.00000E+00 0.00000E+00 0.00000E+00 0.00000E+00
 -1      2184 0.00000E+00 0.00000E+00 0.00000E+00 0.00000E+00 0.00000E+00 0.00000E+00
 -1      2185 0.00000E+00 0.00000E+00 0.00000E+00 0.00000E+00 0.00000E+00 0.00000E+00
 -1      2186 0.00000E+00 0.00000E+00 0.00000E+00 0.00000E+00 0.00000E+00 0.00000E+00
 -1      2187 0.00000E+00 0.00000E+00 0.00000E+00 0.00000E+00 0.00000E+00 0.00000E+00
 -1      2188 0.00000E+00 0.00000E+00 0.00000E+00 0.00000E+00 0.00000E+00 0.00000E+00
 -1      2189 0.00000E+00 0.00000E+00 0.00000E+00 0.00000E+00 0.00000E+00 0.00000E+00
 -1      2190 0.00000E+00 0.00000E+00 0.00000E+00 0.00000E+00 0.00000E+00 0.00000E+00
 -1      2191 0.00000E+00 0.00000E+00 0.00000E+00 0.00000E+00 0.00000E+00 0.00000E+00
 -1      2192 0.00000E+00 0.00000E+00 0.00000E+00 0.00000E+00 0.00000E+00 0.00000E+00
 -1      2193 0.00000E+00 0.00000E+00 0.00000E+00 0.00000E+00 0.00000E+00 0.00000E+00
 -1      2194 0.00000E+00 0.00000E+00 0.00000E+00 0.00000E+00 0.00000E+00 0.00000E+00
 -1      2195 0.00000E+00 0.00000E+00 0.00000E+00 0.00000E+00 0.00000E+00 0.00000E+00
 -1      2196 0.00000E+00 0.00000E+00 0.00000E+00 0.00000E+00 0.00000E+00 0.00000E+00
 -1      2197 0.00000E+00 0.00000E+00 0.00000E+00 0.00000E+00 0.00000E+00 0.00000E+00
 -1      2198 0.00000E+00 0.00000E+00 0.00000E+00 0.00000E+00 0.00000E+00 0.00000E+00
 -1      2199 0.00000E+00 0.00000E+00 0.00000E+00 0.00000E+00 0.00000E+00 0.00000E+00
 -1      2200 0.00000E+00 0.00000E+00 0.00000E+00 0.00000E+00 0.00000E+00 0.00000E+00
 -1      2201 0.00000E+00 0.00000E+00 0.00000E+00 0.00000E+00 0.00000E+00 0.00000E+00
 -1      2202 0.00000E+00 0.00000E+00 0.00000E+00 0.00000E+00 0.00000E+00 0.00000E+00
 -1      2203 0.00000E+00 0.00000E+00 0.00000E+00 0.00000E+00 0.00000E+00 0.00000E+00
 -1      2204 0.00000E+00 0.00000E+00 0.00000E+00 0.00000E+00 0.00000E+00 0.00000E+00
 -1      2205 0.00000E+00 0.00000E+00 0.00000E+00 0.00000E+00 0.00000E+00 0.00000E+00
 -1      2206 0.00000E+00 0.00000E+00 0.00000E+00 0.00000E+00 0.00000E+00 0.00000E+00
 -1      2207 0.00000E+00 0.00000E+00 0.00000E+00 0.00000E+00 0.00000E+00 0.00000E+00
 -1      2208 0.00000E+00 0.00000E+00 0.00000E+00 0.00000E+00 0.00000E+00 0.00000E+00
 -1      2209 0.00000E+00 0.00000E+00 0.00000E+00 0.00000E+00 0.00000E+00 0.00000E+00
 -1      2210 0.00000E+00 0.00000E+00 0.00000E+00 0.00000E+00 0.00000E+00 0.00000E+00
 -1      2211 0.00000E+00 0.00000E+00 0.00000E+00 0.00000E+00 0.00000E+00 0.00000E+00
 -1      2212 0.00000E+00 0.00000E+00 0.00000E+00 0.00000E+00 0.00000E+00 0.00000E+00
 -1      2213 0.00000E+00 0.00000E+00 0.00000E+00 0.00000E+00 0.00000E+00 0.00000E+00
 -1      2214 0.00000E+00 0.00000E+00 0.00000E+00 0.00000E+00 0.00000E+00 0.00000E+00
 -1      2215 0.00000E+00 0.00000E+00 0.00000E+00 0.00000E+00 0.00000E+00 0.00000E+00
 -1      2216 0.00000E+00 0.00000E+00 0.00000E+00 0.00000E+00 0.00000E+00 0.00000E+00
 -1      2217 0.00000E+00 0.00000E+00 0.00000E+00 0.00000E+00 0.00000E+00 0.00000E+00
 -1      2218 0.00000E+00 0.00000E+00 0.00000E+00 0.00000E+00 0.00000E+00 0.00000E+00
 -1      2219 0.00000E+00 0.00000E+00 0.00000E+00 0.00000E+00 0.00000E+00 0.00000E+00
 -1      2220 0.00000E+00 0.00000E+00 0.00000E+00 0.00000E+00 0.00000E+00 0.00000E+00
 -1      2221 0.00000E+00 0.00000E+00 0.00000E+00 0.00000E+00 0.00000E+00 0.00000E+00
 -1      2222 0.00000E+00 0.00000E+00 0.00000E+00 0.00000E+00 0.00000E+00 0.00000E+00
 -1      2223 0.00000E+00 0.00000E+00 0.00000E+00 0.00000E+00 0.00000E+00 0.00000E+00
 -1      2224 0.00000E+00 0.00000E+00 0.00000E+00 0.00000E+00 0.00000E+00 0.00000E+00
 -1      2225 0.00000E+00 0.00000E+00 0.00000E+00 0.00000E+00 0.00000E+00 0.00000E+00
 -1      2226 0.00000E+00 0.00000E+00 0.00000E+00 0.00000E+00 0.00000E+00 0.00000E+00
 -1      2227 0.00000E+00 0.00000E+00 0.00000E+00 0.00000E+00 0.00000E+00 0.00000E+00
 -1      2228 0.00000E+00 0.00000E+00 0.00000E+00 0.00000E+00 0.00000E+00 0.00000E+00
 -1      2229 0.00000E+00 0.00000E+00 0.00000E+00 0.00000E+00 0.00000E+00 0.00000E+00
 -1      2230 0.00000E+00 0.00000E+00 0.00000E+00 0.00000E+00 0.00000E+00 0.00000E+00
 -1      2231 0.00000E+00 0.00000E+00 0.00000E+00 0.00000E+00 0.00000E+00 0.00000E+00
 -1      2232 0.00000E+00 0.00000E+00 0.00000E+00 0.00000E+00 0.00000E+00 0.00000E+00
 -1      2233 0.00000E+00 0.00000E+00 0.00000E+00 0.00000E+00 0.00000E+00 0.00000E+00
 -1      2234 0.00000E+00 0.00000E+00 0.00000E+00 0.00000E+00 0.00000E+00 0.00000E+00
 -1      2235 0.00000E+00 0.00000E+00 0.00000E+00 0.00000E+00 0.00000E+00 0.00000E+00
 -1      2236 0.00000E+00 0.00000E+00 0.00000E+00 0.00000E+00 0.00000E+00 0.00000E+00
 -1      2237 0.00000E+00 0.00000E+00 0.00000E+00 0.00000E+00 0.00000E+00 0.00000E+00
 -1      2238 0.00000E+00 0.00000E+00 0.00000E+00 0.00000E+00 0.00000E+00 0.00000E+00
 -1      2239 0.00000E+00 0.00000E+00 0.00000E+00 0.00000E+00 0.00000E+00 0.00000E+00
 -1      2240 0.00000E+00 0.00000E+00 0.00000E+00 0.00000E+00 0.00000E+00 0.00000E+00
 -1      2241 0.00000E+00 0.00000E+00 0.00000E+00 0.00000E+00 0.00000E+00 0.00000E+00
 -1      2242 0.00000E+00 0.00000E+00 0.00000E+00 0.00000E+00 0.00000E+00 0.00000E+00
 -1      2243 0.00000E+00 0.00000E+00 0.00000E+00 0.00000E+00 0.00000E+00 0.00000E+00
 -1      2244 0.00000E+00 0.00000E+00 0.00000E+00 0.00000E+00 0.00000E+00 0.00000E+00
 -1      2245 0.00000E+00 0.00000E+00 0.00000E+00 0.00000E+00 0.00000E+00 0.00000E+00
 -1      2246 0.00000E+00 0.00000E+00 0.00000E+00 0.00000E+00 0.00000E+00 0.00000E+00
 -1      2247 0.00000E+00 0.00000E+00 0.00000E+00 0.00000E+00 0.00000E+00 0.00000E+00
 -1      2248 0.00000E+00 0.00000E+00 0.00000E+00 0.00000E+00 0.00000E+00 0.00000E+00
 -1      2249 0.00000E+00 0.00000E+00 0.00000E+00 0.00000E+00 0.00000E+00 0.00000E+00
 -1      2250 0.00000E+00 0.00000E+00 0.00000E+00 0.00000E+00 0.00000E+00 0.00000E+00
 -1      2251 0.00000E+00 0.00000E+00 0.00000E+00 0.00000E+00 0.00000E+00 0.00000E+00
 -1      2252 0.00000E+00 0.00000E+00 0.00000E+00 0.00000E+00 0.00000E+00 0.00000E+00
 -1      2253 0.00000E+00 0.00000E+00 0.00000E+00 0.00000E+00 0.00000E+00 0.00000E+00
 -1      2254 0.00000E+00 0.00000E+00 0.00000E+00 0.00000E+00 0.00000E+00 0.00000E+00
 -1      2255 0.00000E+00 0.00000E+00 0.00000E+00 0.00000E+00 0.00000E+00 0.00000E+00
 -1      2256 0.00000E+00 0.00000E+00 0.00000E+00 0.00000E+00 0.00000E+00 0.00000E+00
 -1      2257 0.00000E+00 0.00000E+00 0.00000E+00 0.00000E+00 0.00000E+00 0.00000E+00
 -1      2258 0.00000E+00 0.00000E+00 0.00000E+00 0.00000E+00 0.00000E+00 0.00000E+00
 -1      2259 0.00000E+00 0.00000E+00 0.00000E+00 0.00000E+00 0.00000E+00 0.00000E+00
 -1      2260 0.00000E+00 0.00000E+00 0.00000E+00 0.00000E+00 0.00000E+00 0.00000E+00
 -1      2261 0.00000E+00 0.00000E+00 0.00000E+00 0.00000E+00 0.00000E+00 0.00000E+00
 -1      2262 0.00000E+00 0.00000E+00 0.00000E+00 0.00000E+00 0.00000E+00 0.00000E+00
 -1      2263 0.00000E+00 0.00000E+00 0.00000E+00 0.00000E+00 0.00000E+00 0.00000E+00
 -1      2264 0.00000E+00 0.00000E+00 0.00000E+00 0.00000E+00 0.00000E+00 0.00000E+00
 -1      2265 0.00000E+00 0.00000E+00 0.00000E+00 0.00000E+00 0.00000E+00 0.00000E+00
 -1      2266 0.00000E+00 0.00000E+00 0.00000E+00 0.00000E+00 0.00000E+00 0.00000E+00
 -1      2267 0.00000E+00 0.00000E+00 0.00000E+00 0.00000E+00 0.00000E+00 0.00000E+00
 -1      2268 0.00000E+00 0.00000E+00 0.00000E+00 0.00000E+00 0.00000E+00 0.00000E+00
 -1      2269 0.00000E+00 0.00000E+00 0.00000E+00 0.00000E+00 0.00000E+00 0.00000E+00
 -1      2270 0.00000E+00 0.00000E+00 0.00000E+00 0.00000E+00 0.00000E+00 0.00000E+00
 -1      2271 0.00000E+00 0.00000E+00 0.00000E+00 0.00000E+00 0.00000E+00 0.00000E+00
 -1      2272 0.00000E+00 0.00000E+00 0.00000E+00 0.00000E+00 0.00000E+00 0.00000E+00
 -1      2273 0.00000E+00 0.00000E+00 0.00000E+00 0.00000E+00 0.00000E+00 0.00000E+00
 -1      2274 0.00000E+00 0.00000E+00 0.00000E+00 0.00000E+00 0.00000E+00 0.00000E+00
 -1      2275 0.00000E+00 0.00000E+00 0.00000E+00 0.00000E+00 0.00000E+00 0.00000E+00
 -1      2276 0.00000E+00 0.00000E+00 0.00000E+00 0.00000E+00 0.00000E+00 0.00000E+00
 -1      2277 0.00000E+00 0.00000E+00 0.00000E+00 0.00000E+00 0.00000E+00 0.00000E+00
 -1      2278 0.00000E+00 0.00000E+00 0.00000E+00 0.00000E+00 0.00000E+00 0.00000E+00
 -1      2279 0.00000E+00 0.00000E+00 0.00000E+00 0.00000E+00 0.00000E+00 0.00000E+00
 -1      2280 0.00000E+00 0.00000E+00 0.00000E+00 0.00000E+00 0.00000E+00 0.00000E+00
 -1      2281 0.00000E+00 0.00000E+00 0.00000E+00 0.00000E+00 0.00000E+00 0.00000E+00
 -1      2282 0.00000E+00 0.00000E+00 0.00000E+00 0.00000E+00 0.00000E+00 0.00000E+00
 -1      2283 0.00000E+00 0.00000E+00 0.00000E+00 0.00000E+00 0.00000E+00 0.00000E+00
 -1      2284 0.00000E+00 0.00000E+00 0.00000E+00 0.00000E+00 0.00000E+00 0.00000E+00
 -1      2285 0.00000E+00 0.00000E+00 0.00000E+00 0.00000E+00 0.00000E+00 0.00000E+00
 -1      2286 0.00000E+00 0.00000E+00 0.00000E+00 0.00000E+00 0.00000E+00 0.00000E+00
 -1      2287 0.00000E+00 0.00000E+00 0.00000E+00 0.00000E+00 0.00000E+00 0.00000E+00
 -1      2288 0.00000E+00 0.00000E+00 0.00000E+00 0.00000E+00 0.00000E+00 0.00000E+00
 -1      2289 0.00000E+00 0.00000E+00 0.00000E+00 0.00000E+00 0.00000E+00 0.00000E+00
 -1      2290 0.00000E+00 0.00000E+00 0.00000E+00 0.00000E+00 0.00000E+00 0.00000E+00
 -1      2291 0.00000E+00 0.00000E+00 0.00000E+00 0.00000E+00 0.00000E+00 0.00000E+00
 -1      2292 0.00000E+00 0.00000E+00 0.00000E+00 0.00000E+00 0.00000E+00 0.00000E+00
 -1      2293 0.00000E+00 0.00000E+00 0.00000E+00 0.00000E+00 0.00000E+00 0.00000E+00
 -1      2294 0.00000E+00 0.00000E+00 0.00000E+00 0.00000E+00 0.00000E+00 0.00000E+00
 -1      2295 0.00000E+00 0.00000E+00 0.00000E+00 0.00000E+00 0.00000E+00 0.00000E+00
 -1      2296 0.00000E+00 0.00000E+00 0.00000E+00 0.00000E+00 0.00000E+00 0.00000E+00
 -1      2297 0.00000E+00 0.00000E+00 0.00000E+00 0.00000E+00 0.00000E+00 0.00000E+00
 -1      2298 0.00000E+00 0.00000E+00 0.00000E+00 0.00000E+00 0.00000E+00 0.00000E+00
 -1      2299 0.00000E+00 0.00000E+00 0.00000E+00 0.00000E+00 0.00000E+00 0.00000E+00
 -1      2300 0.00000E+00 0.00000E+00 0.00000E+00 0.00000E+00 0.00000E+00 0.00000E+00
 -1      2301 0.00000E+00 0.00000E+00 0.00000E+00 0.00000E+00 0.00000E+00 0.00000E+00
 -1      2302 0.00000E+00 0.00000E+00 0.00000E+00 0.00000E+00 0.00000E+00 0.00000E+00
 -1      2303 0.00000E+00 0.00000E+00 0.00000E+00 0.00000E+00 0.00000E+00 0.00000E+00
 -1      2304 0.00000E+00 0.00000E+00 0.00000E+00 0.00000E+00 0.00000E+00 0.00000E+00
 -1      2305 0.00000E+00 0.00000E+00 0.00000E+00 0.00000E+00 0.00000E+00 0.00000E+00
 -1      2306 0.00000E+00 0.00000E+00 0.00000E+00 0.00000E+00 0.00000E+00 0.00000E+00
 -1      2307 0.00000E+00 0.00000E+00 0.00000E+00 0.00000E+00 0.00000E+00 0.00000E+00
 -1      2308 0.00000E+00 0.00000E+00 0.00000E+00 0.00000E+00 0.00000E+00 0.00000E+00
 -1      2309 0.00000E+00 0.00000E+00 0.00000E+00 0.00000E+00 0.00000E+00 0.00000E+00
 -1      2310 0.00000E+00 0.00000E+00 0.00000E+00 0.00000E+00 0.00000E+00 0.00000E+00
 -1      2311 0.00000E+00 0.00000E+00 0.00000E+00 0.00000E+00 0.00000E+00 0.00000E+00
 -1      2312 0.00000E+00 0.00000E+00 0.00000E+00 0.00000E+00 0.00000E+00 0.00000E+00
 -1      2313 0.00000E+00 0.00000E+00 0.00000E+00 0.00000E+00 0.00000E+00 0.00000E+00
 -1      2314 0.00000E+00 0.00000E+00 0.00000E+00 0.00000E+00 0.00000E+00 0.00000E+00
 -1      2315 0.00000E+00 0.00000E+00 0.00000E+00 0.00000E+00 0.00000E+00 0.00000E+00
 -1      2316 0.00000E+00 0.00000E+00 0.00000E+00 0.00000E+00 0.00000E+00 0.00000E+00
 -1      2317 0.00000E+00 0.00000E+00 0.00000E+00 0.00000E+00 0.00000E+00 0.00000E+00
 -1      2318 0.00000E+00 0.00000E+00 0.00000E+00 0.00000E+00 0.00000E+00 0.00000E+00
 -1      2319 0.00000E+00 0.00000E+00 0.00000E+00 0.00000E+00 0.00000E+00 0.00000E+00
 -1      2320 0.00000E+00 0.00000E+00 0.00000E+00 0.00000E+00 0.00000E+00 0.00000E+00
 -1      2321 0.00000E+00 0.00000E+00 0.00000E+00 0.00000E+00 0.00000E+00 0.00000E+00
 -1      2322 0.00000E+00 0.00000E+00 0.00000E+00 0.00000E+00 0.00000E+00 0.00000E+00
 -1      2323 0.00000E+00 0.00000E+00 0.00000E+00 0.00000E+00 0.00000E+00 0.00000E+00
 -1      2324 0.00000E+00 0.00000E+00 0.00000E+00 0.00000E+00 0.00000E+00 0.00000E+00
 -1      2325 0.00000E+00 0.00000E+00 0.00000E+00 0.00000E+00 0.00000E+00 0.00000E+00
 -1      2326 0.00000E+00 0.00000E+00 0.00000E+00 0.00000E+00 0.00000E+00 0.00000E+00
 -1      2327 0.00000E+00 0.00000E+00 0.00000E+00 0.00000E+00 0.00000E+00 0.00000E+00
 -1      2328 0.00000E+00 0.00000E+00 0.00000E+00 0.00000E+00 0.00000E+00 0.00000E+00
 -1      2329 0.00000E+00 0.00000E+00 0.00000E+00 0.00000E+00 0.00000E+00 0.00000E+00
 -1      2330 0.00000E+00 0.00000E+00 0.00000E+00 0.00000E+00 0.00000E+00 0.00000E+00
 -1      2331 0.00000E+00 0.00000E+00 0.00000E+00 0.00000E+00 0.00000E+00 0.00000E+00
 -1      2332 0.00000E+00 0.00000E+00 0.00000E+00 0.00000E+00 0.00000E+00 0.00000E+00
 -1      2333 0.00000E+00 0.00000E+00 0.00000E+00 0.00000E+00 0.00000E+00 0.00000E+00
 -1      2334 0.00000E+00 0.00000E+00 0.00000E+00 0.00000E+00 0.00000E+00 0.00000E+00
 -1      2335 0.00000E+00 0.00000E+00 0.00000E+00 0.00000E+00 0.00000E+00 0.00000E+00
 -1      2336 0.00000E+00 0.00000E+00 0.00000E+00 0.00000E+00 0.00000E+00 0.00000E+00
 -1      2337 0.00000E+00 0.00000E+00 0.00000E+00 0.00000E+00 0.00000E+00 0.00000E+00
 -1      2338 0.00000E+00 0.00000E+00 0.00000E+00 0.00000E+00 0.00000E+00 0.00000E+00
 -1      2339 0.00000E+00 0.00000E+00 0.00000E+00 0.00000E+00 0.00000E+00 0.00000E+00
 -1      2340 0.00000E+00 0.00000E+00 0.00000E+00 0.00000E+00 0.00000E+00 0.00000E+00
 -1      2341 0.00000E+00 0.00000E+00 0.00000E+00 0.00000E+00 0.00000E+00 0.00000E+00
 -1      2342 0.00000E+00 0.00000E+00 0.00000E+00 0.00000E+00 0.00000E+00 0.00000E+00
 -1      2343 0.00000E+00 0.00000E+00 0.00000E+00 0.00000E+00 0.00000E+00 0.00000E+00
 -1      2344 0.00000E+00 0.00000E+00 0.00000E+00 0.00000E+00 0.00000E+00 0.00000E+00
 -1      2345 0.00000E+00 0.00000E+00 0.00000E+00 0.00000E+00 0.00000E+00 0.00000E+00
 -1      2346 0.00000E+00 0.00000E+00 0.00000E+00 0.00000E+00 0.00000E+00 0.00000E+00
 -1      2347 0.00000E+00 0.00000E+00 0.00000E+00 0.00000E+00 0.00000E+00 0.00000E+00
 -1      2348 0.00000E+00 0.00000E+00 0.00000E+00 0.00000E+00 0.00000E+00 0.00000E+00
 -1      2349 0.00000E+00 0.00000E+00 0.00000E+00 0.00000E+00 0.00000E+00 0.00000E+00
 -1      2350 0.00000E+00 0.00000E+00 0.00000E+00 0.00000E+00 0.00000E+00 0.00000E+00
 -1      2351 0.00000E+00 0.00000E+00 0.00000E+00 0.00000E+00 0.00000E+00 0.00000E+00
 -1      2352 0.00000E+00 0.00000E+00 0.00000E+00 0.00000E+00 0.00000E+00 0.00000E+00
 -1      2353 0.00000E+00 0.00000E+00 0.00000E+00 0.00000E+00 0.00000E+00 0.00000E+00
 -1      2354 0.00000E+00 0.00000E+00 0.00000E+00 0.00000E+00 0.00000E+00 0.00000E+00
 -1      2355 0.00000E+00 0.00000E+00 0.00000E+00 0.00000E+00 0.00000E+00 0.00000E+00
 -1      2356 0.00000E+00 0.00000E+00 0.00000E+00 0.00000E+00 0.00000E+00 0.00000E+00
 -1      2357 0.00000E+00 0.00000E+00 0.00000E+00 0.00000E+00 0.00000E+00 0.00000E+00
 -1      2358 0.00000E+00 0.00000E+00 0.00000E+00 0.00000E+00 0.00000E+00 0.00000E+00
 -1      2359 0.00000E+00 0.00000E+00 0.00000E+00 0.00000E+00 0.00000E+00 0.00000E+00
 -1      2360 0.00000E+00 0.00000E+00 0.00000E+00 0.00000E+00 0.00000E+00 0.00000E+00
 -1      2361 0.00000E+00 0.00000E+00 0.00000E+00 0.00000E+00 0.00000E+00 0.00000E+00
 -1      2362 0.00000E+00 0.00000E+00 0.00000E+00 0.00000E+00 0.00000E+00 0.00000E+00
 -1      2363 0.00000E+00 0.00000E+00 0.00000E+00 0.00000E+00 0.00000E+00 0.00000E+00
 -1      2364 0.00000E+00 0.00000E+00 0.00000E+00 0.00000E+00 0.00000E+00 0.00000E+00
 -1      2365 0.00000E+00 0.00000E+00 0.00000E+00 0.00000E+00 0.00000E+00 0.00000E+00
 -1      2366 0.00000E+00 0.00000E+00 0.00000E+00 0.00000E+00 0.00000E+00 0.00000E+00
 -1      2367 0.00000E+00 0.00000E+00 0.00000E+00 0.00000E+00 0.00000E+00 0.00000E+00
 -1      2368 0.00000E+00 0.00000E+00 0.00000E+00 0.00000E+00 0.00000E+00 0.00000E+00
 -1      2369 0.00000E+00 0.00000E+00 0.00000E+00 0.00000E+00 0.00000E+00 0.00000E+00
 -1      2370 0.00000E+00 0.00000E+00 0.00000E+00 0.00000E+00 0.00000E+00 0.00000E+00
 -1      2371 0.00000E+00 0.00000E+00 0.00000E+00 0.00000E+00 0.00000E+00 0.00000E+00
 -1      2372 0.00000E+00 0.00000E+00 0.00000E+00 0.00000E+00 0.00000E+00 0.00000E+00
 -1      2373 0.00000E+00 0.00000E+00 0.00000E+00 0.00000E+00 0.00000E+00 0.00000E+00
 -1      2374 0.00000E+00 0.00000E+00 0.00000E+00 0.00000E+00 0.00000E+00 0.00000E+00
 -1      2375 0.00000E+00 0.00000E+00 0.00000E+00 0.00000E+00 0.00000E+00 0.00000E+00
 -1      2376 0.00000E+00 0.00000E+00 0.00000E+00 0.00000E+00 0.00000E+00 0.00000E+00
 -1      2377 0.00000E+00 0.00000E+00 0.00000E+00 0.00000E+00 0.00000E+00 0.00000E+00
 -1      2378 0.00000E+00 0.00000E+00 0.00000E+00 0.00000E+00 0.00000E+00 0.00000E+00
 -1      2379 0.00000E+00 0.00000E+00 0.00000E+00 0.00000E+00 0.00000E+00 0.00000E+00
 -1      2380 0.00000E+00 0.00000E+00 0.00000E+00 0.00000E+00 0.00000E+00 0.00000E+00
 -1      2381 0.00000E+00 0.00000E+00 0.00000E+00 0.00000E+00 0.00000E+00 0.00000E+00
 -1      2382 0.00000E+00 0.00000E+00 0.00000E+00 0.00000E+00 0.00000E+00 0.00000E+00
 -1      2383 0.00000E+00 0.00000E+00 0.00000E+00 0.00000E+00 0.00000E+00 0.00000E+00
 -1      2384 0.00000E+00 0.00000E+00 0.00000E+00 0.00000E+00 0.00000E+00 0.00000E+00
 -1      2385 0.00000E+00 0.00000E+00 0.00000E+00 0.00000E+00 0.00000E+00 0.00000E+00
 -1      2386 0.00000E+00 0.00000E+00 0.00000E+00 0.00000E+00 0.00000E+00 0.00000E+00
 -1      2387 0.00000E+00 0.00000E+00 0.00000E+00 0.00000E+00 0.00000E+00 0.00000E+00
 -1      2388 0.00000E+00 0.00000E+00 0.00000E+00 0.00000E+00 0.00000E+00 0.00000E+00
 -1      2389 0.00000E+00 0.00000E+00 0.00000E+00 0.00000E+00 0.00000E+00 0.00000E+00
 -1      2390 0.00000E+00 0.00000E+00 0.00000E+00 0.00000E+00 0.00000E+00 0.00000E+00
 -1      2391 0.00000E+00 0.00000E+00 0.00000E+00 0.00000E+00 0.00000E+00 0.00000E+00
 -1      2392 0.00000E+00 0.00000E+00 0.00000E+00 0.00000E+00 0.00000E+00 0.00000E+00
 -1      2393 0.00000E+00 0.00000E+00 0.00000E+00 0.00000E+00 0.00000E+00 0.00000E+00
 -1      2394 0.00000E+00 0.00000E+00 0.00000E+00 0.00000E+00 0.00000E+00 0.00000E+00
 -1      2395 0.00000E+00 0.00000E+00 0.00000E+00 0.00000E+00 0.00000E+00 0.00000E+00
 -1      2396 0.00000E+00 0.00000E+00 0.00000E+00 0.00000E+00 0.00000E+00 0.00000E+00
 -1      2397 0.00000E+00 0.00000E+00 0.00000E+00 0.00000E+00 0.00000E+00 0.00000E+00
 -1      2398 0.00000E+00 0.00000E+00 0.00000E+00 0.00000E+00 0.00000E+00 0.00000E+00
 -1      2399 0.00000E+00 0.00000E+00 0.00000E+00 0.00000E+00 0.00000E+00 0.00000E+00
 -1      2400 0.00000E+00 0.00000E+00 0.00000E+00 0.00000E+00 0.00000E+00 0.00000E+00
 -1      2401 0.00000E+00 0.00000E+00 0.00000E+00 0.00000E+00 0.00000E+00 0.00000E+00
 -1      2402 0.00000E+00 0.00000E+00 0.00000E+00 0.00000E+00 0.00000E+00 0.00000E+00
 -1      2403 0.00000E+00 0.00000E+00 0.00000E+00 0.00000E+00 0.00000E+00 0.00000E+00
 -1      2404 0.00000E+00 0.00000E+00 0.00000E+00 0.00000E+00 0.00000E+00 0.00000E+00
 -1      2405 0.00000E+00 0.00000E+00 0.00000E+00 0.00000E+00 0.00000E+00 0.00000E+00
 -1      2406 0.00000E+00 0.00000E+00 0.00000E+00 0.00000E+00 0.00000E+00 0.00000E+00
 -1      2407 0.00000E+00 0.00000E+00 0.00000E+00 0.00000E+00 0.00000E+00 0.00000E+00
 -1      2408 0.00000E+00 0.00000E+00 0.00000E+00 0.00000E+00 0.00000E+00 0.00000E+00
 -1      2409 0.00000E+00 0.00000E+00 0.00000E+00 0.00000E+00 0.00000E+00 0.00000E+00
 -1      2410 0.00000E+00 0.00000E+00 0.00000E+00 0.00000E+00 0.00000E+00 0.00000E+00
 -1      2411 0.00000E+00 0.00000E+00 0.00000E+00 0.00000E+00 0.00000E+00 0.00000E+00
 -1      2412 0.00000E+00 0.00000E+00 0.00000E+00 0.00000E+00 0.00000E+00 0.00000E+00
 -1      2413 0.00000E+00 0.00000E+00 0.00000E+00 0.00000E+00 0.00000E+00 0.00000E+00
 -1      2414 0.00000E+00 0.00000E+00 0.00000E+00 0.00000E+00 0.00000E+00 0.00000E+00
 -1      2415 0.00000E+00 0.00000E+00 0.00000E+00 0.00000E+00 0.00000E+00 0.00000E+00
 -1      2416 0.00000E+00 0.00000E+00 0.00000E+00 0.00000E+00 0.00000E+00 0.00000E+00
 -1      2417 0.00000E+00 0.00000E+00 0.00000E+00 0.00000E+00 0.00000E+00 0.00000E+00
 -1      2418 0.00000E+00 0.00000E+00 0.00000E+00 0.00000E+00 0.00000E+00 0.00000E+00
 -1      2419 0.00000E+00 0.00000E+00 0.00000E+00 0.00000E+00 0.00000E+00 0.00000E+00
 -1      2420 0.00000E+00 0.00000E+00 0.00000E+00 0.00000E+00 0.00000E+00 0.00000E+00
 -1      2421 0.00000E+00 0.00000E+00 0.00000E+00 0.00000E+00 0.00000E+00 0.00000E+00
 -1      2422 0.00000E+00 0.00000E+00 0.00000E+00 0.00000E+00 0.00000E+00 0.00000E+00
 -1      2423 0.00000E+00 0.00000E+00 0.00000E+00 0.00000E+00 0.00000E+00 0.00000E+00
 -1      2424 0.00000E+00 0.00000E+00 0.00000E+00 0.00000E+00 0.00000E+00 0.00000E+00
 -1      2425 0.00000E+00 0.00000E+00 0.00000E+00 0.00000E+00 0.00000E+00 0.00000E+00
 -1      2426 0.00000E+00 0.00000E+00 0.00000E+00 0.00000E+00 0.00000E+00 0.00000E+00
 -1      2427 0.00000E+00 0.00000E+00 0.00000E+00 0.00000E+00 0.00000E+00 0.00000E+00
 -1      2428 0.00000E+00 0.00000E+00 0.00000E+00 0.00000E+00 0.00000E+00 0.00000E+00
 -1      2429 0.00000E+00 0.00000E+00 0.00000E+00 0.00000E+00 0.00000E+00 0.00000E+00
 -1      2430 0.00000E+00 0.00000E+00 0.00000E+00 0.00000E+00 0.00000E+00 0.00000E+00
 -1      2431 0.00000E+00 0.00000E+00 0.00000E+00 0.00000E+00 0.00000E+00 0.00000E+00
 -1      2432 0.00000E+00 0.00000E+00 0.00000E+00 0.00000E+00 0.00000E+00 0.00000E+00
 -1      2433 0.00000E+00 0.00000E+00 0.00000E+00 0.00000E+00 0.00000E+00 0.00000E+00
 -1      2434 0.00000E+00 0.00000E+00 0.00000E+00 0.00000E+00 0.00000E+00 0.00000E+00
 -1      2435 0.00000E+00 0.00000E+00 0.00000E+00 0.00000E+00 0.00000E+00 0.00000E+00
 -1      2436 0.00000E+00 0.00000E+00 0.00000E+00 0.00000E+00 0.00000E+00 0.00000E+00
 -1      2437 0.00000E+00 0.00000E+00 0.00000E+00 0.00000E+00 0.00000E+00 0.00000E+00
 -1      2438 0.00000E+00 0.00000E+00 0.00000E+00 0.00000E+00 0.00000E+00 0.00000E+00
 -1      2439 0.00000E+00 0.00000E+00 0.00000E+00 0.00000E+00 0.00000E+00 0.00000E+00
 -1      2440 0.00000E+00 0.00000E+00 0.00000E+00 0.00000E+00 0.00000E+00 0.00000E+00
 -1      2441 0.00000E+00 0.00000E+00 0.00000E+00 0.00000E+00 0.00000E+00 0.00000E+00
 -1      2442 0.00000E+00 0.00000E+00 0.00000E+00 0.00000E+00 0.00000E+00 0.00000E+00
 -1      2443 0.00000E+00 0.00000E+00 0.00000E+00 0.00000E+00 0.00000E+00 0.00000E+00
 -1      2444 0.00000E+00 0.00000E+00 0.00000E+00 0.00000E+00 0.00000E+00 0.00000E+00
 -1      2445 0.00000E+00 0.00000E+00 0.00000E+00 0.00000E+00 0.00000E+00 0.00000E+00
 -1      2446 0.00000E+00 0.00000E+00 0.00000E+00 0.00000E+00 0.00000E+00 0.00000E+00
 -1      2447 0.00000E+00 0.00000E+00 0.00000E+00 0.00000E+00 0.00000E+00 0.00000E+00
 -1      2448 0.00000E+00 0.00000E+00 0.00000E+00 0.00000E+00 0.00000E+00 0.00000E+00
 -1      2449 0.00000E+00 0.00000E+00 0.00000E+00 0.00000E+00 0.00000E+00 0.00000E+00
 -1      2450 0.00000E+00 0.00000E+00 0.00000E+00 0.00000E+00 0.00000E+00 0.00000E+00
 -1      2451 0.00000E+00 0.00000E+00 0.00000E+00 0.00000E+00 0.00000E+00 0.00000E+00
 -1      2452 0.00000E+00 0.00000E+00 0.00000E+00 0.00000E+00 0.00000E+00 0.00000E+00
 -1      2453 0.00000E+00 0.00000E+00 0.00000E+00 0.00000E+00 0.00000E+00 0.00000E+00
 -1      2454 0.00000E+00 0.00000E+00 0.00000E+00 0.00000E+00 0.00000E+00 0.00000E+00
 -1      2455 0.00000E+00 0.00000E+00 0.00000E+00 0.00000E+00 0.00000E+00 0.00000E+00
 -1      2456 0.00000E+00 0.00000E+00 0.00000E+00 0.00000E+00 0.00000E+00 0.00000E+00
 -1      2457 0.00000E+00 0.00000E+00 0.00000E+00 0.00000E+00 0.00000E+00 0.00000E+00
 -1      2458 0.00000E+00 0.00000E+00 0.00000E+00 0.00000E+00 0.00000E+00 0.00000E+00
 -1      2459 0.00000E+00 0.00000E+00 0.00000E+00 0.00000E+00 0.00000E+00 0.00000E+00
 -1      2460 0.00000E+00 0.00000E+00 0.00000E+00 0.00000E+00 0.00000E+00 0.00000E+00
 -1      2461 0.00000E+00 0.00000E+00 0.00000E+00 0.00000E+00 0.00000E+00 0.00000E+00
 -1      2462 0.00000E+00 0.00000E+00 0.00000E+00 0.00000E+00 0.00000E+00 0.00000E+00
 -1      2463 0.00000E+00 0.00000E+00 0.00000E+00 0.00000E+00 0.00000E+00 0.00000E+00
 -1      2464 0.00000E+00 0.00000E+00 0.00000E+00 0.00000E+00 0.00000E+00 0.00000E+00
 -1      2465 0.00000E+00 0.00000E+00 0.00000E+00 0.00000E+00 0.00000E+00 0.00000E+00
 -1      2466 0.00000E+00 0.00000E+00 0.00000E+00 0.00000E+00 0.00000E+00 0.00000E+00
 -1      2467 0.00000E+00 0.00000E+00 0.00000E+00 0.00000E+00 0.00000E+00 0.00000E+00
 -1      2468 0.00000E+00 0.00000E+00 0.00000E+00 0.00000E+00 0.00000E+00 0.00000E+00
 -1      2469 0.00000E+00 0.00000E+00 0.00000E+00 0.00000E+00 0.00000E+00 0.00000E+00
 -1      2470 0.00000E+00 0.00000E+00 0.00000E+00 0.00000E+00 0.00000E+00 0.00000E+00
 -1      2471 0.00000E+00 0.00000E+00 0.00000E+00 0.00000E+00 0.00000E+00 0.00000E+00
 -1      2472 0.00000E+00 0.00000E+00 0.00000E+00 0.00000E+00 0.00000E+00 0.00000E+00
 -1      2473 0.00000E+00 0.00000E+00 0.00000E+00 0.00000E+00 0.00000E+00 0.00000E+00
 -1      2474 0.00000E+00 0.00000E+00 0.00000E+00 0.00000E+00 0.00000E+00 0.00000E+00
 -1      2475 0.00000E+00 0.00000E+00 0.00000E+00 0.00000E+00 0.00000E+00 0.00000E+00
 -1      2476 0.00000E+00 0.00000E+00 0.00000E+00 0.00000E+00 0.00000E+00 0.00000E+00
 -1      2477 0.00000E+00 0.00000E+00 0.00000E+00 0.00000E+00 0.00000E+00 0.00000E+00
 -1      2478 0.00000E+00 0.00000E+00 0.00000E+00 0.00000E+00 0.00000E+00 0.00000E+00
 -1      2479 0.00000E+00 0.00000E+00 0.00000E+00 0.00000E+00 0.00000E+00 0.00000E+00
 -1      2480 0.00000E+00 0.00000E+00 0.00000E+00 0.00000E+00 0.00000E+00 0.00000E+00
 -1      2481 0.00000E+00 0.00000E+00 0.00000E+00 0.00000E+00 0.00000E+00 0.00000E+00
 -1      2482 0.00000E+00 0.00000E+00 0.00000E+00 0.00000E+00 0.00000E+00 0.00000E+00
 -1      2483 0.00000E+00 0.00000E+00 0.00000E+00 0.00000E+00 0.00000E+00 0.00000E+00
 -1      2484 0.00000E+00 0.00000E+00 0.00000E+00 0.00000E+00 0.00000E+00 0.00000E+00
 -1      2485 0.00000E+00 0.00000E+00 0.00000E+00 0.00000E+00 0.00000E+00 0.00000E+00
 -1      2486 0.00000E+00 0.00000E+00 0.00000E+00 0.00000E+00 0.00000E+00 0.00000E+00
 -1      2487 0.00000E+00 0.00000E+00 0.00000E+00 0.00000E+00 0.00000E+00 0.00000E+00
 -1      2488 0.00000E+00 0.00000E+00 0.00000E+00 0.00000E+00 0.00000E+00 0.00000E+00
 -1      2489 0.00000E+00 0.00000E+00 0.00000E+00 0.00000E+00 0.00000E+00 0.00000E+00
 -1      2490 0.00000E+00 0.00000E+00 0.00000E+00 0.00000E+00 0.00000E+00 0.00000E+00
 -1      2491 0.00000E+00 0.00000E+00 0.00000E+00 0.00000E+00 0.00000E+00 0.00000E+00
 -1      2492 0.00000E+00 0.00000E+00 0.00000E+00 0.00000E+00 0.00000E+00 0.00000E+00
 -1      2493 0.00000E+00 0.00000E+00 0.00000E+00 0.00000E+00 0.00000E+00 0.00000E+00
 -1      2494 0.00000E+00 0.00000E+00 0.00000E+00 0.00000E+00 0.00000E+00 0.00000E+00
 -1      2495 0.00000E+00 0.00000E+00 0.00000E+00 0.00000E+00 0.00000E+00 0.00000E+00
 -1      2496 0.00000E+00 0.00000E+00 0.00000E+00 0.00000E+00 0.00000E+00 0.00000E+00
 -1      2497 0.00000E+00 0.00000E+00 0.00000E+00 0.00000E+00 0.00000E+00 0.00000E+00
 -1      2498 0.00000E+00 0.00000E+00 0.00000E+00 0.00000E+00 0.00000E+00 0.00000E+00
 -1      2499 0.00000E+00 0.00000E+00 0.00000E+00 0.00000E+00 0.00000E+00 0.00000E+00
 -1      2500 0.00000E+00 0.00000E+00 0.00000E+00 0.00000E+00 0.00000E+00 0.00000E+00
 -1      2501 0.00000E+00 0.00000E+00 0.00000E+00 0.00000E+00 0.00000E+00 0.00000E+00
 -1      2502 0.00000E+00 0.00000E+00 0.00000E+00 0.00000E+00 0.00000E+00 0.00000E+00
 -1      2503 0.00000E+00 0.00000E+00 0.00000E+00 0.00000E+00 0.00000E+00 0.00000E+00
 -1      2504 0.00000E+00 0.00000E+00 0.00000E+00 0.00000E+00 0.00000E+00 0.00000E+00
 -1      2505 0.00000E+00 0.00000E+00 0.00000E+00 0.00000E+00 0.00000E+00 0.00000E+00
 -1      2506 0.00000E+00 0.00000E+00 0.00000E+00 0.00000E+00 0.00000E+00 0.00000E+00
 -1      2507 0.00000E+00 0.00000E+00 0.00000E+00 0.00000E+00 0.00000E+00 0.00000E+00
 -1      2508 0.00000E+00 0.00000E+00 0.00000E+00 0.00000E+00 0.00000E+00 0.00000E+00
 -1      2509 0.00000E+00 0.00000E+00 0.00000E+00 0.00000E+00 0.00000E+00 0.00000E+00
 -1      2510 0.00000E+00 0.00000E+00 0.00000E+00 0.00000E+00 0.00000E+00 0.00000E+00
 -1      2511 0.00000E+00 0.00000E+00 0.00000E+00 0.00000E+00 0.00000E+00 0.00000E+00
 -1      2512 0.00000E+00 0.00000E+00 0.00000E+00 0.00000E+00 0.00000E+00 0.00000E+00
 -1      2513 0.00000E+00 0.00000E+00 0.00000E+00 0.00000E+00 0.00000E+00 0.00000E+00
 -1      2514 0.00000E+00 0.00000E+00 0.00000E+00 0.00000E+00 0.00000E+00 0.00000E+00
 -1      2515 0.00000E+00 0.00000E+00 0.00000E+00 0.00000E+00 0.00000E+00 0.00000E+00
 -1      2516 0.00000E+00 0.00000E+00 0.00000E+00 0.00000E+00 0.00000E+00 0.00000E+00
 -1      2517 0.00000E+00 0.00000E+00 0.00000E+00 0.00000E+00 0.00000E+00 0.00000E+00
 -1      2518 0.00000E+00 0.00000E+00 0.00000E+00 0.00000E+00 0.00000E+00 0.00000E+00
 -1      2519 0.00000E+00 0.00000E+00 0.00000E+00 0.00000E+00 0.00000E+00 0.00000E+00
 -1      2520 0.00000E+00 0.00000E+00 0.00000E+00 0.00000E+00 0.00000E+00 0.00000E+00
 -1      2521 0.00000E+00 0.00000E+00 0.00000E+00 0.00000E+00 0.00000E+00 0.00000E+00
 -1      2522 0.00000E+00 0.00000E+00 0.00000E+00 0.00000E+00 0.00000E+00 0.00000E+00
 -1      2523 0.00000E+00 0.00000E+00 0.00000E+00 0.00000E+00 0.00000E+00 0.00000E+00
 -1      2524 0.00000E+00 0.00000E+00 0.00000E+00 0.00000E+00 0.00000E+00 0.00000E+00
 -1      2525 0.00000E+00 0.00000E+00 0.00000E+00 0.00000E+00 0.00000E+00 0.00000E+00
 -1      2526 0.00000E+00 0.00000E+00 0.00000E+00 0.00000E+00 0.00000E+00 0.00000E+00
 -1      2527 0.00000E+00 0.00000E+00 0.00000E+00 0.00000E+00 0.00000E+00 0.00000E+00
 -1      2528 0.00000E+00 0.00000E+00 0.00000E+00 0.00000E+00 0.00000E+00 0.00000E+00
 -1      2529 0.00000E+00 0.00000E+00 0.00000E+00 0.00000E+00 0.00000E+00 0.00000E+00
 -1      2530 0.00000E+00 0.00000E+00 0.00000E+00 0.00000E+00 0.00000E+00 0.00000E+00
 -1      2531 0.00000E+00 0.00000E+00 0.00000E+00 0.00000E+00 0.00000E+00 0.00000E+00
 -1      2532 0.00000E+00 0.00000E+00 0.00000E+00 0.00000E+00 0.00000E+00 0.00000E+00
 -1      2533 0.00000E+00 0.00000E+00 0.00000E+00 0.00000E+00 0.00000E+00 0.00000E+00
 -1      2534 0.00000E+00 0.00000E+00 0.00000E+00 0.00000E+00 0.00000E+00 0.00000E+00
 -1      2535 0.00000E+00 0.00000E+00 0.00000E+00 0.00000E+00 0.00000E+00 0.00000E+00
 -1      2536 0.00000E+00 0.00000E+00 0.00000E+00 0.00000E+00 0.00000E+00 0.00000E+00
 -1      2537 0.00000E+00 0.00000E+00 0.00000E+00 0.00000E+00 0.00000E+00 0.00000E+00
 -1      2538 0.00000E+00 0.00000E+00 0.00000E+00 0.00000E+00 0.00000E+00 0.00000E+00
 -1      2539 0.00000E+00 0.00000E+00 0.00000E+00 0.00000E+00 0.00000E+00 0.00000E+00
 -1      2540 0.00000E+00 0.00000E+00 0.00000E+00 0.00000E+00 0.00000E+00 0.00000E+00
 -1      2541 0.00000E+00 0.00000E+00 0.00000E+00 0.00000E+00 0.00000E+00 0.00000E+00
 -1      2542 0.00000E+00 0.00000E+00 0.00000E+00 0.00000E+00 0.00000E+00 0.00000E+00
 -1      2543 0.00000E+00 0.00000E+00 0.00000E+00 0.00000E+00 0.00000E+00 0.00000E+00
 -1      2544 0.00000E+00 0.00000E+00 0.00000E+00 0.00000E+00 0.00000E+00 0.00000E+00
 -1      2545 0.00000E+00 0.00000E+00 0.00000E+00 0.00000E+00 0.00000E+00 0.00000E+00
 -1      2546 0.00000E+00 0.00000E+00 0.00000E+00 0.00000E+00 0.00000E+00 0.00000E+00
 -1      2547 0.00000E+00 0.00000E+00 0.00000E+00 0.00000E+00 0.00000E+00 0.00000E+00
 -1      2548 0.00000E+00 0.00000E+00 0.00000E+00 0.00000E+00 0.00000E+00 0.00000E+00
 -1      2549 0.00000E+00 0.00000E+00 0.00000E+00 0.00000E+00 0.00000E+00 0.00000E+00
 -1      2550 0.00000E+00 0.00000E+00 0.00000E+00 0.00000E+00 0.00000E+00 0.00000E+00
 -1      2551 0.00000E+00 0.00000E+00 0.00000E+00 0.00000E+00 0.00000E+00 0.00000E+00
 -1      2552 0.00000E+00 0.00000E+00 0.00000E+00 0.00000E+00 0.00000E+00 0.00000E+00
 -1      2553 0.00000E+00 0.00000E+00 0.00000E+00 0.00000E+00 0.00000E+00 0.00000E+00
 -1      2554 0.00000E+00 0.00000E+00 0.00000E+00 0.00000E+00 0.00000E+00 0.00000E+00
 -1      2555 0.00000E+00 0.00000E+00 0.00000E+00 0.00000E+00 0.00000E+00 0.00000E+00
 -1      2556 0.00000E+00 0.00000E+00 0.00000E+00 0.00000E+00 0.00000E+00 0.00000E+00
 -1      2557 0.00000E+00 0.00000E+00 0.00000E+00 0.00000E+00 0.00000E+00 0.00000E+00
 -1      2558 0.00000E+00 0.00000E+00 0.00000E+00 0.00000E+00 0.00000E+00 0.00000E+00
 -1      2559 0.00000E+00 0.00000E+00 0.00000E+00 0.00000E+00 0.00000E+00 0.00000E+00
 -1      2560 0.00000E+00 0.00000E+00 0.00000E+00 0.00000E+00 0.00000E+00 0.00000E+00
 -1      2561 0.00000E+00 0.00000E+00 0.00000E+00 0.00000E+00 0.00000E+00 0.00000E+00
 -1      2562 0.00000E+00 0.00000E+00 0.00000E+00 0.00000E+00 0.00000E+00 0.00000E+00
 -1      2563 0.00000E+00 0.00000E+00 0.00000E+00 0.00000E+00 0.00000E+00 0.00000E+00
 -1      2564 0.00000E+00 0.00000E+00 0.00000E+00 0.00000E+00 0.00000E+00 0.00000E+00
 -1      2565 0.00000E+00 0.00000E+00 0.00000E+00 0.00000E+00 0.00000E+00 0.00000E+00
 -1      2566 0.00000E+00 0.00000E+00 0.00000E+00 0.00000E+00 0.00000E+00 0.00000E+00
 -1      2567 0.00000E+00 0.00000E+00 0.00000E+00 0.00000E+00 0.00000E+00 0.00000E+00
 -1      2568 0.00000E+00 0.00000E+00 0.00000E+00 0.00000E+00 0.00000E+00 0.00000E+00
 -1      2569 0.00000E+00 0.00000E+00 0.00000E+00 0.00000E+00 0.00000E+00 0.00000E+00
 -1      2570 0.00000E+00 0.00000E+00 0.00000E+00 0.00000E+00 0.00000E+00 0.00000E+00
 -1      2571 0.00000E+00 0.00000E+00 0.00000E+00 0.00000E+00 0.00000E+00 0.00000E+00
 -1      2572 0.00000E+00 0.00000E+00 0.00000E+00 0.00000E+00 0.00000E+00 0.00000E+00
 -1      2573 0.00000E+00 0.00000E+00 0.00000E+00 0.00000E+00 0.00000E+00 0.00000E+00
 -1      2574 0.00000E+00 0.00000E+00 0.00000E+00 0.00000E+00 0.00000E+00 0.00000E+00
 -1      2575 0.00000E+00 0.00000E+00 0.00000E+00 0.00000E+00 0.00000E+00 0.00000E+00
 -1      2576 0.00000E+00 0.00000E+00 0.00000E+00 0.00000E+00 0.00000E+00 0.00000E+00
 -1      2577 0.00000E+00 0.00000E+00 0.00000E+00 0.00000E+00 0.00000E+00 0.00000E+00
 -1      2578 0.00000E+00 0.00000E+00 0.00000E+00 0.00000E+00 0.00000E+00 0.00000E+00
 -1      2579 0.00000E+00 0.00000E+00 0.00000E+00 0.00000E+00 0.00000E+00 0.00000E+00
 -1      2580 0.00000E+00 0.00000E+00 0.00000E+00 0.00000E+00 0.00000E+00 0.00000E+00
 -1      2581 0.00000E+00 0.00000E+00 0.00000E+00 0.00000E+00 0.00000E+00 0.00000E+00
 -1      2582 0.00000E+00 0.00000E+00 0.00000E+00 0.00000E+00 0.00000E+00 0.00000E+00
 -1      2583 0.00000E+00 0.00000E+00 0.00000E+00 0.00000E+00 0.00000E+00 0.00000E+00
 -1      2584 0.00000E+00 0.00000E+00 0.00000E+00 0.00000E+00 0.00000E+00 0.00000E+00
 -1      2585 0.00000E+00 0.00000E+00 0.00000E+00 0.00000E+00 0.00000E+00 0.00000E+00
 -1      2586 0.00000E+00 0.00000E+00 0.00000E+00 0.00000E+00 0.00000E+00 0.00000E+00
 -1      2587 0.00000E+00 0.00000E+00 0.00000E+00 0.00000E+00 0.00000E+00 0.00000E+00
 -1      2588 0.00000E+00 0.00000E+00 0.00000E+00 0.00000E+00 0.00000E+00 0.00000E+00
 -1      2589 0.00000E+00 0.00000E+00 0.00000E+00 0.00000E+00 0.00000E+00 0.00000E+00
 -1      2590 0.00000E+00 0.00000E+00 0.00000E+00 0.00000E+00 0.00000E+00 0.00000E+00
 -1      2591 0.00000E+00 0.00000E+00 0.00000E+00 0.00000E+00 0.00000E+00 0.00000E+00
 -1      2592 0.00000E+00 0.00000E+00 0.00000E+00 0.00000E+00 0.00000E+00 0.00000E+00
 -1      2593 0.00000E+00 0.00000E+00 0.00000E+00 0.00000E+00 0.00000E+00 0.00000E+00
 -1      2594 0.00000E+00 0.00000E+00 0.00000E+00 0.00000E+00 0.00000E+00 0.00000E+00
 -1      2595 0.00000E+00 0.00000E+00 0.00000E+00 0.00000E+00 0.00000E+00 0.00000E+00
 -1      2596 0.00000E+00 0.00000E+00 0.00000E+00 0.00000E+00 0.00000E+00 0.00000E+00
 -1      2597 0.00000E+00 0.00000E+00 0.00000E+00 0.00000E+00 0.00000E+00 0.00000E+00
 -1      2598 0.00000E+00 0.00000E+00 0.00000E+00 0.00000E+00 0.00000E+00 0.00000E+00
 -1      2599 0.00000E+00 0.00000E+00 0.00000E+00 0.00000E+00 0.00000E+00 0.00000E+00
 -1      2600 0.00000E+00 0.00000E+00 0.00000E+00 0.00000E+00 0.00000E+00 0.00000E+00
 -1      2601 0.00000E+00 0.00000E+00 0.00000E+00 0.00000E+00 0.00000E+00 0.00000E+00
 -1      2602 0.00000E+00 0.00000E+00 0.00000E+00 0.00000E+00 0.00000E+00 0.00000E+00
 -1      2603 0.00000E+00 0.00000E+00 0.00000E+00 0.00000E+00 0.00000E+00 0.00000E+00
 -1      2604 0.00000E+00 0.00000E+00 0.00000E+00 0.00000E+00 0.00000E+00 0.00000E+00
 -1      2605 0.00000E+00 0.00000E+00 0.00000E+00 0.00000E+00 0.00000E+00 0.00000E+00
 -1      2606 0.00000E+00 0.00000E+00 0.00000E+00 0.00000E+00 0.00000E+00 0.00000E+00
 -1      2607 0.00000E+00 0.00000E+00 0.00000E+00 0.00000E+00 0.00000E+00 0.00000E+00
 -1      2608 0.00000E+00 0.00000E+00 0.00000E+00 0.00000E+00 0.00000E+00 0.00000E+00
 -1      2609 0.00000E+00 0.00000E+00 0.00000E+00 0.00000E+00 0.00000E+00 0.00000E+00
 -1      2610 0.00000E+00 0.00000E+00 0.00000E+00 0.00000E+00 0.00000E+00 0.00000E+00
 -1      2611 0.00000E+00 0.00000E+00 0.00000E+00 0.00000E+00 0.00000E+00 0.00000E+00
 -1      2612 0.00000E+00 0.00000E+00 0.00000E+00 0.00000E+00 0.00000E+00 0.00000E+00
 -1      2613 0.00000E+00 0.00000E+00 0.00000E+00 0.00000E+00 0.00000E+00 0.00000E+00
 -1      2614 0.00000E+00 0.00000E+00 0.00000E+00 0.00000E+00 0.00000E+00 0.00000E+00
 -1      2615 0.00000E+00 0.00000E+00 0.00000E+00 0.00000E+00 0.00000E+00 0.00000E+00
 -1      2616 0.00000E+00 0.00000E+00 0.00000E+00 0.00000E+00 0.00000E+00 0.00000E+00
 -1      2617 0.00000E+00 0.00000E+00 0.00000E+00 0.00000E+00 0.00000E+00 0.00000E+00
 -1      2618 0.00000E+00 0.00000E+00 0.00000E+00 0.00000E+00 0.00000E+00 0.00000E+00
 -1      2619 0.00000E+00 0.00000E+00 0.00000E+00 0.00000E+00 0.00000E+00 0.00000E+00
 -1      2620 0.00000E+00 0.00000E+00 0.00000E+00 0.00000E+00 0.00000E+00 0.00000E+00
 -1      2621 0.00000E+00 0.00000E+00 0.00000E+00 0.00000E+00 0.00000E+00 0.00000E+00
 -1      2622 0.00000E+00 0.00000E+00 0.00000E+00 0.00000E+00 0.00000E+00 0.00000E+00
 -1      2623 0.00000E+00 0.00000E+00 0.00000E+00 0.00000E+00 0.00000E+00 0.00000E+00
 -1      2624 0.00000E+00 0.00000E+00 0.00000E+00 0.00000E+00 0.00000E+00 0.00000E+00
 -1      2625 0.00000E+00 0.00000E+00 0.00000E+00 0.00000E+00 0.00000E+00 0.00000E+00
 -1      2626 0.00000E+00 0.00000E+00 0.00000E+00 0.00000E+00 0.00000E+00 0.00000E+00
 -1      2627 0.00000E+00 0.00000E+00 0.00000E+00 0.00000E+00 0.00000E+00 0.00000E+00
 -1      2628 0.00000E+00 0.00000E+00 0.00000E+00 0.00000E+00 0.00000E+00 0.00000E+00
 -1      2629 0.00000E+00 0.00000E+00 0.00000E+00 0.00000E+00 0.00000E+00 0.00000E+00
 -1      2630 0.00000E+00 0.00000E+00 0.00000E+00 0.00000E+00 0.00000E+00 0.00000E+00
 -1      2631 0.00000E+00 0.00000E+00 0.00000E+00 0.00000E+00 0.00000E+00 0.00000E+00
 -1      2632 0.00000E+00 0.00000E+00 0.00000E+00 0.00000E+00 0.00000E+00 0.00000E+00
 -1      2633 0.00000E+00 0.00000E+00 0.00000E+00 0.00000E+00 0.00000E+00 0.00000E+00
 -1      2634 0.00000E+00 0.00000E+00 0.00000E+00 0.00000E+00 0.00000E+00 0.00000E+00
 -1      2635 0.00000E+00 0.00000E+00 0.00000E+00 0.00000E+00 0.00000E+00 0.00000E+00
 -1      2636 0.00000E+00 0.00000E+00 0.00000E+00 0.00000E+00 0.00000E+00 0.00000E+00
 -1      2637 0.00000E+00 0.00000E+00 0.00000E+00 0.00000E+00 0.00000E+00 0.00000E+00
 -1      2638 0.00000E+00 0.00000E+00 0.00000E+00 0.00000E+00 0.00000E+00 0.00000E+00
 -1      2639 0.00000E+00 0.00000E+00 0.00000E+00 0.00000E+00 0.00000E+00 0.00000E+00
 -1      2640 0.00000E+00 0.00000E+00 0.00000E+00 0.00000E+00 0.00000E+00 0.00000E+00
 -1      2641 0.00000E+00 0.00000E+00 0.00000E+00 0.00000E+00 0.00000E+00 0.00000E+00
 -1      2642 0.00000E+00 0.00000E+00 0.00000E+00 0.00000E+00 0.00000E+00 0.00000E+00
 -1      2643 0.00000E+00 0.00000E+00 0.00000E+00 0.00000E+00 0.00000E+00 0.00000E+00
 -1      2644 0.00000E+00 0.00000E+00 0.00000E+00 0.00000E+00 0.00000E+00 0.00000E+00
 -1      2645 0.00000E+00 0.00000E+00 0.00000E+00 0.00000E+00 0.00000E+00 0.00000E+00
 -1      2646 0.00000E+00 0.00000E+00 0.00000E+00 0.00000E+00 0.00000E+00 0.00000E+00
 -1      2647 0.00000E+00 0.00000E+00 0.00000E+00 0.00000E+00 0.00000E+00 0.00000E+00
 -1      2648 0.00000E+00 0.00000E+00 0.00000E+00 0.00000E+00 0.00000E+00 0.00000E+00
 -1      2649 0.00000E+00 0.00000E+00 0.00000E+00 0.00000E+00 0.00000E+00 0.00000E+00
 -1      2650 0.00000E+00 0.00000E+00 0.00000E+00 0.00000E+00 0.00000E+00 0.00000E+00
 -1      2651 0.00000E+00 0.00000E+00 0.00000E+00 0.00000E+00 0.00000E+00 0.00000E+00
 -1      2652 0.00000E+00 0.00000E+00 0.00000E+00 0.00000E+00 0.00000E+00 0.00000E+00
 -1      2653 0.00000E+00 0.00000E+00 0.00000E+00 0.00000E+00 0.00000E+00 0.00000E+00
 -1      2654 0.00000E+00 0.00000E+00 0.00000E+00 0.00000E+00 0.00000E+00 0.00000E+00
 -1      2655 0.00000E+00 0.00000E+00 0.00000E+00 0.00000E+00 0.00000E+00 0.00000E+00
 -1      2656 0.00000E+00 0.00000E+00 0.00000E+00 0.00000E+00 0.00000E+00 0.00000E+00
 -1      2657 0.00000E+00 0.00000E+00 0.00000E+00 0.00000E+00 0.00000E+00 0.00000E+00
 -1      2658 0.00000E+00 0.00000E+00 0.00000E+00 0.00000E+00 0.00000E+00 0.00000E+00
 -1      2659 0.00000E+00 0.00000E+00 0.00000E+00 0.00000E+00 0.00000E+00 0.00000E+00
 -1      2660 0.00000E+00 0.00000E+00 0.00000E+00 0.00000E+00 0.00000E+00 0.00000E+00
 -1      2661 0.00000E+00 0.00000E+00 0.00000E+00 0.00000E+00 0.00000E+00 0.00000E+00
 -1      2662 0.00000E+00 0.00000E+00 0.00000E+00 0.00000E+00 0.00000E+00 0.00000E+00
 -1      2663 0.00000E+00 0.00000E+00 0.00000E+00 0.00000E+00 0.00000E+00 0.00000E+00
 -1      2664 0.00000E+00 0.00000E+00 0.00000E+00 0.00000E+00 0.00000E+00 0.00000E+00
 -1      2665 0.00000E+00 0.00000E+00 0.00000E+00 0.00000E+00 0.00000E+00 0.00000E+00
 -1      2666 0.00000E+00 0.00000E+00 0.00000E+00 0.00000E+00 0.00000E+00 0.00000E+00
 -1      2667 0.00000E+00 0.00000E+00 0.00000E+00 0.00000E+00 0.00000E+00 0.00000E+00
 -1      2668 0.00000E+00 0.00000E+00 0.00000E+00 0.00000E+00 0.00000E+00 0.00000E+00
 -1      2669 0.00000E+00 0.00000E+00 0.00000E+00 0.00000E+00 0.00000E+00 0.00000E+00
 -1      2670 0.00000E+00 0.00000E+00 0.00000E+00 0.00000E+00 0.00000E+00 0.00000E+00
 -1      2671 0.00000E+00 0.00000E+00 0.00000E+00 0.00000E+00 0.00000E+00 0.00000E+00
 -1      2672 0.00000E+00 0.00000E+00 0.00000E+00 0.00000E+00 0.00000E+00 0.00000E+00
 -1      2673 0.00000E+00 0.00000E+00 0.00000E+00 0.00000E+00 0.00000E+00 0.00000E+00
 -1      2674 0.00000E+00 0.00000E+00 0.00000E+00 0.00000E+00 0.00000E+00 0.00000E+00
 -1      2675 0.00000E+00 0.00000E+00 0.00000E+00 0.00000E+00 0.00000E+00 0.00000E+00
 -1      2676 0.00000E+00 0.00000E+00 0.00000E+00 0.00000E+00 0.00000E+00 0.00000E+00
 -1      2677 0.00000E+00 0.00000E+00 0.00000E+00 0.00000E+00 0.00000E+00 0.00000E+00
 -1      2678 0.00000E+00 0.00000E+00 0.00000E+00 0.00000E+00 0.00000E+00 0.00000E+00
 -1      2679 0.00000E+00 0.00000E+00 0.00000E+00 0.00000E+00 0.00000E+00 0.00000E+00
 -1      2680 0.00000E+00 0.00000E+00 0.00000E+00 0.00000E+00 0.00000E+00 0.00000E+00
 -1      2681 0.00000E+00 0.00000E+00 0.00000E+00 0.00000E+00 0.00000E+00 0.00000E+00
 -1      2682 0.00000E+00 0.00000E+00 0.00000E+00 0.00000E+00 0.00000E+00 0.00000E+00
 -1      2683 0.00000E+00 0.00000E+00 0.00000E+00 0.00000E+00 0.00000E+00 0.00000E+00
 -1      2684 0.00000E+00 0.00000E+00 0.00000E+00 0.00000E+00 0.00000E+00 0.00000E+00
 -1      2685 0.00000E+00 0.00000E+00 0.00000E+00 0.00000E+00 0.00000E+00 0.00000E+00
 -1      2686 0.00000E+00 0.00000E+00 0.00000E+00 0.00000E+00 0.00000E+00 0.00000E+00
 -1      2687 0.00000E+00 0.00000E+00 0.00000E+00 0.00000E+00 0.00000E+00 0.00000E+00
 -1      2688 0.00000E+00 0.00000E+00 0.00000E+00 0.00000E+00 0.00000E+00 0.00000E+00
 -1      2689 0.00000E+00 0.00000E+00 0.00000E+00 0.00000E+00 0.00000E+00 0.00000E+00
 -1      2690 0.00000E+00 0.00000E+00 0.00000E+00 0.00000E+00 0.00000E+00 0.00000E+00
 -1      2691 0.00000E+00 0.00000E+00 0.00000E+00 0.00000E+00 0.00000E+00 0.00000E+00
 -1      2692 0.00000E+00 0.00000E+00 0.00000E+00 0.00000E+00 0.00000E+00 0.00000E+00
 -1      2693 0.00000E+00 0.00000E+00 0.00000E+00 0.00000E+00 0.00000E+00 0.00000E+00
 -1      2694 0.00000E+00 0.00000E+00 0.00000E+00 0.00000E+00 0.00000E+00 0.00000E+00
 -1      2695 0.00000E+00 0.00000E+00 0.00000E+00 0.00000E+00 0.00000E+00 0.00000E+00
 -1      2696 0.00000E+00 0.00000E+00 0.00000E+00 0.00000E+00 0.00000E+00 0.00000E+00
 -1      2697 0.00000E+00 0.00000E+00 0.00000E+00 0.00000E+00 0.00000E+00 0.00000E+00
 -1      2698 0.00000E+00 0.00000E+00 0.00000E+00 0.00000E+00 0.00000E+00 0.00000E+00
 -1      2699 0.00000E+00 0.00000E+00 0.00000E+00 0.00000E+00 0.00000E+00 0.00000E+00
 -1      2700 0.00000E+00 0.00000E+00 0.00000E+00 0.00000E+00 0.00000E+00 0.00000E+00
 -1      2701 0.00000E+00 0.00000E+00 0.00000E+00 0.00000E+00 0.00000E+00 0.00000E+00
 -1      2702 0.00000E+00 0.00000E+00 0.00000E+00 0.00000E+00 0.00000E+00 0.00000E+00
 -1      2703 0.00000E+00 0.00000E+00 0.00000E+00 0.00000E+00 0.00000E+00 0.00000E+00
 -1      2704 0.00000E+00 0.00000E+00 0.00000E+00 0.00000E+00 0.00000E+00 0.00000E+00
 -1      2705 0.00000E+00 0.00000E+00 0.00000E+00 0.00000E+00 0.00000E+00 0.00000E+00
 -1      2706 0.00000E+00 0.00000E+00 0.00000E+00 0.00000E+00 0.00000E+00 0.00000E+00
 -1      2707 0.00000E+00 0.00000E+00 0.00000E+00 0.00000E+00 0.00000E+00 0.00000E+00
 -1      2708 0.00000E+00 0.00000E+00 0.00000E+00 0.00000E+00 0.00000E+00 0.00000E+00
 -1      2709 0.00000E+00 0.00000E+00 0.00000E+00 0.00000E+00 0.00000E+00 0.00000E+00
 -1      2710 0.00000E+00 0.00000E+00 0.00000E+00 0.00000E+00 0.00000E+00 0.00000E+00
 -1      2711 0.00000E+00 0.00000E+00 0.00000E+00 0.00000E+00 0.00000E+00 0.00000E+00
 -1      2712 0.00000E+00 0.00000E+00 0.00000E+00 0.00000E+00 0.00000E+00 0.00000E+00
 -1      2713 0.00000E+00 0.00000E+00 0.00000E+00 0.00000E+00 0.00000E+00 0.00000E+00
 -1      2714 0.00000E+00 0.00000E+00 0.00000E+00 0.00000E+00 0.00000E+00 0.00000E+00
 -1      2715 0.00000E+00 0.00000E+00 0.00000E+00 0.00000E+00 0.00000E+00 0.00000E+00
 -1      2716 0.00000E+00 0.00000E+00 0.00000E+00 0.00000E+00 0.00000E+00 0.00000E+00
 -1      2717 0.00000E+00 0.00000E+00 0.00000E+00 0.00000E+00 0.00000E+00 0.00000E+00
 -1      2718 0.00000E+00 0.00000E+00 0.00000E+00 0.00000E+00 0.00000E+00 0.00000E+00
 -1      2719 0.00000E+00 0.00000E+00 0.00000E+00 0.00000E+00 0.00000E+00 0.00000E+00
 -1      2720 0.00000E+00 0.00000E+00 0.00000E+00 0.00000E+00 0.00000E+00 0.00000E+00
 -1      2721 0.00000E+00 0.00000E+00 0.00000E+00 0.00000E+00 0.00000E+00 0.00000E+00
 -1      2722 0.00000E+00 0.00000E+00 0.00000E+00 0.00000E+00 0.00000E+00 0.00000E+00
 -1      2723 0.00000E+00 0.00000E+00 0.00000E+00 0.00000E+00 0.00000E+00 0.00000E+00
 -1      2724 0.00000E+00 0.00000E+00 0.00000E+00 0.00000E+00 0.00000E+00 0.00000E+00
 -1      2725 0.00000E+00 0.00000E+00 0.00000E+00 0.00000E+00 0.00000E+00 0.00000E+00
 -1      2726 0.00000E+00 0.00000E+00 0.00000E+00 0.00000E+00 0.00000E+00 0.00000E+00
 -1      2727 0.00000E+00 0.00000E+00 0.00000E+00 0.00000E+00 0.00000E+00 0.00000E+00
 -1      2728 0.00000E+00 0.00000E+00 0.00000E+00 0.00000E+00 0.00000E+00 0.00000E+00
 -1      2729 0.00000E+00 0.00000E+00 0.00000E+00 0.00000E+00 0.00000E+00 0.00000E+00
 -1      2730 0.00000E+00 0.00000E+00 0.00000E+00 0.00000E+00 0.00000E+00 0.00000E+00
 -1      2731 0.00000E+00 0.00000E+00 0.00000E+00 0.00000E+00 0.00000E+00 0.00000E+00
 -1      2732 0.00000E+00 0.00000E+00 0.00000E+00 0.00000E+00 0.00000E+00 0.00000E+00
 -1      2733 0.00000E+00 0.00000E+00 0.00000E+00 0.00000E+00 0.00000E+00 0.00000E+00
 -1      2734 0.00000E+00 0.00000E+00 0.00000E+00 0.00000E+00 0.00000E+00 0.00000E+00
 -1      2735 0.00000E+00 0.00000E+00 0.00000E+00 0.00000E+00 0.00000E+00 0.00000E+00
 -1      2736 0.00000E+00 0.00000E+00 0.00000E+00 0.00000E+00 0.00000E+00 0.00000E+00
 -1      2737 0.00000E+00 0.00000E+00 0.00000E+00 0.00000E+00 0.00000E+00 0.00000E+00
 -1      2738 0.00000E+00 0.00000E+00 0.00000E+00 0.00000E+00 0.00000E+00 0.00000E+00
 -1      2739 0.00000E+00 0.00000E+00 0.00000E+00 0.00000E+00 0.00000E+00 0.00000E+00
 -1      2740 0.00000E+00 0.00000E+00 0.00000E+00 0.00000E+00 0.00000E+00 0.00000E+00
 -1      2741 0.00000E+00 0.00000E+00 0.00000E+00 0.00000E+00 0.00000E+00 0.00000E+00
 -1      2742 0.00000E+00 0.00000E+00 0.00000E+00 0.00000E+00 0.00000E+00 0.00000E+00
 -1      2743 0.00000E+00 0.00000E+00 0.00000E+00 0.00000E+00 0.00000E+00 0.00000E+00
 -1      2744 0.00000E+00 0.00000E+00 0.00000E+00 0.00000E+00 0.00000E+00 0.00000E+00
 -1      2745 0.00000E+00 0.00000E+00 0.00000E+00 0.00000E+00 0.00000E+00 0.00000E+00
 -1      2746 0.00000E+00 0.00000E+00 0.00000E+00 0.00000E+00 0.00000E+00 0.00000E+00
 -1      2747 0.00000E+00 0.00000E+00 0.00000E+00 0.00000E+00 0.00000E+00 0.00000E+00
 -1      2748 0.00000E+00 0.00000E+00 0.00000E+00 0.00000E+00 0.00000E+00 0.00000E+00
 -1      2749 0.00000E+00 0.00000E+00 0.00000E+00 0.00000E+00 0.00000E+00 0.00000E+00
 -1      2750 0.00000E+00 0.00000E+00 0.00000E+00 0.00000E+00 0.00000E+00 0.00000E+00
 -1      2751 0.00000E+00 0.00000E+00 0.00000E+00 0.00000E+00 0.00000E+00 0.00000E+00
 -1      2752 0.00000E+00 0.00000E+00 0.00000E+00 0.00000E+00 0.00000E+00 0.00000E+00
 -1      2753 0.00000E+00 0.00000E+00 0.00000E+00 0.00000E+00 0.00000E+00 0.00000E+00
 -1      2754 0.00000E+00 0.00000E+00 0.00000E+00 0.00000E+00 0.00000E+00 0.00000E+00
 -1      2755 0.00000E+00 0.00000E+00 0.00000E+00 0.00000E+00 0.00000E+00 0.00000E+00
 -1      2756 0.00000E+00 0.00000E+00 0.00000E+00 0.00000E+00 0.00000E+00 0.00000E+00
 -1      2757 0.00000E+00 0.00000E+00 0.00000E+00 0.00000E+00 0.00000E+00 0.00000E+00
 -1      2758 0.00000E+00 0.00000E+00 0.00000E+00 0.00000E+00 0.00000E+00 0.00000E+00
 -1      2759 0.00000E+00 0.00000E+00 0.00000E+00 0.00000E+00 0.00000E+00 0.00000E+00
 -1      2760 0.00000E+00 0.00000E+00 0.00000E+00 0.00000E+00 0.00000E+00 0.00000E+00
 -1      2761 0.00000E+00 0.00000E+00 0.00000E+00 0.00000E+00 0.00000E+00 0.00000E+00
 -1      2762 0.00000E+00 0.00000E+00 0.00000E+00 0.00000E+00 0.00000E+00 0.00000E+00
 -1      2763 0.00000E+00 0.00000E+00 0.00000E+00 0.00000E+00 0.00000E+00 0.00000E+00
 -1      2764 0.00000E+00 0.00000E+00 0.00000E+00 0.00000E+00 0.00000E+00 0.00000E+00
 -1      2765 0.00000E+00 0.00000E+00 0.00000E+00 0.00000E+00 0.00000E+00 0.00000E+00
 -1      2766 0.00000E+00 0.00000E+00 0.00000E+00 0.00000E+00 0.00000E+00 0.00000E+00
 -1      2767 0.00000E+00 0.00000E+00 0.00000E+00 0.00000E+00 0.00000E+00 0.00000E+00
 -1      2768 0.00000E+00 0.00000E+00 0.00000E+00 0.00000E+00 0.00000E+00 0.00000E+00
 -1      2769 0.00000E+00 0.00000E+00 0.00000E+00 0.00000E+00 0.00000E+00 0.00000E+00
 -1      2770 0.00000E+00 0.00000E+00 0.00000E+00 0.00000E+00 0.00000E+00 0.00000E+00
 -1      2771 0.00000E+00 0.00000E+00 0.00000E+00 0.00000E+00 0.00000E+00 0.00000E+00
 -1      2772 0.00000E+00 0.00000E+00 0.00000E+00 0.00000E+00 0.00000E+00 0.00000E+00
 -1      2773 0.00000E+00 0.00000E+00 0.00000E+00 0.00000E+00 0.00000E+00 0.00000E+00
 -1      2774 0.00000E+00 0.00000E+00 0.00000E+00 0.00000E+00 0.00000E+00 0.00000E+00
 -1      2775 0.00000E+00 0.00000E+00 0.00000E+00 0.00000E+00 0.00000E+00 0.00000E+00
 -1      2776 0.00000E+00 0.00000E+00 0.00000E+00 0.00000E+00 0.00000E+00 0.00000E+00
 -1      2777 0.00000E+00 0.00000E+00 0.00000E+00 0.00000E+00 0.00000E+00 0.00000E+00
 -1      2778 0.00000E+00 0.00000E+00 0.00000E+00 0.00000E+00 0.00000E+00 0.00000E+00
 -1      2779 0.00000E+00 0.00000E+00 0.00000E+00 0.00000E+00 0.00000E+00 0.00000E+00
 -1      2780 0.00000E+00 0.00000E+00 0.00000E+00 0.00000E+00 0.00000E+00 0.00000E+00
 -1      2781 0.00000E+00 0.00000E+00 0.00000E+00 0.00000E+00 0.00000E+00 0.00000E+00
 -1      2782 0.00000E+00 0.00000E+00 0.00000E+00 0.00000E+00 0.00000E+00 0.00000E+00
 -1      2783 0.00000E+00 0.00000E+00 0.00000E+00 0.00000E+00 0.00000E+00 0.00000E+00
 -1      2784 0.00000E+00 0.00000E+00 0.00000E+00 0.00000E+00 0.00000E+00 0.00000E+00
 -1      2785 0.00000E+00 0.00000E+00 0.00000E+00 0.00000E+00 0.00000E+00 0.00000E+00
 -1      2786 0.00000E+00 0.00000E+00 0.00000E+00 0.00000E+00 0.00000E+00 0.00000E+00
 -1      2787 0.00000E+00 0.00000E+00 0.00000E+00 0.00000E+00 0.00000E+00 0.00000E+00
 -1      2788 0.00000E+00 0.00000E+00 0.00000E+00 0.00000E+00 0.00000E+00 0.00000E+00
 -1      2789 0.00000E+00 0.00000E+00 0.00000E+00 0.00000E+00 0.00000E+00 0.00000E+00
 -1      2790 0.00000E+00 0.00000E+00 0.00000E+00 0.00000E+00 0.00000E+00 0.00000E+00
 -1      2791 0.00000E+00 0.00000E+00 0.00000E+00 0.00000E+00 0.00000E+00 0.00000E+00
 -1      2792 0.00000E+00 0.00000E+00 0.00000E+00 0.00000E+00 0.00000E+00 0.00000E+00
 -1      2793 0.00000E+00 0.00000E+00 0.00000E+00 0.00000E+00 0.00000E+00 0.00000E+00
 -1      2794 0.00000E+00 0.00000E+00 0.00000E+00 0.00000E+00 0.00000E+00 0.00000E+00
 -1      2795 0.00000E+00 0.00000E+00 0.00000E+00 0.00000E+00 0.00000E+00 0.00000E+00
 -1      2796 0.00000E+00 0.00000E+00 0.00000E+00 0.00000E+00 0.00000E+00 0.00000E+00
 -1      2797 0.00000E+00 0.00000E+00 0.00000E+00 0.00000E+00 0.00000E+00 0.00000E+00
 -1      2798 0.00000E+00 0.00000E+00 0.00000E+00 0.00000E+00 0.00000E+00 0.00000E+00
 -1      2799 0.00000E+00 0.00000E+00 0.00000E+00 0.00000E+00 0.00000E+00 0.00000E+00
 -1      2800 0.00000E+00 0.00000E+00 0.00000E+00 0.00000E+00 0.00000E+00 0.00000E+00
 -1      2801 0.00000E+00 0.00000E+00 0.00000E+00 0.00000E+00 0.00000E+00 0.00000E+00
 -1      2802 0.00000E+00 0.00000E+00 0.00000E+00 0.00000E+00 0.00000E+00 0.00000E+00
 -1      2803 0.00000E+00 0.00000E+00 0.00000E+00 0.00000E+00 0.00000E+00 0.00000E+00
 -1      2804 0.00000E+00 0.00000E+00 0.00000E+00 0.00000E+00 0.00000E+00 0.00000E+00
 -1      2805 0.00000E+00 0.00000E+00 0.00000E+00 0.00000E+00 0.00000E+00 0.00000E+00
 -1      2806 0.00000E+00 0.00000E+00 0.00000E+00 0.00000E+00 0.00000E+00 0.00000E+00
 -1      2807 0.00000E+00 0.00000E+00 0.00000E+00 0.00000E+00 0.00000E+00 0.00000E+00
 -1      2808 0.00000E+00 0.00000E+00 0.00000E+00 0.00000E+00 0.00000E+00 0.00000E+00
 -1      2809 0.00000E+00 0.00000E+00 0.00000E+00 0.00000E+00 0.00000E+00 0.00000E+00
 -1      2810 0.00000E+00 0.00000E+00 0.00000E+00 0.00000E+00 0.00000E+00 0.00000E+00
 -1      2811 0.00000E+00 0.00000E+00 0.00000E+00 0.00000E+00 0.00000E+00 0.00000E+00
 -1      2812 0.00000E+00 0.00000E+00 0.00000E+00 0.00000E+00 0.00000E+00 0.00000E+00
 -1      2813 0.00000E+00 0.00000E+00 0.00000E+00 0.00000E+00 0.00000E+00 0.00000E+00
 -1      2814 0.00000E+00 0.00000E+00 0.00000E+00 0.00000E+00 0.00000E+00 0.00000E+00
 -1      2815 0.00000E+00 0.00000E+00 0.00000E+00 0.00000E+00 0.00000E+00 0.00000E+00
 -1      2816 0.00000E+00 0.00000E+00 0.00000E+00 0.00000E+00 0.00000E+00 0.00000E+00
 -1      2817 0.00000E+00 0.00000E+00 0.00000E+00 0.00000E+00 0.00000E+00 0.00000E+00
 -1      2818 0.00000E+00 0.00000E+00 0.00000E+00 0.00000E+00 0.00000E+00 0.00000E+00
 -1      2819 0.00000E+00 0.00000E+00 0.00000E+00 0.00000E+00 0.00000E+00 0.00000E+00
 -1      2820 0.00000E+00 0.00000E+00 0.00000E+00 0.00000E+00 0.00000E+00 0.00000E+00
 -1      2821 0.00000E+00 0.00000E+00 0.00000E+00 0.00000E+00 0.00000E+00 0.00000E+00
 -1      2822 0.00000E+00 0.00000E+00 0.00000E+00 0.00000E+00 0.00000E+00 0.00000E+00
 -1      2823 0.00000E+00 0.00000E+00 0.00000E+00 0.00000E+00 0.00000E+00 0.00000E+00
 -1      2824 0.00000E+00 0.00000E+00 0.00000E+00 0.00000E+00 0.00000E+00 0.00000E+00
 -1      2825 0.00000E+00 0.00000E+00 0.00000E+00 0.00000E+00 0.00000E+00 0.00000E+00
 -1      2826 0.00000E+00 0.00000E+00 0.00000E+00 0.00000E+00 0.00000E+00 0.00000E+00
 -1      2827 0.00000E+00 0.00000E+00 0.00000E+00 0.00000E+00 0.00000E+00 0.00000E+00
 -1      2828 0.00000E+00 0.00000E+00 0.00000E+00 0.00000E+00 0.00000E+00 0.00000E+00
 -1      2829 0.00000E+00 0.00000E+00 0.00000E+00 0.00000E+00 0.00000E+00 0.00000E+00
 -1      2830 0.00000E+00 0.00000E+00 0.00000E+00 0.00000E+00 0.00000E+00 0.00000E+00
 -1      2831 0.00000E+00 0.00000E+00 0.00000E+00 0.00000E+00 0.00000E+00 0.00000E+00
 -1      2832 0.00000E+00 0.00000E+00 0.00000E+00 0.00000E+00 0.00000E+00 0.00000E+00
 -1      2833 0.00000E+00 0.00000E+00 0.00000E+00 0.00000E+00 0.00000E+00 0.00000E+00
 -1      2834 0.00000E+00 0.00000E+00 0.00000E+00 0.00000E+00 0.00000E+00 0.00000E+00
 -1      2835 0.00000E+00 0.00000E+00 0.00000E+00 0.00000E+00 0.00000E+00 0.00000E+00
 -1      2836 0.00000E+00 0.00000E+00 0.00000E+00 0.00000E+00 0.00000E+00 0.00000E+00
 -1      2837 0.00000E+00 0.00000E+00 0.00000E+00 0.00000E+00 0.00000E+00 0.00000E+00
 -1      2838 0.00000E+00 0.00000E+00 0.00000E+00 0.00000E+00 0.00000E+00 0.00000E+00
 -1      2839 0.00000E+00 0.00000E+00 0.00000E+00 0.00000E+00 0.00000E+00 0.00000E+00
 -1      2840 0.00000E+00 0.00000E+00 0.00000E+00 0.00000E+00 0.00000E+00 0.00000E+00
 -1      2841 0.00000E+00 0.00000E+00 0.00000E+00 0.00000E+00 0.00000E+00 0.00000E+00
 -1      2842 0.00000E+00 0.00000E+00 0.00000E+00 0.00000E+00 0.00000E+00 0.00000E+00
 -1      2843 0.00000E+00 0.00000E+00 0.00000E+00 0.00000E+00 0.00000E+00 0.00000E+00
 -1      2844 0.00000E+00 0.00000E+00 0.00000E+00 0.00000E+00 0.00000E+00 0.00000E+00
 -1      2845 0.00000E+00 0.00000E+00 0.00000E+00 0.00000E+00 0.00000E+00 0.00000E+00
 -1      2846 0.00000E+00 0.00000E+00 0.00000E+00 0.00000E+00 0.00000E+00 0.00000E+00
 -1      2847 0.00000E+00 0.00000E+00 0.00000E+00 0.00000E+00 0.00000E+00 0.00000E+00
 -1      2848 0.00000E+00 0.00000E+00 0.00000E+00 0.00000E+00 0.00000E+00 0.00000E+00
 -1      2849 0.00000E+00 0.00000E+00 0.00000E+00 0.00000E+00 0.00000E+00 0.00000E+00
 -1      2850 0.00000E+00 0.00000E+00 0.00000E+00 0.00000E+00 0.00000E+00 0.00000E+00
 -1      2851 0.00000E+00 0.00000E+00 0.00000E+00 0.00000E+00 0.00000E+00 0.00000E+00
 -1      2852 0.00000E+00 0.00000E+00 0.00000E+00 0.00000E+00 0.00000E+00 0.00000E+00
 -1      2853 0.00000E+00 0.00000E+00 0.00000E+00 0.00000E+00 0.00000E+00 0.00000E+00
 -1      2854 0.00000E+00 0.00000E+00 0.00000E+00 0.00000E+00 0.00000E+00 0.00000E+00
 -1      2855 0.00000E+00 0.00000E+00 0.00000E+00 0.00000E+00 0.00000E+00 0.00000E+00
 -1      2856 0.00000E+00 0.00000E+00 0.00000E+00 0.00000E+00 0.00000E+00 0.00000E+00
 -1      2857 0.00000E+00 0.00000E+00 0.00000E+00 0.00000E+00 0.00000E+00 0.00000E+00
 -1      2858 0.00000E+00 0.00000E+00 0.00000E+00 0.00000E+00 0.00000E+00 0.00000E+00
 -1      2859 0.00000E+00 0.00000E+00 0.00000E+00 0.00000E+00 0.00000E+00 0.00000E+00
 -1      2860 0.00000E+00 0.00000E+00 0.00000E+00 0.00000E+00 0.00000E+00 0.00000E+00
 -1      2861 0.00000E+00 0.00000E+00 0.00000E+00 0.00000E+00 0.00000E+00 0.00000E+00
 -1      2862 0.00000E+00 0.00000E+00 0.00000E+00 0.00000E+00 0.00000E+00 0.00000E+00
 -1      2863 0.00000E+00 0.00000E+00 0.00000E+00 0.00000E+00 0.00000E+00 0.00000E+00
 -1      2864 0.00000E+00 0.00000E+00 0.00000E+00 0.00000E+00 0.00000E+00 0.00000E+00
 -1      2865 0.00000E+00 0.00000E+00 0.00000E+00 0.00000E+00 0.00000E+00 0.00000E+00
 -1      2866 0.00000E+00 0.00000E+00 0.00000E+00 0.00000E+00 0.00000E+00 0.00000E+00
 -1      2867 0.00000E+00 0.00000E+00 0.00000E+00 0.00000E+00 0.00000E+00 0.00000E+00
 -1      2868 0.00000E+00 0.00000E+00 0.00000E+00 0.00000E+00 0.00000E+00 0.00000E+00
 -1      2869 0.00000E+00 0.00000E+00 0.00000E+00 0.00000E+00 0.00000E+00 0.00000E+00
 -1      2870 0.00000E+00 0.00000E+00 0.00000E+00 0.00000E+00 0.00000E+00 0.00000E+00
 -1      2871 0.00000E+00 0.00000E+00 0.00000E+00 0.00000E+00 0.00000E+00 0.00000E+00
 -1      2872 0.00000E+00 0.00000E+00 0.00000E+00 0.00000E+00 0.00000E+00 0.00000E+00
 -1      2873 0.00000E+00 0.00000E+00 0.00000E+00 0.00000E+00 0.00000E+00 0.00000E+00
 -1      2874 0.00000E+00 0.00000E+00 0.00000E+00 0.00000E+00 0.00000E+00 0.00000E+00
 -1      2875 0.00000E+00 0.00000E+00 0.00000E+00 0.00000E+00 0.00000E+00 0.00000E+00
 -1      2876 0.00000E+00 0.00000E+00 0.00000E+00 0.00000E+00 0.00000E+00 0.00000E+00
 -1      2877 0.00000E+00 0.00000E+00 0.00000E+00 0.00000E+00 0.00000E+00 0.00000E+00
 -1      2878 0.00000E+00 0.00000E+00 0.00000E+00 0.00000E+00 0.00000E+00 0.00000E+00
 -1      2879 0.00000E+00 0.00000E+00 0.00000E+00 0.00000E+00 0.00000E+00 0.00000E+00
 -1      2880 0.00000E+00 0.00000E+00 0.00000E+00 0.00000E+00 0.00000E+00 0.00000E+00
 -1      2881 0.00000E+00 0.00000E+00 0.00000E+00 0.00000E+00 0.00000E+00 0.00000E+00
 -1      2882 0.00000E+00 0.00000E+00 0.00000E+00 0.00000E+00 0.00000E+00 0.00000E+00
 -1      2883 0.00000E+00 0.00000E+00 0.00000E+00 0.00000E+00 0.00000E+00 0.00000E+00
 -1      2884 0.00000E+00 0.00000E+00 0.00000E+00 0.00000E+00 0.00000E+00 0.00000E+00
 -1      2885 0.00000E+00 0.00000E+00 0.00000E+00 0.00000E+00 0.00000E+00 0.00000E+00
 -1      2886 0.00000E+00 0.00000E+00 0.00000E+00 0.00000E+00 0.00000E+00 0.00000E+00
 -1      2887 0.00000E+00 0.00000E+00 0.00000E+00 0.00000E+00 0.00000E+00 0.00000E+00
 -1      2888 0.00000E+00 0.00000E+00 0.00000E+00 0.00000E+00 0.00000E+00 0.00000E+00
 -1      2889 0.00000E+00 0.00000E+00 0.00000E+00 0.00000E+00 0.00000E+00 0.00000E+00
 -1      2890 0.00000E+00 0.00000E+00 0.00000E+00 0.00000E+00 0.00000E+00 0.00000E+00
 -1      2891 0.00000E+00 0.00000E+00 0.00000E+00 0.00000E+00 0.00000E+00 0.00000E+00
 -1      2892 0.00000E+00 0.00000E+00 0.00000E+00 0.00000E+00 0.00000E+00 0.00000E+00
 -1      2893 0.00000E+00 0.00000E+00 0.00000E+00 0.00000E+00 0.00000E+00 0.00000E+00
 -1      2894 0.00000E+00 0.00000E+00 0.00000E+00 0.00000E+00 0.00000E+00 0.00000E+00
 -1      2895 0.00000E+00 0.00000E+00 0.00000E+00 0.00000E+00 0.00000E+00 0.00000E+00
 -1      2896 0.00000E+00 0.00000E+00 0.00000E+00 0.00000E+00 0.00000E+00 0.00000E+00
 -1      2897 0.00000E+00 0.00000E+00 0.00000E+00 0.00000E+00 0.00000E+00 0.00000E+00
 -1      2898 0.00000E+00 0.00000E+00 0.00000E+00 0.00000E+00 0.00000E+00 0.00000E+00
 -1      2899 0.00000E+00 0.00000E+00 0.00000E+00 0.00000E+00 0.00000E+00 0.00000E+00
 -1      2900 0.00000E+00 0.00000E+00 0.00000E+00 0.00000E+00 0.00000E+00 0.00000E+00
 -1      2901 0.00000E+00 0.00000E+00 0.00000E+00 0.00000E+00 0.00000E+00 0.00000E+00
 -1      2902 0.00000E+00 0.00000E+00 0.00000E+00 0.00000E+00 0.00000E+00 0.00000E+00
 -1      2903 0.00000E+00 0.00000E+00 0.00000E+00 0.00000E+00 0.00000E+00 0.00000E+00
 -1      2904 0.00000E+00 0.00000E+00 0.00000E+00 0.00000E+00 0.00000E+00 0.00000E+00
 -1      2905 0.00000E+00 0.00000E+00 0.00000E+00 0.00000E+00 0.00000E+00 0.00000E+00
 -1      2906 0.00000E+00 0.00000E+00 0.00000E+00 0.00000E+00 0.00000E+00 0.00000E+00
 -1      2907 0.00000E+00 0.00000E+00 0.00000E+00 0.00000E+00 0.00000E+00 0.00000E+00
 -1      2908 0.00000E+00 0.00000E+00 0.00000E+00 0.00000E+00 0.00000E+00 0.00000E+00
 -1      2909 0.00000E+00 0.00000E+00 0.00000E+00 0.00000E+00 0.00000E+00 0.00000E+00
 -1      2910 0.00000E+00 0.00000E+00 0.00000E+00 0.00000E+00 0.00000E+00 0.00000E+00
 -1      2911 0.00000E+00 0.00000E+00 0.00000E+00 0.00000E+00 0.00000E+00 0.00000E+00
 -1      2912 0.00000E+00 0.00000E+00 0.00000E+00 0.00000E+00 0.00000E+00 0.00000E+00
 -1      2913 0.00000E+00 0.00000E+00 0.00000E+00 0.00000E+00 0.00000E+00 0.00000E+00
 -1      2914 0.00000E+00 0.00000E+00 0.00000E+00 0.00000E+00 0.00000E+00 0.00000E+00
 -1      2915 0.00000E+00 0.00000E+00 0.00000E+00 0.00000E+00 0.00000E+00 0.00000E+00
 -1      2916 0.00000E+00 0.00000E+00 0.00000E+00 0.00000E+00 0.00000E+00 0.00000E+00
 -1      2917 0.00000E+00 0.00000E+00 0.00000E+00 0.00000E+00 0.00000E+00 0.00000E+00
 -1      2918 0.00000E+00 0.00000E+00 0.00000E+00 0.00000E+00 0.00000E+00 0.00000E+00
 -1      2919 0.00000E+00 0.00000E+00 0.00000E+00 0.00000E+00 0.00000E+00 0.00000E+00
 -1      2920 0.00000E+00 0.00000E+00 0.00000E+00 0.00000E+00 0.00000E+00 0.00000E+00
 -1      2921 0.00000E+00 0.00000E+00 0.00000E+00 0.00000E+00 0.00000E+00 0.00000E+00
 -1      2922 0.00000E+00 0.00000E+00 0.00000E+00 0.00000E+00 0.00000E+00 0.00000E+00
 -1      2923 0.00000E+00 0.00000E+00 0.00000E+00 0.00000E+00 0.00000E+00 0.00000E+00
 -1      2924 0.00000E+00 0.00000E+00 0.00000E+00 0.00000E+00 0.00000E+00 0.00000E+00
 -1      2925 0.00000E+00 0.00000E+00 0.00000E+00 0.00000E+00 0.00000E+00 0.00000E+00
 -1      2926 0.00000E+00 0.00000E+00 0.00000E+00 0.00000E+00 0.00000E+00 0.00000E+00
 -1      2927 0.00000E+00 0.00000E+00 0.00000E+00 0.00000E+00 0.00000E+00 0.00000E+00
 -1      2928 0.00000E+00 0.00000E+00 0.00000E+00 0.00000E+00 0.00000E+00 0.00000E+00
 -1      2929 0.00000E+00 0.00000E+00 0.00000E+00 0.00000E+00 0.00000E+00 0.00000E+00
 -1      2930 0.00000E+00 0.00000E+00 0.00000E+00 0.00000E+00 0.00000E+00 0.00000E+00
 -1      2931 0.00000E+00 0.00000E+00 0.00000E+00 0.00000E+00 0.00000E+00 0.00000E+00
 -1      2932 0.00000E+00 0.00000E+00 0.00000E+00 0.00000E+00 0.00000E+00 0.00000E+00
 -1      2933 0.00000E+00 0.00000E+00 0.00000E+00 0.00000E+00 0.00000E+00 0.00000E+00
 -1      2934 0.00000E+00 0.00000E+00 0.00000E+00 0.00000E+00 0.00000E+00 0.00000E+00
 -1      2935 0.00000E+00 0.00000E+00 0.00000E+00 0.00000E+00 0.00000E+00 0.00000E+00
 -1      2936 0.00000E+00 0.00000E+00 0.00000E+00 0.00000E+00 0.00000E+00 0.00000E+00
 -1      2937 0.00000E+00 0.00000E+00 0.00000E+00 0.00000E+00 0.00000E+00 0.00000E+00
 -1      2938 0.00000E+00 0.00000E+00 0.00000E+00 0.00000E+00 0.00000E+00 0.00000E+00
 -1      2939 0.00000E+00 0.00000E+00 0.00000E+00 0.00000E+00 0.00000E+00 0.00000E+00
 -1      2940 0.00000E+00 0.00000E+00 0.00000E+00 0.00000E+00 0.00000E+00 0.00000E+00
 -1      2941 0.00000E+00 0.00000E+00 0.00000E+00 0.00000E+00 0.00000E+00 0.00000E+00
 -1      2942 0.00000E+00 0.00000E+00 0.00000E+00 0.00000E+00 0.00000E+00 0.00000E+00
 -1      2943 0.00000E+00 0.00000E+00 0.00000E+00 0.00000E+00 0.00000E+00 0.00000E+00
 -1      2944 0.00000E+00 0.00000E+00 0.00000E+00 0.00000E+00 0.00000E+00 0.00000E+00
 -1      2945 0.00000E+00 0.00000E+00 0.00000E+00 0.00000E+00 0.00000E+00 0.00000E+00
 -1      2946 0.00000E+00 0.00000E+00 0.00000E+00 0.00000E+00 0.00000E+00 0.00000E+00
 -1      2947 0.00000E+00 0.00000E+00 0.00000E+00 0.00000E+00 0.00000E+00 0.00000E+00
 -1      2948 0.00000E+00 0.00000E+00 0.00000E+00 0.00000E+00 0.00000E+00 0.00000E+00
 -1      2949 0.00000E+00 0.00000E+00 0.00000E+00 0.00000E+00 0.00000E+00 0.00000E+00
 -1      2950 0.00000E+00 0.00000E+00 0.00000E+00 0.00000E+00 0.00000E+00 0.00000E+00
 -1      2951 0.00000E+00 0.00000E+00 0.00000E+00 0.00000E+00 0.00000E+00 0.00000E+00
 -1      2952 0.00000E+00 0.00000E+00 0.00000E+00 0.00000E+00 0.00000E+00 0.00000E+00
 -1      2953 0.00000E+00 0.00000E+00 0.00000E+00 0.00000E+00 0.00000E+00 0.00000E+00
 -1      2954 0.00000E+00 0.00000E+00 0.00000E+00 0.00000E+00 0.00000E+00 0.00000E+00
 -1      2955 0.00000E+00 0.00000E+00 0.00000E+00 0.00000E+00 0.00000E+00 0.00000E+00
 -1      2956 0.00000E+00 0.00000E+00 0.00000E+00 0.00000E+00 0.00000E+00 0.00000E+00
 -1      2957 0.00000E+00 0.00000E+00 0.00000E+00 0.00000E+00 0.00000E+00 0.00000E+00
 -1      2958 0.00000E+00 0.00000E+00 0.00000E+00 0.00000E+00 0.00000E+00 0.00000E+00
 -1      2959 0.00000E+00 0.00000E+00 0.00000E+00 0.00000E+00 0.00000E+00 0.00000E+00
 -1      2960 0.00000E+00 0.00000E+00 0.00000E+00 0.00000E+00 0.00000E+00 0.00000E+00
 -1      2961 0.00000E+00 0.00000E+00 0.00000E+00 0.00000E+00 0.00000E+00 0.00000E+00
 -1      2962 0.00000E+00 0.00000E+00 0.00000E+00 0.00000E+00 0.00000E+00 0.00000E+00
 -1      2963 0.00000E+00 0.00000E+00 0.00000E+00 0.00000E+00 0.00000E+00 0.00000E+00
 -1      2964 0.00000E+00 0.00000E+00 0.00000E+00 0.00000E+00 0.00000E+00 0.00000E+00
 -1      2965 0.00000E+00 0.00000E+00 0.00000E+00 0.00000E+00 0.00000E+00 0.00000E+00
 -1      2966 0.00000E+00 0.00000E+00 0.00000E+00 0.00000E+00 0.00000E+00 0.00000E+00
 -1      2967 0.00000E+00 0.00000E+00 0.00000E+00 0.00000E+00 0.00000E+00 0.00000E+00
 -1      2968 0.00000E+00 0.00000E+00 0.00000E+00 0.00000E+00 0.00000E+00 0.00000E+00
 -1      2969 0.00000E+00 0.00000E+00 0.00000E+00 0.00000E+00 0.00000E+00 0.00000E+00
 -1      2970 0.00000E+00 0.00000E+00 0.00000E+00 0.00000E+00 0.00000E+00 0.00000E+00
 -1      2971 0.00000E+00 0.00000E+00 0.00000E+00 0.00000E+00 0.00000E+00 0.00000E+00
 -1      2972 0.00000E+00 0.00000E+00 0.00000E+00 0.00000E+00 0.00000E+00 0.00000E+00
 -1      2973 0.00000E+00 0.00000E+00 0.00000E+00 0.00000E+00 0.00000E+00 0.00000E+00
 -1      2974 0.00000E+00 0.00000E+00 0.00000E+00 0.00000E+00 0.00000E+00 0.00000E+00
 -1      2975 0.00000E+00 0.00000E+00 0.00000E+00 0.00000E+00 0.00000E+00 0.00000E+00
 -1      2976 0.00000E+00 0.00000E+00 0.00000E+00 0.00000E+00 0.00000E+00 0.00000E+00
 -1      2977 0.00000E+00 0.00000E+00 0.00000E+00 0.00000E+00 0.00000E+00 0.00000E+00
 -1      2978 0.00000E+00 0.00000E+00 0.00000E+00 0.00000E+00 0.00000E+00 0.00000E+00
 -1      2979 0.00000E+00 0.00000E+00 0.00000E+00 0.00000E+00 0.00000E+00 0.00000E+00
 -1      2980 0.00000E+00 0.00000E+00 0.00000E+00 0.00000E+00 0.00000E+00 0.00000E+00
 -1      2981 0.00000E+00 0.00000E+00 0.00000E+00 0.00000E+00 0.00000E+00 0.00000E+00
 -1      2982 0.00000E+00 0.00000E+00 0.00000E+00 0.00000E+00 0.00000E+00 0.00000E+00
 -1      2983 0.00000E+00 0.00000E+00 0.00000E+00 0.00000E+00 0.00000E+00 0.00000E+00
 -1      2984 0.00000E+00 0.00000E+00 0.00000E+00 0.00000E+00 0.00000E+00 0.00000E+00
 -1      2985 0.00000E+00 0.00000E+00 0.00000E+00 0.00000E+00 0.00000E+00 0.00000E+00
 -1      2986 0.00000E+00 0.00000E+00 0.00000E+00 0.00000E+00 0.00000E+00 0.00000E+00
 -1      2987 0.00000E+00 0.00000E+00 0.00000E+00 0.00000E+00 0.00000E+00 0.00000E+00
 -1      2988 0.00000E+00 0.00000E+00 0.00000E+00 0.00000E+00 0.00000E+00 0.00000E+00
 -1      2989 0.00000E+00 0.00000E+00 0.00000E+00 0.00000E+00 0.00000E+00 0.00000E+00
 -1      2990 0.00000E+00 0.00000E+00 0.00000E+00 0.00000E+00 0.00000E+00 0.00000E+00
 -1      2991 0.00000E+00 0.00000E+00 0.00000E+00 0.00000E+00 0.00000E+00 0.00000E+00
 -1      2992 0.00000E+00 0.00000E+00 0.00000E+00 0.00000E+00 0.00000E+00 0.00000E+00
 -1      2993 0.00000E+00 0.00000E+00 0.00000E+00 0.00000E+00 0.00000E+00 0.00000E+00
 -1      2994 0.00000E+00 0.00000E+00 0.00000E+00 0.00000E+00 0.00000E+00 0.00000E+00
 -1      2995 0.00000E+00 0.00000E+00 0.00000E+00 0.00000E+00 0.00000E+00 0.00000E+00
 -1      2996 0.00000E+00 0.00000E+00 0.00000E+00 0.00000E+00 0.00000E+00 0.00000E+00
 -1      2997 0.00000E+00 0.00000E+00 0.00000E+00 0.00000E+00 0.00000E+00 0.00000E+00
 -1      2998 0.00000E+00 0.00000E+00 0.00000E+00 0.00000E+00 0.00000E+00 0.00000E+00
 -1      2999 0.00000E+00 0.00000E+00 0.00000E+00 0.00000E+00 0.00000E+00 0.00000E+00
 -1      3000 0.00000E+00 0.00000E+00 0.00000E+00 0.00000E+00 0.00000E+00 0.00000E+00
 -1      3001 0.00000E+00 0.00000E+00 0.00000E+00 0.00000E+00 0.00000E+00 0.00000E+00
 -1      3002 0.00000E+00 0.00000E+00 0.00000E+00 0.00000E+00 0.00000E+00 0.00000E+00
 -1      3003 0.00000E+00 0.00000E+00 0.00000E+00 0.00000E+00 0.00000E+00 0.00000E+00
 -1      3004 0.00000E+00 0.00000E+00 0.00000E+00 0.00000E+00 0.00000E+00 0.00000E+00
 -1      3005 0.00000E+00 0.00000E+00 0.00000E+00 0.00000E+00 0.00000E+00 0.00000E+00
 -1      3006 0.00000E+00 0.00000E+00 0.00000E+00 0.00000E+00 0.00000E+00 0.00000E+00
 -1      3007 0.00000E+00 0.00000E+00 0.00000E+00 0.00000E+00 0.00000E+00 0.00000E+00
 -1      3008 0.00000E+00 0.00000E+00 0.00000E+00 0.00000E+00 0.00000E+00 0.00000E+00
 -1      3009 0.00000E+00 0.00000E+00 0.00000E+00 0.00000E+00 0.00000E+00 0.00000E+00
 -1      3010 0.00000E+00 0.00000E+00 0.00000E+00 0.00000E+00 0.00000E+00 0.00000E+00
 -1      3011 0.00000E+00 0.00000E+00 0.00000E+00 0.00000E+00 0.00000E+00 0.00000E+00
 -1      3012 0.00000E+00 0.00000E+00 0.00000E+00 0.00000E+00 0.00000E+00 0.00000E+00
 -1      3013 0.00000E+00 0.00000E+00 0.00000E+00 0.00000E+00 0.00000E+00 0.00000E+00
 -1      3014 0.00000E+00 0.00000E+00 0.00000E+00 0.00000E+00 0.00000E+00 0.00000E+00
 -1      3015 0.00000E+00 0.00000E+00 0.00000E+00 0.00000E+00 0.00000E+00 0.00000E+00
 -1      3016 0.00000E+00 0.00000E+00 0.00000E+00 0.00000E+00 0.00000E+00 0.00000E+00
 -1      3017 0.00000E+00 0.00000E+00 0.00000E+00 0.00000E+00 0.00000E+00 0.00000E+00
 -1      3018 0.00000E+00 0.00000E+00 0.00000E+00 0.00000E+00 0.00000E+00 0.00000E+00
 -1      3019 0.00000E+00 0.00000E+00 0.00000E+00 0.00000E+00 0.00000E+00 0.00000E+00
 -1      3020 0.00000E+00 0.00000E+00 0.00000E+00 0.00000E+00 0.00000E+00 0.00000E+00
 -1      3021 0.00000E+00 0.00000E+00 0.00000E+00 0.00000E+00 0.00000E+00 0.00000E+00
 -1      3022 0.00000E+00 0.00000E+00 0.00000E+00 0.00000E+00 0.00000E+00 0.00000E+00
 -1      3023 0.00000E+00 0.00000E+00 0.00000E+00 0.00000E+00 0.00000E+00 0.00000E+00
 -1      3024 0.00000E+00 0.00000E+00 0.00000E+00 0.00000E+00 0.00000E+00 0.00000E+00
 -1      3025 0.00000E+00 0.00000E+00 0.00000E+00 0.00000E+00 0.00000E+00 0.00000E+00
 -1      3026 0.00000E+00 0.00000E+00 0.00000E+00 0.00000E+00 0.00000E+00 0.00000E+00
 -1      3027 0.00000E+00 0.00000E+00 0.00000E+00 0.00000E+00 0.00000E+00 0.00000E+00
 -1      3028 0.00000E+00 0.00000E+00 0.00000E+00 0.00000E+00 0.00000E+00 0.00000E+00
 -1      3029 0.00000E+00 0.00000E+00 0.00000E+00 0.00000E+00 0.00000E+00 0.00000E+00
 -1      3030 0.00000E+00 0.00000E+00 0.00000E+00 0.00000E+00 0.00000E+00 0.00000E+00
 -1      3031 0.00000E+00 0.00000E+00 0.00000E+00 0.00000E+00 0.00000E+00 0.00000E+00
 -1      3032 0.00000E+00 0.00000E+00 0.00000E+00 0.00000E+00 0.00000E+00 0.00000E+00
 -1      3033 0.00000E+00 0.00000E+00 0.00000E+00 0.00000E+00 0.00000E+00 0.00000E+00
 -1      3034 0.00000E+00 0.00000E+00 0.00000E+00 0.00000E+00 0.00000E+00 0.00000E+00
 -1      3035 0.00000E+00 0.00000E+00 0.00000E+00 0.00000E+00 0.00000E+00 0.00000E+00
 -1      3036 0.00000E+00 0.00000E+00 0.00000E+00 0.00000E+00 0.00000E+00 0.00000E+00
 -1      3037 0.00000E+00 0.00000E+00 0.00000E+00 0.00000E+00 0.00000E+00 0.00000E+00
 -1      3038 0.00000E+00 0.00000E+00 0.00000E+00 0.00000E+00 0.00000E+00 0.00000E+00
 -1      3039 0.00000E+00 0.00000E+00 0.00000E+00 0.00000E+00 0.00000E+00 0.00000E+00
 -1      3040 0.00000E+00 0.00000E+00 0.00000E+00 0.00000E+00 0.00000E+00 0.00000E+00
 -1      3041 0.00000E+00 0.00000E+00 0.00000E+00 0.00000E+00 0.00000E+00 0.00000E+00
 -1      3042 0.00000E+00 0.00000E+00 0.00000E+00 0.00000E+00 0.00000E+00 0.00000E+00
 -1      3043 0.00000E+00 0.00000E+00 0.00000E+00 0.00000E+00 0.00000E+00 0.00000E+00
 -1      3044 0.00000E+00 0.00000E+00 0.00000E+00 0.00000E+00 0.00000E+00 0.00000E+00
 -1      3045 0.00000E+00 0.00000E+00 0.00000E+00 0.00000E+00 0.00000E+00 0.00000E+00
 -1      3046 0.00000E+00 0.00000E+00 0.00000E+00 0.00000E+00 0.00000E+00 0.00000E+00
 -1      3047 0.00000E+00 0.00000E+00 0.00000E+00 0.00000E+00 0.00000E+00 0.00000E+00
 -1      3048 0.00000E+00 0.00000E+00 0.00000E+00 0.00000E+00 0.00000E+00 0.00000E+00
 -1      3049 0.00000E+00 0.00000E+00 0.00000E+00 0.00000E+00 0.00000E+00 0.00000E+00
 -1      3050 0.00000E+00 0.00000E+00 0.00000E+00 0.00000E+00 0.00000E+00 0.00000E+00
 -1      3051 0.00000E+00 0.00000E+00 0.00000E+00 0.00000E+00 0.00000E+00 0.00000E+00
 -1      3052 0.00000E+00 0.00000E+00 0.00000E+00 0.00000E+00 0.00000E+00 0.00000E+00
 -1      3053 0.00000E+00 0.00000E+00 0.00000E+00 0.00000E+00 0.00000E+00 0.00000E+00
 -1      3054 0.00000E+00 0.00000E+00 0.00000E+00 0.00000E+00 0.00000E+00 0.00000E+00
 -1      3055 0.00000E+00 0.00000E+00 0.00000E+00 0.00000E+00 0.00000E+00 0.00000E+00
 -1      3056 0.00000E+00 0.00000E+00 0.00000E+00 0.00000E+00 0.00000E+00 0.00000E+00
 -1      3057 0.00000E+00 0.00000E+00 0.00000E+00 0.00000E+00 0.00000E+00 0.00000E+00
 -1      3058 0.00000E+00 0.00000E+00 0.00000E+00 0.00000E+00 0.00000E+00 0.00000E+00
 -1      3059 0.00000E+00 0.00000E+00 0.00000E+00 0.00000E+00 0.00000E+00 0.00000E+00
 -1      3060 0.00000E+00 0.00000E+00 0.00000E+00 0.00000E+00 0.00000E+00 0.00000E+00
 -1      3061 0.00000E+00 0.00000E+00 0.00000E+00 0.00000E+00 0.00000E+00 0.00000E+00
 -1      3062 0.00000E+00 0.00000E+00 0.00000E+00 0.00000E+00 0.00000E+00 0.00000E+00
 -1      3063 0.00000E+00 0.00000E+00 0.00000E+00 0.00000E+00 0.00000E+00 0.00000E+00
 -1      3064 0.00000E+00 0.00000E+00 0.00000E+00 0.00000E+00 0.00000E+00 0.00000E+00
 -1      3065 0.00000E+00 0.00000E+00 0.00000E+00 0.00000E+00 0.00000E+00 0.00000E+00
 -1      3066 0.00000E+00 0.00000E+00 0.00000E+00 0.00000E+00 0.00000E+00 0.00000E+00
 -1      3067 0.00000E+00 0.00000E+00 0.00000E+00 0.00000E+00 0.00000E+00 0.00000E+00
 -1      3068 0.00000E+00 0.00000E+00 0.00000E+00 0.00000E+00 0.00000E+00 0.00000E+00
 -1      3069 0.00000E+00 0.00000E+00 0.00000E+00 0.00000E+00 0.00000E+00 0.00000E+00
 -1      3070 0.00000E+00 0.00000E+00 0.00000E+00 0.00000E+00 0.00000E+00 0.00000E+00
 -1      3071 0.00000E+00 0.00000E+00 0.00000E+00 0.00000E+00 0.00000E+00 0.00000E+00
 -1      3072 0.00000E+00 0.00000E+00 0.00000E+00 0.00000E+00 0.00000E+00 0.00000E+00
 -1      3073 0.00000E+00 0.00000E+00 0.00000E+00 0.00000E+00 0.00000E+00 0.00000E+00
 -1      3074 0.00000E+00 0.00000E+00 0.00000E+00 0.00000E+00 0.00000E+00 0.00000E+00
 -1      3075 0.00000E+00 0.00000E+00 0.00000E+00 0.00000E+00 0.00000E+00 0.00000E+00
 -1      3076 0.00000E+00 0.00000E+00 0.00000E+00 0.00000E+00 0.00000E+00 0.00000E+00
 -1      3077 0.00000E+00 0.00000E+00 0.00000E+00 0.00000E+00 0.00000E+00 0.00000E+00
 -1      3078 0.00000E+00 0.00000E+00 0.00000E+00 0.00000E+00 0.00000E+00 0.00000E+00
 -1      3079 0.00000E+00 0.00000E+00 0.00000E+00 0.00000E+00 0.00000E+00 0.00000E+00
 -1      3080 0.00000E+00 0.00000E+00 0.00000E+00 0.00000E+00 0.00000E+00 0.00000E+00
 -1      3081 0.00000E+00 0.00000E+00 0.00000E+00 0.00000E+00 0.00000E+00 0.00000E+00
 -1      3082 0.00000E+00 0.00000E+00 0.00000E+00 0.00000E+00 0.00000E+00 0.00000E+00
 -1      3083 0.00000E+00 0.00000E+00 0.00000E+00 0.00000E+00 0.00000E+00 0.00000E+00
 -1      3084 0.00000E+00 0.00000E+00 0.00000E+00 0.00000E+00 0.00000E+00 0.00000E+00
 -1      3085 0.00000E+00 0.00000E+00 0.00000E+00 0.00000E+00 0.00000E+00 0.00000E+00
 -1      3086 0.00000E+00 0.00000E+00 0.00000E+00 0.00000E+00 0.00000E+00 0.00000E+00
 -1      3087 0.00000E+00 0.00000E+00 0.00000E+00 0.00000E+00 0.00000E+00 0.00000E+00
 -1      3088 0.00000E+00 0.00000E+00 0.00000E+00 0.00000E+00 0.00000E+00 0.00000E+00
 -1      3089 0.00000E+00 0.00000E+00 0.00000E+00 0.00000E+00 0.00000E+00 0.00000E+00
 -1      3090 0.00000E+00 0.00000E+00 0.00000E+00 0.00000E+00 0.00000E+00 0.00000E+00
 -1      3091 0.00000E+00 0.00000E+00 0.00000E+00 0.00000E+00 0.00000E+00 0.00000E+00
 -1      3092 0.00000E+00 0.00000E+00 0.00000E+00 0.00000E+00 0.00000E+00 0.00000E+00
 -1      3093 0.00000E+00 0.00000E+00 0.00000E+00 0.00000E+00 0.00000E+00 0.00000E+00
 -1      3094 0.00000E+00 0.00000E+00 0.00000E+00 0.00000E+00 0.00000E+00 0.00000E+00
 -1      3095 0.00000E+00 0.00000E+00 0.00000E+00 0.00000E+00 0.00000E+00 0.00000E+00
 -1      3096 0.00000E+00 0.00000E+00 0.00000E+00 0.00000E+00 0.00000E+00 0.00000E+00
 -1      3097 0.00000E+00 0.00000E+00 0.00000E+00 0.00000E+00 0.00000E+00 0.00000E+00
 -1      3098 0.00000E+00 0.00000E+00 0.00000E+00 0.00000E+00 0.00000E+00 0.00000E+00
 -1      3099 0.00000E+00 0.00000E+00 0.00000E+00 0.00000E+00 0.00000E+00 0.00000E+00
 -1      3100 0.00000E+00 0.00000E+00 0.00000E+00 0.00000E+00 0.00000E+00 0.00000E+00
 -1      3101 0.00000E+00 0.00000E+00 0.00000E+00 0.00000E+00 0.00000E+00 0.00000E+00
 -1      3102 0.00000E+00 0.00000E+00 0.00000E+00 0.00000E+00 0.00000E+00 0.00000E+00
 -1      3103 0.00000E+00 0.00000E+00 0.00000E+00 0.00000E+00 0.00000E+00 0.00000E+00
 -1      3104 0.00000E+00 0.00000E+00 0.00000E+00 0.00000E+00 0.00000E+00 0.00000E+00
 -1      3105 0.00000E+00 0.00000E+00 0.00000E+00 0.00000E+00 0.00000E+00 0.00000E+00
 -1      3106 0.00000E+00 0.00000E+00 0.00000E+00 0.00000E+00 0.00000E+00 0.00000E+00
 -1      3107 0.00000E+00 0.00000E+00 0.00000E+00 0.00000E+00 0.00000E+00 0.00000E+00
 -1      3108 0.00000E+00 0.00000E+00 0.00000E+00 0.00000E+00 0.00000E+00 0.00000E+00
 -1      3109 0.00000E+00 0.00000E+00 0.00000E+00 0.00000E+00 0.00000E+00 0.00000E+00
 -1      3110 0.00000E+00 0.00000E+00 0.00000E+00 0.00000E+00 0.00000E+00 0.00000E+00
 -1      3111 0.00000E+00 0.00000E+00 0.00000E+00 0.00000E+00 0.00000E+00 0.00000E+00
 -1      3112 0.00000E+00 0.00000E+00 0.00000E+00 0.00000E+00 0.00000E+00 0.00000E+00
 -1      3113 0.00000E+00 0.00000E+00 0.00000E+00 0.00000E+00 0.00000E+00 0.00000E+00
 -1      3114 0.00000E+00 0.00000E+00 0.00000E+00 0.00000E+00 0.00000E+00 0.00000E+00
 -1      3115 0.00000E+00 0.00000E+00 0.00000E+00 0.00000E+00 0.00000E+00 0.00000E+00
 -1      3116 0.00000E+00 0.00000E+00 0.00000E+00 0.00000E+00 0.00000E+00 0.00000E+00
 -1      3117 0.00000E+00 0.00000E+00 0.00000E+00 0.00000E+00 0.00000E+00 0.00000E+00
 -1      3118 0.00000E+00 0.00000E+00 0.00000E+00 0.00000E+00 0.00000E+00 0.00000E+00
 -1      3119 0.00000E+00 0.00000E+00 0.00000E+00 0.00000E+00 0.00000E+00 0.00000E+00
 -1      3120 0.00000E+00 0.00000E+00 0.00000E+00 0.00000E+00 0.00000E+00 0.00000E+00
 -1      3121 0.00000E+00 0.00000E+00 0.00000E+00 0.00000E+00 0.00000E+00 0.00000E+00
 -1      3122 0.00000E+00 0.00000E+00 0.00000E+00 0.00000E+00 0.00000E+00 0.00000E+00
 -1      3123 0.00000E+00 0.00000E+00 0.00000E+00 0.00000E+00 0.00000E+00 0.00000E+00
 -1      3124 0.00000E+00 0.00000E+00 0.00000E+00 0.00000E+00 0.00000E+00 0.00000E+00
 -1      3125 0.00000E+00 0.00000E+00 0.00000E+00 0.00000E+00 0.00000E+00 0.00000E+00
 -1      3126 0.00000E+00 0.00000E+00 0.00000E+00 0.00000E+00 0.00000E+00 0.00000E+00
 -1      3127 0.00000E+00 0.00000E+00 0.00000E+00 0.00000E+00 0.00000E+00 0.00000E+00
 -1      3128 0.00000E+00 0.00000E+00 0.00000E+00 0.00000E+00 0.00000E+00 0.00000E+00
 -1      3129 0.00000E+00 0.00000E+00 0.00000E+00 0.00000E+00 0.00000E+00 0.00000E+00
 -1      3130 0.00000E+00 0.00000E+00 0.00000E+00 0.00000E+00 0.00000E+00 0.00000E+00
 -1      3131 0.00000E+00 0.00000E+00 0.00000E+00 0.00000E+00 0.00000E+00 0.00000E+00
 -1      3132 0.00000E+00 0.00000E+00 0.00000E+00 0.00000E+00 0.00000E+00 0.00000E+00
 -1      3133 0.00000E+00 0.00000E+00 0.00000E+00 0.00000E+00 0.00000E+00 0.00000E+00
 -1      3134 0.00000E+00 0.00000E+00 0.00000E+00 0.00000E+00 0.00000E+00 0.00000E+00
 -1      3135 0.00000E+00 0.00000E+00 0.00000E+00 0.00000E+00 0.00000E+00 0.00000E+00
 -1      3136 0.00000E+00 0.00000E+00 0.00000E+00 0.00000E+00 0.00000E+00 0.00000E+00
 -1      3137 0.00000E+00 0.00000E+00 0.00000E+00 0.00000E+00 0.00000E+00 0.00000E+00
 -1      3138 0.00000E+00 0.00000E+00 0.00000E+00 0.00000E+00 0.00000E+00 0.00000E+00
 -1      3139 0.00000E+00 0.00000E+00 0.00000E+00 0.00000E+00 0.00000E+00 0.00000E+00
 -1      3140 0.00000E+00 0.00000E+00 0.00000E+00 0.00000E+00 0.00000E+00 0.00000E+00
 -1      3141 0.00000E+00 0.00000E+00 0.00000E+00 0.00000E+00 0.00000E+00 0.00000E+00
 -1      3142 0.00000E+00 0.00000E+00 0.00000E+00 0.00000E+00 0.00000E+00 0.00000E+00
 -1      3143 0.00000E+00 0.00000E+00 0.00000E+00 0.00000E+00 0.00000E+00 0.00000E+00
 -1      3144 0.00000E+00 0.00000E+00 0.00000E+00 0.00000E+00 0.00000E+00 0.00000E+00
 -1      3145 0.00000E+00 0.00000E+00 0.00000E+00 0.00000E+00 0.00000E+00 0.00000E+00
 -1      3146 0.00000E+00 0.00000E+00 0.00000E+00 0.00000E+00 0.00000E+00 0.00000E+00
 -1      3147 0.00000E+00 0.00000E+00 0.00000E+00 0.00000E+00 0.00000E+00 0.00000E+00
 -1      3148 0.00000E+00 0.00000E+00 0.00000E+00 0.00000E+00 0.00000E+00 0.00000E+00
 -1      3149 0.00000E+00 0.00000E+00 0.00000E+00 0.00000E+00 0.00000E+00 0.00000E+00
 -1      3150 0.00000E+00 0.00000E+00 0.00000E+00 0.00000E+00 0.00000E+00 0.00000E+00
 -1      3151 0.00000E+00 0.00000E+00 0.00000E+00 0.00000E+00 0.00000E+00 0.00000E+00
 -1      3152 0.00000E+00 0.00000E+00 0.00000E+00 0.00000E+00 0.00000E+00 0.00000E+00
 -1      3153 0.00000E+00 0.00000E+00 0.00000E+00 0.00000E+00 0.00000E+00 0.00000E+00
 -1      3154 0.00000E+00 0.00000E+00 0.00000E+00 0.00000E+00 0.00000E+00 0.00000E+00
 -1      3155 0.00000E+00 0.00000E+00 0.00000E+00 0.00000E+00 0.00000E+00 0.00000E+00
 -1      3156 0.00000E+00 0.00000E+00 0.00000E+00 0.00000E+00 0.00000E+00 0.00000E+00
 -1      3157 0.00000E+00 0.00000E+00 0.00000E+00 0.00000E+00 0.00000E+00 0.00000E+00
 -1      3158 0.00000E+00 0.00000E+00 0.00000E+00 0.00000E+00 0.00000E+00 0.00000E+00
 -1      3159 0.00000E+00 0.00000E+00 0.00000E+00 0.00000E+00 0.00000E+00 0.00000E+00
 -1      3160 0.00000E+00 0.00000E+00 0.00000E+00 0.00000E+00 0.00000E+00 0.00000E+00
 -1      3161 0.00000E+00 0.00000E+00 0.00000E+00 0.00000E+00 0.00000E+00 0.00000E+00
 -1      3162 0.00000E+00 0.00000E+00 0.00000E+00 0.00000E+00 0.00000E+00 0.00000E+00
 -1      3163 0.00000E+00 0.00000E+00 0.00000E+00 0.00000E+00 0.00000E+00 0.00000E+00
 -1      3164 0.00000E+00 0.00000E+00 0.00000E+00 0.00000E+00 0.00000E+00 0.00000E+00
 -1      3165 0.00000E+00 0.00000E+00 0.00000E+00 0.00000E+00 0.00000E+00 0.00000E+00
 -1      3166 0.00000E+00 0.00000E+00 0.00000E+00 0.00000E+00 0.00000E+00 0.00000E+00
 -1      3167 0.00000E+00 0.00000E+00 0.00000E+00 0.00000E+00 0.00000E+00 0.00000E+00
 -1      3168 0.00000E+00 0.00000E+00 0.00000E+00 0.00000E+00 0.00000E+00 0.00000E+00
 -1      3169 0.00000E+00 0.00000E+00 0.00000E+00 0.00000E+00 0.00000E+00 0.00000E+00
 -1      3170 0.00000E+00 0.00000E+00 0.00000E+00 0.00000E+00 0.00000E+00 0.00000E+00
 -1      3171 0.00000E+00 0.00000E+00 0.00000E+00 0.00000E+00 0.00000E+00 0.00000E+00
 -1      3172 0.00000E+00 0.00000E+00 0.00000E+00 0.00000E+00 0.00000E+00 0.00000E+00
 -1      3173 0.00000E+00 0.00000E+00 0.00000E+00 0.00000E+00 0.00000E+00 0.00000E+00
 -1      3174 0.00000E+00 0.00000E+00 0.00000E+00 0.00000E+00 0.00000E+00 0.00000E+00
 -1      3175 0.00000E+00 0.00000E+00 0.00000E+00 0.00000E+00 0.00000E+00 0.00000E+00
 -1      3176 0.00000E+00 0.00000E+00 0.00000E+00 0.00000E+00 0.00000E+00 0.00000E+00
 -1      3177 0.00000E+00 0.00000E+00 0.00000E+00 0.00000E+00 0.00000E+00 0.00000E+00
 -1      3178 0.00000E+00 0.00000E+00 0.00000E+00 0.00000E+00 0.00000E+00 0.00000E+00
 -1      3179 0.00000E+00 0.00000E+00 0.00000E+00 0.00000E+00 0.00000E+00 0.00000E+00
 -1      3180 0.00000E+00 0.00000E+00 0.00000E+00 0.00000E+00 0.00000E+00 0.00000E+00
 -1      3181 0.00000E+00 0.00000E+00 0.00000E+00 0.00000E+00 0.00000E+00 0.00000E+00
 -1      3182 0.00000E+00 0.00000E+00 0.00000E+00 0.00000E+00 0.00000E+00 0.00000E+00
 -1      3183 0.00000E+00 0.00000E+00 0.00000E+00 0.00000E+00 0.00000E+00 0.00000E+00
 -1      3184 0.00000E+00 0.00000E+00 0.00000E+00 0.00000E+00 0.00000E+00 0.00000E+00
 -1      3185 0.00000E+00 0.00000E+00 0.00000E+00 0.00000E+00 0.00000E+00 0.00000E+00
 -1      3186 0.00000E+00 0.00000E+00 0.00000E+00 0.00000E+00 0.00000E+00 0.00000E+00
 -1      3187 0.00000E+00 0.00000E+00 0.00000E+00 0.00000E+00 0.00000E+00 0.00000E+00
 -1      3188 0.00000E+00 0.00000E+00 0.00000E+00 0.00000E+00 0.00000E+00 0.00000E+00
 -1      3189 0.00000E+00 0.00000E+00 0.00000E+00 0.00000E+00 0.00000E+00 0.00000E+00
 -1      3190 0.00000E+00 0.00000E+00 0.00000E+00 0.00000E+00 0.00000E+00 0.00000E+00
 -1      3191 0.00000E+00 0.00000E+00 0.00000E+00 0.00000E+00 0.00000E+00 0.00000E+00
 -1      3192 0.00000E+00 0.00000E+00 0.00000E+00 0.00000E+00 0.00000E+00 0.00000E+00
 -1      3193 0.00000E+00 0.00000E+00 0.00000E+00 0.00000E+00 0.00000E+00 0.00000E+00
 -1      3194 0.00000E+00 0.00000E+00 0.00000E+00 0.00000E+00 0.00000E+00 0.00000E+00
 -1      3195 0.00000E+00 0.00000E+00 0.00000E+00 0.00000E+00 0.00000E+00 0.00000E+00
 -1      3196 0.00000E+00 0.00000E+00 0.00000E+00 0.00000E+00 0.00000E+00 0.00000E+00
 -1      3197 0.00000E+00 0.00000E+00 0.00000E+00 0.00000E+00 0.00000E+00 0.00000E+00
 -1      3198 0.00000E+00 0.00000E+00 0.00000E+00 0.00000E+00 0.00000E+00 0.00000E+00
 -1      3199 0.00000E+00 0.00000E+00 0.00000E+00 0.00000E+00 0.00000E+00 0.00000E+00
 -1      3200 0.00000E+00 0.00000E+00 0.00000E+00 0.00000E+00 0.00000E+00 0.00000E+00
 -1      3201 0.00000E+00 0.00000E+00 0.00000E+00 0.00000E+00 0.00000E+00 0.00000E+00
 -1      3202 0.00000E+00 0.00000E+00 0.00000E+00 0.00000E+00 0.00000E+00 0.00000E+00
 -1      3203 0.00000E+00 0.00000E+00 0.00000E+00 0.00000E+00 0.00000E+00 0.00000E+00
 -1      3204 0.00000E+00 0.00000E+00 0.00000E+00 0.00000E+00 0.00000E+00 0.00000E+00
 -1      3205 0.00000E+00 0.00000E+00 0.00000E+00 0.00000E+00 0.00000E+00 0.00000E+00
 -1      3206 0.00000E+00 0.00000E+00 0.00000E+00 0.00000E+00 0.00000E+00 0.00000E+00
 -1      3207 0.00000E+00 0.00000E+00 0.00000E+00 0.00000E+00 0.00000E+00 0.00000E+00
 -1      3208 0.00000E+00 0.00000E+00 0.00000E+00 0.00000E+00 0.00000E+00 0.00000E+00
 -1      3209 0.00000E+00 0.00000E+00 0.00000E+00 0.00000E+00 0.00000E+00 0.00000E+00
 -1      3210 0.00000E+00 0.00000E+00 0.00000E+00 0.00000E+00 0.00000E+00 0.00000E+00
 -1      3211 0.00000E+00 0.00000E+00 0.00000E+00 0.00000E+00 0.00000E+00 0.00000E+00
 -1      3212 0.00000E+00 0.00000E+00 0.00000E+00 0.00000E+00 0.00000E+00 0.00000E+00
 -1      3213 0.00000E+00 0.00000E+00 0.00000E+00 0.00000E+00 0.00000E+00 0.00000E+00
 -1      3214 0.00000E+00 0.00000E+00 0.00000E+00 0.00000E+00 0.00000E+00 0.00000E+00
 -1      3215 0.00000E+00 0.00000E+00 0.00000E+00 0.00000E+00 0.00000E+00 0.00000E+00
 -1      3216 0.00000E+00 0.00000E+00 0.00000E+00 0.00000E+00 0.00000E+00 0.00000E+00
 -1      3217 0.00000E+00 0.00000E+00 0.00000E+00 0.00000E+00 0.00000E+00 0.00000E+00
 -1      3218 0.00000E+00 0.00000E+00 0.00000E+00 0.00000E+00 0.00000E+00 0.00000E+00
 -1      3219 0.00000E+00 0.00000E+00 0.00000E+00 0.00000E+00 0.00000E+00 0.00000E+00
 -1      3220 0.00000E+00 0.00000E+00 0.00000E+00 0.00000E+00 0.00000E+00 0.00000E+00
 -1      3221 0.00000E+00 0.00000E+00 0.00000E+00 0.00000E+00 0.00000E+00 0.00000E+00
 -1      3222 0.00000E+00 0.00000E+00 0.00000E+00 0.00000E+00 0.00000E+00 0.00000E+00
 -1      3223 0.00000E+00 0.00000E+00 0.00000E+00 0.00000E+00 0.00000E+00 0.00000E+00
 -1      3224 0.00000E+00 0.00000E+00 0.00000E+00 0.00000E+00 0.00000E+00 0.00000E+00
 -1      3225 0.00000E+00 0.00000E+00 0.00000E+00 0.00000E+00 0.00000E+00 0.00000E+00
 -1      3226 0.00000E+00 0.00000E+00 0.00000E+00 0.00000E+00 0.00000E+00 0.00000E+00
 -1      3227 0.00000E+00 0.00000E+00 0.00000E+00 0.00000E+00 0.00000E+00 0.00000E+00
 -1      3228 0.00000E+00 0.00000E+00 0.00000E+00 0.00000E+00 0.00000E+00 0.00000E+00
 -1      3229 0.00000E+00 0.00000E+00 0.00000E+00 0.00000E+00 0.00000E+00 0.00000E+00
 -1      3230 0.00000E+00 0.00000E+00 0.00000E+00 0.00000E+00 0.00000E+00 0.00000E+00
 -1      3231 0.00000E+00 0.00000E+00 0.00000E+00 0.00000E+00 0.00000E+00 0.00000E+00
 -1      3232 0.00000E+00 0.00000E+00 0.00000E+00 0.00000E+00 0.00000E+00 0.00000E+00
 -1      3233 0.00000E+00 0.00000E+00 0.00000E+00 0.00000E+00 0.00000E+00 0.00000E+00
 -1      3234 0.00000E+00 0.00000E+00 0.00000E+00 0.00000E+00 0.00000E+00 0.00000E+00
 -1      3235 0.00000E+00 0.00000E+00 0.00000E+00 0.00000E+00 0.00000E+00 0.00000E+00
 -1      3236 0.00000E+00 0.00000E+00 0.00000E+00 0.00000E+00 0.00000E+00 0.00000E+00
 -1      3237 0.00000E+00 0.00000E+00 0.00000E+00 0.00000E+00 0.00000E+00 0.00000E+00
 -1      3238 0.00000E+00 0.00000E+00 0.00000E+00 0.00000E+00 0.00000E+00 0.00000E+00
 -1      3239 0.00000E+00 0.00000E+00 0.00000E+00 0.00000E+00 0.00000E+00 0.00000E+00
 -1      3240 0.00000E+00 0.00000E+00 0.00000E+00 0.00000E+00 0.00000E+00 0.00000E+00
 -1      3241 0.00000E+00 0.00000E+00 0.00000E+00 0.00000E+00 0.00000E+00 0.00000E+00
 -1      3242 0.00000E+00 0.00000E+00 0.00000E+00 0.00000E+00 0.00000E+00 0.00000E+00
 -1      3243 0.00000E+00 0.00000E+00 0.00000E+00 0.00000E+00 0.00000E+00 0.00000E+00
 -1      3244 0.00000E+00 0.00000E+00 0.00000E+00 0.00000E+00 0.00000E+00 0.00000E+00
 -1      3245 0.00000E+00 0.00000E+00 0.00000E+00 0.00000E+00 0.00000E+00 0.00000E+00
 -1      3246 0.00000E+00 0.00000E+00 0.00000E+00 0.00000E+00 0.00000E+00 0.00000E+00
 -1      3247 0.00000E+00 0.00000E+00 0.00000E+00 0.00000E+00 0.00000E+00 0.00000E+00
 -1      3248 0.00000E+00 0.00000E+00 0.00000E+00 0.00000E+00 0.00000E+00 0.00000E+00
 -1      3249 0.00000E+00 0.00000E+00 0.00000E+00 0.00000E+00 0.00000E+00 0.00000E+00
 -1      3250 0.00000E+00 0.00000E+00 0.00000E+00 0.00000E+00 0.00000E+00 0.00000E+00
 -1      3251 0.00000E+00 0.00000E+00 0.00000E+00 0.00000E+00 0.00000E+00 0.00000E+00
 -1      3252 0.00000E+00 0.00000E+00 0.00000E+00 0.00000E+00 0.00000E+00 0.00000E+00
 -1      3253 0.00000E+00 0.00000E+00 0.00000E+00 0.00000E+00 0.00000E+00 0.00000E+00
 -1      3254 0.00000E+00 0.00000E+00 0.00000E+00 0.00000E+00 0.00000E+00 0.00000E+00
 -1      3255 0.00000E+00 0.00000E+00 0.00000E+00 0.00000E+00 0.00000E+00 0.00000E+00
 -1      3256 0.00000E+00 0.00000E+00 0.00000E+00 0.00000E+00 0.00000E+00 0.00000E+00
 -1      3257 0.00000E+00 0.00000E+00 0.00000E+00 0.00000E+00 0.00000E+00 0.00000E+00
 -1      3258 0.00000E+00 0.00000E+00 0.00000E+00 0.00000E+00 0.00000E+00 0.00000E+00
 -1      3259 0.00000E+00 0.00000E+00 0.00000E+00 0.00000E+00 0.00000E+00 0.00000E+00
 -1      3260 0.00000E+00 0.00000E+00 0.00000E+00 0.00000E+00 0.00000E+00 0.00000E+00
 -1      3261 0.00000E+00 0.00000E+00 0.00000E+00 0.00000E+00 0.00000E+00 0.00000E+00
 -1      3262 0.00000E+00 0.00000E+00 0.00000E+00 0.00000E+00 0.00000E+00 0.00000E+00
 -1      3263 0.00000E+00 0.00000E+00 0.00000E+00 0.00000E+00 0.00000E+00 0.00000E+00
 -1      3264 0.00000E+00 0.00000E+00 0.00000E+00 0.00000E+00 0.00000E+00 0.00000E+00
 -1      3265 0.00000E+00 0.00000E+00 0.00000E+00 0.00000E+00 0.00000E+00 0.00000E+00
 -1      3266 0.00000E+00 0.00000E+00 0.00000E+00 0.00000E+00 0.00000E+00 0.00000E+00
 -1      3267 0.00000E+00 0.00000E+00 0.00000E+00 0.00000E+00 0.00000E+00 0.00000E+00
 -1      3268 0.00000E+00 0.00000E+00 0.00000E+00 0.00000E+00 0.00000E+00 0.00000E+00
 -1      3269 0.00000E+00 0.00000E+00 0.00000E+00 0.00000E+00 0.00000E+00 0.00000E+00
 -1      3270 0.00000E+00 0.00000E+00 0.00000E+00 0.00000E+00 0.00000E+00 0.00000E+00
 -1      3271 0.00000E+00 0.00000E+00 0.00000E+00 0.00000E+00 0.00000E+00 0.00000E+00
 -1      3272 0.00000E+00 0.00000E+00 0.00000E+00 0.00000E+00 0.00000E+00 0.00000E+00
 -1      3273 0.00000E+00 0.00000E+00 0.00000E+00 0.00000E+00 0.00000E+00 0.00000E+00
 -1      3274 0.00000E+00 0.00000E+00 0.00000E+00 0.00000E+00 0.00000E+00 0.00000E+00
 -1      3275 0.00000E+00 0.00000E+00 0.00000E+00 0.00000E+00 0.00000E+00 0.00000E+00
 -1      3276 0.00000E+00 0.00000E+00 0.00000E+00 0.00000E+00 0.00000E+00 0.00000E+00
 -1      3277 0.00000E+00 0.00000E+00 0.00000E+00 0.00000E+00 0.00000E+00 0.00000E+00
 -1      3278 0.00000E+00 0.00000E+00 0.00000E+00 0.00000E+00 0.00000E+00 0.00000E+00
 -1      3279 0.00000E+00 0.00000E+00 0.00000E+00 0.00000E+00 0.00000E+00 0.00000E+00
 -1      3280 0.00000E+00 0.00000E+00 0.00000E+00 0.00000E+00 0.00000E+00 0.00000E+00
 -1      3281 0.00000E+00 0.00000E+00 0.00000E+00 0.00000E+00 0.00000E+00 0.00000E+00
 -1      3282 0.00000E+00 0.00000E+00 0.00000E+00 0.00000E+00 0.00000E+00 0.00000E+00
 -1      3283 0.00000E+00 0.00000E+00 0.00000E+00 0.00000E+00 0.00000E+00 0.00000E+00
 -1      3284 0.00000E+00 0.00000E+00 0.00000E+00 0.00000E+00 0.00000E+00 0.00000E+00
 -1      3285 0.00000E+00 0.00000E+00 0.00000E+00 0.00000E+00 0.00000E+00 0.00000E+00
 -1      3286 0.00000E+00 0.00000E+00 0.00000E+00 0.00000E+00 0.00000E+00 0.00000E+00
 -1      3287 0.00000E+00 0.00000E+00 0.00000E+00 0.00000E+00 0.00000E+00 0.00000E+00
 -1      3288 0.00000E+00 0.00000E+00 0.00000E+00 0.00000E+00 0.00000E+00 0.00000E+00
 -1      3289 0.00000E+00 0.00000E+00 0.00000E+00 0.00000E+00 0.00000E+00 0.00000E+00
 -1      3290 0.00000E+00 0.00000E+00 0.00000E+00 0.00000E+00 0.00000E+00 0.00000E+00
 -1      3291 0.00000E+00 0.00000E+00 0.00000E+00 0.00000E+00 0.00000E+00 0.00000E+00
 -1      3292 0.00000E+00 0.00000E+00 0.00000E+00 0.00000E+00 0.00000E+00 0.00000E+00
 -1      3293 0.00000E+00 0.00000E+00 0.00000E+00 0.00000E+00 0.00000E+00 0.00000E+00
 -1      3294 0.00000E+00 0.00000E+00 0.00000E+00 0.00000E+00 0.00000E+00 0.00000E+00
 -1      3295 0.00000E+00 0.00000E+00 0.00000E+00 0.00000E+00 0.00000E+00 0.00000E+00
 -1      3296 0.00000E+00 0.00000E+00 0.00000E+00 0.00000E+00 0.00000E+00 0.00000E+00
 -1      3297 0.00000E+00 0.00000E+00 0.00000E+00 0.00000E+00 0.00000E+00 0.00000E+00
 -1      3298 0.00000E+00 0.00000E+00 0.00000E+00 0.00000E+00 0.00000E+00 0.00000E+00
 -1      3299 0.00000E+00 0.00000E+00 0.00000E+00 0.00000E+00 0.00000E+00 0.00000E+00
 -1      3300 0.00000E+00 0.00000E+00 0.00000E+00 0.00000E+00 0.00000E+00 0.00000E+00
 -1      3301 0.00000E+00 0.00000E+00 0.00000E+00 0.00000E+00 0.00000E+00 0.00000E+00
 -1      3302 0.00000E+00 0.00000E+00 0.00000E+00 0.00000E+00 0.00000E+00 0.00000E+00
 -1      3303 0.00000E+00 0.00000E+00 0.00000E+00 0.00000E+00 0.00000E+00 0.00000E+00
 -1      3304 0.00000E+00 0.00000E+00 0.00000E+00 0.00000E+00 0.00000E+00 0.00000E+00
 -1      3305 0.00000E+00 0.00000E+00 0.00000E+00 0.00000E+00 0.00000E+00 0.00000E+00
 -1      3306 0.00000E+00 0.00000E+00 0.00000E+00 0.00000E+00 0.00000E+00 0.00000E+00
 -1      3307 0.00000E+00 0.00000E+00 0.00000E+00 0.00000E+00 0.00000E+00 0.00000E+00
 -1      3308 0.00000E+00 0.00000E+00 0.00000E+00 0.00000E+00 0.00000E+00 0.00000E+00
 -1      3309 0.00000E+00 0.00000E+00 0.00000E+00 0.00000E+00 0.00000E+00 0.00000E+00
 -1      3310 0.00000E+00 0.00000E+00 0.00000E+00 0.00000E+00 0.00000E+00 0.00000E+00
 -1      3311 0.00000E+00 0.00000E+00 0.00000E+00 0.00000E+00 0.00000E+00 0.00000E+00
 -1      3312 0.00000E+00 0.00000E+00 0.00000E+00 0.00000E+00 0.00000E+00 0.00000E+00
 -1      3313 0.00000E+00 0.00000E+00 0.00000E+00 0.00000E+00 0.00000E+00 0.00000E+00
 -1      3314 0.00000E+00 0.00000E+00 0.00000E+00 0.00000E+00 0.00000E+00 0.00000E+00
 -1      3315 0.00000E+00 0.00000E+00 0.00000E+00 0.00000E+00 0.00000E+00 0.00000E+00
 -1      3316 0.00000E+00 0.00000E+00 0.00000E+00 0.00000E+00 0.00000E+00 0.00000E+00
 -1      3317 0.00000E+00 0.00000E+00 0.00000E+00 0.00000E+00 0.00000E+00 0.00000E+00
 -1      3318 0.00000E+00 0.00000E+00 0.00000E+00 0.00000E+00 0.00000E+00 0.00000E+00
 -1      3319 0.00000E+00 0.00000E+00 0.00000E+00 0.00000E+00 0.00000E+00 0.00000E+00
 -1      3320 0.00000E+00 0.00000E+00 0.00000E+00 0.00000E+00 0.00000E+00 0.00000E+00
 -1      3321 0.00000E+00 0.00000E+00 0.00000E+00 0.00000E+00 0.00000E+00 0.00000E+00
 -1      3322 0.00000E+00 0.00000E+00 0.00000E+00 0.00000E+00 0.00000E+00 0.00000E+00
 -1      3323 0.00000E+00 0.00000E+00 0.00000E+00 0.00000E+00 0.00000E+00 0.00000E+00
 -1      3324 0.00000E+00 0.00000E+00 0.00000E+00 0.00000E+00 0.00000E+00 0.00000E+00
 -1      3325 0.00000E+00 0.00000E+00 0.00000E+00 0.00000E+00 0.00000E+00 0.00000E+00
 -1      3326 0.00000E+00 0.00000E+00 0.00000E+00 0.00000E+00 0.00000E+00 0.00000E+00
 -1      3327 0.00000E+00 0.00000E+00 0.00000E+00 0.00000E+00 0.00000E+00 0.00000E+00
 -1      3328 0.00000E+00 0.00000E+00 0.00000E+00 0.00000E+00 0.00000E+00 0.00000E+00
 -1      3329 0.00000E+00 0.00000E+00 0.00000E+00 0.00000E+00 0.00000E+00 0.00000E+00
 -1      3330 0.00000E+00 0.00000E+00 0.00000E+00 0.00000E+00 0.00000E+00 0.00000E+00
 -1      3331 0.00000E+00 0.00000E+00 0.00000E+00 0.00000E+00 0.00000E+00 0.00000E+00
 -1      3332 0.00000E+00 0.00000E+00 0.00000E+00 0.00000E+00 0.00000E+00 0.00000E+00
 -1      3333 0.00000E+00 0.00000E+00 0.00000E+00 0.00000E+00 0.00000E+00 0.00000E+00
 -1      3334 0.00000E+00 0.00000E+00 0.00000E+00 0.00000E+00 0.00000E+00 0.00000E+00
 -1      3335 0.00000E+00 0.00000E+00 0.00000E+00 0.00000E+00 0.00000E+00 0.00000E+00
 -1      3336 0.00000E+00 0.00000E+00 0.00000E+00 0.00000E+00 0.00000E+00 0.00000E+00
 -1      3337 0.00000E+00 0.00000E+00 0.00000E+00 0.00000E+00 0.00000E+00 0.00000E+00
 -1      3338 0.00000E+00 0.00000E+00 0.00000E+00 0.00000E+00 0.00000E+00 0.00000E+00
 -1      3339 0.00000E+00 0.00000E+00 0.00000E+00 0.00000E+00 0.00000E+00 0.00000E+00
 -1      3340 0.00000E+00 0.00000E+00 0.00000E+00 0.00000E+00 0.00000E+00 0.00000E+00
 -1      3341 0.00000E+00 0.00000E+00 0.00000E+00 0.00000E+00 0.00000E+00 0.00000E+00
 -1      3342 0.00000E+00 0.00000E+00 0.00000E+00 0.00000E+00 0.00000E+00 0.00000E+00
 -1      3343 0.00000E+00 0.00000E+00 0.00000E+00 0.00000E+00 0.00000E+00 0.00000E+00
 -1      3344 0.00000E+00 0.00000E+00 0.00000E+00 0.00000E+00 0.00000E+00 0.00000E+00
 -1      3345 0.00000E+00 0.00000E+00 0.00000E+00 0.00000E+00 0.00000E+00 0.00000E+00
 -1      3346 0.00000E+00 0.00000E+00 0.00000E+00 0.00000E+00 0.00000E+00 0.00000E+00
 -1      3347 0.00000E+00 0.00000E+00 0.00000E+00 0.00000E+00 0.00000E+00 0.00000E+00
 -1      3348 0.00000E+00 0.00000E+00 0.00000E+00 0.00000E+00 0.00000E+00 0.00000E+00
 -1      3349 0.00000E+00 0.00000E+00 0.00000E+00 0.00000E+00 0.00000E+00 0.00000E+00
 -1      3350 0.00000E+00 0.00000E+00 0.00000E+00 0.00000E+00 0.00000E+00 0.00000E+00
 -1      3351 0.00000E+00 0.00000E+00 0.00000E+00 0.00000E+00 0.00000E+00 0.00000E+00
 -1      3352 0.00000E+00 0.00000E+00 0.00000E+00 0.00000E+00 0.00000E+00 0.00000E+00
 -1      3353 0.00000E+00 0.00000E+00 0.00000E+00 0.00000E+00 0.00000E+00 0.00000E+00
 -1      3354 0.00000E+00 0.00000E+00 0.00000E+00 0.00000E+00 0.00000E+00 0.00000E+00
 -1      3355 0.00000E+00 0.00000E+00 0.00000E+00 0.00000E+00 0.00000E+00 0.00000E+00
 -1      3356 0.00000E+00 0.00000E+00 0.00000E+00 0.00000E+00 0.00000E+00 0.00000E+00
 -1      3357 0.00000E+00 0.00000E+00 0.00000E+00 0.00000E+00 0.00000E+00 0.00000E+00
 -1      3358 0.00000E+00 0.00000E+00 0.00000E+00 0.00000E+00 0.00000E+00 0.00000E+00
 -1      3359 0.00000E+00 0.00000E+00 0.00000E+00 0.00000E+00 0.00000E+00 0.00000E+00
 -1      3360 0.00000E+00 0.00000E+00 0.00000E+00 0.00000E+00 0.00000E+00 0.00000E+00
 -1      3361 0.00000E+00 0.00000E+00 0.00000E+00 0.00000E+00 0.00000E+00 0.00000E+00
 -1      3362 0.00000E+00 0.00000E+00 0.00000E+00 0.00000E+00 0.00000E+00 0.00000E+00
 -1      3363 0.00000E+00 0.00000E+00 0.00000E+00 0.00000E+00 0.00000E+00 0.00000E+00
 -1      3364 0.00000E+00 0.00000E+00 0.00000E+00 0.00000E+00 0.00000E+00 0.00000E+00
 -1      3365 0.00000E+00 0.00000E+00 0.00000E+00 0.00000E+00 0.00000E+00 0.00000E+00
 -1      3366 0.00000E+00 0.00000E+00 0.00000E+00 0.00000E+00 0.00000E+00 0.00000E+00
 -1      3367 0.00000E+00 0.00000E+00 0.00000E+00 0.00000E+00 0.00000E+00 0.00000E+00
 -1      3368 0.00000E+00 0.00000E+00 0.00000E+00 0.00000E+00 0.00000E+00 0.00000E+00
 -1      3369 0.00000E+00 0.00000E+00 0.00000E+00 0.00000E+00 0.00000E+00 0.00000E+00
 -1      3370 0.00000E+00 0.00000E+00 0.00000E+00 0.00000E+00 0.00000E+00 0.00000E+00
 -1      3371 0.00000E+00 0.00000E+00 0.00000E+00 0.00000E+00 0.00000E+00 0.00000E+00
 -1      3372 0.00000E+00 0.00000E+00 0.00000E+00 0.00000E+00 0.00000E+00 0.00000E+00
 -1      3373 0.00000E+00 0.00000E+00 0.00000E+00 0.00000E+00 0.00000E+00 0.00000E+00
 -1      3374 0.00000E+00 0.00000E+00 0.00000E+00 0.00000E+00 0.00000E+00 0.00000E+00
 -1      3375 0.00000E+00 0.00000E+00 0.00000E+00 0.00000E+00 0.00000E+00 0.00000E+00
 -1      3376 0.00000E+00 0.00000E+00 0.00000E+00 0.00000E+00 0.00000E+00 0.00000E+00
 -1      3377 0.00000E+00 0.00000E+00 0.00000E+00 0.00000E+00 0.00000E+00 0.00000E+00
 -1      3378 0.00000E+00 0.00000E+00 0.00000E+00 0.00000E+00 0.00000E+00 0.00000E+00
 -1      3379 0.00000E+00 0.00000E+00 0.00000E+00 0.00000E+00 0.00000E+00 0.00000E+00
 -1      3380 0.00000E+00 0.00000E+00 0.00000E+00 0.00000E+00 0.00000E+00 0.00000E+00
 -1      3381 0.00000E+00 0.00000E+00 0.00000E+00 0.00000E+00 0.00000E+00 0.00000E+00
 -1      3382 0.00000E+00 0.00000E+00 0.00000E+00 0.00000E+00 0.00000E+00 0.00000E+00
 -1      3383 0.00000E+00 0.00000E+00 0.00000E+00 0.00000E+00 0.00000E+00 0.00000E+00
 -1      3384 0.00000E+00 0.00000E+00 0.00000E+00 0.00000E+00 0.00000E+00 0.00000E+00
 -1      3385 0.00000E+00 0.00000E+00 0.00000E+00 0.00000E+00 0.00000E+00 0.00000E+00
 -1      3386 0.00000E+00 0.00000E+00 0.00000E+00 0.00000E+00 0.00000E+00 0.00000E+00
 -1      3387 0.00000E+00 0.00000E+00 0.00000E+00 0.00000E+00 0.00000E+00 0.00000E+00
 -1      3388 0.00000E+00 0.00000E+00 0.00000E+00 0.00000E+00 0.00000E+00 0.00000E+00
 -1      3389 0.00000E+00 0.00000E+00 0.00000E+00 0.00000E+00 0.00000E+00 0.00000E+00
 -1      3390 0.00000E+00 0.00000E+00 0.00000E+00 0.00000E+00 0.00000E+00 0.00000E+00
 -1      3391 0.00000E+00 0.00000E+00 0.00000E+00 0.00000E+00 0.00000E+00 0.00000E+00
 -1      3392 0.00000E+00 0.00000E+00 0.00000E+00 0.00000E+00 0.00000E+00 0.00000E+00
 -1      3393 0.00000E+00 0.00000E+00 0.00000E+00 0.00000E+00 0.00000E+00 0.00000E+00
 -1      3394 0.00000E+00 0.00000E+00 0.00000E+00 0.00000E+00 0.00000E+00 0.00000E+00
 -1      3395 0.00000E+00 0.00000E+00 0.00000E+00 0.00000E+00 0.00000E+00 0.00000E+00
 -1      3396 0.00000E+00 0.00000E+00 0.00000E+00 0.00000E+00 0.00000E+00 0.00000E+00
 -1      3397 0.00000E+00 0.00000E+00 0.00000E+00 0.00000E+00 0.00000E+00 0.00000E+00
 -1      3398 0.00000E+00 0.00000E+00 0.00000E+00 0.00000E+00 0.00000E+00 0.00000E+00
 -1      3399 0.00000E+00 0.00000E+00 0.00000E+00 0.00000E+00 0.00000E+00 0.00000E+00
 -1      3400 0.00000E+00 0.00000E+00 0.00000E+00 0.00000E+00 0.00000E+00 0.00000E+00
 -1      3401 0.00000E+00 0.00000E+00 0.00000E+00 0.00000E+00 0.00000E+00 0.00000E+00
 -1      3402 0.00000E+00 0.00000E+00 0.00000E+00 0.00000E+00 0.00000E+00 0.00000E+00
 -1      3403 0.00000E+00 0.00000E+00 0.00000E+00 0.00000E+00 0.00000E+00 0.00000E+00
 -1      3404 0.00000E+00 0.00000E+00 0.00000E+00 0.00000E+00 0.00000E+00 0.00000E+00
 -1      3405 0.00000E+00 0.00000E+00 0.00000E+00 0.00000E+00 0.00000E+00 0.00000E+00
 -1      3406 0.00000E+00 0.00000E+00 0.00000E+00 0.00000E+00 0.00000E+00 0.00000E+00
 -1      3407 0.00000E+00 0.00000E+00 0.00000E+00 0.00000E+00 0.00000E+00 0.00000E+00
 -1      3408 0.00000E+00 0.00000E+00 0.00000E+00 0.00000E+00 0.00000E+00 0.00000E+00
 -1      3409 0.00000E+00 0.00000E+00 0.00000E+00 0.00000E+00 0.00000E+00 0.00000E+00
 -1      3410 0.00000E+00 0.00000E+00 0.00000E+00 0.00000E+00 0.00000E+00 0.00000E+00
 -1      3411 0.00000E+00 0.00000E+00 0.00000E+00 0.00000E+00 0.00000E+00 0.00000E+00
 -1      3412 0.00000E+00 0.00000E+00 0.00000E+00 0.00000E+00 0.00000E+00 0.00000E+00
 -1      3413 0.00000E+00 0.00000E+00 0.00000E+00 0.00000E+00 0.00000E+00 0.00000E+00
 -1      3414 0.00000E+00 0.00000E+00 0.00000E+00 0.00000E+00 0.00000E+00 0.00000E+00
 -1      3415 0.00000E+00 0.00000E+00 0.00000E+00 0.00000E+00 0.00000E+00 0.00000E+00
 -1      3416 0.00000E+00 0.00000E+00 0.00000E+00 0.00000E+00 0.00000E+00 0.00000E+00
 -1      3417 0.00000E+00 0.00000E+00 0.00000E+00 0.00000E+00 0.00000E+00 0.00000E+00
 -1      3418 0.00000E+00 0.00000E+00 0.00000E+00 0.00000E+00 0.00000E+00 0.00000E+00
 -1      3419 0.00000E+00 0.00000E+00 0.00000E+00 0.00000E+00 0.00000E+00 0.00000E+00
 -1      3420 0.00000E+00 0.00000E+00 0.00000E+00 0.00000E+00 0.00000E+00 0.00000E+00
 -1      3421 0.00000E+00 0.00000E+00 0.00000E+00 0.00000E+00 0.00000E+00 0.00000E+00
 -1      3422 0.00000E+00 0.00000E+00 0.00000E+00 0.00000E+00 0.00000E+00 0.00000E+00
 -1      3423 0.00000E+00 0.00000E+00 0.00000E+00 0.00000E+00 0.00000E+00 0.00000E+00
 -1      3424 0.00000E+00 0.00000E+00 0.00000E+00 0.00000E+00 0.00000E+00 0.00000E+00
 -1      3425 0.00000E+00 0.00000E+00 0.00000E+00 0.00000E+00 0.00000E+00 0.00000E+00
 -1      3426 0.00000E+00 0.00000E+00 0.00000E+00 0.00000E+00 0.00000E+00 0.00000E+00
 -1      3427 0.00000E+00 0.00000E+00 0.00000E+00 0.00000E+00 0.00000E+00 0.00000E+00
 -1      3428 0.00000E+00 0.00000E+00 0.00000E+00 0.00000E+00 0.00000E+00 0.00000E+00
 -1      3429 0.00000E+00 0.00000E+00 0.00000E+00 0.00000E+00 0.00000E+00 0.00000E+00
 -1      3430 0.00000E+00 0.00000E+00 0.00000E+00 0.00000E+00 0.00000E+00 0.00000E+00
 -1      3431 0.00000E+00 0.00000E+00 0.00000E+00 0.00000E+00 0.00000E+00 0.00000E+00
 -1      3432 0.00000E+00 0.00000E+00 0.00000E+00 0.00000E+00 0.00000E+00 0.00000E+00
 -1      3433 0.00000E+00 0.00000E+00 0.00000E+00 0.00000E+00 0.00000E+00 0.00000E+00
 -1      3434 0.00000E+00 0.00000E+00 0.00000E+00 0.00000E+00 0.00000E+00 0.00000E+00
 -1      3435 0.00000E+00 0.00000E+00 0.00000E+00 0.00000E+00 0.00000E+00 0.00000E+00
 -1      3436 0.00000E+00 0.00000E+00 0.00000E+00 0.00000E+00 0.00000E+00 0.00000E+00
 -1      3437 0.00000E+00 0.00000E+00 0.00000E+00 0.00000E+00 0.00000E+00 0.00000E+00
 -1      3438 0.00000E+00 0.00000E+00 0.00000E+00 0.00000E+00 0.00000E+00 0.00000E+00
 -1      3439 0.00000E+00 0.00000E+00 0.00000E+00 0.00000E+00 0.00000E+00 0.00000E+00
 -1      3440 0.00000E+00 0.00000E+00 0.00000E+00 0.00000E+00 0.00000E+00 0.00000E+00
 -1      3441 0.00000E+00 0.00000E+00 0.00000E+00 0.00000E+00 0.00000E+00 0.00000E+00
 -1      3442 0.00000E+00 0.00000E+00 0.00000E+00 0.00000E+00 0.00000E+00 0.00000E+00
 -1      3443 0.00000E+00 0.00000E+00 0.00000E+00 0.00000E+00 0.00000E+00 0.00000E+00
 -1      3444 0.00000E+00 0.00000E+00 0.00000E+00 0.00000E+00 0.00000E+00 0.00000E+00
 -1      3445 0.00000E+00 0.00000E+00 0.00000E+00 0.00000E+00 0.00000E+00 0.00000E+00
 -1      3446 0.00000E+00 0.00000E+00 0.00000E+00 0.00000E+00 0.00000E+00 0.00000E+00
 -1      3447 0.00000E+00 0.00000E+00 0.00000E+00 0.00000E+00 0.00000E+00 0.00000E+00
 -1      3448 0.00000E+00 0.00000E+00 0.00000E+00 0.00000E+00 0.00000E+00 0.00000E+00
 -1      3449 0.00000E+00 0.00000E+00 0.00000E+00 0.00000E+00 0.00000E+00 0.00000E+00
 -1      3450 0.00000E+00 0.00000E+00 0.00000E+00 0.00000E+00 0.00000E+00 0.00000E+00
 -1      3451 0.00000E+00 0.00000E+00 0.00000E+00 0.00000E+00 0.00000E+00 0.00000E+00
 -1      3452 0.00000E+00 0.00000E+00 0.00000E+00 0.00000E+00 0.00000E+00 0.00000E+00
 -1      3453 0.00000E+00 0.00000E+00 0.00000E+00 0.00000E+00 0.00000E+00 0.00000E+00
 -1      3454 0.00000E+00 0.00000E+00 0.00000E+00 0.00000E+00 0.00000E+00 0.00000E+00
 -1      3455 0.00000E+00 0.00000E+00 0.00000E+00 0.00000E+00 0.00000E+00 0.00000E+00
 -1      3456 0.00000E+00 0.00000E+00 0.00000E+00 0.00000E+00 0.00000E+00 0.00000E+00
 -1      3457 0.00000E+00 0.00000E+00 0.00000E+00 0.00000E+00 0.00000E+00 0.00000E+00
 -1      3458 0.00000E+00 0.00000E+00 0.00000E+00 0.00000E+00 0.00000E+00 0.00000E+00
 -1      3459 0.00000E+00 0.00000E+00 0.00000E+00 0.00000E+00 0.00000E+00 0.00000E+00
 -1      3460 0.00000E+00 0.00000E+00 0.00000E+00 0.00000E+00 0.00000E+00 0.00000E+00
 -1      3461 0.00000E+00 0.00000E+00 0.00000E+00 0.00000E+00 0.00000E+00 0.00000E+00
 -1      3462 0.00000E+00 0.00000E+00 0.00000E+00 0.00000E+00 0.00000E+00 0.00000E+00
 -1      3463 0.00000E+00 0.00000E+00 0.00000E+00 0.00000E+00 0.00000E+00 0.00000E+00
 -1      3464 0.00000E+00 0.00000E+00 0.00000E+00 0.00000E+00 0.00000E+00 0.00000E+00
 -1      3465 0.00000E+00 0.00000E+00 0.00000E+00 0.00000E+00 0.00000E+00 0.00000E+00
 -1      3466 0.00000E+00 0.00000E+00 0.00000E+00 0.00000E+00 0.00000E+00 0.00000E+00
 -1      3467 0.00000E+00 0.00000E+00 0.00000E+00 0.00000E+00 0.00000E+00 0.00000E+00
 -1      3468 0.00000E+00 0.00000E+00 0.00000E+00 0.00000E+00 0.00000E+00 0.00000E+00
 -1      3469 0.00000E+00 0.00000E+00 0.00000E+00 0.00000E+00 0.00000E+00 0.00000E+00
 -1      3470 0.00000E+00 0.00000E+00 0.00000E+00 0.00000E+00 0.00000E+00 0.00000E+00
 -1      3471 0.00000E+00 0.00000E+00 0.00000E+00 0.00000E+00 0.00000E+00 0.00000E+00
 -1      3472 0.00000E+00 0.00000E+00 0.00000E+00 0.00000E+00 0.00000E+00 0.00000E+00
 -1      3473 0.00000E+00 0.00000E+00 0.00000E+00 0.00000E+00 0.00000E+00 0.00000E+00
 -1      3474 0.00000E+00 0.00000E+00 0.00000E+00 0.00000E+00 0.00000E+00 0.00000E+00
 -1      3475 0.00000E+00 0.00000E+00 0.00000E+00 0.00000E+00 0.00000E+00 0.00000E+00
 -1      3476 0.00000E+00 0.00000E+00 0.00000E+00 0.00000E+00 0.00000E+00 0.00000E+00
 -1      3477 0.00000E+00 0.00000E+00 0.00000E+00 0.00000E+00 0.00000E+00 0.00000E+00
 -1      3478 0.00000E+00 0.00000E+00 0.00000E+00 0.00000E+00 0.00000E+00 0.00000E+00
 -1      3479 0.00000E+00 0.00000E+00 0.00000E+00 0.00000E+00 0.00000E+00 0.00000E+00
 -1      3480 0.00000E+00 0.00000E+00 0.00000E+00 0.00000E+00 0.00000E+00 0.00000E+00
 -1      3481 0.00000E+00 0.00000E+00 0.00000E+00 0.00000E+00 0.00000E+00 0.00000E+00
 -1      3482 0.00000E+00 0.00000E+00 0.00000E+00 0.00000E+00 0.00000E+00 0.00000E+00
 -1      3483 0.00000E+00 0.00000E+00 0.00000E+00 0.00000E+00 0.00000E+00 0.00000E+00
 -1      3484 0.00000E+00 0.00000E+00 0.00000E+00 0.00000E+00 0.00000E+00 0.00000E+00
 -1      3485 0.00000E+00 0.00000E+00 0.00000E+00 0.00000E+00 0.00000E+00 0.00000E+00
 -1      3486 0.00000E+00 0.00000E+00 0.00000E+00 0.00000E+00 0.00000E+00 0.00000E+00
 -1      3487 0.00000E+00 0.00000E+00 0.00000E+00 0.00000E+00 0.00000E+00 0.00000E+00
 -1      3488 0.00000E+00 0.00000E+00 0.00000E+00 0.00000E+00 0.00000E+00 0.00000E+00
 -1      3489 0.00000E+00 0.00000E+00 0.00000E+00 0.00000E+00 0.00000E+00 0.00000E+00
 -1      3490 0.00000E+00 0.00000E+00 0.00000E+00 0.00000E+00 0.00000E+00 0.00000E+00
 -1      3491 0.00000E+00 0.00000E+00 0.00000E+00 0.00000E+00 0.00000E+00 0.00000E+00
 -1      3492 0.00000E+00 0.00000E+00 0.00000E+00 0.00000E+00 0.00000E+00 0.00000E+00
 -1      3493 0.00000E+00 0.00000E+00 0.00000E+00 0.00000E+00 0.00000E+00 0.00000E+00
 -1      3494 0.00000E+00 0.00000E+00 0.00000E+00 0.00000E+00 0.00000E+00 0.00000E+00
 -1      3495 0.00000E+00 0.00000E+00 0.00000E+00 0.00000E+00 0.00000E+00 0.00000E+00
 -1      3496 0.00000E+00 0.00000E+00 0.00000E+00 0.00000E+00 0.00000E+00 0.00000E+00
 -1      3497 0.00000E+00 0.00000E+00 0.00000E+00 0.00000E+00 0.00000E+00 0.00000E+00
 -1      3498 0.00000E+00 0.00000E+00 0.00000E+00 0.00000E+00 0.00000E+00 0.00000E+00
 -1      3499 0.00000E+00 0.00000E+00 0.00000E+00 0.00000E+00 0.00000E+00 0.00000E+00
 -1      3500 0.00000E+00 0.00000E+00 0.00000E+00 0.00000E+00 0.00000E+00 0.00000E+00
 -1      3501 0.00000E+00 0.00000E+00 0.00000E+00 0.00000E+00 0.00000E+00 0.00000E+00
 -1      3502 0.00000E+00 0.00000E+00 0.00000E+00 0.00000E+00 0.00000E+00 0.00000E+00
 -1      3503 0.00000E+00 0.00000E+00 0.00000E+00 0.00000E+00 0.00000E+00 0.00000E+00
 -1      3504 0.00000E+00 0.00000E+00 0.00000E+00 0.00000E+00 0.00000E+00 0.00000E+00
 -1      3505 0.00000E+00 0.00000E+00 0.00000E+00 0.00000E+00 0.00000E+00 0.00000E+00
 -1      3506 0.00000E+00 0.00000E+00 0.00000E+00 0.00000E+00 0.00000E+00 0.00000E+00
 -1      3507 0.00000E+00 0.00000E+00 0.00000E+00 0.00000E+00 0.00000E+00 0.00000E+00
 -1      3508 0.00000E+00 0.00000E+00 0.00000E+00 0.00000E+00 0.00000E+00 0.00000E+00
 -1      3509 0.00000E+00 0.00000E+00 0.00000E+00 0.00000E+00 0.00000E+00 0.00000E+00
 -1      3510 0.00000E+00 0.00000E+00 0.00000E+00 0.00000E+00 0.00000E+00 0.00000E+00
 -1      3511 0.00000E+00 0.00000E+00 0.00000E+00 0.00000E+00 0.00000E+00 0.00000E+00
 -1      3512 0.00000E+00 0.00000E+00 0.00000E+00 0.00000E+00 0.00000E+00 0.00000E+00
 -1      3513 0.00000E+00 0.00000E+00 0.00000E+00 0.00000E+00 0.00000E+00 0.00000E+00
 -1      3514 0.00000E+00 0.00000E+00 0.00000E+00 0.00000E+00 0.00000E+00 0.00000E+00
 -1      3515 0.00000E+00 0.00000E+00 0.00000E+00 0.00000E+00 0.00000E+00 0.00000E+00
 -1      3516 0.00000E+00 0.00000E+00 0.00000E+00 0.00000E+00 0.00000E+00 0.00000E+00
 -1      3517 0.00000E+00 0.00000E+00 0.00000E+00 0.00000E+00 0.00000E+00 0.00000E+00
 -1      3518 0.00000E+00 0.00000E+00 0.00000E+00 0.00000E+00 0.00000E+00 0.00000E+00
 -1      3519 0.00000E+00 0.00000E+00 0.00000E+00 0.00000E+00 0.00000E+00 0.00000E+00
 -1      3520 0.00000E+00 0.00000E+00 0.00000E+00 0.00000E+00 0.00000E+00 0.00000E+00
 -1      3521 0.00000E+00 0.00000E+00 0.00000E+00 0.00000E+00 0.00000E+00 0.00000E+00
 -1      3522 0.00000E+00 0.00000E+00 0.00000E+00 0.00000E+00 0.00000E+00 0.00000E+00
 -1      3523 0.00000E+00 0.00000E+00 0.00000E+00 0.00000E+00 0.00000E+00 0.00000E+00
 -1      3524 0.00000E+00 0.00000E+00 0.00000E+00 0.00000E+00 0.00000E+00 0.00000E+00
 -1      3525 0.00000E+00 0.00000E+00 0.00000E+00 0.00000E+00 0.00000E+00 0.00000E+00
 -1      3526 0.00000E+00 0.00000E+00 0.00000E+00 0.00000E+00 0.00000E+00 0.00000E+00
 -1      3527 0.00000E+00 0.00000E+00 0.00000E+00 0.00000E+00 0.00000E+00 0.00000E+00
 -1      3528 0.00000E+00 0.00000E+00 0.00000E+00 0.00000E+00 0.00000E+00 0.00000E+00
 -1      3529 0.00000E+00 0.00000E+00 0.00000E+00 0.00000E+00 0.00000E+00 0.00000E+00
 -1      3530 0.00000E+00 0.00000E+00 0.00000E+00 0.00000E+00 0.00000E+00 0.00000E+00
 -1      3531 0.00000E+00 0.00000E+00 0.00000E+00 0.00000E+00 0.00000E+00 0.00000E+00
 -1      3532 0.00000E+00 0.00000E+00 0.00000E+00 0.00000E+00 0.00000E+00 0.00000E+00
 -1      3533 0.00000E+00 0.00000E+00 0.00000E+00 0.00000E+00 0.00000E+00 0.00000E+00
 -1      3534 0.00000E+00 0.00000E+00 0.00000E+00 0.00000E+00 0.00000E+00 0.00000E+00
 -1      3535 0.00000E+00 0.00000E+00 0.00000E+00 0.00000E+00 0.00000E+00 0.00000E+00
 -1      3536 0.00000E+00 0.00000E+00 0.00000E+00 0.00000E+00 0.00000E+00 0.00000E+00
 -1      3537 0.00000E+00 0.00000E+00 0.00000E+00 0.00000E+00 0.00000E+00 0.00000E+00
 -1      3538 0.00000E+00 0.00000E+00 0.00000E+00 0.00000E+00 0.00000E+00 0.00000E+00
 -1      3539 0.00000E+00 0.00000E+00 0.00000E+00 0.00000E+00 0.00000E+00 0.00000E+00
 -1      3540 0.00000E+00 0.00000E+00 0.00000E+00 0.00000E+00 0.00000E+00 0.00000E+00
 -1      3541 0.00000E+00 0.00000E+00 0.00000E+00 0.00000E+00 0.00000E+00 0.00000E+00
 -1      3542 0.00000E+00 0.00000E+00 0.00000E+00 0.00000E+00 0.00000E+00 0.00000E+00
 -1      3543 0.00000E+00 0.00000E+00 0.00000E+00 0.00000E+00 0.00000E+00 0.00000E+00
 -1      3544 0.00000E+00 0.00000E+00 0.00000E+00 0.00000E+00 0.00000E+00 0.00000E+00
 -1      3545 0.00000E+00 0.00000E+00 0.00000E+00 0.00000E+00 0.00000E+00 0.00000E+00
 -1      3546 0.00000E+00 0.00000E+00 0.00000E+00 0.00000E+00 0.00000E+00 0.00000E+00
 -1      3547 0.00000E+00 0.00000E+00 0.00000E+00 0.00000E+00 0.00000E+00 0.00000E+00
 -1      3548 0.00000E+00 0.00000E+00 0.00000E+00 0.00000E+00 0.00000E+00 0.00000E+00
 -1      3549 0.00000E+00 0.00000E+00 0.00000E+00 0.00000E+00 0.00000E+00 0.00000E+00
 -1      3550 0.00000E+00 0.00000E+00 0.00000E+00 0.00000E+00 0.00000E+00 0.00000E+00
 -1      3551 0.00000E+00 0.00000E+00 0.00000E+00 0.00000E+00 0.00000E+00 0.00000E+00
 -1      3552 0.00000E+00 0.00000E+00 0.00000E+00 0.00000E+00 0.00000E+00 0.00000E+00
 -1      3553 0.00000E+00 0.00000E+00 0.00000E+00 0.00000E+00 0.00000E+00 0.00000E+00
 -1      3554 0.00000E+00 0.00000E+00 0.00000E+00 0.00000E+00 0.00000E+00 0.00000E+00
 -1      3555 0.00000E+00 0.00000E+00 0.00000E+00 0.00000E+00 0.00000E+00 0.00000E+00
 -1      3556 0.00000E+00 0.00000E+00 0.00000E+00 0.00000E+00 0.00000E+00 0.00000E+00
 -1      3557 0.00000E+00 0.00000E+00 0.00000E+00 0.00000E+00 0.00000E+00 0.00000E+00
 -1      3558 0.00000E+00 0.00000E+00 0.00000E+00 0.00000E+00 0.00000E+00 0.00000E+00
 -1      3559 0.00000E+00 0.00000E+00 0.00000E+00 0.00000E+00 0.00000E+00 0.00000E+00
 -1      3560 0.00000E+00 0.00000E+00 0.00000E+00 0.00000E+00 0.00000E+00 0.00000E+00
 -1      3561 0.00000E+00 0.00000E+00 0.00000E+00 0.00000E+00 0.00000E+00 0.00000E+00
 -1      3562 0.00000E+00 0.00000E+00 0.00000E+00 0.00000E+00 0.00000E+00 0.00000E+00
 -1      3563 0.00000E+00 0.00000E+00 0.00000E+00 0.00000E+00 0.00000E+00 0.00000E+00
 -1      3564 0.00000E+00 0.00000E+00 0.00000E+00 0.00000E+00 0.00000E+00 0.00000E+00
 -1      3565 0.00000E+00 0.00000E+00 0.00000E+00 0.00000E+00 0.00000E+00 0.00000E+00
 -1      3566 0.00000E+00 0.00000E+00 0.00000E+00 0.00000E+00 0.00000E+00 0.00000E+00
 -1      3567 0.00000E+00 0.00000E+00 0.00000E+00 0.00000E+00 0.00000E+00 0.00000E+00
 -1      3568 0.00000E+00 0.00000E+00 0.00000E+00 0.00000E+00 0.00000E+00 0.00000E+00
 -1      3569 0.00000E+00 0.00000E+00 0.00000E+00 0.00000E+00 0.00000E+00 0.00000E+00
 -1      3570 0.00000E+00 0.00000E+00 0.00000E+00 0.00000E+00 0.00000E+00 0.00000E+00
 -1      3571 0.00000E+00 0.00000E+00 0.00000E+00 0.00000E+00 0.00000E+00 0.00000E+00
 -1      3572 0.00000E+00 0.00000E+00 0.00000E+00 0.00000E+00 0.00000E+00 0.00000E+00
 -1      3573 0.00000E+00 0.00000E+00 0.00000E+00 0.00000E+00 0.00000E+00 0.00000E+00
 -1      3574 0.00000E+00 0.00000E+00 0.00000E+00 0.00000E+00 0.00000E+00 0.00000E+00
 -1      3575 0.00000E+00 0.00000E+00 0.00000E+00 0.00000E+00 0.00000E+00 0.00000E+00
 -1      3576 0.00000E+00 0.00000E+00 0.00000E+00 0.00000E+00 0.00000E+00 0.00000E+00
 -1      3577 0.00000E+00 0.00000E+00 0.00000E+00 0.00000E+00 0.00000E+00 0.00000E+00
 -1      3578 0.00000E+00 0.00000E+00 0.00000E+00 0.00000E+00 0.00000E+00 0.00000E+00
 -1      3579 0.00000E+00 0.00000E+00 0.00000E+00 0.00000E+00 0.00000E+00 0.00000E+00
 -1      3580 0.00000E+00 0.00000E+00 0.00000E+00 0.00000E+00 0.00000E+00 0.00000E+00
 -1      3581 0.00000E+00 0.00000E+00 0.00000E+00 0.00000E+00 0.00000E+00 0.00000E+00
 -1      3582 0.00000E+00 0.00000E+00 0.00000E+00 0.00000E+00 0.00000E+00 0.00000E+00
 -1      3583 0.00000E+00 0.00000E+00 0.00000E+00 0.00000E+00 0.00000E+00 0.00000E+00
 -1      3584 0.00000E+00 0.00000E+00 0.00000E+00 0.00000E+00 0.00000E+00 0.00000E+00
 -1      3585 0.00000E+00 0.00000E+00 0.00000E+00 0.00000E+00 0.00000E+00 0.00000E+00
 -1      3586 0.00000E+00 0.00000E+00 0.00000E+00 0.00000E+00 0.00000E+00 0.00000E+00
 -1      3587 0.00000E+00 0.00000E+00 0.00000E+00 0.00000E+00 0.00000E+00 0.00000E+00
 -1      3588 0.00000E+00 0.00000E+00 0.00000E+00 0.00000E+00 0.00000E+00 0.00000E+00
 -1      3589 0.00000E+00 0.00000E+00 0.00000E+00 0.00000E+00 0.00000E+00 0.00000E+00
 -1      3590 0.00000E+00 0.00000E+00 0.00000E+00 0.00000E+00 0.00000E+00 0.00000E+00
 -1      3591 0.00000E+00 0.00000E+00 0.00000E+00 0.00000E+00 0.00000E+00 0.00000E+00
 -1      3592 0.00000E+00 0.00000E+00 0.00000E+00 0.00000E+00 0.00000E+00 0.00000E+00
 -1      3593 0.00000E+00 0.00000E+00 0.00000E+00 0.00000E+00 0.00000E+00 0.00000E+00
 -1      3594 0.00000E+00 0.00000E+00 0.00000E+00 0.00000E+00 0.00000E+00 0.00000E+00
 -1      3595 0.00000E+00 0.00000E+00 0.00000E+00 0.00000E+00 0.00000E+00 0.00000E+00
 -1      3596 0.00000E+00 0.00000E+00 0.00000E+00 0.00000E+00 0.00000E+00 0.00000E+00
 -1      3597 0.00000E+00 0.00000E+00 0.00000E+00 0.00000E+00 0.00000E+00 0.00000E+00
 -1      3598 0.00000E+00 0.00000E+00 0.00000E+00 0.00000E+00 0.00000E+00 0.00000E+00
 -1      3599 0.00000E+00 0.00000E+00 0.00000E+00 0.00000E+00 0.00000E+00 0.00000E+00
 -1      3600 0.00000E+00 0.00000E+00 0.00000E+00 0.00000E+00 0.00000E+00 0.00000E+00
 -1      3601 0.00000E+00 0.00000E+00 0.00000E+00 0.00000E+00 0.00000E+00 0.00000E+00
 -1      3602 0.00000E+00 0.00000E+00 0.00000E+00 0.00000E+00 0.00000E+00 0.00000E+00
 -1      3603 0.00000E+00 0.00000E+00 0.00000E+00 0.00000E+00 0.00000E+00 0.00000E+00
 -1      3604 0.00000E+00 0.00000E+00 0.00000E+00 0.00000E+00 0.00000E+00 0.00000E+00
 -1      3605 0.00000E+00 0.00000E+00 0.00000E+00 0.00000E+00 0.00000E+00 0.00000E+00
 -1      3606 0.00000E+00 0.00000E+00 0.00000E+00 0.00000E+00 0.00000E+00 0.00000E+00
 -1      3607 0.00000E+00 0.00000E+00 0.00000E+00 0.00000E+00 0.00000E+00 0.00000E+00
 -1      3608 0.00000E+00 0.00000E+00 0.00000E+00 0.00000E+00 0.00000E+00 0.00000E+00
 -1      3609 0.00000E+00 0.00000E+00 0.00000E+00 0.00000E+00 0.00000E+00 0.00000E+00
 -1      3610 0.00000E+00 0.00000E+00 0.00000E+00 0.00000E+00 0.00000E+00 0.00000E+00
 -1      3611 0.00000E+00 0.00000E+00 0.00000E+00 0.00000E+00 0.00000E+00 0.00000E+00
 -1      3612 0.00000E+00 0.00000E+00 0.00000E+00 0.00000E+00 0.00000E+00 0.00000E+00
 -1      3613 0.00000E+00 0.00000E+00 0.00000E+00 0.00000E+00 0.00000E+00 0.00000E+00
 -1      3614 0.00000E+00 0.00000E+00 0.00000E+00 0.00000E+00 0.00000E+00 0.00000E+00
 -1      3615 0.00000E+00 0.00000E+00 0.00000E+00 0.00000E+00 0.00000E+00 0.00000E+00
 -1      3616 0.00000E+00 0.00000E+00 0.00000E+00 0.00000E+00 0.00000E+00 0.00000E+00
 -1      3617 0.00000E+00 0.00000E+00 0.00000E+00 0.00000E+00 0.00000E+00 0.00000E+00
 -1      3618 0.00000E+00 0.00000E+00 0.00000E+00 0.00000E+00 0.00000E+00 0.00000E+00
 -1      3619 0.00000E+00 0.00000E+00 0.00000E+00 0.00000E+00 0.00000E+00 0.00000E+00
 -1      3620 0.00000E+00 0.00000E+00 0.00000E+00 0.00000E+00 0.00000E+00 0.00000E+00
 -1      3621 0.00000E+00 0.00000E+00 0.00000E+00 0.00000E+00 0.00000E+00 0.00000E+00
 -1      3622 0.00000E+00 0.00000E+00 0.00000E+00 0.00000E+00 0.00000E+00 0.00000E+00
 -1      3623 0.00000E+00 0.00000E+00 0.00000E+00 0.00000E+00 0.00000E+00 0.00000E+00
 -1      3624 0.00000E+00 0.00000E+00 0.00000E+00 0.00000E+00 0.00000E+00 0.00000E+00
 -1      3625 0.00000E+00 0.00000E+00 0.00000E+00 0.00000E+00 0.00000E+00 0.00000E+00
 -1      3626 0.00000E+00 0.00000E+00 0.00000E+00 0.00000E+00 0.00000E+00 0.00000E+00
 -1      3627 0.00000E+00 0.00000E+00 0.00000E+00 0.00000E+00 0.00000E+00 0.00000E+00
 -1      3628 0.00000E+00 0.00000E+00 0.00000E+00 0.00000E+00 0.00000E+00 0.00000E+00
 -1      3629 0.00000E+00 0.00000E+00 0.00000E+00 0.00000E+00 0.00000E+00 0.00000E+00
 -1      3630 0.00000E+00 0.00000E+00 0.00000E+00 0.00000E+00 0.00000E+00 0.00000E+00
 -1      3631 0.00000E+00 0.00000E+00 0.00000E+00 0.00000E+00 0.00000E+00 0.00000E+00
 -1      3632 0.00000E+00 0.00000E+00 0.00000E+00 0.00000E+00 0.00000E+00 0.00000E+00
 -1      3633 0.00000E+00 0.00000E+00 0.00000E+00 0.00000E+00 0.00000E+00 0.00000E+00
 -1      3634 0.00000E+00 0.00000E+00 0.00000E+00 0.00000E+00 0.00000E+00 0.00000E+00
 -1      3635 0.00000E+00 0.00000E+00 0.00000E+00 0.00000E+00 0.00000E+00 0.00000E+00
 -1      3636 0.00000E+00 0.00000E+00 0.00000E+00 0.00000E+00 0.00000E+00 0.00000E+00
 -1      3637 0.00000E+00 0.00000E+00 0.00000E+00 0.00000E+00 0.00000E+00 0.00000E+00
 -1      3638 0.00000E+00 0.00000E+00 0.00000E+00 0.00000E+00 0.00000E+00 0.00000E+00
 -1      3639 0.00000E+00 0.00000E+00 0.00000E+00 0.00000E+00 0.00000E+00 0.00000E+00
 -1      3640 0.00000E+00 0.00000E+00 0.00000E+00 0.00000E+00 0.00000E+00 0.00000E+00
 -1      3641 0.00000E+00 0.00000E+00 0.00000E+00 0.00000E+00 0.00000E+00 0.00000E+00
 -1      3642 0.00000E+00 0.00000E+00 0.00000E+00 0.00000E+00 0.00000E+00 0.00000E+00
 -1      3643 0.00000E+00 0.00000E+00 0.00000E+00 0.00000E+00 0.00000E+00 0.00000E+00
 -1      3644 0.00000E+00 0.00000E+00 0.00000E+00 0.00000E+00 0.00000E+00 0.00000E+00
 -1      3645 0.00000E+00 0.00000E+00 0.00000E+00 0.00000E+00 0.00000E+00 0.00000E+00
 -1      3646 0.00000E+00 0.00000E+00 0.00000E+00 0.00000E+00 0.00000E+00 0.00000E+00
 -1      3647 0.00000E+00 0.00000E+00 0.00000E+00 0.00000E+00 0.00000E+00 0.00000E+00
 -1      3648 0.00000E+00 0.00000E+00 0.00000E+00 0.00000E+00 0.00000E+00 0.00000E+00
 -1      3649 0.00000E+00 0.00000E+00 0.00000E+00 0.00000E+00 0.00000E+00 0.00000E+00
 -1      3650 0.00000E+00 0.00000E+00 0.00000E+00 0.00000E+00 0.00000E+00 0.00000E+00
 -1      3651 0.00000E+00 0.00000E+00 0.00000E+00 0.00000E+00 0.00000E+00 0.00000E+00
 -1      3652 0.00000E+00 0.00000E+00 0.00000E+00 0.00000E+00 0.00000E+00 0.00000E+00
 -1      3653 0.00000E+00 0.00000E+00 0.00000E+00 0.00000E+00 0.00000E+00 0.00000E+00
 -1      3654 0.00000E+00 0.00000E+00 0.00000E+00 0.00000E+00 0.00000E+00 0.00000E+00
 -1      3655 0.00000E+00 0.00000E+00 0.00000E+00 0.00000E+00 0.00000E+00 0.00000E+00
 -1      3656 0.00000E+00 0.00000E+00 0.00000E+00 0.00000E+00 0.00000E+00 0.00000E+00
 -1      3657 0.00000E+00 0.00000E+00 0.00000E+00 0.00000E+00 0.00000E+00 0.00000E+00
 -1      3658 0.00000E+00 0.00000E+00 0.00000E+00 0.00000E+00 0.00000E+00 0.00000E+00
 -1      3659 0.00000E+00 0.00000E+00 0.00000E+00 0.00000E+00 0.00000E+00 0.00000E+00
 -1      3660 0.00000E+00 0.00000E+00 0.00000E+00 0.00000E+00 0.00000E+00 0.00000E+00
 -1      3661 0.00000E+00 0.00000E+00 0.00000E+00 0.00000E+00 0.00000E+00 0.00000E+00
 -1      3662 0.00000E+00 0.00000E+00 0.00000E+00 0.00000E+00 0.00000E+00 0.00000E+00
 -1      3663 0.00000E+00 0.00000E+00 0.00000E+00 0.00000E+00 0.00000E+00 0.00000E+00
 -1      3664 0.00000E+00 0.00000E+00 0.00000E+00 0.00000E+00 0.00000E+00 0.00000E+00
 -1      3665 0.00000E+00 0.00000E+00 0.00000E+00 0.00000E+00 0.00000E+00 0.00000E+00
 -1      3666 0.00000E+00 0.00000E+00 0.00000E+00 0.00000E+00 0.00000E+00 0.00000E+00
 -1      3667 0.00000E+00 0.00000E+00 0.00000E+00 0.00000E+00 0.00000E+00 0.00000E+00
 -1      3668 0.00000E+00 0.00000E+00 0.00000E+00 0.00000E+00 0.00000E+00 0.00000E+00
 -1      3669 0.00000E+00 0.00000E+00 0.00000E+00 0.00000E+00 0.00000E+00 0.00000E+00
 -1      3670 0.00000E+00 0.00000E+00 0.00000E+00 0.00000E+00 0.00000E+00 0.00000E+00
 -1      3671 0.00000E+00 0.00000E+00 0.00000E+00 0.00000E+00 0.00000E+00 0.00000E+00
 -1      3672 0.00000E+00 0.00000E+00 0.00000E+00 0.00000E+00 0.00000E+00 0.00000E+00
 -1      3673 0.00000E+00 0.00000E+00 0.00000E+00 0.00000E+00 0.00000E+00 0.00000E+00
 -1      3674 0.00000E+00 0.00000E+00 0.00000E+00 0.00000E+00 0.00000E+00 0.00000E+00
 -1      3675 0.00000E+00 0.00000E+00 0.00000E+00 0.00000E+00 0.00000E+00 0.00000E+00
 -1      3676 0.00000E+00 0.00000E+00 0.00000E+00 0.00000E+00 0.00000E+00 0.00000E+00
 -1      3677 0.00000E+00 0.00000E+00 0.00000E+00 0.00000E+00 0.00000E+00 0.00000E+00
 -1      3678 0.00000E+00 0.00000E+00 0.00000E+00 0.00000E+00 0.00000E+00 0.00000E+00
 -1      3679 0.00000E+00 0.00000E+00 0.00000E+00 0.00000E+00 0.00000E+00 0.00000E+00
 -1      3680 0.00000E+00 0.00000E+00 0.00000E+00 0.00000E+00 0.00000E+00 0.00000E+00
 -1      3681 0.00000E+00 0.00000E+00 0.00000E+00 0.00000E+00 0.00000E+00 0.00000E+00
 -1      3682 0.00000E+00 0.00000E+00 0.00000E+00 0.00000E+00 0.00000E+00 0.00000E+00
 -1      3683 0.00000E+00 0.00000E+00 0.00000E+00 0.00000E+00 0.00000E+00 0.00000E+00
 -1      3684 0.00000E+00 0.00000E+00 0.00000E+00 0.00000E+00 0.00000E+00 0.00000E+00
 -1      3685 0.00000E+00 0.00000E+00 0.00000E+00 0.00000E+00 0.00000E+00 0.00000E+00
 -1      3686 0.00000E+00 0.00000E+00 0.00000E+00 0.00000E+00 0.00000E+00 0.00000E+00
 -1      3687 0.00000E+00 0.00000E+00 0.00000E+00 0.00000E+00 0.00000E+00 0.00000E+00
 -1      3688 0.00000E+00 0.00000E+00 0.00000E+00 0.00000E+00 0.00000E+00 0.00000E+00
 -1      3689 0.00000E+00 0.00000E+00 0.00000E+00 0.00000E+00 0.00000E+00 0.00000E+00
 -1      3690 0.00000E+00 0.00000E+00 0.00000E+00 0.00000E+00 0.00000E+00 0.00000E+00
 -1      3691 0.00000E+00 0.00000E+00 0.00000E+00 0.00000E+00 0.00000E+00 0.00000E+00
 -1      3692 0.00000E+00 0.00000E+00 0.00000E+00 0.00000E+00 0.00000E+00 0.00000E+00
 -1      3693 0.00000E+00 0.00000E+00 0.00000E+00 0.00000E+00 0.00000E+00 0.00000E+00
 -1      3694 0.00000E+00 0.00000E+00 0.00000E+00 0.00000E+00 0.00000E+00 0.00000E+00
 -1      3695 0.00000E+00 0.00000E+00 0.00000E+00 0.00000E+00 0.00000E+00 0.00000E+00
 -1      3696 0.00000E+00 0.00000E+00 0.00000E+00 0.00000E+00 0.00000E+00 0.00000E+00
 -1      3697 0.00000E+00 0.00000E+00 0.00000E+00 0.00000E+00 0.00000E+00 0.00000E+00
 -1      3698 0.00000E+00 0.00000E+00 0.00000E+00 0.00000E+00 0.00000E+00 0.00000E+00
 -1      3699 0.00000E+00 0.00000E+00 0.00000E+00 0.00000E+00 0.00000E+00 0.00000E+00
 -1      3700 0.00000E+00 0.00000E+00 0.00000E+00 0.00000E+00 0.00000E+00 0.00000E+00
 -1      3701 0.00000E+00 0.00000E+00 0.00000E+00 0.00000E+00 0.00000E+00 0.00000E+00
 -1      3702 0.00000E+00 0.00000E+00 0.00000E+00 0.00000E+00 0.00000E+00 0.00000E+00
 -1      3703 0.00000E+00 0.00000E+00 0.00000E+00 0.00000E+00 0.00000E+00 0.00000E+00
 -1      3704 0.00000E+00 0.00000E+00 0.00000E+00 0.00000E+00 0.00000E+00 0.00000E+00
 -1      3705 0.00000E+00 0.00000E+00 0.00000E+00 0.00000E+00 0.00000E+00 0.00000E+00
 -1      3706 0.00000E+00 0.00000E+00 0.00000E+00 0.00000E+00 0.00000E+00 0.00000E+00
 -1      3707 0.00000E+00 0.00000E+00 0.00000E+00 0.00000E+00 0.00000E+00 0.00000E+00
 -1      3708 0.00000E+00 0.00000E+00 0.00000E+00 0.00000E+00 0.00000E+00 0.00000E+00
 -1      3709 0.00000E+00 0.00000E+00 0.00000E+00 0.00000E+00 0.00000E+00 0.00000E+00
 -1      3710 0.00000E+00 0.00000E+00 0.00000E+00 0.00000E+00 0.00000E+00 0.00000E+00
 -1      3711 0.00000E+00 0.00000E+00 0.00000E+00 0.00000E+00 0.00000E+00 0.00000E+00
 -1      3712 0.00000E+00 0.00000E+00 0.00000E+00 0.00000E+00 0.00000E+00 0.00000E+00
 -1      3713 0.00000E+00 0.00000E+00 0.00000E+00 0.00000E+00 0.00000E+00 0.00000E+00
 -1      3714 0.00000E+00 0.00000E+00 0.00000E+00 0.00000E+00 0.00000E+00 0.00000E+00
 -1      3715 0.00000E+00 0.00000E+00 0.00000E+00 0.00000E+00 0.00000E+00 0.00000E+00
 -1      3716 0.00000E+00 0.00000E+00 0.00000E+00 0.00000E+00 0.00000E+00 0.00000E+00
 -1      3717 0.00000E+00 0.00000E+00 0.00000E+00 0.00000E+00 0.00000E+00 0.00000E+00
 -1      3718 0.00000E+00 0.00000E+00 0.00000E+00 0.00000E+00 0.00000E+00 0.00000E+00
 -1      3719 0.00000E+00 0.00000E+00 0.00000E+00 0.00000E+00 0.00000E+00 0.00000E+00
 -1      3720 0.00000E+00 0.00000E+00 0.00000E+00 0.00000E+00 0.00000E+00 0.00000E+00
 -1      3721 0.00000E+00 0.00000E+00 0.00000E+00 0.00000E+00 0.00000E+00 0.00000E+00
 -1      3722 0.00000E+00 0.00000E+00 0.00000E+00 0.00000E+00 0.00000E+00 0.00000E+00
 -1      3723 0.00000E+00 0.00000E+00 0.00000E+00 0.00000E+00 0.00000E+00 0.00000E+00
 -1      3724 0.00000E+00 0.00000E+00 0.00000E+00 0.00000E+00 0.00000E+00 0.00000E+00
 -1      3725 0.00000E+00 0.00000E+00 0.00000E+00 0.00000E+00 0.00000E+00 0.00000E+00
 -1      3726 0.00000E+00 0.00000E+00 0.00000E+00 0.00000E+00 0.00000E+00 0.00000E+00
 -1      3727 0.00000E+00 0.00000E+00 0.00000E+00 0.00000E+00 0.00000E+00 0.00000E+00
 -1      3728 0.00000E+00 0.00000E+00 0.00000E+00 0.00000E+00 0.00000E+00 0.00000E+00
 -1      3729 0.00000E+00 0.00000E+00 0.00000E+00 0.00000E+00 0.00000E+00 0.00000E+00
 -1      3730 0.00000E+00 0.00000E+00 0.00000E+00 0.00000E+00 0.00000E+00 0.00000E+00
 -1      3731 0.00000E+00 0.00000E+00 0.00000E+00 0.00000E+00 0.00000E+00 0.00000E+00
 -1      3732 0.00000E+00 0.00000E+00 0.00000E+00 0.00000E+00 0.00000E+00 0.00000E+00
 -1      3733 0.00000E+00 0.00000E+00 0.00000E+00 0.00000E+00 0.00000E+00 0.00000E+00
 -1      3734 0.00000E+00 0.00000E+00 0.00000E+00 0.00000E+00 0.00000E+00 0.00000E+00
 -1      3735 0.00000E+00 0.00000E+00 0.00000E+00 0.00000E+00 0.00000E+00 0.00000E+00
 -1      3736 0.00000E+00 0.00000E+00 0.00000E+00 0.00000E+00 0.00000E+00 0.00000E+00
 -1      3737 0.00000E+00 0.00000E+00 0.00000E+00 0.00000E+00 0.00000E+00 0.00000E+00
 -1      3738 0.00000E+00 0.00000E+00 0.00000E+00 0.00000E+00 0.00000E+00 0.00000E+00
 -1      3739 0.00000E+00 0.00000E+00 0.00000E+00 0.00000E+00 0.00000E+00 0.00000E+00
 -1      3740 0.00000E+00 0.00000E+00 0.00000E+00 0.00000E+00 0.00000E+00 0.00000E+00
 -1      3741 0.00000E+00 0.00000E+00 0.00000E+00 0.00000E+00 0.00000E+00 0.00000E+00
 -1      3742 0.00000E+00 0.00000E+00 0.00000E+00 0.00000E+00 0.00000E+00 0.00000E+00
 -1      3743 0.00000E+00 0.00000E+00 0.00000E+00 0.00000E+00 0.00000E+00 0.00000E+00
 -1      3744 0.00000E+00 0.00000E+00 0.00000E+00 0.00000E+00 0.00000E+00 0.00000E+00
 -1      3745 0.00000E+00 0.00000E+00 0.00000E+00 0.00000E+00 0.00000E+00 0.00000E+00
 -1      3746 0.00000E+00 0.00000E+00 0.00000E+00 0.00000E+00 0.00000E+00 0.00000E+00
 -1      3747 0.00000E+00 0.00000E+00 0.00000E+00 0.00000E+00 0.00000E+00 0.00000E+00
 -1      3748 0.00000E+00 0.00000E+00 0.00000E+00 0.00000E+00 0.00000E+00 0.00000E+00
 -1      3749 0.00000E+00 0.00000E+00 0.00000E+00 0.00000E+00 0.00000E+00 0.00000E+00
 -1      3750 0.00000E+00 0.00000E+00 0.00000E+00 0.00000E+00 0.00000E+00 0.00000E+00
 -1      3751 0.00000E+00 0.00000E+00 0.00000E+00 0.00000E+00 0.00000E+00 0.00000E+00
 -1      3752 0.00000E+00 0.00000E+00 0.00000E+00 0.00000E+00 0.00000E+00 0.00000E+00
 -1      3753 0.00000E+00 0.00000E+00 0.00000E+00 0.00000E+00 0.00000E+00 0.00000E+00
 -1      3754 0.00000E+00 0.00000E+00 0.00000E+00 0.00000E+00 0.00000E+00 0.00000E+00
 -1      3755 0.00000E+00 0.00000E+00 0.00000E+00 0.00000E+00 0.00000E+00 0.00000E+00
 -1      3756 0.00000E+00 0.00000E+00 0.00000E+00 0.00000E+00 0.00000E+00 0.00000E+00
 -1      3757 0.00000E+00 0.00000E+00 0.00000E+00 0.00000E+00 0.00000E+00 0.00000E+00
 -1      3758 0.00000E+00 0.00000E+00 0.00000E+00 0.00000E+00 0.00000E+00 0.00000E+00
 -1      3759 0.00000E+00 0.00000E+00 0.00000E+00 0.00000E+00 0.00000E+00 0.00000E+00
 -1      3760 0.00000E+00 0.00000E+00 0.00000E+00 0.00000E+00 0.00000E+00 0.00000E+00
 -1      3761 0.00000E+00 0.00000E+00 0.00000E+00 0.00000E+00 0.00000E+00 0.00000E+00
 -1      3762 0.00000E+00 0.00000E+00 0.00000E+00 0.00000E+00 0.00000E+00 0.00000E+00
 -1      3763 0.00000E+00 0.00000E+00 0.00000E+00 0.00000E+00 0.00000E+00 0.00000E+00
 -1      3764 0.00000E+00 0.00000E+00 0.00000E+00 0.00000E+00 0.00000E+00 0.00000E+00
 -1      3765 0.00000E+00 0.00000E+00 0.00000E+00 0.00000E+00 0.00000E+00 0.00000E+00
 -1      3766 0.00000E+00 0.00000E+00 0.00000E+00 0.00000E+00 0.00000E+00 0.00000E+00
 -1      3767 0.00000E+00 0.00000E+00 0.00000E+00 0.00000E+00 0.00000E+00 0.00000E+00
 -1      3768 0.00000E+00 0.00000E+00 0.00000E+00 0.00000E+00 0.00000E+00 0.00000E+00
 -1      3769 0.00000E+00 0.00000E+00 0.00000E+00 0.00000E+00 0.00000E+00 0.00000E+00
 -1      3770 0.00000E+00 0.00000E+00 0.00000E+00 0.00000E+00 0.00000E+00 0.00000E+00
 -1      3771 0.00000E+00 0.00000E+00 0.00000E+00 0.00000E+00 0.00000E+00 0.00000E+00
 -1      3772 0.00000E+00 0.00000E+00 0.00000E+00 0.00000E+00 0.00000E+00 0.00000E+00
 -1      3773 0.00000E+00 0.00000E+00 0.00000E+00 0.00000E+00 0.00000E+00 0.00000E+00
 -1      3774 0.00000E+00 0.00000E+00 0.00000E+00 0.00000E+00 0.00000E+00 0.00000E+00
 -1      3775 0.00000E+00 0.00000E+00 0.00000E+00 0.00000E+00 0.00000E+00 0.00000E+00
 -1      3776 0.00000E+00 0.00000E+00 0.00000E+00 0.00000E+00 0.00000E+00 0.00000E+00
 -1      3777 0.00000E+00 0.00000E+00 0.00000E+00 0.00000E+00 0.00000E+00 0.00000E+00
 -1      3778 0.00000E+00 0.00000E+00 0.00000E+00 0.00000E+00 0.00000E+00 0.00000E+00
 -1      3779 0.00000E+00 0.00000E+00 0.00000E+00 0.00000E+00 0.00000E+00 0.00000E+00
 -1      3780 0.00000E+00 0.00000E+00 0.00000E+00 0.00000E+00 0.00000E+00 0.00000E+00
 -1      3781 0.00000E+00 0.00000E+00 0.00000E+00 0.00000E+00 0.00000E+00 0.00000E+00
 -1      3782 0.00000E+00 0.00000E+00 0.00000E+00 0.00000E+00 0.00000E+00 0.00000E+00
 -1      3783 0.00000E+00 0.00000E+00 0.00000E+00 0.00000E+00 0.00000E+00 0.00000E+00
 -1      3784 0.00000E+00 0.00000E+00 0.00000E+00 0.00000E+00 0.00000E+00 0.00000E+00
 -1      3785 0.00000E+00 0.00000E+00 0.00000E+00 0.00000E+00 0.00000E+00 0.00000E+00
 -1      3786 0.00000E+00 0.00000E+00 0.00000E+00 0.00000E+00 0.00000E+00 0.00000E+00
 -1      3787 0.00000E+00 0.00000E+00 0.00000E+00 0.00000E+00 0.00000E+00 0.00000E+00
 -1      3788 0.00000E+00 0.00000E+00 0.00000E+00 0.00000E+00 0.00000E+00 0.00000E+00
 -1      3789 0.00000E+00 0.00000E+00 0.00000E+00 0.00000E+00 0.00000E+00 0.00000E+00
 -1      3790 0.00000E+00 0.00000E+00 0.00000E+00 0.00000E+00 0.00000E+00 0.00000E+00
 -1      3791 0.00000E+00 0.00000E+00 0.00000E+00 0.00000E+00 0.00000E+00 0.00000E+00
 -1      3792 0.00000E+00 0.00000E+00 0.00000E+00 0.00000E+00 0.00000E+00 0.00000E+00
 -1      3793 0.00000E+00 0.00000E+00 0.00000E+00 0.00000E+00 0.00000E+00 0.00000E+00
 -1      3794 0.00000E+00 0.00000E+00 0.00000E+00 0.00000E+00 0.00000E+00 0.00000E+00
 -1      3795 0.00000E+00 0.00000E+00 0.00000E+00 0.00000E+00 0.00000E+00 0.00000E+00
 -1      3796 0.00000E+00 0.00000E+00 0.00000E+00 0.00000E+00 0.00000E+00 0.00000E+00
 -1      3797 0.00000E+00 0.00000E+00 0.00000E+00 0.00000E+00 0.00000E+00 0.00000E+00
 -1      3798 0.00000E+00 0.00000E+00 0.00000E+00 0.00000E+00 0.00000E+00 0.00000E+00
 -1      3799 0.00000E+00 0.00000E+00 0.00000E+00 0.00000E+00 0.00000E+00 0.00000E+00
 -1      3800 0.00000E+00 0.00000E+00 0.00000E+00 0.00000E+00 0.00000E+00 0.00000E+00
 -1      3801 0.00000E+00 0.00000E+00 0.00000E+00 0.00000E+00 0.00000E+00 0.00000E+00
 -1      3802 0.00000E+00 0.00000E+00 0.00000E+00 0.00000E+00 0.00000E+00 0.00000E+00
 -1      3803 0.00000E+00 0.00000E+00 0.00000E+00 0.00000E+00 0.00000E+00 0.00000E+00
 -1      3804 0.00000E+00 0.00000E+00 0.00000E+00 0.00000E+00 0.00000E+00 0.00000E+00
 -1      3805 0.00000E+00 0.00000E+00 0.00000E+00 0.00000E+00 0.00000E+00 0.00000E+00
 -1      3806 0.00000E+00 0.00000E+00 0.00000E+00 0.00000E+00 0.00000E+00 0.00000E+00
 -1      3807 0.00000E+00 0.00000E+00 0.00000E+00 0.00000E+00 0.00000E+00 0.00000E+00
 -1      3808 0.00000E+00 0.00000E+00 0.00000E+00 0.00000E+00 0.00000E+00 0.00000E+00
 -1      3809 0.00000E+00 0.00000E+00 0.00000E+00 0.00000E+00 0.00000E+00 0.00000E+00
 -1      3810 0.00000E+00 0.00000E+00 0.00000E+00 0.00000E+00 0.00000E+00 0.00000E+00
 -1      3811 0.00000E+00 0.00000E+00 0.00000E+00 0.00000E+00 0.00000E+00 0.00000E+00
 -1      3812 0.00000E+00 0.00000E+00 0.00000E+00 0.00000E+00 0.00000E+00 0.00000E+00
 -1      3813 0.00000E+00 0.00000E+00 0.00000E+00 0.00000E+00 0.00000E+00 0.00000E+00
 -1      3814 0.00000E+00 0.00000E+00 0.00000E+00 0.00000E+00 0.00000E+00 0.00000E+00
 -1      3815 0.00000E+00 0.00000E+00 0.00000E+00 0.00000E+00 0.00000E+00 0.00000E+00
 -1      3816 0.00000E+00 0.00000E+00 0.00000E+00 0.00000E+00 0.00000E+00 0.00000E+00
 -1      3817 0.00000E+00 0.00000E+00 0.00000E+00 0.00000E+00 0.00000E+00 0.00000E+00
 -1      3818 0.00000E+00 0.00000E+00 0.00000E+00 0.00000E+00 0.00000E+00 0.00000E+00
 -1      3819 0.00000E+00 0.00000E+00 0.00000E+00 0.00000E+00 0.00000E+00 0.00000E+00
 -1      3820 0.00000E+00 0.00000E+00 0.00000E+00 0.00000E+00 0.00000E+00 0.00000E+00
 -1      3821 0.00000E+00 0.00000E+00 0.00000E+00 0.00000E+00 0.00000E+00 0.00000E+00
 -1      3822 0.00000E+00 0.00000E+00 0.00000E+00 0.00000E+00 0.00000E+00 0.00000E+00
 -1      3823 0.00000E+00 0.00000E+00 0.00000E+00 0.00000E+00 0.00000E+00 0.00000E+00
 -1      3824 0.00000E+00 0.00000E+00 0.00000E+00 0.00000E+00 0.00000E+00 0.00000E+00
 -1      3825 0.00000E+00 0.00000E+00 0.00000E+00 0.00000E+00 0.00000E+00 0.00000E+00
 -1      3826 0.00000E+00 0.00000E+00 0.00000E+00 0.00000E+00 0.00000E+00 0.00000E+00
 -1      3827 0.00000E+00 0.00000E+00 0.00000E+00 0.00000E+00 0.00000E+00 0.00000E+00
 -1      3828 0.00000E+00 0.00000E+00 0.00000E+00 0.00000E+00 0.00000E+00 0.00000E+00
 -1      3829 0.00000E+00 0.00000E+00 0.00000E+00 0.00000E+00 0.00000E+00 0.00000E+00
 -1      3830 0.00000E+00 0.00000E+00 0.00000E+00 0.00000E+00 0.00000E+00 0.00000E+00
 -1      3831 0.00000E+00 0.00000E+00 0.00000E+00 0.00000E+00 0.00000E+00 0.00000E+00
 -1      3832 0.00000E+00 0.00000E+00 0.00000E+00 0.00000E+00 0.00000E+00 0.00000E+00
 -1      3833 0.00000E+00 0.00000E+00 0.00000E+00 0.00000E+00 0.00000E+00 0.00000E+00
 -1      3834 0.00000E+00 0.00000E+00 0.00000E+00 0.00000E+00 0.00000E+00 0.00000E+00
 -1      3835 0.00000E+00 0.00000E+00 0.00000E+00 0.00000E+00 0.00000E+00 0.00000E+00
 -1      3836 0.00000E+00 0.00000E+00 0.00000E+00 0.00000E+00 0.00000E+00 0.00000E+00
 -1      3837 0.00000E+00 0.00000E+00 0.00000E+00 0.00000E+00 0.00000E+00 0.00000E+00
 -1      3838 0.00000E+00 0.00000E+00 0.00000E+00 0.00000E+00 0.00000E+00 0.00000E+00
 -1      3839 0.00000E+00 0.00000E+00 0.00000E+00 0.00000E+00 0.00000E+00 0.00000E+00
 -1      3840 0.00000E+00 0.00000E+00 0.00000E+00 0.00000E+00 0.00000E+00 0.00000E+00
 -1      3841 0.00000E+00 0.00000E+00 0.00000E+00 0.00000E+00 0.00000E+00 0.00000E+00
 -1      3842 0.00000E+00 0.00000E+00 0.00000E+00 0.00000E+00 0.00000E+00 0.00000E+00
 -1      3843 0.00000E+00 0.00000E+00 0.00000E+00 0.00000E+00 0.00000E+00 0.00000E+00
 -1      3844 0.00000E+00 0.00000E+00 0.00000E+00 0.00000E+00 0.00000E+00 0.00000E+00
 -1      3845 0.00000E+00 0.00000E+00 0.00000E+00 0.00000E+00 0.00000E+00 0.00000E+00
 -1      3846 0.00000E+00 0.00000E+00 0.00000E+00 0.00000E+00 0.00000E+00 0.00000E+00
 -1      3847 0.00000E+00 0.00000E+00 0.00000E+00 0.00000E+00 0.00000E+00 0.00000E+00
 -1      3848 0.00000E+00 0.00000E+00 0.00000E+00 0.00000E+00 0.00000E+00 0.00000E+00
 -1      3849 0.00000E+00 0.00000E+00 0.00000E+00 0.00000E+00 0.00000E+00 0.00000E+00
 -1      3850 0.00000E+00 0.00000E+00 0.00000E+00 0.00000E+00 0.00000E+00 0.00000E+00
 -1      3851 0.00000E+00 0.00000E+00 0.00000E+00 0.00000E+00 0.00000E+00 0.00000E+00
 -1      3852 0.00000E+00 0.00000E+00 0.00000E+00 0.00000E+00 0.00000E+00 0.00000E+00
 -1      3853 0.00000E+00 0.00000E+00 0.00000E+00 0.00000E+00 0.00000E+00 0.00000E+00
 -1      3854 0.00000E+00 0.00000E+00 0.00000E+00 0.00000E+00 0.00000E+00 0.00000E+00
 -1      3855 0.00000E+00 0.00000E+00 0.00000E+00 0.00000E+00 0.00000E+00 0.00000E+00
 -1      3856 0.00000E+00 0.00000E+00 0.00000E+00 0.00000E+00 0.00000E+00 0.00000E+00
 -1      3857 0.00000E+00 0.00000E+00 0.00000E+00 0.00000E+00 0.00000E+00 0.00000E+00
 -1      3858 0.00000E+00 0.00000E+00 0.00000E+00 0.00000E+00 0.00000E+00 0.00000E+00
 -1      3859 0.00000E+00 0.00000E+00 0.00000E+00 0.00000E+00 0.00000E+00 0.00000E+00
 -1      3860 0.00000E+00 0.00000E+00 0.00000E+00 0.00000E+00 0.00000E+00 0.00000E+00
 -1      3861 0.00000E+00 0.00000E+00 0.00000E+00 0.00000E+00 0.00000E+00 0.00000E+00
 -1      3862 0.00000E+00 0.00000E+00 0.00000E+00 0.00000E+00 0.00000E+00 0.00000E+00
 -1      3863 0.00000E+00 0.00000E+00 0.00000E+00 0.00000E+00 0.00000E+00 0.00000E+00
 -1      3864 0.00000E+00 0.00000E+00 0.00000E+00 0.00000E+00 0.00000E+00 0.00000E+00
 -1      3865 0.00000E+00 0.00000E+00 0.00000E+00 0.00000E+00 0.00000E+00 0.00000E+00
 -1      3866 0.00000E+00 0.00000E+00 0.00000E+00 0.00000E+00 0.00000E+00 0.00000E+00
 -1      3867 0.00000E+00 0.00000E+00 0.00000E+00 0.00000E+00 0.00000E+00 0.00000E+00
 -1      3868 0.00000E+00 0.00000E+00 0.00000E+00 0.00000E+00 0.00000E+00 0.00000E+00
 -1      3869 0.00000E+00 0.00000E+00 0.00000E+00 0.00000E+00 0.00000E+00 0.00000E+00
 -1      3870 0.00000E+00 0.00000E+00 0.00000E+00 0.00000E+00 0.00000E+00 0.00000E+00
 -1      3871 0.00000E+00 0.00000E+00 0.00000E+00 0.00000E+00 0.00000E+00 0.00000E+00
 -1      3872 0.00000E+00 0.00000E+00 0.00000E+00 0.00000E+00 0.00000E+00 0.00000E+00
 -1      3873 0.00000E+00 0.00000E+00 0.00000E+00 0.00000E+00 0.00000E+00 0.00000E+00
 -1      3874 0.00000E+00 0.00000E+00 0.00000E+00 0.00000E+00 0.00000E+00 0.00000E+00
 -1      3875 0.00000E+00 0.00000E+00 0.00000E+00 0.00000E+00 0.00000E+00 0.00000E+00
 -1      3876 0.00000E+00 0.00000E+00 0.00000E+00 0.00000E+00 0.00000E+00 0.00000E+00
 -1      3877 0.00000E+00 0.00000E+00 0.00000E+00 0.00000E+00 0.00000E+00 0.00000E+00
 -1      3878 0.00000E+00 0.00000E+00 0.00000E+00 0.00000E+00 0.00000E+00 0.00000E+00
 -1      3879 0.00000E+00 0.00000E+00 0.00000E+00 0.00000E+00 0.00000E+00 0.00000E+00
 -1      3880 0.00000E+00 0.00000E+00 0.00000E+00 0.00000E+00 0.00000E+00 0.00000E+00
 -1      3881 0.00000E+00 0.00000E+00 0.00000E+00 0.00000E+00 0.00000E+00 0.00000E+00
 -1      3882 0.00000E+00 0.00000E+00 0.00000E+00 0.00000E+00 0.00000E+00 0.00000E+00
 -1      3883 0.00000E+00 0.00000E+00 0.00000E+00 0.00000E+00 0.00000E+00 0.00000E+00
 -1      3884 0.00000E+00 0.00000E+00 0.00000E+00 0.00000E+00 0.00000E+00 0.00000E+00
 -1      3885 0.00000E+00 0.00000E+00 0.00000E+00 0.00000E+00 0.00000E+00 0.00000E+00
 -1      3886 0.00000E+00 0.00000E+00 0.00000E+00 0.00000E+00 0.00000E+00 0.00000E+00
 -1      3887 0.00000E+00 0.00000E+00 0.00000E+00 0.00000E+00 0.00000E+00 0.00000E+00
 -1      3888 0.00000E+00 0.00000E+00 0.00000E+00 0.00000E+00 0.00000E+00 0.00000E+00
 -1      3889 0.00000E+00 0.00000E+00 0.00000E+00 0.00000E+00 0.00000E+00 0.00000E+00
 -1      3890 0.00000E+00 0.00000E+00 0.00000E+00 0.00000E+00 0.00000E+00 0.00000E+00
 -1      3891 0.00000E+00 0.00000E+00 0.00000E+00 0.00000E+00 0.00000E+00 0.00000E+00
 -1      3892 0.00000E+00 0.00000E+00 0.00000E+00 0.00000E+00 0.00000E+00 0.00000E+00
 -1      3893 0.00000E+00 0.00000E+00 0.00000E+00 0.00000E+00 0.00000E+00 0.00000E+00
 -1      3894 0.00000E+00 0.00000E+00 0.00000E+00 0.00000E+00 0.00000E+00 0.00000E+00
 -1      3895 0.00000E+00 0.00000E+00 0.00000E+00 0.00000E+00 0.00000E+00 0.00000E+00
 -1      3896 0.00000E+00 0.00000E+00 0.00000E+00 0.00000E+00 0.00000E+00 0.00000E+00
 -1      3897 0.00000E+00 0.00000E+00 0.00000E+00 0.00000E+00 0.00000E+00 0.00000E+00
 -1      3898 0.00000E+00 0.00000E+00 0.00000E+00 0.00000E+00 0.00000E+00 0.00000E+00
 -1      3899 0.00000E+00 0.00000E+00 0.00000E+00 0.00000E+00 0.00000E+00 0.00000E+00
 -1      3900 0.00000E+00 0.00000E+00 0.00000E+00 0.00000E+00 0.00000E+00 0.00000E+00
 -1      3901 0.00000E+00 0.00000E+00 0.00000E+00 0.00000E+00 0.00000E+00 0.00000E+00
 -1      3902 0.00000E+00 0.00000E+00 0.00000E+00 0.00000E+00 0.00000E+00 0.00000E+00
 -1      3903 0.00000E+00 0.00000E+00 0.00000E+00 0.00000E+00 0.00000E+00 0.00000E+00
 -1      3904 0.00000E+00 0.00000E+00 0.00000E+00 0.00000E+00 0.00000E+00 0.00000E+00
 -1      3905 0.00000E+00 0.00000E+00 0.00000E+00 0.00000E+00 0.00000E+00 0.00000E+00
 -1      3906 0.00000E+00 0.00000E+00 0.00000E+00 0.00000E+00 0.00000E+00 0.00000E+00
 -1      3907 0.00000E+00 0.00000E+00 0.00000E+00 0.00000E+00 0.00000E+00 0.00000E+00
 -1      3908 0.00000E+00 0.00000E+00 0.00000E+00 0.00000E+00 0.00000E+00 0.00000E+00
 -1      3909 0.00000E+00 0.00000E+00 0.00000E+00 0.00000E+00 0.00000E+00 0.00000E+00
 -1      3910 0.00000E+00 0.00000E+00 0.00000E+00 0.00000E+00 0.00000E+00 0.00000E+00
 -1      3911 0.00000E+00 0.00000E+00 0.00000E+00 0.00000E+00 0.00000E+00 0.00000E+00
 -1      3912 0.00000E+00 0.00000E+00 0.00000E+00 0.00000E+00 0.00000E+00 0.00000E+00
 -1      3913 0.00000E+00 0.00000E+00 0.00000E+00 0.00000E+00 0.00000E+00 0.00000E+00
 -1      3914 0.00000E+00 0.00000E+00 0.00000E+00 0.00000E+00 0.00000E+00 0.00000E+00
 -1      3915 0.00000E+00 0.00000E+00 0.00000E+00 0.00000E+00 0.00000E+00 0.00000E+00
 -1      3916 0.00000E+00 0.00000E+00 0.00000E+00 0.00000E+00 0.00000E+00 0.00000E+00
 -1      3917 0.00000E+00 0.00000E+00 0.00000E+00 0.00000E+00 0.00000E+00 0.00000E+00
 -1      3918 0.00000E+00 0.00000E+00 0.00000E+00 0.00000E+00 0.00000E+00 0.00000E+00
 -1      3919 0.00000E+00 0.00000E+00 0.00000E+00 0.00000E+00 0.00000E+00 0.00000E+00
 -1      3920 0.00000E+00 0.00000E+00 0.00000E+00 0.00000E+00 0.00000E+00 0.00000E+00
 -1      3921 0.00000E+00 0.00000E+00 0.00000E+00 0.00000E+00 0.00000E+00 0.00000E+00
 -1      3922 0.00000E+00 0.00000E+00 0.00000E+00 0.00000E+00 0.00000E+00 0.00000E+00
 -1      3923 0.00000E+00 0.00000E+00 0.00000E+00 0.00000E+00 0.00000E+00 0.00000E+00
 -1      3924 0.00000E+00 0.00000E+00 0.00000E+00 0.00000E+00 0.00000E+00 0.00000E+00
 -1      3925 0.00000E+00 0.00000E+00 0.00000E+00 0.00000E+00 0.00000E+00 0.00000E+00
 -1      3926 0.00000E+00 0.00000E+00 0.00000E+00 0.00000E+00 0.00000E+00 0.00000E+00
 -1      3927 0.00000E+00 0.00000E+00 0.00000E+00 0.00000E+00 0.00000E+00 0.00000E+00
 -1      3928 0.00000E+00 0.00000E+00 0.00000E+00 0.00000E+00 0.00000E+00 0.00000E+00
 -1      3929 0.00000E+00 0.00000E+00 0.00000E+00 0.00000E+00 0.00000E+00 0.00000E+00
 -1      3930 0.00000E+00 0.00000E+00 0.00000E+00 0.00000E+00 0.00000E+00 0.00000E+00
 -1      3931 0.00000E+00 0.00000E+00 0.00000E+00 0.00000E+00 0.00000E+00 0.00000E+00
 -1      3932 0.00000E+00 0.00000E+00 0.00000E+00 0.00000E+00 0.00000E+00 0.00000E+00
 -1      3933 0.00000E+00 0.00000E+00 0.00000E+00 0.00000E+00 0.00000E+00 0.00000E+00
 -1      3934 0.00000E+00 0.00000E+00 0.00000E+00 0.00000E+00 0.00000E+00 0.00000E+00
 -1      3935 0.00000E+00 0.00000E+00 0.00000E+00 0.00000E+00 0.00000E+00 0.00000E+00
 -1      3936 0.00000E+00 0.00000E+00 0.00000E+00 0.00000E+00 0.00000E+00 0.00000E+00
 -1      3937 0.00000E+00 0.00000E+00 0.00000E+00 0.00000E+00 0.00000E+00 0.00000E+00
 -1      3938 0.00000E+00 0.00000E+00 0.00000E+00 0.00000E+00 0.00000E+00 0.00000E+00
 -1      3939 0.00000E+00 0.00000E+00 0.00000E+00 0.00000E+00 0.00000E+00 0.00000E+00
 -1      3940 0.00000E+00 0.00000E+00 0.00000E+00 0.00000E+00 0.00000E+00 0.00000E+00
 -1      3941 0.00000E+00 0.00000E+00 0.00000E+00 0.00000E+00 0.00000E+00 0.00000E+00
 -1      3942 0.00000E+00 0.00000E+00 0.00000E+00 0.00000E+00 0.00000E+00 0.00000E+00
 -1      3943 0.00000E+00 0.00000E+00 0.00000E+00 0.00000E+00 0.00000E+00 0.00000E+00
 -1      3944 0.00000E+00 0.00000E+00 0.00000E+00 0.00000E+00 0.00000E+00 0.00000E+00
 -1      3945 0.00000E+00 0.00000E+00 0.00000E+00 0.00000E+00 0.00000E+00 0.00000E+00
 -1      3946 0.00000E+00 0.00000E+00 0.00000E+00 0.00000E+00 0.00000E+00 0.00000E+00
 -1      3947 0.00000E+00 0.00000E+00 0.00000E+00 0.00000E+00 0.00000E+00 0.00000E+00
 -1      3948 0.00000E+00 0.00000E+00 0.00000E+00 0.00000E+00 0.00000E+00 0.00000E+00
 -1      3949 0.00000E+00 0.00000E+00 0.00000E+00 0.00000E+00 0.00000E+00 0.00000E+00
 -1      3950 0.00000E+00 0.00000E+00 0.00000E+00 0.00000E+00 0.00000E+00 0.00000E+00
 -1      3951 0.00000E+00 0.00000E+00 0.00000E+00 0.00000E+00 0.00000E+00 0.00000E+00
 -1      3952 0.00000E+00 0.00000E+00 0.00000E+00 0.00000E+00 0.00000E+00 0.00000E+00
 -1      3953 0.00000E+00 0.00000E+00 0.00000E+00 0.00000E+00 0.00000E+00 0.00000E+00
 -1      3954 0.00000E+00 0.00000E+00 0.00000E+00 0.00000E+00 0.00000E+00 0.00000E+00
 -1      3955 0.00000E+00 0.00000E+00 0.00000E+00 0.00000E+00 0.00000E+00 0.00000E+00
 -1      3956 0.00000E+00 0.00000E+00 0.00000E+00 0.00000E+00 0.00000E+00 0.00000E+00
 -1      3957 0.00000E+00 0.00000E+00 0.00000E+00 0.00000E+00 0.00000E+00 0.00000E+00
 -1      3958 0.00000E+00 0.00000E+00 0.00000E+00 0.00000E+00 0.00000E+00 0.00000E+00
 -1      3959 0.00000E+00 0.00000E+00 0.00000E+00 0.00000E+00 0.00000E+00 0.00000E+00
 -1      3960 0.00000E+00 0.00000E+00 0.00000E+00 0.00000E+00 0.00000E+00 0.00000E+00
 -1      3961 0.00000E+00 0.00000E+00 0.00000E+00 0.00000E+00 0.00000E+00 0.00000E+00
 -1      3962 0.00000E+00 0.00000E+00 0.00000E+00 0.00000E+00 0.00000E+00 0.00000E+00
 -1      3963 0.00000E+00 0.00000E+00 0.00000E+00 0.00000E+00 0.00000E+00 0.00000E+00
 -1      3964 0.00000E+00 0.00000E+00 0.00000E+00 0.00000E+00 0.00000E+00 0.00000E+00
 -1      3965 0.00000E+00 0.00000E+00 0.00000E+00 0.00000E+00 0.00000E+00 0.00000E+00
 -1      3966 0.00000E+00 0.00000E+00 0.00000E+00 0.00000E+00 0.00000E+00 0.00000E+00
 -1      3967 0.00000E+00 0.00000E+00 0.00000E+00 0.00000E+00 0.00000E+00 0.00000E+00
 -1      3968 0.00000E+00 0.00000E+00 0.00000E+00 0.00000E+00 0.00000E+00 0.00000E+00
 -1      3969 0.00000E+00 0.00000E+00 0.00000E+00 0.00000E+00 0.00000E+00 0.00000E+00
 -1      3970 0.00000E+00 0.00000E+00 0.00000E+00 0.00000E+00 0.00000E+00 0.00000E+00
 -1      3971 0.00000E+00 0.00000E+00 0.00000E+00 0.00000E+00 0.00000E+00 0.00000E+00
 -1      3972 0.00000E+00 0.00000E+00 0.00000E+00 0.00000E+00 0.00000E+00 0.00000E+00
 -1      3973 0.00000E+00 0.00000E+00 0.00000E+00 0.00000E+00 0.00000E+00 0.00000E+00
 -1      3974 0.00000E+00 0.00000E+00 0.00000E+00 0.00000E+00 0.00000E+00 0.00000E+00
 -1      3975 0.00000E+00 0.00000E+00 0.00000E+00 0.00000E+00 0.00000E+00 0.00000E+00
 -1      3976 0.00000E+00 0.00000E+00 0.00000E+00 0.00000E+00 0.00000E+00 0.00000E+00
 -1      3977 0.00000E+00 0.00000E+00 0.00000E+00 0.00000E+00 0.00000E+00 0.00000E+00
 -1      3978 0.00000E+00 0.00000E+00 0.00000E+00 0.00000E+00 0.00000E+00 0.00000E+00
 -1      3979 0.00000E+00 0.00000E+00 0.00000E+00 0.00000E+00 0.00000E+00 0.00000E+00
 -1      3980 0.00000E+00 0.00000E+00 0.00000E+00 0.00000E+00 0.00000E+00 0.00000E+00
 -1      3981 0.00000E+00 0.00000E+00 0.00000E+00 0.00000E+00 0.00000E+00 0.00000E+00
 -1      3982 0.00000E+00 0.00000E+00 0.00000E+00 0.00000E+00 0.00000E+00 0.00000E+00
 -1      3983 0.00000E+00 0.00000E+00 0.00000E+00 0.00000E+00 0.00000E+00 0.00000E+00
 -1      3984 0.00000E+00 0.00000E+00 0.00000E+00 0.00000E+00 0.00000E+00 0.00000E+00
 -1      3985 0.00000E+00 0.00000E+00 0.00000E+00 0.00000E+00 0.00000E+00 0.00000E+00
 -1      3986 0.00000E+00 0.00000E+00 0.00000E+00 0.00000E+00 0.00000E+00 0.00000E+00
 -1      3987 0.00000E+00 0.00000E+00 0.00000E+00 0.00000E+00 0.00000E+00 0.00000E+00
 -1      3988 0.00000E+00 0.00000E+00 0.00000E+00 0.00000E+00 0.00000E+00 0.00000E+00
 -1      3989 0.00000E+00 0.00000E+00 0.00000E+00 0.00000E+00 0.00000E+00 0.00000E+00
 -1      3990 0.00000E+00 0.00000E+00 0.00000E+00 0.00000E+00 0.00000E+00 0.00000E+00
 -1      3991 0.00000E+00 0.00000E+00 0.00000E+00 0.00000E+00 0.00000E+00 0.00000E+00
 -1      3992 0.00000E+00 0.00000E+00 0.00000E+00 0.00000E+00 0.00000E+00 0.00000E+00
 -1      3993 0.00000E+00 0.00000E+00 0.00000E+00 0.00000E+00 0.00000E+00 0.00000E+00
 -1      3994 0.00000E+00 0.00000E+00 0.00000E+00 0.00000E+00 0.00000E+00 0.00000E+00
 -1      3995 0.00000E+00 0.00000E+00 0.00000E+00 0.00000E+00 0.00000E+00 0.00000E+00
 -1      3996 0.00000E+00 0.00000E+00 0.00000E+00 0.00000E+00 0.00000E+00 0.00000E+00
 -1      3997 0.00000E+00 0.00000E+00 0.00000E+00 0.00000E+00 0.00000E+00 0.00000E+00
 -1      3998 0.00000E+00 0.00000E+00 0.00000E+00 0.00000E+00 0.00000E+00 0.00000E+00
 -1      3999 0.00000E+00 0.00000E+00 0.00000E+00 0.00000E+00 0.00000E+00 0.00000E+00
 -1      4000 0.00000E+00 0.00000E+00 0.00000E+00 0.00000E+00 0.00000E+00 0.00000E+00
 -1      4001 0.00000E+00 0.00000E+00 0.00000E+00 0.00000E+00 0.00000E+00 0.00000E+00
 -1      4002 0.00000E+00 0.00000E+00 0.00000E+00 0.00000E+00 0.00000E+00 0.00000E+00
 -1      4003 0.00000E+00 0.00000E+00 0.00000E+00 0.00000E+00 0.00000E+00 0.00000E+00
 -1      4004 0.00000E+00 0.00000E+00 0.00000E+00 0.00000E+00 0.00000E+00 0.00000E+00
 -1      4005 0.00000E+00 0.00000E+00 0.00000E+00 0.00000E+00 0.00000E+00 0.00000E+00
 -1      4006 0.00000E+00 0.00000E+00 0.00000E+00 0.00000E+00 0.00000E+00 0.00000E+00
 -1      4007 0.00000E+00 0.00000E+00 0.00000E+00 0.00000E+00 0.00000E+00 0.00000E+00
 -1      4008 0.00000E+00 0.00000E+00 0.00000E+00 0.00000E+00 0.00000E+00 0.00000E+00
 -1      4009 0.00000E+00 0.00000E+00 0.00000E+00 0.00000E+00 0.00000E+00 0.00000E+00
 -1      4010 0.00000E+00 0.00000E+00 0.00000E+00 0.00000E+00 0.00000E+00 0.00000E+00
 -1      4011 0.00000E+00 0.00000E+00 0.00000E+00 0.00000E+00 0.00000E+00 0.00000E+00
 -1      4012 0.00000E+00 0.00000E+00 0.00000E+00 0.00000E+00 0.00000E+00 0.00000E+00
 -1      4013 0.00000E+00 0.00000E+00 0.00000E+00 0.00000E+00 0.00000E+00 0.00000E+00
 -1      4014 0.00000E+00 0.00000E+00 0.00000E+00 0.00000E+00 0.00000E+00 0.00000E+00
 -1      4015 0.00000E+00 0.00000E+00 0.00000E+00 0.00000E+00 0.00000E+00 0.00000E+00
 -1      4016 0.00000E+00 0.00000E+00 0.00000E+00 0.00000E+00 0.00000E+00 0.00000E+00
 -1      4017 0.00000E+00 0.00000E+00 0.00000E+00 0.00000E+00 0.00000E+00 0.00000E+00
 -1      4018 0.00000E+00 0.00000E+00 0.00000E+00 0.00000E+00 0.00000E+00 0.00000E+00
 -1      4019 0.00000E+00 0.00000E+00 0.00000E+00 0.00000E+00 0.00000E+00 0.00000E+00
 -1      4020 0.00000E+00 0.00000E+00 0.00000E+00 0.00000E+00 0.00000E+00 0.00000E+00
 -1      4021 0.00000E+00 0.00000E+00 0.00000E+00 0.00000E+00 0.00000E+00 0.00000E+00
 -1      4022 0.00000E+00 0.00000E+00 0.00000E+00 0.00000E+00 0.00000E+00 0.00000E+00
 -1      4023 0.00000E+00 0.00000E+00 0.00000E+00 0.00000E+00 0.00000E+00 0.00000E+00
 -1      4024 0.00000E+00 0.00000E+00 0.00000E+00 0.00000E+00 0.00000E+00 0.00000E+00
 -1      4025 0.00000E+00 0.00000E+00 0.00000E+00 0.00000E+00 0.00000E+00 0.00000E+00
 -1      4026 0.00000E+00 0.00000E+00 0.00000E+00 0.00000E+00 0.00000E+00 0.00000E+00
 -1      4027 0.00000E+00 0.00000E+00 0.00000E+00 0.00000E+00 0.00000E+00 0.00000E+00
 -1      4028 0.00000E+00 0.00000E+00 0.00000E+00 0.00000E+00 0.00000E+00 0.00000E+00
 -1      4029 0.00000E+00 0.00000E+00 0.00000E+00 0.00000E+00 0.00000E+00 0.00000E+00
 -1      4030 0.00000E+00 0.00000E+00 0.00000E+00 0.00000E+00 0.00000E+00 0.00000E+00
 -1      4031 0.00000E+00 0.00000E+00 0.00000E+00 0.00000E+00 0.00000E+00 0.00000E+00
 -1      4032 0.00000E+00 0.00000E+00 0.00000E+00 0.00000E+00 0.00000E+00 0.00000E+00
 -1      4033 0.00000E+00 0.00000E+00 0.00000E+00 0.00000E+00 0.00000E+00 0.00000E+00
 -1      4034 0.00000E+00 0.00000E+00 0.00000E+00 0.00000E+00 0.00000E+00 0.00000E+00
 -1      4035 0.00000E+00 0.00000E+00 0.00000E+00 0.00000E+00 0.00000E+00 0.00000E+00
 -1      4036 0.00000E+00 0.00000E+00 0.00000E+00 0.00000E+00 0.00000E+00 0.00000E+00
 -1      4037 0.00000E+00 0.00000E+00 0.00000E+00 0.00000E+00 0.00000E+00 0.00000E+00
 -1      4038 0.00000E+00 0.00000E+00 0.00000E+00 0.00000E+00 0.00000E+00 0.00000E+00
 -1      4039 0.00000E+00 0.00000E+00 0.00000E+00 0.00000E+00 0.00000E+00 0.00000E+00
 -1      4040 0.00000E+00 0.00000E+00 0.00000E+00 0.00000E+00 0.00000E+00 0.00000E+00
 -1      4041 0.00000E+00 0.00000E+00 0.00000E+00 0.00000E+00 0.00000E+00 0.00000E+00
 -1      4042 0.00000E+00 0.00000E+00 0.00000E+00 0.00000E+00 0.00000E+00 0.00000E+00
 -1      4043 0.00000E+00 0.00000E+00 0.00000E+00 0.00000E+00 0.00000E+00 0.00000E+00
 -1      4044 0.00000E+00 0.00000E+00 0.00000E+00 0.00000E+00 0.00000E+00 0.00000E+00
 -1      4045 0.00000E+00 0.00000E+00 0.00000E+00 0.00000E+00 0.00000E+00 0.00000E+00
 -1      4046 0.00000E+00 0.00000E+00 0.00000E+00 0.00000E+00 0.00000E+00 0.00000E+00
 -1      4047 0.00000E+00 0.00000E+00 0.00000E+00 0.00000E+00 0.00000E+00 0.00000E+00
 -1      4048 0.00000E+00 0.00000E+00 0.00000E+00 0.00000E+00 0.00000E+00 0.00000E+00
 -1      4049 0.00000E+00 0.00000E+00 0.00000E+00 0.00000E+00 0.00000E+00 0.00000E+00
 -1      4050 0.00000E+00 0.00000E+00 0.00000E+00 0.00000E+00 0.00000E+00 0.00000E+00
 -1      4051 0.00000E+00 0.00000E+00 0.00000E+00 0.00000E+00 0.00000E+00 0.00000E+00
 -1      4052 0.00000E+00 0.00000E+00 0.00000E+00 0.00000E+00 0.00000E+00 0.00000E+00
 -1      4053 0.00000E+00 0.00000E+00 0.00000E+00 0.00000E+00 0.00000E+00 0.00000E+00
 -1      4054 0.00000E+00 0.00000E+00 0.00000E+00 0.00000E+00 0.00000E+00 0.00000E+00
 -1      4055 0.00000E+00 0.00000E+00 0.00000E+00 0.00000E+00 0.00000E+00 0.00000E+00
 -1      4056 0.00000E+00 0.00000E+00 0.00000E+00 0.00000E+00 0.00000E+00 0.00000E+00
 -1      4057 0.00000E+00 0.00000E+00 0.00000E+00 0.00000E+00 0.00000E+00 0.00000E+00
 -1      4058 0.00000E+00 0.00000E+00 0.00000E+00 0.00000E+00 0.00000E+00 0.00000E+00
 -1      4059 0.00000E+00 0.00000E+00 0.00000E+00 0.00000E+00 0.00000E+00 0.00000E+00
 -1      4060 0.00000E+00 0.00000E+00 0.00000E+00 0.00000E+00 0.00000E+00 0.00000E+00
 -1      4061 0.00000E+00 0.00000E+00 0.00000E+00 0.00000E+00 0.00000E+00 0.00000E+00
 -1      4062 0.00000E+00 0.00000E+00 0.00000E+00 0.00000E+00 0.00000E+00 0.00000E+00
 -1      4063 0.00000E+00 0.00000E+00 0.00000E+00 0.00000E+00 0.00000E+00 0.00000E+00
 -1      4064 0.00000E+00 0.00000E+00 0.00000E+00 0.00000E+00 0.00000E+00 0.00000E+00
 -1      4065 0.00000E+00 0.00000E+00 0.00000E+00 0.00000E+00 0.00000E+00 0.00000E+00
 -1      4066 0.00000E+00 0.00000E+00 0.00000E+00 0.00000E+00 0.00000E+00 0.00000E+00
 -1      4067 0.00000E+00 0.00000E+00 0.00000E+00 0.00000E+00 0.00000E+00 0.00000E+00
 -1      4068 0.00000E+00 0.00000E+00 0.00000E+00 0.00000E+00 0.00000E+00 0.00000E+00
 -1      4069 0.00000E+00 0.00000E+00 0.00000E+00 0.00000E+00 0.00000E+00 0.00000E+00
 -1      4070 0.00000E+00 0.00000E+00 0.00000E+00 0.00000E+00 0.00000E+00 0.00000E+00
 -1      4071 0.00000E+00 0.00000E+00 0.00000E+00 0.00000E+00 0.00000E+00 0.00000E+00
 -1      4072 0.00000E+00 0.00000E+00 0.00000E+00 0.00000E+00 0.00000E+00 0.00000E+00
 -1      4073 0.00000E+00 0.00000E+00 0.00000E+00 0.00000E+00 0.00000E+00 0.00000E+00
 -1      4074 0.00000E+00 0.00000E+00 0.00000E+00 0.00000E+00 0.00000E+00 0.00000E+00
 -1      4075 0.00000E+00 0.00000E+00 0.00000E+00 0.00000E+00 0.00000E+00 0.00000E+00
 -1      4076 0.00000E+00 0.00000E+00 0.00000E+00 0.00000E+00 0.00000E+00 0.00000E+00
 -1      4077 0.00000E+00 0.00000E+00 0.00000E+00 0.00000E+00 0.00000E+00 0.00000E+00
 -1      4078 0.00000E+00 0.00000E+00 0.00000E+00 0.00000E+00 0.00000E+00 0.00000E+00
 -1      4079 0.00000E+00 0.00000E+00 0.00000E+00 0.00000E+00 0.00000E+00 0.00000E+00
 -1      4080 0.00000E+00 0.00000E+00 0.00000E+00 0.00000E+00 0.00000E+00 0.00000E+00
 -1      4081 0.00000E+00 0.00000E+00 0.00000E+00 0.00000E+00 0.00000E+00 0.00000E+00
 -1      4082 0.00000E+00 0.00000E+00 0.00000E+00 0.00000E+00 0.00000E+00 0.00000E+00
 -1      4083 0.00000E+00 0.00000E+00 0.00000E+00 0.00000E+00 0.00000E+00 0.00000E+00
 -1      4084 0.00000E+00 0.00000E+00 0.00000E+00 0.00000E+00 0.00000E+00 0.00000E+00
 -1      4085 0.00000E+00 0.00000E+00 0.00000E+00 0.00000E+00 0.00000E+00 0.00000E+00
 -1      4086 0.00000E+00 0.00000E+00 0.00000E+00 0.00000E+00 0.00000E+00 0.00000E+00
 -1      4087 0.00000E+00 0.00000E+00 0.00000E+00 0.00000E+00 0.00000E+00 0.00000E+00
 -1      4088 0.00000E+00 0.00000E+00 0.00000E+00 0.00000E+00 0.00000E+00 0.00000E+00
 -1      4089 0.00000E+00 0.00000E+00 0.00000E+00 0.00000E+00 0.00000E+00 0.00000E+00
 -1      4090 0.00000E+00 0.00000E+00 0.00000E+00 0.00000E+00 0.00000E+00 0.00000E+00
 -1      4091 0.00000E+00 0.00000E+00 0.00000E+00 0.00000E+00 0.00000E+00 0.00000E+00
 -1      4092 0.00000E+00 0.00000E+00 0.00000E+00 0.00000E+00 0.00000E+00 0.00000E+00
 -1      4093 0.00000E+00 0.00000E+00 0.00000E+00 0.00000E+00 0.00000E+00 0.00000E+00
 -1      4094 0.00000E+00 0.00000E+00 0.00000E+00 0.00000E+00 0.00000E+00 0.00000E+00
 -1      4095 0.00000E+00 0.00000E+00 0.00000E+00 0.00000E+00 0.00000E+00 0.00000E+00
 -1      4096 0.00000E+00 0.00000E+00 0.00000E+00 0.00000E+00 0.00000E+00 0.00000E+00
 -1      4097 0.00000E+00 0.00000E+00 0.00000E+00 0.00000E+00 0.00000E+00 0.00000E+00
 -1      4098 0.00000E+00 0.00000E+00 0.00000E+00 0.00000E+00 0.00000E+00 0.00000E+00
 -1      4099 0.00000E+00 0.00000E+00 0.00000E+00 0.00000E+00 0.00000E+00 0.00000E+00
 -1      4100 0.00000E+00 0.00000E+00 0.00000E+00 0.00000E+00 0.00000E+00 0.00000E+00
 -1      4101 0.00000E+00 0.00000E+00 0.00000E+00 0.00000E+00 0.00000E+00 0.00000E+00
 -1      4102 0.00000E+00 0.00000E+00 0.00000E+00 0.00000E+00 0.00000E+00 0.00000E+00
 -1      4103 0.00000E+00 0.00000E+00 0.00000E+00 0.00000E+00 0.00000E+00 0.00000E+00
 -1      4104 0.00000E+00 0.00000E+00 0.00000E+00 0.00000E+00 0.00000E+00 0.00000E+00
 -1      4105 0.00000E+00 0.00000E+00 0.00000E+00 0.00000E+00 0.00000E+00 0.00000E+00
 -1      4106 0.00000E+00 0.00000E+00 0.00000E+00 0.00000E+00 0.00000E+00 0.00000E+00
 -1      4107 0.00000E+00 0.00000E+00 0.00000E+00 0.00000E+00 0.00000E+00 0.00000E+00
 -1      4108 0.00000E+00 0.00000E+00 0.00000E+00 0.00000E+00 0.00000E+00 0.00000E+00
 -1      4109 0.00000E+00 0.00000E+00 0.00000E+00 0.00000E+00 0.00000E+00 0.00000E+00
 -1      4110 0.00000E+00 0.00000E+00 0.00000E+00 0.00000E+00 0.00000E+00 0.00000E+00
 -1      4111 0.00000E+00 0.00000E+00 0.00000E+00 0.00000E+00 0.00000E+00 0.00000E+00
 -1      4112 0.00000E+00 0.00000E+00 0.00000E+00 0.00000E+00 0.00000E+00 0.00000E+00
 -1      4113 0.00000E+00 0.00000E+00 0.00000E+00 0.00000E+00 0.00000E+00 0.00000E+00
 -1      4114 0.00000E+00 0.00000E+00 0.00000E+00 0.00000E+00 0.00000E+00 0.00000E+00
 -1      4115 0.00000E+00 0.00000E+00 0.00000E+00 0.00000E+00 0.00000E+00 0.00000E+00
 -1      4116 0.00000E+00 0.00000E+00 0.00000E+00 0.00000E+00 0.00000E+00 0.00000E+00
 -1      4117 0.00000E+00 0.00000E+00 0.00000E+00 0.00000E+00 0.00000E+00 0.00000E+00
 -1      4118 0.00000E+00 0.00000E+00 0.00000E+00 0.00000E+00 0.00000E+00 0.00000E+00
 -1      4119 0.00000E+00 0.00000E+00 0.00000E+00 0.00000E+00 0.00000E+00 0.00000E+00
 -1      4120 0.00000E+00 0.00000E+00 0.00000E+00 0.00000E+00 0.00000E+00 0.00000E+00
 -1      4121 0.00000E+00 0.00000E+00 0.00000E+00 0.00000E+00 0.00000E+00 0.00000E+00
 -1      4122 0.00000E+00 0.00000E+00 0.00000E+00 0.00000E+00 0.00000E+00 0.00000E+00
 -1      4123 0.00000E+00 0.00000E+00 0.00000E+00 0.00000E+00 0.00000E+00 0.00000E+00
 -1      4124 0.00000E+00 0.00000E+00 0.00000E+00 0.00000E+00 0.00000E+00 0.00000E+00
 -1      4125 0.00000E+00 0.00000E+00 0.00000E+00 0.00000E+00 0.00000E+00 0.00000E+00
 -1      4126 0.00000E+00 0.00000E+00 0.00000E+00 0.00000E+00 0.00000E+00 0.00000E+00
 -1      4127 0.00000E+00 0.00000E+00 0.00000E+00 0.00000E+00 0.00000E+00 0.00000E+00
 -1      4128 0.00000E+00 0.00000E+00 0.00000E+00 0.00000E+00 0.00000E+00 0.00000E+00
 -1      4129 0.00000E+00 0.00000E+00 0.00000E+00 0.00000E+00 0.00000E+00 0.00000E+00
 -1      4130 0.00000E+00 0.00000E+00 0.00000E+00 0.00000E+00 0.00000E+00 0.00000E+00
 -1      4131 0.00000E+00 0.00000E+00 0.00000E+00 0.00000E+00 0.00000E+00 0.00000E+00
 -1      4132 0.00000E+00 0.00000E+00 0.00000E+00 0.00000E+00 0.00000E+00 0.00000E+00
 -1      4133 0.00000E+00 0.00000E+00 0.00000E+00 0.00000E+00 0.00000E+00 0.00000E+00
 -1      4134 0.00000E+00 0.00000E+00 0.00000E+00 0.00000E+00 0.00000E+00 0.00000E+00
 -1      4135 0.00000E+00 0.00000E+00 0.00000E+00 0.00000E+00 0.00000E+00 0.00000E+00
 -1      4136 0.00000E+00 0.00000E+00 0.00000E+00 0.00000E+00 0.00000E+00 0.00000E+00
 -1      4137 0.00000E+00 0.00000E+00 0.00000E+00 0.00000E+00 0.00000E+00 0.00000E+00
 -1      4138 0.00000E+00 0.00000E+00 0.00000E+00 0.00000E+00 0.00000E+00 0.00000E+00
 -1      4139 0.00000E+00 0.00000E+00 0.00000E+00 0.00000E+00 0.00000E+00 0.00000E+00
 -1      4140 0.00000E+00 0.00000E+00 0.00000E+00 0.00000E+00 0.00000E+00 0.00000E+00
 -1      4141 0.00000E+00 0.00000E+00 0.00000E+00 0.00000E+00 0.00000E+00 0.00000E+00
 -1      4142 0.00000E+00 0.00000E+00 0.00000E+00 0.00000E+00 0.00000E+00 0.00000E+00
 -1      4143 0.00000E+00 0.00000E+00 0.00000E+00 0.00000E+00 0.00000E+00 0.00000E+00
 -1      4144 0.00000E+00 0.00000E+00 0.00000E+00 0.00000E+00 0.00000E+00 0.00000E+00
 -1      4145 0.00000E+00 0.00000E+00 0.00000E+00 0.00000E+00 0.00000E+00 0.00000E+00
 -1      4146 0.00000E+00 0.00000E+00 0.00000E+00 0.00000E+00 0.00000E+00 0.00000E+00
 -1      4147 0.00000E+00 0.00000E+00 0.00000E+00 0.00000E+00 0.00000E+00 0.00000E+00
 -1      4148 0.00000E+00 0.00000E+00 0.00000E+00 0.00000E+00 0.00000E+00 0.00000E+00
 -1      4149 0.00000E+00 0.00000E+00 0.00000E+00 0.00000E+00 0.00000E+00 0.00000E+00
 -1      4150 0.00000E+00 0.00000E+00 0.00000E+00 0.00000E+00 0.00000E+00 0.00000E+00
 -1      4151 0.00000E+00 0.00000E+00 0.00000E+00 0.00000E+00 0.00000E+00 0.00000E+00
 -1      4152 0.00000E+00 0.00000E+00 0.00000E+00 0.00000E+00 0.00000E+00 0.00000E+00
 -1      4153 0.00000E+00 0.00000E+00 0.00000E+00 0.00000E+00 0.00000E+00 0.00000E+00
 -1      4154 0.00000E+00 0.00000E+00 0.00000E+00 0.00000E+00 0.00000E+00 0.00000E+00
 -1      4155 0.00000E+00 0.00000E+00 0.00000E+00 0.00000E+00 0.00000E+00 0.00000E+00
 -1      4156 0.00000E+00 0.00000E+00 0.00000E+00 0.00000E+00 0.00000E+00 0.00000E+00
 -1      4157 0.00000E+00 0.00000E+00 0.00000E+00 0.00000E+00 0.00000E+00 0.00000E+00
 -1      4158 0.00000E+00 0.00000E+00 0.00000E+00 0.00000E+00 0.00000E+00 0.00000E+00
 -1      4159 0.00000E+00 0.00000E+00 0.00000E+00 0.00000E+00 0.00000E+00 0.00000E+00
 -1      4160 0.00000E+00 0.00000E+00 0.00000E+00 0.00000E+00 0.00000E+00 0.00000E+00
 -1      4161 0.00000E+00 0.00000E+00 0.00000E+00 0.00000E+00 0.00000E+00 0.00000E+00
 -1      4162 0.00000E+00 0.00000E+00 0.00000E+00 0.00000E+00 0.00000E+00 0.00000E+00
 -1      4163 0.00000E+00 0.00000E+00 0.00000E+00 0.00000E+00 0.00000E+00 0.00000E+00
 -1      4164 0.00000E+00 0.00000E+00 0.00000E+00 0.00000E+00 0.00000E+00 0.00000E+00
 -1      4165 0.00000E+00 0.00000E+00 0.00000E+00 0.00000E+00 0.00000E+00 0.00000E+00
 -1      4166 0.00000E+00 0.00000E+00 0.00000E+00 0.00000E+00 0.00000E+00 0.00000E+00
 -1      4167 0.00000E+00 0.00000E+00 0.00000E+00 0.00000E+00 0.00000E+00 0.00000E+00
 -1      4168 0.00000E+00 0.00000E+00 0.00000E+00 0.00000E+00 0.00000E+00 0.00000E+00
 -1      4169 0.00000E+00 0.00000E+00 0.00000E+00 0.00000E+00 0.00000E+00 0.00000E+00
 -1      4170 0.00000E+00 0.00000E+00 0.00000E+00 0.00000E+00 0.00000E+00 0.00000E+00
 -1      4171 0.00000E+00 0.00000E+00 0.00000E+00 0.00000E+00 0.00000E+00 0.00000E+00
 -1      4172 0.00000E+00 0.00000E+00 0.00000E+00 0.00000E+00 0.00000E+00 0.00000E+00
 -1      4173 0.00000E+00 0.00000E+00 0.00000E+00 0.00000E+00 0.00000E+00 0.00000E+00
 -1      4174 0.00000E+00 0.00000E+00 0.00000E+00 0.00000E+00 0.00000E+00 0.00000E+00
 -1      4175 0.00000E+00 0.00000E+00 0.00000E+00 0.00000E+00 0.00000E+00 0.00000E+00
 -1      4176 0.00000E+00 0.00000E+00 0.00000E+00 0.00000E+00 0.00000E+00 0.00000E+00
 -1      4177 0.00000E+00 0.00000E+00 0.00000E+00 0.00000E+00 0.00000E+00 0.00000E+00
 -1      4178 0.00000E+00 0.00000E+00 0.00000E+00 0.00000E+00 0.00000E+00 0.00000E+00
 -1      4179 0.00000E+00 0.00000E+00 0.00000E+00 0.00000E+00 0.00000E+00 0.00000E+00
 -1      4180 0.00000E+00 0.00000E+00 0.00000E+00 0.00000E+00 0.00000E+00 0.00000E+00
 -1      4181 0.00000E+00 0.00000E+00 0.00000E+00 0.00000E+00 0.00000E+00 0.00000E+00
 -1      4182 0.00000E+00 0.00000E+00 0.00000E+00 0.00000E+00 0.00000E+00 0.00000E+00
 -1      4183 0.00000E+00 0.00000E+00 0.00000E+00 0.00000E+00 0.00000E+00 0.00000E+00
 -1      4184 0.00000E+00 0.00000E+00 0.00000E+00 0.00000E+00 0.00000E+00 0.00000E+00
 -1      4185 0.00000E+00 0.00000E+00 0.00000E+00 0.00000E+00 0.00000E+00 0.00000E+00
 -1      4186 0.00000E+00 0.00000E+00 0.00000E+00 0.00000E+00 0.00000E+00 0.00000E+00
 -1      4187 0.00000E+00 0.00000E+00 0.00000E+00 0.00000E+00 0.00000E+00 0.00000E+00
 -1      4188 0.00000E+00 0.00000E+00 0.00000E+00 0.00000E+00 0.00000E+00 0.00000E+00
 -1      4189 0.00000E+00 0.00000E+00 0.00000E+00 0.00000E+00 0.00000E+00 0.00000E+00
 -1      4190 0.00000E+00 0.00000E+00 0.00000E+00 0.00000E+00 0.00000E+00 0.00000E+00
 -1      4191 0.00000E+00 0.00000E+00 0.00000E+00 0.00000E+00 0.00000E+00 0.00000E+00
 -1      4192 0.00000E+00 0.00000E+00 0.00000E+00 0.00000E+00 0.00000E+00 0.00000E+00
 -1      4193 0.00000E+00 0.00000E+00 0.00000E+00 0.00000E+00 0.00000E+00 0.00000E+00
 -1      4194 0.00000E+00 0.00000E+00 0.00000E+00 0.00000E+00 0.00000E+00 0.00000E+00
 -1      4195 0.00000E+00 0.00000E+00 0.00000E+00 0.00000E+00 0.00000E+00 0.00000E+00
 -1      4196 0.00000E+00 0.00000E+00 0.00000E+00 0.00000E+00 0.00000E+00 0.00000E+00
 -1      4197 0.00000E+00 0.00000E+00 0.00000E+00 0.00000E+00 0.00000E+00 0.00000E+00
 -1      4198 0.00000E+00 0.00000E+00 0.00000E+00 0.00000E+00 0.00000E+00 0.00000E+00
 -1      4199 0.00000E+00 0.00000E+00 0.00000E+00 0.00000E+00 0.00000E+00 0.00000E+00
 -1      4200 0.00000E+00 0.00000E+00 0.00000E+00 0.00000E+00 0.00000E+00 0.00000E+00
 -1      4201 0.00000E+00 0.00000E+00 0.00000E+00 0.00000E+00 0.00000E+00 0.00000E+00
 -1      4202 0.00000E+00 0.00000E+00 0.00000E+00 0.00000E+00 0.00000E+00 0.00000E+00
 -1      4203 0.00000E+00 0.00000E+00 0.00000E+00 0.00000E+00 0.00000E+00 0.00000E+00
 -1      4204 0.00000E+00 0.00000E+00 0.00000E+00 0.00000E+00 0.00000E+00 0.00000E+00
 -1      4205 0.00000E+00 0.00000E+00 0.00000E+00 0.00000E+00 0.00000E+00 0.00000E+00
 -1      4206 0.00000E+00 0.00000E+00 0.00000E+00 0.00000E+00 0.00000E+00 0.00000E+00
 -1      4207 0.00000E+00 0.00000E+00 0.00000E+00 0.00000E+00 0.00000E+00 0.00000E+00
 -1      4208 0.00000E+00 0.00000E+00 0.00000E+00 0.00000E+00 0.00000E+00 0.00000E+00
 -1      4209 0.00000E+00 0.00000E+00 0.00000E+00 0.00000E+00 0.00000E+00 0.00000E+00
 -1      4210 0.00000E+00 0.00000E+00 0.00000E+00 0.00000E+00 0.00000E+00 0.00000E+00
 -1      4211 0.00000E+00 0.00000E+00 0.00000E+00 0.00000E+00 0.00000E+00 0.00000E+00
 -1      4212 0.00000E+00 0.00000E+00 0.00000E+00 0.00000E+00 0.00000E+00 0.00000E+00
 -1      4213 0.00000E+00 0.00000E+00 0.00000E+00 0.00000E+00 0.00000E+00 0.00000E+00
 -1      4214 0.00000E+00 0.00000E+00 0.00000E+00 0.00000E+00 0.00000E+00 0.00000E+00
 -1      4215 0.00000E+00 0.00000E+00 0.00000E+00 0.00000E+00 0.00000E+00 0.00000E+00
 -1      4216 0.00000E+00 0.00000E+00 0.00000E+00 0.00000E+00 0.00000E+00 0.00000E+00
 -1      4217 0.00000E+00 0.00000E+00 0.00000E+00 0.00000E+00 0.00000E+00 0.00000E+00
 -1      4218 0.00000E+00 0.00000E+00 0.00000E+00 0.00000E+00 0.00000E+00 0.00000E+00
 -1      4219 0.00000E+00 0.00000E+00 0.00000E+00 0.00000E+00 0.00000E+00 0.00000E+00
 -1      4220 0.00000E+00 0.00000E+00 0.00000E+00 0.00000E+00 0.00000E+00 0.00000E+00
 -1      4221 0.00000E+00 0.00000E+00 0.00000E+00 0.00000E+00 0.00000E+00 0.00000E+00
 -1      4222 0.00000E+00 0.00000E+00 0.00000E+00 0.00000E+00 0.00000E+00 0.00000E+00
 -1      4223 0.00000E+00 0.00000E+00 0.00000E+00 0.00000E+00 0.00000E+00 0.00000E+00
 -1      4224 0.00000E+00 0.00000E+00 0.00000E+00 0.00000E+00 0.00000E+00 0.00000E+00
 -1      4225 0.00000E+00 0.00000E+00 0.00000E+00 0.00000E+00 0.00000E+00 0.00000E+00
 -1      4226 0.00000E+00 0.00000E+00 0.00000E+00 0.00000E+00 0.00000E+00 0.00000E+00
 -1      4227 0.00000E+00 0.00000E+00 0.00000E+00 0.00000E+00 0.00000E+00 0.00000E+00
 -1      4228 0.00000E+00 0.00000E+00 0.00000E+00 0.00000E+00 0.00000E+00 0.00000E+00
 -1      4229 0.00000E+00 0.00000E+00 0.00000E+00 0.00000E+00 0.00000E+00 0.00000E+00
 -1      4230 0.00000E+00 0.00000E+00 0.00000E+00 0.00000E+00 0.00000E+00 0.00000E+00
 -1      4231 0.00000E+00 0.00000E+00 0.00000E+00 0.00000E+00 0.00000E+00 0.00000E+00
 -1      4232 0.00000E+00 0.00000E+00 0.00000E+00 0.00000E+00 0.00000E+00 0.00000E+00
 -1      4233 0.00000E+00 0.00000E+00 0.00000E+00 0.00000E+00 0.00000E+00 0.00000E+00
 -1      4234 0.00000E+00 0.00000E+00 0.00000E+00 0.00000E+00 0.00000E+00 0.00000E+00
 -1      4235 0.00000E+00 0.00000E+00 0.00000E+00 0.00000E+00 0.00000E+00 0.00000E+00
 -1      4236 0.00000E+00 0.00000E+00 0.00000E+00 0.00000E+00 0.00000E+00 0.00000E+00
 -1      4237 0.00000E+00 0.00000E+00 0.00000E+00 0.00000E+00 0.00000E+00 0.00000E+00
 -1      4238 0.00000E+00 0.00000E+00 0.00000E+00 0.00000E+00 0.00000E+00 0.00000E+00
 -1      4239 0.00000E+00 0.00000E+00 0.00000E+00 0.00000E+00 0.00000E+00 0.00000E+00
 -1      4240 0.00000E+00 0.00000E+00 0.00000E+00 0.00000E+00 0.00000E+00 0.00000E+00
 -1      4241 0.00000E+00 0.00000E+00 0.00000E+00 0.00000E+00 0.00000E+00 0.00000E+00
 -1      4242 0.00000E+00 0.00000E+00 0.00000E+00 0.00000E+00 0.00000E+00 0.00000E+00
 -1      4243 0.00000E+00 0.00000E+00 0.00000E+00 0.00000E+00 0.00000E+00 0.00000E+00
 -1      4244 0.00000E+00 0.00000E+00 0.00000E+00 0.00000E+00 0.00000E+00 0.00000E+00
 -1      4245 0.00000E+00 0.00000E+00 0.00000E+00 0.00000E+00 0.00000E+00 0.00000E+00
 -1      4246 0.00000E+00 0.00000E+00 0.00000E+00 0.00000E+00 0.00000E+00 0.00000E+00
 -1      4247 0.00000E+00 0.00000E+00 0.00000E+00 0.00000E+00 0.00000E+00 0.00000E+00
 -1      4248 0.00000E+00 0.00000E+00 0.00000E+00 0.00000E+00 0.00000E+00 0.00000E+00
 -1      4249 0.00000E+00 0.00000E+00 0.00000E+00 0.00000E+00 0.00000E+00 0.00000E+00
 -1      4250 0.00000E+00 0.00000E+00 0.00000E+00 0.00000E+00 0.00000E+00 0.00000E+00
 -1      4251 0.00000E+00 0.00000E+00 0.00000E+00 0.00000E+00 0.00000E+00 0.00000E+00
 -1      4252 0.00000E+00 0.00000E+00 0.00000E+00 0.00000E+00 0.00000E+00 0.00000E+00
 -1      4253 0.00000E+00 0.00000E+00 0.00000E+00 0.00000E+00 0.00000E+00 0.00000E+00
 -1      4254 0.00000E+00 0.00000E+00 0.00000E+00 0.00000E+00 0.00000E+00 0.00000E+00
 -1      4255 0.00000E+00 0.00000E+00 0.00000E+00 0.00000E+00 0.00000E+00 0.00000E+00
 -1      4256 0.00000E+00 0.00000E+00 0.00000E+00 0.00000E+00 0.00000E+00 0.00000E+00
 -1      4257 0.00000E+00 0.00000E+00 0.00000E+00 0.00000E+00 0.00000E+00 0.00000E+00
 -1      4258 0.00000E+00 0.00000E+00 0.00000E+00 0.00000E+00 0.00000E+00 0.00000E+00
 -1      4259 0.00000E+00 0.00000E+00 0.00000E+00 0.00000E+00 0.00000E+00 0.00000E+00
 -1      4260 0.00000E+00 0.00000E+00 0.00000E+00 0.00000E+00 0.00000E+00 0.00000E+00
 -1      4261 0.00000E+00 0.00000E+00 0.00000E+00 0.00000E+00 0.00000E+00 0.00000E+00
 -1      4262 0.00000E+00 0.00000E+00 0.00000E+00 0.00000E+00 0.00000E+00 0.00000E+00
 -1      4263 0.00000E+00 0.00000E+00 0.00000E+00 0.00000E+00 0.00000E+00 0.00000E+00
 -1      4264 0.00000E+00 0.00000E+00 0.00000E+00 0.00000E+00 0.00000E+00 0.00000E+00
 -1      4265 0.00000E+00 0.00000E+00 0.00000E+00 0.00000E+00 0.00000E+00 0.00000E+00
 -1      4266 0.00000E+00 0.00000E+00 0.00000E+00 0.00000E+00 0.00000E+00 0.00000E+00
 -1      4267 0.00000E+00 0.00000E+00 0.00000E+00 0.00000E+00 0.00000E+00 0.00000E+00
 -1      4268 0.00000E+00 0.00000E+00 0.00000E+00 0.00000E+00 0.00000E+00 0.00000E+00
 -1      4269 0.00000E+00 0.00000E+00 0.00000E+00 0.00000E+00 0.00000E+00 0.00000E+00
 -1      4270 0.00000E+00 0.00000E+00 0.00000E+00 0.00000E+00 0.00000E+00 0.00000E+00
 -1      4271 0.00000E+00 0.00000E+00 0.00000E+00 0.00000E+00 0.00000E+00 0.00000E+00
 -1      4272 0.00000E+00 0.00000E+00 0.00000E+00 0.00000E+00 0.00000E+00 0.00000E+00
 -1      4273 0.00000E+00 0.00000E+00 0.00000E+00 0.00000E+00 0.00000E+00 0.00000E+00
 -1      4274 0.00000E+00 0.00000E+00 0.00000E+00 0.00000E+00 0.00000E+00 0.00000E+00
 -1      4275 0.00000E+00 0.00000E+00 0.00000E+00 0.00000E+00 0.00000E+00 0.00000E+00
 -1      4276 0.00000E+00 0.00000E+00 0.00000E+00 0.00000E+00 0.00000E+00 0.00000E+00
 -1      4277 0.00000E+00 0.00000E+00 0.00000E+00 0.00000E+00 0.00000E+00 0.00000E+00
 -1      4278 0.00000E+00 0.00000E+00 0.00000E+00 0.00000E+00 0.00000E+00 0.00000E+00
 -1      4279 0.00000E+00 0.00000E+00 0.00000E+00 0.00000E+00 0.00000E+00 0.00000E+00
 -1      4280 0.00000E+00 0.00000E+00 0.00000E+00 0.00000E+00 0.00000E+00 0.00000E+00
 -1      4281 0.00000E+00 0.00000E+00 0.00000E+00 0.00000E+00 0.00000E+00 0.00000E+00
 -1      4282 0.00000E+00 0.00000E+00 0.00000E+00 0.00000E+00 0.00000E+00 0.00000E+00
 -1      4283 0.00000E+00 0.00000E+00 0.00000E+00 0.00000E+00 0.00000E+00 0.00000E+00
 -1      4284 0.00000E+00 0.00000E+00 0.00000E+00 0.00000E+00 0.00000E+00 0.00000E+00
 -1      4285 0.00000E+00 0.00000E+00 0.00000E+00 0.00000E+00 0.00000E+00 0.00000E+00
 -1      4286 0.00000E+00 0.00000E+00 0.00000E+00 0.00000E+00 0.00000E+00 0.00000E+00
 -1      4287 0.00000E+00 0.00000E+00 0.00000E+00 0.00000E+00 0.00000E+00 0.00000E+00
 -1      4288 0.00000E+00 0.00000E+00 0.00000E+00 0.00000E+00 0.00000E+00 0.00000E+00
 -1      4289 0.00000E+00 0.00000E+00 0.00000E+00 0.00000E+00 0.00000E+00 0.00000E+00
 -1      4290 0.00000E+00 0.00000E+00 0.00000E+00 0.00000E+00 0.00000E+00 0.00000E+00
 -1      4291 0.00000E+00 0.00000E+00 0.00000E+00 0.00000E+00 0.00000E+00 0.00000E+00
 -1      4292 0.00000E+00 0.00000E+00 0.00000E+00 0.00000E+00 0.00000E+00 0.00000E+00
 -1      4293 0.00000E+00 0.00000E+00 0.00000E+00 0.00000E+00 0.00000E+00 0.00000E+00
 -1      4294 0.00000E+00 0.00000E+00 0.00000E+00 0.00000E+00 0.00000E+00 0.00000E+00
 -1      4295 0.00000E+00 0.00000E+00 0.00000E+00 0.00000E+00 0.00000E+00 0.00000E+00
 -1      4296 0.00000E+00 0.00000E+00 0.00000E+00 0.00000E+00 0.00000E+00 0.00000E+00
 -1      4297 0.00000E+00 0.00000E+00 0.00000E+00 0.00000E+00 0.00000E+00 0.00000E+00
 -1      4298 0.00000E+00 0.00000E+00 0.00000E+00 0.00000E+00 0.00000E+00 0.00000E+00
 -1      4299 0.00000E+00 0.00000E+00 0.00000E+00 0.00000E+00 0.00000E+00 0.00000E+00
 -1      4300 0.00000E+00 0.00000E+00 0.00000E+00 0.00000E+00 0.00000E+00 0.00000E+00
 -1      4301 0.00000E+00 0.00000E+00 0.00000E+00 0.00000E+00 0.00000E+00 0.00000E+00
 -1      4302 0.00000E+00 0.00000E+00 0.00000E+00 0.00000E+00 0.00000E+00 0.00000E+00
 -1      4303 0.00000E+00 0.00000E+00 0.00000E+00 0.00000E+00 0.00000E+00 0.00000E+00
 -1      4304 0.00000E+00 0.00000E+00 0.00000E+00 0.00000E+00 0.00000E+00 0.00000E+00
 -1      4305 0.00000E+00 0.00000E+00 0.00000E+00 0.00000E+00 0.00000E+00 0.00000E+00
 -1      4306 0.00000E+00 0.00000E+00 0.00000E+00 0.00000E+00 0.00000E+00 0.00000E+00
 -1      4307 0.00000E+00 0.00000E+00 0.00000E+00 0.00000E+00 0.00000E+00 0.00000E+00
 -1      4308 0.00000E+00 0.00000E+00 0.00000E+00 0.00000E+00 0.00000E+00 0.00000E+00
 -1      4309 0.00000E+00 0.00000E+00 0.00000E+00 0.00000E+00 0.00000E+00 0.00000E+00
 -1      4310 0.00000E+00 0.00000E+00 0.00000E+00 0.00000E+00 0.00000E+00 0.00000E+00
 -1      4311 0.00000E+00 0.00000E+00 0.00000E+00 0.00000E+00 0.00000E+00 0.00000E+00
 -1      4312 0.00000E+00 0.00000E+00 0.00000E+00 0.00000E+00 0.00000E+00 0.00000E+00
 -1      4313 0.00000E+00 0.00000E+00 0.00000E+00 0.00000E+00 0.00000E+00 0.00000E+00
 -1      4314 0.00000E+00 0.00000E+00 0.00000E+00 0.00000E+00 0.00000E+00 0.00000E+00
 -1      4315 0.00000E+00 0.00000E+00 0.00000E+00 0.00000E+00 0.00000E+00 0.00000E+00
 -1      4316 0.00000E+00 0.00000E+00 0.00000E+00 0.00000E+00 0.00000E+00 0.00000E+00
 -1      4317 0.00000E+00 0.00000E+00 0.00000E+00 0.00000E+00 0.00000E+00 0.00000E+00
 -1      4318 0.00000E+00 0.00000E+00 0.00000E+00 0.00000E+00 0.00000E+00 0.00000E+00
 -1      4319 0.00000E+00 0.00000E+00 0.00000E+00 0.00000E+00 0.00000E+00 0.00000E+00
 -1      4320 0.00000E+00 0.00000E+00 0.00000E+00 0.00000E+00 0.00000E+00 0.00000E+00
 -1      4321 0.00000E+00 0.00000E+00 0.00000E+00 0.00000E+00 0.00000E+00 0.00000E+00
 -1      4322 0.00000E+00 0.00000E+00 0.00000E+00 0.00000E+00 0.00000E+00 0.00000E+00
 -1      4323 0.00000E+00 0.00000E+00 0.00000E+00 0.00000E+00 0.00000E+00 0.00000E+00
 -1      4324 0.00000E+00 0.00000E+00 0.00000E+00 0.00000E+00 0.00000E+00 0.00000E+00
 -1      4325 0.00000E+00 0.00000E+00 0.00000E+00 0.00000E+00 0.00000E+00 0.00000E+00
 -1      4326 0.00000E+00 0.00000E+00 0.00000E+00 0.00000E+00 0.00000E+00 0.00000E+00
 -1      4327 0.00000E+00 0.00000E+00 0.00000E+00 0.00000E+00 0.00000E+00 0.00000E+00
 -1      4328 0.00000E+00 0.00000E+00 0.00000E+00 0.00000E+00 0.00000E+00 0.00000E+00
 -1      4329 0.00000E+00 0.00000E+00 0.00000E+00 0.00000E+00 0.00000E+00 0.00000E+00
 -1      4330 0.00000E+00 0.00000E+00 0.00000E+00 0.00000E+00 0.00000E+00 0.00000E+00
 -1      4331 0.00000E+00 0.00000E+00 0.00000E+00 0.00000E+00 0.00000E+00 0.00000E+00
 -1      4332 0.00000E+00 0.00000E+00 0.00000E+00 0.00000E+00 0.00000E+00 0.00000E+00
 -1      4333 0.00000E+00 0.00000E+00 0.00000E+00 0.00000E+00 0.00000E+00 0.00000E+00
 -1      4334 0.00000E+00 0.00000E+00 0.00000E+00 0.00000E+00 0.00000E+00 0.00000E+00
 -1      4335 0.00000E+00 0.00000E+00 0.00000E+00 0.00000E+00 0.00000E+00 0.00000E+00
 -1      4336 0.00000E+00 0.00000E+00 0.00000E+00 0.00000E+00 0.00000E+00 0.00000E+00
 -1      4337 0.00000E+00 0.00000E+00 0.00000E+00 0.00000E+00 0.00000E+00 0.00000E+00
 -1      4338 0.00000E+00 0.00000E+00 0.00000E+00 0.00000E+00 0.00000E+00 0.00000E+00
 -1      4339 0.00000E+00 0.00000E+00 0.00000E+00 0.00000E+00 0.00000E+00 0.00000E+00
 -1      4340 0.00000E+00 0.00000E+00 0.00000E+00 0.00000E+00 0.00000E+00 0.00000E+00
 -1      4341 0.00000E+00 0.00000E+00 0.00000E+00 0.00000E+00 0.00000E+00 0.00000E+00
 -1      4342 0.00000E+00 0.00000E+00 0.00000E+00 0.00000E+00 0.00000E+00 0.00000E+00
 -1      4343 0.00000E+00 0.00000E+00 0.00000E+00 0.00000E+00 0.00000E+00 0.00000E+00
 -1      4344 0.00000E+00 0.00000E+00 0.00000E+00 0.00000E+00 0.00000E+00 0.00000E+00
 -1      4345 0.00000E+00 0.00000E+00 0.00000E+00 0.00000E+00 0.00000E+00 0.00000E+00
 -1      4346 0.00000E+00 0.00000E+00 0.00000E+00 0.00000E+00 0.00000E+00 0.00000E+00
 -1      4347 0.00000E+00 0.00000E+00 0.00000E+00 0.00000E+00 0.00000E+00 0.00000E+00
 -1      4348 0.00000E+00 0.00000E+00 0.00000E+00 0.00000E+00 0.00000E+00 0.00000E+00
 -1      4349 0.00000E+00 0.00000E+00 0.00000E+00 0.00000E+00 0.00000E+00 0.00000E+00
 -1      4350 0.00000E+00 0.00000E+00 0.00000E+00 0.00000E+00 0.00000E+00 0.00000E+00
 -1      4351 0.00000E+00 0.00000E+00 0.00000E+00 0.00000E+00 0.00000E+00 0.00000E+00
 -1      4352 0.00000E+00 0.00000E+00 0.00000E+00 0.00000E+00 0.00000E+00 0.00000E+00
 -1      4353 0.00000E+00 0.00000E+00 0.00000E+00 0.00000E+00 0.00000E+00 0.00000E+00
 -1      4354 0.00000E+00 0.00000E+00 0.00000E+00 0.00000E+00 0.00000E+00 0.00000E+00
 -1      4355 0.00000E+00 0.00000E+00 0.00000E+00 0.00000E+00 0.00000E+00 0.00000E+00
 -1      4356 0.00000E+00 0.00000E+00 0.00000E+00 0.00000E+00 0.00000E+00 0.00000E+00
 -1      4357 0.00000E+00 0.00000E+00 0.00000E+00 0.00000E+00 0.00000E+00 0.00000E+00
 -1      4358 0.00000E+00 0.00000E+00 0.00000E+00 0.00000E+00 0.00000E+00 0.00000E+00
 -1      4359 0.00000E+00 0.00000E+00 0.00000E+00 0.00000E+00 0.00000E+00 0.00000E+00
 -1      4360 0.00000E+00 0.00000E+00 0.00000E+00 0.00000E+00 0.00000E+00 0.00000E+00
 -1      4361 0.00000E+00 0.00000E+00 0.00000E+00 0.00000E+00 0.00000E+00 0.00000E+00
 -1      4362 0.00000E+00 0.00000E+00 0.00000E+00 0.00000E+00 0.00000E+00 0.00000E+00
 -1      4363 0.00000E+00 0.00000E+00 0.00000E+00 0.00000E+00 0.00000E+00 0.00000E+00
 -1      4364 0.00000E+00 0.00000E+00 0.00000E+00 0.00000E+00 0.00000E+00 0.00000E+00
 -1      4365 0.00000E+00 0.00000E+00 0.00000E+00 0.00000E+00 0.00000E+00 0.00000E+00
 -1      4366 0.00000E+00 0.00000E+00 0.00000E+00 0.00000E+00 0.00000E+00 0.00000E+00
 -1      4367 0.00000E+00 0.00000E+00 0.00000E+00 0.00000E+00 0.00000E+00 0.00000E+00
 -1      4368 0.00000E+00 0.00000E+00 0.00000E+00 0.00000E+00 0.00000E+00 0.00000E+00
 -1      4369 0.00000E+00 0.00000E+00 0.00000E+00 0.00000E+00 0.00000E+00 0.00000E+00
 -1      4370 0.00000E+00 0.00000E+00 0.00000E+00 0.00000E+00 0.00000E+00 0.00000E+00
 -1      4371 0.00000E+00 0.00000E+00 0.00000E+00 0.00000E+00 0.00000E+00 0.00000E+00
 -1      4372 0.00000E+00 0.00000E+00 0.00000E+00 0.00000E+00 0.00000E+00 0.00000E+00
 -1      4373 0.00000E+00 0.00000E+00 0.00000E+00 0.00000E+00 0.00000E+00 0.00000E+00
 -1      4374 0.00000E+00 0.00000E+00 0.00000E+00 0.00000E+00 0.00000E+00 0.00000E+00
 -1      4375 0.00000E+00 0.00000E+00 0.00000E+00 0.00000E+00 0.00000E+00 0.00000E+00
 -1      4376 0.00000E+00 0.00000E+00 0.00000E+00 0.00000E+00 0.00000E+00 0.00000E+00
 -1      4377 0.00000E+00 0.00000E+00 0.00000E+00 0.00000E+00 0.00000E+00 0.00000E+00
 -1      4378 0.00000E+00 0.00000E+00 0.00000E+00 0.00000E+00 0.00000E+00 0.00000E+00
 -1      4379 0.00000E+00 0.00000E+00 0.00000E+00 0.00000E+00 0.00000E+00 0.00000E+00
 -1      4380 0.00000E+00 0.00000E+00 0.00000E+00 0.00000E+00 0.00000E+00 0.00000E+00
 -1      4381 0.00000E+00 0.00000E+00 0.00000E+00 0.00000E+00 0.00000E+00 0.00000E+00
 -1      4382 0.00000E+00 0.00000E+00 0.00000E+00 0.00000E+00 0.00000E+00 0.00000E+00
 -1      4383 0.00000E+00 0.00000E+00 0.00000E+00 0.00000E+00 0.00000E+00 0.00000E+00
 -1      4384 0.00000E+00 0.00000E+00 0.00000E+00 0.00000E+00 0.00000E+00 0.00000E+00
 -1      4385 0.00000E+00 0.00000E+00 0.00000E+00 0.00000E+00 0.00000E+00 0.00000E+00
 -1      4386 0.00000E+00 0.00000E+00 0.00000E+00 0.00000E+00 0.00000E+00 0.00000E+00
 -1      4387 0.00000E+00 0.00000E+00 0.00000E+00 0.00000E+00 0.00000E+00 0.00000E+00
 -1      4388 0.00000E+00 0.00000E+00 0.00000E+00 0.00000E+00 0.00000E+00 0.00000E+00
 -1      4389 0.00000E+00 0.00000E+00 0.00000E+00 0.00000E+00 0.00000E+00 0.00000E+00
 -1      4390 0.00000E+00 0.00000E+00 0.00000E+00 0.00000E+00 0.00000E+00 0.00000E+00
 -1      4391 0.00000E+00 0.00000E+00 0.00000E+00 0.00000E+00 0.00000E+00 0.00000E+00
 -1      4392 0.00000E+00 0.00000E+00 0.00000E+00 0.00000E+00 0.00000E+00 0.00000E+00
 -1      4393 0.00000E+00 0.00000E+00 0.00000E+00 0.00000E+00 0.00000E+00 0.00000E+00
 -1      4394 0.00000E+00 0.00000E+00 0.00000E+00 0.00000E+00 0.00000E+00 0.00000E+00
 -1      4395 0.00000E+00 0.00000E+00 0.00000E+00 0.00000E+00 0.00000E+00 0.00000E+00
 -1      4396 0.00000E+00 0.00000E+00 0.00000E+00 0.00000E+00 0.00000E+00 0.00000E+00
 -1      4397 0.00000E+00 0.00000E+00 0.00000E+00 0.00000E+00 0.00000E+00 0.00000E+00
 -1      4398 0.00000E+00 0.00000E+00 0.00000E+00 0.00000E+00 0.00000E+00 0.00000E+00
 -1      4399 0.00000E+00 0.00000E+00 0.00000E+00 0.00000E+00 0.00000E+00 0.00000E+00
 -1      4400 0.00000E+00 0.00000E+00 0.00000E+00 0.00000E+00 0.00000E+00 0.00000E+00
 -1      4401 0.00000E+00 0.00000E+00 0.00000E+00 0.00000E+00 0.00000E+00 0.00000E+00
 -1      4402 0.00000E+00 0.00000E+00 0.00000E+00 0.00000E+00 0.00000E+00 0.00000E+00
 -1      4403 0.00000E+00 0.00000E+00 0.00000E+00 0.00000E+00 0.00000E+00 0.00000E+00
 -1      4404 0.00000E+00 0.00000E+00 0.00000E+00 0.00000E+00 0.00000E+00 0.00000E+00
 -1      4405 0.00000E+00 0.00000E+00 0.00000E+00 0.00000E+00 0.00000E+00 0.00000E+00
 -1      4406 0.00000E+00 0.00000E+00 0.00000E+00 0.00000E+00 0.00000E+00 0.00000E+00
 -1      4407 0.00000E+00 0.00000E+00 0.00000E+00 0.00000E+00 0.00000E+00 0.00000E+00
 -1      4408 0.00000E+00 0.00000E+00 0.00000E+00 0.00000E+00 0.00000E+00 0.00000E+00
 -1      4409 0.00000E+00 0.00000E+00 0.00000E+00 0.00000E+00 0.00000E+00 0.00000E+00
 -1      4410 0.00000E+00 0.00000E+00 0.00000E+00 0.00000E+00 0.00000E+00 0.00000E+00
 -1      4411 0.00000E+00 0.00000E+00 0.00000E+00 0.00000E+00 0.00000E+00 0.00000E+00
 -1      4412 0.00000E+00 0.00000E+00 0.00000E+00 0.00000E+00 0.00000E+00 0.00000E+00
 -1      4413 0.00000E+00 0.00000E+00 0.00000E+00 0.00000E+00 0.00000E+00 0.00000E+00
 -1      4414 0.00000E+00 0.00000E+00 0.00000E+00 0.00000E+00 0.00000E+00 0.00000E+00
 -1      4415 0.00000E+00 0.00000E+00 0.00000E+00 0.00000E+00 0.00000E+00 0.00000E+00
 -1      4416 0.00000E+00 0.00000E+00 0.00000E+00 0.00000E+00 0.00000E+00 0.00000E+00
 -1      4417 0.00000E+00 0.00000E+00 0.00000E+00 0.00000E+00 0.00000E+00 0.00000E+00
 -1      4418 0.00000E+00 0.00000E+00 0.00000E+00 0.00000E+00 0.00000E+00 0.00000E+00
 -1      4419 0.00000E+00 0.00000E+00 0.00000E+00 0.00000E+00 0.00000E+00 0.00000E+00
 -1      4420 0.00000E+00 0.00000E+00 0.00000E+00 0.00000E+00 0.00000E+00 0.00000E+00
 -1      4421 0.00000E+00 0.00000E+00 0.00000E+00 0.00000E+00 0.00000E+00 0.00000E+00
 -1      4422 0.00000E+00 0.00000E+00 0.00000E+00 0.00000E+00 0.00000E+00 0.00000E+00
 -1      4423 0.00000E+00 0.00000E+00 0.00000E+00 0.00000E+00 0.00000E+00 0.00000E+00
 -1      4424 0.00000E+00 0.00000E+00 0.00000E+00 0.00000E+00 0.00000E+00 0.00000E+00
 -1      4425 0.00000E+00 0.00000E+00 0.00000E+00 0.00000E+00 0.00000E+00 0.00000E+00
 -1      4426 0.00000E+00 0.00000E+00 0.00000E+00 0.00000E+00 0.00000E+00 0.00000E+00
 -1      4427 0.00000E+00 0.00000E+00 0.00000E+00 0.00000E+00 0.00000E+00 0.00000E+00
 -1      4428 0.00000E+00 0.00000E+00 0.00000E+00 0.00000E+00 0.00000E+00 0.00000E+00
 -1      4429 0.00000E+00 0.00000E+00 0.00000E+00 0.00000E+00 0.00000E+00 0.00000E+00
 -1      4430 0.00000E+00 0.00000E+00 0.00000E+00 0.00000E+00 0.00000E+00 0.00000E+00
 -1      4431 0.00000E+00 0.00000E+00 0.00000E+00 0.00000E+00 0.00000E+00 0.00000E+00
 -1      4432 0.00000E+00 0.00000E+00 0.00000E+00 0.00000E+00 0.00000E+00 0.00000E+00
 -1      4433 0.00000E+00 0.00000E+00 0.00000E+00 0.00000E+00 0.00000E+00 0.00000E+00
 -1      4434 0.00000E+00 0.00000E+00 0.00000E+00 0.00000E+00 0.00000E+00 0.00000E+00
 -1      4435 0.00000E+00 0.00000E+00 0.00000E+00 0.00000E+00 0.00000E+00 0.00000E+00
 -1      4436 0.00000E+00 0.00000E+00 0.00000E+00 0.00000E+00 0.00000E+00 0.00000E+00
 -1      4437 0.00000E+00 0.00000E+00 0.00000E+00 0.00000E+00 0.00000E+00 0.00000E+00
 -1      4438 0.00000E+00 0.00000E+00 0.00000E+00 0.00000E+00 0.00000E+00 0.00000E+00
 -1      4439 0.00000E+00 0.00000E+00 0.00000E+00 0.00000E+00 0.00000E+00 0.00000E+00
 -1      4440 0.00000E+00 0.00000E+00 0.00000E+00 0.00000E+00 0.00000E+00 0.00000E+00
 -1      4441 0.00000E+00 0.00000E+00 0.00000E+00 0.00000E+00 0.00000E+00 0.00000E+00
 -1      4442 0.00000E+00 0.00000E+00 0.00000E+00 0.00000E+00 0.00000E+00 0.00000E+00
 -1      4443 0.00000E+00 0.00000E+00 0.00000E+00 0.00000E+00 0.00000E+00 0.00000E+00
 -1      4444 0.00000E+00 0.00000E+00 0.00000E+00 0.00000E+00 0.00000E+00 0.00000E+00
 -1      4445 0.00000E+00 0.00000E+00 0.00000E+00 0.00000E+00 0.00000E+00 0.00000E+00
 -1      4446 0.00000E+00 0.00000E+00 0.00000E+00 0.00000E+00 0.00000E+00 0.00000E+00
 -1      4447 0.00000E+00 0.00000E+00 0.00000E+00 0.00000E+00 0.00000E+00 0.00000E+00
 -1      4448 0.00000E+00 0.00000E+00 0.00000E+00 0.00000E+00 0.00000E+00 0.00000E+00
 -1      4449 0.00000E+00 0.00000E+00 0.00000E+00 0.00000E+00 0.00000E+00 0.00000E+00
 -1      4450 0.00000E+00 0.00000E+00 0.00000E+00 0.00000E+00 0.00000E+00 0.00000E+00
 -1      4451 0.00000E+00 0.00000E+00 0.00000E+00 0.00000E+00 0.00000E+00 0.00000E+00
 -1      4452 0.00000E+00 0.00000E+00 0.00000E+00 0.00000E+00 0.00000E+00 0.00000E+00
 -1      4453 0.00000E+00 0.00000E+00 0.00000E+00 0.00000E+00 0.00000E+00 0.00000E+00
 -1      4454 0.00000E+00 0.00000E+00 0.00000E+00 0.00000E+00 0.00000E+00 0.00000E+00
 -1      4455 0.00000E+00 0.00000E+00 0.00000E+00 0.00000E+00 0.00000E+00 0.00000E+00
 -1      4456 0.00000E+00 0.00000E+00 0.00000E+00 0.00000E+00 0.00000E+00 0.00000E+00
 -1      4457 0.00000E+00 0.00000E+00 0.00000E+00 0.00000E+00 0.00000E+00 0.00000E+00
 -1      4458 0.00000E+00 0.00000E+00 0.00000E+00 0.00000E+00 0.00000E+00 0.00000E+00
 -1      4459 0.00000E+00 0.00000E+00 0.00000E+00 0.00000E+00 0.00000E+00 0.00000E+00
 -1      4460 0.00000E+00 0.00000E+00 0.00000E+00 0.00000E+00 0.00000E+00 0.00000E+00
 -1      4461 0.00000E+00 0.00000E+00 0.00000E+00 0.00000E+00 0.00000E+00 0.00000E+00
 -1      4462 0.00000E+00 0.00000E+00 0.00000E+00 0.00000E+00 0.00000E+00 0.00000E+00
 -1      4463 0.00000E+00 0.00000E+00 0.00000E+00 0.00000E+00 0.00000E+00 0.00000E+00
 -1      4464 0.00000E+00 0.00000E+00 0.00000E+00 0.00000E+00 0.00000E+00 0.00000E+00
 -1      4465 0.00000E+00 0.00000E+00 0.00000E+00 0.00000E+00 0.00000E+00 0.00000E+00
 -1      4466 0.00000E+00 0.00000E+00 0.00000E+00 0.00000E+00 0.00000E+00 0.00000E+00
 -1      4467 0.00000E+00 0.00000E+00 0.00000E+00 0.00000E+00 0.00000E+00 0.00000E+00
 -1      4468 0.00000E+00 0.00000E+00 0.00000E+00 0.00000E+00 0.00000E+00 0.00000E+00
 -1      4469 0.00000E+00 0.00000E+00 0.00000E+00 0.00000E+00 0.00000E+00 0.00000E+00
 -1      4470 0.00000E+00 0.00000E+00 0.00000E+00 0.00000E+00 0.00000E+00 0.00000E+00
 -1      4471 0.00000E+00 0.00000E+00 0.00000E+00 0.00000E+00 0.00000E+00 0.00000E+00
 -1      4472 0.00000E+00 0.00000E+00 0.00000E+00 0.00000E+00 0.00000E+00 0.00000E+00
 -1      4473 0.00000E+00 0.00000E+00 0.00000E+00 0.00000E+00 0.00000E+00 0.00000E+00
 -1      4474 0.00000E+00 0.00000E+00 0.00000E+00 0.00000E+00 0.00000E+00 0.00000E+00
 -1      4475 0.00000E+00 0.00000E+00 0.00000E+00 0.00000E+00 0.00000E+00 0.00000E+00
 -1      4476 0.00000E+00 0.00000E+00 0.00000E+00 0.00000E+00 0.00000E+00 0.00000E+00
 -1      4477 0.00000E+00 0.00000E+00 0.00000E+00 0.00000E+00 0.00000E+00 0.00000E+00
 -1      4478 0.00000E+00 0.00000E+00 0.00000E+00 0.00000E+00 0.00000E+00 0.00000E+00
 -1      4479 0.00000E+00 0.00000E+00 0.00000E+00 0.00000E+00 0.00000E+00 0.00000E+00
 -1      4480 0.00000E+00 0.00000E+00 0.00000E+00 0.00000E+00 0.00000E+00 0.00000E+00
 -1      4481 0.00000E+00 0.00000E+00 0.00000E+00 0.00000E+00 0.00000E+00 0.00000E+00
 -1      4482 0.00000E+00 0.00000E+00 0.00000E+00 0.00000E+00 0.00000E+00 0.00000E+00
 -1      4483 0.00000E+00 0.00000E+00 0.00000E+00 0.00000E+00 0.00000E+00 0.00000E+00
 -1      4484 0.00000E+00 0.00000E+00 0.00000E+00 0.00000E+00 0.00000E+00 0.00000E+00
 -1      4485 0.00000E+00 0.00000E+00 0.00000E+00 0.00000E+00 0.00000E+00 0.00000E+00
 -1      4486 0.00000E+00 0.00000E+00 0.00000E+00 0.00000E+00 0.00000E+00 0.00000E+00
 -1      4487 0.00000E+00 0.00000E+00 0.00000E+00 0.00000E+00 0.00000E+00 0.00000E+00
 -1      4488 0.00000E+00 0.00000E+00 0.00000E+00 0.00000E+00 0.00000E+00 0.00000E+00
 -1      4489 0.00000E+00 0.00000E+00 0.00000E+00 0.00000E+00 0.00000E+00 0.00000E+00
 -1      4490 0.00000E+00 0.00000E+00 0.00000E+00 0.00000E+00 0.00000E+00 0.00000E+00
 -1      4491 0.00000E+00 0.00000E+00 0.00000E+00 0.00000E+00 0.00000E+00 0.00000E+00
 -1      4492 0.00000E+00 0.00000E+00 0.00000E+00 0.00000E+00 0.00000E+00 0.00000E+00
 -1      4493 0.00000E+00 0.00000E+00 0.00000E+00 0.00000E+00 0.00000E+00 0.00000E+00
 -1      4494 0.00000E+00 0.00000E+00 0.00000E+00 0.00000E+00 0.00000E+00 0.00000E+00
 -1      4495 0.00000E+00 0.00000E+00 0.00000E+00 0.00000E+00 0.00000E+00 0.00000E+00
 -1      4496 0.00000E+00 0.00000E+00 0.00000E+00 0.00000E+00 0.00000E+00 0.00000E+00
 -1      4497 0.00000E+00 0.00000E+00 0.00000E+00 0.00000E+00 0.00000E+00 0.00000E+00
 -1      4498 0.00000E+00 0.00000E+00 0.00000E+00 0.00000E+00 0.00000E+00 0.00000E+00
 -1      4499 0.00000E+00 0.00000E+00 0.00000E+00 0.00000E+00 0.00000E+00 0.00000E+00
 -1      4500 0.00000E+00 0.00000E+00 0.00000E+00 0.00000E+00 0.00000E+00 0.00000E+00
 -1      4501 0.00000E+00 0.00000E+00 0.00000E+00 0.00000E+00 0.00000E+00 0.00000E+00
 -1      4502 0.00000E+00 0.00000E+00 0.00000E+00 0.00000E+00 0.00000E+00 0.00000E+00
 -1      4503 0.00000E+00 0.00000E+00 0.00000E+00 0.00000E+00 0.00000E+00 0.00000E+00
 -1      4504 0.00000E+00 0.00000E+00 0.00000E+00 0.00000E+00 0.00000E+00 0.00000E+00
 -1      4505 0.00000E+00 0.00000E+00 0.00000E+00 0.00000E+00 0.00000E+00 0.00000E+00
 -1      4506 0.00000E+00 0.00000E+00 0.00000E+00 0.00000E+00 0.00000E+00 0.00000E+00
 -1      4507 0.00000E+00 0.00000E+00 0.00000E+00 0.00000E+00 0.00000E+00 0.00000E+00
 -1      4508 0.00000E+00 0.00000E+00 0.00000E+00 0.00000E+00 0.00000E+00 0.00000E+00
 -1      4509 0.00000E+00 0.00000E+00 0.00000E+00 0.00000E+00 0.00000E+00 0.00000E+00
 -1      4510 0.00000E+00 0.00000E+00 0.00000E+00 0.00000E+00 0.00000E+00 0.00000E+00
 -1      4511 0.00000E+00 0.00000E+00 0.00000E+00 0.00000E+00 0.00000E+00 0.00000E+00
 -1      4512 0.00000E+00 0.00000E+00 0.00000E+00 0.00000E+00 0.00000E+00 0.00000E+00
 -1      4513 0.00000E+00 0.00000E+00 0.00000E+00 0.00000E+00 0.00000E+00 0.00000E+00
 -1      4514 0.00000E+00 0.00000E+00 0.00000E+00 0.00000E+00 0.00000E+00 0.00000E+00
 -1      4515 0.00000E+00 0.00000E+00 0.00000E+00 0.00000E+00 0.00000E+00 0.00000E+00
 -1      4516 0.00000E+00 0.00000E+00 0.00000E+00 0.00000E+00 0.00000E+00 0.00000E+00
 -1      4517 0.00000E+00 0.00000E+00 0.00000E+00 0.00000E+00 0.00000E+00 0.00000E+00
 -1      4518 0.00000E+00 0.00000E+00 0.00000E+00 0.00000E+00 0.00000E+00 0.00000E+00
 -1      4519 0.00000E+00 0.00000E+00 0.00000E+00 0.00000E+00 0.00000E+00 0.00000E+00
 -1      4520 0.00000E+00 0.00000E+00 0.00000E+00 0.00000E+00 0.00000E+00 0.00000E+00
 -1      4521 0.00000E+00 0.00000E+00 0.00000E+00 0.00000E+00 0.00000E+00 0.00000E+00
 -1      4522 0.00000E+00 0.00000E+00 0.00000E+00 0.00000E+00 0.00000E+00 0.00000E+00
 -1      4523 0.00000E+00 0.00000E+00 0.00000E+00 0.00000E+00 0.00000E+00 0.00000E+00
 -1      4524 0.00000E+00 0.00000E+00 0.00000E+00 0.00000E+00 0.00000E+00 0.00000E+00
 -1      4525 0.00000E+00 0.00000E+00 0.00000E+00 0.00000E+00 0.00000E+00 0.00000E+00
 -1      4526 0.00000E+00 0.00000E+00 0.00000E+00 0.00000E+00 0.00000E+00 0.00000E+00
 -1      4527 0.00000E+00 0.00000E+00 0.00000E+00 0.00000E+00 0.00000E+00 0.00000E+00
 -1      4528 0.00000E+00 0.00000E+00 0.00000E+00 0.00000E+00 0.00000E+00 0.00000E+00
 -1      4529 0.00000E+00 0.00000E+00 0.00000E+00 0.00000E+00 0.00000E+00 0.00000E+00
 -1      4530 0.00000E+00 0.00000E+00 0.00000E+00 0.00000E+00 0.00000E+00 0.00000E+00
 -1      4531 0.00000E+00 0.00000E+00 0.00000E+00 0.00000E+00 0.00000E+00 0.00000E+00
 -1      4532 0.00000E+00 0.00000E+00 0.00000E+00 0.00000E+00 0.00000E+00 0.00000E+00
 -1      4533 0.00000E+00 0.00000E+00 0.00000E+00 0.00000E+00 0.00000E+00 0.00000E+00
 -1      4534 0.00000E+00 0.00000E+00 0.00000E+00 0.00000E+00 0.00000E+00 0.00000E+00
 -1      4535 0.00000E+00 0.00000E+00 0.00000E+00 0.00000E+00 0.00000E+00 0.00000E+00
 -1      4536 0.00000E+00 0.00000E+00 0.00000E+00 0.00000E+00 0.00000E+00 0.00000E+00
 -1      4537 0.00000E+00 0.00000E+00 0.00000E+00 0.00000E+00 0.00000E+00 0.00000E+00
 -1      4538 0.00000E+00 0.00000E+00 0.00000E+00 0.00000E+00 0.00000E+00 0.00000E+00
 -1      4539 0.00000E+00 0.00000E+00 0.00000E+00 0.00000E+00 0.00000E+00 0.00000E+00
 -1      4540 0.00000E+00 0.00000E+00 0.00000E+00 0.00000E+00 0.00000E+00 0.00000E+00
 -1      4541 0.00000E+00 0.00000E+00 0.00000E+00 0.00000E+00 0.00000E+00 0.00000E+00
 -1      4542 0.00000E+00 0.00000E+00 0.00000E+00 0.00000E+00 0.00000E+00 0.00000E+00
 -1      4543 0.00000E+00 0.00000E+00 0.00000E+00 0.00000E+00 0.00000E+00 0.00000E+00
 -1      4544 0.00000E+00 0.00000E+00 0.00000E+00 0.00000E+00 0.00000E+00 0.00000E+00
 -1      4545 0.00000E+00 0.00000E+00 0.00000E+00 0.00000E+00 0.00000E+00 0.00000E+00
 -1      4546 0.00000E+00 0.00000E+00 0.00000E+00 0.00000E+00 0.00000E+00 0.00000E+00
 -1      4547 0.00000E+00 0.00000E+00 0.00000E+00 0.00000E+00 0.00000E+00 0.00000E+00
 -1      4548 0.00000E+00 0.00000E+00 0.00000E+00 0.00000E+00 0.00000E+00 0.00000E+00
 -1      4549 0.00000E+00 0.00000E+00 0.00000E+00 0.00000E+00 0.00000E+00 0.00000E+00
 -1      4550 0.00000E+00 0.00000E+00 0.00000E+00 0.00000E+00 0.00000E+00 0.00000E+00
 -1      4551 0.00000E+00 0.00000E+00 0.00000E+00 0.00000E+00 0.00000E+00 0.00000E+00
 -1      4552 0.00000E+00 0.00000E+00 0.00000E+00 0.00000E+00 0.00000E+00 0.00000E+00
 -1      4553 0.00000E+00 0.00000E+00 0.00000E+00 0.00000E+00 0.00000E+00 0.00000E+00
 -1      4554 0.00000E+00 0.00000E+00 0.00000E+00 0.00000E+00 0.00000E+00 0.00000E+00
 -1      4555 0.00000E+00 0.00000E+00 0.00000E+00 0.00000E+00 0.00000E+00 0.00000E+00
 -1      4556 0.00000E+00 0.00000E+00 0.00000E+00 0.00000E+00 0.00000E+00 0.00000E+00
 -1      4557 0.00000E+00 0.00000E+00 0.00000E+00 0.00000E+00 0.00000E+00 0.00000E+00
 -1      4558 0.00000E+00 0.00000E+00 0.00000E+00 0.00000E+00 0.00000E+00 0.00000E+00
 -1      4559 0.00000E+00 0.00000E+00 0.00000E+00 0.00000E+00 0.00000E+00 0.00000E+00
 -1      4560 0.00000E+00 0.00000E+00 0.00000E+00 0.00000E+00 0.00000E+00 0.00000E+00
 -1      4561 0.00000E+00 0.00000E+00 0.00000E+00 0.00000E+00 0.00000E+00 0.00000E+00
 -1      4562 0.00000E+00 0.00000E+00 0.00000E+00 0.00000E+00 0.00000E+00 0.00000E+00
 -1      4563 0.00000E+00 0.00000E+00 0.00000E+00 0.00000E+00 0.00000E+00 0.00000E+00
 -1      4564 0.00000E+00 0.00000E+00 0.00000E+00 0.00000E+00 0.00000E+00 0.00000E+00
 -1      4565 0.00000E+00 0.00000E+00 0.00000E+00 0.00000E+00 0.00000E+00 0.00000E+00
 -1      4566 0.00000E+00 0.00000E+00 0.00000E+00 0.00000E+00 0.00000E+00 0.00000E+00
 -1      4567 0.00000E+00 0.00000E+00 0.00000E+00 0.00000E+00 0.00000E+00 0.00000E+00
 -1      4568 0.00000E+00 0.00000E+00 0.00000E+00 0.00000E+00 0.00000E+00 0.00000E+00
 -1      4569 0.00000E+00 0.00000E+00 0.00000E+00 0.00000E+00 0.00000E+00 0.00000E+00
 -1      4570 0.00000E+00 0.00000E+00 0.00000E+00 0.00000E+00 0.00000E+00 0.00000E+00
 -1      4571 0.00000E+00 0.00000E+00 0.00000E+00 0.00000E+00 0.00000E+00 0.00000E+00
 -1      4572 0.00000E+00 0.00000E+00 0.00000E+00 0.00000E+00 0.00000E+00 0.00000E+00
 -1      4573 0.00000E+00 0.00000E+00 0.00000E+00 0.00000E+00 0.00000E+00 0.00000E+00
 -1      4574 0.00000E+00 0.00000E+00 0.00000E+00 0.00000E+00 0.00000E+00 0.00000E+00
 -1      4575 0.00000E+00 0.00000E+00 0.00000E+00 0.00000E+00 0.00000E+00 0.00000E+00
 -1      4576 0.00000E+00 0.00000E+00 0.00000E+00 0.00000E+00 0.00000E+00 0.00000E+00
 -1      4577 0.00000E+00 0.00000E+00 0.00000E+00 0.00000E+00 0.00000E+00 0.00000E+00
 -1      4578 0.00000E+00 0.00000E+00 0.00000E+00 0.00000E+00 0.00000E+00 0.00000E+00
 -1      4579 0.00000E+00 0.00000E+00 0.00000E+00 0.00000E+00 0.00000E+00 0.00000E+00
 -1      4580 0.00000E+00 0.00000E+00 0.00000E+00 0.00000E+00 0.00000E+00 0.00000E+00
 -1      4581 0.00000E+00 0.00000E+00 0.00000E+00 0.00000E+00 0.00000E+00 0.00000E+00
 -1      4582 0.00000E+00 0.00000E+00 0.00000E+00 0.00000E+00 0.00000E+00 0.00000E+00
 -1      4583 0.00000E+00 0.00000E+00 0.00000E+00 0.00000E+00 0.00000E+00 0.00000E+00
 -1      4584 0.00000E+00 0.00000E+00 0.00000E+00 0.00000E+00 0.00000E+00 0.00000E+00
 -1      4585 0.00000E+00 0.00000E+00 0.00000E+00 0.00000E+00 0.00000E+00 0.00000E+00
 -1      4586 0.00000E+00 0.00000E+00 0.00000E+00 0.00000E+00 0.00000E+00 0.00000E+00
 -1      4587 0.00000E+00 0.00000E+00 0.00000E+00 0.00000E+00 0.00000E+00 0.00000E+00
 -1      4588 0.00000E+00 0.00000E+00 0.00000E+00 0.00000E+00 0.00000E+00 0.00000E+00
 -1      4589 0.00000E+00 0.00000E+00 0.00000E+00 0.00000E+00 0.00000E+00 0.00000E+00
 -1      4590 0.00000E+00 0.00000E+00 0.00000E+00 0.00000E+00 0.00000E+00 0.00000E+00
 -1      4591 0.00000E+00 0.00000E+00 0.00000E+00 0.00000E+00 0.00000E+00 0.00000E+00
 -1      4592 0.00000E+00 0.00000E+00 0.00000E+00 0.00000E+00 0.00000E+00 0.00000E+00
 -1      4593 0.00000E+00 0.00000E+00 0.00000E+00 0.00000E+00 0.00000E+00 0.00000E+00
 -1      4594 0.00000E+00 0.00000E+00 0.00000E+00 0.00000E+00 0.00000E+00 0.00000E+00
 -1      4595 0.00000E+00 0.00000E+00 0.00000E+00 0.00000E+00 0.00000E+00 0.00000E+00
 -1      4596 0.00000E+00 0.00000E+00 0.00000E+00 0.00000E+00 0.00000E+00 0.00000E+00
 -1      4597 0.00000E+00 0.00000E+00 0.00000E+00 0.00000E+00 0.00000E+00 0.00000E+00
 -1      4598 0.00000E+00 0.00000E+00 0.00000E+00 0.00000E+00 0.00000E+00 0.00000E+00
 -1      4599 0.00000E+00 0.00000E+00 0.00000E+00 0.00000E+00 0.00000E+00 0.00000E+00
 -1      4600 0.00000E+00 0.00000E+00 0.00000E+00 0.00000E+00 0.00000E+00 0.00000E+00
 -1      4601 0.00000E+00 0.00000E+00 0.00000E+00 0.00000E+00 0.00000E+00 0.00000E+00
 -1      4602 0.00000E+00 0.00000E+00 0.00000E+00 0.00000E+00 0.00000E+00 0.00000E+00
 -1      4603 0.00000E+00 0.00000E+00 0.00000E+00 0.00000E+00 0.00000E+00 0.00000E+00
 -1      4604 0.00000E+00 0.00000E+00 0.00000E+00 0.00000E+00 0.00000E+00 0.00000E+00
 -1      4605 0.00000E+00 0.00000E+00 0.00000E+00 0.00000E+00 0.00000E+00 0.00000E+00
 -1      4606 0.00000E+00 0.00000E+00 0.00000E+00 0.00000E+00 0.00000E+00 0.00000E+00
 -1      4607 0.00000E+00 0.00000E+00 0.00000E+00 0.00000E+00 0.00000E+00 0.00000E+00
 -1      4608 0.00000E+00 0.00000E+00 0.00000E+00 0.00000E+00 0.00000E+00 0.00000E+00
 -1      4609 0.00000E+00 0.00000E+00 0.00000E+00 0.00000E+00 0.00000E+00 0.00000E+00
 -1      4610 0.00000E+00 0.00000E+00 0.00000E+00 0.00000E+00 0.00000E+00 0.00000E+00
 -1      4611 0.00000E+00 0.00000E+00 0.00000E+00 0.00000E+00 0.00000E+00 0.00000E+00
 -1      4612 0.00000E+00 0.00000E+00 0.00000E+00 0.00000E+00 0.00000E+00 0.00000E+00
 -1      4613 0.00000E+00 0.00000E+00 0.00000E+00 0.00000E+00 0.00000E+00 0.00000E+00
 -1      4614 0.00000E+00 0.00000E+00 0.00000E+00 0.00000E+00 0.00000E+00 0.00000E+00
 -1      4615 0.00000E+00 0.00000E+00 0.00000E+00 0.00000E+00 0.00000E+00 0.00000E+00
 -1      4616 0.00000E+00 0.00000E+00 0.00000E+00 0.00000E+00 0.00000E+00 0.00000E+00
 -1      4617 0.00000E+00 0.00000E+00 0.00000E+00 0.00000E+00 0.00000E+00 0.00000E+00
 -1      4618 0.00000E+00 0.00000E+00 0.00000E+00 0.00000E+00 0.00000E+00 0.00000E+00
 -1      4619 0.00000E+00 0.00000E+00 0.00000E+00 0.00000E+00 0.00000E+00 0.00000E+00
 -1      4620 0.00000E+00 0.00000E+00 0.00000E+00 0.00000E+00 0.00000E+00 0.00000E+00
 -1      4621 0.00000E+00 0.00000E+00 0.00000E+00 0.00000E+00 0.00000E+00 0.00000E+00
 -1      4622 0.00000E+00 0.00000E+00 0.00000E+00 0.00000E+00 0.00000E+00 0.00000E+00
 -1      4623 0.00000E+00 0.00000E+00 0.00000E+00 0.00000E+00 0.00000E+00 0.00000E+00
 -1      4624 0.00000E+00 0.00000E+00 0.00000E+00 0.00000E+00 0.00000E+00 0.00000E+00
 -1      4625 0.00000E+00 0.00000E+00 0.00000E+00 0.00000E+00 0.00000E+00 0.00000E+00
 -1      4626 0.00000E+00 0.00000E+00 0.00000E+00 0.00000E+00 0.00000E+00 0.00000E+00
 -1      4627 0.00000E+00 0.00000E+00 0.00000E+00 0.00000E+00 0.00000E+00 0.00000E+00
 -1      4628 0.00000E+00 0.00000E+00 0.00000E+00 0.00000E+00 0.00000E+00 0.00000E+00
 -1      4629 0.00000E+00 0.00000E+00 0.00000E+00 0.00000E+00 0.00000E+00 0.00000E+00
 -1      4630 0.00000E+00 0.00000E+00 0.00000E+00 0.00000E+00 0.00000E+00 0.00000E+00
 -1      4631 0.00000E+00 0.00000E+00 0.00000E+00 0.00000E+00 0.00000E+00 0.00000E+00
 -1      4632 0.00000E+00 0.00000E+00 0.00000E+00 0.00000E+00 0.00000E+00 0.00000E+00
 -1      4633 0.00000E+00 0.00000E+00 0.00000E+00 0.00000E+00 0.00000E+00 0.00000E+00
 -1      4634 0.00000E+00 0.00000E+00 0.00000E+00 0.00000E+00 0.00000E+00 0.00000E+00
 -1      4635 0.00000E+00 0.00000E+00 0.00000E+00 0.00000E+00 0.00000E+00 0.00000E+00
 -1      4636 0.00000E+00 0.00000E+00 0.00000E+00 0.00000E+00 0.00000E+00 0.00000E+00
 -1      4637 0.00000E+00 0.00000E+00 0.00000E+00 0.00000E+00 0.00000E+00 0.00000E+00
 -1      4638 0.00000E+00 0.00000E+00 0.00000E+00 0.00000E+00 0.00000E+00 0.00000E+00
 -1      4639 0.00000E+00 0.00000E+00 0.00000E+00 0.00000E+00 0.00000E+00 0.00000E+00
 -1      4640 0.00000E+00 0.00000E+00 0.00000E+00 0.00000E+00 0.00000E+00 0.00000E+00
 -1      4641 0.00000E+00 0.00000E+00 0.00000E+00 0.00000E+00 0.00000E+00 0.00000E+00
 -1      4642 0.00000E+00 0.00000E+00 0.00000E+00 0.00000E+00 0.00000E+00 0.00000E+00
 -1      4643 0.00000E+00 0.00000E+00 0.00000E+00 0.00000E+00 0.00000E+00 0.00000E+00
 -1      4644 0.00000E+00 0.00000E+00 0.00000E+00 0.00000E+00 0.00000E+00 0.00000E+00
 -1      4645 0.00000E+00 0.00000E+00 0.00000E+00 0.00000E+00 0.00000E+00 0.00000E+00
 -1      4646 0.00000E+00 0.00000E+00 0.00000E+00 0.00000E+00 0.00000E+00 0.00000E+00
 -1      4647 0.00000E+00 0.00000E+00 0.00000E+00 0.00000E+00 0.00000E+00 0.00000E+00
 -1      4648 0.00000E+00 0.00000E+00 0.00000E+00 0.00000E+00 0.00000E+00 0.00000E+00
 -1      4649 0.00000E+00 0.00000E+00 0.00000E+00 0.00000E+00 0.00000E+00 0.00000E+00
 -1      4650 0.00000E+00 0.00000E+00 0.00000E+00 0.00000E+00 0.00000E+00 0.00000E+00
 -1      4651 0.00000E+00 0.00000E+00 0.00000E+00 0.00000E+00 0.00000E+00 0.00000E+00
 -1      4652 0.00000E+00 0.00000E+00 0.00000E+00 0.00000E+00 0.00000E+00 0.00000E+00
 -1      4653 0.00000E+00 0.00000E+00 0.00000E+00 0.00000E+00 0.00000E+00 0.00000E+00
 -1      4654 0.00000E+00 0.00000E+00 0.00000E+00 0.00000E+00 0.00000E+00 0.00000E+00
 -1      4655 0.00000E+00 0.00000E+00 0.00000E+00 0.00000E+00 0.00000E+00 0.00000E+00
 -1      4656 0.00000E+00 0.00000E+00 0.00000E+00 0.00000E+00 0.00000E+00 0.00000E+00
 -1      4657 0.00000E+00 0.00000E+00 0.00000E+00 0.00000E+00 0.00000E+00 0.00000E+00
 -1      4658 0.00000E+00 0.00000E+00 0.00000E+00 0.00000E+00 0.00000E+00 0.00000E+00
 -1      4659 0.00000E+00 0.00000E+00 0.00000E+00 0.00000E+00 0.00000E+00 0.00000E+00
 -1      4660 0.00000E+00 0.00000E+00 0.00000E+00 0.00000E+00 0.00000E+00 0.00000E+00
 -1      4661 0.00000E+00 0.00000E+00 0.00000E+00 0.00000E+00 0.00000E+00 0.00000E+00
 -1      4662 0.00000E+00 0.00000E+00 0.00000E+00 0.00000E+00 0.00000E+00 0.00000E+00
 -1      4663 0.00000E+00 0.00000E+00 0.00000E+00 0.00000E+00 0.00000E+00 0.00000E+00
 -1      4664 0.00000E+00 0.00000E+00 0.00000E+00 0.00000E+00 0.00000E+00 0.00000E+00
 -1      4665 0.00000E+00 0.00000E+00 0.00000E+00 0.00000E+00 0.00000E+00 0.00000E+00
 -1      4666 0.00000E+00 0.00000E+00 0.00000E+00 0.00000E+00 0.00000E+00 0.00000E+00
 -1      4667 0.00000E+00 0.00000E+00 0.00000E+00 0.00000E+00 0.00000E+00 0.00000E+00
 -1      4668 0.00000E+00 0.00000E+00 0.00000E+00 0.00000E+00 0.00000E+00 0.00000E+00
 -1      4669 0.00000E+00 0.00000E+00 0.00000E+00 0.00000E+00 0.00000E+00 0.00000E+00
 -1      4670 0.00000E+00 0.00000E+00 0.00000E+00 0.00000E+00 0.00000E+00 0.00000E+00
 -1      4671 0.00000E+00 0.00000E+00 0.00000E+00 0.00000E+00 0.00000E+00 0.00000E+00
 -1      4672 0.00000E+00 0.00000E+00 0.00000E+00 0.00000E+00 0.00000E+00 0.00000E+00
 -1      4673 0.00000E+00 0.00000E+00 0.00000E+00 0.00000E+00 0.00000E+00 0.00000E+00
 -1      4674 0.00000E+00 0.00000E+00 0.00000E+00 0.00000E+00 0.00000E+00 0.00000E+00
 -1      4675 0.00000E+00 0.00000E+00 0.00000E+00 0.00000E+00 0.00000E+00 0.00000E+00
 -1      4676 0.00000E+00 0.00000E+00 0.00000E+00 0.00000E+00 0.00000E+00 0.00000E+00
 -1      4677 0.00000E+00 0.00000E+00 0.00000E+00 0.00000E+00 0.00000E+00 0.00000E+00
 -1      4678 0.00000E+00 0.00000E+00 0.00000E+00 0.00000E+00 0.00000E+00 0.00000E+00
 -1      4679 0.00000E+00 0.00000E+00 0.00000E+00 0.00000E+00 0.00000E+00 0.00000E+00
 -1      4680 0.00000E+00 0.00000E+00 0.00000E+00 0.00000E+00 0.00000E+00 0.00000E+00
 -1      4681 0.00000E+00 0.00000E+00 0.00000E+00 0.00000E+00 0.00000E+00 0.00000E+00
 -1      4682 0.00000E+00 0.00000E+00 0.00000E+00 0.00000E+00 0.00000E+00 0.00000E+00
 -1      4683 0.00000E+00 0.00000E+00 0.00000E+00 0.00000E+00 0.00000E+00 0.00000E+00
 -1      4684 0.00000E+00 0.00000E+00 0.00000E+00 0.00000E+00 0.00000E+00 0.00000E+00
 -1      4685 0.00000E+00 0.00000E+00 0.00000E+00 0.00000E+00 0.00000E+00 0.00000E+00
 -1      4686 0.00000E+00 0.00000E+00 0.00000E+00 0.00000E+00 0.00000E+00 0.00000E+00
 -1      4687 0.00000E+00 0.00000E+00 0.00000E+00 0.00000E+00 0.00000E+00 0.00000E+00
 -1      4688 0.00000E+00 0.00000E+00 0.00000E+00 0.00000E+00 0.00000E+00 0.00000E+00
 -1      4689 0.00000E+00 0.00000E+00 0.00000E+00 0.00000E+00 0.00000E+00 0.00000E+00
 -1      4690 0.00000E+00 0.00000E+00 0.00000E+00 0.00000E+00 0.00000E+00 0.00000E+00
 -1      4691 0.00000E+00 0.00000E+00 0.00000E+00 0.00000E+00 0.00000E+00 0.00000E+00
 -1      4692 0.00000E+00 0.00000E+00 0.00000E+00 0.00000E+00 0.00000E+00 0.00000E+00
 -1      4693 0.00000E+00 0.00000E+00 0.00000E+00 0.00000E+00 0.00000E+00 0.00000E+00
 -1      4694 0.00000E+00 0.00000E+00 0.00000E+00 0.00000E+00 0.00000E+00 0.00000E+00
 -1      4695 0.00000E+00 0.00000E+00 0.00000E+00 0.00000E+00 0.00000E+00 0.00000E+00
 -1      4696 0.00000E+00 0.00000E+00 0.00000E+00 0.00000E+00 0.00000E+00 0.00000E+00
 -1      4697 0.00000E+00 0.00000E+00 0.00000E+00 0.00000E+00 0.00000E+00 0.00000E+00
 -1      4698 0.00000E+00 0.00000E+00 0.00000E+00 0.00000E+00 0.00000E+00 0.00000E+00
 -1      4699 0.00000E+00 0.00000E+00 0.00000E+00 0.00000E+00 0.00000E+00 0.00000E+00
 -1      4700 0.00000E+00 0.00000E+00 0.00000E+00 0.00000E+00 0.00000E+00 0.00000E+00
 -1      4701 0.00000E+00 0.00000E+00 0.00000E+00 0.00000E+00 0.00000E+00 0.00000E+00
 -1      4702 0.00000E+00 0.00000E+00 0.00000E+00 0.00000E+00 0.00000E+00 0.00000E+00
 -1      4703 0.00000E+00 0.00000E+00 0.00000E+00 0.00000E+00 0.00000E+00 0.00000E+00
 -1      4704 0.00000E+00 0.00000E+00 0.00000E+00 0.00000E+00 0.00000E+00 0.00000E+00
 -1      4705 0.00000E+00 0.00000E+00 0.00000E+00 0.00000E+00 0.00000E+00 0.00000E+00
 -1      4706 0.00000E+00 0.00000E+00 0.00000E+00 0.00000E+00 0.00000E+00 0.00000E+00
 -1      4707 0.00000E+00 0.00000E+00 0.00000E+00 0.00000E+00 0.00000E+00 0.00000E+00
 -1      4708 0.00000E+00 0.00000E+00 0.00000E+00 0.00000E+00 0.00000E+00 0.00000E+00
 -1      4709 0.00000E+00 0.00000E+00 0.00000E+00 0.00000E+00 0.00000E+00 0.00000E+00
 -1      4710 0.00000E+00 0.00000E+00 0.00000E+00 0.00000E+00 0.00000E+00 0.00000E+00
 -1      4711 0.00000E+00 0.00000E+00 0.00000E+00 0.00000E+00 0.00000E+00 0.00000E+00
 -1      4712 0.00000E+00 0.00000E+00 0.00000E+00 0.00000E+00 0.00000E+00 0.00000E+00
 -1      4713 0.00000E+00 0.00000E+00 0.00000E+00 0.00000E+00 0.00000E+00 0.00000E+00
 -1      4714 0.00000E+00 0.00000E+00 0.00000E+00 0.00000E+00 0.00000E+00 0.00000E+00
 -1      4715 0.00000E+00 0.00000E+00 0.00000E+00 0.00000E+00 0.00000E+00 0.00000E+00
 -1      4716 0.00000E+00 0.00000E+00 0.00000E+00 0.00000E+00 0.00000E+00 0.00000E+00
 -1      4717 0.00000E+00 0.00000E+00 0.00000E+00 0.00000E+00 0.00000E+00 0.00000E+00
 -1      4718 0.00000E+00 0.00000E+00 0.00000E+00 0.00000E+00 0.00000E+00 0.00000E+00
 -1      4719 0.00000E+00 0.00000E+00 0.00000E+00 0.00000E+00 0.00000E+00 0.00000E+00
 -1      4720 0.00000E+00 0.00000E+00 0.00000E+00 0.00000E+00 0.00000E+00 0.00000E+00
 -1      4721 0.00000E+00 0.00000E+00 0.00000E+00 0.00000E+00 0.00000E+00 0.00000E+00
 -1      4722 0.00000E+00 0.00000E+00 0.00000E+00 0.00000E+00 0.00000E+00 0.00000E+00
 -1      4723 0.00000E+00 0.00000E+00 0.00000E+00 0.00000E+00 0.00000E+00 0.00000E+00
 -1      4724 0.00000E+00 0.00000E+00 0.00000E+00 0.00000E+00 0.00000E+00 0.00000E+00
 -1      4725 0.00000E+00 0.00000E+00 0.00000E+00 0.00000E+00 0.00000E+00 0.00000E+00
 -1      4726 0.00000E+00 0.00000E+00 0.00000E+00 0.00000E+00 0.00000E+00 0.00000E+00
 -1      4727 0.00000E+00 0.00000E+00 0.00000E+00 0.00000E+00 0.00000E+00 0.00000E+00
 -1      4728 0.00000E+00 0.00000E+00 0.00000E+00 0.00000E+00 0.00000E+00 0.00000E+00
 -1      4729 0.00000E+00 0.00000E+00 0.00000E+00 0.00000E+00 0.00000E+00 0.00000E+00
 -1      4730 0.00000E+00 0.00000E+00 0.00000E+00 0.00000E+00 0.00000E+00 0.00000E+00
 -1      4731 0.00000E+00 0.00000E+00 0.00000E+00 0.00000E+00 0.00000E+00 0.00000E+00
 -1      4732 0.00000E+00 0.00000E+00 0.00000E+00 0.00000E+00 0.00000E+00 0.00000E+00
 -1      4733 0.00000E+00 0.00000E+00 0.00000E+00 0.00000E+00 0.00000E+00 0.00000E+00
 -1      4734 0.00000E+00 0.00000E+00 0.00000E+00 0.00000E+00 0.00000E+00 0.00000E+00
 -1      4735 0.00000E+00 0.00000E+00 0.00000E+00 0.00000E+00 0.00000E+00 0.00000E+00
 -1      4736 0.00000E+00 0.00000E+00 0.00000E+00 0.00000E+00 0.00000E+00 0.00000E+00
 -1      4737 0.00000E+00 0.00000E+00 0.00000E+00 0.00000E+00 0.00000E+00 0.00000E+00
 -1      4738 0.00000E+00 0.00000E+00 0.00000E+00 0.00000E+00 0.00000E+00 0.00000E+00
 -1      4739 0.00000E+00 0.00000E+00 0.00000E+00 0.00000E+00 0.00000E+00 0.00000E+00
 -1      4740 0.00000E+00 0.00000E+00 0.00000E+00 0.00000E+00 0.00000E+00 0.00000E+00
 -1      4741 0.00000E+00 0.00000E+00 0.00000E+00 0.00000E+00 0.00000E+00 0.00000E+00
 -1      4742 0.00000E+00 0.00000E+00 0.00000E+00 0.00000E+00 0.00000E+00 0.00000E+00
 -1      4743 0.00000E+00 0.00000E+00 0.00000E+00 0.00000E+00 0.00000E+00 0.00000E+00
 -1      4744 0.00000E+00 0.00000E+00 0.00000E+00 0.00000E+00 0.00000E+00 0.00000E+00
 -1      4745 0.00000E+00 0.00000E+00 0.00000E+00 0.00000E+00 0.00000E+00 0.00000E+00
 -1      4746 0.00000E+00 0.00000E+00 0.00000E+00 0.00000E+00 0.00000E+00 0.00000E+00
 -1      4747 0.00000E+00 0.00000E+00 0.00000E+00 0.00000E+00 0.00000E+00 0.00000E+00
 -1      4748 0.00000E+00 0.00000E+00 0.00000E+00 0.00000E+00 0.00000E+00 0.00000E+00
 -1      4749 0.00000E+00 0.00000E+00 0.00000E+00 0.00000E+00 0.00000E+00 0.00000E+00
 -1      4750 0.00000E+00 0.00000E+00 0.00000E+00 0.00000E+00 0.00000E+00 0.00000E+00
 -1      4751 0.00000E+00 0.00000E+00 0.00000E+00 0.00000E+00 0.00000E+00 0.00000E+00
 -1      4752 0.00000E+00 0.00000E+00 0.00000E+00 0.00000E+00 0.00000E+00 0.00000E+00
 -1      4753 0.00000E+00 0.00000E+00 0.00000E+00 0.00000E+00 0.00000E+00 0.00000E+00
 -1      4754 0.00000E+00 0.00000E+00 0.00000E+00 0.00000E+00 0.00000E+00 0.00000E+00
 -1      4755 0.00000E+00 0.00000E+00 0.00000E+00 0.00000E+00 0.00000E+00 0.00000E+00
 -1      4756 0.00000E+00 0.00000E+00 0.00000E+00 0.00000E+00 0.00000E+00 0.00000E+00
 -1      4757 0.00000E+00 0.00000E+00 0.00000E+00 0.00000E+00 0.00000E+00 0.00000E+00
 -1      4758 0.00000E+00 0.00000E+00 0.00000E+00 0.00000E+00 0.00000E+00 0.00000E+00
 -1      4759 0.00000E+00 0.00000E+00 0.00000E+00 0.00000E+00 0.00000E+00 0.00000E+00
 -1      4760 0.00000E+00 0.00000E+00 0.00000E+00 0.00000E+00 0.00000E+00 0.00000E+00
 -1      4761 0.00000E+00 0.00000E+00 0.00000E+00 0.00000E+00 0.00000E+00 0.00000E+00
 -1      4762 0.00000E+00 0.00000E+00 0.00000E+00 0.00000E+00 0.00000E+00 0.00000E+00
 -1      4763 0.00000E+00 0.00000E+00 0.00000E+00 0.00000E+00 0.00000E+00 0.00000E+00
 -1      4764 0.00000E+00 0.00000E+00 0.00000E+00 0.00000E+00 0.00000E+00 0.00000E+00
 -1      4765 0.00000E+00 0.00000E+00 0.00000E+00 0.00000E+00 0.00000E+00 0.00000E+00
 -1      4766 0.00000E+00 0.00000E+00 0.00000E+00 0.00000E+00 0.00000E+00 0.00000E+00
 -1      4767 0.00000E+00 0.00000E+00 0.00000E+00 0.00000E+00 0.00000E+00 0.00000E+00
 -1      4768 0.00000E+00 0.00000E+00 0.00000E+00 0.00000E+00 0.00000E+00 0.00000E+00
 -1      4769 0.00000E+00 0.00000E+00 0.00000E+00 0.00000E+00 0.00000E+00 0.00000E+00
 -1      4770 0.00000E+00 0.00000E+00 0.00000E+00 0.00000E+00 0.00000E+00 0.00000E+00
 -1      4771 0.00000E+00 0.00000E+00 0.00000E+00 0.00000E+00 0.00000E+00 0.00000E+00
 -1      4772 0.00000E+00 0.00000E+00 0.00000E+00 0.00000E+00 0.00000E+00 0.00000E+00
 -1      4773 0.00000E+00 0.00000E+00 0.00000E+00 0.00000E+00 0.00000E+00 0.00000E+00
 -1      4774 0.00000E+00 0.00000E+00 0.00000E+00 0.00000E+00 0.00000E+00 0.00000E+00
 -1      4775 0.00000E+00 0.00000E+00 0.00000E+00 0.00000E+00 0.00000E+00 0.00000E+00
 -1      4776 0.00000E+00 0.00000E+00 0.00000E+00 0.00000E+00 0.00000E+00 0.00000E+00
 -1      4777 0.00000E+00 0.00000E+00 0.00000E+00 0.00000E+00 0.00000E+00 0.00000E+00
 -1      4778 0.00000E+00 0.00000E+00 0.00000E+00 0.00000E+00 0.00000E+00 0.00000E+00
 -1      4779 0.00000E+00 0.00000E+00 0.00000E+00 0.00000E+00 0.00000E+00 0.00000E+00
 -1      4780 0.00000E+00 0.00000E+00 0.00000E+00 0.00000E+00 0.00000E+00 0.00000E+00
 -1      4781 0.00000E+00 0.00000E+00 0.00000E+00 0.00000E+00 0.00000E+00 0.00000E+00
 -1      4782 0.00000E+00 0.00000E+00 0.00000E+00 0.00000E+00 0.00000E+00 0.00000E+00
 -1      4783 0.00000E+00 0.00000E+00 0.00000E+00 0.00000E+00 0.00000E+00 0.00000E+00
 -1      4784 0.00000E+00 0.00000E+00 0.00000E+00 0.00000E+00 0.00000E+00 0.00000E+00
 -1      4785 0.00000E+00 0.00000E+00 0.00000E+00 0.00000E+00 0.00000E+00 0.00000E+00
 -1      4786 0.00000E+00 0.00000E+00 0.00000E+00 0.00000E+00 0.00000E+00 0.00000E+00
 -1      4787 0.00000E+00 0.00000E+00 0.00000E+00 0.00000E+00 0.00000E+00 0.00000E+00
 -1      4788 0.00000E+00 0.00000E+00 0.00000E+00 0.00000E+00 0.00000E+00 0.00000E+00
 -1      4789 0.00000E+00 0.00000E+00 0.00000E+00 0.00000E+00 0.00000E+00 0.00000E+00
 -1      4790 0.00000E+00 0.00000E+00 0.00000E+00 0.00000E+00 0.00000E+00 0.00000E+00
 -1      4791 0.00000E+00 0.00000E+00 0.00000E+00 0.00000E+00 0.00000E+00 0.00000E+00
 -1      4792 0.00000E+00 0.00000E+00 0.00000E+00 0.00000E+00 0.00000E+00 0.00000E+00
 -1      4793 0.00000E+00 0.00000E+00 0.00000E+00 0.00000E+00 0.00000E+00 0.00000E+00
 -1      4794 0.00000E+00 0.00000E+00 0.00000E+00 0.00000E+00 0.00000E+00 0.00000E+00
 -1      4795 0.00000E+00 0.00000E+00 0.00000E+00 0.00000E+00 0.00000E+00 0.00000E+00
 -1      4796 0.00000E+00 0.00000E+00 0.00000E+00 0.00000E+00 0.00000E+00 0.00000E+00
 -1      4797 0.00000E+00 0.00000E+00 0.00000E+00 0.00000E+00 0.00000E+00 0.00000E+00
 -1      4798 0.00000E+00 0.00000E+00 0.00000E+00 0.00000E+00 0.00000E+00 0.00000E+00
 -1      4799 0.00000E+00 0.00000E+00 0.00000E+00 0.00000E+00 0.00000E+00 0.00000E+00
 -1      4800 0.00000E+00 0.00000E+00 0.00000E+00 0.00000E+00 0.00000E+00 0.00000E+00
 -1      4801 0.00000E+00 0.00000E+00 0.00000E+00 0.00000E+00 0.00000E+00 0.00000E+00
 -1      4802 0.00000E+00 0.00000E+00 0.00000E+00 0.00000E+00 0.00000E+00 0.00000E+00
 -1      4803 0.00000E+00 0.00000E+00 0.00000E+00 0.00000E+00 0.00000E+00 0.00000E+00
 -1      4804 0.00000E+00 0.00000E+00 0.00000E+00 0.00000E+00 0.00000E+00 0.00000E+00
 -1      4805 0.00000E+00 0.00000E+00 0.00000E+00 0.00000E+00 0.00000E+00 0.00000E+00
 -1      4806 0.00000E+00 0.00000E+00 0.00000E+00 0.00000E+00 0.00000E+00 0.00000E+00
 -1      4807 0.00000E+00 0.00000E+00 0.00000E+00 0.00000E+00 0.00000E+00 0.00000E+00
 -1      4808 0.00000E+00 0.00000E+00 0.00000E+00 0.00000E+00 0.00000E+00 0.00000E+00
 -1      4809 0.00000E+00 0.00000E+00 0.00000E+00 0.00000E+00 0.00000E+00 0.00000E+00
 -1      4810 0.00000E+00 0.00000E+00 0.00000E+00 0.00000E+00 0.00000E+00 0.00000E+00
 -1      4811 0.00000E+00 0.00000E+00 0.00000E+00 0.00000E+00 0.00000E+00 0.00000E+00
 -1      4812 0.00000E+00 0.00000E+00 0.00000E+00 0.00000E+00 0.00000E+00 0.00000E+00
 -1      4813 0.00000E+00 0.00000E+00 0.00000E+00 0.00000E+00 0.00000E+00 0.00000E+00
 -1      4814 0.00000E+00 0.00000E+00 0.00000E+00 0.00000E+00 0.00000E+00 0.00000E+00
 -1      4815 0.00000E+00 0.00000E+00 0.00000E+00 0.00000E+00 0.00000E+00 0.00000E+00
 -1      4816 0.00000E+00 0.00000E+00 0.00000E+00 0.00000E+00 0.00000E+00 0.00000E+00
 -1      4817 0.00000E+00 0.00000E+00 0.00000E+00 0.00000E+00 0.00000E+00 0.00000E+00
 -1      4818 0.00000E+00 0.00000E+00 0.00000E+00 0.00000E+00 0.00000E+00 0.00000E+00
 -1      4819 0.00000E+00 0.00000E+00 0.00000E+00 0.00000E+00 0.00000E+00 0.00000E+00
 -1      4820 0.00000E+00 0.00000E+00 0.00000E+00 0.00000E+00 0.00000E+00 0.00000E+00
 -1      4821 0.00000E+00 0.00000E+00 0.00000E+00 0.00000E+00 0.00000E+00 0.00000E+00
 -1      4822 0.00000E+00 0.00000E+00 0.00000E+00 0.00000E+00 0.00000E+00 0.00000E+00
 -1      4823 0.00000E+00 0.00000E+00 0.00000E+00 0.00000E+00 0.00000E+00 0.00000E+00
 -1      4824 0.00000E+00 0.00000E+00 0.00000E+00 0.00000E+00 0.00000E+00 0.00000E+00
 -1      4825 0.00000E+00 0.00000E+00 0.00000E+00 0.00000E+00 0.00000E+00 0.00000E+00
 -1      4826 0.00000E+00 0.00000E+00 0.00000E+00 0.00000E+00 0.00000E+00 0.00000E+00
 -1      4827 0.00000E+00 0.00000E+00 0.00000E+00 0.00000E+00 0.00000E+00 0.00000E+00
 -1      4828 0.00000E+00 0.00000E+00 0.00000E+00 0.00000E+00 0.00000E+00 0.00000E+00
 -1      4829 0.00000E+00 0.00000E+00 0.00000E+00 0.00000E+00 0.00000E+00 0.00000E+00
 -1      4830 0.00000E+00 0.00000E+00 0.00000E+00 0.00000E+00 0.00000E+00 0.00000E+00
 -1      4831 0.00000E+00 0.00000E+00 0.00000E+00 0.00000E+00 0.00000E+00 0.00000E+00
 -1      4832 0.00000E+00 0.00000E+00 0.00000E+00 0.00000E+00 0.00000E+00 0.00000E+00
 -1      4833 0.00000E+00 0.00000E+00 0.00000E+00 0.00000E+00 0.00000E+00 0.00000E+00
 -1      4834 0.00000E+00 0.00000E+00 0.00000E+00 0.00000E+00 0.00000E+00 0.00000E+00
 -1      4835 0.00000E+00 0.00000E+00 0.00000E+00 0.00000E+00 0.00000E+00 0.00000E+00
 -1      4836 0.00000E+00 0.00000E+00 0.00000E+00 0.00000E+00 0.00000E+00 0.00000E+00
 -1      4837 0.00000E+00 0.00000E+00 0.00000E+00 0.00000E+00 0.00000E+00 0.00000E+00
 -1      4838 0.00000E+00 0.00000E+00 0.00000E+00 0.00000E+00 0.00000E+00 0.00000E+00
 -1      4839 0.00000E+00 0.00000E+00 0.00000E+00 0.00000E+00 0.00000E+00 0.00000E+00
 -1      4840 0.00000E+00 0.00000E+00 0.00000E+00 0.00000E+00 0.00000E+00 0.00000E+00
 -1      4841 0.00000E+00 0.00000E+00 0.00000E+00 0.00000E+00 0.00000E+00 0.00000E+00
 -1      4842 0.00000E+00 0.00000E+00 0.00000E+00 0.00000E+00 0.00000E+00 0.00000E+00
 -1      4843 0.00000E+00 0.00000E+00 0.00000E+00 0.00000E+00 0.00000E+00 0.00000E+00
 -1      4844 0.00000E+00 0.00000E+00 0.00000E+00 0.00000E+00 0.00000E+00 0.00000E+00
 -1      4845 0.00000E+00 0.00000E+00 0.00000E+00 0.00000E+00 0.00000E+00 0.00000E+00
 -1      4846 0.00000E+00 0.00000E+00 0.00000E+00 0.00000E+00 0.00000E+00 0.00000E+00
 -1      4847 0.00000E+00 0.00000E+00 0.00000E+00 0.00000E+00 0.00000E+00 0.00000E+00
 -1      4848 0.00000E+00 0.00000E+00 0.00000E+00 0.00000E+00 0.00000E+00 0.00000E+00
 -1      4849 0.00000E+00 0.00000E+00 0.00000E+00 0.00000E+00 0.00000E+00 0.00000E+00
 -1      4850 0.00000E+00 0.00000E+00 0.00000E+00 0.00000E+00 0.00000E+00 0.00000E+00
 -1      4851 0.00000E+00 0.00000E+00 0.00000E+00 0.00000E+00 0.00000E+00 0.00000E+00
 -1      4852 0.00000E+00 0.00000E+00 0.00000E+00 0.00000E+00 0.00000E+00 0.00000E+00
 -1      4853 0.00000E+00 0.00000E+00 0.00000E+00 0.00000E+00 0.00000E+00 0.00000E+00
 -1      4854 0.00000E+00 0.00000E+00 0.00000E+00 0.00000E+00 0.00000E+00 0.00000E+00
 -1      4855 0.00000E+00 0.00000E+00 0.00000E+00 0.00000E+00 0.00000E+00 0.00000E+00
 -1      4856 0.00000E+00 0.00000E+00 0.00000E+00 0.00000E+00 0.00000E+00 0.00000E+00
 -1      4857 0.00000E+00 0.00000E+00 0.00000E+00 0.00000E+00 0.00000E+00 0.00000E+00
 -1      4858 0.00000E+00 0.00000E+00 0.00000E+00 0.00000E+00 0.00000E+00 0.00000E+00
 -1      4859 0.00000E+00 0.00000E+00 0.00000E+00 0.00000E+00 0.00000E+00 0.00000E+00
 -1      4860 0.00000E+00 0.00000E+00 0.00000E+00 0.00000E+00 0.00000E+00 0.00000E+00
 -1      4861 0.00000E+00 0.00000E+00 0.00000E+00 0.00000E+00 0.00000E+00 0.00000E+00
 -1      4862 0.00000E+00 0.00000E+00 0.00000E+00 0.00000E+00 0.00000E+00 0.00000E+00
 -1      4863 0.00000E+00 0.00000E+00 0.00000E+00 0.00000E+00 0.00000E+00 0.00000E+00
 -1      4864 0.00000E+00 0.00000E+00 0.00000E+00 0.00000E+00 0.00000E+00 0.00000E+00
 -1      4865 0.00000E+00 0.00000E+00 0.00000E+00 0.00000E+00 0.00000E+00 0.00000E+00
 -1      4866 0.00000E+00 0.00000E+00 0.00000E+00 0.00000E+00 0.00000E+00 0.00000E+00
 -1      4867 0.00000E+00 0.00000E+00 0.00000E+00 0.00000E+00 0.00000E+00 0.00000E+00
 -1      4868 0.00000E+00 0.00000E+00 0.00000E+00 0.00000E+00 0.00000E+00 0.00000E+00
 -1      4869 0.00000E+00 0.00000E+00 0.00000E+00 0.00000E+00 0.00000E+00 0.00000E+00
 -1      4870 0.00000E+00 0.00000E+00 0.00000E+00 0.00000E+00 0.00000E+00 0.00000E+00
 -1      4871 0.00000E+00 0.00000E+00 0.00000E+00 0.00000E+00 0.00000E+00 0.00000E+00
 -1      4872 0.00000E+00 0.00000E+00 0.00000E+00 0.00000E+00 0.00000E+00 0.00000E+00
 -1      4873 0.00000E+00 0.00000E+00 0.00000E+00 0.00000E+00 0.00000E+00 0.00000E+00
 -1      4874 0.00000E+00 0.00000E+00 0.00000E+00 0.00000E+00 0.00000E+00 0.00000E+00
 -1      4875 0.00000E+00 0.00000E+00 0.00000E+00 0.00000E+00 0.00000E+00 0.00000E+00
 -1      4876 0.00000E+00 0.00000E+00 0.00000E+00 0.00000E+00 0.00000E+00 0.00000E+00
 -1      4877 0.00000E+00 0.00000E+00 0.00000E+00 0.00000E+00 0.00000E+00 0.00000E+00
 -1      4878 0.00000E+00 0.00000E+00 0.00000E+00 0.00000E+00 0.00000E+00 0.00000E+00
 -1      4879 0.00000E+00 0.00000E+00 0.00000E+00 0.00000E+00 0.00000E+00 0.00000E+00
 -1      4880 0.00000E+00 0.00000E+00 0.00000E+00 0.00000E+00 0.00000E+00 0.00000E+00
 -1      4881 0.00000E+00 0.00000E+00 0.00000E+00 0.00000E+00 0.00000E+00 0.00000E+00
 -1      4882 0.00000E+00 0.00000E+00 0.00000E+00 0.00000E+00 0.00000E+00 0.00000E+00
 -1      4883 0.00000E+00 0.00000E+00 0.00000E+00 0.00000E+00 0.00000E+00 0.00000E+00
 -1      4884 0.00000E+00 0.00000E+00 0.00000E+00 0.00000E+00 0.00000E+00 0.00000E+00
 -1      4885 0.00000E+00 0.00000E+00 0.00000E+00 0.00000E+00 0.00000E+00 0.00000E+00
 -1      4886 0.00000E+00 0.00000E+00 0.00000E+00 0.00000E+00 0.00000E+00 0.00000E+00
 -1      4887 0.00000E+00 0.00000E+00 0.00000E+00 0.00000E+00 0.00000E+00 0.00000E+00
 -1      4888 0.00000E+00 0.00000E+00 0.00000E+00 0.00000E+00 0.00000E+00 0.00000E+00
 -1      4889 0.00000E+00 0.00000E+00 0.00000E+00 0.00000E+00 0.00000E+00 0.00000E+00
 -1      4890 0.00000E+00 0.00000E+00 0.00000E+00 0.00000E+00 0.00000E+00 0.00000E+00
 -1      4891 0.00000E+00 0.00000E+00 0.00000E+00 0.00000E+00 0.00000E+00 0.00000E+00
 -1      4892 0.00000E+00 0.00000E+00 0.00000E+00 0.00000E+00 0.00000E+00 0.00000E+00
 -1      4893 0.00000E+00 0.00000E+00 0.00000E+00 0.00000E+00 0.00000E+00 0.00000E+00
 -1      4894 0.00000E+00 0.00000E+00 0.00000E+00 0.00000E+00 0.00000E+00 0.00000E+00
 -1      4895 0.00000E+00 0.00000E+00 0.00000E+00 0.00000E+00 0.00000E+00 0.00000E+00
 -1      4896 0.00000E+00 0.00000E+00 0.00000E+00 0.00000E+00 0.00000E+00 0.00000E+00
 -1      4897 0.00000E+00 0.00000E+00 0.00000E+00 0.00000E+00 0.00000E+00 0.00000E+00
 -1      4898 0.00000E+00 0.00000E+00 0.00000E+00 0.00000E+00 0.00000E+00 0.00000E+00
 -1      4899 0.00000E+00 0.00000E+00 0.00000E+00 0.00000E+00 0.00000E+00 0.00000E+00
 -1      4900 0.00000E+00 0.00000E+00 0.00000E+00 0.00000E+00 0.00000E+00 0.00000E+00
 -1      4901 0.00000E+00 0.00000E+00 0.00000E+00 0.00000E+00 0.00000E+00 0.00000E+00
 -1      4902 0.00000E+00 0.00000E+00 0.00000E+00 0.00000E+00 0.00000E+00 0.00000E+00
 -1      4903 0.00000E+00 0.00000E+00 0.00000E+00 0.00000E+00 0.00000E+00 0.00000E+00
 -1      4904 0.00000E+00 0.00000E+00 0.00000E+00 0.00000E+00 0.00000E+00 0.00000E+00
 -1      4905 0.00000E+00 0.00000E+00 0.00000E+00 0.00000E+00 0.00000E+00 0.00000E+00
 -1      4906 0.00000E+00 0.00000E+00 0.00000E+00 0.00000E+00 0.00000E+00 0.00000E+00
 -1      4907 0.00000E+00 0.00000E+00 0.00000E+00 0.00000E+00 0.00000E+00 0.00000E+00
 -1      4908 0.00000E+00 0.00000E+00 0.00000E+00 0.00000E+00 0.00000E+00 0.00000E+00
 -1      4909 0.00000E+00 0.00000E+00 0.00000E+00 0.00000E+00 0.00000E+00 0.00000E+00
 -1      4910 0.00000E+00 0.00000E+00 0.00000E+00 0.00000E+00 0.00000E+00 0.00000E+00
 -1      4911 0.00000E+00 0.00000E+00 0.00000E+00 0.00000E+00 0.00000E+00 0.00000E+00
 -1      4912 0.00000E+00 0.00000E+00 0.00000E+00 0.00000E+00 0.00000E+00 0.00000E+00
 -1      4913 0.00000E+00 0.00000E+00 0.00000E+00 0.00000E+00 0.00000E+00 0.00000E+00
 -1      4914 0.00000E+00 0.00000E+00 0.00000E+00 0.00000E+00 0.00000E+00 0.00000E+00
 -1      4915 0.00000E+00 0.00000E+00 0.00000E+00 0.00000E+00 0.00000E+00 0.00000E+00
 -1      4916 0.00000E+00 0.00000E+00 0.00000E+00 0.00000E+00 0.00000E+00 0.00000E+00
 -1      4917 0.00000E+00 0.00000E+00 0.00000E+00 0.00000E+00 0.00000E+00 0.00000E+00
 -1      4918 0.00000E+00 0.00000E+00 0.00000E+00 0.00000E+00 0.00000E+00 0.00000E+00
 -1      4919 0.00000E+00 0.00000E+00 0.00000E+00 0.00000E+00 0.00000E+00 0.00000E+00
 -1      4920 0.00000E+00 0.00000E+00 0.00000E+00 0.00000E+00 0.00000E+00 0.00000E+00
 -1      4921 0.00000E+00 0.00000E+00 0.00000E+00 0.00000E+00 0.00000E+00 0.00000E+00
 -1      4922 0.00000E+00 0.00000E+00 0.00000E+00 0.00000E+00 0.00000E+00 0.00000E+00
 -1      4923 0.00000E+00 0.00000E+00 0.00000E+00 0.00000E+00 0.00000E+00 0.00000E+00
 -1      4924 0.00000E+00 0.00000E+00 0.00000E+00 0.00000E+00 0.00000E+00 0.00000E+00
 -1      4925 0.00000E+00 0.00000E+00 0.00000E+00 0.00000E+00 0.00000E+00 0.00000E+00
 -1      4926 0.00000E+00 0.00000E+00 0.00000E+00 0.00000E+00 0.00000E+00 0.00000E+00
 -1      4927 0.00000E+00 0.00000E+00 0.00000E+00 0.00000E+00 0.00000E+00 0.00000E+00
 -1      4928 0.00000E+00 0.00000E+00 0.00000E+00 0.00000E+00 0.00000E+00 0.00000E+00
 -1      4929 0.00000E+00 0.00000E+00 0.00000E+00 0.00000E+00 0.00000E+00 0.00000E+00
 -1      4930 0.00000E+00 0.00000E+00 0.00000E+00 0.00000E+00 0.00000E+00 0.00000E+00
 -1      4931 0.00000E+00 0.00000E+00 0.00000E+00 0.00000E+00 0.00000E+00 0.00000E+00
 -1      4932 0.00000E+00 0.00000E+00 0.00000E+00 0.00000E+00 0.00000E+00 0.00000E+00
 -1      4933 0.00000E+00 0.00000E+00 0.00000E+00 0.00000E+00 0.00000E+00 0.00000E+00
 -1      4934 0.00000E+00 0.00000E+00 0.00000E+00 0.00000E+00 0.00000E+00 0.00000E+00
 -1      4935 0.00000E+00 0.00000E+00 0.00000E+00 0.00000E+00 0.00000E+00 0.00000E+00
 -1      4936 0.00000E+00 0.00000E+00 0.00000E+00 0.00000E+00 0.00000E+00 0.00000E+00
 -1      4937 0.00000E+00 0.00000E+00 0.00000E+00 0.00000E+00 0.00000E+00 0.00000E+00
 -1      4938 0.00000E+00 0.00000E+00 0.00000E+00 0.00000E+00 0.00000E+00 0.00000E+00
 -1      4939 0.00000E+00 0.00000E+00 0.00000E+00 0.00000E+00 0.00000E+00 0.00000E+00
 -1      4940 0.00000E+00 0.00000E+00 0.00000E+00 0.00000E+00 0.00000E+00 0.00000E+00
 -1      4941 0.00000E+00 0.00000E+00 0.00000E+00 0.00000E+00 0.00000E+00 0.00000E+00
 -1      4942 0.00000E+00 0.00000E+00 0.00000E+00 0.00000E+00 0.00000E+00 0.00000E+00
 -1      4943 0.00000E+00 0.00000E+00 0.00000E+00 0.00000E+00 0.00000E+00 0.00000E+00
 -1      4944 0.00000E+00 0.00000E+00 0.00000E+00 0.00000E+00 0.00000E+00 0.00000E+00
 -1      4945 0.00000E+00 0.00000E+00 0.00000E+00 0.00000E+00 0.00000E+00 0.00000E+00
 -1      4946 0.00000E+00 0.00000E+00 0.00000E+00 0.00000E+00 0.00000E+00 0.00000E+00
 -1      4947 0.00000E+00 0.00000E+00 0.00000E+00 0.00000E+00 0.00000E+00 0.00000E+00
 -1      4948 0.00000E+00 0.00000E+00 0.00000E+00 0.00000E+00 0.00000E+00 0.00000E+00
 -1      4949 0.00000E+00 0.00000E+00 0.00000E+00 0.00000E+00 0.00000E+00 0.00000E+00
 -1      4950 0.00000E+00 0.00000E+00 0.00000E+00 0.00000E+00 0.00000E+00 0.00000E+00
 -1      4951 0.00000E+00 0.00000E+00 0.00000E+00 0.00000E+00 0.00000E+00 0.00000E+00
 -1      4952 0.00000E+00 0.00000E+00 0.00000E+00 0.00000E+00 0.00000E+00 0.00000E+00
 -1      4953 0.00000E+00 0.00000E+00 0.00000E+00 0.00000E+00 0.00000E+00 0.00000E+00
 -1      4954 0.00000E+00 0.00000E+00 0.00000E+00 0.00000E+00 0.00000E+00 0.00000E+00
 -1      4955 0.00000E+00 0.00000E+00 0.00000E+00 0.00000E+00 0.00000E+00 0.00000E+00
 -1      4956 0.00000E+00 0.00000E+00 0.00000E+00 0.00000E+00 0.00000E+00 0.00000E+00
 -1      4957 0.00000E+00 0.00000E+00 0.00000E+00 0.00000E+00 0.00000E+00 0.00000E+00
 -1      4958 0.00000E+00 0.00000E+00 0.00000E+00 0.00000E+00 0.00000E+00 0.00000E+00
 -1      4959 0.00000E+00 0.00000E+00 0.00000E+00 0.00000E+00 0.00000E+00 0.00000E+00
 -1      4960 0.00000E+00 0.00000E+00 0.00000E+00 0.00000E+00 0.00000E+00 0.00000E+00
 -1      4961 0.00000E+00 0.00000E+00 0.00000E+00 0.00000E+00 0.00000E+00 0.00000E+00
 -1      4962 0.00000E+00 0.00000E+00 0.00000E+00 0.00000E+00 0.00000E+00 0.00000E+00
 -1      4963 0.00000E+00 0.00000E+00 0.00000E+00 0.00000E+00 0.00000E+00 0.00000E+00
 -1      4964 0.00000E+00 0.00000E+00 0.00000E+00 0.00000E+00 0.00000E+00 0.00000E+00
 -1      4965 0.00000E+00 0.00000E+00 0.00000E+00 0.00000E+00 0.00000E+00 0.00000E+00
 -1      4966 0.00000E+00 0.00000E+00 0.00000E+00 0.00000E+00 0.00000E+00 0.00000E+00
 -1      4967 0.00000E+00 0.00000E+00 0.00000E+00 0.00000E+00 0.00000E+00 0.00000E+00
 -1      4968 0.00000E+00 0.00000E+00 0.00000E+00 0.00000E+00 0.00000E+00 0.00000E+00
 -1      4969 0.00000E+00 0.00000E+00 0.00000E+00 0.00000E+00 0.00000E+00 0.00000E+00
 -1      4970 0.00000E+00 0.00000E+00 0.00000E+00 0.00000E+00 0.00000E+00 0.00000E+00
 -1      4971 0.00000E+00 0.00000E+00 0.00000E+00 0.00000E+00 0.00000E+00 0.00000E+00
 -1      4972 0.00000E+00 0.00000E+00 0.00000E+00 0.00000E+00 0.00000E+00 0.00000E+00
 -1      4973 0.00000E+00 0.00000E+00 0.00000E+00 0.00000E+00 0.00000E+00 0.00000E+00
 -1      4974 0.00000E+00 0.00000E+00 0.00000E+00 0.00000E+00 0.00000E+00 0.00000E+00
 -1      4975 0.00000E+00 0.00000E+00 0.00000E+00 0.00000E+00 0.00000E+00 0.00000E+00
 -1      4976 0.00000E+00 0.00000E+00 0.00000E+00 0.00000E+00 0.00000E+00 0.00000E+00
 -1      4977 0.00000E+00 0.00000E+00 0.00000E+00 0.00000E+00 0.00000E+00 0.00000E+00
 -1      4978 0.00000E+00 0.00000E+00 0.00000E+00 0.00000E+00 0.00000E+00 0.00000E+00
 -1      4979 0.00000E+00 0.00000E+00 0.00000E+00 0.00000E+00 0.00000E+00 0.00000E+00
 -1      4980 0.00000E+00 0.00000E+00 0.00000E+00 0.00000E+00 0.00000E+00 0.00000E+00
 -1      4981 0.00000E+00 0.00000E+00 0.00000E+00 0.00000E+00 0.00000E+00 0.00000E+00
 -1      4982 0.00000E+00 0.00000E+00 0.00000E+00 0.00000E+00 0.00000E+00 0.00000E+00
 -1      4983 0.00000E+00 0.00000E+00 0.00000E+00 0.00000E+00 0.00000E+00 0.00000E+00
 -1      4984 0.00000E+00 0.00000E+00 0.00000E+00 0.00000E+00 0.00000E+00 0.00000E+00
 -1      4985 0.00000E+00 0.00000E+00 0.00000E+00 0.00000E+00 0.00000E+00 0.00000E+00
 -1      4986 0.00000E+00 0.00000E+00 0.00000E+00 0.00000E+00 0.00000E+00 0.00000E+00
 -1      4987 0.00000E+00 0.00000E+00 0.00000E+00 0.00000E+00 0.00000E+00 0.00000E+00
 -1      4988 0.00000E+00 0.00000E+00 0.00000E+00 0.00000E+00 0.00000E+00 0.00000E+00
 -1      4989 0.00000E+00 0.00000E+00 0.00000E+00 0.00000E+00 0.00000E+00 0.00000E+00
 -1      4990 0.00000E+00 0.00000E+00 0.00000E+00 0.00000E+00 0.00000E+00 0.00000E+00
 -1      4991 0.00000E+00 0.00000E+00 0.00000E+00 0.00000E+00 0.00000E+00 0.00000E+00
 -1      4992 0.00000E+00 0.00000E+00 0.00000E+00 0.00000E+00 0.00000E+00 0.00000E+00
 -1      4993 0.00000E+00 0.00000E+00 0.00000E+00 0.00000E+00 0.00000E+00 0.00000E+00
 -1      4994 0.00000E+00 0.00000E+00 0.00000E+00 0.00000E+00 0.00000E+00 0.00000E+00
 -1      4995 0.00000E+00 0.00000E+00 0.00000E+00 0.00000E+00 0.00000E+00 0.00000E+00
 -1      4996 0.00000E+00 0.00000E+00 0.00000E+00 0.00000E+00 0.00000E+00 0.00000E+00
 -1      4997 0.00000E+00 0.00000E+00 0.00000E+00 0.00000E+00 0.00000E+00 0.00000E+00
 -1      4998 0.00000E+00 0.00000E+00 0.00000E+00 0.00000E+00 0.00000E+00 0.00000E+00
 -1      4999 0.00000E+00 0.00000E+00 0.00000E+00 0.00000E+00 0.00000E+00 0.00000E+00
 -1      5000 0.00000E+00 0.00000E+00 0.00000E+00 0.00000E+00 0.00000E+00 0.00000E+00
 -1      5001 0.00000E+00 0.00000E+00 0.00000E+00 0.00000E+00 0.00000E+00 0.00000E+00
 -1      5002 0.00000E+00 0.00000E+00 0.00000E+00 0.00000E+00 0.00000E+00 0.00000E+00
 -1      5003 0.00000E+00 0.00000E+00 0.00000E+00 0.00000E+00 0.00000E+00 0.00000E+00
 -1      5004 0.00000E+00 0.00000E+00 0.00000E+00 0.00000E+00 0.00000E+00 0.00000E+00
 -1      5005 0.00000E+00 0.00000E+00 0.00000E+00 0.00000E+00 0.00000E+00 0.00000E+00
 -1      5006 0.00000E+00 0.00000E+00 0.00000E+00 0.00000E+00 0.00000E+00 0.00000E+00
 -1      5007 0.00000E+00 0.00000E+00 0.00000E+00 0.00000E+00 0.00000E+00 0.00000E+00
 -1      5008 0.00000E+00 0.00000E+00 0.00000E+00 0.00000E+00 0.00000E+00 0.00000E+00
 -1      5009 0.00000E+00 0.00000E+00 0.00000E+00 0.00000E+00 0.00000E+00 0.00000E+00
 -1      5010 0.00000E+00 0.00000E+00 0.00000E+00 0.00000E+00 0.00000E+00 0.00000E+00
 -1      5011 0.00000E+00 0.00000E+00 0.00000E+00 0.00000E+00 0.00000E+00 0.00000E+00
 -1      5012 0.00000E+00 0.00000E+00 0.00000E+00 0.00000E+00 0.00000E+00 0.00000E+00
 -1      5013 0.00000E+00 0.00000E+00 0.00000E+00 0.00000E+00 0.00000E+00 0.00000E+00
 -1      5014 0.00000E+00 0.00000E+00 0.00000E+00 0.00000E+00 0.00000E+00 0.00000E+00
 -1      5015 0.00000E+00 0.00000E+00 0.00000E+00 0.00000E+00 0.00000E+00 0.00000E+00
 -1      5016 0.00000E+00 0.00000E+00 0.00000E+00 0.00000E+00 0.00000E+00 0.00000E+00
 -1      5017 0.00000E+00 0.00000E+00 0.00000E+00 0.00000E+00 0.00000E+00 0.00000E+00
 -1      5018 0.00000E+00 0.00000E+00 0.00000E+00 0.00000E+00 0.00000E+00 0.00000E+00
 -1      5019 0.00000E+00 0.00000E+00 0.00000E+00 0.00000E+00 0.00000E+00 0.00000E+00
 -1      5020 0.00000E+00 0.00000E+00 0.00000E+00 0.00000E+00 0.00000E+00 0.00000E+00
 -1      5021 0.00000E+00 0.00000E+00 0.00000E+00 0.00000E+00 0.00000E+00 0.00000E+00
 -1      5022 0.00000E+00 0.00000E+00 0.00000E+00 0.00000E+00 0.00000E+00 0.00000E+00
 -1      5023 0.00000E+00 0.00000E+00 0.00000E+00 0.00000E+00 0.00000E+00 0.00000E+00
 -1      5024 0.00000E+00 0.00000E+00 0.00000E+00 0.00000E+00 0.00000E+00 0.00000E+00
 -1      5025 0.00000E+00 0.00000E+00 0.00000E+00 0.00000E+00 0.00000E+00 0.00000E+00
 -1      5026 0.00000E+00 0.00000E+00 0.00000E+00 0.00000E+00 0.00000E+00 0.00000E+00
 -1      5027 0.00000E+00 0.00000E+00 0.00000E+00 0.00000E+00 0.00000E+00 0.00000E+00
 -1      5028 0.00000E+00 0.00000E+00 0.00000E+00 0.00000E+00 0.00000E+00 0.00000E+00
 -1      5029 0.00000E+00 0.00000E+00 0.00000E+00 0.00000E+00 0.00000E+00 0.00000E+00
 -1      5030 0.00000E+00 0.00000E+00 0.00000E+00 0.00000E+00 0.00000E+00 0.00000E+00
 -1      5031 0.00000E+00 0.00000E+00 0.00000E+00 0.00000E+00 0.00000E+00 0.00000E+00
 -1      5032 0.00000E+00 0.00000E+00 0.00000E+00 0.00000E+00 0.00000E+00 0.00000E+00
 -1      5033 0.00000E+00 0.00000E+00 0.00000E+00 0.00000E+00 0.00000E+00 0.00000E+00
 -1      5034 0.00000E+00 0.00000E+00 0.00000E+00 0.00000E+00 0.00000E+00 0.00000E+00
 -1      5035 0.00000E+00 0.00000E+00 0.00000E+00 0.00000E+00 0.00000E+00 0.00000E+00
 -1      5036 0.00000E+00 0.00000E+00 0.00000E+00 0.00000E+00 0.00000E+00 0.00000E+00
 -1      5037 0.00000E+00 0.00000E+00 0.00000E+00 0.00000E+00 0.00000E+00 0.00000E+00
 -1      5038 0.00000E+00 0.00000E+00 0.00000E+00 0.00000E+00 0.00000E+00 0.00000E+00
 -1      5039 0.00000E+00 0.00000E+00 0.00000E+00 0.00000E+00 0.00000E+00 0.00000E+00
 -1      5040 0.00000E+00 0.00000E+00 0.00000E+00 0.00000E+00 0.00000E+00 0.00000E+00
 -1      5041 0.00000E+00 0.00000E+00 0.00000E+00 0.00000E+00 0.00000E+00 0.00000E+00
 -1      5042 0.00000E+00 0.00000E+00 0.00000E+00 0.00000E+00 0.00000E+00 0.00000E+00
 -1      5043 0.00000E+00 0.00000E+00 0.00000E+00 0.00000E+00 0.00000E+00 0.00000E+00
 -1      5044 0.00000E+00 0.00000E+00 0.00000E+00 0.00000E+00 0.00000E+00 0.00000E+00
 -1      5045 0.00000E+00 0.00000E+00 0.00000E+00 0.00000E+00 0.00000E+00 0.00000E+00
 -1      5046 0.00000E+00 0.00000E+00 0.00000E+00 0.00000E+00 0.00000E+00 0.00000E+00
 -1      5047 0.00000E+00 0.00000E+00 0.00000E+00 0.00000E+00 0.00000E+00 0.00000E+00
 -1      5048 0.00000E+00 0.00000E+00 0.00000E+00 0.00000E+00 0.00000E+00 0.00000E+00
 -1      5049 0.00000E+00 0.00000E+00 0.00000E+00 0.00000E+00 0.00000E+00 0.00000E+00
 -1      5050 0.00000E+00 0.00000E+00 0.00000E+00 0.00000E+00 0.00000E+00 0.00000E+00
 -1      5051 0.00000E+00 0.00000E+00 0.00000E+00 0.00000E+00 0.00000E+00 0.00000E+00
 -1      5052 0.00000E+00 0.00000E+00 0.00000E+00 0.00000E+00 0.00000E+00 0.00000E+00
 -1      5053 0.00000E+00 0.00000E+00 0.00000E+00 0.00000E+00 0.00000E+00 0.00000E+00
 -1      5054 0.00000E+00 0.00000E+00 0.00000E+00 0.00000E+00 0.00000E+00 0.00000E+00
 -1      5055 0.00000E+00 0.00000E+00 0.00000E+00 0.00000E+00 0.00000E+00 0.00000E+00
 -1      5056 0.00000E+00 0.00000E+00 0.00000E+00 0.00000E+00 0.00000E+00 0.00000E+00
 -1      5057 0.00000E+00 0.00000E+00 0.00000E+00 0.00000E+00 0.00000E+00 0.00000E+00
 -1      5058 0.00000E+00 0.00000E+00 0.00000E+00 0.00000E+00 0.00000E+00 0.00000E+00
 -1      5059 0.00000E+00 0.00000E+00 0.00000E+00 0.00000E+00 0.00000E+00 0.00000E+00
 -1      5060 0.00000E+00 0.00000E+00 0.00000E+00 0.00000E+00 0.00000E+00 0.00000E+00
 -1      5061 0.00000E+00 0.00000E+00 0.00000E+00 0.00000E+00 0.00000E+00 0.00000E+00
 -1      5062 0.00000E+00 0.00000E+00 0.00000E+00 0.00000E+00 0.00000E+00 0.00000E+00
 -1      5063 0.00000E+00 0.00000E+00 0.00000E+00 0.00000E+00 0.00000E+00 0.00000E+00
 -1      5064 0.00000E+00 0.00000E+00 0.00000E+00 0.00000E+00 0.00000E+00 0.00000E+00
 -1      5065 0.00000E+00 0.00000E+00 0.00000E+00 0.00000E+00 0.00000E+00 0.00000E+00
 -1      5066 0.00000E+00 0.00000E+00 0.00000E+00 0.00000E+00 0.00000E+00 0.00000E+00
 -1      5067 0.00000E+00 0.00000E+00 0.00000E+00 0.00000E+00 0.00000E+00 0.00000E+00
 -1      5068 0.00000E+00 0.00000E+00 0.00000E+00 0.00000E+00 0.00000E+00 0.00000E+00
 -1      5069 0.00000E+00 0.00000E+00 0.00000E+00 0.00000E+00 0.00000E+00 0.00000E+00
 -1      5070 0.00000E+00 0.00000E+00 0.00000E+00 0.00000E+00 0.00000E+00 0.00000E+00
 -1      5071 0.00000E+00 0.00000E+00 0.00000E+00 0.00000E+00 0.00000E+00 0.00000E+00
 -1      5072 0.00000E+00 0.00000E+00 0.00000E+00 0.00000E+00 0.00000E+00 0.00000E+00
 -1      5073 0.00000E+00 0.00000E+00 0.00000E+00 0.00000E+00 0.00000E+00 0.00000E+00
 -1      5074 0.00000E+00 0.00000E+00 0.00000E+00 0.00000E+00 0.00000E+00 0.00000E+00
 -1      5075 0.00000E+00 0.00000E+00 0.00000E+00 0.00000E+00 0.00000E+00 0.00000E+00
 -1      5076 0.00000E+00 0.00000E+00 0.00000E+00 0.00000E+00 0.00000E+00 0.00000E+00
 -1      5077 0.00000E+00 0.00000E+00 0.00000E+00 0.00000E+00 0.00000E+00 0.00000E+00
 -1      5078 0.00000E+00 0.00000E+00 0.00000E+00 0.00000E+00 0.00000E+00 0.00000E+00
 -1      5079 0.00000E+00 0.00000E+00 0.00000E+00 0.00000E+00 0.00000E+00 0.00000E+00
 -1      5080 0.00000E+00 0.00000E+00 0.00000E+00 0.00000E+00 0.00000E+00 0.00000E+00
 -1      5081 0.00000E+00 0.00000E+00 0.00000E+00 0.00000E+00 0.00000E+00 0.00000E+00
 -1      5082 0.00000E+00 0.00000E+00 0.00000E+00 0.00000E+00 0.00000E+00 0.00000E+00
 -1      5083 0.00000E+00 0.00000E+00 0.00000E+00 0.00000E+00 0.00000E+00 0.00000E+00
 -1      5084 0.00000E+00 0.00000E+00 0.00000E+00 0.00000E+00 0.00000E+00 0.00000E+00
 -1      5085 0.00000E+00 0.00000E+00 0.00000E+00 0.00000E+00 0.00000E+00 0.00000E+00
 -1      5086 0.00000E+00 0.00000E+00 0.00000E+00 0.00000E+00 0.00000E+00 0.00000E+00
 -1      5087 0.00000E+00 0.00000E+00 0.00000E+00 0.00000E+00 0.00000E+00 0.00000E+00
 -1      5088 0.00000E+00 0.00000E+00 0.00000E+00 0.00000E+00 0.00000E+00 0.00000E+00
 -1      5089 0.00000E+00 0.00000E+00 0.00000E+00 0.00000E+00 0.00000E+00 0.00000E+00
 -1      5090 0.00000E+00 0.00000E+00 0.00000E+00 0.00000E+00 0.00000E+00 0.00000E+00
 -1      5091 0.00000E+00 0.00000E+00 0.00000E+00 0.00000E+00 0.00000E+00 0.00000E+00
 -1      5092 0.00000E+00 0.00000E+00 0.00000E+00 0.00000E+00 0.00000E+00 0.00000E+00
 -1      5093 0.00000E+00 0.00000E+00 0.00000E+00 0.00000E+00 0.00000E+00 0.00000E+00
 -1      5094 0.00000E+00 0.00000E+00 0.00000E+00 0.00000E+00 0.00000E+00 0.00000E+00
 -1      5095 0.00000E+00 0.00000E+00 0.00000E+00 0.00000E+00 0.00000E+00 0.00000E+00
 -1      5096 0.00000E+00 0.00000E+00 0.00000E+00 0.00000E+00 0.00000E+00 0.00000E+00
 -1      5097 0.00000E+00 0.00000E+00 0.00000E+00 0.00000E+00 0.00000E+00 0.00000E+00
 -1      5098 0.00000E+00 0.00000E+00 0.00000E+00 0.00000E+00 0.00000E+00 0.00000E+00
 -1      5099 0.00000E+00 0.00000E+00 0.00000E+00 0.00000E+00 0.00000E+00 0.00000E+00
 -1      5100 0.00000E+00 0.00000E+00 0.00000E+00 0.00000E+00 0.00000E+00 0.00000E+00
 -1      5101 0.00000E+00 0.00000E+00 0.00000E+00 0.00000E+00 0.00000E+00 0.00000E+00
 -1      5102 0.00000E+00 0.00000E+00 0.00000E+00 0.00000E+00 0.00000E+00 0.00000E+00
 -1      5103 0.00000E+00 0.00000E+00 0.00000E+00 0.00000E+00 0.00000E+00 0.00000E+00
 -1      5104 0.00000E+00 0.00000E+00 0.00000E+00 0.00000E+00 0.00000E+00 0.00000E+00
 -1      5105 0.00000E+00 0.00000E+00 0.00000E+00 0.00000E+00 0.00000E+00 0.00000E+00
 -1      5106 0.00000E+00 0.00000E+00 0.00000E+00 0.00000E+00 0.00000E+00 0.00000E+00
 -1      5107 0.00000E+00 0.00000E+00 0.00000E+00 0.00000E+00 0.00000E+00 0.00000E+00
 -1      5108 0.00000E+00 0.00000E+00 0.00000E+00 0.00000E+00 0.00000E+00 0.00000E+00
 -1      5109 0.00000E+00 0.00000E+00 0.00000E+00 0.00000E+00 0.00000E+00 0.00000E+00
 -1      5110 0.00000E+00 0.00000E+00 0.00000E+00 0.00000E+00 0.00000E+00 0.00000E+00
 -1      5111 0.00000E+00 0.00000E+00 0.00000E+00 0.00000E+00 0.00000E+00 0.00000E+00
 -1      5112 0.00000E+00 0.00000E+00 0.00000E+00 0.00000E+00 0.00000E+00 0.00000E+00
 -1      5113 0.00000E+00 0.00000E+00 0.00000E+00 0.00000E+00 0.00000E+00 0.00000E+00
 -1      5114 0.00000E+00 0.00000E+00 0.00000E+00 0.00000E+00 0.00000E+00 0.00000E+00
 -1      5115 0.00000E+00 0.00000E+00 0.00000E+00 0.00000E+00 0.00000E+00 0.00000E+00
 -1      5116 0.00000E+00 0.00000E+00 0.00000E+00 0.00000E+00 0.00000E+00 0.00000E+00
 -1      5117 0.00000E+00 0.00000E+00 0.00000E+00 0.00000E+00 0.00000E+00 0.00000E+00
 -1      5118 0.00000E+00 0.00000E+00 0.00000E+00 0.00000E+00 0.00000E+00 0.00000E+00
 -1      5119 0.00000E+00 0.00000E+00 0.00000E+00 0.00000E+00 0.00000E+00 0.00000E+00
 -1      5120 0.00000E+00 0.00000E+00 0.00000E+00 0.00000E+00 0.00000E+00 0.00000E+00
 -1      5121 0.00000E+00 0.00000E+00 0.00000E+00 0.00000E+00 0.00000E+00 0.00000E+00
 -1      5122 0.00000E+00 0.00000E+00 0.00000E+00 0.00000E+00 0.00000E+00 0.00000E+00
 -1      5123 0.00000E+00 0.00000E+00 0.00000E+00 0.00000E+00 0.00000E+00 0.00000E+00
 -1      5124 0.00000E+00 0.00000E+00 0.00000E+00 0.00000E+00 0.00000E+00 0.00000E+00
 -1      5125 0.00000E+00 0.00000E+00 0.00000E+00 0.00000E+00 0.00000E+00 0.00000E+00
 -1      5126 0.00000E+00 0.00000E+00 0.00000E+00 0.00000E+00 0.00000E+00 0.00000E+00
 -1      5127 0.00000E+00 0.00000E+00 0.00000E+00 0.00000E+00 0.00000E+00 0.00000E+00
 -1      5128 0.00000E+00 0.00000E+00 0.00000E+00 0.00000E+00 0.00000E+00 0.00000E+00
 -1      5129 0.00000E+00 0.00000E+00 0.00000E+00 0.00000E+00 0.00000E+00 0.00000E+00
 -1      5130 0.00000E+00 0.00000E+00 0.00000E+00 0.00000E+00 0.00000E+00 0.00000E+00
 -1      5131 0.00000E+00 0.00000E+00 0.00000E+00 0.00000E+00 0.00000E+00 0.00000E+00
 -1      5132 0.00000E+00 0.00000E+00 0.00000E+00 0.00000E+00 0.00000E+00 0.00000E+00
 -1      5133 0.00000E+00 0.00000E+00 0.00000E+00 0.00000E+00 0.00000E+00 0.00000E+00
 -1      5134 0.00000E+00 0.00000E+00 0.00000E+00 0.00000E+00 0.00000E+00 0.00000E+00
 -1      5135 0.00000E+00 0.00000E+00 0.00000E+00 0.00000E+00 0.00000E+00 0.00000E+00
 -1      5136 0.00000E+00 0.00000E+00 0.00000E+00 0.00000E+00 0.00000E+00 0.00000E+00
 -1      5137 0.00000E+00 0.00000E+00 0.00000E+00 0.00000E+00 0.00000E+00 0.00000E+00
 -1      5138 0.00000E+00 0.00000E+00 0.00000E+00 0.00000E+00 0.00000E+00 0.00000E+00
 -1      5139 0.00000E+00 0.00000E+00 0.00000E+00 0.00000E+00 0.00000E+00 0.00000E+00
 -1      5140 0.00000E+00 0.00000E+00 0.00000E+00 0.00000E+00 0.00000E+00 0.00000E+00
 -1      5141 0.00000E+00 0.00000E+00 0.00000E+00 0.00000E+00 0.00000E+00 0.00000E+00
 -1      5142 0.00000E+00 0.00000E+00 0.00000E+00 0.00000E+00 0.00000E+00 0.00000E+00
 -1      5143 0.00000E+00 0.00000E+00 0.00000E+00 0.00000E+00 0.00000E+00 0.00000E+00
 -1      5144 0.00000E+00 0.00000E+00 0.00000E+00 0.00000E+00 0.00000E+00 0.00000E+00
 -1      5145 0.00000E+00 0.00000E+00 0.00000E+00 0.00000E+00 0.00000E+00 0.00000E+00
 -1      5146 0.00000E+00 0.00000E+00 0.00000E+00 0.00000E+00 0.00000E+00 0.00000E+00
 -1      5147 0.00000E+00 0.00000E+00 0.00000E+00 0.00000E+00 0.00000E+00 0.00000E+00
 -1      5148 0.00000E+00 0.00000E+00 0.00000E+00 0.00000E+00 0.00000E+00 0.00000E+00
 -1      5149 0.00000E+00 0.00000E+00 0.00000E+00 0.00000E+00 0.00000E+00 0.00000E+00
 -1      5150 0.00000E+00 0.00000E+00 0.00000E+00 0.00000E+00 0.00000E+00 0.00000E+00
 -1      5151 0.00000E+00 0.00000E+00 0.00000E+00 0.00000E+00 0.00000E+00 0.00000E+00
 -1      5152 0.00000E+00 0.00000E+00 0.00000E+00 0.00000E+00 0.00000E+00 0.00000E+00
 -1      5153 0.00000E+00 0.00000E+00 0.00000E+00 0.00000E+00 0.00000E+00 0.00000E+00
 -1      5154 0.00000E+00 0.00000E+00 0.00000E+00 0.00000E+00 0.00000E+00 0.00000E+00
 -1      5155 0.00000E+00 0.00000E+00 0.00000E+00 0.00000E+00 0.00000E+00 0.00000E+00
 -1      5156 0.00000E+00 0.00000E+00 0.00000E+00 0.00000E+00 0.00000E+00 0.00000E+00
 -1      5157 0.00000E+00 0.00000E+00 0.00000E+00 0.00000E+00 0.00000E+00 0.00000E+00
 -1      5158 0.00000E+00 0.00000E+00 0.00000E+00 0.00000E+00 0.00000E+00 0.00000E+00
 -1      5159 0.00000E+00 0.00000E+00 0.00000E+00 0.00000E+00 0.00000E+00 0.00000E+00
 -1      5160 0.00000E+00 0.00000E+00 0.00000E+00 0.00000E+00 0.00000E+00 0.00000E+00
 -1      5161 0.00000E+00 0.00000E+00 0.00000E+00 0.00000E+00 0.00000E+00 0.00000E+00
 -1      5162 0.00000E+00 0.00000E+00 0.00000E+00 0.00000E+00 0.00000E+00 0.00000E+00
 -1      5163 0.00000E+00 0.00000E+00 0.00000E+00 0.00000E+00 0.00000E+00 0.00000E+00
 -1      5164 0.00000E+00 0.00000E+00 0.00000E+00 0.00000E+00 0.00000E+00 0.00000E+00
 -1      5165 0.00000E+00 0.00000E+00 0.00000E+00 0.00000E+00 0.00000E+00 0.00000E+00
 -1      5166 0.00000E+00 0.00000E+00 0.00000E+00 0.00000E+00 0.00000E+00 0.00000E+00
 -1      5167 0.00000E+00 0.00000E+00 0.00000E+00 0.00000E+00 0.00000E+00 0.00000E+00
 -1      5168 0.00000E+00 0.00000E+00 0.00000E+00 0.00000E+00 0.00000E+00 0.00000E+00
 -1      5169 0.00000E+00 0.00000E+00 0.00000E+00 0.00000E+00 0.00000E+00 0.00000E+00
 -1      5170 0.00000E+00 0.00000E+00 0.00000E+00 0.00000E+00 0.00000E+00 0.00000E+00
 -1      5171 0.00000E+00 0.00000E+00 0.00000E+00 0.00000E+00 0.00000E+00 0.00000E+00
 -1      5172 0.00000E+00 0.00000E+00 0.00000E+00 0.00000E+00 0.00000E+00 0.00000E+00
 -1      5173 0.00000E+00 0.00000E+00 0.00000E+00 0.00000E+00 0.00000E+00 0.00000E+00
 -1      5174 0.00000E+00 0.00000E+00 0.00000E+00 0.00000E+00 0.00000E+00 0.00000E+00
 -1      5175 0.00000E+00 0.00000E+00 0.00000E+00 0.00000E+00 0.00000E+00 0.00000E+00
 -1      5176 0.00000E+00 0.00000E+00 0.00000E+00 0.00000E+00 0.00000E+00 0.00000E+00
 -1      5177 0.00000E+00 0.00000E+00 0.00000E+00 0.00000E+00 0.00000E+00 0.00000E+00
 -1      5178 0.00000E+00 0.00000E+00 0.00000E+00 0.00000E+00 0.00000E+00 0.00000E+00
 -1      5179 0.00000E+00 0.00000E+00 0.00000E+00 0.00000E+00 0.00000E+00 0.00000E+00
 -1      5180 0.00000E+00 0.00000E+00 0.00000E+00 0.00000E+00 0.00000E+00 0.00000E+00
 -1      5181 0.00000E+00 0.00000E+00 0.00000E+00 0.00000E+00 0.00000E+00 0.00000E+00
 -1      5182 0.00000E+00 0.00000E+00 0.00000E+00 0.00000E+00 0.00000E+00 0.00000E+00
 -1      5183 0.00000E+00 0.00000E+00 0.00000E+00 0.00000E+00 0.00000E+00 0.00000E+00
 -1      5184 0.00000E+00 0.00000E+00 0.00000E+00 0.00000E+00 0.00000E+00 0.00000E+00
 -1      5185 0.00000E+00 0.00000E+00 0.00000E+00 0.00000E+00 0.00000E+00 0.00000E+00
 -1      5186 0.00000E+00 0.00000E+00 0.00000E+00 0.00000E+00 0.00000E+00 0.00000E+00
 -1      5187 0.00000E+00 0.00000E+00 0.00000E+00 0.00000E+00 0.00000E+00 0.00000E+00
 -1      5188 0.00000E+00 0.00000E+00 0.00000E+00 0.00000E+00 0.00000E+00 0.00000E+00
 -1      5189 0.00000E+00 0.00000E+00 0.00000E+00 0.00000E+00 0.00000E+00 0.00000E+00
 -1      5190 0.00000E+00 0.00000E+00 0.00000E+00 0.00000E+00 0.00000E+00 0.00000E+00
 -1      5191 0.00000E+00 0.00000E+00 0.00000E+00 0.00000E+00 0.00000E+00 0.00000E+00
 -1      5192 0.00000E+00 0.00000E+00 0.00000E+00 0.00000E+00 0.00000E+00 0.00000E+00
 -1      5193 0.00000E+00 0.00000E+00 0.00000E+00 0.00000E+00 0.00000E+00 0.00000E+00
 -1      5194 0.00000E+00 0.00000E+00 0.00000E+00 0.00000E+00 0.00000E+00 0.00000E+00
 -1      5195 0.00000E+00 0.00000E+00 0.00000E+00 0.00000E+00 0.00000E+00 0.00000E+00
 -1      5196 0.00000E+00 0.00000E+00 0.00000E+00 0.00000E+00 0.00000E+00 0.00000E+00
 -1      5197 0.00000E+00 0.00000E+00 0.00000E+00 0.00000E+00 0.00000E+00 0.00000E+00
 -1      5198 0.00000E+00 0.00000E+00 0.00000E+00 0.00000E+00 0.00000E+00 0.00000E+00
 -1      5199 0.00000E+00 0.00000E+00 0.00000E+00 0.00000E+00 0.00000E+00 0.00000E+00
 -1      5200 0.00000E+00 0.00000E+00 0.00000E+00 0.00000E+00 0.00000E+00 0.00000E+00
 -1      5201 0.00000E+00 0.00000E+00 0.00000E+00 0.00000E+00 0.00000E+00 0.00000E+00
 -1      5202 0.00000E+00 0.00000E+00 0.00000E+00 0.00000E+00 0.00000E+00 0.00000E+00
 -1      5203 0.00000E+00 0.00000E+00 0.00000E+00 0.00000E+00 0.00000E+00 0.00000E+00
 -1      5204 0.00000E+00 0.00000E+00 0.00000E+00 0.00000E+00 0.00000E+00 0.00000E+00
 -1      5205 0.00000E+00 0.00000E+00 0.00000E+00 0.00000E+00 0.00000E+00 0.00000E+00
 -1      5206 0.00000E+00 0.00000E+00 0.00000E+00 0.00000E+00 0.00000E+00 0.00000E+00
 -1      5207 0.00000E+00 0.00000E+00 0.00000E+00 0.00000E+00 0.00000E+00 0.00000E+00
 -1      5208 0.00000E+00 0.00000E+00 0.00000E+00 0.00000E+00 0.00000E+00 0.00000E+00
 -1      5209 0.00000E+00 0.00000E+00 0.00000E+00 0.00000E+00 0.00000E+00 0.00000E+00
 -1      5210 0.00000E+00 0.00000E+00 0.00000E+00 0.00000E+00 0.00000E+00 0.00000E+00
 -1      5211 0.00000E+00 0.00000E+00 0.00000E+00 0.00000E+00 0.00000E+00 0.00000E+00
 -1      5212 0.00000E+00 0.00000E+00 0.00000E+00 0.00000E+00 0.00000E+00 0.00000E+00
 -1      5213 0.00000E+00 0.00000E+00 0.00000E+00 0.00000E+00 0.00000E+00 0.00000E+00
 -1      5214 0.00000E+00 0.00000E+00 0.00000E+00 0.00000E+00 0.00000E+00 0.00000E+00
 -1      5215 0.00000E+00 0.00000E+00 0.00000E+00 0.00000E+00 0.00000E+00 0.00000E+00
 -1      5216 0.00000E+00 0.00000E+00 0.00000E+00 0.00000E+00 0.00000E+00 0.00000E+00
 -1      5217 0.00000E+00 0.00000E+00 0.00000E+00 0.00000E+00 0.00000E+00 0.00000E+00
 -1      5218 0.00000E+00 0.00000E+00 0.00000E+00 0.00000E+00 0.00000E+00 0.00000E+00
 -1      5219 0.00000E+00 0.00000E+00 0.00000E+00 0.00000E+00 0.00000E+00 0.00000E+00
 -1      5220 0.00000E+00 0.00000E+00 0.00000E+00 0.00000E+00 0.00000E+00 0.00000E+00
 -1      5221 0.00000E+00 0.00000E+00 0.00000E+00 0.00000E+00 0.00000E+00 0.00000E+00
 -1      5222 0.00000E+00 0.00000E+00 0.00000E+00 0.00000E+00 0.00000E+00 0.00000E+00
 -1      5223 0.00000E+00 0.00000E+00 0.00000E+00 0.00000E+00 0.00000E+00 0.00000E+00
 -1      5224 0.00000E+00 0.00000E+00 0.00000E+00 0.00000E+00 0.00000E+00 0.00000E+00
 -1      5225 0.00000E+00 0.00000E+00 0.00000E+00 0.00000E+00 0.00000E+00 0.00000E+00
 -1      5226 0.00000E+00 0.00000E+00 0.00000E+00 0.00000E+00 0.00000E+00 0.00000E+00
 -1      5227 0.00000E+00 0.00000E+00 0.00000E+00 0.00000E+00 0.00000E+00 0.00000E+00
 -1      5228 0.00000E+00 0.00000E+00 0.00000E+00 0.00000E+00 0.00000E+00 0.00000E+00
 -1      5229 0.00000E+00 0.00000E+00 0.00000E+00 0.00000E+00 0.00000E+00 0.00000E+00
 -1      5230 0.00000E+00 0.00000E+00 0.00000E+00 0.00000E+00 0.00000E+00 0.00000E+00
 -1      5231 0.00000E+00 0.00000E+00 0.00000E+00 0.00000E+00 0.00000E+00 0.00000E+00
 -1      5232 0.00000E+00 0.00000E+00 0.00000E+00 0.00000E+00 0.00000E+00 0.00000E+00
 -1      5233 0.00000E+00 0.00000E+00 0.00000E+00 0.00000E+00 0.00000E+00 0.00000E+00
 -1      5234 0.00000E+00 0.00000E+00 0.00000E+00 0.00000E+00 0.00000E+00 0.00000E+00
 -1      5235 0.00000E+00 0.00000E+00 0.00000E+00 0.00000E+00 0.00000E+00 0.00000E+00
 -1      5236 0.00000E+00 0.00000E+00 0.00000E+00 0.00000E+00 0.00000E+00 0.00000E+00
 -1      5237 0.00000E+00 0.00000E+00 0.00000E+00 0.00000E+00 0.00000E+00 0.00000E+00
 -1      5238 0.00000E+00 0.00000E+00 0.00000E+00 0.00000E+00 0.00000E+00 0.00000E+00
 -1      5239 0.00000E+00 0.00000E+00 0.00000E+00 0.00000E+00 0.00000E+00 0.00000E+00
 -1      5240 0.00000E+00 0.00000E+00 0.00000E+00 0.00000E+00 0.00000E+00 0.00000E+00
 -1      5241 0.00000E+00 0.00000E+00 0.00000E+00 0.00000E+00 0.00000E+00 0.00000E+00
 -1      5242 0.00000E+00 0.00000E+00 0.00000E+00 0.00000E+00 0.00000E+00 0.00000E+00
 -1      5243 0.00000E+00 0.00000E+00 0.00000E+00 0.00000E+00 0.00000E+00 0.00000E+00
 -1      5244 0.00000E+00 0.00000E+00 0.00000E+00 0.00000E+00 0.00000E+00 0.00000E+00
 -1      5245 0.00000E+00 0.00000E+00 0.00000E+00 0.00000E+00 0.00000E+00 0.00000E+00
 -1      5246 0.00000E+00 0.00000E+00 0.00000E+00 0.00000E+00 0.00000E+00 0.00000E+00
 -1      5247 0.00000E+00 0.00000E+00 0.00000E+00 0.00000E+00 0.00000E+00 0.00000E+00
 -1      5248 0.00000E+00 0.00000E+00 0.00000E+00 0.00000E+00 0.00000E+00 0.00000E+00
 -1      5249 0.00000E+00 0.00000E+00 0.00000E+00 0.00000E+00 0.00000E+00 0.00000E+00
 -1      5250 0.00000E+00 0.00000E+00 0.00000E+00 0.00000E+00 0.00000E+00 0.00000E+00
 -1      5251 0.00000E+00 0.00000E+00 0.00000E+00 0.00000E+00 0.00000E+00 0.00000E+00
 -1      5252 0.00000E+00 0.00000E+00 0.00000E+00 0.00000E+00 0.00000E+00 0.00000E+00
 -1      5253 0.00000E+00 0.00000E+00 0.00000E+00 0.00000E+00 0.00000E+00 0.00000E+00
 -1      5254 0.00000E+00 0.00000E+00 0.00000E+00 0.00000E+00 0.00000E+00 0.00000E+00
 -1      5255 0.00000E+00 0.00000E+00 0.00000E+00 0.00000E+00 0.00000E+00 0.00000E+00
 -1      5256 0.00000E+00 0.00000E+00 0.00000E+00 0.00000E+00 0.00000E+00 0.00000E+00
 -1      5257 0.00000E+00 0.00000E+00 0.00000E+00 0.00000E+00 0.00000E+00 0.00000E+00
 -1      5258 0.00000E+00 0.00000E+00 0.00000E+00 0.00000E+00 0.00000E+00 0.00000E+00
 -1      5259 0.00000E+00 0.00000E+00 0.00000E+00 0.00000E+00 0.00000E+00 0.00000E+00
 -1      5260 0.00000E+00 0.00000E+00 0.00000E+00 0.00000E+00 0.00000E+00 0.00000E+00
 -1      5261 0.00000E+00 0.00000E+00 0.00000E+00 0.00000E+00 0.00000E+00 0.00000E+00
 -1      5262 0.00000E+00 0.00000E+00 0.00000E+00 0.00000E+00 0.00000E+00 0.00000E+00
 -1      5263 0.00000E+00 0.00000E+00 0.00000E+00 0.00000E+00 0.00000E+00 0.00000E+00
 -1      5264 0.00000E+00 0.00000E+00 0.00000E+00 0.00000E+00 0.00000E+00 0.00000E+00
 -1      5265 0.00000E+00 0.00000E+00 0.00000E+00 0.00000E+00 0.00000E+00 0.00000E+00
 -1      5266 0.00000E+00 0.00000E+00 0.00000E+00 0.00000E+00 0.00000E+00 0.00000E+00
 -1      5267 0.00000E+00 0.00000E+00 0.00000E+00 0.00000E+00 0.00000E+00 0.00000E+00
 -1      5268 0.00000E+00 0.00000E+00 0.00000E+00 0.00000E+00 0.00000E+00 0.00000E+00
 -1      5269 0.00000E+00 0.00000E+00 0.00000E+00 0.00000E+00 0.00000E+00 0.00000E+00
 -1      5270 0.00000E+00 0.00000E+00 0.00000E+00 0.00000E+00 0.00000E+00 0.00000E+00
 -1      5271 0.00000E+00 0.00000E+00 0.00000E+00 0.00000E+00 0.00000E+00 0.00000E+00
 -1      5272 0.00000E+00 0.00000E+00 0.00000E+00 0.00000E+00 0.00000E+00 0.00000E+00
 -1      5273 0.00000E+00 0.00000E+00 0.00000E+00 0.00000E+00 0.00000E+00 0.00000E+00
 -1      5274 0.00000E+00 0.00000E+00 0.00000E+00 0.00000E+00 0.00000E+00 0.00000E+00
 -1      5275 0.00000E+00 0.00000E+00 0.00000E+00 0.00000E+00 0.00000E+00 0.00000E+00
 -1      5276 0.00000E+00 0.00000E+00 0.00000E+00 0.00000E+00 0.00000E+00 0.00000E+00
 -1      5277 0.00000E+00 0.00000E+00 0.00000E+00 0.00000E+00 0.00000E+00 0.00000E+00
 -1      5278 0.00000E+00 0.00000E+00 0.00000E+00 0.00000E+00 0.00000E+00 0.00000E+00
 -1      5279 0.00000E+00 0.00000E+00 0.00000E+00 0.00000E+00 0.00000E+00 0.00000E+00
 -1      5280 0.00000E+00 0.00000E+00 0.00000E+00 0.00000E+00 0.00000E+00 0.00000E+00
 -1      5281 0.00000E+00 0.00000E+00 0.00000E+00 0.00000E+00 0.00000E+00 0.00000E+00
 -1      5282 0.00000E+00 0.00000E+00 0.00000E+00 0.00000E+00 0.00000E+00 0.00000E+00
 -1      5283 0.00000E+00 0.00000E+00 0.00000E+00 0.00000E+00 0.00000E+00 0.00000E+00
 -1      5284 0.00000E+00 0.00000E+00 0.00000E+00 0.00000E+00 0.00000E+00 0.00000E+00
 -1      5285 0.00000E+00 0.00000E+00 0.00000E+00 0.00000E+00 0.00000E+00 0.00000E+00
 -1      5286 0.00000E+00 0.00000E+00 0.00000E+00 0.00000E+00 0.00000E+00 0.00000E+00
 -1      5287 0.00000E+00 0.00000E+00 0.00000E+00 0.00000E+00 0.00000E+00 0.00000E+00
 -1      5288 0.00000E+00 0.00000E+00 0.00000E+00 0.00000E+00 0.00000E+00 0.00000E+00
 -1      5289 0.00000E+00 0.00000E+00 0.00000E+00 0.00000E+00 0.00000E+00 0.00000E+00
 -1      5290 0.00000E+00 0.00000E+00 0.00000E+00 0.00000E+00 0.00000E+00 0.00000E+00
 -1      5291 0.00000E+00 0.00000E+00 0.00000E+00 0.00000E+00 0.00000E+00 0.00000E+00
 -1      5292 0.00000E+00 0.00000E+00 0.00000E+00 0.00000E+00 0.00000E+00 0.00000E+00
 -1      5293 0.00000E+00 0.00000E+00 0.00000E+00 0.00000E+00 0.00000E+00 0.00000E+00
 -1      5294 0.00000E+00 0.00000E+00 0.00000E+00 0.00000E+00 0.00000E+00 0.00000E+00
 -1      5295 0.00000E+00 0.00000E+00 0.00000E+00 0.00000E+00 0.00000E+00 0.00000E+00
 -1      5296 0.00000E+00 0.00000E+00 0.00000E+00 0.00000E+00 0.00000E+00 0.00000E+00
 -1      5297 0.00000E+00 0.00000E+00 0.00000E+00 0.00000E+00 0.00000E+00 0.00000E+00
 -1      5298 0.00000E+00 0.00000E+00 0.00000E+00 0.00000E+00 0.00000E+00 0.00000E+00
 -1      5299 0.00000E+00 0.00000E+00 0.00000E+00 0.00000E+00 0.00000E+00 0.00000E+00
 -1      5300 0.00000E+00 0.00000E+00 0.00000E+00 0.00000E+00 0.00000E+00 0.00000E+00
 -1      5301 0.00000E+00 0.00000E+00 0.00000E+00 0.00000E+00 0.00000E+00 0.00000E+00
 -1      5302 0.00000E+00 0.00000E+00 0.00000E+00 0.00000E+00 0.00000E+00 0.00000E+00
 -1      5303 0.00000E+00 0.00000E+00 0.00000E+00 0.00000E+00 0.00000E+00 0.00000E+00
 -1      5304 0.00000E+00 0.00000E+00 0.00000E+00 0.00000E+00 0.00000E+00 0.00000E+00
 -1      5305 0.00000E+00 0.00000E+00 0.00000E+00 0.00000E+00 0.00000E+00 0.00000E+00
 -1      5306 0.00000E+00 0.00000E+00 0.00000E+00 0.00000E+00 0.00000E+00 0.00000E+00
 -1      5307 0.00000E+00 0.00000E+00 0.00000E+00 0.00000E+00 0.00000E+00 0.00000E+00
 -1      5308 0.00000E+00 0.00000E+00 0.00000E+00 0.00000E+00 0.00000E+00 0.00000E+00
 -1      5309 0.00000E+00 0.00000E+00 0.00000E+00 0.00000E+00 0.00000E+00 0.00000E+00
 -1      5310 0.00000E+00 0.00000E+00 0.00000E+00 0.00000E+00 0.00000E+00 0.00000E+00
 -1      5311 0.00000E+00 0.00000E+00 0.00000E+00 0.00000E+00 0.00000E+00 0.00000E+00
 -1      5312 0.00000E+00 0.00000E+00 0.00000E+00 0.00000E+00 0.00000E+00 0.00000E+00
 -1      5313 0.00000E+00 0.00000E+00 0.00000E+00 0.00000E+00 0.00000E+00 0.00000E+00
 -1      5314 0.00000E+00 0.00000E+00 0.00000E+00 0.00000E+00 0.00000E+00 0.00000E+00
 -1      5315 0.00000E+00 0.00000E+00 0.00000E+00 0.00000E+00 0.00000E+00 0.00000E+00
 -1      5316 0.00000E+00 0.00000E+00 0.00000E+00 0.00000E+00 0.00000E+00 0.00000E+00
 -1      5317 0.00000E+00 0.00000E+00 0.00000E+00 0.00000E+00 0.00000E+00 0.00000E+00
 -1      5318 0.00000E+00 0.00000E+00 0.00000E+00 0.00000E+00 0.00000E+00 0.00000E+00
 -1      5319 0.00000E+00 0.00000E+00 0.00000E+00 0.00000E+00 0.00000E+00 0.00000E+00
 -1      5320 0.00000E+00 0.00000E+00 0.00000E+00 0.00000E+00 0.00000E+00 0.00000E+00
 -1      5321 0.00000E+00 0.00000E+00 0.00000E+00 0.00000E+00 0.00000E+00 0.00000E+00
 -1      5322 0.00000E+00 0.00000E+00 0.00000E+00 0.00000E+00 0.00000E+00 0.00000E+00
 -1      5323 0.00000E+00 0.00000E+00 0.00000E+00 0.00000E+00 0.00000E+00 0.00000E+00
 -1      5324 0.00000E+00 0.00000E+00 0.00000E+00 0.00000E+00 0.00000E+00 0.00000E+00
 -1      5325 0.00000E+00 0.00000E+00 0.00000E+00 0.00000E+00 0.00000E+00 0.00000E+00
 -1      5326 0.00000E+00 0.00000E+00 0.00000E+00 0.00000E+00 0.00000E+00 0.00000E+00
 -1      5327 0.00000E+00 0.00000E+00 0.00000E+00 0.00000E+00 0.00000E+00 0.00000E+00
 -1      5328 0.00000E+00 0.00000E+00 0.00000E+00 0.00000E+00 0.00000E+00 0.00000E+00
 -1      5329 0.00000E+00 0.00000E+00 0.00000E+00 0.00000E+00 0.00000E+00 0.00000E+00
 -1      5330 0.00000E+00 0.00000E+00 0.00000E+00 0.00000E+00 0.00000E+00 0.00000E+00
 -1      5331 0.00000E+00 0.00000E+00 0.00000E+00 0.00000E+00 0.00000E+00 0.00000E+00
 -1      5332 0.00000E+00 0.00000E+00 0.00000E+00 0.00000E+00 0.00000E+00 0.00000E+00
 -1      5333 0.00000E+00 0.00000E+00 0.00000E+00 0.00000E+00 0.00000E+00 0.00000E+00
 -1      5334 0.00000E+00 0.00000E+00 0.00000E+00 0.00000E+00 0.00000E+00 0.00000E+00
 -1      5335 0.00000E+00 0.00000E+00 0.00000E+00 0.00000E+00 0.00000E+00 0.00000E+00
 -1      5336 0.00000E+00 0.00000E+00 0.00000E+00 0.00000E+00 0.00000E+00 0.00000E+00
 -1      5337 0.00000E+00 0.00000E+00 0.00000E+00 0.00000E+00 0.00000E+00 0.00000E+00
 -1      5338 0.00000E+00 0.00000E+00 0.00000E+00 0.00000E+00 0.00000E+00 0.00000E+00
 -1      5339 0.00000E+00 0.00000E+00 0.00000E+00 0.00000E+00 0.00000E+00 0.00000E+00
 -1      5340 0.00000E+00 0.00000E+00 0.00000E+00 0.00000E+00 0.00000E+00 0.00000E+00
 -1      5341 0.00000E+00 0.00000E+00 0.00000E+00 0.00000E+00 0.00000E+00 0.00000E+00
 -1      5342 0.00000E+00 0.00000E+00 0.00000E+00 0.00000E+00 0.00000E+00 0.00000E+00
 -1      5343 0.00000E+00 0.00000E+00 0.00000E+00 0.00000E+00 0.00000E+00 0.00000E+00
 -1      5344 0.00000E+00 0.00000E+00 0.00000E+00 0.00000E+00 0.00000E+00 0.00000E+00
 -1      5345 0.00000E+00 0.00000E+00 0.00000E+00 0.00000E+00 0.00000E+00 0.00000E+00
 -1      5346 0.00000E+00 0.00000E+00 0.00000E+00 0.00000E+00 0.00000E+00 0.00000E+00
 -1      5347 0.00000E+00 0.00000E+00 0.00000E+00 0.00000E+00 0.00000E+00 0.00000E+00
 -1      5348 0.00000E+00 0.00000E+00 0.00000E+00 0.00000E+00 0.00000E+00 0.00000E+00
 -1      5349 0.00000E+00 0.00000E+00 0.00000E+00 0.00000E+00 0.00000E+00 0.00000E+00
 -1      5350 0.00000E+00 0.00000E+00 0.00000E+00 0.00000E+00 0.00000E+00 0.00000E+00
 -1      5351 0.00000E+00 0.00000E+00 0.00000E+00 0.00000E+00 0.00000E+00 0.00000E+00
 -1      5352 0.00000E+00 0.00000E+00 0.00000E+00 0.00000E+00 0.00000E+00 0.00000E+00
 -1      5353 0.00000E+00 0.00000E+00 0.00000E+00 0.00000E+00 0.00000E+00 0.00000E+00
 -1      5354 0.00000E+00 0.00000E+00 0.00000E+00 0.00000E+00 0.00000E+00 0.00000E+00
 -1      5355 0.00000E+00 0.00000E+00 0.00000E+00 0.00000E+00 0.00000E+00 0.00000E+00
 -1      5356 0.00000E+00 0.00000E+00 0.00000E+00 0.00000E+00 0.00000E+00 0.00000E+00
 -1      5357 0.00000E+00 0.00000E+00 0.00000E+00 0.00000E+00 0.00000E+00 0.00000E+00
 -1      5358 0.00000E+00 0.00000E+00 0.00000E+00 0.00000E+00 0.00000E+00 0.00000E+00
 -1      5359 0.00000E+00 0.00000E+00 0.00000E+00 0.00000E+00 0.00000E+00 0.00000E+00
 -1      5360 0.00000E+00 0.00000E+00 0.00000E+00 0.00000E+00 0.00000E+00 0.00000E+00
 -1      5361 0.00000E+00 0.00000E+00 0.00000E+00 0.00000E+00 0.00000E+00 0.00000E+00
 -1      5362 0.00000E+00 0.00000E+00 0.00000E+00 0.00000E+00 0.00000E+00 0.00000E+00
 -1      5363 0.00000E+00 0.00000E+00 0.00000E+00 0.00000E+00 0.00000E+00 0.00000E+00
 -1      5364 0.00000E+00 0.00000E+00 0.00000E+00 0.00000E+00 0.00000E+00 0.00000E+00
 -1      5365 0.00000E+00 0.00000E+00 0.00000E+00 0.00000E+00 0.00000E+00 0.00000E+00
 -1      5366 0.00000E+00 0.00000E+00 0.00000E+00 0.00000E+00 0.00000E+00 0.00000E+00
 -1      5367 0.00000E+00 0.00000E+00 0.00000E+00 0.00000E+00 0.00000E+00 0.00000E+00
 -1      5368 0.00000E+00 0.00000E+00 0.00000E+00 0.00000E+00 0.00000E+00 0.00000E+00
 -1      5369 0.00000E+00 0.00000E+00 0.00000E+00 0.00000E+00 0.00000E+00 0.00000E+00
 -1      5370 0.00000E+00 0.00000E+00 0.00000E+00 0.00000E+00 0.00000E+00 0.00000E+00
 -1      5371 0.00000E+00 0.00000E+00 0.00000E+00 0.00000E+00 0.00000E+00 0.00000E+00
 -1      5372 0.00000E+00 0.00000E+00 0.00000E+00 0.00000E+00 0.00000E+00 0.00000E+00
 -1      5373 0.00000E+00 0.00000E+00 0.00000E+00 0.00000E+00 0.00000E+00 0.00000E+00
 -1      5374 0.00000E+00 0.00000E+00 0.00000E+00 0.00000E+00 0.00000E+00 0.00000E+00
 -1      5375 0.00000E+00 0.00000E+00 0.00000E+00 0.00000E+00 0.00000E+00 0.00000E+00
 -1      5376 0.00000E+00 0.00000E+00 0.00000E+00 0.00000E+00 0.00000E+00 0.00000E+00
 -1      5377 0.00000E+00 0.00000E+00 0.00000E+00 0.00000E+00 0.00000E+00 0.00000E+00
 -1      5378 0.00000E+00 0.00000E+00 0.00000E+00 0.00000E+00 0.00000E+00 0.00000E+00
 -1      5379 0.00000E+00 0.00000E+00 0.00000E+00 0.00000E+00 0.00000E+00 0.00000E+00
 -1      5380 0.00000E+00 0.00000E+00 0.00000E+00 0.00000E+00 0.00000E+00 0.00000E+00
 -1      5381 0.00000E+00 0.00000E+00 0.00000E+00 0.00000E+00 0.00000E+00 0.00000E+00
 -1      5382 0.00000E+00 0.00000E+00 0.00000E+00 0.00000E+00 0.00000E+00 0.00000E+00
 -1      5383 0.00000E+00 0.00000E+00 0.00000E+00 0.00000E+00 0.00000E+00 0.00000E+00
 -1      5384 0.00000E+00 0.00000E+00 0.00000E+00 0.00000E+00 0.00000E+00 0.00000E+00
 -1      5385 0.00000E+00 0.00000E+00 0.00000E+00 0.00000E+00 0.00000E+00 0.00000E+00
 -1      5386 0.00000E+00 0.00000E+00 0.00000E+00 0.00000E+00 0.00000E+00 0.00000E+00
 -1      5387 0.00000E+00 0.00000E+00 0.00000E+00 0.00000E+00 0.00000E+00 0.00000E+00
 -1      5388 0.00000E+00 0.00000E+00 0.00000E+00 0.00000E+00 0.00000E+00 0.00000E+00
 -1      5389 0.00000E+00 0.00000E+00 0.00000E+00 0.00000E+00 0.00000E+00 0.00000E+00
 -1      5390 0.00000E+00 0.00000E+00 0.00000E+00 0.00000E+00 0.00000E+00 0.00000E+00
 -1      5391 0.00000E+00 0.00000E+00 0.00000E+00 0.00000E+00 0.00000E+00 0.00000E+00
 -1      5392 0.00000E+00 0.00000E+00 0.00000E+00 0.00000E+00 0.00000E+00 0.00000E+00
 -1      5393 0.00000E+00 0.00000E+00 0.00000E+00 0.00000E+00 0.00000E+00 0.00000E+00
 -1      5394 0.00000E+00 0.00000E+00 0.00000E+00 0.00000E+00 0.00000E+00 0.00000E+00
 -1      5395 0.00000E+00 0.00000E+00 0.00000E+00 0.00000E+00 0.00000E+00 0.00000E+00
 -1      5396 0.00000E+00 0.00000E+00 0.00000E+00 0.00000E+00 0.00000E+00 0.00000E+00
 -1      5397 0.00000E+00 0.00000E+00 0.00000E+00 0.00000E+00 0.00000E+00 0.00000E+00
 -1      5398 0.00000E+00 0.00000E+00 0.00000E+00 0.00000E+00 0.00000E+00 0.00000E+00
 -1      5399 0.00000E+00 0.00000E+00 0.00000E+00 0.00000E+00 0.00000E+00 0.00000E+00
 -1      5400 0.00000E+00 0.00000E+00 0.00000E+00 0.00000E+00 0.00000E+00 0.00000E+00
 -1      5401 0.00000E+00 0.00000E+00 0.00000E+00 0.00000E+00 0.00000E+00 0.00000E+00
 -1      5402 0.00000E+00 0.00000E+00 0.00000E+00 0.00000E+00 0.00000E+00 0.00000E+00
 -1      5403 0.00000E+00 0.00000E+00 0.00000E+00 0.00000E+00 0.00000E+00 0.00000E+00
 -1      5404 0.00000E+00 0.00000E+00 0.00000E+00 0.00000E+00 0.00000E+00 0.00000E+00
 -1      5405 0.00000E+00 0.00000E+00 0.00000E+00 0.00000E+00 0.00000E+00 0.00000E+00
 -1      5406 0.00000E+00 0.00000E+00 0.00000E+00 0.00000E+00 0.00000E+00 0.00000E+00
 -1      5407 0.00000E+00 0.00000E+00 0.00000E+00 0.00000E+00 0.00000E+00 0.00000E+00
 -1      5408 0.00000E+00 0.00000E+00 0.00000E+00 0.00000E+00 0.00000E+00 0.00000E+00
 -1      5409 0.00000E+00 0.00000E+00 0.00000E+00 0.00000E+00 0.00000E+00 0.00000E+00
 -1      5410 0.00000E+00 0.00000E+00 0.00000E+00 0.00000E+00 0.00000E+00 0.00000E+00
 -1      5411 0.00000E+00 0.00000E+00 0.00000E+00 0.00000E+00 0.00000E+00 0.00000E+00
 -1      5412 0.00000E+00 0.00000E+00 0.00000E+00 0.00000E+00 0.00000E+00 0.00000E+00
 -1      5413 0.00000E+00 0.00000E+00 0.00000E+00 0.00000E+00 0.00000E+00 0.00000E+00
 -1      5414 0.00000E+00 0.00000E+00 0.00000E+00 0.00000E+00 0.00000E+00 0.00000E+00
 -1      5415 0.00000E+00 0.00000E+00 0.00000E+00 0.00000E+00 0.00000E+00 0.00000E+00
 -1      5416 0.00000E+00 0.00000E+00 0.00000E+00 0.00000E+00 0.00000E+00 0.00000E+00
 -1      5417 0.00000E+00 0.00000E+00 0.00000E+00 0.00000E+00 0.00000E+00 0.00000E+00
 -1      5418 0.00000E+00 0.00000E+00 0.00000E+00 0.00000E+00 0.00000E+00 0.00000E+00
 -1      5419 0.00000E+00 0.00000E+00 0.00000E+00 0.00000E+00 0.00000E+00 0.00000E+00
 -1      5420 0.00000E+00 0.00000E+00 0.00000E+00 0.00000E+00 0.00000E+00 0.00000E+00
 -1      5421 0.00000E+00 0.00000E+00 0.00000E+00 0.00000E+00 0.00000E+00 0.00000E+00
 -1      5422 0.00000E+00 0.00000E+00 0.00000E+00 0.00000E+00 0.00000E+00 0.00000E+00
 -1      5423 0.00000E+00 0.00000E+00 0.00000E+00 0.00000E+00 0.00000E+00 0.00000E+00
 -1      5424 0.00000E+00 0.00000E+00 0.00000E+00 0.00000E+00 0.00000E+00 0.00000E+00
 -1      5425 0.00000E+00 0.00000E+00 0.00000E+00 0.00000E+00 0.00000E+00 0.00000E+00
 -1      5426 0.00000E+00 0.00000E+00 0.00000E+00 0.00000E+00 0.00000E+00 0.00000E+00
 -1      5427 0.00000E+00 0.00000E+00 0.00000E+00 0.00000E+00 0.00000E+00 0.00000E+00
 -1      5428 0.00000E+00 0.00000E+00 0.00000E+00 0.00000E+00 0.00000E+00 0.00000E+00
 -1      5429 0.00000E+00 0.00000E+00 0.00000E+00 0.00000E+00 0.00000E+00 0.00000E+00
 -1      5430 0.00000E+00 0.00000E+00 0.00000E+00 0.00000E+00 0.00000E+00 0.00000E+00
 -1      5431 0.00000E+00 0.00000E+00 0.00000E+00 0.00000E+00 0.00000E+00 0.00000E+00
 -1      5432 0.00000E+00 0.00000E+00 0.00000E+00 0.00000E+00 0.00000E+00 0.00000E+00
 -1      5433 0.00000E+00 0.00000E+00 0.00000E+00 0.00000E+00 0.00000E+00 0.00000E+00
 -1      5434 0.00000E+00 0.00000E+00 0.00000E+00 0.00000E+00 0.00000E+00 0.00000E+00
 -1      5435 0.00000E+00 0.00000E+00 0.00000E+00 0.00000E+00 0.00000E+00 0.00000E+00
 -1      5436 0.00000E+00 0.00000E+00 0.00000E+00 0.00000E+00 0.00000E+00 0.00000E+00
 -1      5437 0.00000E+00 0.00000E+00 0.00000E+00 0.00000E+00 0.00000E+00 0.00000E+00
 -1      5438 0.00000E+00 0.00000E+00 0.00000E+00 0.00000E+00 0.00000E+00 0.00000E+00
 -1      5439 0.00000E+00 0.00000E+00 0.00000E+00 0.00000E+00 0.00000E+00 0.00000E+00
 -1      5440 0.00000E+00 0.00000E+00 0.00000E+00 0.00000E+00 0.00000E+00 0.00000E+00
 -1      5441 0.00000E+00 0.00000E+00 0.00000E+00 0.00000E+00 0.00000E+00 0.00000E+00
 -1      5442 0.00000E+00 0.00000E+00 0.00000E+00 0.00000E+00 0.00000E+00 0.00000E+00
 -1      5443 0.00000E+00 0.00000E+00 0.00000E+00 0.00000E+00 0.00000E+00 0.00000E+00
 -1      5444 0.00000E+00 0.00000E+00 0.00000E+00 0.00000E+00 0.00000E+00 0.00000E+00
 -1      5445 0.00000E+00 0.00000E+00 0.00000E+00 0.00000E+00 0.00000E+00 0.00000E+00
 -1      5446 0.00000E+00 0.00000E+00 0.00000E+00 0.00000E+00 0.00000E+00 0.00000E+00
 -1      5447 0.00000E+00 0.00000E+00 0.00000E+00 0.00000E+00 0.00000E+00 0.00000E+00
 -1      5448 0.00000E+00 0.00000E+00 0.00000E+00 0.00000E+00 0.00000E+00 0.00000E+00
 -1      5449 0.00000E+00 0.00000E+00 0.00000E+00 0.00000E+00 0.00000E+00 0.00000E+00
 -1      5450 0.00000E+00 0.00000E+00 0.00000E+00 0.00000E+00 0.00000E+00 0.00000E+00
 -1      5451 0.00000E+00 0.00000E+00 0.00000E+00 0.00000E+00 0.00000E+00 0.00000E+00
 -1      5452 0.00000E+00 0.00000E+00 0.00000E+00 0.00000E+00 0.00000E+00 0.00000E+00
 -1      5453 0.00000E+00 0.00000E+00 0.00000E+00 0.00000E+00 0.00000E+00 0.00000E+00
 -1      5454 0.00000E+00 0.00000E+00 0.00000E+00 0.00000E+00 0.00000E+00 0.00000E+00
 -1      5455 0.00000E+00 0.00000E+00 0.00000E+00 0.00000E+00 0.00000E+00 0.00000E+00
 -1      5456 0.00000E+00 0.00000E+00 0.00000E+00 0.00000E+00 0.00000E+00 0.00000E+00
 -1      5457 0.00000E+00 0.00000E+00 0.00000E+00 0.00000E+00 0.00000E+00 0.00000E+00
 -1      5458 0.00000E+00 0.00000E+00 0.00000E+00 0.00000E+00 0.00000E+00 0.00000E+00
 -1      5459 0.00000E+00 0.00000E+00 0.00000E+00 0.00000E+00 0.00000E+00 0.00000E+00
 -1      5460 0.00000E+00 0.00000E+00 0.00000E+00 0.00000E+00 0.00000E+00 0.00000E+00
 -1      5461 0.00000E+00 0.00000E+00 0.00000E+00 0.00000E+00 0.00000E+00 0.00000E+00
 -1      5462 0.00000E+00 0.00000E+00 0.00000E+00 0.00000E+00 0.00000E+00 0.00000E+00
 -1      5463 0.00000E+00 0.00000E+00 0.00000E+00 0.00000E+00 0.00000E+00 0.00000E+00
 -1      5464 0.00000E+00 0.00000E+00 0.00000E+00 0.00000E+00 0.00000E+00 0.00000E+00
 -1      5465 0.00000E+00 0.00000E+00 0.00000E+00 0.00000E+00 0.00000E+00 0.00000E+00
 -1      5466 0.00000E+00 0.00000E+00 0.00000E+00 0.00000E+00 0.00000E+00 0.00000E+00
 -1      5467 0.00000E+00 0.00000E+00 0.00000E+00 0.00000E+00 0.00000E+00 0.00000E+00
 -1      5468 0.00000E+00 0.00000E+00 0.00000E+00 0.00000E+00 0.00000E+00 0.00000E+00
 -1      5469 0.00000E+00 0.00000E+00 0.00000E+00 0.00000E+00 0.00000E+00 0.00000E+00
 -1      5470 0.00000E+00 0.00000E+00 0.00000E+00 0.00000E+00 0.00000E+00 0.00000E+00
 -1      5471 0.00000E+00 0.00000E+00 0.00000E+00 0.00000E+00 0.00000E+00 0.00000E+00
 -1      5472 0.00000E+00 0.00000E+00 0.00000E+00 0.00000E+00 0.00000E+00 0.00000E+00
 -1      5473 0.00000E+00 0.00000E+00 0.00000E+00 0.00000E+00 0.00000E+00 0.00000E+00
 -1      5474 0.00000E+00 0.00000E+00 0.00000E+00 0.00000E+00 0.00000E+00 0.00000E+00
 -1      5475 0.00000E+00 0.00000E+00 0.00000E+00 0.00000E+00 0.00000E+00 0.00000E+00
 -1      5476 0.00000E+00 0.00000E+00 0.00000E+00 0.00000E+00 0.00000E+00 0.00000E+00
 -1      5477 0.00000E+00 0.00000E+00 0.00000E+00 0.00000E+00 0.00000E+00 0.00000E+00
 -1      5478 0.00000E+00 0.00000E+00 0.00000E+00 0.00000E+00 0.00000E+00 0.00000E+00
 -1      5479 0.00000E+00 0.00000E+00 0.00000E+00 0.00000E+00 0.00000E+00 0.00000E+00
 -1      5480 0.00000E+00 0.00000E+00 0.00000E+00 0.00000E+00 0.00000E+00 0.00000E+00
 -1      5481 0.00000E+00 0.00000E+00 0.00000E+00 0.00000E+00 0.00000E+00 0.00000E+00
 -1      5482 0.00000E+00 0.00000E+00 0.00000E+00 0.00000E+00 0.00000E+00 0.00000E+00
 -1      5483 0.00000E+00 0.00000E+00 0.00000E+00 0.00000E+00 0.00000E+00 0.00000E+00
 -1      5484 0.00000E+00 0.00000E+00 0.00000E+00 0.00000E+00 0.00000E+00 0.00000E+00
 -1      5485 0.00000E+00 0.00000E+00 0.00000E+00 0.00000E+00 0.00000E+00 0.00000E+00
 -1      5486 0.00000E+00 0.00000E+00 0.00000E+00 0.00000E+00 0.00000E+00 0.00000E+00
 -1      5487 0.00000E+00 0.00000E+00 0.00000E+00 0.00000E+00 0.00000E+00 0.00000E+00
 -1      5488 0.00000E+00 0.00000E+00 0.00000E+00 0.00000E+00 0.00000E+00 0.00000E+00
 -1      5489 0.00000E+00 0.00000E+00 0.00000E+00 0.00000E+00 0.00000E+00 0.00000E+00
 -1      5490 0.00000E+00 0.00000E+00 0.00000E+00 0.00000E+00 0.00000E+00 0.00000E+00
 -1      5491 0.00000E+00 0.00000E+00 0.00000E+00 0.00000E+00 0.00000E+00 0.00000E+00
 -1      5492 0.00000E+00 0.00000E+00 0.00000E+00 0.00000E+00 0.00000E+00 0.00000E+00
 -1      5493 0.00000E+00 0.00000E+00 0.00000E+00 0.00000E+00 0.00000E+00 0.00000E+00
 -1      5494 0.00000E+00 0.00000E+00 0.00000E+00 0.00000E+00 0.00000E+00 0.00000E+00
 -1      5495 0.00000E+00 0.00000E+00 0.00000E+00 0.00000E+00 0.00000E+00 0.00000E+00
 -1      5496 0.00000E+00 0.00000E+00 0.00000E+00 0.00000E+00 0.00000E+00 0.00000E+00
 -1      5497 0.00000E+00 0.00000E+00 0.00000E+00 0.00000E+00 0.00000E+00 0.00000E+00
 -1      5498 0.00000E+00 0.00000E+00 0.00000E+00 0.00000E+00 0.00000E+00 0.00000E+00
 -1      5499 0.00000E+00 0.00000E+00 0.00000E+00 0.00000E+00 0.00000E+00 0.00000E+00
 -1      5500 0.00000E+00 0.00000E+00 0.00000E+00 0.00000E+00 0.00000E+00 0.00000E+00
 -1      5501 0.00000E+00 0.00000E+00 0.00000E+00 0.00000E+00 0.00000E+00 0.00000E+00
 -1      5502 0.00000E+00 0.00000E+00 0.00000E+00 0.00000E+00 0.00000E+00 0.00000E+00
 -1      5503 0.00000E+00 0.00000E+00 0.00000E+00 0.00000E+00 0.00000E+00 0.00000E+00
 -1      5504 0.00000E+00 0.00000E+00 0.00000E+00 0.00000E+00 0.00000E+00 0.00000E+00
 -1      5505 0.00000E+00 0.00000E+00 0.00000E+00 0.00000E+00 0.00000E+00 0.00000E+00
 -1      5506 0.00000E+00 0.00000E+00 0.00000E+00 0.00000E+00 0.00000E+00 0.00000E+00
 -1      5507 0.00000E+00 0.00000E+00 0.00000E+00 0.00000E+00 0.00000E+00 0.00000E+00
 -1      5508 0.00000E+00 0.00000E+00 0.00000E+00 0.00000E+00 0.00000E+00 0.00000E+00
 -1      5509 0.00000E+00 0.00000E+00 0.00000E+00 0.00000E+00 0.00000E+00 0.00000E+00
 -1      5510 0.00000E+00 0.00000E+00 0.00000E+00 0.00000E+00 0.00000E+00 0.00000E+00
 -1      5511 0.00000E+00 0.00000E+00 0.00000E+00 0.00000E+00 0.00000E+00 0.00000E+00
 -1      5512 0.00000E+00 0.00000E+00 0.00000E+00 0.00000E+00 0.00000E+00 0.00000E+00
 -1      5513 0.00000E+00 0.00000E+00 0.00000E+00 0.00000E+00 0.00000E+00 0.00000E+00
 -1      5514 0.00000E+00 0.00000E+00 0.00000E+00 0.00000E+00 0.00000E+00 0.00000E+00
 -1      5515 0.00000E+00 0.00000E+00 0.00000E+00 0.00000E+00 0.00000E+00 0.00000E+00
 -1      5516 0.00000E+00 0.00000E+00 0.00000E+00 0.00000E+00 0.00000E+00 0.00000E+00
 -1      5517 0.00000E+00 0.00000E+00 0.00000E+00 0.00000E+00 0.00000E+00 0.00000E+00
 -1      5518 0.00000E+00 0.00000E+00 0.00000E+00 0.00000E+00 0.00000E+00 0.00000E+00
 -1      5519 0.00000E+00 0.00000E+00 0.00000E+00 0.00000E+00 0.00000E+00 0.00000E+00
 -1      5520 0.00000E+00 0.00000E+00 0.00000E+00 0.00000E+00 0.00000E+00 0.00000E+00
 -1      5521 0.00000E+00 0.00000E+00 0.00000E+00 0.00000E+00 0.00000E+00 0.00000E+00
 -1      5522 0.00000E+00 0.00000E+00 0.00000E+00 0.00000E+00 0.00000E+00 0.00000E+00
 -1      5523 0.00000E+00 0.00000E+00 0.00000E+00 0.00000E+00 0.00000E+00 0.00000E+00
 -1      5524 0.00000E+00 0.00000E+00 0.00000E+00 0.00000E+00 0.00000E+00 0.00000E+00
 -1      5525 0.00000E+00 0.00000E+00 0.00000E+00 0.00000E+00 0.00000E+00 0.00000E+00
 -1      5526 0.00000E+00 0.00000E+00 0.00000E+00 0.00000E+00 0.00000E+00 0.00000E+00
 -1      5527 0.00000E+00 0.00000E+00 0.00000E+00 0.00000E+00 0.00000E+00 0.00000E+00
 -1      5528 0.00000E+00 0.00000E+00 0.00000E+00 0.00000E+00 0.00000E+00 0.00000E+00
 -1      5529 0.00000E+00 0.00000E+00 0.00000E+00 0.00000E+00 0.00000E+00 0.00000E+00
 -1      5530 0.00000E+00 0.00000E+00 0.00000E+00 0.00000E+00 0.00000E+00 0.00000E+00
 -1      5531 0.00000E+00 0.00000E+00 0.00000E+00 0.00000E+00 0.00000E+00 0.00000E+00
 -1      5532 0.00000E+00 0.00000E+00 0.00000E+00 0.00000E+00 0.00000E+00 0.00000E+00
 -1      5533 0.00000E+00 0.00000E+00 0.00000E+00 0.00000E+00 0.00000E+00 0.00000E+00
 -1      5534 0.00000E+00 0.00000E+00 0.00000E+00 0.00000E+00 0.00000E+00 0.00000E+00
 -1      5535 0.00000E+00 0.00000E+00 0.00000E+00 0.00000E+00 0.00000E+00 0.00000E+00
 -1      5536 0.00000E+00 0.00000E+00 0.00000E+00 0.00000E+00 0.00000E+00 0.00000E+00
 -1      5537 0.00000E+00 0.00000E+00 0.00000E+00 0.00000E+00 0.00000E+00 0.00000E+00
 -1      5538 0.00000E+00 0.00000E+00 0.00000E+00 0.00000E+00 0.00000E+00 0.00000E+00
 -1      5539 0.00000E+00 0.00000E+00 0.00000E+00 0.00000E+00 0.00000E+00 0.00000E+00
 -1      5540 0.00000E+00 0.00000E+00 0.00000E+00 0.00000E+00 0.00000E+00 0.00000E+00
 -1      5541 0.00000E+00 0.00000E+00 0.00000E+00 0.00000E+00 0.00000E+00 0.00000E+00
 -1      5542 0.00000E+00 0.00000E+00 0.00000E+00 0.00000E+00 0.00000E+00 0.00000E+00
 -1      5543 0.00000E+00 0.00000E+00 0.00000E+00 0.00000E+00 0.00000E+00 0.00000E+00
 -1      5544 0.00000E+00 0.00000E+00 0.00000E+00 0.00000E+00 0.00000E+00 0.00000E+00
 -1      5545 0.00000E+00 0.00000E+00 0.00000E+00 0.00000E+00 0.00000E+00 0.00000E+00
 -1      5546 0.00000E+00 0.00000E+00 0.00000E+00 0.00000E+00 0.00000E+00 0.00000E+00
 -1      5547 0.00000E+00 0.00000E+00 0.00000E+00 0.00000E+00 0.00000E+00 0.00000E+00
 -1      5548 0.00000E+00 0.00000E+00 0.00000E+00 0.00000E+00 0.00000E+00 0.00000E+00
 -1      5549 0.00000E+00 0.00000E+00 0.00000E+00 0.00000E+00 0.00000E+00 0.00000E+00
 -1      5550 0.00000E+00 0.00000E+00 0.00000E+00 0.00000E+00 0.00000E+00 0.00000E+00
 -1      5551 0.00000E+00 0.00000E+00 0.00000E+00 0.00000E+00 0.00000E+00 0.00000E+00
 -1      5552 0.00000E+00 0.00000E+00 0.00000E+00 0.00000E+00 0.00000E+00 0.00000E+00
 -1      5553 0.00000E+00 0.00000E+00 0.00000E+00 0.00000E+00 0.00000E+00 0.00000E+00
 -1      5554 0.00000E+00 0.00000E+00 0.00000E+00 0.00000E+00 0.00000E+00 0.00000E+00
 -1      5555 0.00000E+00 0.00000E+00 0.00000E+00 0.00000E+00 0.00000E+00 0.00000E+00
 -1      5556 0.00000E+00 0.00000E+00 0.00000E+00 0.00000E+00 0.00000E+00 0.00000E+00
 -1      5557 0.00000E+00 0.00000E+00 0.00000E+00 0.00000E+00 0.00000E+00 0.00000E+00
 -1      5558 0.00000E+00 0.00000E+00 0.00000E+00 0.00000E+00 0.00000E+00 0.00000E+00
 -1      5559 0.00000E+00 0.00000E+00 0.00000E+00 0.00000E+00 0.00000E+00 0.00000E+00
 -1      5560 0.00000E+00 0.00000E+00 0.00000E+00 0.00000E+00 0.00000E+00 0.00000E+00
 -1      5561 0.00000E+00 0.00000E+00 0.00000E+00 0.00000E+00 0.00000E+00 0.00000E+00
 -1      5562 0.00000E+00 0.00000E+00 0.00000E+00 0.00000E+00 0.00000E+00 0.00000E+00
 -1      5563 0.00000E+00 0.00000E+00 0.00000E+00 0.00000E+00 0.00000E+00 0.00000E+00
 -1      5564 0.00000E+00 0.00000E+00 0.00000E+00 0.00000E+00 0.00000E+00 0.00000E+00
 -1      5565 0.00000E+00 0.00000E+00 0.00000E+00 0.00000E+00 0.00000E+00 0.00000E+00
 -1      5566 0.00000E+00 0.00000E+00 0.00000E+00 0.00000E+00 0.00000E+00 0.00000E+00
 -1      5567 0.00000E+00 0.00000E+00 0.00000E+00 0.00000E+00 0.00000E+00 0.00000E+00
 -1      5568 0.00000E+00 0.00000E+00 0.00000E+00 0.00000E+00 0.00000E+00 0.00000E+00
 -1      5569 0.00000E+00 0.00000E+00 0.00000E+00 0.00000E+00 0.00000E+00 0.00000E+00
 -1      5570 0.00000E+00 0.00000E+00 0.00000E+00 0.00000E+00 0.00000E+00 0.00000E+00
 -1      5571 0.00000E+00 0.00000E+00 0.00000E+00 0.00000E+00 0.00000E+00 0.00000E+00
 -1      5572 0.00000E+00 0.00000E+00 0.00000E+00 0.00000E+00 0.00000E+00 0.00000E+00
 -1      5573 0.00000E+00 0.00000E+00 0.00000E+00 0.00000E+00 0.00000E+00 0.00000E+00
 -1      5574 0.00000E+00 0.00000E+00 0.00000E+00 0.00000E+00 0.00000E+00 0.00000E+00
 -1      5575 0.00000E+00 0.00000E+00 0.00000E+00 0.00000E+00 0.00000E+00 0.00000E+00
 -1      5576 0.00000E+00 0.00000E+00 0.00000E+00 0.00000E+00 0.00000E+00 0.00000E+00
 -1      5577 0.00000E+00 0.00000E+00 0.00000E+00 0.00000E+00 0.00000E+00 0.00000E+00
 -1      5578 0.00000E+00 0.00000E+00 0.00000E+00 0.00000E+00 0.00000E+00 0.00000E+00
 -1      5579 0.00000E+00 0.00000E+00 0.00000E+00 0.00000E+00 0.00000E+00 0.00000E+00
 -1      5580 0.00000E+00 0.00000E+00 0.00000E+00 0.00000E+00 0.00000E+00 0.00000E+00
 -1      5581 0.00000E+00 0.00000E+00 0.00000E+00 0.00000E+00 0.00000E+00 0.00000E+00
 -1      5582 0.00000E+00 0.00000E+00 0.00000E+00 0.00000E+00 0.00000E+00 0.00000E+00
 -1      5583 0.00000E+00 0.00000E+00 0.00000E+00 0.00000E+00 0.00000E+00 0.00000E+00
 -1      5584 0.00000E+00 0.00000E+00 0.00000E+00 0.00000E+00 0.00000E+00 0.00000E+00
 -1      5585 0.00000E+00 0.00000E+00 0.00000E+00 0.00000E+00 0.00000E+00 0.00000E+00
 -1      5586 0.00000E+00 0.00000E+00 0.00000E+00 0.00000E+00 0.00000E+00 0.00000E+00
 -1      5587 0.00000E+00 0.00000E+00 0.00000E+00 0.00000E+00 0.00000E+00 0.00000E+00
 -1      5588 0.00000E+00 0.00000E+00 0.00000E+00 0.00000E+00 0.00000E+00 0.00000E+00
 -1      5589 0.00000E+00 0.00000E+00 0.00000E+00 0.00000E+00 0.00000E+00 0.00000E+00
 -1      5590 0.00000E+00 0.00000E+00 0.00000E+00 0.00000E+00 0.00000E+00 0.00000E+00
 -1      5591 0.00000E+00 0.00000E+00 0.00000E+00 0.00000E+00 0.00000E+00 0.00000E+00
 -1      5592 0.00000E+00 0.00000E+00 0.00000E+00 0.00000E+00 0.00000E+00 0.00000E+00
 -1      5593 0.00000E+00 0.00000E+00 0.00000E+00 0.00000E+00 0.00000E+00 0.00000E+00
 -1      5594 0.00000E+00 0.00000E+00 0.00000E+00 0.00000E+00 0.00000E+00 0.00000E+00
 -1      5595 0.00000E+00 0.00000E+00 0.00000E+00 0.00000E+00 0.00000E+00 0.00000E+00
 -1      5596 0.00000E+00 0.00000E+00 0.00000E+00 0.00000E+00 0.00000E+00 0.00000E+00
 -1      5597 0.00000E+00 0.00000E+00 0.00000E+00 0.00000E+00 0.00000E+00 0.00000E+00
 -1      5598 0.00000E+00 0.00000E+00 0.00000E+00 0.00000E+00 0.00000E+00 0.00000E+00
 -1      5599 0.00000E+00 0.00000E+00 0.00000E+00 0.00000E+00 0.00000E+00 0.00000E+00
 -1      5600 0.00000E+00 0.00000E+00 0.00000E+00 0.00000E+00 0.00000E+00 0.00000E+00
 -1      5601 0.00000E+00 0.00000E+00 0.00000E+00 0.00000E+00 0.00000E+00 0.00000E+00
 -1      5602 0.00000E+00 0.00000E+00 0.00000E+00 0.00000E+00 0.00000E+00 0.00000E+00
 -1      5603 0.00000E+00 0.00000E+00 0.00000E+00 0.00000E+00 0.00000E+00 0.00000E+00
 -1      5604 0.00000E+00 0.00000E+00 0.00000E+00 0.00000E+00 0.00000E+00 0.00000E+00
 -1      5605 0.00000E+00 0.00000E+00 0.00000E+00 0.00000E+00 0.00000E+00 0.00000E+00
 -1      5606 0.00000E+00 0.00000E+00 0.00000E+00 0.00000E+00 0.00000E+00 0.00000E+00
 -1      5607 0.00000E+00 0.00000E+00 0.00000E+00 0.00000E+00 0.00000E+00 0.00000E+00
 -1      5608 0.00000E+00 0.00000E+00 0.00000E+00 0.00000E+00 0.00000E+00 0.00000E+00
 -1      5609 0.00000E+00 0.00000E+00 0.00000E+00 0.00000E+00 0.00000E+00 0.00000E+00
 -1      5610 0.00000E+00 0.00000E+00 0.00000E+00 0.00000E+00 0.00000E+00 0.00000E+00
 -1      5611 0.00000E+00 0.00000E+00 0.00000E+00 0.00000E+00 0.00000E+00 0.00000E+00
 -1      5612 0.00000E+00 0.00000E+00 0.00000E+00 0.00000E+00 0.00000E+00 0.00000E+00
 -1      5613 0.00000E+00 0.00000E+00 0.00000E+00 0.00000E+00 0.00000E+00 0.00000E+00
 -1      5614 0.00000E+00 0.00000E+00 0.00000E+00 0.00000E+00 0.00000E+00 0.00000E+00
 -1      5615 0.00000E+00 0.00000E+00 0.00000E+00 0.00000E+00 0.00000E+00 0.00000E+00
 -1      5616 0.00000E+00 0.00000E+00 0.00000E+00 0.00000E+00 0.00000E+00 0.00000E+00
 -1      5617 0.00000E+00 0.00000E+00 0.00000E+00 0.00000E+00 0.00000E+00 0.00000E+00
 -1      5618 0.00000E+00 0.00000E+00 0.00000E+00 0.00000E+00 0.00000E+00 0.00000E+00
 -1      5619 0.00000E+00 0.00000E+00 0.00000E+00 0.00000E+00 0.00000E+00 0.00000E+00
 -1      5620 0.00000E+00 0.00000E+00 0.00000E+00 0.00000E+00 0.00000E+00 0.00000E+00
 -1      5621 0.00000E+00 0.00000E+00 0.00000E+00 0.00000E+00 0.00000E+00 0.00000E+00
 -1      5622 0.00000E+00 0.00000E+00 0.00000E+00 0.00000E+00 0.00000E+00 0.00000E+00
 -1      5623 0.00000E+00 0.00000E+00 0.00000E+00 0.00000E+00 0.00000E+00 0.00000E+00
 -1      5624 0.00000E+00 0.00000E+00 0.00000E+00 0.00000E+00 0.00000E+00 0.00000E+00
 -1      5625 0.00000E+00 0.00000E+00 0.00000E+00 0.00000E+00 0.00000E+00 0.00000E+00
 -1      5626 0.00000E+00 0.00000E+00 0.00000E+00 0.00000E+00 0.00000E+00 0.00000E+00
 -1      5627 0.00000E+00 0.00000E+00 0.00000E+00 0.00000E+00 0.00000E+00 0.00000E+00
 -1      5628 0.00000E+00 0.00000E+00 0.00000E+00 0.00000E+00 0.00000E+00 0.00000E+00
 -1      5629 0.00000E+00 0.00000E+00 0.00000E+00 0.00000E+00 0.00000E+00 0.00000E+00
 -1      5630 0.00000E+00 0.00000E+00 0.00000E+00 0.00000E+00 0.00000E+00 0.00000E+00
 -1      5631 0.00000E+00 0.00000E+00 0.00000E+00 0.00000E+00 0.00000E+00 0.00000E+00
 -1      5632 0.00000E+00 0.00000E+00 0.00000E+00 0.00000E+00 0.00000E+00 0.00000E+00
 -1      5633 0.00000E+00 0.00000E+00 0.00000E+00 0.00000E+00 0.00000E+00 0.00000E+00
 -1      5634 0.00000E+00 0.00000E+00 0.00000E+00 0.00000E+00 0.00000E+00 0.00000E+00
 -1      5635 0.00000E+00 0.00000E+00 0.00000E+00 0.00000E+00 0.00000E+00 0.00000E+00
 -1      5636 0.00000E+00 0.00000E+00 0.00000E+00 0.00000E+00 0.00000E+00 0.00000E+00
 -1      5637 0.00000E+00 0.00000E+00 0.00000E+00 0.00000E+00 0.00000E+00 0.00000E+00
 -1      5638 0.00000E+00 0.00000E+00 0.00000E+00 0.00000E+00 0.00000E+00 0.00000E+00
 -1      5639 0.00000E+00 0.00000E+00 0.00000E+00 0.00000E+00 0.00000E+00 0.00000E+00
 -1      5640 0.00000E+00 0.00000E+00 0.00000E+00 0.00000E+00 0.00000E+00 0.00000E+00
 -1      5641 0.00000E+00 0.00000E+00 0.00000E+00 0.00000E+00 0.00000E+00 0.00000E+00
 -1      5642 0.00000E+00 0.00000E+00 0.00000E+00 0.00000E+00 0.00000E+00 0.00000E+00
 -1      5643 0.00000E+00 0.00000E+00 0.00000E+00 0.00000E+00 0.00000E+00 0.00000E+00
 -1      5644 0.00000E+00 0.00000E+00 0.00000E+00 0.00000E+00 0.00000E+00 0.00000E+00
 -1      5645 0.00000E+00 0.00000E+00 0.00000E+00 0.00000E+00 0.00000E+00 0.00000E+00
 -1      5646 0.00000E+00 0.00000E+00 0.00000E+00 0.00000E+00 0.00000E+00 0.00000E+00
 -1      5647 0.00000E+00 0.00000E+00 0.00000E+00 0.00000E+00 0.00000E+00 0.00000E+00
 -1      5648 0.00000E+00 0.00000E+00 0.00000E+00 0.00000E+00 0.00000E+00 0.00000E+00
 -1      5649 0.00000E+00 0.00000E+00 0.00000E+00 0.00000E+00 0.00000E+00 0.00000E+00
 -1      5650 0.00000E+00 0.00000E+00 0.00000E+00 0.00000E+00 0.00000E+00 0.00000E+00
 -1      5651 0.00000E+00 0.00000E+00 0.00000E+00 0.00000E+00 0.00000E+00 0.00000E+00
 -1      5652 0.00000E+00 0.00000E+00 0.00000E+00 0.00000E+00 0.00000E+00 0.00000E+00
 -1      5653 0.00000E+00 0.00000E+00 0.00000E+00 0.00000E+00 0.00000E+00 0.00000E+00
 -1      5654 0.00000E+00 0.00000E+00 0.00000E+00 0.00000E+00 0.00000E+00 0.00000E+00
 -1      5655 0.00000E+00 0.00000E+00 0.00000E+00 0.00000E+00 0.00000E+00 0.00000E+00
 -1      5656 0.00000E+00 0.00000E+00 0.00000E+00 0.00000E+00 0.00000E+00 0.00000E+00
 -1      5657 0.00000E+00 0.00000E+00 0.00000E+00 0.00000E+00 0.00000E+00 0.00000E+00
 -1      5658 0.00000E+00 0.00000E+00 0.00000E+00 0.00000E+00 0.00000E+00 0.00000E+00
 -1      5659 0.00000E+00 0.00000E+00 0.00000E+00 0.00000E+00 0.00000E+00 0.00000E+00
 -1      5660 0.00000E+00 0.00000E+00 0.00000E+00 0.00000E+00 0.00000E+00 0.00000E+00
 -1      5661 0.00000E+00 0.00000E+00 0.00000E+00 0.00000E+00 0.00000E+00 0.00000E+00
 -1      5662 0.00000E+00 0.00000E+00 0.00000E+00 0.00000E+00 0.00000E+00 0.00000E+00
 -1      5663 0.00000E+00 0.00000E+00 0.00000E+00 0.00000E+00 0.00000E+00 0.00000E+00
 -1      5664 0.00000E+00 0.00000E+00 0.00000E+00 0.00000E+00 0.00000E+00 0.00000E+00
 -1      5665 0.00000E+00 0.00000E+00 0.00000E+00 0.00000E+00 0.00000E+00 0.00000E+00
 -1      5666 0.00000E+00 0.00000E+00 0.00000E+00 0.00000E+00 0.00000E+00 0.00000E+00
 -1      5667 0.00000E+00 0.00000E+00 0.00000E+00 0.00000E+00 0.00000E+00 0.00000E+00
 -1      5668 0.00000E+00 0.00000E+00 0.00000E+00 0.00000E+00 0.00000E+00 0.00000E+00
 -1      5669 0.00000E+00 0.00000E+00 0.00000E+00 0.00000E+00 0.00000E+00 0.00000E+00
 -1      5670 0.00000E+00 0.00000E+00 0.00000E+00 0.00000E+00 0.00000E+00 0.00000E+00
 -1      5671 0.00000E+00 0.00000E+00 0.00000E+00 0.00000E+00 0.00000E+00 0.00000E+00
 -1      5672 0.00000E+00 0.00000E+00 0.00000E+00 0.00000E+00 0.00000E+00 0.00000E+00
 -1      5673 0.00000E+00 0.00000E+00 0.00000E+00 0.00000E+00 0.00000E+00 0.00000E+00
 -1      5674 0.00000E+00 0.00000E+00 0.00000E+00 0.00000E+00 0.00000E+00 0.00000E+00
 -1      5675 0.00000E+00 0.00000E+00 0.00000E+00 0.00000E+00 0.00000E+00 0.00000E+00
 -1      5676 0.00000E+00 0.00000E+00 0.00000E+00 0.00000E+00 0.00000E+00 0.00000E+00
 -1      5677 0.00000E+00 0.00000E+00 0.00000E+00 0.00000E+00 0.00000E+00 0.00000E+00
 -1      5678 0.00000E+00 0.00000E+00 0.00000E+00 0.00000E+00 0.00000E+00 0.00000E+00
 -1      5679 0.00000E+00 0.00000E+00 0.00000E+00 0.00000E+00 0.00000E+00 0.00000E+00
 -1      5680 0.00000E+00 0.00000E+00 0.00000E+00 0.00000E+00 0.00000E+00 0.00000E+00
 -1      5681 0.00000E+00 0.00000E+00 0.00000E+00 0.00000E+00 0.00000E+00 0.00000E+00
 -1      5682 0.00000E+00 0.00000E+00 0.00000E+00 0.00000E+00 0.00000E+00 0.00000E+00
 -1      5683 0.00000E+00 0.00000E+00 0.00000E+00 0.00000E+00 0.00000E+00 0.00000E+00
 -1      5684 0.00000E+00 0.00000E+00 0.00000E+00 0.00000E+00 0.00000E+00 0.00000E+00
 -1      5685 0.00000E+00 0.00000E+00 0.00000E+00 0.00000E+00 0.00000E+00 0.00000E+00
 -1      5686 0.00000E+00 0.00000E+00 0.00000E+00 0.00000E+00 0.00000E+00 0.00000E+00
 -1      5687 0.00000E+00 0.00000E+00 0.00000E+00 0.00000E+00 0.00000E+00 0.00000E+00
 -1      5688 0.00000E+00 0.00000E+00 0.00000E+00 0.00000E+00 0.00000E+00 0.00000E+00
 -1      5689 0.00000E+00 0.00000E+00 0.00000E+00 0.00000E+00 0.00000E+00 0.00000E+00
 -1      5690 0.00000E+00 0.00000E+00 0.00000E+00 0.00000E+00 0.00000E+00 0.00000E+00
 -1      5691 0.00000E+00 0.00000E+00 0.00000E+00 0.00000E+00 0.00000E+00 0.00000E+00
 -1      5692 0.00000E+00 0.00000E+00 0.00000E+00 0.00000E+00 0.00000E+00 0.00000E+00
 -1      5693 0.00000E+00 0.00000E+00 0.00000E+00 0.00000E+00 0.00000E+00 0.00000E+00
 -1      5694 0.00000E+00 0.00000E+00 0.00000E+00 0.00000E+00 0.00000E+00 0.00000E+00
 -1      5695 0.00000E+00 0.00000E+00 0.00000E+00 0.00000E+00 0.00000E+00 0.00000E+00
 -1      5696 0.00000E+00 0.00000E+00 0.00000E+00 0.00000E+00 0.00000E+00 0.00000E+00
 -1      5697 0.00000E+00 0.00000E+00 0.00000E+00 0.00000E+00 0.00000E+00 0.00000E+00
 -1      5698 0.00000E+00 0.00000E+00 0.00000E+00 0.00000E+00 0.00000E+00 0.00000E+00
 -1      5699 0.00000E+00 0.00000E+00 0.00000E+00 0.00000E+00 0.00000E+00 0.00000E+00
 -1      5700 0.00000E+00 0.00000E+00 0.00000E+00 0.00000E+00 0.00000E+00 0.00000E+00
 -1      5701 0.00000E+00 0.00000E+00 0.00000E+00 0.00000E+00 0.00000E+00 0.00000E+00
 -1      5702 0.00000E+00 0.00000E+00 0.00000E+00 0.00000E+00 0.00000E+00 0.00000E+00
 -1      5703 0.00000E+00 0.00000E+00 0.00000E+00 0.00000E+00 0.00000E+00 0.00000E+00
 -1      5704 0.00000E+00 0.00000E+00 0.00000E+00 0.00000E+00 0.00000E+00 0.00000E+00
 -1      5705 0.00000E+00 0.00000E+00 0.00000E+00 0.00000E+00 0.00000E+00 0.00000E+00
 -1      5706 0.00000E+00 0.00000E+00 0.00000E+00 0.00000E+00 0.00000E+00 0.00000E+00
 -1      5707 0.00000E+00 0.00000E+00 0.00000E+00 0.00000E+00 0.00000E+00 0.00000E+00
 -1      5708 0.00000E+00 0.00000E+00 0.00000E+00 0.00000E+00 0.00000E+00 0.00000E+00
 -1      5709 0.00000E+00 0.00000E+00 0.00000E+00 0.00000E+00 0.00000E+00 0.00000E+00
 -1      5710 0.00000E+00 0.00000E+00 0.00000E+00 0.00000E+00 0.00000E+00 0.00000E+00
 -1      5711 0.00000E+00 0.00000E+00 0.00000E+00 0.00000E+00 0.00000E+00 0.00000E+00
 -1      5712 0.00000E+00 0.00000E+00 0.00000E+00 0.00000E+00 0.00000E+00 0.00000E+00
 -1      5713 0.00000E+00 0.00000E+00 0.00000E+00 0.00000E+00 0.00000E+00 0.00000E+00
 -1      5714 0.00000E+00 0.00000E+00 0.00000E+00 0.00000E+00 0.00000E+00 0.00000E+00
 -1      5715 0.00000E+00 0.00000E+00 0.00000E+00 0.00000E+00 0.00000E+00 0.00000E+00
 -1      5716 0.00000E+00 0.00000E+00 0.00000E+00 0.00000E+00 0.00000E+00 0.00000E+00
 -1      5717 0.00000E+00 0.00000E+00 0.00000E+00 0.00000E+00 0.00000E+00 0.00000E+00
 -1      5718 0.00000E+00 0.00000E+00 0.00000E+00 0.00000E+00 0.00000E+00 0.00000E+00
 -1      5719 0.00000E+00 0.00000E+00 0.00000E+00 0.00000E+00 0.00000E+00 0.00000E+00
 -1      5720 0.00000E+00 0.00000E+00 0.00000E+00 0.00000E+00 0.00000E+00 0.00000E+00
 -1      5721 0.00000E+00 0.00000E+00 0.00000E+00 0.00000E+00 0.00000E+00 0.00000E+00
 -1      5722 0.00000E+00 0.00000E+00 0.00000E+00 0.00000E+00 0.00000E+00 0.00000E+00
 -1      5723 0.00000E+00 0.00000E+00 0.00000E+00 0.00000E+00 0.00000E+00 0.00000E+00
 -1      5724 0.00000E+00 0.00000E+00 0.00000E+00 0.00000E+00 0.00000E+00 0.00000E+00
 -1      5725 0.00000E+00 0.00000E+00 0.00000E+00 0.00000E+00 0.00000E+00 0.00000E+00
 -1      5726 0.00000E+00 0.00000E+00 0.00000E+00 0.00000E+00 0.00000E+00 0.00000E+00
 -1      5727 0.00000E+00 0.00000E+00 0.00000E+00 0.00000E+00 0.00000E+00 0.00000E+00
 -1      5728 0.00000E+00 0.00000E+00 0.00000E+00 0.00000E+00 0.00000E+00 0.00000E+00
 -1      5729 0.00000E+00 0.00000E+00 0.00000E+00 0.00000E+00 0.00000E+00 0.00000E+00
 -1      5730 0.00000E+00 0.00000E+00 0.00000E+00 0.00000E+00 0.00000E+00 0.00000E+00
 -1      5731 0.00000E+00 0.00000E+00 0.00000E+00 0.00000E+00 0.00000E+00 0.00000E+00
 -1      5732 0.00000E+00 0.00000E+00 0.00000E+00 0.00000E+00 0.00000E+00 0.00000E+00
 -1      5733 0.00000E+00 0.00000E+00 0.00000E+00 0.00000E+00 0.00000E+00 0.00000E+00
 -1      5734 0.00000E+00 0.00000E+00 0.00000E+00 0.00000E+00 0.00000E+00 0.00000E+00
 -1      5735 0.00000E+00 0.00000E+00 0.00000E+00 0.00000E+00 0.00000E+00 0.00000E+00
 -1      5736 0.00000E+00 0.00000E+00 0.00000E+00 0.00000E+00 0.00000E+00 0.00000E+00
 -1      5737 0.00000E+00 0.00000E+00 0.00000E+00 0.00000E+00 0.00000E+00 0.00000E+00
 -1      5738 0.00000E+00 0.00000E+00 0.00000E+00 0.00000E+00 0.00000E+00 0.00000E+00
 -1      5739 0.00000E+00 0.00000E+00 0.00000E+00 0.00000E+00 0.00000E+00 0.00000E+00
 -1      5740 0.00000E+00 0.00000E+00 0.00000E+00 0.00000E+00 0.00000E+00 0.00000E+00
 -1      5741 0.00000E+00 0.00000E+00 0.00000E+00 0.00000E+00 0.00000E+00 0.00000E+00
 -1      5742 0.00000E+00 0.00000E+00 0.00000E+00 0.00000E+00 0.00000E+00 0.00000E+00
 -1      5743 0.00000E+00 0.00000E+00 0.00000E+00 0.00000E+00 0.00000E+00 0.00000E+00
 -1      5744 0.00000E+00 0.00000E+00 0.00000E+00 0.00000E+00 0.00000E+00 0.00000E+00
 -1      5745 0.00000E+00 0.00000E+00 0.00000E+00 0.00000E+00 0.00000E+00 0.00000E+00
 -1      5746 0.00000E+00 0.00000E+00 0.00000E+00 0.00000E+00 0.00000E+00 0.00000E+00
 -1      5747 0.00000E+00 0.00000E+00 0.00000E+00 0.00000E+00 0.00000E+00 0.00000E+00
 -1      5748 0.00000E+00 0.00000E+00 0.00000E+00 0.00000E+00 0.00000E+00 0.00000E+00
 -1      5749 0.00000E+00 0.00000E+00 0.00000E+00 0.00000E+00 0.00000E+00 0.00000E+00
 -1      5750 0.00000E+00 0.00000E+00 0.00000E+00 0.00000E+00 0.00000E+00 0.00000E+00
 -1      5751 0.00000E+00 0.00000E+00 0.00000E+00 0.00000E+00 0.00000E+00 0.00000E+00
 -1      5752 0.00000E+00 0.00000E+00 0.00000E+00 0.00000E+00 0.00000E+00 0.00000E+00
 -1      5753 0.00000E+00 0.00000E+00 0.00000E+00 0.00000E+00 0.00000E+00 0.00000E+00
 -1      5754 0.00000E+00 0.00000E+00 0.00000E+00 0.00000E+00 0.00000E+00 0.00000E+00
 -1      5755 0.00000E+00 0.00000E+00 0.00000E+00 0.00000E+00 0.00000E+00 0.00000E+00
 -1      5756 0.00000E+00 0.00000E+00 0.00000E+00 0.00000E+00 0.00000E+00 0.00000E+00
 -1      5757 0.00000E+00 0.00000E+00 0.00000E+00 0.00000E+00 0.00000E+00 0.00000E+00
 -1      5758 0.00000E+00 0.00000E+00 0.00000E+00 0.00000E+00 0.00000E+00 0.00000E+00
 -1      5759 0.00000E+00 0.00000E+00 0.00000E+00 0.00000E+00 0.00000E+00 0.00000E+00
 -1      5760 0.00000E+00 0.00000E+00 0.00000E+00 0.00000E+00 0.00000E+00 0.00000E+00
 -1      5761 0.00000E+00 0.00000E+00 0.00000E+00 0.00000E+00 0.00000E+00 0.00000E+00
 -1      5762 0.00000E+00 0.00000E+00 0.00000E+00 0.00000E+00 0.00000E+00 0.00000E+00
 -1      5763 0.00000E+00 0.00000E+00 0.00000E+00 0.00000E+00 0.00000E+00 0.00000E+00
 -1      5764 0.00000E+00 0.00000E+00 0.00000E+00 0.00000E+00 0.00000E+00 0.00000E+00
 -1      5765 0.00000E+00 0.00000E+00 0.00000E+00 0.00000E+00 0.00000E+00 0.00000E+00
 -1      5766 0.00000E+00 0.00000E+00 0.00000E+00 0.00000E+00 0.00000E+00 0.00000E+00
 -1      5767 0.00000E+00 0.00000E+00 0.00000E+00 0.00000E+00 0.00000E+00 0.00000E+00
 -1      5768 0.00000E+00 0.00000E+00 0.00000E+00 0.00000E+00 0.00000E+00 0.00000E+00
 -1      5769 0.00000E+00 0.00000E+00 0.00000E+00 0.00000E+00 0.00000E+00 0.00000E+00
 -1      5770 0.00000E+00 0.00000E+00 0.00000E+00 0.00000E+00 0.00000E+00 0.00000E+00
 -1      5771 0.00000E+00 0.00000E+00 0.00000E+00 0.00000E+00 0.00000E+00 0.00000E+00
 -1      5772 0.00000E+00 0.00000E+00 0.00000E+00 0.00000E+00 0.00000E+00 0.00000E+00
 -1      5773 0.00000E+00 0.00000E+00 0.00000E+00 0.00000E+00 0.00000E+00 0.00000E+00
 -1      5774 0.00000E+00 0.00000E+00 0.00000E+00 0.00000E+00 0.00000E+00 0.00000E+00
 -1      5775 0.00000E+00 0.00000E+00 0.00000E+00 0.00000E+00 0.00000E+00 0.00000E+00
 -1      5776 0.00000E+00 0.00000E+00 0.00000E+00 0.00000E+00 0.00000E+00 0.00000E+00
 -1      5777 0.00000E+00 0.00000E+00 0.00000E+00 0.00000E+00 0.00000E+00 0.00000E+00
 -1      5778 0.00000E+00 0.00000E+00 0.00000E+00 0.00000E+00 0.00000E+00 0.00000E+00
 -1      5779 0.00000E+00 0.00000E+00 0.00000E+00 0.00000E+00 0.00000E+00 0.00000E+00
 -1      5780 0.00000E+00 0.00000E+00 0.00000E+00 0.00000E+00 0.00000E+00 0.00000E+00
 -1      5781 0.00000E+00 0.00000E+00 0.00000E+00 0.00000E+00 0.00000E+00 0.00000E+00
 -1      5782 0.00000E+00 0.00000E+00 0.00000E+00 0.00000E+00 0.00000E+00 0.00000E+00
 -1      5783 0.00000E+00 0.00000E+00 0.00000E+00 0.00000E+00 0.00000E+00 0.00000E+00
 -1      5784 0.00000E+00 0.00000E+00 0.00000E+00 0.00000E+00 0.00000E+00 0.00000E+00
 -1      5785 0.00000E+00 0.00000E+00 0.00000E+00 0.00000E+00 0.00000E+00 0.00000E+00
 -1      5786 0.00000E+00 0.00000E+00 0.00000E+00 0.00000E+00 0.00000E+00 0.00000E+00
 -1      5787 0.00000E+00 0.00000E+00 0.00000E+00 0.00000E+00 0.00000E+00 0.00000E+00
 -1      5788 0.00000E+00 0.00000E+00 0.00000E+00 0.00000E+00 0.00000E+00 0.00000E+00
 -1      5789 0.00000E+00 0.00000E+00 0.00000E+00 0.00000E+00 0.00000E+00 0.00000E+00
 -1      5790 0.00000E+00 0.00000E+00 0.00000E+00 0.00000E+00 0.00000E+00 0.00000E+00
 -1      5791 0.00000E+00 0.00000E+00 0.00000E+00 0.00000E+00 0.00000E+00 0.00000E+00
 -1      5792 0.00000E+00 0.00000E+00 0.00000E+00 0.00000E+00 0.00000E+00 0.00000E+00
 -1      5793 0.00000E+00 0.00000E+00 0.00000E+00 0.00000E+00 0.00000E+00 0.00000E+00
 -1      5794 0.00000E+00 0.00000E+00 0.00000E+00 0.00000E+00 0.00000E+00 0.00000E+00
 -1      5795 0.00000E+00 0.00000E+00 0.00000E+00 0.00000E+00 0.00000E+00 0.00000E+00
 -1      5796 0.00000E+00 0.00000E+00 0.00000E+00 0.00000E+00 0.00000E+00 0.00000E+00
 -1      5797 0.00000E+00 0.00000E+00 0.00000E+00 0.00000E+00 0.00000E+00 0.00000E+00
 -1      5798 0.00000E+00 0.00000E+00 0.00000E+00 0.00000E+00 0.00000E+00 0.00000E+00
 -1      5799 0.00000E+00 0.00000E+00 0.00000E+00 0.00000E+00 0.00000E+00 0.00000E+00
 -1      5800 0.00000E+00 0.00000E+00 0.00000E+00 0.00000E+00 0.00000E+00 0.00000E+00
 -1      5801 0.00000E+00 0.00000E+00 0.00000E+00 0.00000E+00 0.00000E+00 0.00000E+00
 -1      5802 0.00000E+00 0.00000E+00 0.00000E+00 0.00000E+00 0.00000E+00 0.00000E+00
 -1      5803 0.00000E+00 0.00000E+00 0.00000E+00 0.00000E+00 0.00000E+00 0.00000E+00
 -1      5804 0.00000E+00 0.00000E+00 0.00000E+00 0.00000E+00 0.00000E+00 0.00000E+00
 -1      5805 0.00000E+00 0.00000E+00 0.00000E+00 0.00000E+00 0.00000E+00 0.00000E+00
 -1      5806 0.00000E+00 0.00000E+00 0.00000E+00 0.00000E+00 0.00000E+00 0.00000E+00
 -1      5807 0.00000E+00 0.00000E+00 0.00000E+00 0.00000E+00 0.00000E+00 0.00000E+00
 -1      5808 0.00000E+00 0.00000E+00 0.00000E+00 0.00000E+00 0.00000E+00 0.00000E+00
 -1      5809 0.00000E+00 0.00000E+00 0.00000E+00 0.00000E+00 0.00000E+00 0.00000E+00
 -1      5810 0.00000E+00 0.00000E+00 0.00000E+00 0.00000E+00 0.00000E+00 0.00000E+00
 -1      5811 0.00000E+00 0.00000E+00 0.00000E+00 0.00000E+00 0.00000E+00 0.00000E+00
 -1      5812 0.00000E+00 0.00000E+00 0.00000E+00 0.00000E+00 0.00000E+00 0.00000E+00
 -1      5813 0.00000E+00 0.00000E+00 0.00000E+00 0.00000E+00 0.00000E+00 0.00000E+00
 -1      5814 0.00000E+00 0.00000E+00 0.00000E+00 0.00000E+00 0.00000E+00 0.00000E+00
 -1      5815 0.00000E+00 0.00000E+00 0.00000E+00 0.00000E+00 0.00000E+00 0.00000E+00
 -1      5816 0.00000E+00 0.00000E+00 0.00000E+00 0.00000E+00 0.00000E+00 0.00000E+00
 -1      5817 0.00000E+00 0.00000E+00 0.00000E+00 0.00000E+00 0.00000E+00 0.00000E+00
 -1      5818 0.00000E+00 0.00000E+00 0.00000E+00 0.00000E+00 0.00000E+00 0.00000E+00
 -1      5819 0.00000E+00 0.00000E+00 0.00000E+00 0.00000E+00 0.00000E+00 0.00000E+00
 -1      5820 0.00000E+00 0.00000E+00 0.00000E+00 0.00000E+00 0.00000E+00 0.00000E+00
 -1      5821 0.00000E+00 0.00000E+00 0.00000E+00 0.00000E+00 0.00000E+00 0.00000E+00
 -1      5822 0.00000E+00 0.00000E+00 0.00000E+00 0.00000E+00 0.00000E+00 0.00000E+00
 -1      5823 0.00000E+00 0.00000E+00 0.00000E+00 0.00000E+00 0.00000E+00 0.00000E+00
 -1      5824 0.00000E+00 0.00000E+00 0.00000E+00 0.00000E+00 0.00000E+00 0.00000E+00
 -1      5825 0.00000E+00 0.00000E+00 0.00000E+00 0.00000E+00 0.00000E+00 0.00000E+00
 -1      5826 0.00000E+00 0.00000E+00 0.00000E+00 0.00000E+00 0.00000E+00 0.00000E+00
 -1      5827 0.00000E+00 0.00000E+00 0.00000E+00 0.00000E+00 0.00000E+00 0.00000E+00
 -1      5828 0.00000E+00 0.00000E+00 0.00000E+00 0.00000E+00 0.00000E+00 0.00000E+00
 -1      5829 0.00000E+00 0.00000E+00 0.00000E+00 0.00000E+00 0.00000E+00 0.00000E+00
 -1      5830 0.00000E+00 0.00000E+00 0.00000E+00 0.00000E+00 0.00000E+00 0.00000E+00
 -1      5831 0.00000E+00 0.00000E+00 0.00000E+00 0.00000E+00 0.00000E+00 0.00000E+00
 -1      5832 0.00000E+00 0.00000E+00 0.00000E+00 0.00000E+00 0.00000E+00 0.00000E+00
 -1      5833 0.00000E+00 0.00000E+00 0.00000E+00 0.00000E+00 0.00000E+00 0.00000E+00
 -1      5834 0.00000E+00 0.00000E+00 0.00000E+00 0.00000E+00 0.00000E+00 0.00000E+00
 -1      5835 0.00000E+00 0.00000E+00 0.00000E+00 0.00000E+00 0.00000E+00 0.00000E+00
 -1      5836 0.00000E+00 0.00000E+00 0.00000E+00 0.00000E+00 0.00000E+00 0.00000E+00
 -1      5837 0.00000E+00 0.00000E+00 0.00000E+00 0.00000E+00 0.00000E+00 0.00000E+00
 -1      5838 0.00000E+00 0.00000E+00 0.00000E+00 0.00000E+00 0.00000E+00 0.00000E+00
 -1      5839 0.00000E+00 0.00000E+00 0.00000E+00 0.00000E+00 0.00000E+00 0.00000E+00
 -1      5840 0.00000E+00 0.00000E+00 0.00000E+00 0.00000E+00 0.00000E+00 0.00000E+00
 -1      5841 0.00000E+00 0.00000E+00 0.00000E+00 0.00000E+00 0.00000E+00 0.00000E+00
 -1      5842 0.00000E+00 0.00000E+00 0.00000E+00 0.00000E+00 0.00000E+00 0.00000E+00
 -1      5843 0.00000E+00 0.00000E+00 0.00000E+00 0.00000E+00 0.00000E+00 0.00000E+00
 -1      5844 0.00000E+00 0.00000E+00 0.00000E+00 0.00000E+00 0.00000E+00 0.00000E+00
 -1      5845 0.00000E+00 0.00000E+00 0.00000E+00 0.00000E+00 0.00000E+00 0.00000E+00
 -1      5846 0.00000E+00 0.00000E+00 0.00000E+00 0.00000E+00 0.00000E+00 0.00000E+00
 -1      5847 0.00000E+00 0.00000E+00 0.00000E+00 0.00000E+00 0.00000E+00 0.00000E+00
 -1      5848 0.00000E+00 0.00000E+00 0.00000E+00 0.00000E+00 0.00000E+00 0.00000E+00
 -1      5849 0.00000E+00 0.00000E+00 0.00000E+00 0.00000E+00 0.00000E+00 0.00000E+00
 -1      5850 0.00000E+00 0.00000E+00 0.00000E+00 0.00000E+00 0.00000E+00 0.00000E+00
 -1      5851 0.00000E+00 0.00000E+00 0.00000E+00 0.00000E+00 0.00000E+00 0.00000E+00
 -1      5852 0.00000E+00 0.00000E+00 0.00000E+00 0.00000E+00 0.00000E+00 0.00000E+00
 -1      5853 0.00000E+00 0.00000E+00 0.00000E+00 0.00000E+00 0.00000E+00 0.00000E+00
 -1      5854 0.00000E+00 0.00000E+00 0.00000E+00 0.00000E+00 0.00000E+00 0.00000E+00
 -1      5855 0.00000E+00 0.00000E+00 0.00000E+00 0.00000E+00 0.00000E+00 0.00000E+00
 -1      5856 0.00000E+00 0.00000E+00 0.00000E+00 0.00000E+00 0.00000E+00 0.00000E+00
 -1      5857 0.00000E+00 0.00000E+00 0.00000E+00 0.00000E+00 0.00000E+00 0.00000E+00
 -1      5858 0.00000E+00 0.00000E+00 0.00000E+00 0.00000E+00 0.00000E+00 0.00000E+00
 -1      5859 0.00000E+00 0.00000E+00 0.00000E+00 0.00000E+00 0.00000E+00 0.00000E+00
 -1      5860 0.00000E+00 0.00000E+00 0.00000E+00 0.00000E+00 0.00000E+00 0.00000E+00
 -1      5861 0.00000E+00 0.00000E+00 0.00000E+00 0.00000E+00 0.00000E+00 0.00000E+00
 -1      5862 0.00000E+00 0.00000E+00 0.00000E+00 0.00000E+00 0.00000E+00 0.00000E+00
 -1      5863 0.00000E+00 0.00000E+00 0.00000E+00 0.00000E+00 0.00000E+00 0.00000E+00
 -1      5864 0.00000E+00 0.00000E+00 0.00000E+00 0.00000E+00 0.00000E+00 0.00000E+00
 -1      5865 0.00000E+00 0.00000E+00 0.00000E+00 0.00000E+00 0.00000E+00 0.00000E+00
 -1      5866 0.00000E+00 0.00000E+00 0.00000E+00 0.00000E+00 0.00000E+00 0.00000E+00
 -1      5867 0.00000E+00 0.00000E+00 0.00000E+00 0.00000E+00 0.00000E+00 0.00000E+00
 -1      5868 0.00000E+00 0.00000E+00 0.00000E+00 0.00000E+00 0.00000E+00 0.00000E+00
 -1      5869 0.00000E+00 0.00000E+00 0.00000E+00 0.00000E+00 0.00000E+00 0.00000E+00
 -1      5870 0.00000E+00 0.00000E+00 0.00000E+00 0.00000E+00 0.00000E+00 0.00000E+00
 -1      5871 0.00000E+00 0.00000E+00 0.00000E+00 0.00000E+00 0.00000E+00 0.00000E+00
 -1      5872 0.00000E+00 0.00000E+00 0.00000E+00 0.00000E+00 0.00000E+00 0.00000E+00
 -1      5873 0.00000E+00 0.00000E+00 0.00000E+00 0.00000E+00 0.00000E+00 0.00000E+00
 -1      5874 0.00000E+00 0.00000E+00 0.00000E+00 0.00000E+00 0.00000E+00 0.00000E+00
 -1      5875 0.00000E+00 0.00000E+00 0.00000E+00 0.00000E+00 0.00000E+00 0.00000E+00
 -1      5876 0.00000E+00 0.00000E+00 0.00000E+00 0.00000E+00 0.00000E+00 0.00000E+00
 -1      5877 0.00000E+00 0.00000E+00 0.00000E+00 0.00000E+00 0.00000E+00 0.00000E+00
 -1      5878 0.00000E+00 0.00000E+00 0.00000E+00 0.00000E+00 0.00000E+00 0.00000E+00
 -1      5879 0.00000E+00 0.00000E+00 0.00000E+00 0.00000E+00 0.00000E+00 0.00000E+00
 -1      5880 0.00000E+00 0.00000E+00 0.00000E+00 0.00000E+00 0.00000E+00 0.00000E+00
 -1      5881 0.00000E+00 0.00000E+00 0.00000E+00 0.00000E+00 0.00000E+00 0.00000E+00
 -1      5882 0.00000E+00 0.00000E+00 0.00000E+00 0.00000E+00 0.00000E+00 0.00000E+00
 -1      5883 0.00000E+00 0.00000E+00 0.00000E+00 0.00000E+00 0.00000E+00 0.00000E+00
 -1      5884 0.00000E+00 0.00000E+00 0.00000E+00 0.00000E+00 0.00000E+00 0.00000E+00
 -1      5885 0.00000E+00 0.00000E+00 0.00000E+00 0.00000E+00 0.00000E+00 0.00000E+00
 -1      5886 0.00000E+00 0.00000E+00 0.00000E+00 0.00000E+00 0.00000E+00 0.00000E+00
 -1      5887 0.00000E+00 0.00000E+00 0.00000E+00 0.00000E+00 0.00000E+00 0.00000E+00
 -1      5888 0.00000E+00 0.00000E+00 0.00000E+00 0.00000E+00 0.00000E+00 0.00000E+00
 -1      5889 0.00000E+00 0.00000E+00 0.00000E+00 0.00000E+00 0.00000E+00 0.00000E+00
 -1      5890 0.00000E+00 0.00000E+00 0.00000E+00 0.00000E+00 0.00000E+00 0.00000E+00
 -1      5891 0.00000E+00 0.00000E+00 0.00000E+00 0.00000E+00 0.00000E+00 0.00000E+00
 -1      5892 0.00000E+00 0.00000E+00 0.00000E+00 0.00000E+00 0.00000E+00 0.00000E+00
 -1      5893 0.00000E+00 0.00000E+00 0.00000E+00 0.00000E+00 0.00000E+00 0.00000E+00
 -1      5894 0.00000E+00 0.00000E+00 0.00000E+00 0.00000E+00 0.00000E+00 0.00000E+00
 -1      5895 0.00000E+00 0.00000E+00 0.00000E+00 0.00000E+00 0.00000E+00 0.00000E+00
 -1      5896 0.00000E+00 0.00000E+00 0.00000E+00 0.00000E+00 0.00000E+00 0.00000E+00
 -1      5897 0.00000E+00 0.00000E+00 0.00000E+00 0.00000E+00 0.00000E+00 0.00000E+00
 -1      5898 0.00000E+00 0.00000E+00 0.00000E+00 0.00000E+00 0.00000E+00 0.00000E+00
 -1      5899 0.00000E+00 0.00000E+00 0.00000E+00 0.00000E+00 0.00000E+00 0.00000E+00
 -1      5900 0.00000E+00 0.00000E+00 0.00000E+00 0.00000E+00 0.00000E+00 0.00000E+00
 -1      5901 0.00000E+00 0.00000E+00 0.00000E+00 0.00000E+00 0.00000E+00 0.00000E+00
 -1      5902 0.00000E+00 0.00000E+00 0.00000E+00 0.00000E+00 0.00000E+00 0.00000E+00
 -1      5903 0.00000E+00 0.00000E+00 0.00000E+00 0.00000E+00 0.00000E+00 0.00000E+00
 -1      5904 0.00000E+00 0.00000E+00 0.00000E+00 0.00000E+00 0.00000E+00 0.00000E+00
 -1      5905 0.00000E+00 0.00000E+00 0.00000E+00 0.00000E+00 0.00000E+00 0.00000E+00
 -1      5906 0.00000E+00 0.00000E+00 0.00000E+00 0.00000E+00 0.00000E+00 0.00000E+00
 -1      5907 0.00000E+00 0.00000E+00 0.00000E+00 0.00000E+00 0.00000E+00 0.00000E+00
 -1      5908 0.00000E+00 0.00000E+00 0.00000E+00 0.00000E+00 0.00000E+00 0.00000E+00
 -1      5909 0.00000E+00 0.00000E+00 0.00000E+00 0.00000E+00 0.00000E+00 0.00000E+00
 -1      5910 0.00000E+00 0.00000E+00 0.00000E+00 0.00000E+00 0.00000E+00 0.00000E+00
 -1      5911 0.00000E+00 0.00000E+00 0.00000E+00 0.00000E+00 0.00000E+00 0.00000E+00
 -1      5912 0.00000E+00 0.00000E+00 0.00000E+00 0.00000E+00 0.00000E+00 0.00000E+00
 -1      5913 0.00000E+00 0.00000E+00 0.00000E+00 0.00000E+00 0.00000E+00 0.00000E+00
 -1      5914 0.00000E+00 0.00000E+00 0.00000E+00 0.00000E+00 0.00000E+00 0.00000E+00
 -1      5915 0.00000E+00 0.00000E+00 0.00000E+00 0.00000E+00 0.00000E+00 0.00000E+00
 -1      5916 0.00000E+00 0.00000E+00 0.00000E+00 0.00000E+00 0.00000E+00 0.00000E+00
 -1      5917 0.00000E+00 0.00000E+00 0.00000E+00 0.00000E+00 0.00000E+00 0.00000E+00
 -1      5918 0.00000E+00 0.00000E+00 0.00000E+00 0.00000E+00 0.00000E+00 0.00000E+00
 -1      5919 0.00000E+00 0.00000E+00 0.00000E+00 0.00000E+00 0.00000E+00 0.00000E+00
 -1      5920 0.00000E+00 0.00000E+00 0.00000E+00 0.00000E+00 0.00000E+00 0.00000E+00
 -1      5921 0.00000E+00 0.00000E+00 0.00000E+00 0.00000E+00 0.00000E+00 0.00000E+00
 -1      5922 0.00000E+00 0.00000E+00 0.00000E+00 0.00000E+00 0.00000E+00 0.00000E+00
 -1      5923 0.00000E+00 0.00000E+00 0.00000E+00 0.00000E+00 0.00000E+00 0.00000E+00
 -1      5924 0.00000E+00 0.00000E+00 0.00000E+00 0.00000E+00 0.00000E+00 0.00000E+00
 -1      5925 0.00000E+00 0.00000E+00 0.00000E+00 0.00000E+00 0.00000E+00 0.00000E+00
 -1      5926 0.00000E+00 0.00000E+00 0.00000E+00 0.00000E+00 0.00000E+00 0.00000E+00
 -1      5927 0.00000E+00 0.00000E+00 0.00000E+00 0.00000E+00 0.00000E+00 0.00000E+00
 -1      5928 0.00000E+00 0.00000E+00 0.00000E+00 0.00000E+00 0.00000E+00 0.00000E+00
 -1      5929 0.00000E+00 0.00000E+00 0.00000E+00 0.00000E+00 0.00000E+00 0.00000E+00
 -1      5930 0.00000E+00 0.00000E+00 0.00000E+00 0.00000E+00 0.00000E+00 0.00000E+00
 -1      5931 0.00000E+00 0.00000E+00 0.00000E+00 0.00000E+00 0.00000E+00 0.00000E+00
 -1      5932 0.00000E+00 0.00000E+00 0.00000E+00 0.00000E+00 0.00000E+00 0.00000E+00
 -1      5933 0.00000E+00 0.00000E+00 0.00000E+00 0.00000E+00 0.00000E+00 0.00000E+00
 -1      5934 0.00000E+00 0.00000E+00 0.00000E+00 0.00000E+00 0.00000E+00 0.00000E+00
 -1      5935 0.00000E+00 0.00000E+00 0.00000E+00 0.00000E+00 0.00000E+00 0.00000E+00
 -1      5936 0.00000E+00 0.00000E+00 0.00000E+00 0.00000E+00 0.00000E+00 0.00000E+00
 -1      5937 0.00000E+00 0.00000E+00 0.00000E+00 0.00000E+00 0.00000E+00 0.00000E+00
 -1      5938 0.00000E+00 0.00000E+00 0.00000E+00 0.00000E+00 0.00000E+00 0.00000E+00
 -1      5939 0.00000E+00 0.00000E+00 0.00000E+00 0.00000E+00 0.00000E+00 0.00000E+00
 -1      5940 0.00000E+00 0.00000E+00 0.00000E+00 0.00000E+00 0.00000E+00 0.00000E+00
 -1      5941 0.00000E+00 0.00000E+00 0.00000E+00 0.00000E+00 0.00000E+00 0.00000E+00
 -1      5942 0.00000E+00 0.00000E+00 0.00000E+00 0.00000E+00 0.00000E+00 0.00000E+00
 -1      5943 0.00000E+00 0.00000E+00 0.00000E+00 0.00000E+00 0.00000E+00 0.00000E+00
 -1      5944 0.00000E+00 0.00000E+00 0.00000E+00 0.00000E+00 0.00000E+00 0.00000E+00
 -1      5945 0.00000E+00 0.00000E+00 0.00000E+00 0.00000E+00 0.00000E+00 0.00000E+00
 -1      5946 0.00000E+00 0.00000E+00 0.00000E+00 0.00000E+00 0.00000E+00 0.00000E+00
 -1      5947 0.00000E+00 0.00000E+00 0.00000E+00 0.00000E+00 0.00000E+00 0.00000E+00
 -1      5948 0.00000E+00 0.00000E+00 0.00000E+00 0.00000E+00 0.00000E+00 0.00000E+00
 -1      5949 0.00000E+00 0.00000E+00 0.00000E+00 0.00000E+00 0.00000E+00 0.00000E+00
 -1      5950 0.00000E+00 0.00000E+00 0.00000E+00 0.00000E+00 0.00000E+00 0.00000E+00
 -1      5951 0.00000E+00 0.00000E+00 0.00000E+00 0.00000E+00 0.00000E+00 0.00000E+00
 -1      5952 0.00000E+00 0.00000E+00 0.00000E+00 0.00000E+00 0.00000E+00 0.00000E+00
 -1      5953 0.00000E+00 0.00000E+00 0.00000E+00 0.00000E+00 0.00000E+00 0.00000E+00
 -1      5954 0.00000E+00 0.00000E+00 0.00000E+00 0.00000E+00 0.00000E+00 0.00000E+00
 -1      5955 0.00000E+00 0.00000E+00 0.00000E+00 0.00000E+00 0.00000E+00 0.00000E+00
 -1      5956 0.00000E+00 0.00000E+00 0.00000E+00 0.00000E+00 0.00000E+00 0.00000E+00
 -1      5957 0.00000E+00 0.00000E+00 0.00000E+00 0.00000E+00 0.00000E+00 0.00000E+00
 -1      5958 0.00000E+00 0.00000E+00 0.00000E+00 0.00000E+00 0.00000E+00 0.00000E+00
 -1      5959 0.00000E+00 0.00000E+00 0.00000E+00 0.00000E+00 0.00000E+00 0.00000E+00
 -1      5960 0.00000E+00 0.00000E+00 0.00000E+00 0.00000E+00 0.00000E+00 0.00000E+00
 -1      5961 0.00000E+00 0.00000E+00 0.00000E+00 0.00000E+00 0.00000E+00 0.00000E+00
 -1      5962 0.00000E+00 0.00000E+00 0.00000E+00 0.00000E+00 0.00000E+00 0.00000E+00
 -1      5963 0.00000E+00 0.00000E+00 0.00000E+00 0.00000E+00 0.00000E+00 0.00000E+00
 -1      5964 0.00000E+00 0.00000E+00 0.00000E+00 0.00000E+00 0.00000E+00 0.00000E+00
 -1      5965 0.00000E+00 0.00000E+00 0.00000E+00 0.00000E+00 0.00000E+00 0.00000E+00
 -1      5966 0.00000E+00 0.00000E+00 0.00000E+00 0.00000E+00 0.00000E+00 0.00000E+00
 -1      5967 0.00000E+00 0.00000E+00 0.00000E+00 0.00000E+00 0.00000E+00 0.00000E+00
 -1      5968 0.00000E+00 0.00000E+00 0.00000E+00 0.00000E+00 0.00000E+00 0.00000E+00
 -1      5969 0.00000E+00 0.00000E+00 0.00000E+00 0.00000E+00 0.00000E+00 0.00000E+00
 -1      5970 0.00000E+00 0.00000E+00 0.00000E+00 0.00000E+00 0.00000E+00 0.00000E+00
 -1      5971 0.00000E+00 0.00000E+00 0.00000E+00 0.00000E+00 0.00000E+00 0.00000E+00
 -1      5972 0.00000E+00 0.00000E+00 0.00000E+00 0.00000E+00 0.00000E+00 0.00000E+00
 -1      5973 0.00000E+00 0.00000E+00 0.00000E+00 0.00000E+00 0.00000E+00 0.00000E+00
 -1      5974 0.00000E+00 0.00000E+00 0.00000E+00 0.00000E+00 0.00000E+00 0.00000E+00
 -1      5975 0.00000E+00 0.00000E+00 0.00000E+00 0.00000E+00 0.00000E+00 0.00000E+00
 -1      5976 0.00000E+00 0.00000E+00 0.00000E+00 0.00000E+00 0.00000E+00 0.00000E+00
 -1      5977 0.00000E+00 0.00000E+00 0.00000E+00 0.00000E+00 0.00000E+00 0.00000E+00
 -1      5978 0.00000E+00 0.00000E+00 0.00000E+00 0.00000E+00 0.00000E+00 0.00000E+00
 -1      5979 0.00000E+00 0.00000E+00 0.00000E+00 0.00000E+00 0.00000E+00 0.00000E+00
 -1      5980 0.00000E+00 0.00000E+00 0.00000E+00 0.00000E+00 0.00000E+00 0.00000E+00
 -1      5981 0.00000E+00 0.00000E+00 0.00000E+00 0.00000E+00 0.00000E+00 0.00000E+00
 -1      5982 0.00000E+00 0.00000E+00 0.00000E+00 0.00000E+00 0.00000E+00 0.00000E+00
 -1      5983 0.00000E+00 0.00000E+00 0.00000E+00 0.00000E+00 0.00000E+00 0.00000E+00
 -1      5984 0.00000E+00 0.00000E+00 0.00000E+00 0.00000E+00 0.00000E+00 0.00000E+00
 -1      5985 0.00000E+00 0.00000E+00 0.00000E+00 0.00000E+00 0.00000E+00 0.00000E+00
 -1      5986 0.00000E+00 0.00000E+00 0.00000E+00 0.00000E+00 0.00000E+00 0.00000E+00
 -1      5987 0.00000E+00 0.00000E+00 0.00000E+00 0.00000E+00 0.00000E+00 0.00000E+00
 -1      5988 0.00000E+00 0.00000E+00 0.00000E+00 0.00000E+00 0.00000E+00 0.00000E+00
 -1      5989 0.00000E+00 0.00000E+00 0.00000E+00 0.00000E+00 0.00000E+00 0.00000E+00
 -1      5990 0.00000E+00 0.00000E+00 0.00000E+00 0.00000E+00 0.00000E+00 0.00000E+00
 -1      5991 0.00000E+00 0.00000E+00 0.00000E+00 0.00000E+00 0.00000E+00 0.00000E+00
 -1      5992 0.00000E+00 0.00000E+00 0.00000E+00 0.00000E+00 0.00000E+00 0.00000E+00
 -1      5993 0.00000E+00 0.00000E+00 0.00000E+00 0.00000E+00 0.00000E+00 0.00000E+00
 -1      5994 0.00000E+00 0.00000E+00 0.00000E+00 0.00000E+00 0.00000E+00 0.00000E+00
 -1      5995 0.00000E+00 0.00000E+00 0.00000E+00 0.00000E+00 0.00000E+00 0.00000E+00
 -1      5996 0.00000E+00 0.00000E+00 0.00000E+00 0.00000E+00 0.00000E+00 0.00000E+00
 -1      5997 0.00000E+00 0.00000E+00 0.00000E+00 0.00000E+00 0.00000E+00 0.00000E+00
 -1      5998 0.00000E+00 0.00000E+00 0.00000E+00 0.00000E+00 0.00000E+00 0.00000E+00
 -1      5999 0.00000E+00 0.00000E+00 0.00000E+00 0.00000E+00 0.00000E+00 0.00000E+00
 -1      6000 0.00000E+00 0.00000E+00 0.00000E+00 0.00000E+00 0.00000E+00 0.00000E+00
 -1      6001 0.00000E+00 0.00000E+00 0.00000E+00 0.00000E+00 0.00000E+00 0.00000E+00
 -1      6002 0.00000E+00 0.00000E+00 0.00000E+00 0.00000E+00 0.00000E+00 0.00000E+00
 -1      6003 0.00000E+00 0.00000E+00 0.00000E+00 0.00000E+00 0.00000E+00 0.00000E+00
 -1      6004 0.00000E+00 0.00000E+00 0.00000E+00 0.00000E+00 0.00000E+00 0.00000E+00
 -1      6005 0.00000E+00 0.00000E+00 0.00000E+00 0.00000E+00 0.00000E+00 0.00000E+00
 -1      6006 0.00000E+00 0.00000E+00 0.00000E+00 0.00000E+00 0.00000E+00 0.00000E+00
 -1      6007 0.00000E+00 0.00000E+00 0.00000E+00 0.00000E+00 0.00000E+00 0.00000E+00
 -1      6008 0.00000E+00 0.00000E+00 0.00000E+00 0.00000E+00 0.00000E+00 0.00000E+00
 -1      6009 0.00000E+00 0.00000E+00 0.00000E+00 0.00000E+00 0.00000E+00 0.00000E+00
 -1      6010 0.00000E+00 0.00000E+00 0.00000E+00 0.00000E+00 0.00000E+00 0.00000E+00
 -1      6011 0.00000E+00 0.00000E+00 0.00000E+00 0.00000E+00 0.00000E+00 0.00000E+00
 -1      6012 0.00000E+00 0.00000E+00 0.00000E+00 0.00000E+00 0.00000E+00 0.00000E+00
 -1      6013 0.00000E+00 0.00000E+00 0.00000E+00 0.00000E+00 0.00000E+00 0.00000E+00
 -1      6014 0.00000E+00 0.00000E+00 0.00000E+00 0.00000E+00 0.00000E+00 0.00000E+00
 -1      6015 0.00000E+00 0.00000E+00 0.00000E+00 0.00000E+00 0.00000E+00 0.00000E+00
 -1      6016 0.00000E+00 0.00000E+00 0.00000E+00 0.00000E+00 0.00000E+00 0.00000E+00
 -1      6017 0.00000E+00 0.00000E+00 0.00000E+00 0.00000E+00 0.00000E+00 0.00000E+00
 -1      6018 0.00000E+00 0.00000E+00 0.00000E+00 0.00000E+00 0.00000E+00 0.00000E+00
 -1      6019 0.00000E+00 0.00000E+00 0.00000E+00 0.00000E+00 0.00000E+00 0.00000E+00
 -1      6020 0.00000E+00 0.00000E+00 0.00000E+00 0.00000E+00 0.00000E+00 0.00000E+00
 -1      6021 0.00000E+00 0.00000E+00 0.00000E+00 0.00000E+00 0.00000E+00 0.00000E+00
 -1      6022 0.00000E+00 0.00000E+00 0.00000E+00 0.00000E+00 0.00000E+00 0.00000E+00
 -1      6023 0.00000E+00 0.00000E+00 0.00000E+00 0.00000E+00 0.00000E+00 0.00000E+00
 -1      6024 0.00000E+00 0.00000E+00 0.00000E+00 0.00000E+00 0.00000E+00 0.00000E+00
 -1      6025 0.00000E+00 0.00000E+00 0.00000E+00 0.00000E+00 0.00000E+00 0.00000E+00
 -1      6026 0.00000E+00 0.00000E+00 0.00000E+00 0.00000E+00 0.00000E+00 0.00000E+00
 -1      6027 0.00000E+00 0.00000E+00 0.00000E+00 0.00000E+00 0.00000E+00 0.00000E+00
 -1      6028 0.00000E+00 0.00000E+00 0.00000E+00 0.00000E+00 0.00000E+00 0.00000E+00
 -1      6029 0.00000E+00 0.00000E+00 0.00000E+00 0.00000E+00 0.00000E+00 0.00000E+00
 -1      6030 0.00000E+00 0.00000E+00 0.00000E+00 0.00000E+00 0.00000E+00 0.00000E+00
 -1      6031 0.00000E+00 0.00000E+00 0.00000E+00 0.00000E+00 0.00000E+00 0.00000E+00
 -1      6032 0.00000E+00 0.00000E+00 0.00000E+00 0.00000E+00 0.00000E+00 0.00000E+00
 -1      6033 0.00000E+00 0.00000E+00 0.00000E+00 0.00000E+00 0.00000E+00 0.00000E+00
 -1      6034 0.00000E+00 0.00000E+00 0.00000E+00 0.00000E+00 0.00000E+00 0.00000E+00
 -1      6035 0.00000E+00 0.00000E+00 0.00000E+00 0.00000E+00 0.00000E+00 0.00000E+00
 -1      6036 0.00000E+00 0.00000E+00 0.00000E+00 0.00000E+00 0.00000E+00 0.00000E+00
 -1      6037 0.00000E+00 0.00000E+00 0.00000E+00 0.00000E+00 0.00000E+00 0.00000E+00
 -1      6038 0.00000E+00 0.00000E+00 0.00000E+00 0.00000E+00 0.00000E+00 0.00000E+00
 -1      6039 0.00000E+00 0.00000E+00 0.00000E+00 0.00000E+00 0.00000E+00 0.00000E+00
 -1      6040 0.00000E+00 0.00000E+00 0.00000E+00 0.00000E+00 0.00000E+00 0.00000E+00
 -1      6041 0.00000E+00 0.00000E+00 0.00000E+00 0.00000E+00 0.00000E+00 0.00000E+00
 -1      6042 0.00000E+00 0.00000E+00 0.00000E+00 0.00000E+00 0.00000E+00 0.00000E+00
 -1      6043 0.00000E+00 0.00000E+00 0.00000E+00 0.00000E+00 0.00000E+00 0.00000E+00
 -1      6044 0.00000E+00 0.00000E+00 0.00000E+00 0.00000E+00 0.00000E+00 0.00000E+00
 -1      6045 0.00000E+00 0.00000E+00 0.00000E+00 0.00000E+00 0.00000E+00 0.00000E+00
 -1      6046 0.00000E+00 0.00000E+00 0.00000E+00 0.00000E+00 0.00000E+00 0.00000E+00
 -1      6047 0.00000E+00 0.00000E+00 0.00000E+00 0.00000E+00 0.00000E+00 0.00000E+00
 -1      6048 0.00000E+00 0.00000E+00 0.00000E+00 0.00000E+00 0.00000E+00 0.00000E+00
 -1      6049 0.00000E+00 0.00000E+00 0.00000E+00 0.00000E+00 0.00000E+00 0.00000E+00
 -1      6050 0.00000E+00 0.00000E+00 0.00000E+00 0.00000E+00 0.00000E+00 0.00000E+00
 -1      6051 0.00000E+00 0.00000E+00 0.00000E+00 0.00000E+00 0.00000E+00 0.00000E+00
 -1      6052 0.00000E+00 0.00000E+00 0.00000E+00 0.00000E+00 0.00000E+00 0.00000E+00
 -1      6053 0.00000E+00 0.00000E+00 0.00000E+00 0.00000E+00 0.00000E+00 0.00000E+00
 -1      6054 0.00000E+00 0.00000E+00 0.00000E+00 0.00000E+00 0.00000E+00 0.00000E+00
 -1      6055 0.00000E+00 0.00000E+00 0.00000E+00 0.00000E+00 0.00000E+00 0.00000E+00
 -1      6056 0.00000E+00 0.00000E+00 0.00000E+00 0.00000E+00 0.00000E+00 0.00000E+00
 -1      6057 0.00000E+00 0.00000E+00 0.00000E+00 0.00000E+00 0.00000E+00 0.00000E+00
 -1      6058 0.00000E+00 0.00000E+00 0.00000E+00 0.00000E+00 0.00000E+00 0.00000E+00
 -1      6059 0.00000E+00 0.00000E+00 0.00000E+00 0.00000E+00 0.00000E+00 0.00000E+00
 -1      6060 0.00000E+00 0.00000E+00 0.00000E+00 0.00000E+00 0.00000E+00 0.00000E+00
 -1      6061 0.00000E+00 0.00000E+00 0.00000E+00 0.00000E+00 0.00000E+00 0.00000E+00
 -1      6062 0.00000E+00 0.00000E+00 0.00000E+00 0.00000E+00 0.00000E+00 0.00000E+00
 -1      6063 0.00000E+00 0.00000E+00 0.00000E+00 0.00000E+00 0.00000E+00 0.00000E+00
 -1      6064 0.00000E+00 0.00000E+00 0.00000E+00 0.00000E+00 0.00000E+00 0.00000E+00
 -1      6065 0.00000E+00 0.00000E+00 0.00000E+00 0.00000E+00 0.00000E+00 0.00000E+00
 -1      6066 0.00000E+00 0.00000E+00 0.00000E+00 0.00000E+00 0.00000E+00 0.00000E+00
 -1      6067 0.00000E+00 0.00000E+00 0.00000E+00 0.00000E+00 0.00000E+00 0.00000E+00
 -1      6068 0.00000E+00 0.00000E+00 0.00000E+00 0.00000E+00 0.00000E+00 0.00000E+00
 -1      6069 0.00000E+00 0.00000E+00 0.00000E+00 0.00000E+00 0.00000E+00 0.00000E+00
 -1      6070 0.00000E+00 0.00000E+00 0.00000E+00 0.00000E+00 0.00000E+00 0.00000E+00
 -1      6071 0.00000E+00 0.00000E+00 0.00000E+00 0.00000E+00 0.00000E+00 0.00000E+00
 -1      6072 0.00000E+00 0.00000E+00 0.00000E+00 0.00000E+00 0.00000E+00 0.00000E+00
 -1      6073 0.00000E+00 0.00000E+00 0.00000E+00 0.00000E+00 0.00000E+00 0.00000E+00
 -1      6074 0.00000E+00 0.00000E+00 0.00000E+00 0.00000E+00 0.00000E+00 0.00000E+00
 -1      6075 0.00000E+00 0.00000E+00 0.00000E+00 0.00000E+00 0.00000E+00 0.00000E+00
 -1      6076 0.00000E+00 0.00000E+00 0.00000E+00 0.00000E+00 0.00000E+00 0.00000E+00
 -1      6077 0.00000E+00 0.00000E+00 0.00000E+00 0.00000E+00 0.00000E+00 0.00000E+00
 -1      6078 0.00000E+00 0.00000E+00 0.00000E+00 0.00000E+00 0.00000E+00 0.00000E+00
 -1      6079 0.00000E+00 0.00000E+00 0.00000E+00 0.00000E+00 0.00000E+00 0.00000E+00
 -1      6080 0.00000E+00 0.00000E+00 0.00000E+00 0.00000E+00 0.00000E+00 0.00000E+00
 -1      6081 0.00000E+00 0.00000E+00 0.00000E+00 0.00000E+00 0.00000E+00 0.00000E+00
 -1      6082 0.00000E+00 0.00000E+00 0.00000E+00 0.00000E+00 0.00000E+00 0.00000E+00
 -1      6083 0.00000E+00 0.00000E+00 0.00000E+00 0.00000E+00 0.00000E+00 0.00000E+00
 -1      6084 0.00000E+00 0.00000E+00 0.00000E+00 0.00000E+00 0.00000E+00 0.00000E+00
 -1      6085 0.00000E+00 0.00000E+00 0.00000E+00 0.00000E+00 0.00000E+00 0.00000E+00
 -1      6086 0.00000E+00 0.00000E+00 0.00000E+00 0.00000E+00 0.00000E+00 0.00000E+00
 -1      6087 0.00000E+00 0.00000E+00 0.00000E+00 0.00000E+00 0.00000E+00 0.00000E+00
 -1      6088 0.00000E+00 0.00000E+00 0.00000E+00 0.00000E+00 0.00000E+00 0.00000E+00
 -1      6089 0.00000E+00 0.00000E+00 0.00000E+00 0.00000E+00 0.00000E+00 0.00000E+00
 -1      6090 0.00000E+00 0.00000E+00 0.00000E+00 0.00000E+00 0.00000E+00 0.00000E+00
 -1      6091 0.00000E+00 0.00000E+00 0.00000E+00 0.00000E+00 0.00000E+00 0.00000E+00
 -1      6092 0.00000E+00 0.00000E+00 0.00000E+00 0.00000E+00 0.00000E+00 0.00000E+00
 -1      6093 0.00000E+00 0.00000E+00 0.00000E+00 0.00000E+00 0.00000E+00 0.00000E+00
 -1      6094 0.00000E+00 0.00000E+00 0.00000E+00 0.00000E+00 0.00000E+00 0.00000E+00
 -1      6095 0.00000E+00 0.00000E+00 0.00000E+00 0.00000E+00 0.00000E+00 0.00000E+00
 -1      6096 0.00000E+00 0.00000E+00 0.00000E+00 0.00000E+00 0.00000E+00 0.00000E+00
 -1      6097 0.00000E+00 0.00000E+00 0.00000E+00 0.00000E+00 0.00000E+00 0.00000E+00
 -1      6098 0.00000E+00 0.00000E+00 0.00000E+00 0.00000E+00 0.00000E+00 0.00000E+00
 -1      6099 0.00000E+00 0.00000E+00 0.00000E+00 0.00000E+00 0.00000E+00 0.00000E+00
 -1      6100 0.00000E+00 0.00000E+00 0.00000E+00 0.00000E+00 0.00000E+00 0.00000E+00
 -1      6101 0.00000E+00 0.00000E+00 0.00000E+00 0.00000E+00 0.00000E+00 0.00000E+00
 -1      6102 0.00000E+00 0.00000E+00 0.00000E+00 0.00000E+00 0.00000E+00 0.00000E+00
 -1      6103 0.00000E+00 0.00000E+00 0.00000E+00 0.00000E+00 0.00000E+00 0.00000E+00
 -1      6104 0.00000E+00 0.00000E+00 0.00000E+00 0.00000E+00 0.00000E+00 0.00000E+00
 -1      6105 0.00000E+00 0.00000E+00 0.00000E+00 0.00000E+00 0.00000E+00 0.00000E+00
 -1      6106 0.00000E+00 0.00000E+00 0.00000E+00 0.00000E+00 0.00000E+00 0.00000E+00
 -1      6107 0.00000E+00 0.00000E+00 0.00000E+00 0.00000E+00 0.00000E+00 0.00000E+00
 -1      6108 0.00000E+00 0.00000E+00 0.00000E+00 0.00000E+00 0.00000E+00 0.00000E+00
 -1      6109 0.00000E+00 0.00000E+00 0.00000E+00 0.00000E+00 0.00000E+00 0.00000E+00
 -1      6110 0.00000E+00 0.00000E+00 0.00000E+00 0.00000E+00 0.00000E+00 0.00000E+00
 -1      6111 0.00000E+00 0.00000E+00 0.00000E+00 0.00000E+00 0.00000E+00 0.00000E+00
 -1      6112 0.00000E+00 0.00000E+00 0.00000E+00 0.00000E+00 0.00000E+00 0.00000E+00
 -1      6113 0.00000E+00 0.00000E+00 0.00000E+00 0.00000E+00 0.00000E+00 0.00000E+00
 -1      6114 0.00000E+00 0.00000E+00 0.00000E+00 0.00000E+00 0.00000E+00 0.00000E+00
 -1      6115 0.00000E+00 0.00000E+00 0.00000E+00 0.00000E+00 0.00000E+00 0.00000E+00
 -1      6116 0.00000E+00 0.00000E+00 0.00000E+00 0.00000E+00 0.00000E+00 0.00000E+00
 -1      6117 0.00000E+00 0.00000E+00 0.00000E+00 0.00000E+00 0.00000E+00 0.00000E+00
 -1      6118 0.00000E+00 0.00000E+00 0.00000E+00 0.00000E+00 0.00000E+00 0.00000E+00
 -1      6119 0.00000E+00 0.00000E+00 0.00000E+00 0.00000E+00 0.00000E+00 0.00000E+00
 -1      6120 0.00000E+00 0.00000E+00 0.00000E+00 0.00000E+00 0.00000E+00 0.00000E+00
 -1      6121 0.00000E+00 0.00000E+00 0.00000E+00 0.00000E+00 0.00000E+00 0.00000E+00
 -1      6122 0.00000E+00 0.00000E+00 0.00000E+00 0.00000E+00 0.00000E+00 0.00000E+00
 -1      6123 0.00000E+00 0.00000E+00 0.00000E+00 0.00000E+00 0.00000E+00 0.00000E+00
 -1      6124 0.00000E+00 0.00000E+00 0.00000E+00 0.00000E+00 0.00000E+00 0.00000E+00
 -1      6125 0.00000E+00 0.00000E+00 0.00000E+00 0.00000E+00 0.00000E+00 0.00000E+00
 -1      6126 0.00000E+00 0.00000E+00 0.00000E+00 0.00000E+00 0.00000E+00 0.00000E+00
 -1      6127 0.00000E+00 0.00000E+00 0.00000E+00 0.00000E+00 0.00000E+00 0.00000E+00
 -1      6128 0.00000E+00 0.00000E+00 0.00000E+00 0.00000E+00 0.00000E+00 0.00000E+00
 -1      6129 0.00000E+00 0.00000E+00 0.00000E+00 0.00000E+00 0.00000E+00 0.00000E+00
 -1      6130 0.00000E+00 0.00000E+00 0.00000E+00 0.00000E+00 0.00000E+00 0.00000E+00
 -1      6131 0.00000E+00 0.00000E+00 0.00000E+00 0.00000E+00 0.00000E+00 0.00000E+00
 -1      6132 0.00000E+00 0.00000E+00 0.00000E+00 0.00000E+00 0.00000E+00 0.00000E+00
 -1      6133 0.00000E+00 0.00000E+00 0.00000E+00 0.00000E+00 0.00000E+00 0.00000E+00
 -1      6134 0.00000E+00 0.00000E+00 0.00000E+00 0.00000E+00 0.00000E+00 0.00000E+00
 -1      6135 0.00000E+00 0.00000E+00 0.00000E+00 0.00000E+00 0.00000E+00 0.00000E+00
 -1      6136 0.00000E+00 0.00000E+00 0.00000E+00 0.00000E+00 0.00000E+00 0.00000E+00
 -1      6137 0.00000E+00 0.00000E+00 0.00000E+00 0.00000E+00 0.00000E+00 0.00000E+00
 -1      6138 0.00000E+00 0.00000E+00 0.00000E+00 0.00000E+00 0.00000E+00 0.00000E+00
 -1      6139 0.00000E+00 0.00000E+00 0.00000E+00 0.00000E+00 0.00000E+00 0.00000E+00
 -1      6140 0.00000E+00 0.00000E+00 0.00000E+00 0.00000E+00 0.00000E+00 0.00000E+00
 -1      6141 0.00000E+00 0.00000E+00 0.00000E+00 0.00000E+00 0.00000E+00 0.00000E+00
 -1      6142 0.00000E+00 0.00000E+00 0.00000E+00 0.00000E+00 0.00000E+00 0.00000E+00
 -1      6143 0.00000E+00 0.00000E+00 0.00000E+00 0.00000E+00 0.00000E+00 0.00000E+00
 -1      6144 0.00000E+00 0.00000E+00 0.00000E+00 0.00000E+00 0.00000E+00 0.00000E+00
 -1      6145 0.00000E+00 0.00000E+00 0.00000E+00 0.00000E+00 0.00000E+00 0.00000E+00
 -1      6146 0.00000E+00 0.00000E+00 0.00000E+00 0.00000E+00 0.00000E+00 0.00000E+00
 -1      6147 0.00000E+00 0.00000E+00 0.00000E+00 0.00000E+00 0.00000E+00 0.00000E+00
 -1      6148 0.00000E+00 0.00000E+00 0.00000E+00 0.00000E+00 0.00000E+00 0.00000E+00
 -1      6149 0.00000E+00 0.00000E+00 0.00000E+00 0.00000E+00 0.00000E+00 0.00000E+00
 -1      6150 0.00000E+00 0.00000E+00 0.00000E+00 0.00000E+00 0.00000E+00 0.00000E+00
 -1      6151 0.00000E+00 0.00000E+00 0.00000E+00 0.00000E+00 0.00000E+00 0.00000E+00
 -1      6152 0.00000E+00 0.00000E+00 0.00000E+00 0.00000E+00 0.00000E+00 0.00000E+00
 -1      6153 0.00000E+00 0.00000E+00 0.00000E+00 0.00000E+00 0.00000E+00 0.00000E+00
 -1      6154 0.00000E+00 0.00000E+00 0.00000E+00 0.00000E+00 0.00000E+00 0.00000E+00
 -1      6155 0.00000E+00 0.00000E+00 0.00000E+00 0.00000E+00 0.00000E+00 0.00000E+00
 -1      6156 0.00000E+00 0.00000E+00 0.00000E+00 0.00000E+00 0.00000E+00 0.00000E+00
 -1      6157 0.00000E+00 0.00000E+00 0.00000E+00 0.00000E+00 0.00000E+00 0.00000E+00
 -1      6158 0.00000E+00 0.00000E+00 0.00000E+00 0.00000E+00 0.00000E+00 0.00000E+00
 -1      6159 0.00000E+00 0.00000E+00 0.00000E+00 0.00000E+00 0.00000E+00 0.00000E+00
 -1      6160 0.00000E+00 0.00000E+00 0.00000E+00 0.00000E+00 0.00000E+00 0.00000E+00
 -1      6161 0.00000E+00 0.00000E+00 0.00000E+00 0.00000E+00 0.00000E+00 0.00000E+00
 -1      6162 0.00000E+00 0.00000E+00 0.00000E+00 0.00000E+00 0.00000E+00 0.00000E+00
 -1      6163 0.00000E+00 0.00000E+00 0.00000E+00 0.00000E+00 0.00000E+00 0.00000E+00
 -1      6164 0.00000E+00 0.00000E+00 0.00000E+00 0.00000E+00 0.00000E+00 0.00000E+00
 -1      6165 0.00000E+00 0.00000E+00 0.00000E+00 0.00000E+00 0.00000E+00 0.00000E+00
 -1      6166 0.00000E+00 0.00000E+00 0.00000E+00 0.00000E+00 0.00000E+00 0.00000E+00
 -1      6167 0.00000E+00 0.00000E+00 0.00000E+00 0.00000E+00 0.00000E+00 0.00000E+00
 -1      6168 0.00000E+00 0.00000E+00 0.00000E+00 0.00000E+00 0.00000E+00 0.00000E+00
 -1      6169 0.00000E+00 0.00000E+00 0.00000E+00 0.00000E+00 0.00000E+00 0.00000E+00
 -1      6170 0.00000E+00 0.00000E+00 0.00000E+00 0.00000E+00 0.00000E+00 0.00000E+00
 -1      6171 0.00000E+00 0.00000E+00 0.00000E+00 0.00000E+00 0.00000E+00 0.00000E+00
 -1      6172 0.00000E+00 0.00000E+00 0.00000E+00 0.00000E+00 0.00000E+00 0.00000E+00
 -1      6173 0.00000E+00 0.00000E+00 0.00000E+00 0.00000E+00 0.00000E+00 0.00000E+00
 -1      6174 0.00000E+00 0.00000E+00 0.00000E+00 0.00000E+00 0.00000E+00 0.00000E+00
 -1      6175 0.00000E+00 0.00000E+00 0.00000E+00 0.00000E+00 0.00000E+00 0.00000E+00
 -1      6176 0.00000E+00 0.00000E+00 0.00000E+00 0.00000E+00 0.00000E+00 0.00000E+00
 -1      6177 0.00000E+00 0.00000E+00 0.00000E+00 0.00000E+00 0.00000E+00 0.00000E+00
 -1      6178 0.00000E+00 0.00000E+00 0.00000E+00 0.00000E+00 0.00000E+00 0.00000E+00
 -1      6179 0.00000E+00 0.00000E+00 0.00000E+00 0.00000E+00 0.00000E+00 0.00000E+00
 -1      6180 0.00000E+00 0.00000E+00 0.00000E+00 0.00000E+00 0.00000E+00 0.00000E+00
 -1      6181 0.00000E+00 0.00000E+00 0.00000E+00 0.00000E+00 0.00000E+00 0.00000E+00
 -1      6182 0.00000E+00 0.00000E+00 0.00000E+00 0.00000E+00 0.00000E+00 0.00000E+00
 -1      6183 0.00000E+00 0.00000E+00 0.00000E+00 0.00000E+00 0.00000E+00 0.00000E+00
 -1      6184 0.00000E+00 0.00000E+00 0.00000E+00 0.00000E+00 0.00000E+00 0.00000E+00
 -1      6185 0.00000E+00 0.00000E+00 0.00000E+00 0.00000E+00 0.00000E+00 0.00000E+00
 -1      6186 0.00000E+00 0.00000E+00 0.00000E+00 0.00000E+00 0.00000E+00 0.00000E+00
 -1      6187 0.00000E+00 0.00000E+00 0.00000E+00 0.00000E+00 0.00000E+00 0.00000E+00
 -1      6188 0.00000E+00 0.00000E+00 0.00000E+00 0.00000E+00 0.00000E+00 0.00000E+00
 -1      6189 0.00000E+00 0.00000E+00 0.00000E+00 0.00000E+00 0.00000E+00 0.00000E+00
 -1      6190 0.00000E+00 0.00000E+00 0.00000E+00 0.00000E+00 0.00000E+00 0.00000E+00
 -1      6191 0.00000E+00 0.00000E+00 0.00000E+00 0.00000E+00 0.00000E+00 0.00000E+00
 -1      6192 0.00000E+00 0.00000E+00 0.00000E+00 0.00000E+00 0.00000E+00 0.00000E+00
 -1      6193 0.00000E+00 0.00000E+00 0.00000E+00 0.00000E+00 0.00000E+00 0.00000E+00
 -1      6194 0.00000E+00 0.00000E+00 0.00000E+00 0.00000E+00 0.00000E+00 0.00000E+00
 -1      6195 0.00000E+00 0.00000E+00 0.00000E+00 0.00000E+00 0.00000E+00 0.00000E+00
 -1      6196 0.00000E+00 0.00000E+00 0.00000E+00 0.00000E+00 0.00000E+00 0.00000E+00
 -1      6197 0.00000E+00 0.00000E+00 0.00000E+00 0.00000E+00 0.00000E+00 0.00000E+00
 -1      6198 0.00000E+00 0.00000E+00 0.00000E+00 0.00000E+00 0.00000E+00 0.00000E+00
 -1      6199 0.00000E+00 0.00000E+00 0.00000E+00 0.00000E+00 0.00000E+00 0.00000E+00
 -1      6200 0.00000E+00 0.00000E+00 0.00000E+00 0.00000E+00 0.00000E+00 0.00000E+00
 -1      6201 0.00000E+00 0.00000E+00 0.00000E+00 0.00000E+00 0.00000E+00 0.00000E+00
 -1      6202 0.00000E+00 0.00000E+00 0.00000E+00 0.00000E+00 0.00000E+00 0.00000E+00
 -1      6203 0.00000E+00 0.00000E+00 0.00000E+00 0.00000E+00 0.00000E+00 0.00000E+00
 -1      6204 0.00000E+00 0.00000E+00 0.00000E+00 0.00000E+00 0.00000E+00 0.00000E+00
 -1      6205 0.00000E+00 0.00000E+00 0.00000E+00 0.00000E+00 0.00000E+00 0.00000E+00
 -1      6206 0.00000E+00 0.00000E+00 0.00000E+00 0.00000E+00 0.00000E+00 0.00000E+00
 -1      6207 0.00000E+00 0.00000E+00 0.00000E+00 0.00000E+00 0.00000E+00 0.00000E+00
 -1      6208 0.00000E+00 0.00000E+00 0.00000E+00 0.00000E+00 0.00000E+00 0.00000E+00
 -1      6209 0.00000E+00 0.00000E+00 0.00000E+00 0.00000E+00 0.00000E+00 0.00000E+00
 -1      6210 0.00000E+00 0.00000E+00 0.00000E+00 0.00000E+00 0.00000E+00 0.00000E+00
 -1      6211 0.00000E+00 0.00000E+00 0.00000E+00 0.00000E+00 0.00000E+00 0.00000E+00
 -1      6212 0.00000E+00 0.00000E+00 0.00000E+00 0.00000E+00 0.00000E+00 0.00000E+00
 -1      6213 0.00000E+00 0.00000E+00 0.00000E+00 0.00000E+00 0.00000E+00 0.00000E+00
 -1      6214 0.00000E+00 0.00000E+00 0.00000E+00 0.00000E+00 0.00000E+00 0.00000E+00
 -1      6215 0.00000E+00 0.00000E+00 0.00000E+00 0.00000E+00 0.00000E+00 0.00000E+00
 -1      6216 0.00000E+00 0.00000E+00 0.00000E+00 0.00000E+00 0.00000E+00 0.00000E+00
 -1      6217 0.00000E+00 0.00000E+00 0.00000E+00 0.00000E+00 0.00000E+00 0.00000E+00
 -1      6218 0.00000E+00 0.00000E+00 0.00000E+00 0.00000E+00 0.00000E+00 0.00000E+00
 -1      6219 0.00000E+00 0.00000E+00 0.00000E+00 0.00000E+00 0.00000E+00 0.00000E+00
 -1      6220 0.00000E+00 0.00000E+00 0.00000E+00 0.00000E+00 0.00000E+00 0.00000E+00
 -1      6221 0.00000E+00 0.00000E+00 0.00000E+00 0.00000E+00 0.00000E+00 0.00000E+00
 -1      6222 0.00000E+00 0.00000E+00 0.00000E+00 0.00000E+00 0.00000E+00 0.00000E+00
 -1      6223 0.00000E+00 0.00000E+00 0.00000E+00 0.00000E+00 0.00000E+00 0.00000E+00
 -1      6224 0.00000E+00 0.00000E+00 0.00000E+00 0.00000E+00 0.00000E+00 0.00000E+00
 -1      6225 0.00000E+00 0.00000E+00 0.00000E+00 0.00000E+00 0.00000E+00 0.00000E+00
 -1      6226 0.00000E+00 0.00000E+00 0.00000E+00 0.00000E+00 0.00000E+00 0.00000E+00
 -1      6227 0.00000E+00 0.00000E+00 0.00000E+00 0.00000E+00 0.00000E+00 0.00000E+00
 -1      6228 0.00000E+00 0.00000E+00 0.00000E+00 0.00000E+00 0.00000E+00 0.00000E+00
 -1      6229 0.00000E+00 0.00000E+00 0.00000E+00 0.00000E+00 0.00000E+00 0.00000E+00
 -1      6230 0.00000E+00 0.00000E+00 0.00000E+00 0.00000E+00 0.00000E+00 0.00000E+00
 -1      6231 0.00000E+00 0.00000E+00 0.00000E+00 0.00000E+00 0.00000E+00 0.00000E+00
 -1      6232 0.00000E+00 0.00000E+00 0.00000E+00 0.00000E+00 0.00000E+00 0.00000E+00
 -1      6233 0.00000E+00 0.00000E+00 0.00000E+00 0.00000E+00 0.00000E+00 0.00000E+00
 -1      6234 0.00000E+00 0.00000E+00 0.00000E+00 0.00000E+00 0.00000E+00 0.00000E+00
 -1      6235 0.00000E+00 0.00000E+00 0.00000E+00 0.00000E+00 0.00000E+00 0.00000E+00
 -1      6236 0.00000E+00 0.00000E+00 0.00000E+00 0.00000E+00 0.00000E+00 0.00000E+00
 -1      6237 0.00000E+00 0.00000E+00 0.00000E+00 0.00000E+00 0.00000E+00 0.00000E+00
 -1      6238 0.00000E+00 0.00000E+00 0.00000E+00 0.00000E+00 0.00000E+00 0.00000E+00
 -1      6239 0.00000E+00 0.00000E+00 0.00000E+00 0.00000E+00 0.00000E+00 0.00000E+00
 -1      6240 0.00000E+00 0.00000E+00 0.00000E+00 0.00000E+00 0.00000E+00 0.00000E+00
 -1      6241 0.00000E+00 0.00000E+00 0.00000E+00 0.00000E+00 0.00000E+00 0.00000E+00
 -1      6242 0.00000E+00 0.00000E+00 0.00000E+00 0.00000E+00 0.00000E+00 0.00000E+00
 -1      6243 0.00000E+00 0.00000E+00 0.00000E+00 0.00000E+00 0.00000E+00 0.00000E+00
 -1      6244 0.00000E+00 0.00000E+00 0.00000E+00 0.00000E+00 0.00000E+00 0.00000E+00
 -1      6245 0.00000E+00 0.00000E+00 0.00000E+00 0.00000E+00 0.00000E+00 0.00000E+00
 -1      6246 0.00000E+00 0.00000E+00 0.00000E+00 0.00000E+00 0.00000E+00 0.00000E+00
 -1      6247 0.00000E+00 0.00000E+00 0.00000E+00 0.00000E+00 0.00000E+00 0.00000E+00
 -1      6248 0.00000E+00 0.00000E+00 0.00000E+00 0.00000E+00 0.00000E+00 0.00000E+00
 -1      6249 0.00000E+00 0.00000E+00 0.00000E+00 0.00000E+00 0.00000E+00 0.00000E+00
 -1      6250 0.00000E+00 0.00000E+00 0.00000E+00 0.00000E+00 0.00000E+00 0.00000E+00
 -1      6251 0.00000E+00 0.00000E+00 0.00000E+00 0.00000E+00 0.00000E+00 0.00000E+00
 -1      6252 0.00000E+00 0.00000E+00 0.00000E+00 0.00000E+00 0.00000E+00 0.00000E+00
 -1      6253 0.00000E+00 0.00000E+00 0.00000E+00 0.00000E+00 0.00000E+00 0.00000E+00
 -1      6254 0.00000E+00 0.00000E+00 0.00000E+00 0.00000E+00 0.00000E+00 0.00000E+00
 -1      6255 0.00000E+00 0.00000E+00 0.00000E+00 0.00000E+00 0.00000E+00 0.00000E+00
 -1      6256 0.00000E+00 0.00000E+00 0.00000E+00 0.00000E+00 0.00000E+00 0.00000E+00
 -1      6257 0.00000E+00 0.00000E+00 0.00000E+00 0.00000E+00 0.00000E+00 0.00000E+00
 -1      6258 0.00000E+00 0.00000E+00 0.00000E+00 0.00000E+00 0.00000E+00 0.00000E+00
 -1      6259 0.00000E+00 0.00000E+00 0.00000E+00 0.00000E+00 0.00000E+00 0.00000E+00
 -1      6260 0.00000E+00 0.00000E+00 0.00000E+00 0.00000E+00 0.00000E+00 0.00000E+00
 -1      6261 0.00000E+00 0.00000E+00 0.00000E+00 0.00000E+00 0.00000E+00 0.00000E+00
 -1      6262 0.00000E+00 0.00000E+00 0.00000E+00 0.00000E+00 0.00000E+00 0.00000E+00
 -1      6263 0.00000E+00 0.00000E+00 0.00000E+00 0.00000E+00 0.00000E+00 0.00000E+00
 -1      6264 0.00000E+00 0.00000E+00 0.00000E+00 0.00000E+00 0.00000E+00 0.00000E+00
 -1      6265 0.00000E+00 0.00000E+00 0.00000E+00 0.00000E+00 0.00000E+00 0.00000E+00
 -1      6266 0.00000E+00 0.00000E+00 0.00000E+00 0.00000E+00 0.00000E+00 0.00000E+00
 -1      6267 0.00000E+00 0.00000E+00 0.00000E+00 0.00000E+00 0.00000E+00 0.00000E+00
 -1      6268 0.00000E+00 0.00000E+00 0.00000E+00 0.00000E+00 0.00000E+00 0.00000E+00
 -1      6269 0.00000E+00 0.00000E+00 0.00000E+00 0.00000E+00 0.00000E+00 0.00000E+00
 -1      6270 0.00000E+00 0.00000E+00 0.00000E+00 0.00000E+00 0.00000E+00 0.00000E+00
 -1      6271 0.00000E+00 0.00000E+00 0.00000E+00 0.00000E+00 0.00000E+00 0.00000E+00
 -1      6272 0.00000E+00 0.00000E+00 0.00000E+00 0.00000E+00 0.00000E+00 0.00000E+00
 -1      6273 0.00000E+00 0.00000E+00 0.00000E+00 0.00000E+00 0.00000E+00 0.00000E+00
 -1      6274 0.00000E+00 0.00000E+00 0.00000E+00 0.00000E+00 0.00000E+00 0.00000E+00
 -1      6275 0.00000E+00 0.00000E+00 0.00000E+00 0.00000E+00 0.00000E+00 0.00000E+00
 -1      6276 0.00000E+00 0.00000E+00 0.00000E+00 0.00000E+00 0.00000E+00 0.00000E+00
 -1      6277 0.00000E+00 0.00000E+00 0.00000E+00 0.00000E+00 0.00000E+00 0.00000E+00
 -1      6278 0.00000E+00 0.00000E+00 0.00000E+00 0.00000E+00 0.00000E+00 0.00000E+00
 -1      6279 0.00000E+00 0.00000E+00 0.00000E+00 0.00000E+00 0.00000E+00 0.00000E+00
 -1      6280 0.00000E+00 0.00000E+00 0.00000E+00 0.00000E+00 0.00000E+00 0.00000E+00
 -1      6281 0.00000E+00 0.00000E+00 0.00000E+00 0.00000E+00 0.00000E+00 0.00000E+00
 -1      6282 0.00000E+00 0.00000E+00 0.00000E+00 0.00000E+00 0.00000E+00 0.00000E+00
 -1      6283 0.00000E+00 0.00000E+00 0.00000E+00 0.00000E+00 0.00000E+00 0.00000E+00
 -1      6284 0.00000E+00 0.00000E+00 0.00000E+00 0.00000E+00 0.00000E+00 0.00000E+00
 -1      6285 0.00000E+00 0.00000E+00 0.00000E+00 0.00000E+00 0.00000E+00 0.00000E+00
 -1      6286 0.00000E+00 0.00000E+00 0.00000E+00 0.00000E+00 0.00000E+00 0.00000E+00
 -1      6287 0.00000E+00 0.00000E+00 0.00000E+00 0.00000E+00 0.00000E+00 0.00000E+00
 -1      6288 0.00000E+00 0.00000E+00 0.00000E+00 0.00000E+00 0.00000E+00 0.00000E+00
 -1      6289 0.00000E+00 0.00000E+00 0.00000E+00 0.00000E+00 0.00000E+00 0.00000E+00
 -1      6290 0.00000E+00 0.00000E+00 0.00000E+00 0.00000E+00 0.00000E+00 0.00000E+00
 -1      6291 0.00000E+00 0.00000E+00 0.00000E+00 0.00000E+00 0.00000E+00 0.00000E+00
 -1      6292 0.00000E+00 0.00000E+00 0.00000E+00 0.00000E+00 0.00000E+00 0.00000E+00
 -1      6293 0.00000E+00 0.00000E+00 0.00000E+00 0.00000E+00 0.00000E+00 0.00000E+00
 -1      6294 0.00000E+00 0.00000E+00 0.00000E+00 0.00000E+00 0.00000E+00 0.00000E+00
 -1      6295 0.00000E+00 0.00000E+00 0.00000E+00 0.00000E+00 0.00000E+00 0.00000E+00
 -1      6296 0.00000E+00 0.00000E+00 0.00000E+00 0.00000E+00 0.00000E+00 0.00000E+00
 -1      6297 0.00000E+00 0.00000E+00 0.00000E+00 0.00000E+00 0.00000E+00 0.00000E+00
 -1      6298 0.00000E+00 0.00000E+00 0.00000E+00 0.00000E+00 0.00000E+00 0.00000E+00
 -1      6299 0.00000E+00 0.00000E+00 0.00000E+00 0.00000E+00 0.00000E+00 0.00000E+00
 -1      6300 0.00000E+00 0.00000E+00 0.00000E+00 0.00000E+00 0.00000E+00 0.00000E+00
 -1      6301 0.00000E+00 0.00000E+00 0.00000E+00 0.00000E+00 0.00000E+00 0.00000E+00
 -1      6302 0.00000E+00 0.00000E+00 0.00000E+00 0.00000E+00 0.00000E+00 0.00000E+00
 -1      6303 0.00000E+00 0.00000E+00 0.00000E+00 0.00000E+00 0.00000E+00 0.00000E+00
 -1      6304 0.00000E+00 0.00000E+00 0.00000E+00 0.00000E+00 0.00000E+00 0.00000E+00
 -1      6305 0.00000E+00 0.00000E+00 0.00000E+00 0.00000E+00 0.00000E+00 0.00000E+00
 -1      6306 0.00000E+00 0.00000E+00 0.00000E+00 0.00000E+00 0.00000E+00 0.00000E+00
 -1      6307 0.00000E+00 0.00000E+00 0.00000E+00 0.00000E+00 0.00000E+00 0.00000E+00
 -1      6308 0.00000E+00 0.00000E+00 0.00000E+00 0.00000E+00 0.00000E+00 0.00000E+00
 -1      6309 0.00000E+00 0.00000E+00 0.00000E+00 0.00000E+00 0.00000E+00 0.00000E+00
 -1      6310 0.00000E+00 0.00000E+00 0.00000E+00 0.00000E+00 0.00000E+00 0.00000E+00
 -1      6311 0.00000E+00 0.00000E+00 0.00000E+00 0.00000E+00 0.00000E+00 0.00000E+00
 -1      6312 0.00000E+00 0.00000E+00 0.00000E+00 0.00000E+00 0.00000E+00 0.00000E+00
 -1      6313 0.00000E+00 0.00000E+00 0.00000E+00 0.00000E+00 0.00000E+00 0.00000E+00
 -1      6314 0.00000E+00 0.00000E+00 0.00000E+00 0.00000E+00 0.00000E+00 0.00000E+00
 -1      6315 0.00000E+00 0.00000E+00 0.00000E+00 0.00000E+00 0.00000E+00 0.00000E+00
 -1      6316 0.00000E+00 0.00000E+00 0.00000E+00 0.00000E+00 0.00000E+00 0.00000E+00
 -1      6317 0.00000E+00 0.00000E+00 0.00000E+00 0.00000E+00 0.00000E+00 0.00000E+00
 -1      6318 0.00000E+00 0.00000E+00 0.00000E+00 0.00000E+00 0.00000E+00 0.00000E+00
 -1      6319 0.00000E+00 0.00000E+00 0.00000E+00 0.00000E+00 0.00000E+00 0.00000E+00
 -1      6320 0.00000E+00 0.00000E+00 0.00000E+00 0.00000E+00 0.00000E+00 0.00000E+00
 -1      6321 0.00000E+00 0.00000E+00 0.00000E+00 0.00000E+00 0.00000E+00 0.00000E+00
 -1      6322 0.00000E+00 0.00000E+00 0.00000E+00 0.00000E+00 0.00000E+00 0.00000E+00
 -1      6323 0.00000E+00 0.00000E+00 0.00000E+00 0.00000E+00 0.00000E+00 0.00000E+00
 -1      6324 0.00000E+00 0.00000E+00 0.00000E+00 0.00000E+00 0.00000E+00 0.00000E+00
 -1      6325 0.00000E+00 0.00000E+00 0.00000E+00 0.00000E+00 0.00000E+00 0.00000E+00
 -1      6326 0.00000E+00 0.00000E+00 0.00000E+00 0.00000E+00 0.00000E+00 0.00000E+00
 -1      6327 0.00000E+00 0.00000E+00 0.00000E+00 0.00000E+00 0.00000E+00 0.00000E+00
 -1      6328 0.00000E+00 0.00000E+00 0.00000E+00 0.00000E+00 0.00000E+00 0.00000E+00
 -1      6329 0.00000E+00 0.00000E+00 0.00000E+00 0.00000E+00 0.00000E+00 0.00000E+00
 -1      6330 0.00000E+00 0.00000E+00 0.00000E+00 0.00000E+00 0.00000E+00 0.00000E+00
 -1      6331 0.00000E+00 0.00000E+00 0.00000E+00 0.00000E+00 0.00000E+00 0.00000E+00
 -1      6332 0.00000E+00 0.00000E+00 0.00000E+00 0.00000E+00 0.00000E+00 0.00000E+00
 -1      6333 0.00000E+00 0.00000E+00 0.00000E+00 0.00000E+00 0.00000E+00 0.00000E+00
 -1      6334 0.00000E+00 0.00000E+00 0.00000E+00 0.00000E+00 0.00000E+00 0.00000E+00
 -1      6335 0.00000E+00 0.00000E+00 0.00000E+00 0.00000E+00 0.00000E+00 0.00000E+00
 -1      6336 0.00000E+00 0.00000E+00 0.00000E+00 0.00000E+00 0.00000E+00 0.00000E+00
 -1      6337 0.00000E+00 0.00000E+00 0.00000E+00 0.00000E+00 0.00000E+00 0.00000E+00
 -1      6338 0.00000E+00 0.00000E+00 0.00000E+00 0.00000E+00 0.00000E+00 0.00000E+00
 -1      6339 0.00000E+00 0.00000E+00 0.00000E+00 0.00000E+00 0.00000E+00 0.00000E+00
 -1      6340 0.00000E+00 0.00000E+00 0.00000E+00 0.00000E+00 0.00000E+00 0.00000E+00
 -1      6341 0.00000E+00 0.00000E+00 0.00000E+00 0.00000E+00 0.00000E+00 0.00000E+00
 -1      6342 0.00000E+00 0.00000E+00 0.00000E+00 0.00000E+00 0.00000E+00 0.00000E+00
 -1      6343 0.00000E+00 0.00000E+00 0.00000E+00 0.00000E+00 0.00000E+00 0.00000E+00
 -1      6344 0.00000E+00 0.00000E+00 0.00000E+00 0.00000E+00 0.00000E+00 0.00000E+00
 -1      6345 0.00000E+00 0.00000E+00 0.00000E+00 0.00000E+00 0.00000E+00 0.00000E+00
 -1      6346 0.00000E+00 0.00000E+00 0.00000E+00 0.00000E+00 0.00000E+00 0.00000E+00
 -1      6347 0.00000E+00 0.00000E+00 0.00000E+00 0.00000E+00 0.00000E+00 0.00000E+00
 -1      6348 0.00000E+00 0.00000E+00 0.00000E+00 0.00000E+00 0.00000E+00 0.00000E+00
 -1      6349 0.00000E+00 0.00000E+00 0.00000E+00 0.00000E+00 0.00000E+00 0.00000E+00
 -1      6350 0.00000E+00 0.00000E+00 0.00000E+00 0.00000E+00 0.00000E+00 0.00000E+00
 -1      6351 0.00000E+00 0.00000E+00 0.00000E+00 0.00000E+00 0.00000E+00 0.00000E+00
 -1      6352 0.00000E+00 0.00000E+00 0.00000E+00 0.00000E+00 0.00000E+00 0.00000E+00
 -1      6353 0.00000E+00 0.00000E+00 0.00000E+00 0.00000E+00 0.00000E+00 0.00000E+00
 -1      6354 0.00000E+00 0.00000E+00 0.00000E+00 0.00000E+00 0.00000E+00 0.00000E+00
 -1      6355 0.00000E+00 0.00000E+00 0.00000E+00 0.00000E+00 0.00000E+00 0.00000E+00
 -1      6356 0.00000E+00 0.00000E+00 0.00000E+00 0.00000E+00 0.00000E+00 0.00000E+00
 -1      6357 0.00000E+00 0.00000E+00 0.00000E+00 0.00000E+00 0.00000E+00 0.00000E+00
 -1      6358 0.00000E+00 0.00000E+00 0.00000E+00 0.00000E+00 0.00000E+00 0.00000E+00
 -1      6359 0.00000E+00 0.00000E+00 0.00000E+00 0.00000E+00 0.00000E+00 0.00000E+00
 -1      6360 0.00000E+00 0.00000E+00 0.00000E+00 0.00000E+00 0.00000E+00 0.00000E+00
 -1      6361 0.00000E+00 0.00000E+00 0.00000E+00 0.00000E+00 0.00000E+00 0.00000E+00
 -1      6362 0.00000E+00 0.00000E+00 0.00000E+00 0.00000E+00 0.00000E+00 0.00000E+00
 -1      6363 0.00000E+00 0.00000E+00 0.00000E+00 0.00000E+00 0.00000E+00 0.00000E+00
 -1      6364 0.00000E+00 0.00000E+00 0.00000E+00 0.00000E+00 0.00000E+00 0.00000E+00
 -1      6365 0.00000E+00 0.00000E+00 0.00000E+00 0.00000E+00 0.00000E+00 0.00000E+00
 -1      6366 0.00000E+00 0.00000E+00 0.00000E+00 0.00000E+00 0.00000E+00 0.00000E+00
 -1      6367 0.00000E+00 0.00000E+00 0.00000E+00 0.00000E+00 0.00000E+00 0.00000E+00
 -1      6368 0.00000E+00 0.00000E+00 0.00000E+00 0.00000E+00 0.00000E+00 0.00000E+00
 -1      6369 0.00000E+00 0.00000E+00 0.00000E+00 0.00000E+00 0.00000E+00 0.00000E+00
 -1      6370 0.00000E+00 0.00000E+00 0.00000E+00 0.00000E+00 0.00000E+00 0.00000E+00
 -1      6371 0.00000E+00 0.00000E+00 0.00000E+00 0.00000E+00 0.00000E+00 0.00000E+00
 -1      6372 0.00000E+00 0.00000E+00 0.00000E+00 0.00000E+00 0.00000E+00 0.00000E+00
 -1      6373 0.00000E+00 0.00000E+00 0.00000E+00 0.00000E+00 0.00000E+00 0.00000E+00
 -1      6374 0.00000E+00 0.00000E+00 0.00000E+00 0.00000E+00 0.00000E+00 0.00000E+00
 -1      6375 0.00000E+00 0.00000E+00 0.00000E+00 0.00000E+00 0.00000E+00 0.00000E+00
 -1      6376 0.00000E+00 0.00000E+00 0.00000E+00 0.00000E+00 0.00000E+00 0.00000E+00
 -1      6377 0.00000E+00 0.00000E+00 0.00000E+00 0.00000E+00 0.00000E+00 0.00000E+00
 -1      6378 0.00000E+00 0.00000E+00 0.00000E+00 0.00000E+00 0.00000E+00 0.00000E+00
 -1      6379 0.00000E+00 0.00000E+00 0.00000E+00 0.00000E+00 0.00000E+00 0.00000E+00
 -1      6380 0.00000E+00 0.00000E+00 0.00000E+00 0.00000E+00 0.00000E+00 0.00000E+00
 -1      6381 0.00000E+00 0.00000E+00 0.00000E+00 0.00000E+00 0.00000E+00 0.00000E+00
 -1      6382 0.00000E+00 0.00000E+00 0.00000E+00 0.00000E+00 0.00000E+00 0.00000E+00
 -1      6383 0.00000E+00 0.00000E+00 0.00000E+00 0.00000E+00 0.00000E+00 0.00000E+00
 -1      6384 0.00000E+00 0.00000E+00 0.00000E+00 0.00000E+00 0.00000E+00 0.00000E+00
 -1      6385 0.00000E+00 0.00000E+00 0.00000E+00 0.00000E+00 0.00000E+00 0.00000E+00
 -1      6386 0.00000E+00 0.00000E+00 0.00000E+00 0.00000E+00 0.00000E+00 0.00000E+00
 -1      6387 0.00000E+00 0.00000E+00 0.00000E+00 0.00000E+00 0.00000E+00 0.00000E+00
 -1      6388 0.00000E+00 0.00000E+00 0.00000E+00 0.00000E+00 0.00000E+00 0.00000E+00
 -1      6389 0.00000E+00 0.00000E+00 0.00000E+00 0.00000E+00 0.00000E+00 0.00000E+00
 -1      6390 0.00000E+00 0.00000E+00 0.00000E+00 0.00000E+00 0.00000E+00 0.00000E+00
 -1      6391 0.00000E+00 0.00000E+00 0.00000E+00 0.00000E+00 0.00000E+00 0.00000E+00
 -1      6392 0.00000E+00 0.00000E+00 0.00000E+00 0.00000E+00 0.00000E+00 0.00000E+00
 -1      6393 0.00000E+00 0.00000E+00 0.00000E+00 0.00000E+00 0.00000E+00 0.00000E+00
 -1      6394 0.00000E+00 0.00000E+00 0.00000E+00 0.00000E+00 0.00000E+00 0.00000E+00
 -1      6395 0.00000E+00 0.00000E+00 0.00000E+00 0.00000E+00 0.00000E+00 0.00000E+00
 -1      6396 0.00000E+00 0.00000E+00 0.00000E+00 0.00000E+00 0.00000E+00 0.00000E+00
 -1      6397 0.00000E+00 0.00000E+00 0.00000E+00 0.00000E+00 0.00000E+00 0.00000E+00
 -1      6398 0.00000E+00 0.00000E+00 0.00000E+00 0.00000E+00 0.00000E+00 0.00000E+00
 -1      6399 0.00000E+00 0.00000E+00 0.00000E+00 0.00000E+00 0.00000E+00 0.00000E+00
 -1      6400 0.00000E+00 0.00000E+00 0.00000E+00 0.00000E+00 0.00000E+00 0.00000E+00
 -1      6401 0.00000E+00 0.00000E+00 0.00000E+00 0.00000E+00 0.00000E+00 0.00000E+00
 -1      6402 0.00000E+00 0.00000E+00 0.00000E+00 0.00000E+00 0.00000E+00 0.00000E+00
 -1      6403 0.00000E+00 0.00000E+00 0.00000E+00 0.00000E+00 0.00000E+00 0.00000E+00
 -1      6404 0.00000E+00 0.00000E+00 0.00000E+00 0.00000E+00 0.00000E+00 0.00000E+00
 -1      6405 0.00000E+00 0.00000E+00 0.00000E+00 0.00000E+00 0.00000E+00 0.00000E+00
 -1      6406 0.00000E+00 0.00000E+00 0.00000E+00 0.00000E+00 0.00000E+00 0.00000E+00
 -1      6407 0.00000E+00 0.00000E+00 0.00000E+00 0.00000E+00 0.00000E+00 0.00000E+00
 -1      6408 0.00000E+00 0.00000E+00 0.00000E+00 0.00000E+00 0.00000E+00 0.00000E+00
 -1      6409 0.00000E+00 0.00000E+00 0.00000E+00 0.00000E+00 0.00000E+00 0.00000E+00
 -1      6410 0.00000E+00 0.00000E+00 0.00000E+00 0.00000E+00 0.00000E+00 0.00000E+00
 -1      6411 0.00000E+00 0.00000E+00 0.00000E+00 0.00000E+00 0.00000E+00 0.00000E+00
 -1      6412 0.00000E+00 0.00000E+00 0.00000E+00 0.00000E+00 0.00000E+00 0.00000E+00
 -1      6413 0.00000E+00 0.00000E+00 0.00000E+00 0.00000E+00 0.00000E+00 0.00000E+00
 -1      6414 0.00000E+00 0.00000E+00 0.00000E+00 0.00000E+00 0.00000E+00 0.00000E+00
 -1      6415 0.00000E+00 0.00000E+00 0.00000E+00 0.00000E+00 0.00000E+00 0.00000E+00
 -1      6416 0.00000E+00 0.00000E+00 0.00000E+00 0.00000E+00 0.00000E+00 0.00000E+00
 -1      6417 0.00000E+00 0.00000E+00 0.00000E+00 0.00000E+00 0.00000E+00 0.00000E+00
 -1      6418 0.00000E+00 0.00000E+00 0.00000E+00 0.00000E+00 0.00000E+00 0.00000E+00
 -1      6419 0.00000E+00 0.00000E+00 0.00000E+00 0.00000E+00 0.00000E+00 0.00000E+00
 -1      6420 0.00000E+00 0.00000E+00 0.00000E+00 0.00000E+00 0.00000E+00 0.00000E+00
 -1      6421 0.00000E+00 0.00000E+00 0.00000E+00 0.00000E+00 0.00000E+00 0.00000E+00
 -1      6422 0.00000E+00 0.00000E+00 0.00000E+00 0.00000E+00 0.00000E+00 0.00000E+00
 -1      6423 0.00000E+00 0.00000E+00 0.00000E+00 0.00000E+00 0.00000E+00 0.00000E+00
 -1      6424 0.00000E+00 0.00000E+00 0.00000E+00 0.00000E+00 0.00000E+00 0.00000E+00
 -1      6425 0.00000E+00 0.00000E+00 0.00000E+00 0.00000E+00 0.00000E+00 0.00000E+00
 -1      6426 0.00000E+00 0.00000E+00 0.00000E+00 0.00000E+00 0.00000E+00 0.00000E+00
 -1      6427 0.00000E+00 0.00000E+00 0.00000E+00 0.00000E+00 0.00000E+00 0.00000E+00
 -1      6428 0.00000E+00 0.00000E+00 0.00000E+00 0.00000E+00 0.00000E+00 0.00000E+00
 -1      6429 0.00000E+00 0.00000E+00 0.00000E+00 0.00000E+00 0.00000E+00 0.00000E+00
 -1      6430 0.00000E+00 0.00000E+00 0.00000E+00 0.00000E+00 0.00000E+00 0.00000E+00
 -1      6431 0.00000E+00 0.00000E+00 0.00000E+00 0.00000E+00 0.00000E+00 0.00000E+00
 -1      6432 0.00000E+00 0.00000E+00 0.00000E+00 0.00000E+00 0.00000E+00 0.00000E+00
 -1      6433 0.00000E+00 0.00000E+00 0.00000E+00 0.00000E+00 0.00000E+00 0.00000E+00
 -1      6434 0.00000E+00 0.00000E+00 0.00000E+00 0.00000E+00 0.00000E+00 0.00000E+00
 -1      6435 0.00000E+00 0.00000E+00 0.00000E+00 0.00000E+00 0.00000E+00 0.00000E+00
 -1      6436 0.00000E+00 0.00000E+00 0.00000E+00 0.00000E+00 0.00000E+00 0.00000E+00
 -1      6437 0.00000E+00 0.00000E+00 0.00000E+00 0.00000E+00 0.00000E+00 0.00000E+00
 -1      6438 0.00000E+00 0.00000E+00 0.00000E+00 0.00000E+00 0.00000E+00 0.00000E+00
 -1      6439 0.00000E+00 0.00000E+00 0.00000E+00 0.00000E+00 0.00000E+00 0.00000E+00
 -1      6440 0.00000E+00 0.00000E+00 0.00000E+00 0.00000E+00 0.00000E+00 0.00000E+00
 -1      6441 0.00000E+00 0.00000E+00 0.00000E+00 0.00000E+00 0.00000E+00 0.00000E+00
 -1      6442 0.00000E+00 0.00000E+00 0.00000E+00 0.00000E+00 0.00000E+00 0.00000E+00
 -1      6443 0.00000E+00 0.00000E+00 0.00000E+00 0.00000E+00 0.00000E+00 0.00000E+00
 -1      6444 0.00000E+00 0.00000E+00 0.00000E+00 0.00000E+00 0.00000E+00 0.00000E+00
 -1      6445 0.00000E+00 0.00000E+00 0.00000E+00 0.00000E+00 0.00000E+00 0.00000E+00
 -1      6446 0.00000E+00 0.00000E+00 0.00000E+00 0.00000E+00 0.00000E+00 0.00000E+00
 -1      6447 0.00000E+00 0.00000E+00 0.00000E+00 0.00000E+00 0.00000E+00 0.00000E+00
 -1      6448 0.00000E+00 0.00000E+00 0.00000E+00 0.00000E+00 0.00000E+00 0.00000E+00
 -1      6449 0.00000E+00 0.00000E+00 0.00000E+00 0.00000E+00 0.00000E+00 0.00000E+00
 -1      6450 0.00000E+00 0.00000E+00 0.00000E+00 0.00000E+00 0.00000E+00 0.00000E+00
 -1      6451 0.00000E+00 0.00000E+00 0.00000E+00 0.00000E+00 0.00000E+00 0.00000E+00
 -1      6452 0.00000E+00 0.00000E+00 0.00000E+00 0.00000E+00 0.00000E+00 0.00000E+00
 -1      6453 0.00000E+00 0.00000E+00 0.00000E+00 0.00000E+00 0.00000E+00 0.00000E+00
 -1      6454 0.00000E+00 0.00000E+00 0.00000E+00 0.00000E+00 0.00000E+00 0.00000E+00
 -1      6455 0.00000E+00 0.00000E+00 0.00000E+00 0.00000E+00 0.00000E+00 0.00000E+00
 -1      6456 0.00000E+00 0.00000E+00 0.00000E+00 0.00000E+00 0.00000E+00 0.00000E+00
 -1      6457 0.00000E+00 0.00000E+00 0.00000E+00 0.00000E+00 0.00000E+00 0.00000E+00
 -1      6458 0.00000E+00 0.00000E+00 0.00000E+00 0.00000E+00 0.00000E+00 0.00000E+00
 -1      6459 0.00000E+00 0.00000E+00 0.00000E+00 0.00000E+00 0.00000E+00 0.00000E+00
 -1      6460 0.00000E+00 0.00000E+00 0.00000E+00 0.00000E+00 0.00000E+00 0.00000E+00
 -1      6461 0.00000E+00 0.00000E+00 0.00000E+00 0.00000E+00 0.00000E+00 0.00000E+00
 -1      6462 0.00000E+00 0.00000E+00 0.00000E+00 0.00000E+00 0.00000E+00 0.00000E+00
 -1      6463 0.00000E+00 0.00000E+00 0.00000E+00 0.00000E+00 0.00000E+00 0.00000E+00
 -1      6464 0.00000E+00 0.00000E+00 0.00000E+00 0.00000E+00 0.00000E+00 0.00000E+00
 -1      6465 0.00000E+00 0.00000E+00 0.00000E+00 0.00000E+00 0.00000E+00 0.00000E+00
 -1      6466 0.00000E+00 0.00000E+00 0.00000E+00 0.00000E+00 0.00000E+00 0.00000E+00
 -1      6467 0.00000E+00 0.00000E+00 0.00000E+00 0.00000E+00 0.00000E+00 0.00000E+00
 -1      6468 0.00000E+00 0.00000E+00 0.00000E+00 0.00000E+00 0.00000E+00 0.00000E+00
 -1      6469 0.00000E+00 0.00000E+00 0.00000E+00 0.00000E+00 0.00000E+00 0.00000E+00
 -1      6470 0.00000E+00 0.00000E+00 0.00000E+00 0.00000E+00 0.00000E+00 0.00000E+00
 -1      6471 0.00000E+00 0.00000E+00 0.00000E+00 0.00000E+00 0.00000E+00 0.00000E+00
 -1      6472 0.00000E+00 0.00000E+00 0.00000E+00 0.00000E+00 0.00000E+00 0.00000E+00
 -1      6473 0.00000E+00 0.00000E+00 0.00000E+00 0.00000E+00 0.00000E+00 0.00000E+00
 -1      6474 0.00000E+00 0.00000E+00 0.00000E+00 0.00000E+00 0.00000E+00 0.00000E+00
 -1      6475 0.00000E+00 0.00000E+00 0.00000E+00 0.00000E+00 0.00000E+00 0.00000E+00
 -1      6476 0.00000E+00 0.00000E+00 0.00000E+00 0.00000E+00 0.00000E+00 0.00000E+00
 -1      6477 0.00000E+00 0.00000E+00 0.00000E+00 0.00000E+00 0.00000E+00 0.00000E+00
 -1      6478 0.00000E+00 0.00000E+00 0.00000E+00 0.00000E+00 0.00000E+00 0.00000E+00
 -1      6479 0.00000E+00 0.00000E+00 0.00000E+00 0.00000E+00 0.00000E+00 0.00000E+00
 -1      6480 0.00000E+00 0.00000E+00 0.00000E+00 0.00000E+00 0.00000E+00 0.00000E+00
 -1      6481 0.00000E+00 0.00000E+00 0.00000E+00 0.00000E+00 0.00000E+00 0.00000E+00
 -1      6482 0.00000E+00 0.00000E+00 0.00000E+00 0.00000E+00 0.00000E+00 0.00000E+00
 -1      6483 0.00000E+00 0.00000E+00 0.00000E+00 0.00000E+00 0.00000E+00 0.00000E+00
 -1      6484 0.00000E+00 0.00000E+00 0.00000E+00 0.00000E+00 0.00000E+00 0.00000E+00
 -1      6485 0.00000E+00 0.00000E+00 0.00000E+00 0.00000E+00 0.00000E+00 0.00000E+00
 -1      6486 0.00000E+00 0.00000E+00 0.00000E+00 0.00000E+00 0.00000E+00 0.00000E+00
 -1      6487 0.00000E+00 0.00000E+00 0.00000E+00 0.00000E+00 0.00000E+00 0.00000E+00
 -1      6488 0.00000E+00 0.00000E+00 0.00000E+00 0.00000E+00 0.00000E+00 0.00000E+00
 -1      6489 0.00000E+00 0.00000E+00 0.00000E+00 0.00000E+00 0.00000E+00 0.00000E+00
 -1      6490 0.00000E+00 0.00000E+00 0.00000E+00 0.00000E+00 0.00000E+00 0.00000E+00
 -1      6491 0.00000E+00 0.00000E+00 0.00000E+00 0.00000E+00 0.00000E+00 0.00000E+00
 -1      6492 0.00000E+00 0.00000E+00 0.00000E+00 0.00000E+00 0.00000E+00 0.00000E+00
 -1      6493 0.00000E+00 0.00000E+00 0.00000E+00 0.00000E+00 0.00000E+00 0.00000E+00
 -1      6494 0.00000E+00 0.00000E+00 0.00000E+00 0.00000E+00 0.00000E+00 0.00000E+00
 -1      6495 0.00000E+00 0.00000E+00 0.00000E+00 0.00000E+00 0.00000E+00 0.00000E+00
 -1      6496 0.00000E+00 0.00000E+00 0.00000E+00 0.00000E+00 0.00000E+00 0.00000E+00
 -1      6497 0.00000E+00 0.00000E+00 0.00000E+00 0.00000E+00 0.00000E+00 0.00000E+00
 -1      6498 0.00000E+00 0.00000E+00 0.00000E+00 0.00000E+00 0.00000E+00 0.00000E+00
 -1      6499 0.00000E+00 0.00000E+00 0.00000E+00 0.00000E+00 0.00000E+00 0.00000E+00
 -1      6500 0.00000E+00 0.00000E+00 0.00000E+00 0.00000E+00 0.00000E+00 0.00000E+00
 -1      6501 0.00000E+00 0.00000E+00 0.00000E+00 0.00000E+00 0.00000E+00 0.00000E+00
 -1      6502 0.00000E+00 0.00000E+00 0.00000E+00 0.00000E+00 0.00000E+00 0.00000E+00
 -1      6503 0.00000E+00 0.00000E+00 0.00000E+00 0.00000E+00 0.00000E+00 0.00000E+00
 -1      6504 0.00000E+00 0.00000E+00 0.00000E+00 0.00000E+00 0.00000E+00 0.00000E+00
 -1      6505 0.00000E+00 0.00000E+00 0.00000E+00 0.00000E+00 0.00000E+00 0.00000E+00
 -1      6506 0.00000E+00 0.00000E+00 0.00000E+00 0.00000E+00 0.00000E+00 0.00000E+00
 -1      6507 0.00000E+00 0.00000E+00 0.00000E+00 0.00000E+00 0.00000E+00 0.00000E+00
 -1      6508 0.00000E+00 0.00000E+00 0.00000E+00 0.00000E+00 0.00000E+00 0.00000E+00
 -1      6509 0.00000E+00 0.00000E+00 0.00000E+00 0.00000E+00 0.00000E+00 0.00000E+00
 -1      6510 0.00000E+00 0.00000E+00 0.00000E+00 0.00000E+00 0.00000E+00 0.00000E+00
 -1      6511 0.00000E+00 0.00000E+00 0.00000E+00 0.00000E+00 0.00000E+00 0.00000E+00
 -1      6512 0.00000E+00 0.00000E+00 0.00000E+00 0.00000E+00 0.00000E+00 0.00000E+00
 -1      6513 0.00000E+00 0.00000E+00 0.00000E+00 0.00000E+00 0.00000E+00 0.00000E+00
 -1      6514 0.00000E+00 0.00000E+00 0.00000E+00 0.00000E+00 0.00000E+00 0.00000E+00
 -1      6515 0.00000E+00 0.00000E+00 0.00000E+00 0.00000E+00 0.00000E+00 0.00000E+00
 -1      6516 0.00000E+00 0.00000E+00 0.00000E+00 0.00000E+00 0.00000E+00 0.00000E+00
 -1      6517 0.00000E+00 0.00000E+00 0.00000E+00 0.00000E+00 0.00000E+00 0.00000E+00
 -1      6518 0.00000E+00 0.00000E+00 0.00000E+00 0.00000E+00 0.00000E+00 0.00000E+00
 -1      6519 0.00000E+00 0.00000E+00 0.00000E+00 0.00000E+00 0.00000E+00 0.00000E+00
 -1      6520 0.00000E+00 0.00000E+00 0.00000E+00 0.00000E+00 0.00000E+00 0.00000E+00
 -1      6521 0.00000E+00 0.00000E+00 0.00000E+00 0.00000E+00 0.00000E+00 0.00000E+00
 -1      6522 0.00000E+00 0.00000E+00 0.00000E+00 0.00000E+00 0.00000E+00 0.00000E+00
 -1      6523 0.00000E+00 0.00000E+00 0.00000E+00 0.00000E+00 0.00000E+00 0.00000E+00
 -1      6524 0.00000E+00 0.00000E+00 0.00000E+00 0.00000E+00 0.00000E+00 0.00000E+00
 -1      6525 0.00000E+00 0.00000E+00 0.00000E+00 0.00000E+00 0.00000E+00 0.00000E+00
 -1      6526 0.00000E+00 0.00000E+00 0.00000E+00 0.00000E+00 0.00000E+00 0.00000E+00
 -1      6527 0.00000E+00 0.00000E+00 0.00000E+00 0.00000E+00 0.00000E+00 0.00000E+00
 -1      6528 0.00000E+00 0.00000E+00 0.00000E+00 0.00000E+00 0.00000E+00 0.00000E+00
 -1      6529 0.00000E+00 0.00000E+00 0.00000E+00 0.00000E+00 0.00000E+00 0.00000E+00
 -1      6530 0.00000E+00 0.00000E+00 0.00000E+00 0.00000E+00 0.00000E+00 0.00000E+00
 -1      6531 0.00000E+00 0.00000E+00 0.00000E+00 0.00000E+00 0.00000E+00 0.00000E+00
 -1      6532 0.00000E+00 0.00000E+00 0.00000E+00 0.00000E+00 0.00000E+00 0.00000E+00
 -1      6533 0.00000E+00 0.00000E+00 0.00000E+00 0.00000E+00 0.00000E+00 0.00000E+00
 -1      6534 0.00000E+00 0.00000E+00 0.00000E+00 0.00000E+00 0.00000E+00 0.00000E+00
 -1      6535 0.00000E+00 0.00000E+00 0.00000E+00 0.00000E+00 0.00000E+00 0.00000E+00
 -1      6536 0.00000E+00 0.00000E+00 0.00000E+00 0.00000E+00 0.00000E+00 0.00000E+00
 -1      6537 0.00000E+00 0.00000E+00 0.00000E+00 0.00000E+00 0.00000E+00 0.00000E+00
 -1      6538 0.00000E+00 0.00000E+00 0.00000E+00 0.00000E+00 0.00000E+00 0.00000E+00
 -1      6539 0.00000E+00 0.00000E+00 0.00000E+00 0.00000E+00 0.00000E+00 0.00000E+00
 -1      6540 0.00000E+00 0.00000E+00 0.00000E+00 0.00000E+00 0.00000E+00 0.00000E+00
 -1      6541 0.00000E+00 0.00000E+00 0.00000E+00 0.00000E+00 0.00000E+00 0.00000E+00
 -1      6542 0.00000E+00 0.00000E+00 0.00000E+00 0.00000E+00 0.00000E+00 0.00000E+00
 -1      6543 0.00000E+00 0.00000E+00 0.00000E+00 0.00000E+00 0.00000E+00 0.00000E+00
 -1      6544 0.00000E+00 0.00000E+00 0.00000E+00 0.00000E+00 0.00000E+00 0.00000E+00
 -1      6545 0.00000E+00 0.00000E+00 0.00000E+00 0.00000E+00 0.00000E+00 0.00000E+00
 -1      6546 0.00000E+00 0.00000E+00 0.00000E+00 0.00000E+00 0.00000E+00 0.00000E+00
 -1      6547 0.00000E+00 0.00000E+00 0.00000E+00 0.00000E+00 0.00000E+00 0.00000E+00
 -1      6548 0.00000E+00 0.00000E+00 0.00000E+00 0.00000E+00 0.00000E+00 0.00000E+00
 -1      6549 0.00000E+00 0.00000E+00 0.00000E+00 0.00000E+00 0.00000E+00 0.00000E+00
 -1      6550 0.00000E+00 0.00000E+00 0.00000E+00 0.00000E+00 0.00000E+00 0.00000E+00
 -1      6551 0.00000E+00 0.00000E+00 0.00000E+00 0.00000E+00 0.00000E+00 0.00000E+00
 -1      6552 0.00000E+00 0.00000E+00 0.00000E+00 0.00000E+00 0.00000E+00 0.00000E+00
 -1      6553 0.00000E+00 0.00000E+00 0.00000E+00 0.00000E+00 0.00000E+00 0.00000E+00
 -1      6554 0.00000E+00 0.00000E+00 0.00000E+00 0.00000E+00 0.00000E+00 0.00000E+00
 -1      6555 0.00000E+00 0.00000E+00 0.00000E+00 0.00000E+00 0.00000E+00 0.00000E+00
 -1      6556 0.00000E+00 0.00000E+00 0.00000E+00 0.00000E+00 0.00000E+00 0.00000E+00
 -1      6557 0.00000E+00 0.00000E+00 0.00000E+00 0.00000E+00 0.00000E+00 0.00000E+00
 -1      6558 0.00000E+00 0.00000E+00 0.00000E+00 0.00000E+00 0.00000E+00 0.00000E+00
 -1      6559 0.00000E+00 0.00000E+00 0.00000E+00 0.00000E+00 0.00000E+00 0.00000E+00
 -1      6560 0.00000E+00 0.00000E+00 0.00000E+00 0.00000E+00 0.00000E+00 0.00000E+00
 -1      6561 0.00000E+00 0.00000E+00 0.00000E+00 0.00000E+00 0.00000E+00 0.00000E+00
 -1      6562 0.00000E+00 0.00000E+00 0.00000E+00 0.00000E+00 0.00000E+00 0.00000E+00
 -1      6563 0.00000E+00 0.00000E+00 0.00000E+00 0.00000E+00 0.00000E+00 0.00000E+00
 -1      6564 0.00000E+00 0.00000E+00 0.00000E+00 0.00000E+00 0.00000E+00 0.00000E+00
 -1      6565 0.00000E+00 0.00000E+00 0.00000E+00 0.00000E+00 0.00000E+00 0.00000E+00
 -1      6566 0.00000E+00 0.00000E+00 0.00000E+00 0.00000E+00 0.00000E+00 0.00000E+00
 -1      6567 0.00000E+00 0.00000E+00 0.00000E+00 0.00000E+00 0.00000E+00 0.00000E+00
 -1      6568 0.00000E+00 0.00000E+00 0.00000E+00 0.00000E+00 0.00000E+00 0.00000E+00
 -1      6569 0.00000E+00 0.00000E+00 0.00000E+00 0.00000E+00 0.00000E+00 0.00000E+00
 -1      6570 0.00000E+00 0.00000E+00 0.00000E+00 0.00000E+00 0.00000E+00 0.00000E+00
 -1      6571 0.00000E+00 0.00000E+00 0.00000E+00 0.00000E+00 0.00000E+00 0.00000E+00
 -1      6572 0.00000E+00 0.00000E+00 0.00000E+00 0.00000E+00 0.00000E+00 0.00000E+00
 -1      6573 0.00000E+00 0.00000E+00 0.00000E+00 0.00000E+00 0.00000E+00 0.00000E+00
 -1      6574 0.00000E+00 0.00000E+00 0.00000E+00 0.00000E+00 0.00000E+00 0.00000E+00
 -1      6575 0.00000E+00 0.00000E+00 0.00000E+00 0.00000E+00 0.00000E+00 0.00000E+00
 -1      6576 0.00000E+00 0.00000E+00 0.00000E+00 0.00000E+00 0.00000E+00 0.00000E+00
 -1      6577 0.00000E+00 0.00000E+00 0.00000E+00 0.00000E+00 0.00000E+00 0.00000E+00
 -1      6578 0.00000E+00 0.00000E+00 0.00000E+00 0.00000E+00 0.00000E+00 0.00000E+00
 -1      6579 0.00000E+00 0.00000E+00 0.00000E+00 0.00000E+00 0.00000E+00 0.00000E+00
 -1      6580 0.00000E+00 0.00000E+00 0.00000E+00 0.00000E+00 0.00000E+00 0.00000E+00
 -1      6581 0.00000E+00 0.00000E+00 0.00000E+00 0.00000E+00 0.00000E+00 0.00000E+00
 -1      6582 0.00000E+00 0.00000E+00 0.00000E+00 0.00000E+00 0.00000E+00 0.00000E+00
 -1      6583 0.00000E+00 0.00000E+00 0.00000E+00 0.00000E+00 0.00000E+00 0.00000E+00
 -1      6584 0.00000E+00 0.00000E+00 0.00000E+00 0.00000E+00 0.00000E+00 0.00000E+00
 -1      6585 0.00000E+00 0.00000E+00 0.00000E+00 0.00000E+00 0.00000E+00 0.00000E+00
 -1      6586 0.00000E+00 0.00000E+00 0.00000E+00 0.00000E+00 0.00000E+00 0.00000E+00
 -1      6587 0.00000E+00 0.00000E+00 0.00000E+00 0.00000E+00 0.00000E+00 0.00000E+00
 -1      6588 0.00000E+00 0.00000E+00 0.00000E+00 0.00000E+00 0.00000E+00 0.00000E+00
 -1      6589 0.00000E+00 0.00000E+00 0.00000E+00 0.00000E+00 0.00000E+00 0.00000E+00
 -1      6590 0.00000E+00 0.00000E+00 0.00000E+00 0.00000E+00 0.00000E+00 0.00000E+00
 -1      6591 0.00000E+00 0.00000E+00 0.00000E+00 0.00000E+00 0.00000E+00 0.00000E+00
 -1      6592 0.00000E+00 0.00000E+00 0.00000E+00 0.00000E+00 0.00000E+00 0.00000E+00
 -1      6593 0.00000E+00 0.00000E+00 0.00000E+00 0.00000E+00 0.00000E+00 0.00000E+00
 -1      6594 0.00000E+00 0.00000E+00 0.00000E+00 0.00000E+00 0.00000E+00 0.00000E+00
 -1      6595 0.00000E+00 0.00000E+00 0.00000E+00 0.00000E+00 0.00000E+00 0.00000E+00
 -1      6596 0.00000E+00 0.00000E+00 0.00000E+00 0.00000E+00 0.00000E+00 0.00000E+00
 -1      6597 0.00000E+00 0.00000E+00 0.00000E+00 0.00000E+00 0.00000E+00 0.00000E+00
 -1      6598 0.00000E+00 0.00000E+00 0.00000E+00 0.00000E+00 0.00000E+00 0.00000E+00
 -1      6599 0.00000E+00 0.00000E+00 0.00000E+00 0.00000E+00 0.00000E+00 0.00000E+00
 -1      6600 0.00000E+00 0.00000E+00 0.00000E+00 0.00000E+00 0.00000E+00 0.00000E+00
 -1      6601 0.00000E+00 0.00000E+00 0.00000E+00 0.00000E+00 0.00000E+00 0.00000E+00
 -1      6602 0.00000E+00 0.00000E+00 0.00000E+00 0.00000E+00 0.00000E+00 0.00000E+00
 -1      6603 0.00000E+00 0.00000E+00 0.00000E+00 0.00000E+00 0.00000E+00 0.00000E+00
 -1      6604 0.00000E+00 0.00000E+00 0.00000E+00 0.00000E+00 0.00000E+00 0.00000E+00
 -1      6605 0.00000E+00 0.00000E+00 0.00000E+00 0.00000E+00 0.00000E+00 0.00000E+00
 -1      6606 0.00000E+00 0.00000E+00 0.00000E+00 0.00000E+00 0.00000E+00 0.00000E+00
 -1      6607 0.00000E+00 0.00000E+00 0.00000E+00 0.00000E+00 0.00000E+00 0.00000E+00
 -1      6608 0.00000E+00 0.00000E+00 0.00000E+00 0.00000E+00 0.00000E+00 0.00000E+00
 -1      6609 0.00000E+00 0.00000E+00 0.00000E+00 0.00000E+00 0.00000E+00 0.00000E+00
 -1      6610 0.00000E+00 0.00000E+00 0.00000E+00 0.00000E+00 0.00000E+00 0.00000E+00
 -1      6611 0.00000E+00 0.00000E+00 0.00000E+00 0.00000E+00 0.00000E+00 0.00000E+00
 -1      6612 0.00000E+00 0.00000E+00 0.00000E+00 0.00000E+00 0.00000E+00 0.00000E+00
 -1      6613 0.00000E+00 0.00000E+00 0.00000E+00 0.00000E+00 0.00000E+00 0.00000E+00
 -1      6614 0.00000E+00 0.00000E+00 0.00000E+00 0.00000E+00 0.00000E+00 0.00000E+00
 -1      6615 0.00000E+00 0.00000E+00 0.00000E+00 0.00000E+00 0.00000E+00 0.00000E+00
 -1      6616 0.00000E+00 0.00000E+00 0.00000E+00 0.00000E+00 0.00000E+00 0.00000E+00
 -1      6617 0.00000E+00 0.00000E+00 0.00000E+00 0.00000E+00 0.00000E+00 0.00000E+00
 -1      6618 0.00000E+00 0.00000E+00 0.00000E+00 0.00000E+00 0.00000E+00 0.00000E+00
 -1      6619 0.00000E+00 0.00000E+00 0.00000E+00 0.00000E+00 0.00000E+00 0.00000E+00
 -1      6620 0.00000E+00 0.00000E+00 0.00000E+00 0.00000E+00 0.00000E+00 0.00000E+00
 -1      6621 0.00000E+00 0.00000E+00 0.00000E+00 0.00000E+00 0.00000E+00 0.00000E+00
 -1      6622 0.00000E+00 0.00000E+00 0.00000E+00 0.00000E+00 0.00000E+00 0.00000E+00
 -1      6623 0.00000E+00 0.00000E+00 0.00000E+00 0.00000E+00 0.00000E+00 0.00000E+00
 -1      6624 0.00000E+00 0.00000E+00 0.00000E+00 0.00000E+00 0.00000E+00 0.00000E+00
 -1      6625 0.00000E+00 0.00000E+00 0.00000E+00 0.00000E+00 0.00000E+00 0.00000E+00
 -1      6626 0.00000E+00 0.00000E+00 0.00000E+00 0.00000E+00 0.00000E+00 0.00000E+00
 -1      6627 0.00000E+00 0.00000E+00 0.00000E+00 0.00000E+00 0.00000E+00 0.00000E+00
 -1      6628 0.00000E+00 0.00000E+00 0.00000E+00 0.00000E+00 0.00000E+00 0.00000E+00
 -1      6629 0.00000E+00 0.00000E+00 0.00000E+00 0.00000E+00 0.00000E+00 0.00000E+00
 -1      6630 0.00000E+00 0.00000E+00 0.00000E+00 0.00000E+00 0.00000E+00 0.00000E+00
 -1      6631 0.00000E+00 0.00000E+00 0.00000E+00 0.00000E+00 0.00000E+00 0.00000E+00
 -1      6632 0.00000E+00 0.00000E+00 0.00000E+00 0.00000E+00 0.00000E+00 0.00000E+00
 -1      6633 0.00000E+00 0.00000E+00 0.00000E+00 0.00000E+00 0.00000E+00 0.00000E+00
 -1      6634 0.00000E+00 0.00000E+00 0.00000E+00 0.00000E+00 0.00000E+00 0.00000E+00
 -1      6635 0.00000E+00 0.00000E+00 0.00000E+00 0.00000E+00 0.00000E+00 0.00000E+00
 -1      6636 0.00000E+00 0.00000E+00 0.00000E+00 0.00000E+00 0.00000E+00 0.00000E+00
 -1      6637 0.00000E+00 0.00000E+00 0.00000E+00 0.00000E+00 0.00000E+00 0.00000E+00
 -1      6638 0.00000E+00 0.00000E+00 0.00000E+00 0.00000E+00 0.00000E+00 0.00000E+00
 -1      6639 0.00000E+00 0.00000E+00 0.00000E+00 0.00000E+00 0.00000E+00 0.00000E+00
 -1      6640 0.00000E+00 0.00000E+00 0.00000E+00 0.00000E+00 0.00000E+00 0.00000E+00
 -1      6641 0.00000E+00 0.00000E+00 0.00000E+00 0.00000E+00 0.00000E+00 0.00000E+00
 -1      6642 0.00000E+00 0.00000E+00 0.00000E+00 0.00000E+00 0.00000E+00 0.00000E+00
 -1      6643 0.00000E+00 0.00000E+00 0.00000E+00 0.00000E+00 0.00000E+00 0.00000E+00
 -1      6644 0.00000E+00 0.00000E+00 0.00000E+00 0.00000E+00 0.00000E+00 0.00000E+00
 -1      6645 0.00000E+00 0.00000E+00 0.00000E+00 0.00000E+00 0.00000E+00 0.00000E+00
 -1      6646 0.00000E+00 0.00000E+00 0.00000E+00 0.00000E+00 0.00000E+00 0.00000E+00
 -1      6647 0.00000E+00 0.00000E+00 0.00000E+00 0.00000E+00 0.00000E+00 0.00000E+00
 -1      6648 0.00000E+00 0.00000E+00 0.00000E+00 0.00000E+00 0.00000E+00 0.00000E+00
 -1      6649 0.00000E+00 0.00000E+00 0.00000E+00 0.00000E+00 0.00000E+00 0.00000E+00
 -1      6650 0.00000E+00 0.00000E+00 0.00000E+00 0.00000E+00 0.00000E+00 0.00000E+00
 -1      6651 0.00000E+00 0.00000E+00 0.00000E+00 0.00000E+00 0.00000E+00 0.00000E+00
 -1      6652 0.00000E+00 0.00000E+00 0.00000E+00 0.00000E+00 0.00000E+00 0.00000E+00
 -1      6653 0.00000E+00 0.00000E+00 0.00000E+00 0.00000E+00 0.00000E+00 0.00000E+00
 -1      6654 0.00000E+00 0.00000E+00 0.00000E+00 0.00000E+00 0.00000E+00 0.00000E+00
 -1      6655 0.00000E+00 0.00000E+00 0.00000E+00 0.00000E+00 0.00000E+00 0.00000E+00
 -1      6656 0.00000E+00 0.00000E+00 0.00000E+00 0.00000E+00 0.00000E+00 0.00000E+00
 -1      6657 0.00000E+00 0.00000E+00 0.00000E+00 0.00000E+00 0.00000E+00 0.00000E+00
 -1      6658 0.00000E+00 0.00000E+00 0.00000E+00 0.00000E+00 0.00000E+00 0.00000E+00
 -1      6659 0.00000E+00 0.00000E+00 0.00000E+00 0.00000E+00 0.00000E+00 0.00000E+00
 -1      6660 0.00000E+00 0.00000E+00 0.00000E+00 0.00000E+00 0.00000E+00 0.00000E+00
 -1      6661 0.00000E+00 0.00000E+00 0.00000E+00 0.00000E+00 0.00000E+00 0.00000E+00
 -1      6662 0.00000E+00 0.00000E+00 0.00000E+00 0.00000E+00 0.00000E+00 0.00000E+00
 -1      6663 0.00000E+00 0.00000E+00 0.00000E+00 0.00000E+00 0.00000E+00 0.00000E+00
 -1      6664 0.00000E+00 0.00000E+00 0.00000E+00 0.00000E+00 0.00000E+00 0.00000E+00
 -1      6665 0.00000E+00 0.00000E+00 0.00000E+00 0.00000E+00 0.00000E+00 0.00000E+00
 -1      6666 0.00000E+00 0.00000E+00 0.00000E+00 0.00000E+00 0.00000E+00 0.00000E+00
 -1      6667 0.00000E+00 0.00000E+00 0.00000E+00 0.00000E+00 0.00000E+00 0.00000E+00
 -1      6668 0.00000E+00 0.00000E+00 0.00000E+00 0.00000E+00 0.00000E+00 0.00000E+00
 -1      6669 0.00000E+00 0.00000E+00 0.00000E+00 0.00000E+00 0.00000E+00 0.00000E+00
 -1      6670 0.00000E+00 0.00000E+00 0.00000E+00 0.00000E+00 0.00000E+00 0.00000E+00
 -1      6671 0.00000E+00 0.00000E+00 0.00000E+00 0.00000E+00 0.00000E+00 0.00000E+00
 -1      6672 0.00000E+00 0.00000E+00 0.00000E+00 0.00000E+00 0.00000E+00 0.00000E+00
 -1      6673 0.00000E+00 0.00000E+00 0.00000E+00 0.00000E+00 0.00000E+00 0.00000E+00
 -1      6674 0.00000E+00 0.00000E+00 0.00000E+00 0.00000E+00 0.00000E+00 0.00000E+00
 -1      6675 0.00000E+00 0.00000E+00 0.00000E+00 0.00000E+00 0.00000E+00 0.00000E+00
 -1      6676 0.00000E+00 0.00000E+00 0.00000E+00 0.00000E+00 0.00000E+00 0.00000E+00
 -1      6677 0.00000E+00 0.00000E+00 0.00000E+00 0.00000E+00 0.00000E+00 0.00000E+00
 -1      6678 0.00000E+00 0.00000E+00 0.00000E+00 0.00000E+00 0.00000E+00 0.00000E+00
 -1      6679 0.00000E+00 0.00000E+00 0.00000E+00 0.00000E+00 0.00000E+00 0.00000E+00
 -1      6680 0.00000E+00 0.00000E+00 0.00000E+00 0.00000E+00 0.00000E+00 0.00000E+00
 -1      6681 0.00000E+00 0.00000E+00 0.00000E+00 0.00000E+00 0.00000E+00 0.00000E+00
 -1      6682 0.00000E+00 0.00000E+00 0.00000E+00 0.00000E+00 0.00000E+00 0.00000E+00
 -1      6683 0.00000E+00 0.00000E+00 0.00000E+00 0.00000E+00 0.00000E+00 0.00000E+00
 -1      6684 0.00000E+00 0.00000E+00 0.00000E+00 0.00000E+00 0.00000E+00 0.00000E+00
 -1      6685 0.00000E+00 0.00000E+00 0.00000E+00 0.00000E+00 0.00000E+00 0.00000E+00
 -1      6686 0.00000E+00 0.00000E+00 0.00000E+00 0.00000E+00 0.00000E+00 0.00000E+00
 -1      6687 0.00000E+00 0.00000E+00 0.00000E+00 0.00000E+00 0.00000E+00 0.00000E+00
 -1      6688 0.00000E+00 0.00000E+00 0.00000E+00 0.00000E+00 0.00000E+00 0.00000E+00
 -1      6689 0.00000E+00 0.00000E+00 0.00000E+00 0.00000E+00 0.00000E+00 0.00000E+00
 -1      6690 0.00000E+00 0.00000E+00 0.00000E+00 0.00000E+00 0.00000E+00 0.00000E+00
 -1      6691 0.00000E+00 0.00000E+00 0.00000E+00 0.00000E+00 0.00000E+00 0.00000E+00
 -1      6692 0.00000E+00 0.00000E+00 0.00000E+00 0.00000E+00 0.00000E+00 0.00000E+00
 -1      6693 0.00000E+00 0.00000E+00 0.00000E+00 0.00000E+00 0.00000E+00 0.00000E+00
 -1      6694 0.00000E+00 0.00000E+00 0.00000E+00 0.00000E+00 0.00000E+00 0.00000E+00
 -1      6695 0.00000E+00 0.00000E+00 0.00000E+00 0.00000E+00 0.00000E+00 0.00000E+00
 -1      6696 0.00000E+00 0.00000E+00 0.00000E+00 0.00000E+00 0.00000E+00 0.00000E+00
 -1      6697 0.00000E+00 0.00000E+00 0.00000E+00 0.00000E+00 0.00000E+00 0.00000E+00
 -1      6698 0.00000E+00 0.00000E+00 0.00000E+00 0.00000E+00 0.00000E+00 0.00000E+00
 -1      6699 0.00000E+00 0.00000E+00 0.00000E+00 0.00000E+00 0.00000E+00 0.00000E+00
 -1      6700 0.00000E+00 0.00000E+00 0.00000E+00 0.00000E+00 0.00000E+00 0.00000E+00
 -1      6701 0.00000E+00 0.00000E+00 0.00000E+00 0.00000E+00 0.00000E+00 0.00000E+00
 -1      6702 0.00000E+00 0.00000E+00 0.00000E+00 0.00000E+00 0.00000E+00 0.00000E+00
 -1      6703 0.00000E+00 0.00000E+00 0.00000E+00 0.00000E+00 0.00000E+00 0.00000E+00
 -1      6704 0.00000E+00 0.00000E+00 0.00000E+00 0.00000E+00 0.00000E+00 0.00000E+00
 -1      6705 0.00000E+00 0.00000E+00 0.00000E+00 0.00000E+00 0.00000E+00 0.00000E+00
 -1      6706 0.00000E+00 0.00000E+00 0.00000E+00 0.00000E+00 0.00000E+00 0.00000E+00
 -1      6707 0.00000E+00 0.00000E+00 0.00000E+00 0.00000E+00 0.00000E+00 0.00000E+00
 -1      6708 0.00000E+00 0.00000E+00 0.00000E+00 0.00000E+00 0.00000E+00 0.00000E+00
 -1      6709 0.00000E+00 0.00000E+00 0.00000E+00 0.00000E+00 0.00000E+00 0.00000E+00
 -1      6710 0.00000E+00 0.00000E+00 0.00000E+00 0.00000E+00 0.00000E+00 0.00000E+00
 -1      6711 0.00000E+00 0.00000E+00 0.00000E+00 0.00000E+00 0.00000E+00 0.00000E+00
 -1      6712 0.00000E+00 0.00000E+00 0.00000E+00 0.00000E+00 0.00000E+00 0.00000E+00
 -1      6713 0.00000E+00 0.00000E+00 0.00000E+00 0.00000E+00 0.00000E+00 0.00000E+00
 -1      6714 0.00000E+00 0.00000E+00 0.00000E+00 0.00000E+00 0.00000E+00 0.00000E+00
 -1      6715 0.00000E+00 0.00000E+00 0.00000E+00 0.00000E+00 0.00000E+00 0.00000E+00
 -1      6716 0.00000E+00 0.00000E+00 0.00000E+00 0.00000E+00 0.00000E+00 0.00000E+00
 -1      6717 0.00000E+00 0.00000E+00 0.00000E+00 0.00000E+00 0.00000E+00 0.00000E+00
 -1      6718 0.00000E+00 0.00000E+00 0.00000E+00 0.00000E+00 0.00000E+00 0.00000E+00
 -1      6719 0.00000E+00 0.00000E+00 0.00000E+00 0.00000E+00 0.00000E+00 0.00000E+00
 -1      6720 0.00000E+00 0.00000E+00 0.00000E+00 0.00000E+00 0.00000E+00 0.00000E+00
 -1      6721 0.00000E+00 0.00000E+00 0.00000E+00 0.00000E+00 0.00000E+00 0.00000E+00
 -1      6722 0.00000E+00 0.00000E+00 0.00000E+00 0.00000E+00 0.00000E+00 0.00000E+00
 -1      6723 0.00000E+00 0.00000E+00 0.00000E+00 0.00000E+00 0.00000E+00 0.00000E+00
 -1      6724 0.00000E+00 0.00000E+00 0.00000E+00 0.00000E+00 0.00000E+00 0.00000E+00
 -1      6725 0.00000E+00 0.00000E+00 0.00000E+00 0.00000E+00 0.00000E+00 0.00000E+00
 -1      6726 0.00000E+00 0.00000E+00 0.00000E+00 0.00000E+00 0.00000E+00 0.00000E+00
 -1      6727 0.00000E+00 0.00000E+00 0.00000E+00 0.00000E+00 0.00000E+00 0.00000E+00
 -1      6728 0.00000E+00 0.00000E+00 0.00000E+00 0.00000E+00 0.00000E+00 0.00000E+00
 -1      6729 0.00000E+00 0.00000E+00 0.00000E+00 0.00000E+00 0.00000E+00 0.00000E+00
 -1      6730 0.00000E+00 0.00000E+00 0.00000E+00 0.00000E+00 0.00000E+00 0.00000E+00
 -1      6731 0.00000E+00 0.00000E+00 0.00000E+00 0.00000E+00 0.00000E+00 0.00000E+00
 -1      6732 0.00000E+00 0.00000E+00 0.00000E+00 0.00000E+00 0.00000E+00 0.00000E+00
 -1      6733 0.00000E+00 0.00000E+00 0.00000E+00 0.00000E+00 0.00000E+00 0.00000E+00
 -1      6734 0.00000E+00 0.00000E+00 0.00000E+00 0.00000E+00 0.00000E+00 0.00000E+00
 -1      6735 0.00000E+00 0.00000E+00 0.00000E+00 0.00000E+00 0.00000E+00 0.00000E+00
 -1      6736 0.00000E+00 0.00000E+00 0.00000E+00 0.00000E+00 0.00000E+00 0.00000E+00
 -1      6737 0.00000E+00 0.00000E+00 0.00000E+00 0.00000E+00 0.00000E+00 0.00000E+00
 -1      6738 0.00000E+00 0.00000E+00 0.00000E+00 0.00000E+00 0.00000E+00 0.00000E+00
 -1      6739 0.00000E+00 0.00000E+00 0.00000E+00 0.00000E+00 0.00000E+00 0.00000E+00
 -1      6740 0.00000E+00 0.00000E+00 0.00000E+00 0.00000E+00 0.00000E+00 0.00000E+00
 -1      6741 0.00000E+00 0.00000E+00 0.00000E+00 0.00000E+00 0.00000E+00 0.00000E+00
 -1      6742 0.00000E+00 0.00000E+00 0.00000E+00 0.00000E+00 0.00000E+00 0.00000E+00
 -1      6743 0.00000E+00 0.00000E+00 0.00000E+00 0.00000E+00 0.00000E+00 0.00000E+00
 -1      6744 0.00000E+00 0.00000E+00 0.00000E+00 0.00000E+00 0.00000E+00 0.00000E+00
 -1      6745 0.00000E+00 0.00000E+00 0.00000E+00 0.00000E+00 0.00000E+00 0.00000E+00
 -1      6746 0.00000E+00 0.00000E+00 0.00000E+00 0.00000E+00 0.00000E+00 0.00000E+00
 -1      6747 0.00000E+00 0.00000E+00 0.00000E+00 0.00000E+00 0.00000E+00 0.00000E+00
 -1      6748 0.00000E+00 0.00000E+00 0.00000E+00 0.00000E+00 0.00000E+00 0.00000E+00
 -1      6749 0.00000E+00 0.00000E+00 0.00000E+00 0.00000E+00 0.00000E+00 0.00000E+00
 -1      6750 0.00000E+00 0.00000E+00 0.00000E+00 0.00000E+00 0.00000E+00 0.00000E+00
 -1      6751 0.00000E+00 0.00000E+00 0.00000E+00 0.00000E+00 0.00000E+00 0.00000E+00
 -1      6752 0.00000E+00 0.00000E+00 0.00000E+00 0.00000E+00 0.00000E+00 0.00000E+00
 -1      6753 0.00000E+00 0.00000E+00 0.00000E+00 0.00000E+00 0.00000E+00 0.00000E+00
 -1      6754 0.00000E+00 0.00000E+00 0.00000E+00 0.00000E+00 0.00000E+00 0.00000E+00
 -1      6755 0.00000E+00 0.00000E+00 0.00000E+00 0.00000E+00 0.00000E+00 0.00000E+00
 -1      6756 0.00000E+00 0.00000E+00 0.00000E+00 0.00000E+00 0.00000E+00 0.00000E+00
 -1      6757 0.00000E+00 0.00000E+00 0.00000E+00 0.00000E+00 0.00000E+00 0.00000E+00
 -1      6758 0.00000E+00 0.00000E+00 0.00000E+00 0.00000E+00 0.00000E+00 0.00000E+00
 -1      6759 0.00000E+00 0.00000E+00 0.00000E+00 0.00000E+00 0.00000E+00 0.00000E+00
 -1      6760 0.00000E+00 0.00000E+00 0.00000E+00 0.00000E+00 0.00000E+00 0.00000E+00
 -1      6761 0.00000E+00 0.00000E+00 0.00000E+00 0.00000E+00 0.00000E+00 0.00000E+00
 -1      6762 0.00000E+00 0.00000E+00 0.00000E+00 0.00000E+00 0.00000E+00 0.00000E+00
 -1      6763 0.00000E+00 0.00000E+00 0.00000E+00 0.00000E+00 0.00000E+00 0.00000E+00
 -1      6764 0.00000E+00 0.00000E+00 0.00000E+00 0.00000E+00 0.00000E+00 0.00000E+00
 -1      6765 0.00000E+00 0.00000E+00 0.00000E+00 0.00000E+00 0.00000E+00 0.00000E+00
 -1      6766 0.00000E+00 0.00000E+00 0.00000E+00 0.00000E+00 0.00000E+00 0.00000E+00
 -1      6767 0.00000E+00 0.00000E+00 0.00000E+00 0.00000E+00 0.00000E+00 0.00000E+00
 -1      6768 0.00000E+00 0.00000E+00 0.00000E+00 0.00000E+00 0.00000E+00 0.00000E+00
 -1      6769 0.00000E+00 0.00000E+00 0.00000E+00 0.00000E+00 0.00000E+00 0.00000E+00
 -1      6770 0.00000E+00 0.00000E+00 0.00000E+00 0.00000E+00 0.00000E+00 0.00000E+00
 -1      6771 0.00000E+00 0.00000E+00 0.00000E+00 0.00000E+00 0.00000E+00 0.00000E+00
 -1      6772 0.00000E+00 0.00000E+00 0.00000E+00 0.00000E+00 0.00000E+00 0.00000E+00
 -1      6773 0.00000E+00 0.00000E+00 0.00000E+00 0.00000E+00 0.00000E+00 0.00000E+00
 -1      6774 0.00000E+00 0.00000E+00 0.00000E+00 0.00000E+00 0.00000E+00 0.00000E+00
 -1      6775 0.00000E+00 0.00000E+00 0.00000E+00 0.00000E+00 0.00000E+00 0.00000E+00
 -1      6776 0.00000E+00 0.00000E+00 0.00000E+00 0.00000E+00 0.00000E+00 0.00000E+00
 -1      6777 0.00000E+00 0.00000E+00 0.00000E+00 0.00000E+00 0.00000E+00 0.00000E+00
 -1      6778 0.00000E+00 0.00000E+00 0.00000E+00 0.00000E+00 0.00000E+00 0.00000E+00
 -1      6779 0.00000E+00 0.00000E+00 0.00000E+00 0.00000E+00 0.00000E+00 0.00000E+00
 -1      6780 0.00000E+00 0.00000E+00 0.00000E+00 0.00000E+00 0.00000E+00 0.00000E+00
 -1      6781 0.00000E+00 0.00000E+00 0.00000E+00 0.00000E+00 0.00000E+00 0.00000E+00
 -1      6782 0.00000E+00 0.00000E+00 0.00000E+00 0.00000E+00 0.00000E+00 0.00000E+00
 -1      6783 0.00000E+00 0.00000E+00 0.00000E+00 0.00000E+00 0.00000E+00 0.00000E+00
 -1      6784 0.00000E+00 0.00000E+00 0.00000E+00 0.00000E+00 0.00000E+00 0.00000E+00
 -1      6785 0.00000E+00 0.00000E+00 0.00000E+00 0.00000E+00 0.00000E+00 0.00000E+00
 -1      6786 0.00000E+00 0.00000E+00 0.00000E+00 0.00000E+00 0.00000E+00 0.00000E+00
 -1      6787 0.00000E+00 0.00000E+00 0.00000E+00 0.00000E+00 0.00000E+00 0.00000E+00
 -1      6788 0.00000E+00 0.00000E+00 0.00000E+00 0.00000E+00 0.00000E+00 0.00000E+00
 -1      6789 0.00000E+00 0.00000E+00 0.00000E+00 0.00000E+00 0.00000E+00 0.00000E+00
 -1      6790 0.00000E+00 0.00000E+00 0.00000E+00 0.00000E+00 0.00000E+00 0.00000E+00
 -1      6791 0.00000E+00 0.00000E+00 0.00000E+00 0.00000E+00 0.00000E+00 0.00000E+00
 -1      6792 0.00000E+00 0.00000E+00 0.00000E+00 0.00000E+00 0.00000E+00 0.00000E+00
 -1      6793 0.00000E+00 0.00000E+00 0.00000E+00 0.00000E+00 0.00000E+00 0.00000E+00
 -1      6794 0.00000E+00 0.00000E+00 0.00000E+00 0.00000E+00 0.00000E+00 0.00000E+00
 -1      6795 0.00000E+00 0.00000E+00 0.00000E+00 0.00000E+00 0.00000E+00 0.00000E+00
 -1      6796 0.00000E+00 0.00000E+00 0.00000E+00 0.00000E+00 0.00000E+00 0.00000E+00
 -1      6797 0.00000E+00 0.00000E+00 0.00000E+00 0.00000E+00 0.00000E+00 0.00000E+00
 -1      6798 0.00000E+00 0.00000E+00 0.00000E+00 0.00000E+00 0.00000E+00 0.00000E+00
 -1      6799 0.00000E+00 0.00000E+00 0.00000E+00 0.00000E+00 0.00000E+00 0.00000E+00
 -1      6800 0.00000E+00 0.00000E+00 0.00000E+00 0.00000E+00 0.00000E+00 0.00000E+00
 -1      6801 0.00000E+00 0.00000E+00 0.00000E+00 0.00000E+00 0.00000E+00 0.00000E+00
 -1      6802 0.00000E+00 0.00000E+00 0.00000E+00 0.00000E+00 0.00000E+00 0.00000E+00
 -1      6803 0.00000E+00 0.00000E+00 0.00000E+00 0.00000E+00 0.00000E+00 0.00000E+00
 -1      6804 0.00000E+00 0.00000E+00 0.00000E+00 0.00000E+00 0.00000E+00 0.00000E+00
 -1      6805 0.00000E+00 0.00000E+00 0.00000E+00 0.00000E+00 0.00000E+00 0.00000E+00
 -1      6806 0.00000E+00 0.00000E+00 0.00000E+00 0.00000E+00 0.00000E+00 0.00000E+00
 -1      6807 0.00000E+00 0.00000E+00 0.00000E+00 0.00000E+00 0.00000E+00 0.00000E+00
 -1      6808 0.00000E+00 0.00000E+00 0.00000E+00 0.00000E+00 0.00000E+00 0.00000E+00
 -1      6809 0.00000E+00 0.00000E+00 0.00000E+00 0.00000E+00 0.00000E+00 0.00000E+00
 -1      6810 0.00000E+00 0.00000E+00 0.00000E+00 0.00000E+00 0.00000E+00 0.00000E+00
 -1      6811 0.00000E+00 0.00000E+00 0.00000E+00 0.00000E+00 0.00000E+00 0.00000E+00
 -1      6812 0.00000E+00 0.00000E+00 0.00000E+00 0.00000E+00 0.00000E+00 0.00000E+00
 -1      6813 0.00000E+00 0.00000E+00 0.00000E+00 0.00000E+00 0.00000E+00 0.00000E+00
 -1      6814 0.00000E+00 0.00000E+00 0.00000E+00 0.00000E+00 0.00000E+00 0.00000E+00
 -1      6815 0.00000E+00 0.00000E+00 0.00000E+00 0.00000E+00 0.00000E+00 0.00000E+00
 -1      6816 0.00000E+00 0.00000E+00 0.00000E+00 0.00000E+00 0.00000E+00 0.00000E+00
 -1      6817 0.00000E+00 0.00000E+00 0.00000E+00 0.00000E+00 0.00000E+00 0.00000E+00
 -1      6818 0.00000E+00 0.00000E+00 0.00000E+00 0.00000E+00 0.00000E+00 0.00000E+00
 -1      6819 0.00000E+00 0.00000E+00 0.00000E+00 0.00000E+00 0.00000E+00 0.00000E+00
 -1      6820 0.00000E+00 0.00000E+00 0.00000E+00 0.00000E+00 0.00000E+00 0.00000E+00
 -1      6821 0.00000E+00 0.00000E+00 0.00000E+00 0.00000E+00 0.00000E+00 0.00000E+00
 -1      6822 0.00000E+00 0.00000E+00 0.00000E+00 0.00000E+00 0.00000E+00 0.00000E+00
 -1      6823 0.00000E+00 0.00000E+00 0.00000E+00 0.00000E+00 0.00000E+00 0.00000E+00
 -1      6824 0.00000E+00 0.00000E+00 0.00000E+00 0.00000E+00 0.00000E+00 0.00000E+00
 -1      6825 0.00000E+00 0.00000E+00 0.00000E+00 0.00000E+00 0.00000E+00 0.00000E+00
 -1      6826 0.00000E+00 0.00000E+00 0.00000E+00 0.00000E+00 0.00000E+00 0.00000E+00
 -1      6827 0.00000E+00 0.00000E+00 0.00000E+00 0.00000E+00 0.00000E+00 0.00000E+00
 -1      6828 0.00000E+00 0.00000E+00 0.00000E+00 0.00000E+00 0.00000E+00 0.00000E+00
 -1      6829 0.00000E+00 0.00000E+00 0.00000E+00 0.00000E+00 0.00000E+00 0.00000E+00
 -1      6830 0.00000E+00 0.00000E+00 0.00000E+00 0.00000E+00 0.00000E+00 0.00000E+00
 -1      6831 0.00000E+00 0.00000E+00 0.00000E+00 0.00000E+00 0.00000E+00 0.00000E+00
 -1      6832 0.00000E+00 0.00000E+00 0.00000E+00 0.00000E+00 0.00000E+00 0.00000E+00
 -1      6833 0.00000E+00 0.00000E+00 0.00000E+00 0.00000E+00 0.00000E+00 0.00000E+00
 -1      6834 0.00000E+00 0.00000E+00 0.00000E+00 0.00000E+00 0.00000E+00 0.00000E+00
 -1      6835 0.00000E+00 0.00000E+00 0.00000E+00 0.00000E+00 0.00000E+00 0.00000E+00
 -1      6836 0.00000E+00 0.00000E+00 0.00000E+00 0.00000E+00 0.00000E+00 0.00000E+00
 -1      6837 0.00000E+00 0.00000E+00 0.00000E+00 0.00000E+00 0.00000E+00 0.00000E+00
 -1      6838 0.00000E+00 0.00000E+00 0.00000E+00 0.00000E+00 0.00000E+00 0.00000E+00
 -1      6839 0.00000E+00 0.00000E+00 0.00000E+00 0.00000E+00 0.00000E+00 0.00000E+00
 -1      6840 0.00000E+00 0.00000E+00 0.00000E+00 0.00000E+00 0.00000E+00 0.00000E+00
 -1      6841 0.00000E+00 0.00000E+00 0.00000E+00 0.00000E+00 0.00000E+00 0.00000E+00
 -1      6842 0.00000E+00 0.00000E+00 0.00000E+00 0.00000E+00 0.00000E+00 0.00000E+00
 -1      6843 0.00000E+00 0.00000E+00 0.00000E+00 0.00000E+00 0.00000E+00 0.00000E+00
 -1      6844 0.00000E+00 0.00000E+00 0.00000E+00 0.00000E+00 0.00000E+00 0.00000E+00
 -1      6845 0.00000E+00 0.00000E+00 0.00000E+00 0.00000E+00 0.00000E+00 0.00000E+00
 -1      6846 0.00000E+00 0.00000E+00 0.00000E+00 0.00000E+00 0.00000E+00 0.00000E+00
 -1      6847 0.00000E+00 0.00000E+00 0.00000E+00 0.00000E+00 0.00000E+00 0.00000E+00
 -1      6848 0.00000E+00 0.00000E+00 0.00000E+00 0.00000E+00 0.00000E+00 0.00000E+00
 -1      6849 0.00000E+00 0.00000E+00 0.00000E+00 0.00000E+00 0.00000E+00 0.00000E+00
 -1      6850 0.00000E+00 0.00000E+00 0.00000E+00 0.00000E+00 0.00000E+00 0.00000E+00
 -1      6851 0.00000E+00 0.00000E+00 0.00000E+00 0.00000E+00 0.00000E+00 0.00000E+00
 -1      6852 0.00000E+00 0.00000E+00 0.00000E+00 0.00000E+00 0.00000E+00 0.00000E+00
 -1      6853 0.00000E+00 0.00000E+00 0.00000E+00 0.00000E+00 0.00000E+00 0.00000E+00
 -1      6854 0.00000E+00 0.00000E+00 0.00000E+00 0.00000E+00 0.00000E+00 0.00000E+00
 -1      6855 0.00000E+00 0.00000E+00 0.00000E+00 0.00000E+00 0.00000E+00 0.00000E+00
 -1      6856 0.00000E+00 0.00000E+00 0.00000E+00 0.00000E+00 0.00000E+00 0.00000E+00
 -1      6857 0.00000E+00 0.00000E+00 0.00000E+00 0.00000E+00 0.00000E+00 0.00000E+00
 -1      6858 0.00000E+00 0.00000E+00 0.00000E+00 0.00000E+00 0.00000E+00 0.00000E+00
 -1      6859 0.00000E+00 0.00000E+00 0.00000E+00 0.00000E+00 0.00000E+00 0.00000E+00
 -1      6860 0.00000E+00 0.00000E+00 0.00000E+00 0.00000E+00 0.00000E+00 0.00000E+00
 -1      6861 0.00000E+00 0.00000E+00 0.00000E+00 0.00000E+00 0.00000E+00 0.00000E+00
 -1      6862 0.00000E+00 0.00000E+00 0.00000E+00 0.00000E+00 0.00000E+00 0.00000E+00
 -1      6863 0.00000E+00 0.00000E+00 0.00000E+00 0.00000E+00 0.00000E+00 0.00000E+00
 -1      6864 0.00000E+00 0.00000E+00 0.00000E+00 0.00000E+00 0.00000E+00 0.00000E+00
 -1      6865 0.00000E+00 0.00000E+00 0.00000E+00 0.00000E+00 0.00000E+00 0.00000E+00
 -1      6866 0.00000E+00 0.00000E+00 0.00000E+00 0.00000E+00 0.00000E+00 0.00000E+00
 -1      6867 0.00000E+00 0.00000E+00 0.00000E+00 0.00000E+00 0.00000E+00 0.00000E+00
 -1      6868 0.00000E+00 0.00000E+00 0.00000E+00 0.00000E+00 0.00000E+00 0.00000E+00
 -1      6869 0.00000E+00 0.00000E+00 0.00000E+00 0.00000E+00 0.00000E+00 0.00000E+00
 -1      6870 0.00000E+00 0.00000E+00 0.00000E+00 0.00000E+00 0.00000E+00 0.00000E+00
 -1      6871 0.00000E+00 0.00000E+00 0.00000E+00 0.00000E+00 0.00000E+00 0.00000E+00
 -1      6872 0.00000E+00 0.00000E+00 0.00000E+00 0.00000E+00 0.00000E+00 0.00000E+00
 -1      6873 0.00000E+00 0.00000E+00 0.00000E+00 0.00000E+00 0.00000E+00 0.00000E+00
 -1      6874 0.00000E+00 0.00000E+00 0.00000E+00 0.00000E+00 0.00000E+00 0.00000E+00
 -1      6875 0.00000E+00 0.00000E+00 0.00000E+00 0.00000E+00 0.00000E+00 0.00000E+00
 -1      6876 0.00000E+00 0.00000E+00 0.00000E+00 0.00000E+00 0.00000E+00 0.00000E+00
 -1      6877 0.00000E+00 0.00000E+00 0.00000E+00 0.00000E+00 0.00000E+00 0.00000E+00
 -1      6878 0.00000E+00 0.00000E+00 0.00000E+00 0.00000E+00 0.00000E+00 0.00000E+00
 -1      6879 0.00000E+00 0.00000E+00 0.00000E+00 0.00000E+00 0.00000E+00 0.00000E+00
 -1      6880 0.00000E+00 0.00000E+00 0.00000E+00 0.00000E+00 0.00000E+00 0.00000E+00
 -1      6881 0.00000E+00 0.00000E+00 0.00000E+00 0.00000E+00 0.00000E+00 0.00000E+00
 -1      6882 0.00000E+00 0.00000E+00 0.00000E+00 0.00000E+00 0.00000E+00 0.00000E+00
 -1      6883 0.00000E+00 0.00000E+00 0.00000E+00 0.00000E+00 0.00000E+00 0.00000E+00
 -1      6884 0.00000E+00 0.00000E+00 0.00000E+00 0.00000E+00 0.00000E+00 0.00000E+00
 -1      6885 0.00000E+00 0.00000E+00 0.00000E+00 0.00000E+00 0.00000E+00 0.00000E+00
 -1      6886 0.00000E+00 0.00000E+00 0.00000E+00 0.00000E+00 0.00000E+00 0.00000E+00
 -1      6887 0.00000E+00 0.00000E+00 0.00000E+00 0.00000E+00 0.00000E+00 0.00000E+00
 -1      6888 0.00000E+00 0.00000E+00 0.00000E+00 0.00000E+00 0.00000E+00 0.00000E+00
 -1      6889 0.00000E+00 0.00000E+00 0.00000E+00 0.00000E+00 0.00000E+00 0.00000E+00
 -1      6890 0.00000E+00 0.00000E+00 0.00000E+00 0.00000E+00 0.00000E+00 0.00000E+00
 -1      6891 0.00000E+00 0.00000E+00 0.00000E+00 0.00000E+00 0.00000E+00 0.00000E+00
 -1      6892 0.00000E+00 0.00000E+00 0.00000E+00 0.00000E+00 0.00000E+00 0.00000E+00
 -1      6893 0.00000E+00 0.00000E+00 0.00000E+00 0.00000E+00 0.00000E+00 0.00000E+00
 -1      6894 0.00000E+00 0.00000E+00 0.00000E+00 0.00000E+00 0.00000E+00 0.00000E+00
 -1      6895 0.00000E+00 0.00000E+00 0.00000E+00 0.00000E+00 0.00000E+00 0.00000E+00
 -1      6896 0.00000E+00 0.00000E+00 0.00000E+00 0.00000E+00 0.00000E+00 0.00000E+00
 -1      6897 0.00000E+00 0.00000E+00 0.00000E+00 0.00000E+00 0.00000E+00 0.00000E+00
 -1      6898 0.00000E+00 0.00000E+00 0.00000E+00 0.00000E+00 0.00000E+00 0.00000E+00
 -1      6899 0.00000E+00 0.00000E+00 0.00000E+00 0.00000E+00 0.00000E+00 0.00000E+00
 -1      6900 0.00000E+00 0.00000E+00 0.00000E+00 0.00000E+00 0.00000E+00 0.00000E+00
 -1      6901 0.00000E+00 0.00000E+00 0.00000E+00 0.00000E+00 0.00000E+00 0.00000E+00
 -1      6902 0.00000E+00 0.00000E+00 0.00000E+00 0.00000E+00 0.00000E+00 0.00000E+00
 -1      6903 0.00000E+00 0.00000E+00 0.00000E+00 0.00000E+00 0.00000E+00 0.00000E+00
 -1      6904 0.00000E+00 0.00000E+00 0.00000E+00 0.00000E+00 0.00000E+00 0.00000E+00
 -1      6905 0.00000E+00 0.00000E+00 0.00000E+00 0.00000E+00 0.00000E+00 0.00000E+00
 -1      6906 0.00000E+00 0.00000E+00 0.00000E+00 0.00000E+00 0.00000E+00 0.00000E+00
 -1      6907 0.00000E+00 0.00000E+00 0.00000E+00 0.00000E+00 0.00000E+00 0.00000E+00
 -1      6908 0.00000E+00 0.00000E+00 0.00000E+00 0.00000E+00 0.00000E+00 0.00000E+00
 -1      6909 0.00000E+00 0.00000E+00 0.00000E+00 0.00000E+00 0.00000E+00 0.00000E+00
 -1      6910 0.00000E+00 0.00000E+00 0.00000E+00 0.00000E+00 0.00000E+00 0.00000E+00
 -1      6911 0.00000E+00 0.00000E+00 0.00000E+00 0.00000E+00 0.00000E+00 0.00000E+00
 -1      6912 0.00000E+00 0.00000E+00 0.00000E+00 0.00000E+00 0.00000E+00 0.00000E+00
 -1      6913 0.00000E+00 0.00000E+00 0.00000E+00 0.00000E+00 0.00000E+00 0.00000E+00
 -1      6914 0.00000E+00 0.00000E+00 0.00000E+00 0.00000E+00 0.00000E+00 0.00000E+00
 -1      6915 0.00000E+00 0.00000E+00 0.00000E+00 0.00000E+00 0.00000E+00 0.00000E+00
 -1      6916 0.00000E+00 0.00000E+00 0.00000E+00 0.00000E+00 0.00000E+00 0.00000E+00
 -1      6917 0.00000E+00 0.00000E+00 0.00000E+00 0.00000E+00 0.00000E+00 0.00000E+00
 -1      6918 0.00000E+00 0.00000E+00 0.00000E+00 0.00000E+00 0.00000E+00 0.00000E+00
 -1      6919 0.00000E+00 0.00000E+00 0.00000E+00 0.00000E+00 0.00000E+00 0.00000E+00
 -1      6920 0.00000E+00 0.00000E+00 0.00000E+00 0.00000E+00 0.00000E+00 0.00000E+00
 -1      6921 0.00000E+00 0.00000E+00 0.00000E+00 0.00000E+00 0.00000E+00 0.00000E+00
 -1      6922 0.00000E+00 0.00000E+00 0.00000E+00 0.00000E+00 0.00000E+00 0.00000E+00
 -1      6923 0.00000E+00 0.00000E+00 0.00000E+00 0.00000E+00 0.00000E+00 0.00000E+00
 -1      6924 0.00000E+00 0.00000E+00 0.00000E+00 0.00000E+00 0.00000E+00 0.00000E+00
 -1      6925 0.00000E+00 0.00000E+00 0.00000E+00 0.00000E+00 0.00000E+00 0.00000E+00
 -1      6926 0.00000E+00 0.00000E+00 0.00000E+00 0.00000E+00 0.00000E+00 0.00000E+00
 -1      6927 0.00000E+00 0.00000E+00 0.00000E+00 0.00000E+00 0.00000E+00 0.00000E+00
 -1      6928 0.00000E+00 0.00000E+00 0.00000E+00 0.00000E+00 0.00000E+00 0.00000E+00
 -1      6929 0.00000E+00 0.00000E+00 0.00000E+00 0.00000E+00 0.00000E+00 0.00000E+00
 -1      6930 0.00000E+00 0.00000E+00 0.00000E+00 0.00000E+00 0.00000E+00 0.00000E+00
 -1      6931 0.00000E+00 0.00000E+00 0.00000E+00 0.00000E+00 0.00000E+00 0.00000E+00
 -1      6932 0.00000E+00 0.00000E+00 0.00000E+00 0.00000E+00 0.00000E+00 0.00000E+00
 -1      6933 0.00000E+00 0.00000E+00 0.00000E+00 0.00000E+00 0.00000E+00 0.00000E+00
 -1      6934 0.00000E+00 0.00000E+00 0.00000E+00 0.00000E+00 0.00000E+00 0.00000E+00
 -1      6935 0.00000E+00 0.00000E+00 0.00000E+00 0.00000E+00 0.00000E+00 0.00000E+00
 -1      6936 0.00000E+00 0.00000E+00 0.00000E+00 0.00000E+00 0.00000E+00 0.00000E+00
 -1      6937 0.00000E+00 0.00000E+00 0.00000E+00 0.00000E+00 0.00000E+00 0.00000E+00
 -1      6938 0.00000E+00 0.00000E+00 0.00000E+00 0.00000E+00 0.00000E+00 0.00000E+00
 -1      6939 0.00000E+00 0.00000E+00 0.00000E+00 0.00000E+00 0.00000E+00 0.00000E+00
 -1      6940 0.00000E+00 0.00000E+00 0.00000E+00 0.00000E+00 0.00000E+00 0.00000E+00
 -1      6941 0.00000E+00 0.00000E+00 0.00000E+00 0.00000E+00 0.00000E+00 0.00000E+00
 -1      6942 0.00000E+00 0.00000E+00 0.00000E+00 0.00000E+00 0.00000E+00 0.00000E+00
 -1      6943 0.00000E+00 0.00000E+00 0.00000E+00 0.00000E+00 0.00000E+00 0.00000E+00
 -1      6944 0.00000E+00 0.00000E+00 0.00000E+00 0.00000E+00 0.00000E+00 0.00000E+00
 -1      6945 0.00000E+00 0.00000E+00 0.00000E+00 0.00000E+00 0.00000E+00 0.00000E+00
 -1      6946 0.00000E+00 0.00000E+00 0.00000E+00 0.00000E+00 0.00000E+00 0.00000E+00
 -1      6947 0.00000E+00 0.00000E+00 0.00000E+00 0.00000E+00 0.00000E+00 0.00000E+00
 -1      6948 0.00000E+00 0.00000E+00 0.00000E+00 0.00000E+00 0.00000E+00 0.00000E+00
 -1      6949 0.00000E+00 0.00000E+00 0.00000E+00 0.00000E+00 0.00000E+00 0.00000E+00
 -1      6950 0.00000E+00 0.00000E+00 0.00000E+00 0.00000E+00 0.00000E+00 0.00000E+00
 -1      6951 0.00000E+00 0.00000E+00 0.00000E+00 0.00000E+00 0.00000E+00 0.00000E+00
 -1      6952 0.00000E+00 0.00000E+00 0.00000E+00 0.00000E+00 0.00000E+00 0.00000E+00
 -1      6953 0.00000E+00 0.00000E+00 0.00000E+00 0.00000E+00 0.00000E+00 0.00000E+00
 -1      6954 0.00000E+00 0.00000E+00 0.00000E+00 0.00000E+00 0.00000E+00 0.00000E+00
 -1      6955 0.00000E+00 0.00000E+00 0.00000E+00 0.00000E+00 0.00000E+00 0.00000E+00
 -1      6956 0.00000E+00 0.00000E+00 0.00000E+00 0.00000E+00 0.00000E+00 0.00000E+00
 -1      6957 0.00000E+00 0.00000E+00 0.00000E+00 0.00000E+00 0.00000E+00 0.00000E+00
 -1      6958 0.00000E+00 0.00000E+00 0.00000E+00 0.00000E+00 0.00000E+00 0.00000E+00
 -1      6959 0.00000E+00 0.00000E+00 0.00000E+00 0.00000E+00 0.00000E+00 0.00000E+00
 -1      6960 0.00000E+00 0.00000E+00 0.00000E+00 0.00000E+00 0.00000E+00 0.00000E+00
 -1      6961 0.00000E+00 0.00000E+00 0.00000E+00 0.00000E+00 0.00000E+00 0.00000E+00
 -1      6962 0.00000E+00 0.00000E+00 0.00000E+00 0.00000E+00 0.00000E+00 0.00000E+00
 -1      6963 0.00000E+00 0.00000E+00 0.00000E+00 0.00000E+00 0.00000E+00 0.00000E+00
 -1      6964 0.00000E+00 0.00000E+00 0.00000E+00 0.00000E+00 0.00000E+00 0.00000E+00
 -1      6965 0.00000E+00 0.00000E+00 0.00000E+00 0.00000E+00 0.00000E+00 0.00000E+00
 -1      6966 0.00000E+00 0.00000E+00 0.00000E+00 0.00000E+00 0.00000E+00 0.00000E+00
 -1      6967 0.00000E+00 0.00000E+00 0.00000E+00 0.00000E+00 0.00000E+00 0.00000E+00
 -1      6968 0.00000E+00 0.00000E+00 0.00000E+00 0.00000E+00 0.00000E+00 0.00000E+00
 -1      6969 0.00000E+00 0.00000E+00 0.00000E+00 0.00000E+00 0.00000E+00 0.00000E+00
 -1      6970 0.00000E+00 0.00000E+00 0.00000E+00 0.00000E+00 0.00000E+00 0.00000E+00
 -1      6971 0.00000E+00 0.00000E+00 0.00000E+00 0.00000E+00 0.00000E+00 0.00000E+00
 -1      6972 0.00000E+00 0.00000E+00 0.00000E+00 0.00000E+00 0.00000E+00 0.00000E+00
 -1      6973 0.00000E+00 0.00000E+00 0.00000E+00 0.00000E+00 0.00000E+00 0.00000E+00
 -1      6974 0.00000E+00 0.00000E+00 0.00000E+00 0.00000E+00 0.00000E+00 0.00000E+00
 -1      6975 0.00000E+00 0.00000E+00 0.00000E+00 0.00000E+00 0.00000E+00 0.00000E+00
 -1      6976 0.00000E+00 0.00000E+00 0.00000E+00 0.00000E+00 0.00000E+00 0.00000E+00
 -1      6977 0.00000E+00 0.00000E+00 0.00000E+00 0.00000E+00 0.00000E+00 0.00000E+00
 -1      6978 0.00000E+00 0.00000E+00 0.00000E+00 0.00000E+00 0.00000E+00 0.00000E+00
 -1      6979 0.00000E+00 0.00000E+00 0.00000E+00 0.00000E+00 0.00000E+00 0.00000E+00
 -1      6980 0.00000E+00 0.00000E+00 0.00000E+00 0.00000E+00 0.00000E+00 0.00000E+00
 -1      6981 0.00000E+00 0.00000E+00 0.00000E+00 0.00000E+00 0.00000E+00 0.00000E+00
 -1      6982 0.00000E+00 0.00000E+00 0.00000E+00 0.00000E+00 0.00000E+00 0.00000E+00
 -1      6983 0.00000E+00 0.00000E+00 0.00000E+00 0.00000E+00 0.00000E+00 0.00000E+00
 -1      6984 0.00000E+00 0.00000E+00 0.00000E+00 0.00000E+00 0.00000E+00 0.00000E+00
 -1      6985 0.00000E+00 0.00000E+00 0.00000E+00 0.00000E+00 0.00000E+00 0.00000E+00
 -1      6986 0.00000E+00 0.00000E+00 0.00000E+00 0.00000E+00 0.00000E+00 0.00000E+00
 -1      6987 0.00000E+00 0.00000E+00 0.00000E+00 0.00000E+00 0.00000E+00 0.00000E+00
 -1      6988 0.00000E+00 0.00000E+00 0.00000E+00 0.00000E+00 0.00000E+00 0.00000E+00
 -1      6989 0.00000E+00 0.00000E+00 0.00000E+00 0.00000E+00 0.00000E+00 0.00000E+00
 -1      6990 0.00000E+00 0.00000E+00 0.00000E+00 0.00000E+00 0.00000E+00 0.00000E+00
 -1      6991 0.00000E+00 0.00000E+00 0.00000E+00 0.00000E+00 0.00000E+00 0.00000E+00
 -1      6992 0.00000E+00 0.00000E+00 0.00000E+00 0.00000E+00 0.00000E+00 0.00000E+00
 -1      6993 0.00000E+00 0.00000E+00 0.00000E+00 0.00000E+00 0.00000E+00 0.00000E+00
 -1      6994 0.00000E+00 0.00000E+00 0.00000E+00 0.00000E+00 0.00000E+00 0.00000E+00
 -1      6995 0.00000E+00 0.00000E+00 0.00000E+00 0.00000E+00 0.00000E+00 0.00000E+00
 -1      6996 0.00000E+00 0.00000E+00 0.00000E+00 0.00000E+00 0.00000E+00 0.00000E+00
 -1      6997 0.00000E+00 0.00000E+00 0.00000E+00 0.00000E+00 0.00000E+00 0.00000E+00
 -1      6998 0.00000E+00 0.00000E+00 0.00000E+00 0.00000E+00 0.00000E+00 0.00000E+00
 -1      6999 0.00000E+00 0.00000E+00 0.00000E+00 0.00000E+00 0.00000E+00 0.00000E+00
 -1      7000 0.00000E+00 0.00000E+00 0.00000E+00 0.00000E+00 0.00000E+00 0.00000E+00
 -1      7001 0.00000E+00 0.00000E+00 0.00000E+00 0.00000E+00 0.00000E+00 0.00000E+00
 -1      7002 0.00000E+00 0.00000E+00 0.00000E+00 0.00000E+00 0.00000E+00 0.00000E+00
 -1      7003 0.00000E+00 0.00000E+00 0.00000E+00 0.00000E+00 0.00000E+00 0.00000E+00
 -1      7004 0.00000E+00 0.00000E+00 0.00000E+00 0.00000E+00 0.00000E+00 0.00000E+00
 -1      7005 0.00000E+00 0.00000E+00 0.00000E+00 0.00000E+00 0.00000E+00 0.00000E+00
 -1      7006 0.00000E+00 0.00000E+00 0.00000E+00 0.00000E+00 0.00000E+00 0.00000E+00
 -1      7007 0.00000E+00 0.00000E+00 0.00000E+00 0.00000E+00 0.00000E+00 0.00000E+00
 -1      7008 0.00000E+00 0.00000E+00 0.00000E+00 0.00000E+00 0.00000E+00 0.00000E+00
 -1      7009 0.00000E+00 0.00000E+00 0.00000E+00 0.00000E+00 0.00000E+00 0.00000E+00
 -1      7010 0.00000E+00 0.00000E+00 0.00000E+00 0.00000E+00 0.00000E+00 0.00000E+00
 -1      7011 0.00000E+00 0.00000E+00 0.00000E+00 0.00000E+00 0.00000E+00 0.00000E+00
 -1      7012 0.00000E+00 0.00000E+00 0.00000E+00 0.00000E+00 0.00000E+00 0.00000E+00
 -1      7013 0.00000E+00 0.00000E+00 0.00000E+00 0.00000E+00 0.00000E+00 0.00000E+00
 -1      7014 0.00000E+00 0.00000E+00 0.00000E+00 0.00000E+00 0.00000E+00 0.00000E+00
 -1      7015 0.00000E+00 0.00000E+00 0.00000E+00 0.00000E+00 0.00000E+00 0.00000E+00
 -1      7016 0.00000E+00 0.00000E+00 0.00000E+00 0.00000E+00 0.00000E+00 0.00000E+00
 -1      7017 0.00000E+00 0.00000E+00 0.00000E+00 0.00000E+00 0.00000E+00 0.00000E+00
 -1      7018 0.00000E+00 0.00000E+00 0.00000E+00 0.00000E+00 0.00000E+00 0.00000E+00
 -1      7019 0.00000E+00 0.00000E+00 0.00000E+00 0.00000E+00 0.00000E+00 0.00000E+00
 -1      7020 0.00000E+00 0.00000E+00 0.00000E+00 0.00000E+00 0.00000E+00 0.00000E+00
 -1      7021 0.00000E+00 0.00000E+00 0.00000E+00 0.00000E+00 0.00000E+00 0.00000E+00
 -1      7022 0.00000E+00 0.00000E+00 0.00000E+00 0.00000E+00 0.00000E+00 0.00000E+00
 -1      7023 0.00000E+00 0.00000E+00 0.00000E+00 0.00000E+00 0.00000E+00 0.00000E+00
 -1      7024 0.00000E+00 0.00000E+00 0.00000E+00 0.00000E+00 0.00000E+00 0.00000E+00
 -1      7025 0.00000E+00 0.00000E+00 0.00000E+00 0.00000E+00 0.00000E+00 0.00000E+00
 -1      7026 0.00000E+00 0.00000E+00 0.00000E+00 0.00000E+00 0.00000E+00 0.00000E+00
 -1      7027 0.00000E+00 0.00000E+00 0.00000E+00 0.00000E+00 0.00000E+00 0.00000E+00
 -1      7028 0.00000E+00 0.00000E+00 0.00000E+00 0.00000E+00 0.00000E+00 0.00000E+00
 -1      7029 0.00000E+00 0.00000E+00 0.00000E+00 0.00000E+00 0.00000E+00 0.00000E+00
 -1      7030 0.00000E+00 0.00000E+00 0.00000E+00 0.00000E+00 0.00000E+00 0.00000E+00
 -1      7031 0.00000E+00 0.00000E+00 0.00000E+00 0.00000E+00 0.00000E+00 0.00000E+00
 -1      7032 0.00000E+00 0.00000E+00 0.00000E+00 0.00000E+00 0.00000E+00 0.00000E+00
 -1      7033 0.00000E+00 0.00000E+00 0.00000E+00 0.00000E+00 0.00000E+00 0.00000E+00
 -1      7034 0.00000E+00 0.00000E+00 0.00000E+00 0.00000E+00 0.00000E+00 0.00000E+00
 -1      7035 0.00000E+00 0.00000E+00 0.00000E+00 0.00000E+00 0.00000E+00 0.00000E+00
 -1      7036 0.00000E+00 0.00000E+00 0.00000E+00 0.00000E+00 0.00000E+00 0.00000E+00
 -1      7037 0.00000E+00 0.00000E+00 0.00000E+00 0.00000E+00 0.00000E+00 0.00000E+00
 -1      7038 0.00000E+00 0.00000E+00 0.00000E+00 0.00000E+00 0.00000E+00 0.00000E+00
 -1      7039 0.00000E+00 0.00000E+00 0.00000E+00 0.00000E+00 0.00000E+00 0.00000E+00
 -1      7040 0.00000E+00 0.00000E+00 0.00000E+00 0.00000E+00 0.00000E+00 0.00000E+00
 -1      7041 0.00000E+00 0.00000E+00 0.00000E+00 0.00000E+00 0.00000E+00 0.00000E+00
 -1      7042 0.00000E+00 0.00000E+00 0.00000E+00 0.00000E+00 0.00000E+00 0.00000E+00
 -1      7043 0.00000E+00 0.00000E+00 0.00000E+00 0.00000E+00 0.00000E+00 0.00000E+00
 -1      7044 0.00000E+00 0.00000E+00 0.00000E+00 0.00000E+00 0.00000E+00 0.00000E+00
 -1      7045 0.00000E+00 0.00000E+00 0.00000E+00 0.00000E+00 0.00000E+00 0.00000E+00
 -1      7046 0.00000E+00 0.00000E+00 0.00000E+00 0.00000E+00 0.00000E+00 0.00000E+00
 -1      7047 0.00000E+00 0.00000E+00 0.00000E+00 0.00000E+00 0.00000E+00 0.00000E+00
 -1      7048 0.00000E+00 0.00000E+00 0.00000E+00 0.00000E+00 0.00000E+00 0.00000E+00
 -1      7049 0.00000E+00 0.00000E+00 0.00000E+00 0.00000E+00 0.00000E+00 0.00000E+00
 -1      7050 0.00000E+00 0.00000E+00 0.00000E+00 0.00000E+00 0.00000E+00 0.00000E+00
 -1      7051 0.00000E+00 0.00000E+00 0.00000E+00 0.00000E+00 0.00000E+00 0.00000E+00
 -1      7052 0.00000E+00 0.00000E+00 0.00000E+00 0.00000E+00 0.00000E+00 0.00000E+00
 -1      7053 0.00000E+00 0.00000E+00 0.00000E+00 0.00000E+00 0.00000E+00 0.00000E+00
 -1      7054 0.00000E+00 0.00000E+00 0.00000E+00 0.00000E+00 0.00000E+00 0.00000E+00
 -1      7055 0.00000E+00 0.00000E+00 0.00000E+00 0.00000E+00 0.00000E+00 0.00000E+00
 -1      7056 0.00000E+00 0.00000E+00 0.00000E+00 0.00000E+00 0.00000E+00 0.00000E+00
 -1      7057 0.00000E+00 0.00000E+00 0.00000E+00 0.00000E+00 0.00000E+00 0.00000E+00
 -1      7058 0.00000E+00 0.00000E+00 0.00000E+00 0.00000E+00 0.00000E+00 0.00000E+00
 -1      7059 0.00000E+00 0.00000E+00 0.00000E+00 0.00000E+00 0.00000E+00 0.00000E+00
 -1      7060 0.00000E+00 0.00000E+00 0.00000E+00 0.00000E+00 0.00000E+00 0.00000E+00
 -1      7061 0.00000E+00 0.00000E+00 0.00000E+00 0.00000E+00 0.00000E+00 0.00000E+00
 -1      7062 0.00000E+00 0.00000E+00 0.00000E+00 0.00000E+00 0.00000E+00 0.00000E+00
 -1      7063 0.00000E+00 0.00000E+00 0.00000E+00 0.00000E+00 0.00000E+00 0.00000E+00
 -1      7064 0.00000E+00 0.00000E+00 0.00000E+00 0.00000E+00 0.00000E+00 0.00000E+00
 -1      7065 0.00000E+00 0.00000E+00 0.00000E+00 0.00000E+00 0.00000E+00 0.00000E+00
 -1      7066 0.00000E+00 0.00000E+00 0.00000E+00 0.00000E+00 0.00000E+00 0.00000E+00
 -1      7067 0.00000E+00 0.00000E+00 0.00000E+00 0.00000E+00 0.00000E+00 0.00000E+00
 -1      7068 0.00000E+00 0.00000E+00 0.00000E+00 0.00000E+00 0.00000E+00 0.00000E+00
 -1      7069 0.00000E+00 0.00000E+00 0.00000E+00 0.00000E+00 0.00000E+00 0.00000E+00
 -1      7070 0.00000E+00 0.00000E+00 0.00000E+00 0.00000E+00 0.00000E+00 0.00000E+00
 -1      7071 0.00000E+00 0.00000E+00 0.00000E+00 0.00000E+00 0.00000E+00 0.00000E+00
 -1      7072 0.00000E+00 0.00000E+00 0.00000E+00 0.00000E+00 0.00000E+00 0.00000E+00
 -1      7073 0.00000E+00 0.00000E+00 0.00000E+00 0.00000E+00 0.00000E+00 0.00000E+00
 -1      7074 0.00000E+00 0.00000E+00 0.00000E+00 0.00000E+00 0.00000E+00 0.00000E+00
 -1      7075 0.00000E+00 0.00000E+00 0.00000E+00 0.00000E+00 0.00000E+00 0.00000E+00
 -1      7076 0.00000E+00 0.00000E+00 0.00000E+00 0.00000E+00 0.00000E+00 0.00000E+00
 -1      7077 0.00000E+00 0.00000E+00 0.00000E+00 0.00000E+00 0.00000E+00 0.00000E+00
 -1      7078 0.00000E+00 0.00000E+00 0.00000E+00 0.00000E+00 0.00000E+00 0.00000E+00
 -1      7079 0.00000E+00 0.00000E+00 0.00000E+00 0.00000E+00 0.00000E+00 0.00000E+00
 -1      7080 0.00000E+00 0.00000E+00 0.00000E+00 0.00000E+00 0.00000E+00 0.00000E+00
 -1      7081 0.00000E+00 0.00000E+00 0.00000E+00 0.00000E+00 0.00000E+00 0.00000E+00
 -1      7082 0.00000E+00 0.00000E+00 0.00000E+00 0.00000E+00 0.00000E+00 0.00000E+00
 -1      7083 0.00000E+00 0.00000E+00 0.00000E+00 0.00000E+00 0.00000E+00 0.00000E+00
 -1      7084 0.00000E+00 0.00000E+00 0.00000E+00 0.00000E+00 0.00000E+00 0.00000E+00
 -1      7085 0.00000E+00 0.00000E+00 0.00000E+00 0.00000E+00 0.00000E+00 0.00000E+00
 -1      7086 0.00000E+00 0.00000E+00 0.00000E+00 0.00000E+00 0.00000E+00 0.00000E+00
 -1      7087 0.00000E+00 0.00000E+00 0.00000E+00 0.00000E+00 0.00000E+00 0.00000E+00
 -1      7088 0.00000E+00 0.00000E+00 0.00000E+00 0.00000E+00 0.00000E+00 0.00000E+00
 -1      7089 0.00000E+00 0.00000E+00 0.00000E+00 0.00000E+00 0.00000E+00 0.00000E+00
 -1      7090 0.00000E+00 0.00000E+00 0.00000E+00 0.00000E+00 0.00000E+00 0.00000E+00
 -1      7091 0.00000E+00 0.00000E+00 0.00000E+00 0.00000E+00 0.00000E+00 0.00000E+00
 -1      7092 0.00000E+00 0.00000E+00 0.00000E+00 0.00000E+00 0.00000E+00 0.00000E+00
 -1      7093 0.00000E+00 0.00000E+00 0.00000E+00 0.00000E+00 0.00000E+00 0.00000E+00
 -1      7094 0.00000E+00 0.00000E+00 0.00000E+00 0.00000E+00 0.00000E+00 0.00000E+00
 -1      7095 0.00000E+00 0.00000E+00 0.00000E+00 0.00000E+00 0.00000E+00 0.00000E+00
 -1      7096 0.00000E+00 0.00000E+00 0.00000E+00 0.00000E+00 0.00000E+00 0.00000E+00
 -1      7097 0.00000E+00 0.00000E+00 0.00000E+00 0.00000E+00 0.00000E+00 0.00000E+00
 -1      7098 0.00000E+00 0.00000E+00 0.00000E+00 0.00000E+00 0.00000E+00 0.00000E+00
 -1      7099 0.00000E+00 0.00000E+00 0.00000E+00 0.00000E+00 0.00000E+00 0.00000E+00
 -1      7100 0.00000E+00 0.00000E+00 0.00000E+00 0.00000E+00 0.00000E+00 0.00000E+00
 -1      7101 0.00000E+00 0.00000E+00 0.00000E+00 0.00000E+00 0.00000E+00 0.00000E+00
 -1      7102 0.00000E+00 0.00000E+00 0.00000E+00 0.00000E+00 0.00000E+00 0.00000E+00
 -1      7103 0.00000E+00 0.00000E+00 0.00000E+00 0.00000E+00 0.00000E+00 0.00000E+00
 -1      7104 0.00000E+00 0.00000E+00 0.00000E+00 0.00000E+00 0.00000E+00 0.00000E+00
 -1      7105 0.00000E+00 0.00000E+00 0.00000E+00 0.00000E+00 0.00000E+00 0.00000E+00
 -1      7106 0.00000E+00 0.00000E+00 0.00000E+00 0.00000E+00 0.00000E+00 0.00000E+00
 -1      7107 0.00000E+00 0.00000E+00 0.00000E+00 0.00000E+00 0.00000E+00 0.00000E+00
 -1      7108 0.00000E+00 0.00000E+00 0.00000E+00 0.00000E+00 0.00000E+00 0.00000E+00
 -1      7109 0.00000E+00 0.00000E+00 0.00000E+00 0.00000E+00 0.00000E+00 0.00000E+00
 -1      7110 0.00000E+00 0.00000E+00 0.00000E+00 0.00000E+00 0.00000E+00 0.00000E+00
 -1      7111 0.00000E+00 0.00000E+00 0.00000E+00 0.00000E+00 0.00000E+00 0.00000E+00
 -1      7112 0.00000E+00 0.00000E+00 0.00000E+00 0.00000E+00 0.00000E+00 0.00000E+00
 -1      7113 0.00000E+00 0.00000E+00 0.00000E+00 0.00000E+00 0.00000E+00 0.00000E+00
 -1      7114 0.00000E+00 0.00000E+00 0.00000E+00 0.00000E+00 0.00000E+00 0.00000E+00
 -1      7115 0.00000E+00 0.00000E+00 0.00000E+00 0.00000E+00 0.00000E+00 0.00000E+00
 -1      7116 0.00000E+00 0.00000E+00 0.00000E+00 0.00000E+00 0.00000E+00 0.00000E+00
 -1      7117 0.00000E+00 0.00000E+00 0.00000E+00 0.00000E+00 0.00000E+00 0.00000E+00
 -1      7118 0.00000E+00 0.00000E+00 0.00000E+00 0.00000E+00 0.00000E+00 0.00000E+00
 -1      7119 0.00000E+00 0.00000E+00 0.00000E+00 0.00000E+00 0.00000E+00 0.00000E+00
 -1      7120 0.00000E+00 0.00000E+00 0.00000E+00 0.00000E+00 0.00000E+00 0.00000E+00
 -1      7121 0.00000E+00 0.00000E+00 0.00000E+00 0.00000E+00 0.00000E+00 0.00000E+00
 -1      7122 0.00000E+00 0.00000E+00 0.00000E+00 0.00000E+00 0.00000E+00 0.00000E+00
 -1      7123 0.00000E+00 0.00000E+00 0.00000E+00 0.00000E+00 0.00000E+00 0.00000E+00
 -1      7124 0.00000E+00 0.00000E+00 0.00000E+00 0.00000E+00 0.00000E+00 0.00000E+00
 -1      7125 0.00000E+00 0.00000E+00 0.00000E+00 0.00000E+00 0.00000E+00 0.00000E+00
 -1      7126 0.00000E+00 0.00000E+00 0.00000E+00 0.00000E+00 0.00000E+00 0.00000E+00
 -1      7127 0.00000E+00 0.00000E+00 0.00000E+00 0.00000E+00 0.00000E+00 0.00000E+00
 -1      7128 0.00000E+00 0.00000E+00 0.00000E+00 0.00000E+00 0.00000E+00 0.00000E+00
 -1      7129 0.00000E+00 0.00000E+00 0.00000E+00 0.00000E+00 0.00000E+00 0.00000E+00
 -1      7130 0.00000E+00 0.00000E+00 0.00000E+00 0.00000E+00 0.00000E+00 0.00000E+00
 -1      7131 0.00000E+00 0.00000E+00 0.00000E+00 0.00000E+00 0.00000E+00 0.00000E+00
 -1      7132 0.00000E+00 0.00000E+00 0.00000E+00 0.00000E+00 0.00000E+00 0.00000E+00
 -1      7133 0.00000E+00 0.00000E+00 0.00000E+00 0.00000E+00 0.00000E+00 0.00000E+00
 -1      7134 0.00000E+00 0.00000E+00 0.00000E+00 0.00000E+00 0.00000E+00 0.00000E+00
 -1      7135 0.00000E+00 0.00000E+00 0.00000E+00 0.00000E+00 0.00000E+00 0.00000E+00
 -1      7136 0.00000E+00 0.00000E+00 0.00000E+00 0.00000E+00 0.00000E+00 0.00000E+00
 -1      7137 0.00000E+00 0.00000E+00 0.00000E+00 0.00000E+00 0.00000E+00 0.00000E+00
 -1      7138 0.00000E+00 0.00000E+00 0.00000E+00 0.00000E+00 0.00000E+00 0.00000E+00
 -1      7139 0.00000E+00 0.00000E+00 0.00000E+00 0.00000E+00 0.00000E+00 0.00000E+00
 -1      7140 0.00000E+00 0.00000E+00 0.00000E+00 0.00000E+00 0.00000E+00 0.00000E+00
 -1      7141 0.00000E+00 0.00000E+00 0.00000E+00 0.00000E+00 0.00000E+00 0.00000E+00
 -1      7142 0.00000E+00 0.00000E+00 0.00000E+00 0.00000E+00 0.00000E+00 0.00000E+00
 -1      7143 0.00000E+00 0.00000E+00 0.00000E+00 0.00000E+00 0.00000E+00 0.00000E+00
 -1      7144 0.00000E+00 0.00000E+00 0.00000E+00 0.00000E+00 0.00000E+00 0.00000E+00
 -1      7145 0.00000E+00 0.00000E+00 0.00000E+00 0.00000E+00 0.00000E+00 0.00000E+00
 -1      7146 0.00000E+00 0.00000E+00 0.00000E+00 0.00000E+00 0.00000E+00 0.00000E+00
 -1      7147 0.00000E+00 0.00000E+00 0.00000E+00 0.00000E+00 0.00000E+00 0.00000E+00
 -1      7148 0.00000E+00 0.00000E+00 0.00000E+00 0.00000E+00 0.00000E+00 0.00000E+00
 -1      7149 0.00000E+00 0.00000E+00 0.00000E+00 0.00000E+00 0.00000E+00 0.00000E+00
 -1      7150 0.00000E+00 0.00000E+00 0.00000E+00 0.00000E+00 0.00000E+00 0.00000E+00
 -1      7151 0.00000E+00 0.00000E+00 0.00000E+00 0.00000E+00 0.00000E+00 0.00000E+00
 -1      7152 0.00000E+00 0.00000E+00 0.00000E+00 0.00000E+00 0.00000E+00 0.00000E+00
 -1      7153 0.00000E+00 0.00000E+00 0.00000E+00 0.00000E+00 0.00000E+00 0.00000E+00
 -1      7154 0.00000E+00 0.00000E+00 0.00000E+00 0.00000E+00 0.00000E+00 0.00000E+00
 -1      7155 0.00000E+00 0.00000E+00 0.00000E+00 0.00000E+00 0.00000E+00 0.00000E+00
 -1      7156 0.00000E+00 0.00000E+00 0.00000E+00 0.00000E+00 0.00000E+00 0.00000E+00
 -1      7157 0.00000E+00 0.00000E+00 0.00000E+00 0.00000E+00 0.00000E+00 0.00000E+00
 -1      7158 0.00000E+00 0.00000E+00 0.00000E+00 0.00000E+00 0.00000E+00 0.00000E+00
 -1      7159 0.00000E+00 0.00000E+00 0.00000E+00 0.00000E+00 0.00000E+00 0.00000E+00
 -1      7160 0.00000E+00 0.00000E+00 0.00000E+00 0.00000E+00 0.00000E+00 0.00000E+00
 -1      7161 0.00000E+00 0.00000E+00 0.00000E+00 0.00000E+00 0.00000E+00 0.00000E+00
 -1      7162 0.00000E+00 0.00000E+00 0.00000E+00 0.00000E+00 0.00000E+00 0.00000E+00
 -1      7163 0.00000E+00 0.00000E+00 0.00000E+00 0.00000E+00 0.00000E+00 0.00000E+00
 -1      7164 0.00000E+00 0.00000E+00 0.00000E+00 0.00000E+00 0.00000E+00 0.00000E+00
 -1      7165 0.00000E+00 0.00000E+00 0.00000E+00 0.00000E+00 0.00000E+00 0.00000E+00
 -1      7166 0.00000E+00 0.00000E+00 0.00000E+00 0.00000E+00 0.00000E+00 0.00000E+00
 -1      7167 0.00000E+00 0.00000E+00 0.00000E+00 0.00000E+00 0.00000E+00 0.00000E+00
 -1      7168 0.00000E+00 0.00000E+00 0.00000E+00 0.00000E+00 0.00000E+00 0.00000E+00
 -1      7169 0.00000E+00 0.00000E+00 0.00000E+00 0.00000E+00 0.00000E+00 0.00000E+00
 -1      7170 0.00000E+00 0.00000E+00 0.00000E+00 0.00000E+00 0.00000E+00 0.00000E+00
 -1      7171 0.00000E+00 0.00000E+00 0.00000E+00 0.00000E+00 0.00000E+00 0.00000E+00
 -1      7172 0.00000E+00 0.00000E+00 0.00000E+00 0.00000E+00 0.00000E+00 0.00000E+00
 -1      7173 0.00000E+00 0.00000E+00 0.00000E+00 0.00000E+00 0.00000E+00 0.00000E+00
 -1      7174 0.00000E+00 0.00000E+00 0.00000E+00 0.00000E+00 0.00000E+00 0.00000E+00
 -1      7175 0.00000E+00 0.00000E+00 0.00000E+00 0.00000E+00 0.00000E+00 0.00000E+00
 -1      7176 0.00000E+00 0.00000E+00 0.00000E+00 0.00000E+00 0.00000E+00 0.00000E+00
 -1      7177 0.00000E+00 0.00000E+00 0.00000E+00 0.00000E+00 0.00000E+00 0.00000E+00
 -1      7178 0.00000E+00 0.00000E+00 0.00000E+00 0.00000E+00 0.00000E+00 0.00000E+00
 -1      7179 0.00000E+00 0.00000E+00 0.00000E+00 0.00000E+00 0.00000E+00 0.00000E+00
 -1      7180 0.00000E+00 0.00000E+00 0.00000E+00 0.00000E+00 0.00000E+00 0.00000E+00
 -1      7181 0.00000E+00 0.00000E+00 0.00000E+00 0.00000E+00 0.00000E+00 0.00000E+00
 -1      7182 0.00000E+00 0.00000E+00 0.00000E+00 0.00000E+00 0.00000E+00 0.00000E+00
 -1      7183 0.00000E+00 0.00000E+00 0.00000E+00 0.00000E+00 0.00000E+00 0.00000E+00
 -1      7184 0.00000E+00 0.00000E+00 0.00000E+00 0.00000E+00 0.00000E+00 0.00000E+00
 -1      7185 0.00000E+00 0.00000E+00 0.00000E+00 0.00000E+00 0.00000E+00 0.00000E+00
 -1      7186 0.00000E+00 0.00000E+00 0.00000E+00 0.00000E+00 0.00000E+00 0.00000E+00
 -1      7187 0.00000E+00 0.00000E+00 0.00000E+00 0.00000E+00 0.00000E+00 0.00000E+00
 -1      7188 0.00000E+00 0.00000E+00 0.00000E+00 0.00000E+00 0.00000E+00 0.00000E+00
 -1      7189 0.00000E+00 0.00000E+00 0.00000E+00 0.00000E+00 0.00000E+00 0.00000E+00
 -1      7190 0.00000E+00 0.00000E+00 0.00000E+00 0.00000E+00 0.00000E+00 0.00000E+00
 -1      7191 0.00000E+00 0.00000E+00 0.00000E+00 0.00000E+00 0.00000E+00 0.00000E+00
 -1      7192 0.00000E+00 0.00000E+00 0.00000E+00 0.00000E+00 0.00000E+00 0.00000E+00
 -1      7193 0.00000E+00 0.00000E+00 0.00000E+00 0.00000E+00 0.00000E+00 0.00000E+00
 -1      7194 0.00000E+00 0.00000E+00 0.00000E+00 0.00000E+00 0.00000E+00 0.00000E+00
 -1      7195 0.00000E+00 0.00000E+00 0.00000E+00 0.00000E+00 0.00000E+00 0.00000E+00
 -1      7196 0.00000E+00 0.00000E+00 0.00000E+00 0.00000E+00 0.00000E+00 0.00000E+00
 -1      7197 0.00000E+00 0.00000E+00 0.00000E+00 0.00000E+00 0.00000E+00 0.00000E+00
 -1      7198 0.00000E+00 0.00000E+00 0.00000E+00 0.00000E+00 0.00000E+00 0.00000E+00
 -1      7199 0.00000E+00 0.00000E+00 0.00000E+00 0.00000E+00 0.00000E+00 0.00000E+00
 -1      7200 0.00000E+00 0.00000E+00 0.00000E+00 0.00000E+00 0.00000E+00 0.00000E+00
 -1      7201 0.00000E+00 0.00000E+00 0.00000E+00 0.00000E+00 0.00000E+00 0.00000E+00
 -1      7202 0.00000E+00 0.00000E+00 0.00000E+00 0.00000E+00 0.00000E+00 0.00000E+00
 -1      7203 0.00000E+00 0.00000E+00 0.00000E+00 0.00000E+00 0.00000E+00 0.00000E+00
 -1      7204 0.00000E+00 0.00000E+00 0.00000E+00 0.00000E+00 0.00000E+00 0.00000E+00
 -1      7205 0.00000E+00 0.00000E+00 0.00000E+00 0.00000E+00 0.00000E+00 0.00000E+00
 -1      7206 0.00000E+00 0.00000E+00 0.00000E+00 0.00000E+00 0.00000E+00 0.00000E+00
 -1      7207 0.00000E+00 0.00000E+00 0.00000E+00 0.00000E+00 0.00000E+00 0.00000E+00
 -1      7208 0.00000E+00 0.00000E+00 0.00000E+00 0.00000E+00 0.00000E+00 0.00000E+00
 -1      7209 0.00000E+00 0.00000E+00 0.00000E+00 0.00000E+00 0.00000E+00 0.00000E+00
 -1      7210 0.00000E+00 0.00000E+00 0.00000E+00 0.00000E+00 0.00000E+00 0.00000E+00
 -1      7211 0.00000E+00 0.00000E+00 0.00000E+00 0.00000E+00 0.00000E+00 0.00000E+00
 -1      7212 0.00000E+00 0.00000E+00 0.00000E+00 0.00000E+00 0.00000E+00 0.00000E+00
 -1      7213 0.00000E+00 0.00000E+00 0.00000E+00 0.00000E+00 0.00000E+00 0.00000E+00
 -1      7214 0.00000E+00 0.00000E+00 0.00000E+00 0.00000E+00 0.00000E+00 0.00000E+00
 -1      7215 0.00000E+00 0.00000E+00 0.00000E+00 0.00000E+00 0.00000E+00 0.00000E+00
 -1      7216 0.00000E+00 0.00000E+00 0.00000E+00 0.00000E+00 0.00000E+00 0.00000E+00
 -1      7217 0.00000E+00 0.00000E+00 0.00000E+00 0.00000E+00 0.00000E+00 0.00000E+00
 -1      7218 0.00000E+00 0.00000E+00 0.00000E+00 0.00000E+00 0.00000E+00 0.00000E+00
 -1      7219 0.00000E+00 0.00000E+00 0.00000E+00 0.00000E+00 0.00000E+00 0.00000E+00
 -1      7220 0.00000E+00 0.00000E+00 0.00000E+00 0.00000E+00 0.00000E+00 0.00000E+00
 -1      7221 0.00000E+00 0.00000E+00 0.00000E+00 0.00000E+00 0.00000E+00 0.00000E+00
 -1      7222 0.00000E+00 0.00000E+00 0.00000E+00 0.00000E+00 0.00000E+00 0.00000E+00
 -1      7223 0.00000E+00 0.00000E+00 0.00000E+00 0.00000E+00 0.00000E+00 0.00000E+00
 -1      7224 0.00000E+00 0.00000E+00 0.00000E+00 0.00000E+00 0.00000E+00 0.00000E+00
 -1      7225 0.00000E+00 0.00000E+00 0.00000E+00 0.00000E+00 0.00000E+00 0.00000E+00
 -1      7226 0.00000E+00 0.00000E+00 0.00000E+00 0.00000E+00 0.00000E+00 0.00000E+00
 -1      7227 0.00000E+00 0.00000E+00 0.00000E+00 0.00000E+00 0.00000E+00 0.00000E+00
 -1      7228 0.00000E+00 0.00000E+00 0.00000E+00 0.00000E+00 0.00000E+00 0.00000E+00
 -1      7229 0.00000E+00 0.00000E+00 0.00000E+00 0.00000E+00 0.00000E+00 0.00000E+00
 -1      7230 0.00000E+00 0.00000E+00 0.00000E+00 0.00000E+00 0.00000E+00 0.00000E+00
 -1      7231 0.00000E+00 0.00000E+00 0.00000E+00 0.00000E+00 0.00000E+00 0.00000E+00
 -1      7232 0.00000E+00 0.00000E+00 0.00000E+00 0.00000E+00 0.00000E+00 0.00000E+00
 -1      7233 0.00000E+00 0.00000E+00 0.00000E+00 0.00000E+00 0.00000E+00 0.00000E+00
 -1      7234 0.00000E+00 0.00000E+00 0.00000E+00 0.00000E+00 0.00000E+00 0.00000E+00
 -1      7235 0.00000E+00 0.00000E+00 0.00000E+00 0.00000E+00 0.00000E+00 0.00000E+00
 -1      7236 0.00000E+00 0.00000E+00 0.00000E+00 0.00000E+00 0.00000E+00 0.00000E+00
 -1      7237 0.00000E+00 0.00000E+00 0.00000E+00 0.00000E+00 0.00000E+00 0.00000E+00
 -1      7238 0.00000E+00 0.00000E+00 0.00000E+00 0.00000E+00 0.00000E+00 0.00000E+00
 -1      7239 0.00000E+00 0.00000E+00 0.00000E+00 0.00000E+00 0.00000E+00 0.00000E+00
 -1      7240 0.00000E+00 0.00000E+00 0.00000E+00 0.00000E+00 0.00000E+00 0.00000E+00
 -1      7241 0.00000E+00 0.00000E+00 0.00000E+00 0.00000E+00 0.00000E+00 0.00000E+00
 -1      7242 0.00000E+00 0.00000E+00 0.00000E+00 0.00000E+00 0.00000E+00 0.00000E+00
 -1      7243 0.00000E+00 0.00000E+00 0.00000E+00 0.00000E+00 0.00000E+00 0.00000E+00
 -1      7244 0.00000E+00 0.00000E+00 0.00000E+00 0.00000E+00 0.00000E+00 0.00000E+00
 -1      7245 0.00000E+00 0.00000E+00 0.00000E+00 0.00000E+00 0.00000E+00 0.00000E+00
 -1      7246 0.00000E+00 0.00000E+00 0.00000E+00 0.00000E+00 0.00000E+00 0.00000E+00
 -1      7247 0.00000E+00 0.00000E+00 0.00000E+00 0.00000E+00 0.00000E+00 0.00000E+00
 -1      7248 0.00000E+00 0.00000E+00 0.00000E+00 0.00000E+00 0.00000E+00 0.00000E+00
 -1      7249 0.00000E+00 0.00000E+00 0.00000E+00 0.00000E+00 0.00000E+00 0.00000E+00
 -1      7250 0.00000E+00 0.00000E+00 0.00000E+00 0.00000E+00 0.00000E+00 0.00000E+00
 -1      7251 0.00000E+00 0.00000E+00 0.00000E+00 0.00000E+00 0.00000E+00 0.00000E+00
 -1      7252 0.00000E+00 0.00000E+00 0.00000E+00 0.00000E+00 0.00000E+00 0.00000E+00
 -1      7253 0.00000E+00 0.00000E+00 0.00000E+00 0.00000E+00 0.00000E+00 0.00000E+00
 -1      7254 0.00000E+00 0.00000E+00 0.00000E+00 0.00000E+00 0.00000E+00 0.00000E+00
 -1      7255 0.00000E+00 0.00000E+00 0.00000E+00 0.00000E+00 0.00000E+00 0.00000E+00
 -1      7256 0.00000E+00 0.00000E+00 0.00000E+00 0.00000E+00 0.00000E+00 0.00000E+00
 -1      7257 0.00000E+00 0.00000E+00 0.00000E+00 0.00000E+00 0.00000E+00 0.00000E+00
 -1      7258 0.00000E+00 0.00000E+00 0.00000E+00 0.00000E+00 0.00000E+00 0.00000E+00
 -1      7259 0.00000E+00 0.00000E+00 0.00000E+00 0.00000E+00 0.00000E+00 0.00000E+00
 -1      7260 0.00000E+00 0.00000E+00 0.00000E+00 0.00000E+00 0.00000E+00 0.00000E+00
 -1      7261 0.00000E+00 0.00000E+00 0.00000E+00 0.00000E+00 0.00000E+00 0.00000E+00
 -1      7262 0.00000E+00 0.00000E+00 0.00000E+00 0.00000E+00 0.00000E+00 0.00000E+00
 -1      7263 0.00000E+00 0.00000E+00 0.00000E+00 0.00000E+00 0.00000E+00 0.00000E+00
 -1      7264 0.00000E+00 0.00000E+00 0.00000E+00 0.00000E+00 0.00000E+00 0.00000E+00
 -1      7265 0.00000E+00 0.00000E+00 0.00000E+00 0.00000E+00 0.00000E+00 0.00000E+00
 -1      7266 0.00000E+00 0.00000E+00 0.00000E+00 0.00000E+00 0.00000E+00 0.00000E+00
 -1      7267 0.00000E+00 0.00000E+00 0.00000E+00 0.00000E+00 0.00000E+00 0.00000E+00
 -1      7268 0.00000E+00 0.00000E+00 0.00000E+00 0.00000E+00 0.00000E+00 0.00000E+00
 -1      7269 0.00000E+00 0.00000E+00 0.00000E+00 0.00000E+00 0.00000E+00 0.00000E+00
 -1      7270 0.00000E+00 0.00000E+00 0.00000E+00 0.00000E+00 0.00000E+00 0.00000E+00
 -1      7271 0.00000E+00 0.00000E+00 0.00000E+00 0.00000E+00 0.00000E+00 0.00000E+00
 -1      7272 0.00000E+00 0.00000E+00 0.00000E+00 0.00000E+00 0.00000E+00 0.00000E+00
 -1      7273 0.00000E+00 0.00000E+00 0.00000E+00 0.00000E+00 0.00000E+00 0.00000E+00
 -1      7274 0.00000E+00 0.00000E+00 0.00000E+00 0.00000E+00 0.00000E+00 0.00000E+00
 -1      7275 0.00000E+00 0.00000E+00 0.00000E+00 0.00000E+00 0.00000E+00 0.00000E+00
 -1      7276 0.00000E+00 0.00000E+00 0.00000E+00 0.00000E+00 0.00000E+00 0.00000E+00
 -1      7277 0.00000E+00 0.00000E+00 0.00000E+00 0.00000E+00 0.00000E+00 0.00000E+00
 -1      7278 0.00000E+00 0.00000E+00 0.00000E+00 0.00000E+00 0.00000E+00 0.00000E+00
 -1      7279 0.00000E+00 0.00000E+00 0.00000E+00 0.00000E+00 0.00000E+00 0.00000E+00
 -1      7280 0.00000E+00 0.00000E+00 0.00000E+00 0.00000E+00 0.00000E+00 0.00000E+00
 -1      7281 0.00000E+00 0.00000E+00 0.00000E+00 0.00000E+00 0.00000E+00 0.00000E+00
 -1      7282 0.00000E+00 0.00000E+00 0.00000E+00 0.00000E+00 0.00000E+00 0.00000E+00
 -1      7283 0.00000E+00 0.00000E+00 0.00000E+00 0.00000E+00 0.00000E+00 0.00000E+00
 -1      7284 0.00000E+00 0.00000E+00 0.00000E+00 0.00000E+00 0.00000E+00 0.00000E+00
 -1      7285 0.00000E+00 0.00000E+00 0.00000E+00 0.00000E+00 0.00000E+00 0.00000E+00
 -1      7286 0.00000E+00 0.00000E+00 0.00000E+00 0.00000E+00 0.00000E+00 0.00000E+00
 -1      7287 0.00000E+00 0.00000E+00 0.00000E+00 0.00000E+00 0.00000E+00 0.00000E+00
 -1      7288 0.00000E+00 0.00000E+00 0.00000E+00 0.00000E+00 0.00000E+00 0.00000E+00
 -1      7289 0.00000E+00 0.00000E+00 0.00000E+00 0.00000E+00 0.00000E+00 0.00000E+00
 -1      7290 0.00000E+00 0.00000E+00 0.00000E+00 0.00000E+00 0.00000E+00 0.00000E+00
 -1      7291 0.00000E+00 0.00000E+00 0.00000E+00 0.00000E+00 0.00000E+00 0.00000E+00
 -1      7292 0.00000E+00 0.00000E+00 0.00000E+00 0.00000E+00 0.00000E+00 0.00000E+00
 -1      7293 0.00000E+00 0.00000E+00 0.00000E+00 0.00000E+00 0.00000E+00 0.00000E+00
 -1      7294 0.00000E+00 0.00000E+00 0.00000E+00 0.00000E+00 0.00000E+00 0.00000E+00
 -1      7295 0.00000E+00 0.00000E+00 0.00000E+00 0.00000E+00 0.00000E+00 0.00000E+00
 -1      7296 0.00000E+00 0.00000E+00 0.00000E+00 0.00000E+00 0.00000E+00 0.00000E+00
 -1      7297 0.00000E+00 0.00000E+00 0.00000E+00 0.00000E+00 0.00000E+00 0.00000E+00
 -1      7298 0.00000E+00 0.00000E+00 0.00000E+00 0.00000E+00 0.00000E+00 0.00000E+00
 -1      7299 0.00000E+00 0.00000E+00 0.00000E+00 0.00000E+00 0.00000E+00 0.00000E+00
 -1      7300 0.00000E+00 0.00000E+00 0.00000E+00 0.00000E+00 0.00000E+00 0.00000E+00
 -1      7301 0.00000E+00 0.00000E+00 0.00000E+00 0.00000E+00 0.00000E+00 0.00000E+00
 -1      7302 0.00000E+00 0.00000E+00 0.00000E+00 0.00000E+00 0.00000E+00 0.00000E+00
 -1      7303 0.00000E+00 0.00000E+00 0.00000E+00 0.00000E+00 0.00000E+00 0.00000E+00
 -1      7304 0.00000E+00 0.00000E+00 0.00000E+00 0.00000E+00 0.00000E+00 0.00000E+00
 -1      7305 0.00000E+00 0.00000E+00 0.00000E+00 0.00000E+00 0.00000E+00 0.00000E+00
 -1      7306 0.00000E+00 0.00000E+00 0.00000E+00 0.00000E+00 0.00000E+00 0.00000E+00
 -1      7307 0.00000E+00 0.00000E+00 0.00000E+00 0.00000E+00 0.00000E+00 0.00000E+00
 -1      7308 0.00000E+00 0.00000E+00 0.00000E+00 0.00000E+00 0.00000E+00 0.00000E+00
 -1      7309 0.00000E+00 0.00000E+00 0.00000E+00 0.00000E+00 0.00000E+00 0.00000E+00
 -1      7310 0.00000E+00 0.00000E+00 0.00000E+00 0.00000E+00 0.00000E+00 0.00000E+00
 -1      7311 0.00000E+00 0.00000E+00 0.00000E+00 0.00000E+00 0.00000E+00 0.00000E+00
 -1      7312 0.00000E+00 0.00000E+00 0.00000E+00 0.00000E+00 0.00000E+00 0.00000E+00
 -1      7313 0.00000E+00 0.00000E+00 0.00000E+00 0.00000E+00 0.00000E+00 0.00000E+00
 -1      7314 0.00000E+00 0.00000E+00 0.00000E+00 0.00000E+00 0.00000E+00 0.00000E+00
 -1      7315 0.00000E+00 0.00000E+00 0.00000E+00 0.00000E+00 0.00000E+00 0.00000E+00
 -1      7316 0.00000E+00 0.00000E+00 0.00000E+00 0.00000E+00 0.00000E+00 0.00000E+00
 -1      7317 0.00000E+00 0.00000E+00 0.00000E+00 0.00000E+00 0.00000E+00 0.00000E+00
 -1      7318 0.00000E+00 0.00000E+00 0.00000E+00 0.00000E+00 0.00000E+00 0.00000E+00
 -1      7319 0.00000E+00 0.00000E+00 0.00000E+00 0.00000E+00 0.00000E+00 0.00000E+00
 -1      7320 0.00000E+00 0.00000E+00 0.00000E+00 0.00000E+00 0.00000E+00 0.00000E+00
 -1      7321 0.00000E+00 0.00000E+00 0.00000E+00 0.00000E+00 0.00000E+00 0.00000E+00
 -1      7322 0.00000E+00 0.00000E+00 0.00000E+00 0.00000E+00 0.00000E+00 0.00000E+00
 -1      7323 0.00000E+00 0.00000E+00 0.00000E+00 0.00000E+00 0.00000E+00 0.00000E+00
 -1      7324 0.00000E+00 0.00000E+00 0.00000E+00 0.00000E+00 0.00000E+00 0.00000E+00
 -1      7325 0.00000E+00 0.00000E+00 0.00000E+00 0.00000E+00 0.00000E+00 0.00000E+00
 -1      7326 0.00000E+00 0.00000E+00 0.00000E+00 0.00000E+00 0.00000E+00 0.00000E+00
 -1      7327 0.00000E+00 0.00000E+00 0.00000E+00 0.00000E+00 0.00000E+00 0.00000E+00
 -1      7328 0.00000E+00 0.00000E+00 0.00000E+00 0.00000E+00 0.00000E+00 0.00000E+00
 -1      7329 0.00000E+00 0.00000E+00 0.00000E+00 0.00000E+00 0.00000E+00 0.00000E+00
 -1      7330 0.00000E+00 0.00000E+00 0.00000E+00 0.00000E+00 0.00000E+00 0.00000E+00
 -1      7331 0.00000E+00 0.00000E+00 0.00000E+00 0.00000E+00 0.00000E+00 0.00000E+00
 -1      7332 0.00000E+00 0.00000E+00 0.00000E+00 0.00000E+00 0.00000E+00 0.00000E+00
 -1      7333 0.00000E+00 0.00000E+00 0.00000E+00 0.00000E+00 0.00000E+00 0.00000E+00
 -1      7334 0.00000E+00 0.00000E+00 0.00000E+00 0.00000E+00 0.00000E+00 0.00000E+00
 -1      7335 0.00000E+00 0.00000E+00 0.00000E+00 0.00000E+00 0.00000E+00 0.00000E+00
 -1      7336 0.00000E+00 0.00000E+00 0.00000E+00 0.00000E+00 0.00000E+00 0.00000E+00
 -1      7337 0.00000E+00 0.00000E+00 0.00000E+00 0.00000E+00 0.00000E+00 0.00000E+00
 -1      7338 0.00000E+00 0.00000E+00 0.00000E+00 0.00000E+00 0.00000E+00 0.00000E+00
 -1      7339 0.00000E+00 0.00000E+00 0.00000E+00 0.00000E+00 0.00000E+00 0.00000E+00
 -1      7340 0.00000E+00 0.00000E+00 0.00000E+00 0.00000E+00 0.00000E+00 0.00000E+00
 -1      7341 0.00000E+00 0.00000E+00 0.00000E+00 0.00000E+00 0.00000E+00 0.00000E+00
 -1      7342 0.00000E+00 0.00000E+00 0.00000E+00 0.00000E+00 0.00000E+00 0.00000E+00
 -1      7343 0.00000E+00 0.00000E+00 0.00000E+00 0.00000E+00 0.00000E+00 0.00000E+00
 -1      7344 0.00000E+00 0.00000E+00 0.00000E+00 0.00000E+00 0.00000E+00 0.00000E+00
 -1      7345 0.00000E+00 0.00000E+00 0.00000E+00 0.00000E+00 0.00000E+00 0.00000E+00
 -1      7346 0.00000E+00 0.00000E+00 0.00000E+00 0.00000E+00 0.00000E+00 0.00000E+00
 -1      7347 0.00000E+00 0.00000E+00 0.00000E+00 0.00000E+00 0.00000E+00 0.00000E+00
 -1      7348 0.00000E+00 0.00000E+00 0.00000E+00 0.00000E+00 0.00000E+00 0.00000E+00
 -1      7349 0.00000E+00 0.00000E+00 0.00000E+00 0.00000E+00 0.00000E+00 0.00000E+00
 -1      7350 0.00000E+00 0.00000E+00 0.00000E+00 0.00000E+00 0.00000E+00 0.00000E+00
 -1      7351 0.00000E+00 0.00000E+00 0.00000E+00 0.00000E+00 0.00000E+00 0.00000E+00
 -1      7352 0.00000E+00 0.00000E+00 0.00000E+00 0.00000E+00 0.00000E+00 0.00000E+00
 -1      7353 0.00000E+00 0.00000E+00 0.00000E+00 0.00000E+00 0.00000E+00 0.00000E+00
 -1      7354 0.00000E+00 0.00000E+00 0.00000E+00 0.00000E+00 0.00000E+00 0.00000E+00
 -1      7355 0.00000E+00 0.00000E+00 0.00000E+00 0.00000E+00 0.00000E+00 0.00000E+00
 -1      7356 0.00000E+00 0.00000E+00 0.00000E+00 0.00000E+00 0.00000E+00 0.00000E+00
 -1      7357 0.00000E+00 0.00000E+00 0.00000E+00 0.00000E+00 0.00000E+00 0.00000E+00
 -1      7358 0.00000E+00 0.00000E+00 0.00000E+00 0.00000E+00 0.00000E+00 0.00000E+00
 -1      7359 0.00000E+00 0.00000E+00 0.00000E+00 0.00000E+00 0.00000E+00 0.00000E+00
 -1      7360 0.00000E+00 0.00000E+00 0.00000E+00 0.00000E+00 0.00000E+00 0.00000E+00
 -1      7361 0.00000E+00 0.00000E+00 0.00000E+00 0.00000E+00 0.00000E+00 0.00000E+00
 -1      7362 0.00000E+00 0.00000E+00 0.00000E+00 0.00000E+00 0.00000E+00 0.00000E+00
 -1      7363 0.00000E+00 0.00000E+00 0.00000E+00 0.00000E+00 0.00000E+00 0.00000E+00
 -1      7364 0.00000E+00 0.00000E+00 0.00000E+00 0.00000E+00 0.00000E+00 0.00000E+00
 -1      7365 0.00000E+00 0.00000E+00 0.00000E+00 0.00000E+00 0.00000E+00 0.00000E+00
 -1      7366 0.00000E+00 0.00000E+00 0.00000E+00 0.00000E+00 0.00000E+00 0.00000E+00
 -1      7367 0.00000E+00 0.00000E+00 0.00000E+00 0.00000E+00 0.00000E+00 0.00000E+00
 -1      7368 0.00000E+00 0.00000E+00 0.00000E+00 0.00000E+00 0.00000E+00 0.00000E+00
 -1      7369 0.00000E+00 0.00000E+00 0.00000E+00 0.00000E+00 0.00000E+00 0.00000E+00
 -1      7370 0.00000E+00 0.00000E+00 0.00000E+00 0.00000E+00 0.00000E+00 0.00000E+00
 -1      7371 0.00000E+00 0.00000E+00 0.00000E+00 0.00000E+00 0.00000E+00 0.00000E+00
 -1      7372 0.00000E+00 0.00000E+00 0.00000E+00 0.00000E+00 0.00000E+00 0.00000E+00
 -1      7373 0.00000E+00 0.00000E+00 0.00000E+00 0.00000E+00 0.00000E+00 0.00000E+00
 -1      7374 0.00000E+00 0.00000E+00 0.00000E+00 0.00000E+00 0.00000E+00 0.00000E+00
 -1      7375 0.00000E+00 0.00000E+00 0.00000E+00 0.00000E+00 0.00000E+00 0.00000E+00
 -1      7376 0.00000E+00 0.00000E+00 0.00000E+00 0.00000E+00 0.00000E+00 0.00000E+00
 -1      7377 0.00000E+00 0.00000E+00 0.00000E+00 0.00000E+00 0.00000E+00 0.00000E+00
 -1      7378 0.00000E+00 0.00000E+00 0.00000E+00 0.00000E+00 0.00000E+00 0.00000E+00
 -1      7379 0.00000E+00 0.00000E+00 0.00000E+00 0.00000E+00 0.00000E+00 0.00000E+00
 -1      7380 0.00000E+00 0.00000E+00 0.00000E+00 0.00000E+00 0.00000E+00 0.00000E+00
 -1      7381 0.00000E+00 0.00000E+00 0.00000E+00 0.00000E+00 0.00000E+00 0.00000E+00
 -1      7382 0.00000E+00 0.00000E+00 0.00000E+00 0.00000E+00 0.00000E+00 0.00000E+00
 -1      7383 0.00000E+00 0.00000E+00 0.00000E+00 0.00000E+00 0.00000E+00 0.00000E+00
 -1      7384 0.00000E+00 0.00000E+00 0.00000E+00 0.00000E+00 0.00000E+00 0.00000E+00
 -1      7385 0.00000E+00 0.00000E+00 0.00000E+00 0.00000E+00 0.00000E+00 0.00000E+00
 -1      7386 0.00000E+00 0.00000E+00 0.00000E+00 0.00000E+00 0.00000E+00 0.00000E+00
 -1      7387 0.00000E+00 0.00000E+00 0.00000E+00 0.00000E+00 0.00000E+00 0.00000E+00
 -1      7388 0.00000E+00 0.00000E+00 0.00000E+00 0.00000E+00 0.00000E+00 0.00000E+00
 -1      7389 0.00000E+00 0.00000E+00 0.00000E+00 0.00000E+00 0.00000E+00 0.00000E+00
 -1      7390 0.00000E+00 0.00000E+00 0.00000E+00 0.00000E+00 0.00000E+00 0.00000E+00
 -1      7391 0.00000E+00 0.00000E+00 0.00000E+00 0.00000E+00 0.00000E+00 0.00000E+00
 -1      7392 0.00000E+00 0.00000E+00 0.00000E+00 0.00000E+00 0.00000E+00 0.00000E+00
 -1      7393 0.00000E+00 0.00000E+00 0.00000E+00 0.00000E+00 0.00000E+00 0.00000E+00
 -1      7394 0.00000E+00 0.00000E+00 0.00000E+00 0.00000E+00 0.00000E+00 0.00000E+00
 -1      7395 0.00000E+00 0.00000E+00 0.00000E+00 0.00000E+00 0.00000E+00 0.00000E+00
 -1      7396 0.00000E+00 0.00000E+00 0.00000E+00 0.00000E+00 0.00000E+00 0.00000E+00
 -1      7397 0.00000E+00 0.00000E+00 0.00000E+00 0.00000E+00 0.00000E+00 0.00000E+00
 -1      7398 0.00000E+00 0.00000E+00 0.00000E+00 0.00000E+00 0.00000E+00 0.00000E+00
 -1      7399 0.00000E+00 0.00000E+00 0.00000E+00 0.00000E+00 0.00000E+00 0.00000E+00
 -1      7400 0.00000E+00 0.00000E+00 0.00000E+00 0.00000E+00 0.00000E+00 0.00000E+00
 -1      7401 0.00000E+00 0.00000E+00 0.00000E+00 0.00000E+00 0.00000E+00 0.00000E+00
 -1      7402 0.00000E+00 0.00000E+00 0.00000E+00 0.00000E+00 0.00000E+00 0.00000E+00
 -1      7403 0.00000E+00 0.00000E+00 0.00000E+00 0.00000E+00 0.00000E+00 0.00000E+00
 -1      7404 0.00000E+00 0.00000E+00 0.00000E+00 0.00000E+00 0.00000E+00 0.00000E+00
 -1      7405 0.00000E+00 0.00000E+00 0.00000E+00 0.00000E+00 0.00000E+00 0.00000E+00
 -1      7406 0.00000E+00 0.00000E+00 0.00000E+00 0.00000E+00 0.00000E+00 0.00000E+00
 -1      7407 0.00000E+00 0.00000E+00 0.00000E+00 0.00000E+00 0.00000E+00 0.00000E+00
 -1      7408 0.00000E+00 0.00000E+00 0.00000E+00 0.00000E+00 0.00000E+00 0.00000E+00
 -1      7409 0.00000E+00 0.00000E+00 0.00000E+00 0.00000E+00 0.00000E+00 0.00000E+00
 -1      7410 0.00000E+00 0.00000E+00 0.00000E+00 0.00000E+00 0.00000E+00 0.00000E+00
 -1      7411 0.00000E+00 0.00000E+00 0.00000E+00 0.00000E+00 0.00000E+00 0.00000E+00
 -1      7412 0.00000E+00 0.00000E+00 0.00000E+00 0.00000E+00 0.00000E+00 0.00000E+00
 -1      7413 0.00000E+00 0.00000E+00 0.00000E+00 0.00000E+00 0.00000E+00 0.00000E+00
 -1      7414 0.00000E+00 0.00000E+00 0.00000E+00 0.00000E+00 0.00000E+00 0.00000E+00
 -1      7415 0.00000E+00 0.00000E+00 0.00000E+00 0.00000E+00 0.00000E+00 0.00000E+00
 -1      7416 0.00000E+00 0.00000E+00 0.00000E+00 0.00000E+00 0.00000E+00 0.00000E+00
 -1      7417 0.00000E+00 0.00000E+00 0.00000E+00 0.00000E+00 0.00000E+00 0.00000E+00
 -1      7418 0.00000E+00 0.00000E+00 0.00000E+00 0.00000E+00 0.00000E+00 0.00000E+00
 -1      7419 0.00000E+00 0.00000E+00 0.00000E+00 0.00000E+00 0.00000E+00 0.00000E+00
 -1      7420 0.00000E+00 0.00000E+00 0.00000E+00 0.00000E+00 0.00000E+00 0.00000E+00
 -1      7421 0.00000E+00 0.00000E+00 0.00000E+00 0.00000E+00 0.00000E+00 0.00000E+00
 -1      7422 0.00000E+00 0.00000E+00 0.00000E+00 0.00000E+00 0.00000E+00 0.00000E+00
 -1      7423 0.00000E+00 0.00000E+00 0.00000E+00 0.00000E+00 0.00000E+00 0.00000E+00
 -1      7424 0.00000E+00 0.00000E+00 0.00000E+00 0.00000E+00 0.00000E+00 0.00000E+00
 -1      7425 0.00000E+00 0.00000E+00 0.00000E+00 0.00000E+00 0.00000E+00 0.00000E+00
 -1      7426 0.00000E+00 0.00000E+00 0.00000E+00 0.00000E+00 0.00000E+00 0.00000E+00
 -1      7427 0.00000E+00 0.00000E+00 0.00000E+00 0.00000E+00 0.00000E+00 0.00000E+00
 -1      7428 0.00000E+00 0.00000E+00 0.00000E+00 0.00000E+00 0.00000E+00 0.00000E+00
 -1      7429 0.00000E+00 0.00000E+00 0.00000E+00 0.00000E+00 0.00000E+00 0.00000E+00
 -1      7430 0.00000E+00 0.00000E+00 0.00000E+00 0.00000E+00 0.00000E+00 0.00000E+00
 -1      7431 0.00000E+00 0.00000E+00 0.00000E+00 0.00000E+00 0.00000E+00 0.00000E+00
 -1      7432 0.00000E+00 0.00000E+00 0.00000E+00 0.00000E+00 0.00000E+00 0.00000E+00
 -1      7433 0.00000E+00 0.00000E+00 0.00000E+00 0.00000E+00 0.00000E+00 0.00000E+00
 -1      7434 0.00000E+00 0.00000E+00 0.00000E+00 0.00000E+00 0.00000E+00 0.00000E+00
 -1      7435 0.00000E+00 0.00000E+00 0.00000E+00 0.00000E+00 0.00000E+00 0.00000E+00
 -1      7436 0.00000E+00 0.00000E+00 0.00000E+00 0.00000E+00 0.00000E+00 0.00000E+00
 -1      7437 0.00000E+00 0.00000E+00 0.00000E+00 0.00000E+00 0.00000E+00 0.00000E+00
 -1      7438 0.00000E+00 0.00000E+00 0.00000E+00 0.00000E+00 0.00000E+00 0.00000E+00
 -1      7439 0.00000E+00 0.00000E+00 0.00000E+00 0.00000E+00 0.00000E+00 0.00000E+00
 -1      7440 0.00000E+00 0.00000E+00 0.00000E+00 0.00000E+00 0.00000E+00 0.00000E+00
 -1      7441 0.00000E+00 0.00000E+00 0.00000E+00 0.00000E+00 0.00000E+00 0.00000E+00
 -1      7442 0.00000E+00 0.00000E+00 0.00000E+00 0.00000E+00 0.00000E+00 0.00000E+00
 -1      7443 0.00000E+00 0.00000E+00 0.00000E+00 0.00000E+00 0.00000E+00 0.00000E+00
 -1      7444 0.00000E+00 0.00000E+00 0.00000E+00 0.00000E+00 0.00000E+00 0.00000E+00
 -1      7445 0.00000E+00 0.00000E+00 0.00000E+00 0.00000E+00 0.00000E+00 0.00000E+00
 -1      7446 0.00000E+00 0.00000E+00 0.00000E+00 0.00000E+00 0.00000E+00 0.00000E+00
 -1      7447 0.00000E+00 0.00000E+00 0.00000E+00 0.00000E+00 0.00000E+00 0.00000E+00
 -1      7448 0.00000E+00 0.00000E+00 0.00000E+00 0.00000E+00 0.00000E+00 0.00000E+00
 -1      7449 0.00000E+00 0.00000E+00 0.00000E+00 0.00000E+00 0.00000E+00 0.00000E+00
 -1      7450 0.00000E+00 0.00000E+00 0.00000E+00 0.00000E+00 0.00000E+00 0.00000E+00
 -1      7451 0.00000E+00 0.00000E+00 0.00000E+00 0.00000E+00 0.00000E+00 0.00000E+00
 -1      7452 0.00000E+00 0.00000E+00 0.00000E+00 0.00000E+00 0.00000E+00 0.00000E+00
 -1      7453 0.00000E+00 0.00000E+00 0.00000E+00 0.00000E+00 0.00000E+00 0.00000E+00
 -1      7454 0.00000E+00 0.00000E+00 0.00000E+00 0.00000E+00 0.00000E+00 0.00000E+00
 -1      7455 0.00000E+00 0.00000E+00 0.00000E+00 0.00000E+00 0.00000E+00 0.00000E+00
 -1      7456 0.00000E+00 0.00000E+00 0.00000E+00 0.00000E+00 0.00000E+00 0.00000E+00
 -1      7457 0.00000E+00 0.00000E+00 0.00000E+00 0.00000E+00 0.00000E+00 0.00000E+00
 -1      7458 0.00000E+00 0.00000E+00 0.00000E+00 0.00000E+00 0.00000E+00 0.00000E+00
 -1      7459 0.00000E+00 0.00000E+00 0.00000E+00 0.00000E+00 0.00000E+00 0.00000E+00
 -1      7460 0.00000E+00 0.00000E+00 0.00000E+00 0.00000E+00 0.00000E+00 0.00000E+00
 -1      7461 0.00000E+00 0.00000E+00 0.00000E+00 0.00000E+00 0.00000E+00 0.00000E+00
 -1      7462 0.00000E+00 0.00000E+00 0.00000E+00 0.00000E+00 0.00000E+00 0.00000E+00
 -1      7463 0.00000E+00 0.00000E+00 0.00000E+00 0.00000E+00 0.00000E+00 0.00000E+00
 -1      7464 0.00000E+00 0.00000E+00 0.00000E+00 0.00000E+00 0.00000E+00 0.00000E+00
 -1      7465 0.00000E+00 0.00000E+00 0.00000E+00 0.00000E+00 0.00000E+00 0.00000E+00
 -1      7466 0.00000E+00 0.00000E+00 0.00000E+00 0.00000E+00 0.00000E+00 0.00000E+00
 -1      7467 0.00000E+00 0.00000E+00 0.00000E+00 0.00000E+00 0.00000E+00 0.00000E+00
 -1      7468 0.00000E+00 0.00000E+00 0.00000E+00 0.00000E+00 0.00000E+00 0.00000E+00
 -1      7469 0.00000E+00 0.00000E+00 0.00000E+00 0.00000E+00 0.00000E+00 0.00000E+00
 -1      7470 0.00000E+00 0.00000E+00 0.00000E+00 0.00000E+00 0.00000E+00 0.00000E+00
 -1      7471 0.00000E+00 0.00000E+00 0.00000E+00 0.00000E+00 0.00000E+00 0.00000E+00
 -1      7472 0.00000E+00 0.00000E+00 0.00000E+00 0.00000E+00 0.00000E+00 0.00000E+00
 -1      7473 0.00000E+00 0.00000E+00 0.00000E+00 0.00000E+00 0.00000E+00 0.00000E+00
 -1      7474 0.00000E+00 0.00000E+00 0.00000E+00 0.00000E+00 0.00000E+00 0.00000E+00
 -1      7475 0.00000E+00 0.00000E+00 0.00000E+00 0.00000E+00 0.00000E+00 0.00000E+00
 -1      7476 0.00000E+00 0.00000E+00 0.00000E+00 0.00000E+00 0.00000E+00 0.00000E+00
 -1      7477 0.00000E+00 0.00000E+00 0.00000E+00 0.00000E+00 0.00000E+00 0.00000E+00
 -1      7478 0.00000E+00 0.00000E+00 0.00000E+00 0.00000E+00 0.00000E+00 0.00000E+00
 -1      7479 0.00000E+00 0.00000E+00 0.00000E+00 0.00000E+00 0.00000E+00 0.00000E+00
 -1      7480 0.00000E+00 0.00000E+00 0.00000E+00 0.00000E+00 0.00000E+00 0.00000E+00
 -1      7481 0.00000E+00 0.00000E+00 0.00000E+00 0.00000E+00 0.00000E+00 0.00000E+00
 -1      7482 0.00000E+00 0.00000E+00 0.00000E+00 0.00000E+00 0.00000E+00 0.00000E+00
 -1      7483 0.00000E+00 0.00000E+00 0.00000E+00 0.00000E+00 0.00000E+00 0.00000E+00
 -1      7484 0.00000E+00 0.00000E+00 0.00000E+00 0.00000E+00 0.00000E+00 0.00000E+00
 -1      7485 0.00000E+00 0.00000E+00 0.00000E+00 0.00000E+00 0.00000E+00 0.00000E+00
 -1      7486 0.00000E+00 0.00000E+00 0.00000E+00 0.00000E+00 0.00000E+00 0.00000E+00
 -1      7487 0.00000E+00 0.00000E+00 0.00000E+00 0.00000E+00 0.00000E+00 0.00000E+00
 -1      7488 0.00000E+00 0.00000E+00 0.00000E+00 0.00000E+00 0.00000E+00 0.00000E+00
 -1      7489 0.00000E+00 0.00000E+00 0.00000E+00 0.00000E+00 0.00000E+00 0.00000E+00
 -1      7490 0.00000E+00 0.00000E+00 0.00000E+00 0.00000E+00 0.00000E+00 0.00000E+00
 -1      7491 0.00000E+00 0.00000E+00 0.00000E+00 0.00000E+00 0.00000E+00 0.00000E+00
 -1      7492 0.00000E+00 0.00000E+00 0.00000E+00 0.00000E+00 0.00000E+00 0.00000E+00
 -1      7493 0.00000E+00 0.00000E+00 0.00000E+00 0.00000E+00 0.00000E+00 0.00000E+00
 -1      7494 0.00000E+00 0.00000E+00 0.00000E+00 0.00000E+00 0.00000E+00 0.00000E+00
 -1      7495 0.00000E+00 0.00000E+00 0.00000E+00 0.00000E+00 0.00000E+00 0.00000E+00
 -1      7496 0.00000E+00 0.00000E+00 0.00000E+00 0.00000E+00 0.00000E+00 0.00000E+00
 -1      7497 0.00000E+00 0.00000E+00 0.00000E+00 0.00000E+00 0.00000E+00 0.00000E+00
 -1      7498 0.00000E+00 0.00000E+00 0.00000E+00 0.00000E+00 0.00000E+00 0.00000E+00
 -1      7499 0.00000E+00 0.00000E+00 0.00000E+00 0.00000E+00 0.00000E+00 0.00000E+00
 -1      7500 0.00000E+00 0.00000E+00 0.00000E+00 0.00000E+00 0.00000E+00 0.00000E+00
 -1      7501 0.00000E+00 0.00000E+00 0.00000E+00 0.00000E+00 0.00000E+00 0.00000E+00
 -1      7502 0.00000E+00 0.00000E+00 0.00000E+00 0.00000E+00 0.00000E+00 0.00000E+00
 -1      7503 0.00000E+00 0.00000E+00 0.00000E+00 0.00000E+00 0.00000E+00 0.00000E+00
 -1      7504 0.00000E+00 0.00000E+00 0.00000E+00 0.00000E+00 0.00000E+00 0.00000E+00
 -1      7505 0.00000E+00 0.00000E+00 0.00000E+00 0.00000E+00 0.00000E+00 0.00000E+00
 -1      7506 0.00000E+00 0.00000E+00 0.00000E+00 0.00000E+00 0.00000E+00 0.00000E+00
 -1      7507 0.00000E+00 0.00000E+00 0.00000E+00 0.00000E+00 0.00000E+00 0.00000E+00
 -1      7508 0.00000E+00 0.00000E+00 0.00000E+00 0.00000E+00 0.00000E+00 0.00000E+00
 -1      7509 0.00000E+00 0.00000E+00 0.00000E+00 0.00000E+00 0.00000E+00 0.00000E+00
 -1      7510 0.00000E+00 0.00000E+00 0.00000E+00 0.00000E+00 0.00000E+00 0.00000E+00
 -1      7511 0.00000E+00 0.00000E+00 0.00000E+00 0.00000E+00 0.00000E+00 0.00000E+00
 -1      7512 0.00000E+00 0.00000E+00 0.00000E+00 0.00000E+00 0.00000E+00 0.00000E+00
 -1      7513 0.00000E+00 0.00000E+00 0.00000E+00 0.00000E+00 0.00000E+00 0.00000E+00
 -1      7514 0.00000E+00 0.00000E+00 0.00000E+00 0.00000E+00 0.00000E+00 0.00000E+00
 -1      7515 0.00000E+00 0.00000E+00 0.00000E+00 0.00000E+00 0.00000E+00 0.00000E+00
 -1      7516 0.00000E+00 0.00000E+00 0.00000E+00 0.00000E+00 0.00000E+00 0.00000E+00
 -1      7517 0.00000E+00 0.00000E+00 0.00000E+00 0.00000E+00 0.00000E+00 0.00000E+00
 -1      7518 0.00000E+00 0.00000E+00 0.00000E+00 0.00000E+00 0.00000E+00 0.00000E+00
 -1      7519 0.00000E+00 0.00000E+00 0.00000E+00 0.00000E+00 0.00000E+00 0.00000E+00
 -1      7520 0.00000E+00 0.00000E+00 0.00000E+00 0.00000E+00 0.00000E+00 0.00000E+00
 -1      7521 0.00000E+00 0.00000E+00 0.00000E+00 0.00000E+00 0.00000E+00 0.00000E+00
 -1      7522 0.00000E+00 0.00000E+00 0.00000E+00 0.00000E+00 0.00000E+00 0.00000E+00
 -1      7523 0.00000E+00 0.00000E+00 0.00000E+00 0.00000E+00 0.00000E+00 0.00000E+00
 -1      7524 0.00000E+00 0.00000E+00 0.00000E+00 0.00000E+00 0.00000E+00 0.00000E+00
 -1      7525 0.00000E+00 0.00000E+00 0.00000E+00 0.00000E+00 0.00000E+00 0.00000E+00
 -1      7526 0.00000E+00 0.00000E+00 0.00000E+00 0.00000E+00 0.00000E+00 0.00000E+00
 -1      7527 0.00000E+00 0.00000E+00 0.00000E+00 0.00000E+00 0.00000E+00 0.00000E+00
 -1      7528 0.00000E+00 0.00000E+00 0.00000E+00 0.00000E+00 0.00000E+00 0.00000E+00
 -1      7529 0.00000E+00 0.00000E+00 0.00000E+00 0.00000E+00 0.00000E+00 0.00000E+00
 -1      7530 0.00000E+00 0.00000E+00 0.00000E+00 0.00000E+00 0.00000E+00 0.00000E+00
 -1      7531 0.00000E+00 0.00000E+00 0.00000E+00 0.00000E+00 0.00000E+00 0.00000E+00
 -1      7532 0.00000E+00 0.00000E+00 0.00000E+00 0.00000E+00 0.00000E+00 0.00000E+00
 -3
    1PSTEP                         5           1           1          
  100CL  101 1.000000000        7532                     0    1           1
 -4  ERROR       1    1
 -5  STR(%)      1    1    0    0
 -1         1 0.00000E+00
 -1         2 0.00000E+00
 -1         3 0.00000E+00
 -1         4 0.00000E+00
 -1         5 0.00000E+00
 -1         6 0.00000E+00
 -1         7 0.00000E+00
 -1         8 0.00000E+00
 -1         9 0.00000E+00
 -1        10 0.00000E+00
 -1        11 0.00000E+00
 -1        12 0.00000E+00
 -1        13 0.00000E+00
 -1        14 0.00000E+00
 -1        15 0.00000E+00
 -1        16 0.00000E+00
 -1        17 0.00000E+00
 -1        18 0.00000E+00
 -1        19 0.00000E+00
 -1        20 0.00000E+00
 -1        21 0.00000E+00
 -1        22 0.00000E+00
 -1        23 0.00000E+00
 -1        24 0.00000E+00
 -1        25 0.00000E+00
 -1        26 0.00000E+00
 -1        27 0.00000E+00
 -1        28 0.00000E+00
 -1        29 0.00000E+00
 -1        30 0.00000E+00
 -1        31 0.00000E+00
 -1        32 0.00000E+00
 -1        33 0.00000E+00
 -1        34 0.00000E+00
 -1        35 0.00000E+00
 -1        36 0.00000E+00
 -1        37 0.00000E+00
 -1        38 0.00000E+00
 -1        39 0.00000E+00
 -1        40 0.00000E+00
 -1        41 0.00000E+00
 -1        42 0.00000E+00
 -1        43 0.00000E+00
 -1        44 0.00000E+00
 -1        45 0.00000E+00
 -1        46 0.00000E+00
 -1        47 0.00000E+00
 -1        48 0.00000E+00
 -1        49 0.00000E+00
 -1        50 0.00000E+00
 -1        51 0.00000E+00
 -1        52 0.00000E+00
 -1        53 0.00000E+00
 -1        54 0.00000E+00
 -1        55 0.00000E+00
 -1        56 0.00000E+00
 -1        57 0.00000E+00
 -1        58 0.00000E+00
 -1        59 0.00000E+00
 -1        60 0.00000E+00
 -1        61 0.00000E+00
 -1        62 0.00000E+00
 -1        63 0.00000E+00
 -1        64 0.00000E+00
 -1        65 0.00000E+00
 -1        66 0.00000E+00
 -1        67 0.00000E+00
 -1        68 0.00000E+00
 -1        69 0.00000E+00
 -1        70 0.00000E+00
 -1        71 0.00000E+00
 -1        72 0.00000E+00
 -1        73 0.00000E+00
 -1        74 0.00000E+00
 -1        75 0.00000E+00
 -1        76 0.00000E+00
 -1        77 0.00000E+00
 -1        78 0.00000E+00
 -1        79 0.00000E+00
 -1        80 0.00000E+00
 -1        81 0.00000E+00
 -1        82 0.00000E+00
 -1        83 0.00000E+00
 -1        84 0.00000E+00
 -1        85 0.00000E+00
 -1        86 0.00000E+00
 -1        87 0.00000E+00
 -1        88 0.00000E+00
 -1        89 0.00000E+00
 -1        90 0.00000E+00
 -1        91 0.00000E+00
 -1        92 0.00000E+00
 -1        93 0.00000E+00
 -1        94 0.00000E+00
 -1        95 0.00000E+00
 -1        96 0.00000E+00
 -1        97 0.00000E+00
 -1        98 0.00000E+00
 -1        99 0.00000E+00
 -1       100 0.00000E+00
 -1       101 0.00000E+00
 -1       102 0.00000E+00
 -1       103 0.00000E+00
 -1       104 0.00000E+00
 -1       105 0.00000E+00
 -1       106 0.00000E+00
 -1       107 0.00000E+00
 -1       108 0.00000E+00
 -1       109 0.00000E+00
 -1       110 0.00000E+00
 -1       111 0.00000E+00
 -1       112 0.00000E+00
 -1       113 0.00000E+00
 -1       114 0.00000E+00
 -1       115 0.00000E+00
 -1       116 0.00000E+00
 -1       117 0.00000E+00
 -1       118 0.00000E+00
 -1       119 0.00000E+00
 -1       120 0.00000E+00
 -1       121 0.00000E+00
 -1       122 0.00000E+00
 -1       123 0.00000E+00
 -1       124 0.00000E+00
 -1       125 0.00000E+00
 -1       126 0.00000E+00
 -1       127 0.00000E+00
 -1       128 0.00000E+00
 -1       129 0.00000E+00
 -1       130 0.00000E+00
 -1       131 0.00000E+00
 -1       132 0.00000E+00
 -1       133 0.00000E+00
 -1       134 0.00000E+00
 -1       135 0.00000E+00
 -1       136 0.00000E+00
 -1       137 0.00000E+00
 -1       138 0.00000E+00
 -1       139 0.00000E+00
 -1       140 0.00000E+00
 -1       141 0.00000E+00
 -1       142 0.00000E+00
 -1       143 0.00000E+00
 -1       144 0.00000E+00
 -1       145 0.00000E+00
 -1       146 0.00000E+00
 -1       147 0.00000E+00
 -1       148 0.00000E+00
 -1       149 0.00000E+00
 -1       150 0.00000E+00
 -1       151 0.00000E+00
 -1       152 0.00000E+00
 -1       153 0.00000E+00
 -1       154 0.00000E+00
 -1       155 0.00000E+00
 -1       156 0.00000E+00
 -1       157 0.00000E+00
 -1       158 0.00000E+00
 -1       159 0.00000E+00
 -1       160 0.00000E+00
 -1       161 0.00000E+00
 -1       162 0.00000E+00
 -1       163 0.00000E+00
 -1       164 0.00000E+00
 -1       165 0.00000E+00
 -1       166 0.00000E+00
 -1       167 0.00000E+00
 -1       168 0.00000E+00
 -1       169 0.00000E+00
 -1       170 0.00000E+00
 -1       171 0.00000E+00
 -1       172 0.00000E+00
 -1       173 0.00000E+00
 -1       174 0.00000E+00
 -1       175 0.00000E+00
 -1       176 0.00000E+00
 -1       177 0.00000E+00
 -1       178 0.00000E+00
 -1       179 0.00000E+00
 -1       180 0.00000E+00
 -1       181 0.00000E+00
 -1       182 0.00000E+00
 -1       183 0.00000E+00
 -1       184 0.00000E+00
 -1       185 0.00000E+00
 -1       186 0.00000E+00
 -1       187 0.00000E+00
 -1       188 0.00000E+00
 -1       189 0.00000E+00
 -1       190 0.00000E+00
 -1       191 0.00000E+00
 -1       192 0.00000E+00
 -1       193 0.00000E+00
 -1       194 0.00000E+00
 -1       195 0.00000E+00
 -1       196 0.00000E+00
 -1       197 0.00000E+00
 -1       198 0.00000E+00
 -1       199 0.00000E+00
 -1       200 0.00000E+00
 -1       201 0.00000E+00
 -1       202 0.00000E+00
 -1       203 0.00000E+00
 -1       204 0.00000E+00
 -1       205 0.00000E+00
 -1       206 0.00000E+00
 -1       207 0.00000E+00
 -1       208 0.00000E+00
 -1       209 0.00000E+00
 -1       210 0.00000E+00
 -1       211 0.00000E+00
 -1       212 0.00000E+00
 -1       213 0.00000E+00
 -1       214 0.00000E+00
 -1       215 0.00000E+00
 -1       216 0.00000E+00
 -1       217 0.00000E+00
 -1       218 0.00000E+00
 -1       219 0.00000E+00
 -1       220 0.00000E+00
 -1       221 0.00000E+00
 -1       222 0.00000E+00
 -1       223 0.00000E+00
 -1       224 0.00000E+00
 -1       225 0.00000E+00
 -1       226 0.00000E+00
 -1       227 0.00000E+00
 -1       228 0.00000E+00
 -1       229 0.00000E+00
 -1       230 0.00000E+00
 -1       231 0.00000E+00
 -1       232 0.00000E+00
 -1       233 0.00000E+00
 -1       234 0.00000E+00
 -1       235 0.00000E+00
 -1       236 0.00000E+00
 -1       237 0.00000E+00
 -1       238 0.00000E+00
 -1       239 0.00000E+00
 -1       240 0.00000E+00
 -1       241 0.00000E+00
 -1       242 0.00000E+00
 -1       243 0.00000E+00
 -1       244 0.00000E+00
 -1       245 0.00000E+00
 -1       246 0.00000E+00
 -1       247 0.00000E+00
 -1       248 0.00000E+00
 -1       249 0.00000E+00
 -1       250 0.00000E+00
 -1       251 0.00000E+00
 -1       252 0.00000E+00
 -1       253 0.00000E+00
 -1       254 0.00000E+00
 -1       255 0.00000E+00
 -1       256 0.00000E+00
 -1       257 0.00000E+00
 -1       258 0.00000E+00
 -1       259 0.00000E+00
 -1       260 0.00000E+00
 -1       261 0.00000E+00
 -1       262 0.00000E+00
 -1       263 0.00000E+00
 -1       264 0.00000E+00
 -1       265 0.00000E+00
 -1       266 0.00000E+00
 -1       267 0.00000E+00
 -1       268 0.00000E+00
 -1       269 0.00000E+00
 -1       270 0.00000E+00
 -1       271 0.00000E+00
 -1       272 0.00000E+00
 -1       273 0.00000E+00
 -1       274 0.00000E+00
 -1       275 0.00000E+00
 -1       276 0.00000E+00
 -1       277 0.00000E+00
 -1       278 0.00000E+00
 -1       279 0.00000E+00
 -1       280 0.00000E+00
 -1       281 0.00000E+00
 -1       282 0.00000E+00
 -1       283 0.00000E+00
 -1       284 0.00000E+00
 -1       285 0.00000E+00
 -1       286 0.00000E+00
 -1       287 0.00000E+00
 -1       288 0.00000E+00
 -1       289 0.00000E+00
 -1       290 0.00000E+00
 -1       291 0.00000E+00
 -1       292 0.00000E+00
 -1       293 0.00000E+00
 -1       294 0.00000E+00
 -1       295 0.00000E+00
 -1       296 0.00000E+00
 -1       297 0.00000E+00
 -1       298 0.00000E+00
 -1       299 0.00000E+00
 -1       300 0.00000E+00
 -1       301 0.00000E+00
 -1       302 0.00000E+00
 -1       303 0.00000E+00
 -1       304 0.00000E+00
 -1       305 0.00000E+00
 -1       306 0.00000E+00
 -1       307 0.00000E+00
 -1       308 0.00000E+00
 -1       309 0.00000E+00
 -1       310 0.00000E+00
 -1       311 0.00000E+00
 -1       312 0.00000E+00
 -1       313 0.00000E+00
 -1       314 0.00000E+00
 -1       315 0.00000E+00
 -1       316 0.00000E+00
 -1       317 0.00000E+00
 -1       318 0.00000E+00
 -1       319 0.00000E+00
 -1       320 0.00000E+00
 -1       321 0.00000E+00
 -1       322 0.00000E+00
 -1       323 0.00000E+00
 -1       324 0.00000E+00
 -1       325 0.00000E+00
 -1       326 0.00000E+00
 -1       327 0.00000E+00
 -1       328 0.00000E+00
 -1       329 0.00000E+00
 -1       330 0.00000E+00
 -1       331 0.00000E+00
 -1       332 0.00000E+00
 -1       333 0.00000E+00
 -1       334 0.00000E+00
 -1       335 0.00000E+00
 -1       336 0.00000E+00
 -1       337 0.00000E+00
 -1       338 0.00000E+00
 -1       339 0.00000E+00
 -1       340 0.00000E+00
 -1       341 0.00000E+00
 -1       342 0.00000E+00
 -1       343 0.00000E+00
 -1       344 0.00000E+00
 -1       345 0.00000E+00
 -1       346 0.00000E+00
 -1       347 0.00000E+00
 -1       348 0.00000E+00
 -1       349 0.00000E+00
 -1       350 0.00000E+00
 -1       351 0.00000E+00
 -1       352 0.00000E+00
 -1       353 0.00000E+00
 -1       354 0.00000E+00
 -1       355 0.00000E+00
 -1       356 0.00000E+00
 -1       357 0.00000E+00
 -1       358 0.00000E+00
 -1       359 0.00000E+00
 -1       360 0.00000E+00
 -1       361 0.00000E+00
 -1       362 0.00000E+00
 -1       363 0.00000E+00
 -1       364 0.00000E+00
 -1       365 0.00000E+00
 -1       366 0.00000E+00
 -1       367 0.00000E+00
 -1       368 0.00000E+00
 -1       369 0.00000E+00
 -1       370 0.00000E+00
 -1       371 0.00000E+00
 -1       372 0.00000E+00
 -1       373 0.00000E+00
 -1       374 0.00000E+00
 -1       375 0.00000E+00
 -1       376 0.00000E+00
 -1       377 0.00000E+00
 -1       378 0.00000E+00
 -1       379 0.00000E+00
 -1       380 0.00000E+00
 -1       381 0.00000E+00
 -1       382 0.00000E+00
 -1       383 0.00000E+00
 -1       384 0.00000E+00
 -1       385 0.00000E+00
 -1       386 0.00000E+00
 -1       387 0.00000E+00
 -1       388 0.00000E+00
 -1       389 0.00000E+00
 -1       390 0.00000E+00
 -1       391 0.00000E+00
 -1       392 0.00000E+00
 -1       393 0.00000E+00
 -1       394 0.00000E+00
 -1       395 0.00000E+00
 -1       396 0.00000E+00
 -1       397 0.00000E+00
 -1       398 0.00000E+00
 -1       399 0.00000E+00
 -1       400 0.00000E+00
 -1       401 0.00000E+00
 -1       402 0.00000E+00
 -1       403 0.00000E+00
 -1       404 0.00000E+00
 -1       405 0.00000E+00
 -1       406 0.00000E+00
 -1       407 0.00000E+00
 -1       408 0.00000E+00
 -1       409 0.00000E+00
 -1       410 0.00000E+00
 -1       411 0.00000E+00
 -1       412 0.00000E+00
 -1       413 0.00000E+00
 -1       414 0.00000E+00
 -1       415 0.00000E+00
 -1       416 0.00000E+00
 -1       417 0.00000E+00
 -1       418 0.00000E+00
 -1       419 0.00000E+00
 -1       420 0.00000E+00
 -1       421 0.00000E+00
 -1       422 0.00000E+00
 -1       423 0.00000E+00
 -1       424 0.00000E+00
 -1       425 0.00000E+00
 -1       426 0.00000E+00
 -1       427 0.00000E+00
 -1       428 0.00000E+00
 -1       429 0.00000E+00
 -1       430 0.00000E+00
 -1       431 0.00000E+00
 -1       432 0.00000E+00
 -1       433 0.00000E+00
 -1       434 0.00000E+00
 -1       435 0.00000E+00
 -1       436 0.00000E+00
 -1       437 0.00000E+00
 -1       438 0.00000E+00
 -1       439 0.00000E+00
 -1       440 0.00000E+00
 -1       441 0.00000E+00
 -1       442 0.00000E+00
 -1       443 0.00000E+00
 -1       444 0.00000E+00
 -1       445 0.00000E+00
 -1       446 0.00000E+00
 -1       447 0.00000E+00
 -1       448 0.00000E+00
 -1       449 0.00000E+00
 -1       450 0.00000E+00
 -1       451 0.00000E+00
 -1       452 0.00000E+00
 -1       453 0.00000E+00
 -1       454 0.00000E+00
 -1       455 0.00000E+00
 -1       456 0.00000E+00
 -1       457 0.00000E+00
 -1       458 0.00000E+00
 -1       459 0.00000E+00
 -1       460 0.00000E+00
 -1       461 0.00000E+00
 -1       462 0.00000E+00
 -1       463 0.00000E+00
 -1       464 0.00000E+00
 -1       465 0.00000E+00
 -1       466 0.00000E+00
 -1       467 0.00000E+00
 -1       468 0.00000E+00
 -1       469 0.00000E+00
 -1       470 0.00000E+00
 -1       471 0.00000E+00
 -1       472 0.00000E+00
 -1       473 0.00000E+00
 -1       474 0.00000E+00
 -1       475 0.00000E+00
 -1       476 0.00000E+00
 -1       477 0.00000E+00
 -1       478 0.00000E+00
 -1       479 0.00000E+00
 -1       480 0.00000E+00
 -1       481 0.00000E+00
 -1       482 0.00000E+00
 -1       483 0.00000E+00
 -1       484 0.00000E+00
 -1       485 0.00000E+00
 -1       486 0.00000E+00
 -1       487 0.00000E+00
 -1       488 0.00000E+00
 -1       489 0.00000E+00
 -1       490 0.00000E+00
 -1       491 0.00000E+00
 -1       492 0.00000E+00
 -1       493 0.00000E+00
 -1       494 0.00000E+00
 -1       495 0.00000E+00
 -1       496 0.00000E+00
 -1       497 0.00000E+00
 -1       498 0.00000E+00
 -1       499 0.00000E+00
 -1       500 0.00000E+00
 -1       501 0.00000E+00
 -1       502 0.00000E+00
 -1       503 0.00000E+00
 -1       504 0.00000E+00
 -1       505 0.00000E+00
 -1       506 0.00000E+00
 -1       507 0.00000E+00
 -1       508 0.00000E+00
 -1       509 0.00000E+00
 -1       510 0.00000E+00
 -1       511 0.00000E+00
 -1       512 0.00000E+00
 -1       513 0.00000E+00
 -1       514 0.00000E+00
 -1       515 0.00000E+00
 -1       516 0.00000E+00
 -1       517 0.00000E+00
 -1       518 0.00000E+00
 -1       519 0.00000E+00
 -1       520 0.00000E+00
 -1       521 0.00000E+00
 -1       522 0.00000E+00
 -1       523 0.00000E+00
 -1       524 0.00000E+00
 -1       525 0.00000E+00
 -1       526 0.00000E+00
 -1       527 0.00000E+00
 -1       528 0.00000E+00
 -1       529 0.00000E+00
 -1       530 0.00000E+00
 -1       531 0.00000E+00
 -1       532 0.00000E+00
 -1       533 0.00000E+00
 -1       534 0.00000E+00
 -1       535 0.00000E+00
 -1       536 0.00000E+00
 -1       537 0.00000E+00
 -1       538 0.00000E+00
 -1       539 0.00000E+00
 -1       540 0.00000E+00
 -1       541 0.00000E+00
 -1       542 0.00000E+00
 -1       543 0.00000E+00
 -1       544 0.00000E+00
 -1       545 0.00000E+00
 -1       546 0.00000E+00
 -1       547 0.00000E+00
 -1       548 0.00000E+00
 -1       549 0.00000E+00
 -1       550 0.00000E+00
 -1       551 0.00000E+00
 -1       552 0.00000E+00
 -1       553 0.00000E+00
 -1       554 0.00000E+00
 -1       555 0.00000E+00
 -1       556 0.00000E+00
 -1       557 0.00000E+00
 -1       558 0.00000E+00
 -1       559 0.00000E+00
 -1       560 0.00000E+00
 -1       561 0.00000E+00
 -1       562 0.00000E+00
 -1       563 0.00000E+00
 -1       564 0.00000E+00
 -1       565 0.00000E+00
 -1       566 0.00000E+00
 -1       567 0.00000E+00
 -1       568 0.00000E+00
 -1       569 0.00000E+00
 -1       570 0.00000E+00
 -1       571 0.00000E+00
 -1       572 0.00000E+00
 -1       573 0.00000E+00
 -1       574 0.00000E+00
 -1       575 0.00000E+00
 -1       576 0.00000E+00
 -1       577 0.00000E+00
 -1       578 0.00000E+00
 -1       579 0.00000E+00
 -1       580 0.00000E+00
 -1       581 0.00000E+00
 -1       582 0.00000E+00
 -1       583 0.00000E+00
 -1       584 0.00000E+00
 -1       585 0.00000E+00
 -1       586 0.00000E+00
 -1       587 0.00000E+00
 -1       588 0.00000E+00
 -1       589 0.00000E+00
 -1       590 0.00000E+00
 -1       591 0.00000E+00
 -1       592 0.00000E+00
 -1       593 0.00000E+00
 -1       594 0.00000E+00
 -1       595 0.00000E+00
 -1       596 0.00000E+00
 -1       597 0.00000E+00
 -1       598 0.00000E+00
 -1       599 0.00000E+00
 -1       600 0.00000E+00
 -1       601 0.00000E+00
 -1       602 0.00000E+00
 -1       603 0.00000E+00
 -1       604 0.00000E+00
 -1       605 0.00000E+00
 -1       606 0.00000E+00
 -1       607 0.00000E+00
 -1       608 0.00000E+00
 -1       609 0.00000E+00
 -1       610 0.00000E+00
 -1       611 0.00000E+00
 -1       612 0.00000E+00
 -1       613 0.00000E+00
 -1       614 0.00000E+00
 -1       615 0.00000E+00
 -1       616 0.00000E+00
 -1       617 0.00000E+00
 -1       618 0.00000E+00
 -1       619 0.00000E+00
 -1       620 0.00000E+00
 -1       621 0.00000E+00
 -1       622 0.00000E+00
 -1       623 0.00000E+00
 -1       624 0.00000E+00
 -1       625 0.00000E+00
 -1       626 0.00000E+00
 -1       627 0.00000E+00
 -1       628 0.00000E+00
 -1       629 0.00000E+00
 -1       630 0.00000E+00
 -1       631 0.00000E+00
 -1       632 0.00000E+00
 -1       633 0.00000E+00
 -1       634 0.00000E+00
 -1       635 0.00000E+00
 -1       636 0.00000E+00
 -1       637 0.00000E+00
 -1       638 0.00000E+00
 -1       639 0.00000E+00
 -1       640 0.00000E+00
 -1       641 0.00000E+00
 -1       642 0.00000E+00
 -1       643 0.00000E+00
 -1       644 0.00000E+00
 -1       645 0.00000E+00
 -1       646 0.00000E+00
 -1       647 0.00000E+00
 -1       648 0.00000E+00
 -1       649 0.00000E+00
 -1       650 0.00000E+00
 -1       651 0.00000E+00
 -1       652 0.00000E+00
 -1       653 0.00000E+00
 -1       654 0.00000E+00
 -1       655 0.00000E+00
 -1       656 0.00000E+00
 -1       657 0.00000E+00
 -1       658 0.00000E+00
 -1       659 0.00000E+00
 -1       660 0.00000E+00
 -1       661 0.00000E+00
 -1       662 0.00000E+00
 -1       663 0.00000E+00
 -1       664 0.00000E+00
 -1       665 0.00000E+00
 -1       666 0.00000E+00
 -1       667 0.00000E+00
 -1       668 0.00000E+00
 -1       669 0.00000E+00
 -1       670 0.00000E+00
 -1       671 0.00000E+00
 -1       672 0.00000E+00
 -1       673 0.00000E+00
 -1       674 0.00000E+00
 -1       675 0.00000E+00
 -1       676 0.00000E+00
 -1       677 0.00000E+00
 -1       678 0.00000E+00
 -1       679 0.00000E+00
 -1       680 0.00000E+00
 -1       681 0.00000E+00
 -1       682 0.00000E+00
 -1       683 0.00000E+00
 -1       684 0.00000E+00
 -1       685 0.00000E+00
 -1       686 0.00000E+00
 -1       687 0.00000E+00
 -1       688 0.00000E+00
 -1       689 0.00000E+00
 -1       690 0.00000E+00
 -1       691 0.00000E+00
 -1       692 0.00000E+00
 -1       693 0.00000E+00
 -1       694 0.00000E+00
 -1       695 0.00000E+00
 -1       696 0.00000E+00
 -1       697 0.00000E+00
 -1       698 0.00000E+00
 -1       699 0.00000E+00
 -1       700 0.00000E+00
 -1       701 0.00000E+00
 -1       702 0.00000E+00
 -1       703 0.00000E+00
 -1       704 0.00000E+00
 -1       705 0.00000E+00
 -1       706 0.00000E+00
 -1       707 0.00000E+00
 -1       708 0.00000E+00
 -1       709 0.00000E+00
 -1       710 0.00000E+00
 -1       711 0.00000E+00
 -1       712 0.00000E+00
 -1       713 0.00000E+00
 -1       714 0.00000E+00
 -1       715 0.00000E+00
 -1       716 0.00000E+00
 -1       717 0.00000E+00
 -1       718 0.00000E+00
 -1       719 0.00000E+00
 -1       720 0.00000E+00
 -1       721 0.00000E+00
 -1       722 0.00000E+00
 -1       723 0.00000E+00
 -1       724 0.00000E+00
 -1       725 0.00000E+00
 -1       726 0.00000E+00
 -1       727 0.00000E+00
 -1       728 0.00000E+00
 -1       729 0.00000E+00
 -1       730 0.00000E+00
 -1       731 0.00000E+00
 -1       732 0.00000E+00
 -1       733 0.00000E+00
 -1       734 0.00000E+00
 -1       735 0.00000E+00
 -1       736 0.00000E+00
 -1       737 0.00000E+00
 -1       738 0.00000E+00
 -1       739 0.00000E+00
 -1       740 0.00000E+00
 -1       741 0.00000E+00
 -1       742 0.00000E+00
 -1       743 0.00000E+00
 -1       744 0.00000E+00
 -1       745 0.00000E+00
 -1       746 0.00000E+00
 -1       747 0.00000E+00
 -1       748 0.00000E+00
 -1       749 0.00000E+00
 -1       750 0.00000E+00
 -1       751 0.00000E+00
 -1       752 0.00000E+00
 -1       753 0.00000E+00
 -1       754 0.00000E+00
 -1       755 0.00000E+00
 -1       756 0.00000E+00
 -1       757 0.00000E+00
 -1       758 0.00000E+00
 -1       759 0.00000E+00
 -1       760 0.00000E+00
 -1       761 0.00000E+00
 -1       762 0.00000E+00
 -1       763 0.00000E+00
 -1       764 0.00000E+00
 -1       765 0.00000E+00
 -1       766 0.00000E+00
 -1       767 0.00000E+00
 -1       768 0.00000E+00
 -1       769 0.00000E+00
 -1       770 0.00000E+00
 -1       771 0.00000E+00
 -1       772 0.00000E+00
 -1       773 0.00000E+00
 -1       774 0.00000E+00
 -1       775 0.00000E+00
 -1       776 0.00000E+00
 -1       777 0.00000E+00
 -1       778 0.00000E+00
 -1       779 0.00000E+00
 -1       780 0.00000E+00
 -1       781 0.00000E+00
 -1       782 0.00000E+00
 -1       783 0.00000E+00
 -1       784 0.00000E+00
 -1       785 0.00000E+00
 -1       786 0.00000E+00
 -1       787 0.00000E+00
 -1       788 0.00000E+00
 -1       789 0.00000E+00
 -1       790 0.00000E+00
 -1       791 0.00000E+00
 -1       792 0.00000E+00
 -1       793 0.00000E+00
 -1       794 0.00000E+00
 -1       795 0.00000E+00
 -1       796 0.00000E+00
 -1       797 0.00000E+00
 -1       798 0.00000E+00
 -1       799 0.00000E+00
 -1       800 0.00000E+00
 -1       801 0.00000E+00
 -1       802 0.00000E+00
 -1       803 0.00000E+00
 -1       804 0.00000E+00
 -1       805 0.00000E+00
 -1       806 0.00000E+00
 -1       807 0.00000E+00
 -1       808 0.00000E+00
 -1       809 0.00000E+00
 -1       810 0.00000E+00
 -1       811 0.00000E+00
 -1       812 0.00000E+00
 -1       813 0.00000E+00
 -1       814 0.00000E+00
 -1       815 0.00000E+00
 -1       816 0.00000E+00
 -1       817 0.00000E+00
 -1       818 0.00000E+00
 -1       819 0.00000E+00
 -1       820 0.00000E+00
 -1       821 0.00000E+00
 -1       822 0.00000E+00
 -1       823 0.00000E+00
 -1       824 0.00000E+00
 -1       825 0.00000E+00
 -1       826 0.00000E+00
 -1       827 0.00000E+00
 -1       828 0.00000E+00
 -1       829 0.00000E+00
 -1       830 0.00000E+00
 -1       831 0.00000E+00
 -1       832 0.00000E+00
 -1       833 0.00000E+00
 -1       834 0.00000E+00
 -1       835 0.00000E+00
 -1       836 0.00000E+00
 -1       837 0.00000E+00
 -1       838 0.00000E+00
 -1       839 0.00000E+00
 -1       840 0.00000E+00
 -1       841 0.00000E+00
 -1       842 0.00000E+00
 -1       843 0.00000E+00
 -1       844 0.00000E+00
 -1       845 0.00000E+00
 -1       846 0.00000E+00
 -1       847 0.00000E+00
 -1       848 0.00000E+00
 -1       849 0.00000E+00
 -1       850 0.00000E+00
 -1       851 0.00000E+00
 -1       852 0.00000E+00
 -1       853 0.00000E+00
 -1       854 0.00000E+00
 -1       855 0.00000E+00
 -1       856 0.00000E+00
 -1       857 0.00000E+00
 -1       858 0.00000E+00
 -1       859 0.00000E+00
 -1       860 0.00000E+00
 -1       861 0.00000E+00
 -1       862 0.00000E+00
 -1       863 0.00000E+00
 -1       864 0.00000E+00
 -1       865 0.00000E+00
 -1       866 0.00000E+00
 -1       867 0.00000E+00
 -1       868 0.00000E+00
 -1       869 0.00000E+00
 -1       870 0.00000E+00
 -1       871 0.00000E+00
 -1       872 0.00000E+00
 -1       873 0.00000E+00
 -1       874 0.00000E+00
 -1       875 0.00000E+00
 -1       876 0.00000E+00
 -1       877 0.00000E+00
 -1       878 0.00000E+00
 -1       879 0.00000E+00
 -1       880 0.00000E+00
 -1       881 0.00000E+00
 -1       882 0.00000E+00
 -1       883 0.00000E+00
 -1       884 0.00000E+00
 -1       885 0.00000E+00
 -1       886 0.00000E+00
 -1       887 0.00000E+00
 -1       888 0.00000E+00
 -1       889 0.00000E+00
 -1       890 0.00000E+00
 -1       891 0.00000E+00
 -1       892 0.00000E+00
 -1       893 0.00000E+00
 -1       894 0.00000E+00
 -1       895 0.00000E+00
 -1       896 0.00000E+00
 -1       897 0.00000E+00
 -1       898 0.00000E+00
 -1       899 0.00000E+00
 -1       900 0.00000E+00
 -1       901 0.00000E+00
 -1       902 0.00000E+00
 -1       903 0.00000E+00
 -1       904 0.00000E+00
 -1       905 0.00000E+00
 -1       906 0.00000E+00
 -1       907 0.00000E+00
 -1       908 0.00000E+00
 -1       909 0.00000E+00
 -1       910 0.00000E+00
 -1       911 0.00000E+00
 -1       912 0.00000E+00
 -1       913 0.00000E+00
 -1       914 0.00000E+00
 -1       915 0.00000E+00
 -1       916 0.00000E+00
 -1       917 0.00000E+00
 -1       918 0.00000E+00
 -1       919 0.00000E+00
 -1       920 0.00000E+00
 -1       921 0.00000E+00
 -1       922 0.00000E+00
 -1       923 0.00000E+00
 -1       924 0.00000E+00
 -1       925 0.00000E+00
 -1       926 0.00000E+00
 -1       927 0.00000E+00
 -1       928 0.00000E+00
 -1       929 0.00000E+00
 -1       930 0.00000E+00
 -1       931 0.00000E+00
 -1       932 0.00000E+00
 -1       933 0.00000E+00
 -1       934 0.00000E+00
 -1       935 0.00000E+00
 -1       936 0.00000E+00
 -1       937 0.00000E+00
 -1       938 0.00000E+00
 -1       939 0.00000E+00
 -1       940 0.00000E+00
 -1       941 0.00000E+00
 -1       942 0.00000E+00
 -1       943 0.00000E+00
 -1       944 0.00000E+00
 -1       945 0.00000E+00
 -1       946 0.00000E+00
 -1       947 0.00000E+00
 -1       948 0.00000E+00
 -1       949 0.00000E+00
 -1       950 0.00000E+00
 -1       951 0.00000E+00
 -1       952 0.00000E+00
 -1       953 0.00000E+00
 -1       954 0.00000E+00
 -1       955 0.00000E+00
 -1       956 0.00000E+00
 -1       957 0.00000E+00
 -1       958 0.00000E+00
 -1       959 0.00000E+00
 -1       960 0.00000E+00
 -1       961 0.00000E+00
 -1       962 0.00000E+00
 -1       963 0.00000E+00
 -1       964 0.00000E+00
 -1       965 0.00000E+00
 -1       966 0.00000E+00
 -1       967 0.00000E+00
 -1       968 0.00000E+00
 -1       969 0.00000E+00
 -1       970 0.00000E+00
 -1       971 0.00000E+00
 -1       972 0.00000E+00
 -1       973 0.00000E+00
 -1       974 0.00000E+00
 -1       975 0.00000E+00
 -1       976 0.00000E+00
 -1       977 0.00000E+00
 -1       978 0.00000E+00
 -1       979 0.00000E+00
 -1       980 0.00000E+00
 -1       981 0.00000E+00
 -1       982 0.00000E+00
 -1       983 0.00000E+00
 -1       984 0.00000E+00
 -1       985 0.00000E+00
 -1       986 0.00000E+00
 -1       987 0.00000E+00
 -1       988 0.00000E+00
 -1       989 0.00000E+00
 -1       990 0.00000E+00
 -1       991 0.00000E+00
 -1       992 0.00000E+00
 -1       993 0.00000E+00
 -1       994 0.00000E+00
 -1       995 0.00000E+00
 -1       996 0.00000E+00
 -1       997 0.00000E+00
 -1       998 0.00000E+00
 -1       999 0.00000E+00
 -1      1000 0.00000E+00
 -1      1001 0.00000E+00
 -1      1002 0.00000E+00
 -1      1003 0.00000E+00
 -1      1004 0.00000E+00
 -1      1005 0.00000E+00
 -1      1006 0.00000E+00
 -1      1007 0.00000E+00
 -1      1008 0.00000E+00
 -1      1009 0.00000E+00
 -1      1010 0.00000E+00
 -1      1011 0.00000E+00
 -1      1012 0.00000E+00
 -1      1013 0.00000E+00
 -1      1014 0.00000E+00
 -1      1015 0.00000E+00
 -1      1016 0.00000E+00
 -1      1017 0.00000E+00
 -1      1018 0.00000E+00
 -1      1019 0.00000E+00
 -1      1020 0.00000E+00
 -1      1021 0.00000E+00
 -1      1022 0.00000E+00
 -1      1023 0.00000E+00
 -1      1024 0.00000E+00
 -1      1025 0.00000E+00
 -1      1026 0.00000E+00
 -1      1027 0.00000E+00
 -1      1028 0.00000E+00
 -1      1029 0.00000E+00
 -1      1030 0.00000E+00
 -1      1031 0.00000E+00
 -1      1032 0.00000E+00
 -1      1033 0.00000E+00
 -1      1034 0.00000E+00
 -1      1035 0.00000E+00
 -1      1036 0.00000E+00
 -1      1037 0.00000E+00
 -1      1038 0.00000E+00
 -1      1039 0.00000E+00
 -1      1040 0.00000E+00
 -1      1041 0.00000E+00
 -1      1042 0.00000E+00
 -1      1043 0.00000E+00
 -1      1044 0.00000E+00
 -1      1045 0.00000E+00
 -1      1046 0.00000E+00
 -1      1047 0.00000E+00
 -1      1048 0.00000E+00
 -1      1049 0.00000E+00
 -1      1050 0.00000E+00
 -1      1051 0.00000E+00
 -1      1052 0.00000E+00
 -1      1053 0.00000E+00
 -1      1054 0.00000E+00
 -1      1055 0.00000E+00
 -1      1056 0.00000E+00
 -1      1057 0.00000E+00
 -1      1058 0.00000E+00
 -1      1059 0.00000E+00
 -1      1060 0.00000E+00
 -1      1061 0.00000E+00
 -1      1062 0.00000E+00
 -1      1063 0.00000E+00
 -1      1064 0.00000E+00
 -1      1065 0.00000E+00
 -1      1066 0.00000E+00
 -1      1067 0.00000E+00
 -1      1068 0.00000E+00
 -1      1069 0.00000E+00
 -1      1070 0.00000E+00
 -1      1071 0.00000E+00
 -1      1072 0.00000E+00
 -1      1073 0.00000E+00
 -1      1074 0.00000E+00
 -1      1075 0.00000E+00
 -1      1076 0.00000E+00
 -1      1077 0.00000E+00
 -1      1078 0.00000E+00
 -1      1079 0.00000E+00
 -1      1080 0.00000E+00
 -1      1081 0.00000E+00
 -1      1082 0.00000E+00
 -1      1083 0.00000E+00
 -1      1084 0.00000E+00
 -1      1085 0.00000E+00
 -1      1086 0.00000E+00
 -1      1087 0.00000E+00
 -1      1088 0.00000E+00
 -1      1089 0.00000E+00
 -1      1090 0.00000E+00
 -1      1091 0.00000E+00
 -1      1092 0.00000E+00
 -1      1093 0.00000E+00
 -1      1094 0.00000E+00
 -1      1095 0.00000E+00
 -1      1096 0.00000E+00
 -1      1097 0.00000E+00
 -1      1098 0.00000E+00
 -1      1099 0.00000E+00
 -1      1100 0.00000E+00
 -1      1101 0.00000E+00
 -1      1102 0.00000E+00
 -1      1103 0.00000E+00
 -1      1104 0.00000E+00
 -1      1105 0.00000E+00
 -1      1106 0.00000E+00
 -1      1107 0.00000E+00
 -1      1108 0.00000E+00
 -1      1109 0.00000E+00
 -1      1110 0.00000E+00
 -1      1111 0.00000E+00
 -1      1112 0.00000E+00
 -1      1113 0.00000E+00
 -1      1114 0.00000E+00
 -1      1115 0.00000E+00
 -1      1116 0.00000E+00
 -1      1117 0.00000E+00
 -1      1118 0.00000E+00
 -1      1119 0.00000E+00
 -1      1120 0.00000E+00
 -1      1121 0.00000E+00
 -1      1122 0.00000E+00
 -1      1123 0.00000E+00
 -1      1124 0.00000E+00
 -1      1125 0.00000E+00
 -1      1126 0.00000E+00
 -1      1127 0.00000E+00
 -1      1128 0.00000E+00
 -1      1129 0.00000E+00
 -1      1130 0.00000E+00
 -1      1131 0.00000E+00
 -1      1132 0.00000E+00
 -1      1133 0.00000E+00
 -1      1134 0.00000E+00
 -1      1135 0.00000E+00
 -1      1136 0.00000E+00
 -1      1137 0.00000E+00
 -1      1138 0.00000E+00
 -1      1139 0.00000E+00
 -1      1140 0.00000E+00
 -1      1141 0.00000E+00
 -1      1142 0.00000E+00
 -1      1143 0.00000E+00
 -1      1144 0.00000E+00
 -1      1145 0.00000E+00
 -1      1146 0.00000E+00
 -1      1147 0.00000E+00
 -1      1148 0.00000E+00
 -1      1149 0.00000E+00
 -1      1150 0.00000E+00
 -1      1151 0.00000E+00
 -1      1152 0.00000E+00
 -1      1153 0.00000E+00
 -1      1154 0.00000E+00
 -1      1155 0.00000E+00
 -1      1156 0.00000E+00
 -1      1157 0.00000E+00
 -1      1158 0.00000E+00
 -1      1159 0.00000E+00
 -1      1160 0.00000E+00
 -1      1161 0.00000E+00
 -1      1162 0.00000E+00
 -1      1163 0.00000E+00
 -1      1164 0.00000E+00
 -1      1165 0.00000E+00
 -1      1166 0.00000E+00
 -1      1167 0.00000E+00
 -1      1168 0.00000E+00
 -1      1169 0.00000E+00
 -1      1170 0.00000E+00
 -1      1171 0.00000E+00
 -1      1172 0.00000E+00
 -1      1173 0.00000E+00
 -1      1174 0.00000E+00
 -1      1175 0.00000E+00
 -1      1176 0.00000E+00
 -1      1177 0.00000E+00
 -1      1178 0.00000E+00
 -1      1179 0.00000E+00
 -1      1180 0.00000E+00
 -1      1181 0.00000E+00
 -1      1182 0.00000E+00
 -1      1183 0.00000E+00
 -1      1184 0.00000E+00
 -1      1185 0.00000E+00
 -1      1186 0.00000E+00
 -1      1187 0.00000E+00
 -1      1188 0.00000E+00
 -1      1189 0.00000E+00
 -1      1190 0.00000E+00
 -1      1191 0.00000E+00
 -1      1192 0.00000E+00
 -1      1193 0.00000E+00
 -1      1194 0.00000E+00
 -1      1195 0.00000E+00
 -1      1196 0.00000E+00
 -1      1197 0.00000E+00
 -1      1198 0.00000E+00
 -1      1199 0.00000E+00
 -1      1200 0.00000E+00
 -1      1201 0.00000E+00
 -1      1202 0.00000E+00
 -1      1203 0.00000E+00
 -1      1204 0.00000E+00
 -1      1205 0.00000E+00
 -1      1206 0.00000E+00
 -1      1207 0.00000E+00
 -1      1208 0.00000E+00
 -1      1209 0.00000E+00
 -1      1210 0.00000E+00
 -1      1211 0.00000E+00
 -1      1212 0.00000E+00
 -1      1213 0.00000E+00
 -1      1214 0.00000E+00
 -1      1215 0.00000E+00
 -1      1216 0.00000E+00
 -1      1217 0.00000E+00
 -1      1218 0.00000E+00
 -1      1219 0.00000E+00
 -1      1220 0.00000E+00
 -1      1221 0.00000E+00
 -1      1222 0.00000E+00
 -1      1223 0.00000E+00
 -1      1224 0.00000E+00
 -1      1225 0.00000E+00
 -1      1226 0.00000E+00
 -1      1227 0.00000E+00
 -1      1228 0.00000E+00
 -1      1229 0.00000E+00
 -1      1230 0.00000E+00
 -1      1231 0.00000E+00
 -1      1232 0.00000E+00
 -1      1233 0.00000E+00
 -1      1234 0.00000E+00
 -1      1235 0.00000E+00
 -1      1236 0.00000E+00
 -1      1237 0.00000E+00
 -1      1238 0.00000E+00
 -1      1239 0.00000E+00
 -1      1240 0.00000E+00
 -1      1241 0.00000E+00
 -1      1242 0.00000E+00
 -1      1243 0.00000E+00
 -1      1244 0.00000E+00
 -1      1245 0.00000E+00
 -1      1246 0.00000E+00
 -1      1247 0.00000E+00
 -1      1248 0.00000E+00
 -1      1249 0.00000E+00
 -1      1250 0.00000E+00
 -1      1251 0.00000E+00
 -1      1252 0.00000E+00
 -1      1253 0.00000E+00
 -1      1254 0.00000E+00
 -1      1255 0.00000E+00
 -1      1256 0.00000E+00
 -1      1257 0.00000E+00
 -1      1258 0.00000E+00
 -1      1259 0.00000E+00
 -1      1260 0.00000E+00
 -1      1261 0.00000E+00
 -1      1262 0.00000E+00
 -1      1263 0.00000E+00
 -1      1264 0.00000E+00
 -1      1265 0.00000E+00
 -1      1266 0.00000E+00
 -1      1267 0.00000E+00
 -1      1268 0.00000E+00
 -1      1269 0.00000E+00
 -1      1270 0.00000E+00
 -1      1271 0.00000E+00
 -1      1272 0.00000E+00
 -1      1273 0.00000E+00
 -1      1274 0.00000E+00
 -1      1275 0.00000E+00
 -1      1276 0.00000E+00
 -1      1277 0.00000E+00
 -1      1278 0.00000E+00
 -1      1279 0.00000E+00
 -1      1280 0.00000E+00
 -1      1281 0.00000E+00
 -1      1282 0.00000E+00
 -1      1283 0.00000E+00
 -1      1284 0.00000E+00
 -1      1285 0.00000E+00
 -1      1286 0.00000E+00
 -1      1287 0.00000E+00
 -1      1288 0.00000E+00
 -1      1289 0.00000E+00
 -1      1290 0.00000E+00
 -1      1291 0.00000E+00
 -1      1292 0.00000E+00
 -1      1293 0.00000E+00
 -1      1294 0.00000E+00
 -1      1295 0.00000E+00
 -1      1296 0.00000E+00
 -1      1297 0.00000E+00
 -1      1298 0.00000E+00
 -1      1299 0.00000E+00
 -1      1300 0.00000E+00
 -1      1301 0.00000E+00
 -1      1302 0.00000E+00
 -1      1303 0.00000E+00
 -1      1304 0.00000E+00
 -1      1305 0.00000E+00
 -1      1306 0.00000E+00
 -1      1307 0.00000E+00
 -1      1308 0.00000E+00
 -1      1309 0.00000E+00
 -1      1310 0.00000E+00
 -1      1311 0.00000E+00
 -1      1312 0.00000E+00
 -1      1313 0.00000E+00
 -1      1314 0.00000E+00
 -1      1315 0.00000E+00
 -1      1316 0.00000E+00
 -1      1317 0.00000E+00
 -1      1318 0.00000E+00
 -1      1319 0.00000E+00
 -1      1320 0.00000E+00
 -1      1321 0.00000E+00
 -1      1322 0.00000E+00
 -1      1323 0.00000E+00
 -1      1324 0.00000E+00
 -1      1325 0.00000E+00
 -1      1326 0.00000E+00
 -1      1327 0.00000E+00
 -1      1328 0.00000E+00
 -1      1329 0.00000E+00
 -1      1330 0.00000E+00
 -1      1331 0.00000E+00
 -1      1332 0.00000E+00
 -1      1333 0.00000E+00
 -1      1334 0.00000E+00
 -1      1335 0.00000E+00
 -1      1336 0.00000E+00
 -1      1337 0.00000E+00
 -1      1338 0.00000E+00
 -1      1339 0.00000E+00
 -1      1340 0.00000E+00
 -1      1341 0.00000E+00
 -1      1342 0.00000E+00
 -1      1343 0.00000E+00
 -1      1344 0.00000E+00
 -1      1345 0.00000E+00
 -1      1346 0.00000E+00
 -1      1347 0.00000E+00
 -1      1348 0.00000E+00
 -1      1349 0.00000E+00
 -1      1350 0.00000E+00
 -1      1351 0.00000E+00
 -1      1352 0.00000E+00
 -1      1353 0.00000E+00
 -1      1354 0.00000E+00
 -1      1355 0.00000E+00
 -1      1356 0.00000E+00
 -1      1357 0.00000E+00
 -1      1358 0.00000E+00
 -1      1359 0.00000E+00
 -1      1360 0.00000E+00
 -1      1361 0.00000E+00
 -1      1362 0.00000E+00
 -1      1363 0.00000E+00
 -1      1364 0.00000E+00
 -1      1365 0.00000E+00
 -1      1366 0.00000E+00
 -1      1367 0.00000E+00
 -1      1368 0.00000E+00
 -1      1369 0.00000E+00
 -1      1370 0.00000E+00
 -1      1371 0.00000E+00
 -1      1372 0.00000E+00
 -1      1373 0.00000E+00
 -1      1374 0.00000E+00
 -1      1375 0.00000E+00
 -1      1376 0.00000E+00
 -1      1377 0.00000E+00
 -1      1378 0.00000E+00
 -1      1379 0.00000E+00
 -1      1380 0.00000E+00
 -1      1381 0.00000E+00
 -1      1382 0.00000E+00
 -1      1383 0.00000E+00
 -1      1384 0.00000E+00
 -1      1385 0.00000E+00
 -1      1386 0.00000E+00
 -1      1387 0.00000E+00
 -1      1388 0.00000E+00
 -1      1389 0.00000E+00
 -1      1390 0.00000E+00
 -1      1391 0.00000E+00
 -1      1392 0.00000E+00
 -1      1393 0.00000E+00
 -1      1394 0.00000E+00
 -1      1395 0.00000E+00
 -1      1396 0.00000E+00
 -1      1397 0.00000E+00
 -1      1398 0.00000E+00
 -1      1399 0.00000E+00
 -1      1400 0.00000E+00
 -1      1401 0.00000E+00
 -1      1402 0.00000E+00
 -1      1403 0.00000E+00
 -1      1404 0.00000E+00
 -1      1405 0.00000E+00
 -1      1406 0.00000E+00
 -1      1407 0.00000E+00
 -1      1408 0.00000E+00
 -1      1409 0.00000E+00
 -1      1410 0.00000E+00
 -1      1411 0.00000E+00
 -1      1412 0.00000E+00
 -1      1413 0.00000E+00
 -1      1414 0.00000E+00
 -1      1415 0.00000E+00
 -1      1416 0.00000E+00
 -1      1417 0.00000E+00
 -1      1418 0.00000E+00
 -1      1419 0.00000E+00
 -1      1420 0.00000E+00
 -1      1421 0.00000E+00
 -1      1422 0.00000E+00
 -1      1423 0.00000E+00
 -1      1424 0.00000E+00
 -1      1425 0.00000E+00
 -1      1426 0.00000E+00
 -1      1427 0.00000E+00
 -1      1428 0.00000E+00
 -1      1429 0.00000E+00
 -1      1430 0.00000E+00
 -1      1431 0.00000E+00
 -1      1432 0.00000E+00
 -1      1433 0.00000E+00
 -1      1434 0.00000E+00
 -1      1435 0.00000E+00
 -1      1436 0.00000E+00
 -1      1437 0.00000E+00
 -1      1438 0.00000E+00
 -1      1439 0.00000E+00
 -1      1440 0.00000E+00
 -1      1441 0.00000E+00
 -1      1442 0.00000E+00
 -1      1443 0.00000E+00
 -1      1444 0.00000E+00
 -1      1445 0.00000E+00
 -1      1446 0.00000E+00
 -1      1447 0.00000E+00
 -1      1448 0.00000E+00
 -1      1449 0.00000E+00
 -1      1450 0.00000E+00
 -1      1451 0.00000E+00
 -1      1452 0.00000E+00
 -1      1453 0.00000E+00
 -1      1454 0.00000E+00
 -1      1455 0.00000E+00
 -1      1456 0.00000E+00
 -1      1457 0.00000E+00
 -1      1458 0.00000E+00
 -1      1459 0.00000E+00
 -1      1460 0.00000E+00
 -1      1461 0.00000E+00
 -1      1462 0.00000E+00
 -1      1463 0.00000E+00
 -1      1464 0.00000E+00
 -1      1465 0.00000E+00
 -1      1466 0.00000E+00
 -1      1467 0.00000E+00
 -1      1468 0.00000E+00
 -1      1469 0.00000E+00
 -1      1470 0.00000E+00
 -1      1471 0.00000E+00
 -1      1472 0.00000E+00
 -1      1473 0.00000E+00
 -1      1474 0.00000E+00
 -1      1475 0.00000E+00
 -1      1476 0.00000E+00
 -1      1477 0.00000E+00
 -1      1478 0.00000E+00
 -1      1479 0.00000E+00
 -1      1480 0.00000E+00
 -1      1481 0.00000E+00
 -1      1482 0.00000E+00
 -1      1483 0.00000E+00
 -1      1484 0.00000E+00
 -1      1485 0.00000E+00
 -1      1486 0.00000E+00
 -1      1487 0.00000E+00
 -1      1488 0.00000E+00
 -1      1489 0.00000E+00
 -1      1490 0.00000E+00
 -1      1491 0.00000E+00
 -1      1492 0.00000E+00
 -1      1493 0.00000E+00
 -1      1494 0.00000E+00
 -1      1495 0.00000E+00
 -1      1496 0.00000E+00
 -1      1497 0.00000E+00
 -1      1498 0.00000E+00
 -1      1499 0.00000E+00
 -1      1500 0.00000E+00
 -1      1501 0.00000E+00
 -1      1502 0.00000E+00
 -1      1503 0.00000E+00
 -1      1504 0.00000E+00
 -1      1505 0.00000E+00
 -1      1506 0.00000E+00
 -1      1507 0.00000E+00
 -1      1508 0.00000E+00
 -1      1509 0.00000E+00
 -1      1510 0.00000E+00
 -1      1511 0.00000E+00
 -1      1512 0.00000E+00
 -1      1513 0.00000E+00
 -1      1514 0.00000E+00
 -1      1515 0.00000E+00
 -1      1516 0.00000E+00
 -1      1517 0.00000E+00
 -1      1518 0.00000E+00
 -1      1519 0.00000E+00
 -1      1520 0.00000E+00
 -1      1521 0.00000E+00
 -1      1522 0.00000E+00
 -1      1523 0.00000E+00
 -1      1524 0.00000E+00
 -1      1525 0.00000E+00
 -1      1526 0.00000E+00
 -1      1527 0.00000E+00
 -1      1528 0.00000E+00
 -1      1529 0.00000E+00
 -1      1530 0.00000E+00
 -1      1531 0.00000E+00
 -1      1532 0.00000E+00
 -1      1533 0.00000E+00
 -1      1534 0.00000E+00
 -1      1535 0.00000E+00
 -1      1536 0.00000E+00
 -1      1537 0.00000E+00
 -1      1538 0.00000E+00
 -1      1539 0.00000E+00
 -1      1540 0.00000E+00
 -1      1541 0.00000E+00
 -1      1542 0.00000E+00
 -1      1543 0.00000E+00
 -1      1544 0.00000E+00
 -1      1545 0.00000E+00
 -1      1546 0.00000E+00
 -1      1547 0.00000E+00
 -1      1548 0.00000E+00
 -1      1549 0.00000E+00
 -1      1550 0.00000E+00
 -1      1551 0.00000E+00
 -1      1552 0.00000E+00
 -1      1553 0.00000E+00
 -1      1554 0.00000E+00
 -1      1555 0.00000E+00
 -1      1556 0.00000E+00
 -1      1557 0.00000E+00
 -1      1558 0.00000E+00
 -1      1559 0.00000E+00
 -1      1560 0.00000E+00
 -1      1561 0.00000E+00
 -1      1562 0.00000E+00
 -1      1563 0.00000E+00
 -1      1564 0.00000E+00
 -1      1565 0.00000E+00
 -1      1566 0.00000E+00
 -1      1567 0.00000E+00
 -1      1568 0.00000E+00
 -1      1569 0.00000E+00
 -1      1570 0.00000E+00
 -1      1571 0.00000E+00
 -1      1572 0.00000E+00
 -1      1573 0.00000E+00
 -1      1574 0.00000E+00
 -1      1575 0.00000E+00
 -1      1576 0.00000E+00
 -1      1577 0.00000E+00
 -1      1578 0.00000E+00
 -1      1579 0.00000E+00
 -1      1580 0.00000E+00
 -1      1581 0.00000E+00
 -1      1582 0.00000E+00
 -1      1583 0.00000E+00
 -1      1584 0.00000E+00
 -1      1585 0.00000E+00
 -1      1586 0.00000E+00
 -1      1587 0.00000E+00
 -1      1588 0.00000E+00
 -1      1589 0.00000E+00
 -1      1590 0.00000E+00
 -1      1591 0.00000E+00
 -1      1592 0.00000E+00
 -1      1593 0.00000E+00
 -1      1594 0.00000E+00
 -1      1595 0.00000E+00
 -1      1596 0.00000E+00
 -1      1597 0.00000E+00
 -1      1598 0.00000E+00
 -1      1599 0.00000E+00
 -1      1600 0.00000E+00
 -1      1601 0.00000E+00
 -1      1602 0.00000E+00
 -1      1603 0.00000E+00
 -1      1604 0.00000E+00
 -1      1605 0.00000E+00
 -1      1606 0.00000E+00
 -1      1607 0.00000E+00
 -1      1608 0.00000E+00
 -1      1609 0.00000E+00
 -1      1610 0.00000E+00
 -1      1611 0.00000E+00
 -1      1612 0.00000E+00
 -1      1613 0.00000E+00
 -1      1614 0.00000E+00
 -1      1615 0.00000E+00
 -1      1616 0.00000E+00
 -1      1617 0.00000E+00
 -1      1618 0.00000E+00
 -1      1619 0.00000E+00
 -1      1620 0.00000E+00
 -1      1621 0.00000E+00
 -1      1622 0.00000E+00
 -1      1623 0.00000E+00
 -1      1624 0.00000E+00
 -1      1625 0.00000E+00
 -1      1626 0.00000E+00
 -1      1627 0.00000E+00
 -1      1628 0.00000E+00
 -1      1629 0.00000E+00
 -1      1630 0.00000E+00
 -1      1631 0.00000E+00
 -1      1632 0.00000E+00
 -1      1633 0.00000E+00
 -1      1634 0.00000E+00
 -1      1635 0.00000E+00
 -1      1636 0.00000E+00
 -1      1637 0.00000E+00
 -1      1638 0.00000E+00
 -1      1639 0.00000E+00
 -1      1640 0.00000E+00
 -1      1641 0.00000E+00
 -1      1642 0.00000E+00
 -1      1643 0.00000E+00
 -1      1644 0.00000E+00
 -1      1645 0.00000E+00
 -1      1646 0.00000E+00
 -1      1647 0.00000E+00
 -1      1648 0.00000E+00
 -1      1649 0.00000E+00
 -1      1650 0.00000E+00
 -1      1651 0.00000E+00
 -1      1652 0.00000E+00
 -1      1653 0.00000E+00
 -1      1654 0.00000E+00
 -1      1655 0.00000E+00
 -1      1656 0.00000E+00
 -1      1657 0.00000E+00
 -1      1658 0.00000E+00
 -1      1659 0.00000E+00
 -1      1660 0.00000E+00
 -1      1661 0.00000E+00
 -1      1662 0.00000E+00
 -1      1663 0.00000E+00
 -1      1664 0.00000E+00
 -1      1665 0.00000E+00
 -1      1666 0.00000E+00
 -1      1667 0.00000E+00
 -1      1668 0.00000E+00
 -1      1669 0.00000E+00
 -1      1670 0.00000E+00
 -1      1671 0.00000E+00
 -1      1672 0.00000E+00
 -1      1673 0.00000E+00
 -1      1674 0.00000E+00
 -1      1675 0.00000E+00
 -1      1676 0.00000E+00
 -1      1677 0.00000E+00
 -1      1678 0.00000E+00
 -1      1679 0.00000E+00
 -1      1680 0.00000E+00
 -1      1681 0.00000E+00
 -1      1682 0.00000E+00
 -1      1683 0.00000E+00
 -1      1684 0.00000E+00
 -1      1685 0.00000E+00
 -1      1686 0.00000E+00
 -1      1687 0.00000E+00
 -1      1688 0.00000E+00
 -1      1689 0.00000E+00
 -1      1690 0.00000E+00
 -1      1691 0.00000E+00
 -1      1692 0.00000E+00
 -1      1693 0.00000E+00
 -1      1694 0.00000E+00
 -1      1695 0.00000E+00
 -1      1696 0.00000E+00
 -1      1697 0.00000E+00
 -1      1698 0.00000E+00
 -1      1699 0.00000E+00
 -1      1700 0.00000E+00
 -1      1701 0.00000E+00
 -1      1702 0.00000E+00
 -1      1703 0.00000E+00
 -1      1704 0.00000E+00
 -1      1705 0.00000E+00
 -1      1706 0.00000E+00
 -1      1707 0.00000E+00
 -1      1708 0.00000E+00
 -1      1709 0.00000E+00
 -1      1710 0.00000E+00
 -1      1711 0.00000E+00
 -1      1712 0.00000E+00
 -1      1713 0.00000E+00
 -1      1714 0.00000E+00
 -1      1715 0.00000E+00
 -1      1716 0.00000E+00
 -1      1717 0.00000E+00
 -1      1718 0.00000E+00
 -1      1719 0.00000E+00
 -1      1720 0.00000E+00
 -1      1721 0.00000E+00
 -1      1722 0.00000E+00
 -1      1723 0.00000E+00
 -1      1724 0.00000E+00
 -1      1725 0.00000E+00
 -1      1726 0.00000E+00
 -1      1727 0.00000E+00
 -1      1728 0.00000E+00
 -1      1729 0.00000E+00
 -1      1730 0.00000E+00
 -1      1731 0.00000E+00
 -1      1732 0.00000E+00
 -1      1733 0.00000E+00
 -1      1734 0.00000E+00
 -1      1735 0.00000E+00
 -1      1736 0.00000E+00
 -1      1737 0.00000E+00
 -1      1738 0.00000E+00
 -1      1739 0.00000E+00
 -1      1740 0.00000E+00
 -1      1741 0.00000E+00
 -1      1742 0.00000E+00
 -1      1743 0.00000E+00
 -1      1744 0.00000E+00
 -1      1745 0.00000E+00
 -1      1746 0.00000E+00
 -1      1747 0.00000E+00
 -1      1748 0.00000E+00
 -1      1749 0.00000E+00
 -1      1750 0.00000E+00
 -1      1751 0.00000E+00
 -1      1752 0.00000E+00
 -1      1753 0.00000E+00
 -1      1754 0.00000E+00
 -1      1755 0.00000E+00
 -1      1756 0.00000E+00
 -1      1757 0.00000E+00
 -1      1758 0.00000E+00
 -1      1759 0.00000E+00
 -1      1760 0.00000E+00
 -1      1761 0.00000E+00
 -1      1762 0.00000E+00
 -1      1763 0.00000E+00
 -1      1764 0.00000E+00
 -1      1765 0.00000E+00
 -1      1766 0.00000E+00
 -1      1767 0.00000E+00
 -1      1768 0.00000E+00
 -1      1769 0.00000E+00
 -1      1770 0.00000E+00
 -1      1771 0.00000E+00
 -1      1772 0.00000E+00
 -1      1773 0.00000E+00
 -1      1774 0.00000E+00
 -1      1775 0.00000E+00
 -1      1776 0.00000E+00
 -1      1777 0.00000E+00
 -1      1778 0.00000E+00
 -1      1779 0.00000E+00
 -1      1780 0.00000E+00
 -1      1781 0.00000E+00
 -1      1782 0.00000E+00
 -1      1783 0.00000E+00
 -1      1784 0.00000E+00
 -1      1785 0.00000E+00
 -1      1786 0.00000E+00
 -1      1787 0.00000E+00
 -1      1788 0.00000E+00
 -1      1789 0.00000E+00
 -1      1790 0.00000E+00
 -1      1791 0.00000E+00
 -1      1792 0.00000E+00
 -1      1793 0.00000E+00
 -1      1794 0.00000E+00
 -1      1795 0.00000E+00
 -1      1796 0.00000E+00
 -1      1797 0.00000E+00
 -1      1798 0.00000E+00
 -1      1799 0.00000E+00
 -1      1800 0.00000E+00
 -1      1801 0.00000E+00
 -1      1802 0.00000E+00
 -1      1803 0.00000E+00
 -1      1804 0.00000E+00
 -1      1805 0.00000E+00
 -1      1806 0.00000E+00
 -1      1807 0.00000E+00
 -1      1808 0.00000E+00
 -1      1809 0.00000E+00
 -1      1810 0.00000E+00
 -1      1811 0.00000E+00
 -1      1812 0.00000E+00
 -1      1813 0.00000E+00
 -1      1814 0.00000E+00
 -1      1815 0.00000E+00
 -1      1816 0.00000E+00
 -1      1817 0.00000E+00
 -1      1818 0.00000E+00
 -1      1819 0.00000E+00
 -1      1820 0.00000E+00
 -1      1821 0.00000E+00
 -1      1822 0.00000E+00
 -1      1823 0.00000E+00
 -1      1824 0.00000E+00
 -1      1825 0.00000E+00
 -1      1826 0.00000E+00
 -1      1827 0.00000E+00
 -1      1828 0.00000E+00
 -1      1829 0.00000E+00
 -1      1830 0.00000E+00
 -1      1831 0.00000E+00
 -1      1832 0.00000E+00
 -1      1833 0.00000E+00
 -1      1834 0.00000E+00
 -1      1835 0.00000E+00
 -1      1836 0.00000E+00
 -1      1837 0.00000E+00
 -1      1838 0.00000E+00
 -1      1839 0.00000E+00
 -1      1840 0.00000E+00
 -1      1841 0.00000E+00
 -1      1842 0.00000E+00
 -1      1843 0.00000E+00
 -1      1844 0.00000E+00
 -1      1845 0.00000E+00
 -1      1846 0.00000E+00
 -1      1847 0.00000E+00
 -1      1848 0.00000E+00
 -1      1849 0.00000E+00
 -1      1850 0.00000E+00
 -1      1851 0.00000E+00
 -1      1852 0.00000E+00
 -1      1853 0.00000E+00
 -1      1854 0.00000E+00
 -1      1855 0.00000E+00
 -1      1856 0.00000E+00
 -1      1857 0.00000E+00
 -1      1858 0.00000E+00
 -1      1859 0.00000E+00
 -1      1860 0.00000E+00
 -1      1861 0.00000E+00
 -1      1862 0.00000E+00
 -1      1863 0.00000E+00
 -1      1864 0.00000E+00
 -1      1865 0.00000E+00
 -1      1866 0.00000E+00
 -1      1867 0.00000E+00
 -1      1868 0.00000E+00
 -1      1869 0.00000E+00
 -1      1870 0.00000E+00
 -1      1871 0.00000E+00
 -1      1872 0.00000E+00
 -1      1873 0.00000E+00
 -1      1874 0.00000E+00
 -1      1875 0.00000E+00
 -1      1876 0.00000E+00
 -1      1877 0.00000E+00
 -1      1878 0.00000E+00
 -1      1879 0.00000E+00
 -1      1880 0.00000E+00
 -1      1881 0.00000E+00
 -1      1882 0.00000E+00
 -1      1883 0.00000E+00
 -1      1884 0.00000E+00
 -1      1885 0.00000E+00
 -1      1886 0.00000E+00
 -1      1887 0.00000E+00
 -1      1888 0.00000E+00
 -1      1889 0.00000E+00
 -1      1890 0.00000E+00
 -1      1891 0.00000E+00
 -1      1892 0.00000E+00
 -1      1893 0.00000E+00
 -1      1894 0.00000E+00
 -1      1895 0.00000E+00
 -1      1896 0.00000E+00
 -1      1897 0.00000E+00
 -1      1898 0.00000E+00
 -1      1899 0.00000E+00
 -1      1900 0.00000E+00
 -1      1901 0.00000E+00
 -1      1902 0.00000E+00
 -1      1903 0.00000E+00
 -1      1904 0.00000E+00
 -1      1905 0.00000E+00
 -1      1906 0.00000E+00
 -1      1907 0.00000E+00
 -1      1908 0.00000E+00
 -1      1909 0.00000E+00
 -1      1910 0.00000E+00
 -1      1911 0.00000E+00
 -1      1912 0.00000E+00
 -1      1913 0.00000E+00
 -1      1914 0.00000E+00
 -1      1915 0.00000E+00
 -1      1916 0.00000E+00
 -1      1917 0.00000E+00
 -1      1918 0.00000E+00
 -1      1919 0.00000E+00
 -1      1920 0.00000E+00
 -1      1921 0.00000E+00
 -1      1922 0.00000E+00
 -1      1923 0.00000E+00
 -1      1924 0.00000E+00
 -1      1925 0.00000E+00
 -1      1926 0.00000E+00
 -1      1927 0.00000E+00
 -1      1928 0.00000E+00
 -1      1929 0.00000E+00
 -1      1930 0.00000E+00
 -1      1931 0.00000E+00
 -1      1932 0.00000E+00
 -1      1933 0.00000E+00
 -1      1934 0.00000E+00
 -1      1935 0.00000E+00
 -1      1936 0.00000E+00
 -1      1937 0.00000E+00
 -1      1938 0.00000E+00
 -1      1939 0.00000E+00
 -1      1940 0.00000E+00
 -1      1941 0.00000E+00
 -1      1942 0.00000E+00
 -1      1943 0.00000E+00
 -1      1944 0.00000E+00
 -1      1945 0.00000E+00
 -1      1946 0.00000E+00
 -1      1947 0.00000E+00
 -1      1948 0.00000E+00
 -1      1949 0.00000E+00
 -1      1950 0.00000E+00
 -1      1951 0.00000E+00
 -1      1952 0.00000E+00
 -1      1953 0.00000E+00
 -1      1954 0.00000E+00
 -1      1955 0.00000E+00
 -1      1956 0.00000E+00
 -1      1957 0.00000E+00
 -1      1958 0.00000E+00
 -1      1959 0.00000E+00
 -1      1960 0.00000E+00
 -1      1961 0.00000E+00
 -1      1962 0.00000E+00
 -1      1963 0.00000E+00
 -1      1964 0.00000E+00
 -1      1965 0.00000E+00
 -1      1966 0.00000E+00
 -1      1967 0.00000E+00
 -1      1968 0.00000E+00
 -1      1969 0.00000E+00
 -1      1970 0.00000E+00
 -1      1971 0.00000E+00
 -1      1972 0.00000E+00
 -1      1973 0.00000E+00
 -1      1974 0.00000E+00
 -1      1975 0.00000E+00
 -1      1976 0.00000E+00
 -1      1977 0.00000E+00
 -1      1978 0.00000E+00
 -1      1979 0.00000E+00
 -1      1980 0.00000E+00
 -1      1981 0.00000E+00
 -1      1982 0.00000E+00
 -1      1983 0.00000E+00
 -1      1984 0.00000E+00
 -1      1985 0.00000E+00
 -1      1986 0.00000E+00
 -1      1987 0.00000E+00
 -1      1988 0.00000E+00
 -1      1989 0.00000E+00
 -1      1990 0.00000E+00
 -1      1991 0.00000E+00
 -1      1992 0.00000E+00
 -1      1993 0.00000E+00
 -1      1994 0.00000E+00
 -1      1995 0.00000E+00
 -1      1996 0.00000E+00
 -1      1997 0.00000E+00
 -1      1998 0.00000E+00
 -1      1999 0.00000E+00
 -1      2000 0.00000E+00
 -1      2001 0.00000E+00
 -1      2002 0.00000E+00
 -1      2003 0.00000E+00
 -1      2004 0.00000E+00
 -1      2005 0.00000E+00
 -1      2006 0.00000E+00
 -1      2007 0.00000E+00
 -1      2008 0.00000E+00
 -1      2009 0.00000E+00
 -1      2010 0.00000E+00
 -1      2011 0.00000E+00
 -1      2012 0.00000E+00
 -1      2013 0.00000E+00
 -1      2014 0.00000E+00
 -1      2015 0.00000E+00
 -1      2016 0.00000E+00
 -1      2017 0.00000E+00
 -1      2018 0.00000E+00
 -1      2019 0.00000E+00
 -1      2020 0.00000E+00
 -1      2021 0.00000E+00
 -1      2022 0.00000E+00
 -1      2023 0.00000E+00
 -1      2024 0.00000E+00
 -1      2025 0.00000E+00
 -1      2026 0.00000E+00
 -1      2027 0.00000E+00
 -1      2028 0.00000E+00
 -1      2029 0.00000E+00
 -1      2030 0.00000E+00
 -1      2031 0.00000E+00
 -1      2032 0.00000E+00
 -1      2033 0.00000E+00
 -1      2034 0.00000E+00
 -1      2035 0.00000E+00
 -1      2036 0.00000E+00
 -1      2037 0.00000E+00
 -1      2038 0.00000E+00
 -1      2039 0.00000E+00
 -1      2040 0.00000E+00
 -1      2041 0.00000E+00
 -1      2042 0.00000E+00
 -1      2043 0.00000E+00
 -1      2044 0.00000E+00
 -1      2045 0.00000E+00
 -1      2046 0.00000E+00
 -1      2047 0.00000E+00
 -1      2048 0.00000E+00
 -1      2049 0.00000E+00
 -1      2050 0.00000E+00
 -1      2051 0.00000E+00
 -1      2052 0.00000E+00
 -1      2053 0.00000E+00
 -1      2054 0.00000E+00
 -1      2055 0.00000E+00
 -1      2056 0.00000E+00
 -1      2057 0.00000E+00
 -1      2058 0.00000E+00
 -1      2059 0.00000E+00
 -1      2060 0.00000E+00
 -1      2061 0.00000E+00
 -1      2062 0.00000E+00
 -1      2063 0.00000E+00
 -1      2064 0.00000E+00
 -1      2065 0.00000E+00
 -1      2066 0.00000E+00
 -1      2067 0.00000E+00
 -1      2068 0.00000E+00
 -1      2069 0.00000E+00
 -1      2070 0.00000E+00
 -1      2071 0.00000E+00
 -1      2072 0.00000E+00
 -1      2073 0.00000E+00
 -1      2074 0.00000E+00
 -1      2075 0.00000E+00
 -1      2076 0.00000E+00
 -1      2077 0.00000E+00
 -1      2078 0.00000E+00
 -1      2079 0.00000E+00
 -1      2080 0.00000E+00
 -1      2081 0.00000E+00
 -1      2082 0.00000E+00
 -1      2083 0.00000E+00
 -1      2084 0.00000E+00
 -1      2085 0.00000E+00
 -1      2086 0.00000E+00
 -1      2087 0.00000E+00
 -1      2088 0.00000E+00
 -1      2089 0.00000E+00
 -1      2090 0.00000E+00
 -1      2091 0.00000E+00
 -1      2092 0.00000E+00
 -1      2093 0.00000E+00
 -1      2094 0.00000E+00
 -1      2095 0.00000E+00
 -1      2096 0.00000E+00
 -1      2097 0.00000E+00
 -1      2098 0.00000E+00
 -1      2099 0.00000E+00
 -1      2100 0.00000E+00
 -1      2101 0.00000E+00
 -1      2102 0.00000E+00
 -1      2103 0.00000E+00
 -1      2104 0.00000E+00
 -1      2105 0.00000E+00
 -1      2106 0.00000E+00
 -1      2107 0.00000E+00
 -1      2108 0.00000E+00
 -1      2109 0.00000E+00
 -1      2110 0.00000E+00
 -1      2111 0.00000E+00
 -1      2112 0.00000E+00
 -1      2113 0.00000E+00
 -1      2114 0.00000E+00
 -1      2115 0.00000E+00
 -1      2116 0.00000E+00
 -1      2117 0.00000E+00
 -1      2118 0.00000E+00
 -1      2119 0.00000E+00
 -1      2120 0.00000E+00
 -1      2121 0.00000E+00
 -1      2122 0.00000E+00
 -1      2123 0.00000E+00
 -1      2124 0.00000E+00
 -1      2125 0.00000E+00
 -1      2126 0.00000E+00
 -1      2127 0.00000E+00
 -1      2128 0.00000E+00
 -1      2129 0.00000E+00
 -1      2130 0.00000E+00
 -1      2131 0.00000E+00
 -1      2132 0.00000E+00
 -1      2133 0.00000E+00
 -1      2134 0.00000E+00
 -1      2135 0.00000E+00
 -1      2136 0.00000E+00
 -1      2137 0.00000E+00
 -1      2138 0.00000E+00
 -1      2139 0.00000E+00
 -1      2140 0.00000E+00
 -1      2141 0.00000E+00
 -1      2142 0.00000E+00
 -1      2143 0.00000E+00
 -1      2144 0.00000E+00
 -1      2145 0.00000E+00
 -1      2146 0.00000E+00
 -1      2147 0.00000E+00
 -1      2148 0.00000E+00
 -1      2149 0.00000E+00
 -1      2150 0.00000E+00
 -1      2151 0.00000E+00
 -1      2152 0.00000E+00
 -1      2153 0.00000E+00
 -1      2154 0.00000E+00
 -1      2155 0.00000E+00
 -1      2156 0.00000E+00
 -1      2157 0.00000E+00
 -1      2158 0.00000E+00
 -1      2159 0.00000E+00
 -1      2160 0.00000E+00
 -1      2161 0.00000E+00
 -1      2162 0.00000E+00
 -1      2163 0.00000E+00
 -1      2164 0.00000E+00
 -1      2165 0.00000E+00
 -1      2166 0.00000E+00
 -1      2167 0.00000E+00
 -1      2168 0.00000E+00
 -1      2169 0.00000E+00
 -1      2170 0.00000E+00
 -1      2171 0.00000E+00
 -1      2172 0.00000E+00
 -1      2173 0.00000E+00
 -1      2174 0.00000E+00
 -1      2175 0.00000E+00
 -1      2176 0.00000E+00
 -1      2177 0.00000E+00
 -1      2178 0.00000E+00
 -1      2179 0.00000E+00
 -1      2180 0.00000E+00
 -1      2181 0.00000E+00
 -1      2182 0.00000E+00
 -1      2183 0.00000E+00
 -1      2184 0.00000E+00
 -1      2185 0.00000E+00
 -1      2186 0.00000E+00
 -1      2187 0.00000E+00
 -1      2188 0.00000E+00
 -1      2189 0.00000E+00
 -1      2190 0.00000E+00
 -1      2191 0.00000E+00
 -1      2192 0.00000E+00
 -1      2193 0.00000E+00
 -1      2194 0.00000E+00
 -1      2195 0.00000E+00
 -1      2196 0.00000E+00
 -1      2197 0.00000E+00
 -1      2198 0.00000E+00
 -1      2199 0.00000E+00
 -1      2200 0.00000E+00
 -1      2201 0.00000E+00
 -1      2202 0.00000E+00
 -1      2203 0.00000E+00
 -1      2204 0.00000E+00
 -1      2205 0.00000E+00
 -1      2206 0.00000E+00
 -1      2207 0.00000E+00
 -1      2208 0.00000E+00
 -1      2209 0.00000E+00
 -1      2210 0.00000E+00
 -1      2211 0.00000E+00
 -1      2212 0.00000E+00
 -1      2213 0.00000E+00
 -1      2214 0.00000E+00
 -1      2215 0.00000E+00
 -1      2216 0.00000E+00
 -1      2217 0.00000E+00
 -1      2218 0.00000E+00
 -1      2219 0.00000E+00
 -1      2220 0.00000E+00
 -1      2221 0.00000E+00
 -1      2222 0.00000E+00
 -1      2223 0.00000E+00
 -1      2224 0.00000E+00
 -1      2225 0.00000E+00
 -1      2226 0.00000E+00
 -1      2227 0.00000E+00
 -1      2228 0.00000E+00
 -1      2229 0.00000E+00
 -1      2230 0.00000E+00
 -1      2231 0.00000E+00
 -1      2232 0.00000E+00
 -1      2233 0.00000E+00
 -1      2234 0.00000E+00
 -1      2235 0.00000E+00
 -1      2236 0.00000E+00
 -1      2237 0.00000E+00
 -1      2238 0.00000E+00
 -1      2239 0.00000E+00
 -1      2240 0.00000E+00
 -1      2241 0.00000E+00
 -1      2242 0.00000E+00
 -1      2243 0.00000E+00
 -1      2244 0.00000E+00
 -1      2245 0.00000E+00
 -1      2246 0.00000E+00
 -1      2247 0.00000E+00
 -1      2248 0.00000E+00
 -1      2249 0.00000E+00
 -1      2250 0.00000E+00
 -1      2251 0.00000E+00
 -1      2252 0.00000E+00
 -1      2253 0.00000E+00
 -1      2254 0.00000E+00
 -1      2255 0.00000E+00
 -1      2256 0.00000E+00
 -1      2257 0.00000E+00
 -1      2258 0.00000E+00
 -1      2259 0.00000E+00
 -1      2260 0.00000E+00
 -1      2261 0.00000E+00
 -1      2262 0.00000E+00
 -1      2263 0.00000E+00
 -1      2264 0.00000E+00
 -1      2265 0.00000E+00
 -1      2266 0.00000E+00
 -1      2267 0.00000E+00
 -1      2268 0.00000E+00
 -1      2269 0.00000E+00
 -1      2270 0.00000E+00
 -1      2271 0.00000E+00
 -1      2272 0.00000E+00
 -1      2273 0.00000E+00
 -1      2274 0.00000E+00
 -1      2275 0.00000E+00
 -1      2276 0.00000E+00
 -1      2277 0.00000E+00
 -1      2278 0.00000E+00
 -1      2279 0.00000E+00
 -1      2280 0.00000E+00
 -1      2281 0.00000E+00
 -1      2282 0.00000E+00
 -1      2283 0.00000E+00
 -1      2284 0.00000E+00
 -1      2285 0.00000E+00
 -1      2286 0.00000E+00
 -1      2287 0.00000E+00
 -1      2288 0.00000E+00
 -1      2289 0.00000E+00
 -1      2290 0.00000E+00
 -1      2291 0.00000E+00
 -1      2292 0.00000E+00
 -1      2293 0.00000E+00
 -1      2294 0.00000E+00
 -1      2295 0.00000E+00
 -1      2296 0.00000E+00
 -1      2297 0.00000E+00
 -1      2298 0.00000E+00
 -1      2299 0.00000E+00
 -1      2300 0.00000E+00
 -1      2301 0.00000E+00
 -1      2302 0.00000E+00
 -1      2303 0.00000E+00
 -1      2304 0.00000E+00
 -1      2305 0.00000E+00
 -1      2306 0.00000E+00
 -1      2307 0.00000E+00
 -1      2308 0.00000E+00
 -1      2309 0.00000E+00
 -1      2310 0.00000E+00
 -1      2311 0.00000E+00
 -1      2312 0.00000E+00
 -1      2313 0.00000E+00
 -1      2314 0.00000E+00
 -1      2315 0.00000E+00
 -1      2316 0.00000E+00
 -1      2317 0.00000E+00
 -1      2318 0.00000E+00
 -1      2319 0.00000E+00
 -1      2320 0.00000E+00
 -1      2321 0.00000E+00
 -1      2322 0.00000E+00
 -1      2323 0.00000E+00
 -1      2324 0.00000E+00
 -1      2325 0.00000E+00
 -1      2326 0.00000E+00
 -1      2327 0.00000E+00
 -1      2328 0.00000E+00
 -1      2329 0.00000E+00
 -1      2330 0.00000E+00
 -1      2331 0.00000E+00
 -1      2332 0.00000E+00
 -1      2333 0.00000E+00
 -1      2334 0.00000E+00
 -1      2335 0.00000E+00
 -1      2336 0.00000E+00
 -1      2337 0.00000E+00
 -1      2338 0.00000E+00
 -1      2339 0.00000E+00
 -1      2340 0.00000E+00
 -1      2341 0.00000E+00
 -1      2342 0.00000E+00
 -1      2343 0.00000E+00
 -1      2344 0.00000E+00
 -1      2345 0.00000E+00
 -1      2346 0.00000E+00
 -1      2347 0.00000E+00
 -1      2348 0.00000E+00
 -1      2349 0.00000E+00
 -1      2350 0.00000E+00
 -1      2351 0.00000E+00
 -1      2352 0.00000E+00
 -1      2353 0.00000E+00
 -1      2354 0.00000E+00
 -1      2355 0.00000E+00
 -1      2356 0.00000E+00
 -1      2357 0.00000E+00
 -1      2358 0.00000E+00
 -1      2359 0.00000E+00
 -1      2360 0.00000E+00
 -1      2361 0.00000E+00
 -1      2362 0.00000E+00
 -1      2363 0.00000E+00
 -1      2364 0.00000E+00
 -1      2365 0.00000E+00
 -1      2366 0.00000E+00
 -1      2367 0.00000E+00
 -1      2368 0.00000E+00
 -1      2369 0.00000E+00
 -1      2370 0.00000E+00
 -1      2371 0.00000E+00
 -1      2372 0.00000E+00
 -1      2373 0.00000E+00
 -1      2374 0.00000E+00
 -1      2375 0.00000E+00
 -1      2376 0.00000E+00
 -1      2377 0.00000E+00
 -1      2378 0.00000E+00
 -1      2379 0.00000E+00
 -1      2380 0.00000E+00
 -1      2381 0.00000E+00
 -1      2382 0.00000E+00
 -1      2383 0.00000E+00
 -1      2384 0.00000E+00
 -1      2385 0.00000E+00
 -1      2386 0.00000E+00
 -1      2387 0.00000E+00
 -1      2388 0.00000E+00
 -1      2389 0.00000E+00
 -1      2390 0.00000E+00
 -1      2391 0.00000E+00
 -1      2392 0.00000E+00
 -1      2393 0.00000E+00
 -1      2394 0.00000E+00
 -1      2395 0.00000E+00
 -1      2396 0.00000E+00
 -1      2397 0.00000E+00
 -1      2398 0.00000E+00
 -1      2399 0.00000E+00
 -1      2400 0.00000E+00
 -1      2401 0.00000E+00
 -1      2402 0.00000E+00
 -1      2403 0.00000E+00
 -1      2404 0.00000E+00
 -1      2405 0.00000E+00
 -1      2406 0.00000E+00
 -1      2407 0.00000E+00
 -1      2408 0.00000E+00
 -1      2409 0.00000E+00
 -1      2410 0.00000E+00
 -1      2411 0.00000E+00
 -1      2412 0.00000E+00
 -1      2413 0.00000E+00
 -1      2414 0.00000E+00
 -1      2415 0.00000E+00
 -1      2416 0.00000E+00
 -1      2417 0.00000E+00
 -1      2418 0.00000E+00
 -1      2419 0.00000E+00
 -1      2420 0.00000E+00
 -1      2421 0.00000E+00
 -1      2422 0.00000E+00
 -1      2423 0.00000E+00
 -1      2424 0.00000E+00
 -1      2425 0.00000E+00
 -1      2426 0.00000E+00
 -1      2427 0.00000E+00
 -1      2428 0.00000E+00
 -1      2429 0.00000E+00
 -1      2430 0.00000E+00
 -1      2431 0.00000E+00
 -1      2432 0.00000E+00
 -1      2433 0.00000E+00
 -1      2434 0.00000E+00
 -1      2435 0.00000E+00
 -1      2436 0.00000E+00
 -1      2437 0.00000E+00
 -1      2438 0.00000E+00
 -1      2439 0.00000E+00
 -1      2440 0.00000E+00
 -1      2441 0.00000E+00
 -1      2442 0.00000E+00
 -1      2443 0.00000E+00
 -1      2444 0.00000E+00
 -1      2445 0.00000E+00
 -1      2446 0.00000E+00
 -1      2447 0.00000E+00
 -1      2448 0.00000E+00
 -1      2449 0.00000E+00
 -1      2450 0.00000E+00
 -1      2451 0.00000E+00
 -1      2452 0.00000E+00
 -1      2453 0.00000E+00
 -1      2454 0.00000E+00
 -1      2455 0.00000E+00
 -1      2456 0.00000E+00
 -1      2457 0.00000E+00
 -1      2458 0.00000E+00
 -1      2459 0.00000E+00
 -1      2460 0.00000E+00
 -1      2461 0.00000E+00
 -1      2462 0.00000E+00
 -1      2463 0.00000E+00
 -1      2464 0.00000E+00
 -1      2465 0.00000E+00
 -1      2466 0.00000E+00
 -1      2467 0.00000E+00
 -1      2468 0.00000E+00
 -1      2469 0.00000E+00
 -1      2470 0.00000E+00
 -1      2471 0.00000E+00
 -1      2472 0.00000E+00
 -1      2473 0.00000E+00
 -1      2474 0.00000E+00
 -1      2475 0.00000E+00
 -1      2476 0.00000E+00
 -1      2477 0.00000E+00
 -1      2478 0.00000E+00
 -1      2479 0.00000E+00
 -1      2480 0.00000E+00
 -1      2481 0.00000E+00
 -1      2482 0.00000E+00
 -1      2483 0.00000E+00
 -1      2484 0.00000E+00
 -1      2485 0.00000E+00
 -1      2486 0.00000E+00
 -1      2487 0.00000E+00
 -1      2488 0.00000E+00
 -1      2489 0.00000E+00
 -1      2490 0.00000E+00
 -1      2491 0.00000E+00
 -1      2492 0.00000E+00
 -1      2493 0.00000E+00
 -1      2494 0.00000E+00
 -1      2495 0.00000E+00
 -1      2496 0.00000E+00
 -1      2497 0.00000E+00
 -1      2498 0.00000E+00
 -1      2499 0.00000E+00
 -1      2500 0.00000E+00
 -1      2501 0.00000E+00
 -1      2502 0.00000E+00
 -1      2503 0.00000E+00
 -1      2504 0.00000E+00
 -1      2505 0.00000E+00
 -1      2506 0.00000E+00
 -1      2507 0.00000E+00
 -1      2508 0.00000E+00
 -1      2509 0.00000E+00
 -1      2510 0.00000E+00
 -1      2511 0.00000E+00
 -1      2512 0.00000E+00
 -1      2513 0.00000E+00
 -1      2514 0.00000E+00
 -1      2515 0.00000E+00
 -1      2516 0.00000E+00
 -1      2517 0.00000E+00
 -1      2518 0.00000E+00
 -1      2519 0.00000E+00
 -1      2520 0.00000E+00
 -1      2521 0.00000E+00
 -1      2522 0.00000E+00
 -1      2523 0.00000E+00
 -1      2524 0.00000E+00
 -1      2525 0.00000E+00
 -1      2526 0.00000E+00
 -1      2527 0.00000E+00
 -1      2528 0.00000E+00
 -1      2529 0.00000E+00
 -1      2530 0.00000E+00
 -1      2531 0.00000E+00
 -1      2532 0.00000E+00
 -1      2533 0.00000E+00
 -1      2534 0.00000E+00
 -1      2535 0.00000E+00
 -1      2536 0.00000E+00
 -1      2537 0.00000E+00
 -1      2538 0.00000E+00
 -1      2539 0.00000E+00
 -1      2540 0.00000E+00
 -1      2541 0.00000E+00
 -1      2542 0.00000E+00
 -1      2543 0.00000E+00
 -1      2544 0.00000E+00
 -1      2545 0.00000E+00
 -1      2546 0.00000E+00
 -1      2547 0.00000E+00
 -1      2548 0.00000E+00
 -1      2549 0.00000E+00
 -1      2550 0.00000E+00
 -1      2551 0.00000E+00
 -1      2552 0.00000E+00
 -1      2553 0.00000E+00
 -1      2554 0.00000E+00
 -1      2555 0.00000E+00
 -1      2556 0.00000E+00
 -1      2557 0.00000E+00
 -1      2558 0.00000E+00
 -1      2559 0.00000E+00
 -1      2560 0.00000E+00
 -1      2561 0.00000E+00
 -1      2562 0.00000E+00
 -1      2563 0.00000E+00
 -1      2564 0.00000E+00
 -1      2565 0.00000E+00
 -1      2566 0.00000E+00
 -1      2567 0.00000E+00
 -1      2568 0.00000E+00
 -1      2569 0.00000E+00
 -1      2570 0.00000E+00
 -1      2571 0.00000E+00
 -1      2572 0.00000E+00
 -1      2573 0.00000E+00
 -1      2574 0.00000E+00
 -1      2575 0.00000E+00
 -1      2576 0.00000E+00
 -1      2577 0.00000E+00
 -1      2578 0.00000E+00
 -1      2579 0.00000E+00
 -1      2580 0.00000E+00
 -1      2581 0.00000E+00
 -1      2582 0.00000E+00
 -1      2583 0.00000E+00
 -1      2584 0.00000E+00
 -1      2585 0.00000E+00
 -1      2586 0.00000E+00
 -1      2587 0.00000E+00
 -1      2588 0.00000E+00
 -1      2589 0.00000E+00
 -1      2590 0.00000E+00
 -1      2591 0.00000E+00
 -1      2592 0.00000E+00
 -1      2593 0.00000E+00
 -1      2594 0.00000E+00
 -1      2595 0.00000E+00
 -1      2596 0.00000E+00
 -1      2597 0.00000E+00
 -1      2598 0.00000E+00
 -1      2599 0.00000E+00
 -1      2600 0.00000E+00
 -1      2601 0.00000E+00
 -1      2602 0.00000E+00
 -1      2603 0.00000E+00
 -1      2604 0.00000E+00
 -1      2605 0.00000E+00
 -1      2606 0.00000E+00
 -1      2607 0.00000E+00
 -1      2608 0.00000E+00
 -1      2609 0.00000E+00
 -1      2610 0.00000E+00
 -1      2611 0.00000E+00
 -1      2612 0.00000E+00
 -1      2613 0.00000E+00
 -1      2614 0.00000E+00
 -1      2615 0.00000E+00
 -1      2616 0.00000E+00
 -1      2617 0.00000E+00
 -1      2618 0.00000E+00
 -1      2619 0.00000E+00
 -1      2620 0.00000E+00
 -1      2621 0.00000E+00
 -1      2622 0.00000E+00
 -1      2623 0.00000E+00
 -1      2624 0.00000E+00
 -1      2625 0.00000E+00
 -1      2626 0.00000E+00
 -1      2627 0.00000E+00
 -1      2628 0.00000E+00
 -1      2629 0.00000E+00
 -1      2630 0.00000E+00
 -1      2631 0.00000E+00
 -1      2632 0.00000E+00
 -1      2633 0.00000E+00
 -1      2634 0.00000E+00
 -1      2635 0.00000E+00
 -1      2636 0.00000E+00
 -1      2637 0.00000E+00
 -1      2638 0.00000E+00
 -1      2639 0.00000E+00
 -1      2640 0.00000E+00
 -1      2641 0.00000E+00
 -1      2642 0.00000E+00
 -1      2643 0.00000E+00
 -1      2644 0.00000E+00
 -1      2645 0.00000E+00
 -1      2646 0.00000E+00
 -1      2647 0.00000E+00
 -1      2648 0.00000E+00
 -1      2649 0.00000E+00
 -1      2650 0.00000E+00
 -1      2651 0.00000E+00
 -1      2652 0.00000E+00
 -1      2653 0.00000E+00
 -1      2654 0.00000E+00
 -1      2655 0.00000E+00
 -1      2656 0.00000E+00
 -1      2657 0.00000E+00
 -1      2658 0.00000E+00
 -1      2659 0.00000E+00
 -1      2660 0.00000E+00
 -1      2661 0.00000E+00
 -1      2662 0.00000E+00
 -1      2663 0.00000E+00
 -1      2664 0.00000E+00
 -1      2665 0.00000E+00
 -1      2666 0.00000E+00
 -1      2667 0.00000E+00
 -1      2668 0.00000E+00
 -1      2669 0.00000E+00
 -1      2670 0.00000E+00
 -1      2671 0.00000E+00
 -1      2672 0.00000E+00
 -1      2673 0.00000E+00
 -1      2674 0.00000E+00
 -1      2675 0.00000E+00
 -1      2676 0.00000E+00
 -1      2677 0.00000E+00
 -1      2678 0.00000E+00
 -1      2679 0.00000E+00
 -1      2680 0.00000E+00
 -1      2681 0.00000E+00
 -1      2682 0.00000E+00
 -1      2683 0.00000E+00
 -1      2684 0.00000E+00
 -1      2685 0.00000E+00
 -1      2686 0.00000E+00
 -1      2687 0.00000E+00
 -1      2688 0.00000E+00
 -1      2689 0.00000E+00
 -1      2690 0.00000E+00
 -1      2691 0.00000E+00
 -1      2692 0.00000E+00
 -1      2693 0.00000E+00
 -1      2694 0.00000E+00
 -1      2695 0.00000E+00
 -1      2696 0.00000E+00
 -1      2697 0.00000E+00
 -1      2698 0.00000E+00
 -1      2699 0.00000E+00
 -1      2700 0.00000E+00
 -1      2701 0.00000E+00
 -1      2702 0.00000E+00
 -1      2703 0.00000E+00
 -1      2704 0.00000E+00
 -1      2705 0.00000E+00
 -1      2706 0.00000E+00
 -1      2707 0.00000E+00
 -1      2708 0.00000E+00
 -1      2709 0.00000E+00
 -1      2710 0.00000E+00
 -1      2711 0.00000E+00
 -1      2712 0.00000E+00
 -1      2713 0.00000E+00
 -1      2714 0.00000E+00
 -1      2715 0.00000E+00
 -1      2716 0.00000E+00
 -1      2717 0.00000E+00
 -1      2718 0.00000E+00
 -1      2719 0.00000E+00
 -1      2720 0.00000E+00
 -1      2721 0.00000E+00
 -1      2722 0.00000E+00
 -1      2723 0.00000E+00
 -1      2724 0.00000E+00
 -1      2725 0.00000E+00
 -1      2726 0.00000E+00
 -1      2727 0.00000E+00
 -1      2728 0.00000E+00
 -1      2729 0.00000E+00
 -1      2730 0.00000E+00
 -1      2731 0.00000E+00
 -1      2732 0.00000E+00
 -1      2733 0.00000E+00
 -1      2734 0.00000E+00
 -1      2735 0.00000E+00
 -1      2736 0.00000E+00
 -1      2737 0.00000E+00
 -1      2738 0.00000E+00
 -1      2739 0.00000E+00
 -1      2740 0.00000E+00
 -1      2741 0.00000E+00
 -1      2742 0.00000E+00
 -1      2743 0.00000E+00
 -1      2744 0.00000E+00
 -1      2745 0.00000E+00
 -1      2746 0.00000E+00
 -1      2747 0.00000E+00
 -1      2748 0.00000E+00
 -1      2749 0.00000E+00
 -1      2750 0.00000E+00
 -1      2751 0.00000E+00
 -1      2752 0.00000E+00
 -1      2753 0.00000E+00
 -1      2754 0.00000E+00
 -1      2755 0.00000E+00
 -1      2756 0.00000E+00
 -1      2757 0.00000E+00
 -1      2758 0.00000E+00
 -1      2759 0.00000E+00
 -1      2760 0.00000E+00
 -1      2761 0.00000E+00
 -1      2762 0.00000E+00
 -1      2763 0.00000E+00
 -1      2764 0.00000E+00
 -1      2765 0.00000E+00
 -1      2766 0.00000E+00
 -1      2767 0.00000E+00
 -1      2768 0.00000E+00
 -1      2769 0.00000E+00
 -1      2770 0.00000E+00
 -1      2771 0.00000E+00
 -1      2772 0.00000E+00
 -1      2773 0.00000E+00
 -1      2774 0.00000E+00
 -1      2775 0.00000E+00
 -1      2776 0.00000E+00
 -1      2777 0.00000E+00
 -1      2778 0.00000E+00
 -1      2779 0.00000E+00
 -1      2780 0.00000E+00
 -1      2781 0.00000E+00
 -1      2782 0.00000E+00
 -1      2783 0.00000E+00
 -1      2784 0.00000E+00
 -1      2785 0.00000E+00
 -1      2786 0.00000E+00
 -1      2787 0.00000E+00
 -1      2788 0.00000E+00
 -1      2789 0.00000E+00
 -1      2790 0.00000E+00
 -1      2791 0.00000E+00
 -1      2792 0.00000E+00
 -1      2793 0.00000E+00
 -1      2794 0.00000E+00
 -1      2795 0.00000E+00
 -1      2796 0.00000E+00
 -1      2797 0.00000E+00
 -1      2798 0.00000E+00
 -1      2799 0.00000E+00
 -1      2800 0.00000E+00
 -1      2801 0.00000E+00
 -1      2802 0.00000E+00
 -1      2803 0.00000E+00
 -1      2804 0.00000E+00
 -1      2805 0.00000E+00
 -1      2806 0.00000E+00
 -1      2807 0.00000E+00
 -1      2808 0.00000E+00
 -1      2809 0.00000E+00
 -1      2810 0.00000E+00
 -1      2811 0.00000E+00
 -1      2812 0.00000E+00
 -1      2813 0.00000E+00
 -1      2814 0.00000E+00
 -1      2815 0.00000E+00
 -1      2816 0.00000E+00
 -1      2817 0.00000E+00
 -1      2818 0.00000E+00
 -1      2819 0.00000E+00
 -1      2820 0.00000E+00
 -1      2821 0.00000E+00
 -1      2822 0.00000E+00
 -1      2823 0.00000E+00
 -1      2824 0.00000E+00
 -1      2825 0.00000E+00
 -1      2826 0.00000E+00
 -1      2827 0.00000E+00
 -1      2828 0.00000E+00
 -1      2829 0.00000E+00
 -1      2830 0.00000E+00
 -1      2831 0.00000E+00
 -1      2832 0.00000E+00
 -1      2833 0.00000E+00
 -1      2834 0.00000E+00
 -1      2835 0.00000E+00
 -1      2836 0.00000E+00
 -1      2837 0.00000E+00
 -1      2838 0.00000E+00
 -1      2839 0.00000E+00
 -1      2840 0.00000E+00
 -1      2841 0.00000E+00
 -1      2842 0.00000E+00
 -1      2843 0.00000E+00
 -1      2844 0.00000E+00
 -1      2845 0.00000E+00
 -1      2846 0.00000E+00
 -1      2847 0.00000E+00
 -1      2848 0.00000E+00
 -1      2849 0.00000E+00
 -1      2850 0.00000E+00
 -1      2851 0.00000E+00
 -1      2852 0.00000E+00
 -1      2853 0.00000E+00
 -1      2854 0.00000E+00
 -1      2855 0.00000E+00
 -1      2856 0.00000E+00
 -1      2857 0.00000E+00
 -1      2858 0.00000E+00
 -1      2859 0.00000E+00
 -1      2860 0.00000E+00
 -1      2861 0.00000E+00
 -1      2862 0.00000E+00
 -1      2863 0.00000E+00
 -1      2864 0.00000E+00
 -1      2865 0.00000E+00
 -1      2866 0.00000E+00
 -1      2867 0.00000E+00
 -1      2868 0.00000E+00
 -1      2869 0.00000E+00
 -1      2870 0.00000E+00
 -1      2871 0.00000E+00
 -1      2872 0.00000E+00
 -1      2873 0.00000E+00
 -1      2874 0.00000E+00
 -1      2875 0.00000E+00
 -1      2876 0.00000E+00
 -1      2877 0.00000E+00
 -1      2878 0.00000E+00
 -1      2879 0.00000E+00
 -1      2880 0.00000E+00
 -1      2881 0.00000E+00
 -1      2882 0.00000E+00
 -1      2883 0.00000E+00
 -1      2884 0.00000E+00
 -1      2885 0.00000E+00
 -1      2886 0.00000E+00
 -1      2887 0.00000E+00
 -1      2888 0.00000E+00
 -1      2889 0.00000E+00
 -1      2890 0.00000E+00
 -1      2891 0.00000E+00
 -1      2892 0.00000E+00
 -1      2893 0.00000E+00
 -1      2894 0.00000E+00
 -1      2895 0.00000E+00
 -1      2896 0.00000E+00
 -1      2897 0.00000E+00
 -1      2898 0.00000E+00
 -1      2899 0.00000E+00
 -1      2900 0.00000E+00
 -1      2901 0.00000E+00
 -1      2902 0.00000E+00
 -1      2903 0.00000E+00
 -1      2904 0.00000E+00
 -1      2905 0.00000E+00
 -1      2906 0.00000E+00
 -1      2907 0.00000E+00
 -1      2908 0.00000E+00
 -1      2909 0.00000E+00
 -1      2910 0.00000E+00
 -1      2911 0.00000E+00
 -1      2912 0.00000E+00
 -1      2913 0.00000E+00
 -1      2914 0.00000E+00
 -1      2915 0.00000E+00
 -1      2916 0.00000E+00
 -1      2917 0.00000E+00
 -1      2918 0.00000E+00
 -1      2919 0.00000E+00
 -1      2920 0.00000E+00
 -1      2921 0.00000E+00
 -1      2922 0.00000E+00
 -1      2923 0.00000E+00
 -1      2924 0.00000E+00
 -1      2925 0.00000E+00
 -1      2926 0.00000E+00
 -1      2927 0.00000E+00
 -1      2928 0.00000E+00
 -1      2929 0.00000E+00
 -1      2930 0.00000E+00
 -1      2931 0.00000E+00
 -1      2932 0.00000E+00
 -1      2933 0.00000E+00
 -1      2934 0.00000E+00
 -1      2935 0.00000E+00
 -1      2936 0.00000E+00
 -1      2937 0.00000E+00
 -1      2938 0.00000E+00
 -1      2939 0.00000E+00
 -1      2940 0.00000E+00
 -1      2941 0.00000E+00
 -1      2942 0.00000E+00
 -1      2943 0.00000E+00
 -1      2944 0.00000E+00
 -1      2945 0.00000E+00
 -1      2946 0.00000E+00
 -1      2947 0.00000E+00
 -1      2948 0.00000E+00
 -1      2949 0.00000E+00
 -1      2950 0.00000E+00
 -1      2951 0.00000E+00
 -1      2952 0.00000E+00
 -1      2953 0.00000E+00
 -1      2954 0.00000E+00
 -1      2955 0.00000E+00
 -1      2956 0.00000E+00
 -1      2957 0.00000E+00
 -1      2958 0.00000E+00
 -1      2959 0.00000E+00
 -1      2960 0.00000E+00
 -1      2961 0.00000E+00
 -1      2962 0.00000E+00
 -1      2963 0.00000E+00
 -1      2964 0.00000E+00
 -1      2965 0.00000E+00
 -1      2966 0.00000E+00
 -1      2967 0.00000E+00
 -1      2968 0.00000E+00
 -1      2969 0.00000E+00
 -1      2970 0.00000E+00
 -1      2971 0.00000E+00
 -1      2972 0.00000E+00
 -1      2973 0.00000E+00
 -1      2974 0.00000E+00
 -1      2975 0.00000E+00
 -1      2976 0.00000E+00
 -1      2977 0.00000E+00
 -1      2978 0.00000E+00
 -1      2979 0.00000E+00
 -1      2980 0.00000E+00
 -1      2981 0.00000E+00
 -1      2982 0.00000E+00
 -1      2983 0.00000E+00
 -1      2984 0.00000E+00
 -1      2985 0.00000E+00
 -1      2986 0.00000E+00
 -1      2987 0.00000E+00
 -1      2988 0.00000E+00
 -1      2989 0.00000E+00
 -1      2990 0.00000E+00
 -1      2991 0.00000E+00
 -1      2992 0.00000E+00
 -1      2993 0.00000E+00
 -1      2994 0.00000E+00
 -1      2995 0.00000E+00
 -1      2996 0.00000E+00
 -1      2997 0.00000E+00
 -1      2998 0.00000E+00
 -1      2999 0.00000E+00
 -1      3000 0.00000E+00
 -1      3001 0.00000E+00
 -1      3002 0.00000E+00
 -1      3003 0.00000E+00
 -1      3004 0.00000E+00
 -1      3005 0.00000E+00
 -1      3006 0.00000E+00
 -1      3007 0.00000E+00
 -1      3008 0.00000E+00
 -1      3009 0.00000E+00
 -1      3010 0.00000E+00
 -1      3011 0.00000E+00
 -1      3012 0.00000E+00
 -1      3013 0.00000E+00
 -1      3014 0.00000E+00
 -1      3015 0.00000E+00
 -1      3016 0.00000E+00
 -1      3017 0.00000E+00
 -1      3018 0.00000E+00
 -1      3019 0.00000E+00
 -1      3020 0.00000E+00
 -1      3021 0.00000E+00
 -1      3022 0.00000E+00
 -1      3023 0.00000E+00
 -1      3024 0.00000E+00
 -1      3025 0.00000E+00
 -1      3026 0.00000E+00
 -1      3027 0.00000E+00
 -1      3028 0.00000E+00
 -1      3029 0.00000E+00
 -1      3030 0.00000E+00
 -1      3031 0.00000E+00
 -1      3032 0.00000E+00
 -1      3033 0.00000E+00
 -1      3034 0.00000E+00
 -1      3035 0.00000E+00
 -1      3036 0.00000E+00
 -1      3037 0.00000E+00
 -1      3038 0.00000E+00
 -1      3039 0.00000E+00
 -1      3040 0.00000E+00
 -1      3041 0.00000E+00
 -1      3042 0.00000E+00
 -1      3043 0.00000E+00
 -1      3044 0.00000E+00
 -1      3045 0.00000E+00
 -1      3046 0.00000E+00
 -1      3047 0.00000E+00
 -1      3048 0.00000E+00
 -1      3049 0.00000E+00
 -1      3050 0.00000E+00
 -1      3051 0.00000E+00
 -1      3052 0.00000E+00
 -1      3053 0.00000E+00
 -1      3054 0.00000E+00
 -1      3055 0.00000E+00
 -1      3056 0.00000E+00
 -1      3057 0.00000E+00
 -1      3058 0.00000E+00
 -1      3059 0.00000E+00
 -1      3060 0.00000E+00
 -1      3061 0.00000E+00
 -1      3062 0.00000E+00
 -1      3063 0.00000E+00
 -1      3064 0.00000E+00
 -1      3065 0.00000E+00
 -1      3066 0.00000E+00
 -1      3067 0.00000E+00
 -1      3068 0.00000E+00
 -1      3069 0.00000E+00
 -1      3070 0.00000E+00
 -1      3071 0.00000E+00
 -1      3072 0.00000E+00
 -1      3073 0.00000E+00
 -1      3074 0.00000E+00
 -1      3075 0.00000E+00
 -1      3076 0.00000E+00
 -1      3077 0.00000E+00
 -1      3078 0.00000E+00
 -1      3079 0.00000E+00
 -1      3080 0.00000E+00
 -1      3081 0.00000E+00
 -1      3082 0.00000E+00
 -1      3083 0.00000E+00
 -1      3084 0.00000E+00
 -1      3085 0.00000E+00
 -1      3086 0.00000E+00
 -1      3087 0.00000E+00
 -1      3088 0.00000E+00
 -1      3089 0.00000E+00
 -1      3090 0.00000E+00
 -1      3091 0.00000E+00
 -1      3092 0.00000E+00
 -1      3093 0.00000E+00
 -1      3094 0.00000E+00
 -1      3095 0.00000E+00
 -1      3096 0.00000E+00
 -1      3097 0.00000E+00
 -1      3098 0.00000E+00
 -1      3099 0.00000E+00
 -1      3100 0.00000E+00
 -1      3101 0.00000E+00
 -1      3102 0.00000E+00
 -1      3103 0.00000E+00
 -1      3104 0.00000E+00
 -1      3105 0.00000E+00
 -1      3106 0.00000E+00
 -1      3107 0.00000E+00
 -1      3108 0.00000E+00
 -1      3109 0.00000E+00
 -1      3110 0.00000E+00
 -1      3111 0.00000E+00
 -1      3112 0.00000E+00
 -1      3113 0.00000E+00
 -1      3114 0.00000E+00
 -1      3115 0.00000E+00
 -1      3116 0.00000E+00
 -1      3117 0.00000E+00
 -1      3118 0.00000E+00
 -1      3119 0.00000E+00
 -1      3120 0.00000E+00
 -1      3121 0.00000E+00
 -1      3122 0.00000E+00
 -1      3123 0.00000E+00
 -1      3124 0.00000E+00
 -1      3125 0.00000E+00
 -1      3126 0.00000E+00
 -1      3127 0.00000E+00
 -1      3128 0.00000E+00
 -1      3129 0.00000E+00
 -1      3130 0.00000E+00
 -1      3131 0.00000E+00
 -1      3132 0.00000E+00
 -1      3133 0.00000E+00
 -1      3134 0.00000E+00
 -1      3135 0.00000E+00
 -1      3136 0.00000E+00
 -1      3137 0.00000E+00
 -1      3138 0.00000E+00
 -1      3139 0.00000E+00
 -1      3140 0.00000E+00
 -1      3141 0.00000E+00
 -1      3142 0.00000E+00
 -1      3143 0.00000E+00
 -1      3144 0.00000E+00
 -1      3145 0.00000E+00
 -1      3146 0.00000E+00
 -1      3147 0.00000E+00
 -1      3148 0.00000E+00
 -1      3149 0.00000E+00
 -1      3150 0.00000E+00
 -1      3151 0.00000E+00
 -1      3152 0.00000E+00
 -1      3153 0.00000E+00
 -1      3154 0.00000E+00
 -1      3155 0.00000E+00
 -1      3156 0.00000E+00
 -1      3157 0.00000E+00
 -1      3158 0.00000E+00
 -1      3159 0.00000E+00
 -1      3160 0.00000E+00
 -1      3161 0.00000E+00
 -1      3162 0.00000E+00
 -1      3163 0.00000E+00
 -1      3164 0.00000E+00
 -1      3165 0.00000E+00
 -1      3166 0.00000E+00
 -1      3167 0.00000E+00
 -1      3168 0.00000E+00
 -1      3169 0.00000E+00
 -1      3170 0.00000E+00
 -1      3171 0.00000E+00
 -1      3172 0.00000E+00
 -1      3173 0.00000E+00
 -1      3174 0.00000E+00
 -1      3175 0.00000E+00
 -1      3176 0.00000E+00
 -1      3177 0.00000E+00
 -1      3178 0.00000E+00
 -1      3179 0.00000E+00
 -1      3180 0.00000E+00
 -1      3181 0.00000E+00
 -1      3182 0.00000E+00
 -1      3183 0.00000E+00
 -1      3184 0.00000E+00
 -1      3185 0.00000E+00
 -1      3186 0.00000E+00
 -1      3187 0.00000E+00
 -1      3188 0.00000E+00
 -1      3189 0.00000E+00
 -1      3190 0.00000E+00
 -1      3191 0.00000E+00
 -1      3192 0.00000E+00
 -1      3193 0.00000E+00
 -1      3194 0.00000E+00
 -1      3195 0.00000E+00
 -1      3196 0.00000E+00
 -1      3197 0.00000E+00
 -1      3198 0.00000E+00
 -1      3199 0.00000E+00
 -1      3200 0.00000E+00
 -1      3201 0.00000E+00
 -1      3202 0.00000E+00
 -1      3203 0.00000E+00
 -1      3204 0.00000E+00
 -1      3205 0.00000E+00
 -1      3206 0.00000E+00
 -1      3207 0.00000E+00
 -1      3208 0.00000E+00
 -1      3209 0.00000E+00
 -1      3210 0.00000E+00
 -1      3211 0.00000E+00
 -1      3212 0.00000E+00
 -1      3213 0.00000E+00
 -1      3214 0.00000E+00
 -1      3215 0.00000E+00
 -1      3216 0.00000E+00
 -1      3217 0.00000E+00
 -1      3218 0.00000E+00
 -1      3219 0.00000E+00
 -1      3220 0.00000E+00
 -1      3221 0.00000E+00
 -1      3222 0.00000E+00
 -1      3223 0.00000E+00
 -1      3224 0.00000E+00
 -1      3225 0.00000E+00
 -1      3226 0.00000E+00
 -1      3227 0.00000E+00
 -1      3228 0.00000E+00
 -1      3229 0.00000E+00
 -1      3230 0.00000E+00
 -1      3231 0.00000E+00
 -1      3232 0.00000E+00
 -1      3233 0.00000E+00
 -1      3234 0.00000E+00
 -1      3235 0.00000E+00
 -1      3236 0.00000E+00
 -1      3237 0.00000E+00
 -1      3238 0.00000E+00
 -1      3239 0.00000E+00
 -1      3240 0.00000E+00
 -1      3241 0.00000E+00
 -1      3242 0.00000E+00
 -1      3243 0.00000E+00
 -1      3244 0.00000E+00
 -1      3245 0.00000E+00
 -1      3246 0.00000E+00
 -1      3247 0.00000E+00
 -1      3248 0.00000E+00
 -1      3249 0.00000E+00
 -1      3250 0.00000E+00
 -1      3251 0.00000E+00
 -1      3252 0.00000E+00
 -1      3253 0.00000E+00
 -1      3254 0.00000E+00
 -1      3255 0.00000E+00
 -1      3256 0.00000E+00
 -1      3257 0.00000E+00
 -1      3258 0.00000E+00
 -1      3259 0.00000E+00
 -1      3260 0.00000E+00
 -1      3261 0.00000E+00
 -1      3262 0.00000E+00
 -1      3263 0.00000E+00
 -1      3264 0.00000E+00
 -1      3265 0.00000E+00
 -1      3266 0.00000E+00
 -1      3267 0.00000E+00
 -1      3268 0.00000E+00
 -1      3269 0.00000E+00
 -1      3270 0.00000E+00
 -1      3271 0.00000E+00
 -1      3272 0.00000E+00
 -1      3273 0.00000E+00
 -1      3274 0.00000E+00
 -1      3275 0.00000E+00
 -1      3276 0.00000E+00
 -1      3277 0.00000E+00
 -1      3278 0.00000E+00
 -1      3279 0.00000E+00
 -1      3280 0.00000E+00
 -1      3281 0.00000E+00
 -1      3282 0.00000E+00
 -1      3283 0.00000E+00
 -1      3284 0.00000E+00
 -1      3285 0.00000E+00
 -1      3286 0.00000E+00
 -1      3287 0.00000E+00
 -1      3288 0.00000E+00
 -1      3289 0.00000E+00
 -1      3290 0.00000E+00
 -1      3291 0.00000E+00
 -1      3292 0.00000E+00
 -1      3293 0.00000E+00
 -1      3294 0.00000E+00
 -1      3295 0.00000E+00
 -1      3296 0.00000E+00
 -1      3297 0.00000E+00
 -1      3298 0.00000E+00
 -1      3299 0.00000E+00
 -1      3300 0.00000E+00
 -1      3301 0.00000E+00
 -1      3302 0.00000E+00
 -1      3303 0.00000E+00
 -1      3304 0.00000E+00
 -1      3305 0.00000E+00
 -1      3306 0.00000E+00
 -1      3307 0.00000E+00
 -1      3308 0.00000E+00
 -1      3309 0.00000E+00
 -1      3310 0.00000E+00
 -1      3311 0.00000E+00
 -1      3312 0.00000E+00
 -1      3313 0.00000E+00
 -1      3314 0.00000E+00
 -1      3315 0.00000E+00
 -1      3316 0.00000E+00
 -1      3317 0.00000E+00
 -1      3318 0.00000E+00
 -1      3319 0.00000E+00
 -1      3320 0.00000E+00
 -1      3321 0.00000E+00
 -1      3322 0.00000E+00
 -1      3323 0.00000E+00
 -1      3324 0.00000E+00
 -1      3325 0.00000E+00
 -1      3326 0.00000E+00
 -1      3327 0.00000E+00
 -1      3328 0.00000E+00
 -1      3329 0.00000E+00
 -1      3330 0.00000E+00
 -1      3331 0.00000E+00
 -1      3332 0.00000E+00
 -1      3333 0.00000E+00
 -1      3334 0.00000E+00
 -1      3335 0.00000E+00
 -1      3336 0.00000E+00
 -1      3337 0.00000E+00
 -1      3338 0.00000E+00
 -1      3339 0.00000E+00
 -1      3340 0.00000E+00
 -1      3341 0.00000E+00
 -1      3342 0.00000E+00
 -1      3343 0.00000E+00
 -1      3344 0.00000E+00
 -1      3345 0.00000E+00
 -1      3346 0.00000E+00
 -1      3347 0.00000E+00
 -1      3348 0.00000E+00
 -1      3349 0.00000E+00
 -1      3350 0.00000E+00
 -1      3351 0.00000E+00
 -1      3352 0.00000E+00
 -1      3353 0.00000E+00
 -1      3354 0.00000E+00
 -1      3355 0.00000E+00
 -1      3356 0.00000E+00
 -1      3357 0.00000E+00
 -1      3358 0.00000E+00
 -1      3359 0.00000E+00
 -1      3360 0.00000E+00
 -1      3361 0.00000E+00
 -1      3362 0.00000E+00
 -1      3363 0.00000E+00
 -1      3364 0.00000E+00
 -1      3365 0.00000E+00
 -1      3366 0.00000E+00
 -1      3367 0.00000E+00
 -1      3368 0.00000E+00
 -1      3369 0.00000E+00
 -1      3370 0.00000E+00
 -1      3371 0.00000E+00
 -1      3372 0.00000E+00
 -1      3373 0.00000E+00
 -1      3374 0.00000E+00
 -1      3375 0.00000E+00
 -1      3376 0.00000E+00
 -1      3377 0.00000E+00
 -1      3378 0.00000E+00
 -1      3379 0.00000E+00
 -1      3380 0.00000E+00
 -1      3381 0.00000E+00
 -1      3382 0.00000E+00
 -1      3383 0.00000E+00
 -1      3384 0.00000E+00
 -1      3385 0.00000E+00
 -1      3386 0.00000E+00
 -1      3387 0.00000E+00
 -1      3388 0.00000E+00
 -1      3389 0.00000E+00
 -1      3390 0.00000E+00
 -1      3391 0.00000E+00
 -1      3392 0.00000E+00
 -1      3393 0.00000E+00
 -1      3394 0.00000E+00
 -1      3395 0.00000E+00
 -1      3396 0.00000E+00
 -1      3397 0.00000E+00
 -1      3398 0.00000E+00
 -1      3399 0.00000E+00
 -1      3400 0.00000E+00
 -1      3401 0.00000E+00
 -1      3402 0.00000E+00
 -1      3403 0.00000E+00
 -1      3404 0.00000E+00
 -1      3405 0.00000E+00
 -1      3406 0.00000E+00
 -1      3407 0.00000E+00
 -1      3408 0.00000E+00
 -1      3409 0.00000E+00
 -1      3410 0.00000E+00
 -1      3411 0.00000E+00
 -1      3412 0.00000E+00
 -1      3413 0.00000E+00
 -1      3414 0.00000E+00
 -1      3415 0.00000E+00
 -1      3416 0.00000E+00
 -1      3417 0.00000E+00
 -1      3418 0.00000E+00
 -1      3419 0.00000E+00
 -1      3420 0.00000E+00
 -1      3421 0.00000E+00
 -1      3422 0.00000E+00
 -1      3423 0.00000E+00
 -1      3424 0.00000E+00
 -1      3425 0.00000E+00
 -1      3426 0.00000E+00
 -1      3427 0.00000E+00
 -1      3428 0.00000E+00
 -1      3429 0.00000E+00
 -1      3430 0.00000E+00
 -1      3431 0.00000E+00
 -1      3432 0.00000E+00
 -1      3433 0.00000E+00
 -1      3434 0.00000E+00
 -1      3435 0.00000E+00
 -1      3436 0.00000E+00
 -1      3437 0.00000E+00
 -1      3438 0.00000E+00
 -1      3439 0.00000E+00
 -1      3440 0.00000E+00
 -1      3441 0.00000E+00
 -1      3442 0.00000E+00
 -1      3443 0.00000E+00
 -1      3444 0.00000E+00
 -1      3445 0.00000E+00
 -1      3446 0.00000E+00
 -1      3447 0.00000E+00
 -1      3448 0.00000E+00
 -1      3449 0.00000E+00
 -1      3450 0.00000E+00
 -1      3451 0.00000E+00
 -1      3452 0.00000E+00
 -1      3453 0.00000E+00
 -1      3454 0.00000E+00
 -1      3455 0.00000E+00
 -1      3456 0.00000E+00
 -1      3457 0.00000E+00
 -1      3458 0.00000E+00
 -1      3459 0.00000E+00
 -1      3460 0.00000E+00
 -1      3461 0.00000E+00
 -1      3462 0.00000E+00
 -1      3463 0.00000E+00
 -1      3464 0.00000E+00
 -1      3465 0.00000E+00
 -1      3466 0.00000E+00
 -1      3467 0.00000E+00
 -1      3468 0.00000E+00
 -1      3469 0.00000E+00
 -1      3470 0.00000E+00
 -1      3471 0.00000E+00
 -1      3472 0.00000E+00
 -1      3473 0.00000E+00
 -1      3474 0.00000E+00
 -1      3475 0.00000E+00
 -1      3476 0.00000E+00
 -1      3477 0.00000E+00
 -1      3478 0.00000E+00
 -1      3479 0.00000E+00
 -1      3480 0.00000E+00
 -1      3481 0.00000E+00
 -1      3482 0.00000E+00
 -1      3483 0.00000E+00
 -1      3484 0.00000E+00
 -1      3485 0.00000E+00
 -1      3486 0.00000E+00
 -1      3487 0.00000E+00
 -1      3488 0.00000E+00
 -1      3489 0.00000E+00
 -1      3490 0.00000E+00
 -1      3491 0.00000E+00
 -1      3492 0.00000E+00
 -1      3493 0.00000E+00
 -1      3494 0.00000E+00
 -1      3495 0.00000E+00
 -1      3496 0.00000E+00
 -1      3497 0.00000E+00
 -1      3498 0.00000E+00
 -1      3499 0.00000E+00
 -1      3500 0.00000E+00
 -1      3501 0.00000E+00
 -1      3502 0.00000E+00
 -1      3503 0.00000E+00
 -1      3504 0.00000E+00
 -1      3505 0.00000E+00
 -1      3506 0.00000E+00
 -1      3507 0.00000E+00
 -1      3508 0.00000E+00
 -1      3509 0.00000E+00
 -1      3510 0.00000E+00
 -1      3511 0.00000E+00
 -1      3512 0.00000E+00
 -1      3513 0.00000E+00
 -1      3514 0.00000E+00
 -1      3515 0.00000E+00
 -1      3516 0.00000E+00
 -1      3517 0.00000E+00
 -1      3518 0.00000E+00
 -1      3519 0.00000E+00
 -1      3520 0.00000E+00
 -1      3521 0.00000E+00
 -1      3522 0.00000E+00
 -1      3523 0.00000E+00
 -1      3524 0.00000E+00
 -1      3525 0.00000E+00
 -1      3526 0.00000E+00
 -1      3527 0.00000E+00
 -1      3528 0.00000E+00
 -1      3529 0.00000E+00
 -1      3530 0.00000E+00
 -1      3531 0.00000E+00
 -1      3532 0.00000E+00
 -1      3533 0.00000E+00
 -1      3534 0.00000E+00
 -1      3535 0.00000E+00
 -1      3536 0.00000E+00
 -1      3537 0.00000E+00
 -1      3538 0.00000E+00
 -1      3539 0.00000E+00
 -1      3540 0.00000E+00
 -1      3541 0.00000E+00
 -1      3542 0.00000E+00
 -1      3543 0.00000E+00
 -1      3544 0.00000E+00
 -1      3545 0.00000E+00
 -1      3546 0.00000E+00
 -1      3547 0.00000E+00
 -1      3548 0.00000E+00
 -1      3549 0.00000E+00
 -1      3550 0.00000E+00
 -1      3551 0.00000E+00
 -1      3552 0.00000E+00
 -1      3553 0.00000E+00
 -1      3554 0.00000E+00
 -1      3555 0.00000E+00
 -1      3556 0.00000E+00
 -1      3557 0.00000E+00
 -1      3558 0.00000E+00
 -1      3559 0.00000E+00
 -1      3560 0.00000E+00
 -1      3561 0.00000E+00
 -1      3562 0.00000E+00
 -1      3563 0.00000E+00
 -1      3564 0.00000E+00
 -1      3565 0.00000E+00
 -1      3566 0.00000E+00
 -1      3567 0.00000E+00
 -1      3568 0.00000E+00
 -1      3569 0.00000E+00
 -1      3570 0.00000E+00
 -1      3571 0.00000E+00
 -1      3572 0.00000E+00
 -1      3573 0.00000E+00
 -1      3574 0.00000E+00
 -1      3575 0.00000E+00
 -1      3576 0.00000E+00
 -1      3577 0.00000E+00
 -1      3578 0.00000E+00
 -1      3579 0.00000E+00
 -1      3580 0.00000E+00
 -1      3581 0.00000E+00
 -1      3582 0.00000E+00
 -1      3583 0.00000E+00
 -1      3584 0.00000E+00
 -1      3585 0.00000E+00
 -1      3586 0.00000E+00
 -1      3587 0.00000E+00
 -1      3588 0.00000E+00
 -1      3589 0.00000E+00
 -1      3590 0.00000E+00
 -1      3591 0.00000E+00
 -1      3592 0.00000E+00
 -1      3593 0.00000E+00
 -1      3594 0.00000E+00
 -1      3595 0.00000E+00
 -1      3596 0.00000E+00
 -1      3597 0.00000E+00
 -1      3598 0.00000E+00
 -1      3599 0.00000E+00
 -1      3600 0.00000E+00
 -1      3601 0.00000E+00
 -1      3602 0.00000E+00
 -1      3603 0.00000E+00
 -1      3604 0.00000E+00
 -1      3605 0.00000E+00
 -1      3606 0.00000E+00
 -1      3607 0.00000E+00
 -1      3608 0.00000E+00
 -1      3609 0.00000E+00
 -1      3610 0.00000E+00
 -1      3611 0.00000E+00
 -1      3612 0.00000E+00
 -1      3613 0.00000E+00
 -1      3614 0.00000E+00
 -1      3615 0.00000E+00
 -1      3616 0.00000E+00
 -1      3617 0.00000E+00
 -1      3618 0.00000E+00
 -1      3619 0.00000E+00
 -1      3620 0.00000E+00
 -1      3621 0.00000E+00
 -1      3622 0.00000E+00
 -1      3623 0.00000E+00
 -1      3624 0.00000E+00
 -1      3625 0.00000E+00
 -1      3626 0.00000E+00
 -1      3627 0.00000E+00
 -1      3628 0.00000E+00
 -1      3629 0.00000E+00
 -1      3630 0.00000E+00
 -1      3631 0.00000E+00
 -1      3632 0.00000E+00
 -1      3633 0.00000E+00
 -1      3634 0.00000E+00
 -1      3635 0.00000E+00
 -1      3636 0.00000E+00
 -1      3637 0.00000E+00
 -1      3638 0.00000E+00
 -1      3639 0.00000E+00
 -1      3640 0.00000E+00
 -1      3641 0.00000E+00
 -1      3642 0.00000E+00
 -1      3643 0.00000E+00
 -1      3644 0.00000E+00
 -1      3645 0.00000E+00
 -1      3646 0.00000E+00
 -1      3647 0.00000E+00
 -1      3648 0.00000E+00
 -1      3649 0.00000E+00
 -1      3650 0.00000E+00
 -1      3651 0.00000E+00
 -1      3652 0.00000E+00
 -1      3653 0.00000E+00
 -1      3654 0.00000E+00
 -1      3655 0.00000E+00
 -1      3656 0.00000E+00
 -1      3657 0.00000E+00
 -1      3658 0.00000E+00
 -1      3659 0.00000E+00
 -1      3660 0.00000E+00
 -1      3661 0.00000E+00
 -1      3662 0.00000E+00
 -1      3663 0.00000E+00
 -1      3664 0.00000E+00
 -1      3665 0.00000E+00
 -1      3666 0.00000E+00
 -1      3667 0.00000E+00
 -1      3668 0.00000E+00
 -1      3669 0.00000E+00
 -1      3670 0.00000E+00
 -1      3671 0.00000E+00
 -1      3672 0.00000E+00
 -1      3673 0.00000E+00
 -1      3674 0.00000E+00
 -1      3675 0.00000E+00
 -1      3676 0.00000E+00
 -1      3677 0.00000E+00
 -1      3678 0.00000E+00
 -1      3679 0.00000E+00
 -1      3680 0.00000E+00
 -1      3681 0.00000E+00
 -1      3682 0.00000E+00
 -1      3683 0.00000E+00
 -1      3684 0.00000E+00
 -1      3685 0.00000E+00
 -1      3686 0.00000E+00
 -1      3687 0.00000E+00
 -1      3688 0.00000E+00
 -1      3689 0.00000E+00
 -1      3690 0.00000E+00
 -1      3691 0.00000E+00
 -1      3692 0.00000E+00
 -1      3693 0.00000E+00
 -1      3694 0.00000E+00
 -1      3695 0.00000E+00
 -1      3696 0.00000E+00
 -1      3697 0.00000E+00
 -1      3698 0.00000E+00
 -1      3699 0.00000E+00
 -1      3700 0.00000E+00
 -1      3701 0.00000E+00
 -1      3702 0.00000E+00
 -1      3703 0.00000E+00
 -1      3704 0.00000E+00
 -1      3705 0.00000E+00
 -1      3706 0.00000E+00
 -1      3707 0.00000E+00
 -1      3708 0.00000E+00
 -1      3709 0.00000E+00
 -1      3710 0.00000E+00
 -1      3711 0.00000E+00
 -1      3712 0.00000E+00
 -1      3713 0.00000E+00
 -1      3714 0.00000E+00
 -1      3715 0.00000E+00
 -1      3716 0.00000E+00
 -1      3717 0.00000E+00
 -1      3718 0.00000E+00
 -1      3719 0.00000E+00
 -1      3720 0.00000E+00
 -1      3721 0.00000E+00
 -1      3722 0.00000E+00
 -1      3723 0.00000E+00
 -1      3724 0.00000E+00
 -1      3725 0.00000E+00
 -1      3726 0.00000E+00
 -1      3727 0.00000E+00
 -1      3728 0.00000E+00
 -1      3729 0.00000E+00
 -1      3730 0.00000E+00
 -1      3731 0.00000E+00
 -1      3732 0.00000E+00
 -1      3733 0.00000E+00
 -1      3734 0.00000E+00
 -1      3735 0.00000E+00
 -1      3736 0.00000E+00
 -1      3737 0.00000E+00
 -1      3738 0.00000E+00
 -1      3739 0.00000E+00
 -1      3740 0.00000E+00
 -1      3741 0.00000E+00
 -1      3742 0.00000E+00
 -1      3743 0.00000E+00
 -1      3744 0.00000E+00
 -1      3745 0.00000E+00
 -1      3746 0.00000E+00
 -1      3747 0.00000E+00
 -1      3748 0.00000E+00
 -1      3749 0.00000E+00
 -1      3750 0.00000E+00
 -1      3751 0.00000E+00
 -1      3752 0.00000E+00
 -1      3753 0.00000E+00
 -1      3754 0.00000E+00
 -1      3755 0.00000E+00
 -1      3756 0.00000E+00
 -1      3757 0.00000E+00
 -1      3758 0.00000E+00
 -1      3759 0.00000E+00
 -1      3760 0.00000E+00
 -1      3761 0.00000E+00
 -1      3762 0.00000E+00
 -1      3763 0.00000E+00
 -1      3764 0.00000E+00
 -1      3765 0.00000E+00
 -1      3766 0.00000E+00
 -1      3767 0.00000E+00
 -1      3768 0.00000E+00
 -1      3769 0.00000E+00
 -1      3770 0.00000E+00
 -1      3771 0.00000E+00
 -1      3772 0.00000E+00
 -1      3773 0.00000E+00
 -1      3774 0.00000E+00
 -1      3775 0.00000E+00
 -1      3776 0.00000E+00
 -1      3777 0.00000E+00
 -1      3778 0.00000E+00
 -1      3779 0.00000E+00
 -1      3780 0.00000E+00
 -1      3781 0.00000E+00
 -1      3782 0.00000E+00
 -1      3783 0.00000E+00
 -1      3784 0.00000E+00
 -1      3785 0.00000E+00
 -1      3786 0.00000E+00
 -1      3787 0.00000E+00
 -1      3788 0.00000E+00
 -1      3789 0.00000E+00
 -1      3790 0.00000E+00
 -1      3791 0.00000E+00
 -1      3792 0.00000E+00
 -1      3793 0.00000E+00
 -1      3794 0.00000E+00
 -1      3795 0.00000E+00
 -1      3796 0.00000E+00
 -1      3797 0.00000E+00
 -1      3798 0.00000E+00
 -1      3799 0.00000E+00
 -1      3800 0.00000E+00
 -1      3801 0.00000E+00
 -1      3802 0.00000E+00
 -1      3803 0.00000E+00
 -1      3804 0.00000E+00
 -1      3805 0.00000E+00
 -1      3806 0.00000E+00
 -1      3807 0.00000E+00
 -1      3808 0.00000E+00
 -1      3809 0.00000E+00
 -1      3810 0.00000E+00
 -1      3811 0.00000E+00
 -1      3812 0.00000E+00
 -1      3813 0.00000E+00
 -1      3814 0.00000E+00
 -1      3815 0.00000E+00
 -1      3816 0.00000E+00
 -1      3817 0.00000E+00
 -1      3818 0.00000E+00
 -1      3819 0.00000E+00
 -1      3820 0.00000E+00
 -1      3821 0.00000E+00
 -1      3822 0.00000E+00
 -1      3823 0.00000E+00
 -1      3824 0.00000E+00
 -1      3825 0.00000E+00
 -1      3826 0.00000E+00
 -1      3827 0.00000E+00
 -1      3828 0.00000E+00
 -1      3829 0.00000E+00
 -1      3830 0.00000E+00
 -1      3831 0.00000E+00
 -1      3832 0.00000E+00
 -1      3833 0.00000E+00
 -1      3834 0.00000E+00
 -1      3835 0.00000E+00
 -1      3836 0.00000E+00
 -1      3837 0.00000E+00
 -1      3838 0.00000E+00
 -1      3839 0.00000E+00
 -1      3840 0.00000E+00
 -1      3841 0.00000E+00
 -1      3842 0.00000E+00
 -1      3843 0.00000E+00
 -1      3844 0.00000E+00
 -1      3845 0.00000E+00
 -1      3846 0.00000E+00
 -1      3847 0.00000E+00
 -1      3848 0.00000E+00
 -1      3849 0.00000E+00
 -1      3850 0.00000E+00
 -1      3851 0.00000E+00
 -1      3852 0.00000E+00
 -1      3853 0.00000E+00
 -1      3854 0.00000E+00
 -1      3855 0.00000E+00
 -1      3856 0.00000E+00
 -1      3857 0.00000E+00
 -1      3858 0.00000E+00
 -1      3859 0.00000E+00
 -1      3860 0.00000E+00
 -1      3861 0.00000E+00
 -1      3862 0.00000E+00
 -1      3863 0.00000E+00
 -1      3864 0.00000E+00
 -1      3865 0.00000E+00
 -1      3866 0.00000E+00
 -1      3867 0.00000E+00
 -1      3868 0.00000E+00
 -1      3869 0.00000E+00
 -1      3870 0.00000E+00
 -1      3871 0.00000E+00
 -1      3872 0.00000E+00
 -1      3873 0.00000E+00
 -1      3874 0.00000E+00
 -1      3875 0.00000E+00
 -1      3876 0.00000E+00
 -1      3877 0.00000E+00
 -1      3878 0.00000E+00
 -1      3879 0.00000E+00
 -1      3880 0.00000E+00
 -1      3881 0.00000E+00
 -1      3882 0.00000E+00
 -1      3883 0.00000E+00
 -1      3884 0.00000E+00
 -1      3885 0.00000E+00
 -1      3886 0.00000E+00
 -1      3887 0.00000E+00
 -1      3888 0.00000E+00
 -1      3889 0.00000E+00
 -1      3890 0.00000E+00
 -1      3891 0.00000E+00
 -1      3892 0.00000E+00
 -1      3893 0.00000E+00
 -1      3894 0.00000E+00
 -1      3895 0.00000E+00
 -1      3896 0.00000E+00
 -1      3897 0.00000E+00
 -1      3898 0.00000E+00
 -1      3899 0.00000E+00
 -1      3900 0.00000E+00
 -1      3901 0.00000E+00
 -1      3902 0.00000E+00
 -1      3903 0.00000E+00
 -1      3904 0.00000E+00
 -1      3905 0.00000E+00
 -1      3906 0.00000E+00
 -1      3907 0.00000E+00
 -1      3908 0.00000E+00
 -1      3909 0.00000E+00
 -1      3910 0.00000E+00
 -1      3911 0.00000E+00
 -1      3912 0.00000E+00
 -1      3913 0.00000E+00
 -1      3914 0.00000E+00
 -1      3915 0.00000E+00
 -1      3916 0.00000E+00
 -1      3917 0.00000E+00
 -1      3918 0.00000E+00
 -1      3919 0.00000E+00
 -1      3920 0.00000E+00
 -1      3921 0.00000E+00
 -1      3922 0.00000E+00
 -1      3923 0.00000E+00
 -1      3924 0.00000E+00
 -1      3925 0.00000E+00
 -1      3926 0.00000E+00
 -1      3927 0.00000E+00
 -1      3928 0.00000E+00
 -1      3929 0.00000E+00
 -1      3930 0.00000E+00
 -1      3931 0.00000E+00
 -1      3932 0.00000E+00
 -1      3933 0.00000E+00
 -1      3934 0.00000E+00
 -1      3935 0.00000E+00
 -1      3936 0.00000E+00
 -1      3937 0.00000E+00
 -1      3938 0.00000E+00
 -1      3939 0.00000E+00
 -1      3940 0.00000E+00
 -1      3941 0.00000E+00
 -1      3942 0.00000E+00
 -1      3943 0.00000E+00
 -1      3944 0.00000E+00
 -1      3945 0.00000E+00
 -1      3946 0.00000E+00
 -1      3947 0.00000E+00
 -1      3948 0.00000E+00
 -1      3949 0.00000E+00
 -1      3950 0.00000E+00
 -1      3951 0.00000E+00
 -1      3952 0.00000E+00
 -1      3953 0.00000E+00
 -1      3954 0.00000E+00
 -1      3955 0.00000E+00
 -1      3956 0.00000E+00
 -1      3957 0.00000E+00
 -1      3958 0.00000E+00
 -1      3959 0.00000E+00
 -1      3960 0.00000E+00
 -1      3961 0.00000E+00
 -1      3962 0.00000E+00
 -1      3963 0.00000E+00
 -1      3964 0.00000E+00
 -1      3965 0.00000E+00
 -1      3966 0.00000E+00
 -1      3967 0.00000E+00
 -1      3968 0.00000E+00
 -1      3969 0.00000E+00
 -1      3970 0.00000E+00
 -1      3971 0.00000E+00
 -1      3972 0.00000E+00
 -1      3973 0.00000E+00
 -1      3974 0.00000E+00
 -1      3975 0.00000E+00
 -1      3976 0.00000E+00
 -1      3977 0.00000E+00
 -1      3978 0.00000E+00
 -1      3979 0.00000E+00
 -1      3980 0.00000E+00
 -1      3981 0.00000E+00
 -1      3982 0.00000E+00
 -1      3983 0.00000E+00
 -1      3984 0.00000E+00
 -1      3985 0.00000E+00
 -1      3986 0.00000E+00
 -1      3987 0.00000E+00
 -1      3988 0.00000E+00
 -1      3989 0.00000E+00
 -1      3990 0.00000E+00
 -1      3991 0.00000E+00
 -1      3992 0.00000E+00
 -1      3993 0.00000E+00
 -1      3994 0.00000E+00
 -1      3995 0.00000E+00
 -1      3996 0.00000E+00
 -1      3997 0.00000E+00
 -1      3998 0.00000E+00
 -1      3999 0.00000E+00
 -1      4000 0.00000E+00
 -1      4001 0.00000E+00
 -1      4002 0.00000E+00
 -1      4003 0.00000E+00
 -1      4004 0.00000E+00
 -1      4005 0.00000E+00
 -1      4006 0.00000E+00
 -1      4007 0.00000E+00
 -1      4008 0.00000E+00
 -1      4009 0.00000E+00
 -1      4010 0.00000E+00
 -1      4011 0.00000E+00
 -1      4012 0.00000E+00
 -1      4013 0.00000E+00
 -1      4014 0.00000E+00
 -1      4015 0.00000E+00
 -1      4016 0.00000E+00
 -1      4017 0.00000E+00
 -1      4018 0.00000E+00
 -1      4019 0.00000E+00
 -1      4020 0.00000E+00
 -1      4021 0.00000E+00
 -1      4022 0.00000E+00
 -1      4023 0.00000E+00
 -1      4024 0.00000E+00
 -1      4025 0.00000E+00
 -1      4026 0.00000E+00
 -1      4027 0.00000E+00
 -1      4028 0.00000E+00
 -1      4029 0.00000E+00
 -1      4030 0.00000E+00
 -1      4031 0.00000E+00
 -1      4032 0.00000E+00
 -1      4033 0.00000E+00
 -1      4034 0.00000E+00
 -1      4035 0.00000E+00
 -1      4036 0.00000E+00
 -1      4037 0.00000E+00
 -1      4038 0.00000E+00
 -1      4039 0.00000E+00
 -1      4040 0.00000E+00
 -1      4041 0.00000E+00
 -1      4042 0.00000E+00
 -1      4043 0.00000E+00
 -1      4044 0.00000E+00
 -1      4045 0.00000E+00
 -1      4046 0.00000E+00
 -1      4047 0.00000E+00
 -1      4048 0.00000E+00
 -1      4049 0.00000E+00
 -1      4050 0.00000E+00
 -1      4051 0.00000E+00
 -1      4052 0.00000E+00
 -1      4053 0.00000E+00
 -1      4054 0.00000E+00
 -1      4055 0.00000E+00
 -1      4056 0.00000E+00
 -1      4057 0.00000E+00
 -1      4058 0.00000E+00
 -1      4059 0.00000E+00
 -1      4060 0.00000E+00
 -1      4061 0.00000E+00
 -1      4062 0.00000E+00
 -1      4063 0.00000E+00
 -1      4064 0.00000E+00
 -1      4065 0.00000E+00
 -1      4066 0.00000E+00
 -1      4067 0.00000E+00
 -1      4068 0.00000E+00
 -1      4069 0.00000E+00
 -1      4070 0.00000E+00
 -1      4071 0.00000E+00
 -1      4072 0.00000E+00
 -1      4073 0.00000E+00
 -1      4074 0.00000E+00
 -1      4075 0.00000E+00
 -1      4076 0.00000E+00
 -1      4077 0.00000E+00
 -1      4078 0.00000E+00
 -1      4079 0.00000E+00
 -1      4080 0.00000E+00
 -1      4081 0.00000E+00
 -1      4082 0.00000E+00
 -1      4083 0.00000E+00
 -1      4084 0.00000E+00
 -1      4085 0.00000E+00
 -1      4086 0.00000E+00
 -1      4087 0.00000E+00
 -1      4088 0.00000E+00
 -1      4089 0.00000E+00
 -1      4090 0.00000E+00
 -1      4091 0.00000E+00
 -1      4092 0.00000E+00
 -1      4093 0.00000E+00
 -1      4094 0.00000E+00
 -1      4095 0.00000E+00
 -1      4096 0.00000E+00
 -1      4097 0.00000E+00
 -1      4098 0.00000E+00
 -1      4099 0.00000E+00
 -1      4100 0.00000E+00
 -1      4101 0.00000E+00
 -1      4102 0.00000E+00
 -1      4103 0.00000E+00
 -1      4104 0.00000E+00
 -1      4105 0.00000E+00
 -1      4106 0.00000E+00
 -1      4107 0.00000E+00
 -1      4108 0.00000E+00
 -1      4109 0.00000E+00
 -1      4110 0.00000E+00
 -1      4111 0.00000E+00
 -1      4112 0.00000E+00
 -1      4113 0.00000E+00
 -1      4114 0.00000E+00
 -1      4115 0.00000E+00
 -1      4116 0.00000E+00
 -1      4117 0.00000E+00
 -1      4118 0.00000E+00
 -1      4119 0.00000E+00
 -1      4120 0.00000E+00
 -1      4121 0.00000E+00
 -1      4122 0.00000E+00
 -1      4123 0.00000E+00
 -1      4124 0.00000E+00
 -1      4125 0.00000E+00
 -1      4126 0.00000E+00
 -1      4127 0.00000E+00
 -1      4128 0.00000E+00
 -1      4129 0.00000E+00
 -1      4130 0.00000E+00
 -1      4131 0.00000E+00
 -1      4132 0.00000E+00
 -1      4133 0.00000E+00
 -1      4134 0.00000E+00
 -1      4135 0.00000E+00
 -1      4136 0.00000E+00
 -1      4137 0.00000E+00
 -1      4138 0.00000E+00
 -1      4139 0.00000E+00
 -1      4140 0.00000E+00
 -1      4141 0.00000E+00
 -1      4142 0.00000E+00
 -1      4143 0.00000E+00
 -1      4144 0.00000E+00
 -1      4145 0.00000E+00
 -1      4146 0.00000E+00
 -1      4147 0.00000E+00
 -1      4148 0.00000E+00
 -1      4149 0.00000E+00
 -1      4150 0.00000E+00
 -1      4151 0.00000E+00
 -1      4152 0.00000E+00
 -1      4153 0.00000E+00
 -1      4154 0.00000E+00
 -1      4155 0.00000E+00
 -1      4156 0.00000E+00
 -1      4157 0.00000E+00
 -1      4158 0.00000E+00
 -1      4159 0.00000E+00
 -1      4160 0.00000E+00
 -1      4161 0.00000E+00
 -1      4162 0.00000E+00
 -1      4163 0.00000E+00
 -1      4164 0.00000E+00
 -1      4165 0.00000E+00
 -1      4166 0.00000E+00
 -1      4167 0.00000E+00
 -1      4168 0.00000E+00
 -1      4169 0.00000E+00
 -1      4170 0.00000E+00
 -1      4171 0.00000E+00
 -1      4172 0.00000E+00
 -1      4173 0.00000E+00
 -1      4174 0.00000E+00
 -1      4175 0.00000E+00
 -1      4176 0.00000E+00
 -1      4177 0.00000E+00
 -1      4178 0.00000E+00
 -1      4179 0.00000E+00
 -1      4180 0.00000E+00
 -1      4181 0.00000E+00
 -1      4182 0.00000E+00
 -1      4183 0.00000E+00
 -1      4184 0.00000E+00
 -1      4185 0.00000E+00
 -1      4186 0.00000E+00
 -1      4187 0.00000E+00
 -1      4188 0.00000E+00
 -1      4189 0.00000E+00
 -1      4190 0.00000E+00
 -1      4191 0.00000E+00
 -1      4192 0.00000E+00
 -1      4193 0.00000E+00
 -1      4194 0.00000E+00
 -1      4195 0.00000E+00
 -1      4196 0.00000E+00
 -1      4197 0.00000E+00
 -1      4198 0.00000E+00
 -1      4199 0.00000E+00
 -1      4200 0.00000E+00
 -1      4201 0.00000E+00
 -1      4202 0.00000E+00
 -1      4203 0.00000E+00
 -1      4204 0.00000E+00
 -1      4205 0.00000E+00
 -1      4206 0.00000E+00
 -1      4207 0.00000E+00
 -1      4208 0.00000E+00
 -1      4209 0.00000E+00
 -1      4210 0.00000E+00
 -1      4211 0.00000E+00
 -1      4212 0.00000E+00
 -1      4213 0.00000E+00
 -1      4214 0.00000E+00
 -1      4215 0.00000E+00
 -1      4216 0.00000E+00
 -1      4217 0.00000E+00
 -1      4218 0.00000E+00
 -1      4219 0.00000E+00
 -1      4220 0.00000E+00
 -1      4221 0.00000E+00
 -1      4222 0.00000E+00
 -1      4223 0.00000E+00
 -1      4224 0.00000E+00
 -1      4225 0.00000E+00
 -1      4226 0.00000E+00
 -1      4227 0.00000E+00
 -1      4228 0.00000E+00
 -1      4229 0.00000E+00
 -1      4230 0.00000E+00
 -1      4231 0.00000E+00
 -1      4232 0.00000E+00
 -1      4233 0.00000E+00
 -1      4234 0.00000E+00
 -1      4235 0.00000E+00
 -1      4236 0.00000E+00
 -1      4237 0.00000E+00
 -1      4238 0.00000E+00
 -1      4239 0.00000E+00
 -1      4240 0.00000E+00
 -1      4241 0.00000E+00
 -1      4242 0.00000E+00
 -1      4243 0.00000E+00
 -1      4244 0.00000E+00
 -1      4245 0.00000E+00
 -1      4246 0.00000E+00
 -1      4247 0.00000E+00
 -1      4248 0.00000E+00
 -1      4249 0.00000E+00
 -1      4250 0.00000E+00
 -1      4251 0.00000E+00
 -1      4252 0.00000E+00
 -1      4253 0.00000E+00
 -1      4254 0.00000E+00
 -1      4255 0.00000E+00
 -1      4256 0.00000E+00
 -1      4257 0.00000E+00
 -1      4258 0.00000E+00
 -1      4259 0.00000E+00
 -1      4260 0.00000E+00
 -1      4261 0.00000E+00
 -1      4262 0.00000E+00
 -1      4263 0.00000E+00
 -1      4264 0.00000E+00
 -1      4265 0.00000E+00
 -1      4266 0.00000E+00
 -1      4267 0.00000E+00
 -1      4268 0.00000E+00
 -1      4269 0.00000E+00
 -1      4270 0.00000E+00
 -1      4271 0.00000E+00
 -1      4272 0.00000E+00
 -1      4273 0.00000E+00
 -1      4274 0.00000E+00
 -1      4275 0.00000E+00
 -1      4276 0.00000E+00
 -1      4277 0.00000E+00
 -1      4278 0.00000E+00
 -1      4279 0.00000E+00
 -1      4280 0.00000E+00
 -1      4281 0.00000E+00
 -1      4282 0.00000E+00
 -1      4283 0.00000E+00
 -1      4284 0.00000E+00
 -1      4285 0.00000E+00
 -1      4286 0.00000E+00
 -1      4287 0.00000E+00
 -1      4288 0.00000E+00
 -1      4289 0.00000E+00
 -1      4290 0.00000E+00
 -1      4291 0.00000E+00
 -1      4292 0.00000E+00
 -1      4293 0.00000E+00
 -1      4294 0.00000E+00
 -1      4295 0.00000E+00
 -1      4296 0.00000E+00
 -1      4297 0.00000E+00
 -1      4298 0.00000E+00
 -1      4299 0.00000E+00
 -1      4300 0.00000E+00
 -1      4301 0.00000E+00
 -1      4302 0.00000E+00
 -1      4303 0.00000E+00
 -1      4304 0.00000E+00
 -1      4305 0.00000E+00
 -1      4306 0.00000E+00
 -1      4307 0.00000E+00
 -1      4308 0.00000E+00
 -1      4309 0.00000E+00
 -1      4310 0.00000E+00
 -1      4311 0.00000E+00
 -1      4312 0.00000E+00
 -1      4313 0.00000E+00
 -1      4314 0.00000E+00
 -1      4315 0.00000E+00
 -1      4316 0.00000E+00
 -1      4317 0.00000E+00
 -1      4318 0.00000E+00
 -1      4319 0.00000E+00
 -1      4320 0.00000E+00
 -1      4321 0.00000E+00
 -1      4322 0.00000E+00
 -1      4323 0.00000E+00
 -1      4324 0.00000E+00
 -1      4325 0.00000E+00
 -1      4326 0.00000E+00
 -1      4327 0.00000E+00
 -1      4328 0.00000E+00
 -1      4329 0.00000E+00
 -1      4330 0.00000E+00
 -1      4331 0.00000E+00
 -1      4332 0.00000E+00
 -1      4333 0.00000E+00
 -1      4334 0.00000E+00
 -1      4335 0.00000E+00
 -1      4336 0.00000E+00
 -1      4337 0.00000E+00
 -1      4338 0.00000E+00
 -1      4339 0.00000E+00
 -1      4340 0.00000E+00
 -1      4341 0.00000E+00
 -1      4342 0.00000E+00
 -1      4343 0.00000E+00
 -1      4344 0.00000E+00
 -1      4345 0.00000E+00
 -1      4346 0.00000E+00
 -1      4347 0.00000E+00
 -1      4348 0.00000E+00
 -1      4349 0.00000E+00
 -1      4350 0.00000E+00
 -1      4351 0.00000E+00
 -1      4352 0.00000E+00
 -1      4353 0.00000E+00
 -1      4354 0.00000E+00
 -1      4355 0.00000E+00
 -1      4356 0.00000E+00
 -1      4357 0.00000E+00
 -1      4358 0.00000E+00
 -1      4359 0.00000E+00
 -1      4360 0.00000E+00
 -1      4361 0.00000E+00
 -1      4362 0.00000E+00
 -1      4363 0.00000E+00
 -1      4364 0.00000E+00
 -1      4365 0.00000E+00
 -1      4366 0.00000E+00
 -1      4367 0.00000E+00
 -1      4368 0.00000E+00
 -1      4369 0.00000E+00
 -1      4370 0.00000E+00
 -1      4371 0.00000E+00
 -1      4372 0.00000E+00
 -1      4373 0.00000E+00
 -1      4374 0.00000E+00
 -1      4375 0.00000E+00
 -1      4376 0.00000E+00
 -1      4377 0.00000E+00
 -1      4378 0.00000E+00
 -1      4379 0.00000E+00
 -1      4380 0.00000E+00
 -1      4381 0.00000E+00
 -1      4382 0.00000E+00
 -1      4383 0.00000E+00
 -1      4384 0.00000E+00
 -1      4385 0.00000E+00
 -1      4386 0.00000E+00
 -1      4387 0.00000E+00
 -1      4388 0.00000E+00
 -1      4389 0.00000E+00
 -1      4390 0.00000E+00
 -1      4391 0.00000E+00
 -1      4392 0.00000E+00
 -1      4393 0.00000E+00
 -1      4394 0.00000E+00
 -1      4395 0.00000E+00
 -1      4396 0.00000E+00
 -1      4397 0.00000E+00
 -1      4398 0.00000E+00
 -1      4399 0.00000E+00
 -1      4400 0.00000E+00
 -1      4401 0.00000E+00
 -1      4402 0.00000E+00
 -1      4403 0.00000E+00
 -1      4404 0.00000E+00
 -1      4405 0.00000E+00
 -1      4406 0.00000E+00
 -1      4407 0.00000E+00
 -1      4408 0.00000E+00
 -1      4409 0.00000E+00
 -1      4410 0.00000E+00
 -1      4411 0.00000E+00
 -1      4412 0.00000E+00
 -1      4413 0.00000E+00
 -1      4414 0.00000E+00
 -1      4415 0.00000E+00
 -1      4416 0.00000E+00
 -1      4417 0.00000E+00
 -1      4418 0.00000E+00
 -1      4419 0.00000E+00
 -1      4420 0.00000E+00
 -1      4421 0.00000E+00
 -1      4422 0.00000E+00
 -1      4423 0.00000E+00
 -1      4424 0.00000E+00
 -1      4425 0.00000E+00
 -1      4426 0.00000E+00
 -1      4427 0.00000E+00
 -1      4428 0.00000E+00
 -1      4429 0.00000E+00
 -1      4430 0.00000E+00
 -1      4431 0.00000E+00
 -1      4432 0.00000E+00
 -1      4433 0.00000E+00
 -1      4434 0.00000E+00
 -1      4435 0.00000E+00
 -1      4436 0.00000E+00
 -1      4437 0.00000E+00
 -1      4438 0.00000E+00
 -1      4439 0.00000E+00
 -1      4440 0.00000E+00
 -1      4441 0.00000E+00
 -1      4442 0.00000E+00
 -1      4443 0.00000E+00
 -1      4444 0.00000E+00
 -1      4445 0.00000E+00
 -1      4446 0.00000E+00
 -1      4447 0.00000E+00
 -1      4448 0.00000E+00
 -1      4449 0.00000E+00
 -1      4450 0.00000E+00
 -1      4451 0.00000E+00
 -1      4452 0.00000E+00
 -1      4453 0.00000E+00
 -1      4454 0.00000E+00
 -1      4455 0.00000E+00
 -1      4456 0.00000E+00
 -1      4457 0.00000E+00
 -1      4458 0.00000E+00
 -1      4459 0.00000E+00
 -1      4460 0.00000E+00
 -1      4461 0.00000E+00
 -1      4462 0.00000E+00
 -1      4463 0.00000E+00
 -1      4464 0.00000E+00
 -1      4465 0.00000E+00
 -1      4466 0.00000E+00
 -1      4467 0.00000E+00
 -1      4468 0.00000E+00
 -1      4469 0.00000E+00
 -1      4470 0.00000E+00
 -1      4471 0.00000E+00
 -1      4472 0.00000E+00
 -1      4473 0.00000E+00
 -1      4474 0.00000E+00
 -1      4475 0.00000E+00
 -1      4476 0.00000E+00
 -1      4477 0.00000E+00
 -1      4478 0.00000E+00
 -1      4479 0.00000E+00
 -1      4480 0.00000E+00
 -1      4481 0.00000E+00
 -1      4482 0.00000E+00
 -1      4483 0.00000E+00
 -1      4484 0.00000E+00
 -1      4485 0.00000E+00
 -1      4486 0.00000E+00
 -1      4487 0.00000E+00
 -1      4488 0.00000E+00
 -1      4489 0.00000E+00
 -1      4490 0.00000E+00
 -1      4491 0.00000E+00
 -1      4492 0.00000E+00
 -1      4493 0.00000E+00
 -1      4494 0.00000E+00
 -1      4495 0.00000E+00
 -1      4496 0.00000E+00
 -1      4497 0.00000E+00
 -1      4498 0.00000E+00
 -1      4499 0.00000E+00
 -1      4500 0.00000E+00
 -1      4501 0.00000E+00
 -1      4502 0.00000E+00
 -1      4503 0.00000E+00
 -1      4504 0.00000E+00
 -1      4505 0.00000E+00
 -1      4506 0.00000E+00
 -1      4507 0.00000E+00
 -1      4508 0.00000E+00
 -1      4509 0.00000E+00
 -1      4510 0.00000E+00
 -1      4511 0.00000E+00
 -1      4512 0.00000E+00
 -1      4513 0.00000E+00
 -1      4514 0.00000E+00
 -1      4515 0.00000E+00
 -1      4516 0.00000E+00
 -1      4517 0.00000E+00
 -1      4518 0.00000E+00
 -1      4519 0.00000E+00
 -1      4520 0.00000E+00
 -1      4521 0.00000E+00
 -1      4522 0.00000E+00
 -1      4523 0.00000E+00
 -1      4524 0.00000E+00
 -1      4525 0.00000E+00
 -1      4526 0.00000E+00
 -1      4527 0.00000E+00
 -1      4528 0.00000E+00
 -1      4529 0.00000E+00
 -1      4530 0.00000E+00
 -1      4531 0.00000E+00
 -1      4532 0.00000E+00
 -1      4533 0.00000E+00
 -1      4534 0.00000E+00
 -1      4535 0.00000E+00
 -1      4536 0.00000E+00
 -1      4537 0.00000E+00
 -1      4538 0.00000E+00
 -1      4539 0.00000E+00
 -1      4540 0.00000E+00
 -1      4541 0.00000E+00
 -1      4542 0.00000E+00
 -1      4543 0.00000E+00
 -1      4544 0.00000E+00
 -1      4545 0.00000E+00
 -1      4546 0.00000E+00
 -1      4547 0.00000E+00
 -1      4548 0.00000E+00
 -1      4549 0.00000E+00
 -1      4550 0.00000E+00
 -1      4551 0.00000E+00
 -1      4552 0.00000E+00
 -1      4553 0.00000E+00
 -1      4554 0.00000E+00
 -1      4555 0.00000E+00
 -1      4556 0.00000E+00
 -1      4557 0.00000E+00
 -1      4558 0.00000E+00
 -1      4559 0.00000E+00
 -1      4560 0.00000E+00
 -1      4561 0.00000E+00
 -1      4562 0.00000E+00
 -1      4563 0.00000E+00
 -1      4564 0.00000E+00
 -1      4565 0.00000E+00
 -1      4566 0.00000E+00
 -1      4567 0.00000E+00
 -1      4568 0.00000E+00
 -1      4569 0.00000E+00
 -1      4570 0.00000E+00
 -1      4571 0.00000E+00
 -1      4572 0.00000E+00
 -1      4573 0.00000E+00
 -1      4574 0.00000E+00
 -1      4575 0.00000E+00
 -1      4576 0.00000E+00
 -1      4577 0.00000E+00
 -1      4578 0.00000E+00
 -1      4579 0.00000E+00
 -1      4580 0.00000E+00
 -1      4581 0.00000E+00
 -1      4582 0.00000E+00
 -1      4583 0.00000E+00
 -1      4584 0.00000E+00
 -1      4585 0.00000E+00
 -1      4586 0.00000E+00
 -1      4587 0.00000E+00
 -1      4588 0.00000E+00
 -1      4589 0.00000E+00
 -1      4590 0.00000E+00
 -1      4591 0.00000E+00
 -1      4592 0.00000E+00
 -1      4593 0.00000E+00
 -1      4594 0.00000E+00
 -1      4595 0.00000E+00
 -1      4596 0.00000E+00
 -1      4597 0.00000E+00
 -1      4598 0.00000E+00
 -1      4599 0.00000E+00
 -1      4600 0.00000E+00
 -1      4601 0.00000E+00
 -1      4602 0.00000E+00
 -1      4603 0.00000E+00
 -1      4604 0.00000E+00
 -1      4605 0.00000E+00
 -1      4606 0.00000E+00
 -1      4607 0.00000E+00
 -1      4608 0.00000E+00
 -1      4609 0.00000E+00
 -1      4610 0.00000E+00
 -1      4611 0.00000E+00
 -1      4612 0.00000E+00
 -1      4613 0.00000E+00
 -1      4614 0.00000E+00
 -1      4615 0.00000E+00
 -1      4616 0.00000E+00
 -1      4617 0.00000E+00
 -1      4618 0.00000E+00
 -1      4619 0.00000E+00
 -1      4620 0.00000E+00
 -1      4621 0.00000E+00
 -1      4622 0.00000E+00
 -1      4623 0.00000E+00
 -1      4624 0.00000E+00
 -1      4625 0.00000E+00
 -1      4626 0.00000E+00
 -1      4627 0.00000E+00
 -1      4628 0.00000E+00
 -1      4629 0.00000E+00
 -1      4630 0.00000E+00
 -1      4631 0.00000E+00
 -1      4632 0.00000E+00
 -1      4633 0.00000E+00
 -1      4634 0.00000E+00
 -1      4635 0.00000E+00
 -1      4636 0.00000E+00
 -1      4637 0.00000E+00
 -1      4638 0.00000E+00
 -1      4639 0.00000E+00
 -1      4640 0.00000E+00
 -1      4641 0.00000E+00
 -1      4642 0.00000E+00
 -1      4643 0.00000E+00
 -1      4644 0.00000E+00
 -1      4645 0.00000E+00
 -1      4646 0.00000E+00
 -1      4647 0.00000E+00
 -1      4648 0.00000E+00
 -1      4649 0.00000E+00
 -1      4650 0.00000E+00
 -1      4651 0.00000E+00
 -1      4652 0.00000E+00
 -1      4653 0.00000E+00
 -1      4654 0.00000E+00
 -1      4655 0.00000E+00
 -1      4656 0.00000E+00
 -1      4657 0.00000E+00
 -1      4658 0.00000E+00
 -1      4659 0.00000E+00
 -1      4660 0.00000E+00
 -1      4661 0.00000E+00
 -1      4662 0.00000E+00
 -1      4663 0.00000E+00
 -1      4664 0.00000E+00
 -1      4665 0.00000E+00
 -1      4666 0.00000E+00
 -1      4667 0.00000E+00
 -1      4668 0.00000E+00
 -1      4669 0.00000E+00
 -1      4670 0.00000E+00
 -1      4671 0.00000E+00
 -1      4672 0.00000E+00
 -1      4673 0.00000E+00
 -1      4674 0.00000E+00
 -1      4675 0.00000E+00
 -1      4676 0.00000E+00
 -1      4677 0.00000E+00
 -1      4678 0.00000E+00
 -1      4679 0.00000E+00
 -1      4680 0.00000E+00
 -1      4681 0.00000E+00
 -1      4682 0.00000E+00
 -1      4683 0.00000E+00
 -1      4684 0.00000E+00
 -1      4685 0.00000E+00
 -1      4686 0.00000E+00
 -1      4687 0.00000E+00
 -1      4688 0.00000E+00
 -1      4689 0.00000E+00
 -1      4690 0.00000E+00
 -1      4691 0.00000E+00
 -1      4692 0.00000E+00
 -1      4693 0.00000E+00
 -1      4694 0.00000E+00
 -1      4695 0.00000E+00
 -1      4696 0.00000E+00
 -1      4697 0.00000E+00
 -1      4698 0.00000E+00
 -1      4699 0.00000E+00
 -1      4700 0.00000E+00
 -1      4701 0.00000E+00
 -1      4702 0.00000E+00
 -1      4703 0.00000E+00
 -1      4704 0.00000E+00
 -1      4705 0.00000E+00
 -1      4706 0.00000E+00
 -1      4707 0.00000E+00
 -1      4708 0.00000E+00
 -1      4709 0.00000E+00
 -1      4710 0.00000E+00
 -1      4711 0.00000E+00
 -1      4712 0.00000E+00
 -1      4713 0.00000E+00
 -1      4714 0.00000E+00
 -1      4715 0.00000E+00
 -1      4716 0.00000E+00
 -1      4717 0.00000E+00
 -1      4718 0.00000E+00
 -1      4719 0.00000E+00
 -1      4720 0.00000E+00
 -1      4721 0.00000E+00
 -1      4722 0.00000E+00
 -1      4723 0.00000E+00
 -1      4724 0.00000E+00
 -1      4725 0.00000E+00
 -1      4726 0.00000E+00
 -1      4727 0.00000E+00
 -1      4728 0.00000E+00
 -1      4729 0.00000E+00
 -1      4730 0.00000E+00
 -1      4731 0.00000E+00
 -1      4732 0.00000E+00
 -1      4733 0.00000E+00
 -1      4734 0.00000E+00
 -1      4735 0.00000E+00
 -1      4736 0.00000E+00
 -1      4737 0.00000E+00
 -1      4738 0.00000E+00
 -1      4739 0.00000E+00
 -1      4740 0.00000E+00
 -1      4741 0.00000E+00
 -1      4742 0.00000E+00
 -1      4743 0.00000E+00
 -1      4744 0.00000E+00
 -1      4745 0.00000E+00
 -1      4746 0.00000E+00
 -1      4747 0.00000E+00
 -1      4748 0.00000E+00
 -1      4749 0.00000E+00
 -1      4750 0.00000E+00
 -1      4751 0.00000E+00
 -1      4752 0.00000E+00
 -1      4753 0.00000E+00
 -1      4754 0.00000E+00
 -1      4755 0.00000E+00
 -1      4756 0.00000E+00
 -1      4757 0.00000E+00
 -1      4758 0.00000E+00
 -1      4759 0.00000E+00
 -1      4760 0.00000E+00
 -1      4761 0.00000E+00
 -1      4762 0.00000E+00
 -1      4763 0.00000E+00
 -1      4764 0.00000E+00
 -1      4765 0.00000E+00
 -1      4766 0.00000E+00
 -1      4767 0.00000E+00
 -1      4768 0.00000E+00
 -1      4769 0.00000E+00
 -1      4770 0.00000E+00
 -1      4771 0.00000E+00
 -1      4772 0.00000E+00
 -1      4773 0.00000E+00
 -1      4774 0.00000E+00
 -1      4775 0.00000E+00
 -1      4776 0.00000E+00
 -1      4777 0.00000E+00
 -1      4778 0.00000E+00
 -1      4779 0.00000E+00
 -1      4780 0.00000E+00
 -1      4781 0.00000E+00
 -1      4782 0.00000E+00
 -1      4783 0.00000E+00
 -1      4784 0.00000E+00
 -1      4785 0.00000E+00
 -1      4786 0.00000E+00
 -1      4787 0.00000E+00
 -1      4788 0.00000E+00
 -1      4789 0.00000E+00
 -1      4790 0.00000E+00
 -1      4791 0.00000E+00
 -1      4792 0.00000E+00
 -1      4793 0.00000E+00
 -1      4794 0.00000E+00
 -1      4795 0.00000E+00
 -1      4796 0.00000E+00
 -1      4797 0.00000E+00
 -1      4798 0.00000E+00
 -1      4799 0.00000E+00
 -1      4800 0.00000E+00
 -1      4801 0.00000E+00
 -1      4802 0.00000E+00
 -1      4803 0.00000E+00
 -1      4804 0.00000E+00
 -1      4805 0.00000E+00
 -1      4806 0.00000E+00
 -1      4807 0.00000E+00
 -1      4808 0.00000E+00
 -1      4809 0.00000E+00
 -1      4810 0.00000E+00
 -1      4811 0.00000E+00
 -1      4812 0.00000E+00
 -1      4813 0.00000E+00
 -1      4814 0.00000E+00
 -1      4815 0.00000E+00
 -1      4816 0.00000E+00
 -1      4817 0.00000E+00
 -1      4818 0.00000E+00
 -1      4819 0.00000E+00
 -1      4820 0.00000E+00
 -1      4821 0.00000E+00
 -1      4822 0.00000E+00
 -1      4823 0.00000E+00
 -1      4824 0.00000E+00
 -1      4825 0.00000E+00
 -1      4826 0.00000E+00
 -1      4827 0.00000E+00
 -1      4828 0.00000E+00
 -1      4829 0.00000E+00
 -1      4830 0.00000E+00
 -1      4831 0.00000E+00
 -1      4832 0.00000E+00
 -1      4833 0.00000E+00
 -1      4834 0.00000E+00
 -1      4835 0.00000E+00
 -1      4836 0.00000E+00
 -1      4837 0.00000E+00
 -1      4838 0.00000E+00
 -1      4839 0.00000E+00
 -1      4840 0.00000E+00
 -1      4841 0.00000E+00
 -1      4842 0.00000E+00
 -1      4843 0.00000E+00
 -1      4844 0.00000E+00
 -1      4845 0.00000E+00
 -1      4846 0.00000E+00
 -1      4847 0.00000E+00
 -1      4848 0.00000E+00
 -1      4849 0.00000E+00
 -1      4850 0.00000E+00
 -1      4851 0.00000E+00
 -1      4852 0.00000E+00
 -1      4853 0.00000E+00
 -1      4854 0.00000E+00
 -1      4855 0.00000E+00
 -1      4856 0.00000E+00
 -1      4857 0.00000E+00
 -1      4858 0.00000E+00
 -1      4859 0.00000E+00
 -1      4860 0.00000E+00
 -1      4861 0.00000E+00
 -1      4862 0.00000E+00
 -1      4863 0.00000E+00
 -1      4864 0.00000E+00
 -1      4865 0.00000E+00
 -1      4866 0.00000E+00
 -1      4867 0.00000E+00
 -1      4868 0.00000E+00
 -1      4869 0.00000E+00
 -1      4870 0.00000E+00
 -1      4871 0.00000E+00
 -1      4872 0.00000E+00
 -1      4873 0.00000E+00
 -1      4874 0.00000E+00
 -1      4875 0.00000E+00
 -1      4876 0.00000E+00
 -1      4877 0.00000E+00
 -1      4878 0.00000E+00
 -1      4879 0.00000E+00
 -1      4880 0.00000E+00
 -1      4881 0.00000E+00
 -1      4882 0.00000E+00
 -1      4883 0.00000E+00
 -1      4884 0.00000E+00
 -1      4885 0.00000E+00
 -1      4886 0.00000E+00
 -1      4887 0.00000E+00
 -1      4888 0.00000E+00
 -1      4889 0.00000E+00
 -1      4890 0.00000E+00
 -1      4891 0.00000E+00
 -1      4892 0.00000E+00
 -1      4893 0.00000E+00
 -1      4894 0.00000E+00
 -1      4895 0.00000E+00
 -1      4896 0.00000E+00
 -1      4897 0.00000E+00
 -1      4898 0.00000E+00
 -1      4899 0.00000E+00
 -1      4900 0.00000E+00
 -1      4901 0.00000E+00
 -1      4902 0.00000E+00
 -1      4903 0.00000E+00
 -1      4904 0.00000E+00
 -1      4905 0.00000E+00
 -1      4906 0.00000E+00
 -1      4907 0.00000E+00
 -1      4908 0.00000E+00
 -1      4909 0.00000E+00
 -1      4910 0.00000E+00
 -1      4911 0.00000E+00
 -1      4912 0.00000E+00
 -1      4913 0.00000E+00
 -1      4914 0.00000E+00
 -1      4915 0.00000E+00
 -1      4916 0.00000E+00
 -1      4917 0.00000E+00
 -1      4918 0.00000E+00
 -1      4919 0.00000E+00
 -1      4920 0.00000E+00
 -1      4921 0.00000E+00
 -1      4922 0.00000E+00
 -1      4923 0.00000E+00
 -1      4924 0.00000E+00
 -1      4925 0.00000E+00
 -1      4926 0.00000E+00
 -1      4927 0.00000E+00
 -1      4928 0.00000E+00
 -1      4929 0.00000E+00
 -1      4930 0.00000E+00
 -1      4931 0.00000E+00
 -1      4932 0.00000E+00
 -1      4933 0.00000E+00
 -1      4934 0.00000E+00
 -1      4935 0.00000E+00
 -1      4936 0.00000E+00
 -1      4937 0.00000E+00
 -1      4938 0.00000E+00
 -1      4939 0.00000E+00
 -1      4940 0.00000E+00
 -1      4941 0.00000E+00
 -1      4942 0.00000E+00
 -1      4943 0.00000E+00
 -1      4944 0.00000E+00
 -1      4945 0.00000E+00
 -1      4946 0.00000E+00
 -1      4947 0.00000E+00
 -1      4948 0.00000E+00
 -1      4949 0.00000E+00
 -1      4950 0.00000E+00
 -1      4951 0.00000E+00
 -1      4952 0.00000E+00
 -1      4953 0.00000E+00
 -1      4954 0.00000E+00
 -1      4955 0.00000E+00
 -1      4956 0.00000E+00
 -1      4957 0.00000E+00
 -1      4958 0.00000E+00
 -1      4959 0.00000E+00
 -1      4960 0.00000E+00
 -1      4961 0.00000E+00
 -1      4962 0.00000E+00
 -1      4963 0.00000E+00
 -1      4964 0.00000E+00
 -1      4965 0.00000E+00
 -1      4966 0.00000E+00
 -1      4967 0.00000E+00
 -1      4968 0.00000E+00
 -1      4969 0.00000E+00
 -1      4970 0.00000E+00
 -1      4971 0.00000E+00
 -1      4972 0.00000E+00
 -1      4973 0.00000E+00
 -1      4974 0.00000E+00
 -1      4975 0.00000E+00
 -1      4976 0.00000E+00
 -1      4977 0.00000E+00
 -1      4978 0.00000E+00
 -1      4979 0.00000E+00
 -1      4980 0.00000E+00
 -1      4981 0.00000E+00
 -1      4982 0.00000E+00
 -1      4983 0.00000E+00
 -1      4984 0.00000E+00
 -1      4985 0.00000E+00
 -1      4986 0.00000E+00
 -1      4987 0.00000E+00
 -1      4988 0.00000E+00
 -1      4989 0.00000E+00
 -1      4990 0.00000E+00
 -1      4991 0.00000E+00
 -1      4992 0.00000E+00
 -1      4993 0.00000E+00
 -1      4994 0.00000E+00
 -1      4995 0.00000E+00
 -1      4996 0.00000E+00
 -1      4997 0.00000E+00
 -1      4998 0.00000E+00
 -1      4999 0.00000E+00
 -1      5000 0.00000E+00
 -1      5001 0.00000E+00
 -1      5002 0.00000E+00
 -1      5003 0.00000E+00
 -1      5004 0.00000E+00
 -1      5005 0.00000E+00
 -1      5006 0.00000E+00
 -1      5007 0.00000E+00
 -1      5008 0.00000E+00
 -1      5009 0.00000E+00
 -1      5010 0.00000E+00
 -1      5011 0.00000E+00
 -1      5012 0.00000E+00
 -1      5013 0.00000E+00
 -1      5014 0.00000E+00
 -1      5015 0.00000E+00
 -1      5016 0.00000E+00
 -1      5017 0.00000E+00
 -1      5018 0.00000E+00
 -1      5019 0.00000E+00
 -1      5020 0.00000E+00
 -1      5021 0.00000E+00
 -1      5022 0.00000E+00
 -1      5023 0.00000E+00
 -1      5024 0.00000E+00
 -1      5025 0.00000E+00
 -1      5026 0.00000E+00
 -1      5027 0.00000E+00
 -1      5028 0.00000E+00
 -1      5029 0.00000E+00
 -1      5030 0.00000E+00
 -1      5031 0.00000E+00
 -1      5032 0.00000E+00
 -1      5033 0.00000E+00
 -1      5034 0.00000E+00
 -1      5035 0.00000E+00
 -1      5036 0.00000E+00
 -1      5037 0.00000E+00
 -1      5038 0.00000E+00
 -1      5039 0.00000E+00
 -1      5040 0.00000E+00
 -1      5041 0.00000E+00
 -1      5042 0.00000E+00
 -1      5043 0.00000E+00
 -1      5044 0.00000E+00
 -1      5045 0.00000E+00
 -1      5046 0.00000E+00
 -1      5047 0.00000E+00
 -1      5048 0.00000E+00
 -1      5049 0.00000E+00
 -1      5050 0.00000E+00
 -1      5051 0.00000E+00
 -1      5052 0.00000E+00
 -1      5053 0.00000E+00
 -1      5054 0.00000E+00
 -1      5055 0.00000E+00
 -1      5056 0.00000E+00
 -1      5057 0.00000E+00
 -1      5058 0.00000E+00
 -1      5059 0.00000E+00
 -1      5060 0.00000E+00
 -1      5061 0.00000E+00
 -1      5062 0.00000E+00
 -1      5063 0.00000E+00
 -1      5064 0.00000E+00
 -1      5065 0.00000E+00
 -1      5066 0.00000E+00
 -1      5067 0.00000E+00
 -1      5068 0.00000E+00
 -1      5069 0.00000E+00
 -1      5070 0.00000E+00
 -1      5071 0.00000E+00
 -1      5072 0.00000E+00
 -1      5073 0.00000E+00
 -1      5074 0.00000E+00
 -1      5075 0.00000E+00
 -1      5076 0.00000E+00
 -1      5077 0.00000E+00
 -1      5078 0.00000E+00
 -1      5079 0.00000E+00
 -1      5080 0.00000E+00
 -1      5081 0.00000E+00
 -1      5082 0.00000E+00
 -1      5083 0.00000E+00
 -1      5084 0.00000E+00
 -1      5085 0.00000E+00
 -1      5086 0.00000E+00
 -1      5087 0.00000E+00
 -1      5088 0.00000E+00
 -1      5089 0.00000E+00
 -1      5090 0.00000E+00
 -1      5091 0.00000E+00
 -1      5092 0.00000E+00
 -1      5093 0.00000E+00
 -1      5094 0.00000E+00
 -1      5095 0.00000E+00
 -1      5096 0.00000E+00
 -1      5097 0.00000E+00
 -1      5098 0.00000E+00
 -1      5099 0.00000E+00
 -1      5100 0.00000E+00
 -1      5101 0.00000E+00
 -1      5102 0.00000E+00
 -1      5103 0.00000E+00
 -1      5104 0.00000E+00
 -1      5105 0.00000E+00
 -1      5106 0.00000E+00
 -1      5107 0.00000E+00
 -1      5108 0.00000E+00
 -1      5109 0.00000E+00
 -1      5110 0.00000E+00
 -1      5111 0.00000E+00
 -1      5112 0.00000E+00
 -1      5113 0.00000E+00
 -1      5114 0.00000E+00
 -1      5115 0.00000E+00
 -1      5116 0.00000E+00
 -1      5117 0.00000E+00
 -1      5118 0.00000E+00
 -1      5119 0.00000E+00
 -1      5120 0.00000E+00
 -1      5121 0.00000E+00
 -1      5122 0.00000E+00
 -1      5123 0.00000E+00
 -1      5124 0.00000E+00
 -1      5125 0.00000E+00
 -1      5126 0.00000E+00
 -1      5127 0.00000E+00
 -1      5128 0.00000E+00
 -1      5129 0.00000E+00
 -1      5130 0.00000E+00
 -1      5131 0.00000E+00
 -1      5132 0.00000E+00
 -1      5133 0.00000E+00
 -1      5134 0.00000E+00
 -1      5135 0.00000E+00
 -1      5136 0.00000E+00
 -1      5137 0.00000E+00
 -1      5138 0.00000E+00
 -1      5139 0.00000E+00
 -1      5140 0.00000E+00
 -1      5141 0.00000E+00
 -1      5142 0.00000E+00
 -1      5143 0.00000E+00
 -1      5144 0.00000E+00
 -1      5145 0.00000E+00
 -1      5146 0.00000E+00
 -1      5147 0.00000E+00
 -1      5148 0.00000E+00
 -1      5149 0.00000E+00
 -1      5150 0.00000E+00
 -1      5151 0.00000E+00
 -1      5152 0.00000E+00
 -1      5153 0.00000E+00
 -1      5154 0.00000E+00
 -1      5155 0.00000E+00
 -1      5156 0.00000E+00
 -1      5157 0.00000E+00
 -1      5158 0.00000E+00
 -1      5159 0.00000E+00
 -1      5160 0.00000E+00
 -1      5161 0.00000E+00
 -1      5162 0.00000E+00
 -1      5163 0.00000E+00
 -1      5164 0.00000E+00
 -1      5165 0.00000E+00
 -1      5166 0.00000E+00
 -1      5167 0.00000E+00
 -1      5168 0.00000E+00
 -1      5169 0.00000E+00
 -1      5170 0.00000E+00
 -1      5171 0.00000E+00
 -1      5172 0.00000E+00
 -1      5173 0.00000E+00
 -1      5174 0.00000E+00
 -1      5175 0.00000E+00
 -1      5176 0.00000E+00
 -1      5177 0.00000E+00
 -1      5178 0.00000E+00
 -1      5179 0.00000E+00
 -1      5180 0.00000E+00
 -1      5181 0.00000E+00
 -1      5182 0.00000E+00
 -1      5183 0.00000E+00
 -1      5184 0.00000E+00
 -1      5185 0.00000E+00
 -1      5186 0.00000E+00
 -1      5187 0.00000E+00
 -1      5188 0.00000E+00
 -1      5189 0.00000E+00
 -1      5190 0.00000E+00
 -1      5191 0.00000E+00
 -1      5192 0.00000E+00
 -1      5193 0.00000E+00
 -1      5194 0.00000E+00
 -1      5195 0.00000E+00
 -1      5196 0.00000E+00
 -1      5197 0.00000E+00
 -1      5198 0.00000E+00
 -1      5199 0.00000E+00
 -1      5200 0.00000E+00
 -1      5201 0.00000E+00
 -1      5202 0.00000E+00
 -1      5203 0.00000E+00
 -1      5204 0.00000E+00
 -1      5205 0.00000E+00
 -1      5206 0.00000E+00
 -1      5207 0.00000E+00
 -1      5208 0.00000E+00
 -1      5209 0.00000E+00
 -1      5210 0.00000E+00
 -1      5211 0.00000E+00
 -1      5212 0.00000E+00
 -1      5213 0.00000E+00
 -1      5214 0.00000E+00
 -1      5215 0.00000E+00
 -1      5216 0.00000E+00
 -1      5217 0.00000E+00
 -1      5218 0.00000E+00
 -1      5219 0.00000E+00
 -1      5220 0.00000E+00
 -1      5221 0.00000E+00
 -1      5222 0.00000E+00
 -1      5223 0.00000E+00
 -1      5224 0.00000E+00
 -1      5225 0.00000E+00
 -1      5226 0.00000E+00
 -1      5227 0.00000E+00
 -1      5228 0.00000E+00
 -1      5229 0.00000E+00
 -1      5230 0.00000E+00
 -1      5231 0.00000E+00
 -1      5232 0.00000E+00
 -1      5233 0.00000E+00
 -1      5234 0.00000E+00
 -1      5235 0.00000E+00
 -1      5236 0.00000E+00
 -1      5237 0.00000E+00
 -1      5238 0.00000E+00
 -1      5239 0.00000E+00
 -1      5240 0.00000E+00
 -1      5241 0.00000E+00
 -1      5242 0.00000E+00
 -1      5243 0.00000E+00
 -1      5244 0.00000E+00
 -1      5245 0.00000E+00
 -1      5246 0.00000E+00
 -1      5247 0.00000E+00
 -1      5248 0.00000E+00
 -1      5249 0.00000E+00
 -1      5250 0.00000E+00
 -1      5251 0.00000E+00
 -1      5252 0.00000E+00
 -1      5253 0.00000E+00
 -1      5254 0.00000E+00
 -1      5255 0.00000E+00
 -1      5256 0.00000E+00
 -1      5257 0.00000E+00
 -1      5258 0.00000E+00
 -1      5259 0.00000E+00
 -1      5260 0.00000E+00
 -1      5261 0.00000E+00
 -1      5262 0.00000E+00
 -1      5263 0.00000E+00
 -1      5264 0.00000E+00
 -1      5265 0.00000E+00
 -1      5266 0.00000E+00
 -1      5267 0.00000E+00
 -1      5268 0.00000E+00
 -1      5269 0.00000E+00
 -1      5270 0.00000E+00
 -1      5271 0.00000E+00
 -1      5272 0.00000E+00
 -1      5273 0.00000E+00
 -1      5274 0.00000E+00
 -1      5275 0.00000E+00
 -1      5276 0.00000E+00
 -1      5277 0.00000E+00
 -1      5278 0.00000E+00
 -1      5279 0.00000E+00
 -1      5280 0.00000E+00
 -1      5281 0.00000E+00
 -1      5282 0.00000E+00
 -1      5283 0.00000E+00
 -1      5284 0.00000E+00
 -1      5285 0.00000E+00
 -1      5286 0.00000E+00
 -1      5287 0.00000E+00
 -1      5288 0.00000E+00
 -1      5289 0.00000E+00
 -1      5290 0.00000E+00
 -1      5291 0.00000E+00
 -1      5292 0.00000E+00
 -1      5293 0.00000E+00
 -1      5294 0.00000E+00
 -1      5295 0.00000E+00
 -1      5296 0.00000E+00
 -1      5297 0.00000E+00
 -1      5298 0.00000E+00
 -1      5299 0.00000E+00
 -1      5300 0.00000E+00
 -1      5301 0.00000E+00
 -1      5302 0.00000E+00
 -1      5303 0.00000E+00
 -1      5304 0.00000E+00
 -1      5305 0.00000E+00
 -1      5306 0.00000E+00
 -1      5307 0.00000E+00
 -1      5308 0.00000E+00
 -1      5309 0.00000E+00
 -1      5310 0.00000E+00
 -1      5311 0.00000E+00
 -1      5312 0.00000E+00
 -1      5313 0.00000E+00
 -1      5314 0.00000E+00
 -1      5315 0.00000E+00
 -1      5316 0.00000E+00
 -1      5317 0.00000E+00
 -1      5318 0.00000E+00
 -1      5319 0.00000E+00
 -1      5320 0.00000E+00
 -1      5321 0.00000E+00
 -1      5322 0.00000E+00
 -1      5323 0.00000E+00
 -1      5324 0.00000E+00
 -1      5325 0.00000E+00
 -1      5326 0.00000E+00
 -1      5327 0.00000E+00
 -1      5328 0.00000E+00
 -1      5329 0.00000E+00
 -1      5330 0.00000E+00
 -1      5331 0.00000E+00
 -1      5332 0.00000E+00
 -1      5333 0.00000E+00
 -1      5334 0.00000E+00
 -1      5335 0.00000E+00
 -1      5336 0.00000E+00
 -1      5337 0.00000E+00
 -1      5338 0.00000E+00
 -1      5339 0.00000E+00
 -1      5340 0.00000E+00
 -1      5341 0.00000E+00
 -1      5342 0.00000E+00
 -1      5343 0.00000E+00
 -1      5344 0.00000E+00
 -1      5345 0.00000E+00
 -1      5346 0.00000E+00
 -1      5347 0.00000E+00
 -1      5348 0.00000E+00
 -1      5349 0.00000E+00
 -1      5350 0.00000E+00
 -1      5351 0.00000E+00
 -1      5352 0.00000E+00
 -1      5353 0.00000E+00
 -1      5354 0.00000E+00
 -1      5355 0.00000E+00
 -1      5356 0.00000E+00
 -1      5357 0.00000E+00
 -1      5358 0.00000E+00
 -1      5359 0.00000E+00
 -1      5360 0.00000E+00
 -1      5361 0.00000E+00
 -1      5362 0.00000E+00
 -1      5363 0.00000E+00
 -1      5364 0.00000E+00
 -1      5365 0.00000E+00
 -1      5366 0.00000E+00
 -1      5367 0.00000E+00
 -1      5368 0.00000E+00
 -1      5369 0.00000E+00
 -1      5370 0.00000E+00
 -1      5371 0.00000E+00
 -1      5372 0.00000E+00
 -1      5373 0.00000E+00
 -1      5374 0.00000E+00
 -1      5375 0.00000E+00
 -1      5376 0.00000E+00
 -1      5377 0.00000E+00
 -1      5378 0.00000E+00
 -1      5379 0.00000E+00
 -1      5380 0.00000E+00
 -1      5381 0.00000E+00
 -1      5382 0.00000E+00
 -1      5383 0.00000E+00
 -1      5384 0.00000E+00
 -1      5385 0.00000E+00
 -1      5386 0.00000E+00
 -1      5387 0.00000E+00
 -1      5388 0.00000E+00
 -1      5389 0.00000E+00
 -1      5390 0.00000E+00
 -1      5391 0.00000E+00
 -1      5392 0.00000E+00
 -1      5393 0.00000E+00
 -1      5394 0.00000E+00
 -1      5395 0.00000E+00
 -1      5396 0.00000E+00
 -1      5397 0.00000E+00
 -1      5398 0.00000E+00
 -1      5399 0.00000E+00
 -1      5400 0.00000E+00
 -1      5401 0.00000E+00
 -1      5402 0.00000E+00
 -1      5403 0.00000E+00
 -1      5404 0.00000E+00
 -1      5405 0.00000E+00
 -1      5406 0.00000E+00
 -1      5407 0.00000E+00
 -1      5408 0.00000E+00
 -1      5409 0.00000E+00
 -1      5410 0.00000E+00
 -1      5411 0.00000E+00
 -1      5412 0.00000E+00
 -1      5413 0.00000E+00
 -1      5414 0.00000E+00
 -1      5415 0.00000E+00
 -1      5416 0.00000E+00
 -1      5417 0.00000E+00
 -1      5418 0.00000E+00
 -1      5419 0.00000E+00
 -1      5420 0.00000E+00
 -1      5421 0.00000E+00
 -1      5422 0.00000E+00
 -1      5423 0.00000E+00
 -1      5424 0.00000E+00
 -1      5425 0.00000E+00
 -1      5426 0.00000E+00
 -1      5427 0.00000E+00
 -1      5428 0.00000E+00
 -1      5429 0.00000E+00
 -1      5430 0.00000E+00
 -1      5431 0.00000E+00
 -1      5432 0.00000E+00
 -1      5433 0.00000E+00
 -1      5434 0.00000E+00
 -1      5435 0.00000E+00
 -1      5436 0.00000E+00
 -1      5437 0.00000E+00
 -1      5438 0.00000E+00
 -1      5439 0.00000E+00
 -1      5440 0.00000E+00
 -1      5441 0.00000E+00
 -1      5442 0.00000E+00
 -1      5443 0.00000E+00
 -1      5444 0.00000E+00
 -1      5445 0.00000E+00
 -1      5446 0.00000E+00
 -1      5447 0.00000E+00
 -1      5448 0.00000E+00
 -1      5449 0.00000E+00
 -1      5450 0.00000E+00
 -1      5451 0.00000E+00
 -1      5452 0.00000E+00
 -1      5453 0.00000E+00
 -1      5454 0.00000E+00
 -1      5455 0.00000E+00
 -1      5456 0.00000E+00
 -1      5457 0.00000E+00
 -1      5458 0.00000E+00
 -1      5459 0.00000E+00
 -1      5460 0.00000E+00
 -1      5461 0.00000E+00
 -1      5462 0.00000E+00
 -1      5463 0.00000E+00
 -1      5464 0.00000E+00
 -1      5465 0.00000E+00
 -1      5466 0.00000E+00
 -1      5467 0.00000E+00
 -1      5468 0.00000E+00
 -1      5469 0.00000E+00
 -1      5470 0.00000E+00
 -1      5471 0.00000E+00
 -1      5472 0.00000E+00
 -1      5473 0.00000E+00
 -1      5474 0.00000E+00
 -1      5475 0.00000E+00
 -1      5476 0.00000E+00
 -1      5477 0.00000E+00
 -1      5478 0.00000E+00
 -1      5479 0.00000E+00
 -1      5480 0.00000E+00
 -1      5481 0.00000E+00
 -1      5482 0.00000E+00
 -1      5483 0.00000E+00
 -1      5484 0.00000E+00
 -1      5485 0.00000E+00
 -1      5486 0.00000E+00
 -1      5487 0.00000E+00
 -1      5488 0.00000E+00
 -1      5489 0.00000E+00
 -1      5490 0.00000E+00
 -1      5491 0.00000E+00
 -1      5492 0.00000E+00
 -1      5493 0.00000E+00
 -1      5494 0.00000E+00
 -1      5495 0.00000E+00
 -1      5496 0.00000E+00
 -1      5497 0.00000E+00
 -1      5498 0.00000E+00
 -1      5499 0.00000E+00
 -1      5500 0.00000E+00
 -1      5501 0.00000E+00
 -1      5502 0.00000E+00
 -1      5503 0.00000E+00
 -1      5504 0.00000E+00
 -1      5505 0.00000E+00
 -1      5506 0.00000E+00
 -1      5507 0.00000E+00
 -1      5508 0.00000E+00
 -1      5509 0.00000E+00
 -1      5510 0.00000E+00
 -1      5511 0.00000E+00
 -1      5512 0.00000E+00
 -1      5513 0.00000E+00
 -1      5514 0.00000E+00
 -1      5515 0.00000E+00
 -1      5516 0.00000E+00
 -1      5517 0.00000E+00
 -1      5518 0.00000E+00
 -1      5519 0.00000E+00
 -1      5520 0.00000E+00
 -1      5521 0.00000E+00
 -1      5522 0.00000E+00
 -1      5523 0.00000E+00
 -1      5524 0.00000E+00
 -1      5525 0.00000E+00
 -1      5526 0.00000E+00
 -1      5527 0.00000E+00
 -1      5528 0.00000E+00
 -1      5529 0.00000E+00
 -1      5530 0.00000E+00
 -1      5531 0.00000E+00
 -1      5532 0.00000E+00
 -1      5533 0.00000E+00
 -1      5534 0.00000E+00
 -1      5535 0.00000E+00
 -1      5536 0.00000E+00
 -1      5537 0.00000E+00
 -1      5538 0.00000E+00
 -1      5539 0.00000E+00
 -1      5540 0.00000E+00
 -1      5541 0.00000E+00
 -1      5542 0.00000E+00
 -1      5543 0.00000E+00
 -1      5544 0.00000E+00
 -1      5545 0.00000E+00
 -1      5546 0.00000E+00
 -1      5547 0.00000E+00
 -1      5548 0.00000E+00
 -1      5549 0.00000E+00
 -1      5550 0.00000E+00
 -1      5551 0.00000E+00
 -1      5552 0.00000E+00
 -1      5553 0.00000E+00
 -1      5554 0.00000E+00
 -1      5555 0.00000E+00
 -1      5556 0.00000E+00
 -1      5557 0.00000E+00
 -1      5558 0.00000E+00
 -1      5559 0.00000E+00
 -1      5560 0.00000E+00
 -1      5561 0.00000E+00
 -1      5562 0.00000E+00
 -1      5563 0.00000E+00
 -1      5564 0.00000E+00
 -1      5565 0.00000E+00
 -1      5566 0.00000E+00
 -1      5567 0.00000E+00
 -1      5568 0.00000E+00
 -1      5569 0.00000E+00
 -1      5570 0.00000E+00
 -1      5571 0.00000E+00
 -1      5572 0.00000E+00
 -1      5573 0.00000E+00
 -1      5574 0.00000E+00
 -1      5575 0.00000E+00
 -1      5576 0.00000E+00
 -1      5577 0.00000E+00
 -1      5578 0.00000E+00
 -1      5579 0.00000E+00
 -1      5580 0.00000E+00
 -1      5581 0.00000E+00
 -1      5582 0.00000E+00
 -1      5583 0.00000E+00
 -1      5584 0.00000E+00
 -1      5585 0.00000E+00
 -1      5586 0.00000E+00
 -1      5587 0.00000E+00
 -1      5588 0.00000E+00
 -1      5589 0.00000E+00
 -1      5590 0.00000E+00
 -1      5591 0.00000E+00
 -1      5592 0.00000E+00
 -1      5593 0.00000E+00
 -1      5594 0.00000E+00
 -1      5595 0.00000E+00
 -1      5596 0.00000E+00
 -1      5597 0.00000E+00
 -1      5598 0.00000E+00
 -1      5599 0.00000E+00
 -1      5600 0.00000E+00
 -1      5601 0.00000E+00
 -1      5602 0.00000E+00
 -1      5603 0.00000E+00
 -1      5604 0.00000E+00
 -1      5605 0.00000E+00
 -1      5606 0.00000E+00
 -1      5607 0.00000E+00
 -1      5608 0.00000E+00
 -1      5609 0.00000E+00
 -1      5610 0.00000E+00
 -1      5611 0.00000E+00
 -1      5612 0.00000E+00
 -1      5613 0.00000E+00
 -1      5614 0.00000E+00
 -1      5615 0.00000E+00
 -1      5616 0.00000E+00
 -1      5617 0.00000E+00
 -1      5618 0.00000E+00
 -1      5619 0.00000E+00
 -1      5620 0.00000E+00
 -1      5621 0.00000E+00
 -1      5622 0.00000E+00
 -1      5623 0.00000E+00
 -1      5624 0.00000E+00
 -1      5625 0.00000E+00
 -1      5626 0.00000E+00
 -1      5627 0.00000E+00
 -1      5628 0.00000E+00
 -1      5629 0.00000E+00
 -1      5630 0.00000E+00
 -1      5631 0.00000E+00
 -1      5632 0.00000E+00
 -1      5633 0.00000E+00
 -1      5634 0.00000E+00
 -1      5635 0.00000E+00
 -1      5636 0.00000E+00
 -1      5637 0.00000E+00
 -1      5638 0.00000E+00
 -1      5639 0.00000E+00
 -1      5640 0.00000E+00
 -1      5641 0.00000E+00
 -1      5642 0.00000E+00
 -1      5643 0.00000E+00
 -1      5644 0.00000E+00
 -1      5645 0.00000E+00
 -1      5646 0.00000E+00
 -1      5647 0.00000E+00
 -1      5648 0.00000E+00
 -1      5649 0.00000E+00
 -1      5650 0.00000E+00
 -1      5651 0.00000E+00
 -1      5652 0.00000E+00
 -1      5653 0.00000E+00
 -1      5654 0.00000E+00
 -1      5655 0.00000E+00
 -1      5656 0.00000E+00
 -1      5657 0.00000E+00
 -1      5658 0.00000E+00
 -1      5659 0.00000E+00
 -1      5660 0.00000E+00
 -1      5661 0.00000E+00
 -1      5662 0.00000E+00
 -1      5663 0.00000E+00
 -1      5664 0.00000E+00
 -1      5665 0.00000E+00
 -1      5666 0.00000E+00
 -1      5667 0.00000E+00
 -1      5668 0.00000E+00
 -1      5669 0.00000E+00
 -1      5670 0.00000E+00
 -1      5671 0.00000E+00
 -1      5672 0.00000E+00
 -1      5673 0.00000E+00
 -1      5674 0.00000E+00
 -1      5675 0.00000E+00
 -1      5676 0.00000E+00
 -1      5677 0.00000E+00
 -1      5678 0.00000E+00
 -1      5679 0.00000E+00
 -1      5680 0.00000E+00
 -1      5681 0.00000E+00
 -1      5682 0.00000E+00
 -1      5683 0.00000E+00
 -1      5684 0.00000E+00
 -1      5685 0.00000E+00
 -1      5686 0.00000E+00
 -1      5687 0.00000E+00
 -1      5688 0.00000E+00
 -1      5689 0.00000E+00
 -1      5690 0.00000E+00
 -1      5691 0.00000E+00
 -1      5692 0.00000E+00
 -1      5693 0.00000E+00
 -1      5694 0.00000E+00
 -1      5695 0.00000E+00
 -1      5696 0.00000E+00
 -1      5697 0.00000E+00
 -1      5698 0.00000E+00
 -1      5699 0.00000E+00
 -1      5700 0.00000E+00
 -1      5701 0.00000E+00
 -1      5702 0.00000E+00
 -1      5703 0.00000E+00
 -1      5704 0.00000E+00
 -1      5705 0.00000E+00
 -1      5706 0.00000E+00
 -1      5707 0.00000E+00
 -1      5708 0.00000E+00
 -1      5709 0.00000E+00
 -1      5710 0.00000E+00
 -1      5711 0.00000E+00
 -1      5712 0.00000E+00
 -1      5713 0.00000E+00
 -1      5714 0.00000E+00
 -1      5715 0.00000E+00
 -1      5716 0.00000E+00
 -1      5717 0.00000E+00
 -1      5718 0.00000E+00
 -1      5719 0.00000E+00
 -1      5720 0.00000E+00
 -1      5721 0.00000E+00
 -1      5722 0.00000E+00
 -1      5723 0.00000E+00
 -1      5724 0.00000E+00
 -1      5725 0.00000E+00
 -1      5726 0.00000E+00
 -1      5727 0.00000E+00
 -1      5728 0.00000E+00
 -1      5729 0.00000E+00
 -1      5730 0.00000E+00
 -1      5731 0.00000E+00
 -1      5732 0.00000E+00
 -1      5733 0.00000E+00
 -1      5734 0.00000E+00
 -1      5735 0.00000E+00
 -1      5736 0.00000E+00
 -1      5737 0.00000E+00
 -1      5738 0.00000E+00
 -1      5739 0.00000E+00
 -1      5740 0.00000E+00
 -1      5741 0.00000E+00
 -1      5742 0.00000E+00
 -1      5743 0.00000E+00
 -1      5744 0.00000E+00
 -1      5745 0.00000E+00
 -1      5746 0.00000E+00
 -1      5747 0.00000E+00
 -1      5748 0.00000E+00
 -1      5749 0.00000E+00
 -1      5750 0.00000E+00
 -1      5751 0.00000E+00
 -1      5752 0.00000E+00
 -1      5753 0.00000E+00
 -1      5754 0.00000E+00
 -1      5755 0.00000E+00
 -1      5756 0.00000E+00
 -1      5757 0.00000E+00
 -1      5758 0.00000E+00
 -1      5759 0.00000E+00
 -1      5760 0.00000E+00
 -1      5761 0.00000E+00
 -1      5762 0.00000E+00
 -1      5763 0.00000E+00
 -1      5764 0.00000E+00
 -1      5765 0.00000E+00
 -1      5766 0.00000E+00
 -1      5767 0.00000E+00
 -1      5768 0.00000E+00
 -1      5769 0.00000E+00
 -1      5770 0.00000E+00
 -1      5771 0.00000E+00
 -1      5772 0.00000E+00
 -1      5773 0.00000E+00
 -1      5774 0.00000E+00
 -1      5775 0.00000E+00
 -1      5776 0.00000E+00
 -1      5777 0.00000E+00
 -1      5778 0.00000E+00
 -1      5779 0.00000E+00
 -1      5780 0.00000E+00
 -1      5781 0.00000E+00
 -1      5782 0.00000E+00
 -1      5783 0.00000E+00
 -1      5784 0.00000E+00
 -1      5785 0.00000E+00
 -1      5786 0.00000E+00
 -1      5787 0.00000E+00
 -1      5788 0.00000E+00
 -1      5789 0.00000E+00
 -1      5790 0.00000E+00
 -1      5791 0.00000E+00
 -1      5792 0.00000E+00
 -1      5793 0.00000E+00
 -1      5794 0.00000E+00
 -1      5795 0.00000E+00
 -1      5796 0.00000E+00
 -1      5797 0.00000E+00
 -1      5798 0.00000E+00
 -1      5799 0.00000E+00
 -1      5800 0.00000E+00
 -1      5801 0.00000E+00
 -1      5802 0.00000E+00
 -1      5803 0.00000E+00
 -1      5804 0.00000E+00
 -1      5805 0.00000E+00
 -1      5806 0.00000E+00
 -1      5807 0.00000E+00
 -1      5808 0.00000E+00
 -1      5809 0.00000E+00
 -1      5810 0.00000E+00
 -1      5811 0.00000E+00
 -1      5812 0.00000E+00
 -1      5813 0.00000E+00
 -1      5814 0.00000E+00
 -1      5815 0.00000E+00
 -1      5816 0.00000E+00
 -1      5817 0.00000E+00
 -1      5818 0.00000E+00
 -1      5819 0.00000E+00
 -1      5820 0.00000E+00
 -1      5821 0.00000E+00
 -1      5822 0.00000E+00
 -1      5823 0.00000E+00
 -1      5824 0.00000E+00
 -1      5825 0.00000E+00
 -1      5826 0.00000E+00
 -1      5827 0.00000E+00
 -1      5828 0.00000E+00
 -1      5829 0.00000E+00
 -1      5830 0.00000E+00
 -1      5831 0.00000E+00
 -1      5832 0.00000E+00
 -1      5833 0.00000E+00
 -1      5834 0.00000E+00
 -1      5835 0.00000E+00
 -1      5836 0.00000E+00
 -1      5837 0.00000E+00
 -1      5838 0.00000E+00
 -1      5839 0.00000E+00
 -1      5840 0.00000E+00
 -1      5841 0.00000E+00
 -1      5842 0.00000E+00
 -1      5843 0.00000E+00
 -1      5844 0.00000E+00
 -1      5845 0.00000E+00
 -1      5846 0.00000E+00
 -1      5847 0.00000E+00
 -1      5848 0.00000E+00
 -1      5849 0.00000E+00
 -1      5850 0.00000E+00
 -1      5851 0.00000E+00
 -1      5852 0.00000E+00
 -1      5853 0.00000E+00
 -1      5854 0.00000E+00
 -1      5855 0.00000E+00
 -1      5856 0.00000E+00
 -1      5857 0.00000E+00
 -1      5858 0.00000E+00
 -1      5859 0.00000E+00
 -1      5860 0.00000E+00
 -1      5861 0.00000E+00
 -1      5862 0.00000E+00
 -1      5863 0.00000E+00
 -1      5864 0.00000E+00
 -1      5865 0.00000E+00
 -1      5866 0.00000E+00
 -1      5867 0.00000E+00
 -1      5868 0.00000E+00
 -1      5869 0.00000E+00
 -1      5870 0.00000E+00
 -1      5871 0.00000E+00
 -1      5872 0.00000E+00
 -1      5873 0.00000E+00
 -1      5874 0.00000E+00
 -1      5875 0.00000E+00
 -1      5876 0.00000E+00
 -1      5877 0.00000E+00
 -1      5878 0.00000E+00
 -1      5879 0.00000E+00
 -1      5880 0.00000E+00
 -1      5881 0.00000E+00
 -1      5882 0.00000E+00
 -1      5883 0.00000E+00
 -1      5884 0.00000E+00
 -1      5885 0.00000E+00
 -1      5886 0.00000E+00
 -1      5887 0.00000E+00
 -1      5888 0.00000E+00
 -1      5889 0.00000E+00
 -1      5890 0.00000E+00
 -1      5891 0.00000E+00
 -1      5892 0.00000E+00
 -1      5893 0.00000E+00
 -1      5894 0.00000E+00
 -1      5895 0.00000E+00
 -1      5896 0.00000E+00
 -1      5897 0.00000E+00
 -1      5898 0.00000E+00
 -1      5899 0.00000E+00
 -1      5900 0.00000E+00
 -1      5901 0.00000E+00
 -1      5902 0.00000E+00
 -1      5903 0.00000E+00
 -1      5904 0.00000E+00
 -1      5905 0.00000E+00
 -1      5906 0.00000E+00
 -1      5907 0.00000E+00
 -1      5908 0.00000E+00
 -1      5909 0.00000E+00
 -1      5910 0.00000E+00
 -1      5911 0.00000E+00
 -1      5912 0.00000E+00
 -1      5913 0.00000E+00
 -1      5914 0.00000E+00
 -1      5915 0.00000E+00
 -1      5916 0.00000E+00
 -1      5917 0.00000E+00
 -1      5918 0.00000E+00
 -1      5919 0.00000E+00
 -1      5920 0.00000E+00
 -1      5921 0.00000E+00
 -1      5922 0.00000E+00
 -1      5923 0.00000E+00
 -1      5924 0.00000E+00
 -1      5925 0.00000E+00
 -1      5926 0.00000E+00
 -1      5927 0.00000E+00
 -1      5928 0.00000E+00
 -1      5929 0.00000E+00
 -1      5930 0.00000E+00
 -1      5931 0.00000E+00
 -1      5932 0.00000E+00
 -1      5933 0.00000E+00
 -1      5934 0.00000E+00
 -1      5935 0.00000E+00
 -1      5936 0.00000E+00
 -1      5937 0.00000E+00
 -1      5938 0.00000E+00
 -1      5939 0.00000E+00
 -1      5940 0.00000E+00
 -1      5941 0.00000E+00
 -1      5942 0.00000E+00
 -1      5943 0.00000E+00
 -1      5944 0.00000E+00
 -1      5945 0.00000E+00
 -1      5946 0.00000E+00
 -1      5947 0.00000E+00
 -1      5948 0.00000E+00
 -1      5949 0.00000E+00
 -1      5950 0.00000E+00
 -1      5951 0.00000E+00
 -1      5952 0.00000E+00
 -1      5953 0.00000E+00
 -1      5954 0.00000E+00
 -1      5955 0.00000E+00
 -1      5956 0.00000E+00
 -1      5957 0.00000E+00
 -1      5958 0.00000E+00
 -1      5959 0.00000E+00
 -1      5960 0.00000E+00
 -1      5961 0.00000E+00
 -1      5962 0.00000E+00
 -1      5963 0.00000E+00
 -1      5964 0.00000E+00
 -1      5965 0.00000E+00
 -1      5966 0.00000E+00
 -1      5967 0.00000E+00
 -1      5968 0.00000E+00
 -1      5969 0.00000E+00
 -1      5970 0.00000E+00
 -1      5971 0.00000E+00
 -1      5972 0.00000E+00
 -1      5973 0.00000E+00
 -1      5974 0.00000E+00
 -1      5975 0.00000E+00
 -1      5976 0.00000E+00
 -1      5977 0.00000E+00
 -1      5978 0.00000E+00
 -1      5979 0.00000E+00
 -1      5980 0.00000E+00
 -1      5981 0.00000E+00
 -1      5982 0.00000E+00
 -1      5983 0.00000E+00
 -1      5984 0.00000E+00
 -1      5985 0.00000E+00
 -1      5986 0.00000E+00
 -1      5987 0.00000E+00
 -1      5988 0.00000E+00
 -1      5989 0.00000E+00
 -1      5990 0.00000E+00
 -1      5991 0.00000E+00
 -1      5992 0.00000E+00
 -1      5993 0.00000E+00
 -1      5994 0.00000E+00
 -1      5995 0.00000E+00
 -1      5996 0.00000E+00
 -1      5997 0.00000E+00
 -1      5998 0.00000E+00
 -1      5999 0.00000E+00
 -1      6000 0.00000E+00
 -1      6001 0.00000E+00
 -1      6002 0.00000E+00
 -1      6003 0.00000E+00
 -1      6004 0.00000E+00
 -1      6005 0.00000E+00
 -1      6006 0.00000E+00
 -1      6007 0.00000E+00
 -1      6008 0.00000E+00
 -1      6009 0.00000E+00
 -1      6010 0.00000E+00
 -1      6011 0.00000E+00
 -1      6012 0.00000E+00
 -1      6013 0.00000E+00
 -1      6014 0.00000E+00
 -1      6015 0.00000E+00
 -1      6016 0.00000E+00
 -1      6017 0.00000E+00
 -1      6018 0.00000E+00
 -1      6019 0.00000E+00
 -1      6020 0.00000E+00
 -1      6021 0.00000E+00
 -1      6022 0.00000E+00
 -1      6023 0.00000E+00
 -1      6024 0.00000E+00
 -1      6025 0.00000E+00
 -1      6026 0.00000E+00
 -1      6027 0.00000E+00
 -1      6028 0.00000E+00
 -1      6029 0.00000E+00
 -1      6030 0.00000E+00
 -1      6031 0.00000E+00
 -1      6032 0.00000E+00
 -1      6033 0.00000E+00
 -1      6034 0.00000E+00
 -1      6035 0.00000E+00
 -1      6036 0.00000E+00
 -1      6037 0.00000E+00
 -1      6038 0.00000E+00
 -1      6039 0.00000E+00
 -1      6040 0.00000E+00
 -1      6041 0.00000E+00
 -1      6042 0.00000E+00
 -1      6043 0.00000E+00
 -1      6044 0.00000E+00
 -1      6045 0.00000E+00
 -1      6046 0.00000E+00
 -1      6047 0.00000E+00
 -1      6048 0.00000E+00
 -1      6049 0.00000E+00
 -1      6050 0.00000E+00
 -1      6051 0.00000E+00
 -1      6052 0.00000E+00
 -1      6053 0.00000E+00
 -1      6054 0.00000E+00
 -1      6055 0.00000E+00
 -1      6056 0.00000E+00
 -1      6057 0.00000E+00
 -1      6058 0.00000E+00
 -1      6059 0.00000E+00
 -1      6060 0.00000E+00
 -1      6061 0.00000E+00
 -1      6062 0.00000E+00
 -1      6063 0.00000E+00
 -1      6064 0.00000E+00
 -1      6065 0.00000E+00
 -1      6066 0.00000E+00
 -1      6067 0.00000E+00
 -1      6068 0.00000E+00
 -1      6069 0.00000E+00
 -1      6070 0.00000E+00
 -1      6071 0.00000E+00
 -1      6072 0.00000E+00
 -1      6073 0.00000E+00
 -1      6074 0.00000E+00
 -1      6075 0.00000E+00
 -1      6076 0.00000E+00
 -1      6077 0.00000E+00
 -1      6078 0.00000E+00
 -1      6079 0.00000E+00
 -1      6080 0.00000E+00
 -1      6081 0.00000E+00
 -1      6082 0.00000E+00
 -1      6083 0.00000E+00
 -1      6084 0.00000E+00
 -1      6085 0.00000E+00
 -1      6086 0.00000E+00
 -1      6087 0.00000E+00
 -1      6088 0.00000E+00
 -1      6089 0.00000E+00
 -1      6090 0.00000E+00
 -1      6091 0.00000E+00
 -1      6092 0.00000E+00
 -1      6093 0.00000E+00
 -1      6094 0.00000E+00
 -1      6095 0.00000E+00
 -1      6096 0.00000E+00
 -1      6097 0.00000E+00
 -1      6098 0.00000E+00
 -1      6099 0.00000E+00
 -1      6100 0.00000E+00
 -1      6101 0.00000E+00
 -1      6102 0.00000E+00
 -1      6103 0.00000E+00
 -1      6104 0.00000E+00
 -1      6105 0.00000E+00
 -1      6106 0.00000E+00
 -1      6107 0.00000E+00
 -1      6108 0.00000E+00
 -1      6109 0.00000E+00
 -1      6110 0.00000E+00
 -1      6111 0.00000E+00
 -1      6112 0.00000E+00
 -1      6113 0.00000E+00
 -1      6114 0.00000E+00
 -1      6115 0.00000E+00
 -1      6116 0.00000E+00
 -1      6117 0.00000E+00
 -1      6118 0.00000E+00
 -1      6119 0.00000E+00
 -1      6120 0.00000E+00
 -1      6121 0.00000E+00
 -1      6122 0.00000E+00
 -1      6123 0.00000E+00
 -1      6124 0.00000E+00
 -1      6125 0.00000E+00
 -1      6126 0.00000E+00
 -1      6127 0.00000E+00
 -1      6128 0.00000E+00
 -1      6129 0.00000E+00
 -1      6130 0.00000E+00
 -1      6131 0.00000E+00
 -1      6132 0.00000E+00
 -1      6133 0.00000E+00
 -1      6134 0.00000E+00
 -1      6135 0.00000E+00
 -1      6136 0.00000E+00
 -1      6137 0.00000E+00
 -1      6138 0.00000E+00
 -1      6139 0.00000E+00
 -1      6140 0.00000E+00
 -1      6141 0.00000E+00
 -1      6142 0.00000E+00
 -1      6143 0.00000E+00
 -1      6144 0.00000E+00
 -1      6145 0.00000E+00
 -1      6146 0.00000E+00
 -1      6147 0.00000E+00
 -1      6148 0.00000E+00
 -1      6149 0.00000E+00
 -1      6150 0.00000E+00
 -1      6151 0.00000E+00
 -1      6152 0.00000E+00
 -1      6153 0.00000E+00
 -1      6154 0.00000E+00
 -1      6155 0.00000E+00
 -1      6156 0.00000E+00
 -1      6157 0.00000E+00
 -1      6158 0.00000E+00
 -1      6159 0.00000E+00
 -1      6160 0.00000E+00
 -1      6161 0.00000E+00
 -1      6162 0.00000E+00
 -1      6163 0.00000E+00
 -1      6164 0.00000E+00
 -1      6165 0.00000E+00
 -1      6166 0.00000E+00
 -1      6167 0.00000E+00
 -1      6168 0.00000E+00
 -1      6169 0.00000E+00
 -1      6170 0.00000E+00
 -1      6171 0.00000E+00
 -1      6172 0.00000E+00
 -1      6173 0.00000E+00
 -1      6174 0.00000E+00
 -1      6175 0.00000E+00
 -1      6176 0.00000E+00
 -1      6177 0.00000E+00
 -1      6178 0.00000E+00
 -1      6179 0.00000E+00
 -1      6180 0.00000E+00
 -1      6181 0.00000E+00
 -1      6182 0.00000E+00
 -1      6183 0.00000E+00
 -1      6184 0.00000E+00
 -1      6185 0.00000E+00
 -1      6186 0.00000E+00
 -1      6187 0.00000E+00
 -1      6188 0.00000E+00
 -1      6189 0.00000E+00
 -1      6190 0.00000E+00
 -1      6191 0.00000E+00
 -1      6192 0.00000E+00
 -1      6193 0.00000E+00
 -1      6194 0.00000E+00
 -1      6195 0.00000E+00
 -1      6196 0.00000E+00
 -1      6197 0.00000E+00
 -1      6198 0.00000E+00
 -1      6199 0.00000E+00
 -1      6200 0.00000E+00
 -1      6201 0.00000E+00
 -1      6202 0.00000E+00
 -1      6203 0.00000E+00
 -1      6204 0.00000E+00
 -1      6205 0.00000E+00
 -1      6206 0.00000E+00
 -1      6207 0.00000E+00
 -1      6208 0.00000E+00
 -1      6209 0.00000E+00
 -1      6210 0.00000E+00
 -1      6211 0.00000E+00
 -1      6212 0.00000E+00
 -1      6213 0.00000E+00
 -1      6214 0.00000E+00
 -1      6215 0.00000E+00
 -1      6216 0.00000E+00
 -1      6217 0.00000E+00
 -1      6218 0.00000E+00
 -1      6219 0.00000E+00
 -1      6220 0.00000E+00
 -1      6221 0.00000E+00
 -1      6222 0.00000E+00
 -1      6223 0.00000E+00
 -1      6224 0.00000E+00
 -1      6225 0.00000E+00
 -1      6226 0.00000E+00
 -1      6227 0.00000E+00
 -1      6228 0.00000E+00
 -1      6229 0.00000E+00
 -1      6230 0.00000E+00
 -1      6231 0.00000E+00
 -1      6232 0.00000E+00
 -1      6233 0.00000E+00
 -1      6234 0.00000E+00
 -1      6235 0.00000E+00
 -1      6236 0.00000E+00
 -1      6237 0.00000E+00
 -1      6238 0.00000E+00
 -1      6239 0.00000E+00
 -1      6240 0.00000E+00
 -1      6241 0.00000E+00
 -1      6242 0.00000E+00
 -1      6243 0.00000E+00
 -1      6244 0.00000E+00
 -1      6245 0.00000E+00
 -1      6246 0.00000E+00
 -1      6247 0.00000E+00
 -1      6248 0.00000E+00
 -1      6249 0.00000E+00
 -1      6250 0.00000E+00
 -1      6251 0.00000E+00
 -1      6252 0.00000E+00
 -1      6253 0.00000E+00
 -1      6254 0.00000E+00
 -1      6255 0.00000E+00
 -1      6256 0.00000E+00
 -1      6257 0.00000E+00
 -1      6258 0.00000E+00
 -1      6259 0.00000E+00
 -1      6260 0.00000E+00
 -1      6261 0.00000E+00
 -1      6262 0.00000E+00
 -1      6263 0.00000E+00
 -1      6264 0.00000E+00
 -1      6265 0.00000E+00
 -1      6266 0.00000E+00
 -1      6267 0.00000E+00
 -1      6268 0.00000E+00
 -1      6269 0.00000E+00
 -1      6270 0.00000E+00
 -1      6271 0.00000E+00
 -1      6272 0.00000E+00
 -1      6273 0.00000E+00
 -1      6274 0.00000E+00
 -1      6275 0.00000E+00
 -1      6276 0.00000E+00
 -1      6277 0.00000E+00
 -1      6278 0.00000E+00
 -1      6279 0.00000E+00
 -1      6280 0.00000E+00
 -1      6281 0.00000E+00
 -1      6282 0.00000E+00
 -1      6283 0.00000E+00
 -1      6284 0.00000E+00
 -1      6285 0.00000E+00
 -1      6286 0.00000E+00
 -1      6287 0.00000E+00
 -1      6288 0.00000E+00
 -1      6289 0.00000E+00
 -1      6290 0.00000E+00
 -1      6291 0.00000E+00
 -1      6292 0.00000E+00
 -1      6293 0.00000E+00
 -1      6294 0.00000E+00
 -1      6295 0.00000E+00
 -1      6296 0.00000E+00
 -1      6297 0.00000E+00
 -1      6298 0.00000E+00
 -1      6299 0.00000E+00
 -1      6300 0.00000E+00
 -1      6301 0.00000E+00
 -1      6302 0.00000E+00
 -1      6303 0.00000E+00
 -1      6304 0.00000E+00
 -1      6305 0.00000E+00
 -1      6306 0.00000E+00
 -1      6307 0.00000E+00
 -1      6308 0.00000E+00
 -1      6309 0.00000E+00
 -1      6310 0.00000E+00
 -1      6311 0.00000E+00
 -1      6312 0.00000E+00
 -1      6313 0.00000E+00
 -1      6314 0.00000E+00
 -1      6315 0.00000E+00
 -1      6316 0.00000E+00
 -1      6317 0.00000E+00
 -1      6318 0.00000E+00
 -1      6319 0.00000E+00
 -1      6320 0.00000E+00
 -1      6321 0.00000E+00
 -1      6322 0.00000E+00
 -1      6323 0.00000E+00
 -1      6324 0.00000E+00
 -1      6325 0.00000E+00
 -1      6326 0.00000E+00
 -1      6327 0.00000E+00
 -1      6328 0.00000E+00
 -1      6329 0.00000E+00
 -1      6330 0.00000E+00
 -1      6331 0.00000E+00
 -1      6332 0.00000E+00
 -1      6333 0.00000E+00
 -1      6334 0.00000E+00
 -1      6335 0.00000E+00
 -1      6336 0.00000E+00
 -1      6337 0.00000E+00
 -1      6338 0.00000E+00
 -1      6339 0.00000E+00
 -1      6340 0.00000E+00
 -1      6341 0.00000E+00
 -1      6342 0.00000E+00
 -1      6343 0.00000E+00
 -1      6344 0.00000E+00
 -1      6345 0.00000E+00
 -1      6346 0.00000E+00
 -1      6347 0.00000E+00
 -1      6348 0.00000E+00
 -1      6349 0.00000E+00
 -1      6350 0.00000E+00
 -1      6351 0.00000E+00
 -1      6352 0.00000E+00
 -1      6353 0.00000E+00
 -1      6354 0.00000E+00
 -1      6355 0.00000E+00
 -1      6356 0.00000E+00
 -1      6357 0.00000E+00
 -1      6358 0.00000E+00
 -1      6359 0.00000E+00
 -1      6360 0.00000E+00
 -1      6361 0.00000E+00
 -1      6362 0.00000E+00
 -1      6363 0.00000E+00
 -1      6364 0.00000E+00
 -1      6365 0.00000E+00
 -1      6366 0.00000E+00
 -1      6367 0.00000E+00
 -1      6368 0.00000E+00
 -1      6369 0.00000E+00
 -1      6370 0.00000E+00
 -1      6371 0.00000E+00
 -1      6372 0.00000E+00
 -1      6373 0.00000E+00
 -1      6374 0.00000E+00
 -1      6375 0.00000E+00
 -1      6376 0.00000E+00
 -1      6377 0.00000E+00
 -1      6378 0.00000E+00
 -1      6379 0.00000E+00
 -1      6380 0.00000E+00
 -1      6381 0.00000E+00
 -1      6382 0.00000E+00
 -1      6383 0.00000E+00
 -1      6384 0.00000E+00
 -1      6385 0.00000E+00
 -1      6386 0.00000E+00
 -1      6387 0.00000E+00
 -1      6388 0.00000E+00
 -1      6389 0.00000E+00
 -1      6390 0.00000E+00
 -1      6391 0.00000E+00
 -1      6392 0.00000E+00
 -1      6393 0.00000E+00
 -1      6394 0.00000E+00
 -1      6395 0.00000E+00
 -1      6396 0.00000E+00
 -1      6397 0.00000E+00
 -1      6398 0.00000E+00
 -1      6399 0.00000E+00
 -1      6400 0.00000E+00
 -1      6401 0.00000E+00
 -1      6402 0.00000E+00
 -1      6403 0.00000E+00
 -1      6404 0.00000E+00
 -1      6405 0.00000E+00
 -1      6406 0.00000E+00
 -1      6407 0.00000E+00
 -1      6408 0.00000E+00
 -1      6409 0.00000E+00
 -1      6410 0.00000E+00
 -1      6411 0.00000E+00
 -1      6412 0.00000E+00
 -1      6413 0.00000E+00
 -1      6414 0.00000E+00
 -1      6415 0.00000E+00
 -1      6416 0.00000E+00
 -1      6417 0.00000E+00
 -1      6418 0.00000E+00
 -1      6419 0.00000E+00
 -1      6420 0.00000E+00
 -1      6421 0.00000E+00
 -1      6422 0.00000E+00
 -1      6423 0.00000E+00
 -1      6424 0.00000E+00
 -1      6425 0.00000E+00
 -1      6426 0.00000E+00
 -1      6427 0.00000E+00
 -1      6428 0.00000E+00
 -1      6429 0.00000E+00
 -1      6430 0.00000E+00
 -1      6431 0.00000E+00
 -1      6432 0.00000E+00
 -1      6433 0.00000E+00
 -1      6434 0.00000E+00
 -1      6435 0.00000E+00
 -1      6436 0.00000E+00
 -1      6437 0.00000E+00
 -1      6438 0.00000E+00
 -1      6439 0.00000E+00
 -1      6440 0.00000E+00
 -1      6441 0.00000E+00
 -1      6442 0.00000E+00
 -1      6443 0.00000E+00
 -1      6444 0.00000E+00
 -1      6445 0.00000E+00
 -1      6446 0.00000E+00
 -1      6447 0.00000E+00
 -1      6448 0.00000E+00
 -1      6449 0.00000E+00
 -1      6450 0.00000E+00
 -1      6451 0.00000E+00
 -1      6452 0.00000E+00
 -1      6453 0.00000E+00
 -1      6454 0.00000E+00
 -1      6455 0.00000E+00
 -1      6456 0.00000E+00
 -1      6457 0.00000E+00
 -1      6458 0.00000E+00
 -1      6459 0.00000E+00
 -1      6460 0.00000E+00
 -1      6461 0.00000E+00
 -1      6462 0.00000E+00
 -1      6463 0.00000E+00
 -1      6464 0.00000E+00
 -1      6465 0.00000E+00
 -1      6466 0.00000E+00
 -1      6467 0.00000E+00
 -1      6468 0.00000E+00
 -1      6469 0.00000E+00
 -1      6470 0.00000E+00
 -1      6471 0.00000E+00
 -1      6472 0.00000E+00
 -1      6473 0.00000E+00
 -1      6474 0.00000E+00
 -1      6475 0.00000E+00
 -1      6476 0.00000E+00
 -1      6477 0.00000E+00
 -1      6478 0.00000E+00
 -1      6479 0.00000E+00
 -1      6480 0.00000E+00
 -1      6481 0.00000E+00
 -1      6482 0.00000E+00
 -1      6483 0.00000E+00
 -1      6484 0.00000E+00
 -1      6485 0.00000E+00
 -1      6486 0.00000E+00
 -1      6487 0.00000E+00
 -1      6488 0.00000E+00
 -1      6489 0.00000E+00
 -1      6490 0.00000E+00
 -1      6491 0.00000E+00
 -1      6492 0.00000E+00
 -1      6493 0.00000E+00
 -1      6494 0.00000E+00
 -1      6495 0.00000E+00
 -1      6496 0.00000E+00
 -1      6497 0.00000E+00
 -1      6498 0.00000E+00
 -1      6499 0.00000E+00
 -1      6500 0.00000E+00
 -1      6501 0.00000E+00
 -1      6502 0.00000E+00
 -1      6503 0.00000E+00
 -1      6504 0.00000E+00
 -1      6505 0.00000E+00
 -1      6506 0.00000E+00
 -1      6507 0.00000E+00
 -1      6508 0.00000E+00
 -1      6509 0.00000E+00
 -1      6510 0.00000E+00
 -1      6511 0.00000E+00
 -1      6512 0.00000E+00
 -1      6513 0.00000E+00
 -1      6514 0.00000E+00
 -1      6515 0.00000E+00
 -1      6516 0.00000E+00
 -1      6517 0.00000E+00
 -1      6518 0.00000E+00
 -1      6519 0.00000E+00
 -1      6520 0.00000E+00
 -1      6521 0.00000E+00
 -1      6522 0.00000E+00
 -1      6523 0.00000E+00
 -1      6524 0.00000E+00
 -1      6525 0.00000E+00
 -1      6526 0.00000E+00
 -1      6527 0.00000E+00
 -1      6528 0.00000E+00
 -1      6529 0.00000E+00
 -1      6530 0.00000E+00
 -1      6531 0.00000E+00
 -1      6532 0.00000E+00
 -1      6533 0.00000E+00
 -1      6534 0.00000E+00
 -1      6535 0.00000E+00
 -1      6536 0.00000E+00
 -1      6537 0.00000E+00
 -1      6538 0.00000E+00
 -1      6539 0.00000E+00
 -1      6540 0.00000E+00
 -1      6541 0.00000E+00
 -1      6542 0.00000E+00
 -1      6543 0.00000E+00
 -1      6544 0.00000E+00
 -1      6545 0.00000E+00
 -1      6546 0.00000E+00
 -1      6547 0.00000E+00
 -1      6548 0.00000E+00
 -1      6549 0.00000E+00
 -1      6550 0.00000E+00
 -1      6551 0.00000E+00
 -1      6552 0.00000E+00
 -1      6553 0.00000E+00
 -1      6554 0.00000E+00
 -1      6555 0.00000E+00
 -1      6556 0.00000E+00
 -1      6557 0.00000E+00
 -1      6558 0.00000E+00
 -1      6559 0.00000E+00
 -1      6560 0.00000E+00
 -1      6561 0.00000E+00
 -1      6562 0.00000E+00
 -1      6563 0.00000E+00
 -1      6564 0.00000E+00
 -1      6565 0.00000E+00
 -1      6566 0.00000E+00
 -1      6567 0.00000E+00
 -1      6568 0.00000E+00
 -1      6569 0.00000E+00
 -1      6570 0.00000E+00
 -1      6571 0.00000E+00
 -1      6572 0.00000E+00
 -1      6573 0.00000E+00
 -1      6574 0.00000E+00
 -1      6575 0.00000E+00
 -1      6576 0.00000E+00
 -1      6577 0.00000E+00
 -1      6578 0.00000E+00
 -1      6579 0.00000E+00
 -1      6580 0.00000E+00
 -1      6581 0.00000E+00
 -1      6582 0.00000E+00
 -1      6583 0.00000E+00
 -1      6584 0.00000E+00
 -1      6585 0.00000E+00
 -1      6586 0.00000E+00
 -1      6587 0.00000E+00
 -1      6588 0.00000E+00
 -1      6589 0.00000E+00
 -1      6590 0.00000E+00
 -1      6591 0.00000E+00
 -1      6592 0.00000E+00
 -1      6593 0.00000E+00
 -1      6594 0.00000E+00
 -1      6595 0.00000E+00
 -1      6596 0.00000E+00
 -1      6597 0.00000E+00
 -1      6598 0.00000E+00
 -1      6599 0.00000E+00
 -1      6600 0.00000E+00
 -1      6601 0.00000E+00
 -1      6602 0.00000E+00
 -1      6603 0.00000E+00
 -1      6604 0.00000E+00
 -1      6605 0.00000E+00
 -1      6606 0.00000E+00
 -1      6607 0.00000E+00
 -1      6608 0.00000E+00
 -1      6609 0.00000E+00
 -1      6610 0.00000E+00
 -1      6611 0.00000E+00
 -1      6612 0.00000E+00
 -1      6613 0.00000E+00
 -1      6614 0.00000E+00
 -1      6615 0.00000E+00
 -1      6616 0.00000E+00
 -1      6617 0.00000E+00
 -1      6618 0.00000E+00
 -1      6619 0.00000E+00
 -1      6620 0.00000E+00
 -1      6621 0.00000E+00
 -1      6622 0.00000E+00
 -1      6623 0.00000E+00
 -1      6624 0.00000E+00
 -1      6625 0.00000E+00
 -1      6626 0.00000E+00
 -1      6627 0.00000E+00
 -1      6628 0.00000E+00
 -1      6629 0.00000E+00
 -1      6630 0.00000E+00
 -1      6631 0.00000E+00
 -1      6632 0.00000E+00
 -1      6633 0.00000E+00
 -1      6634 0.00000E+00
 -1      6635 0.00000E+00
 -1      6636 0.00000E+00
 -1      6637 0.00000E+00
 -1      6638 0.00000E+00
 -1      6639 0.00000E+00
 -1      6640 0.00000E+00
 -1      6641 0.00000E+00
 -1      6642 0.00000E+00
 -1      6643 0.00000E+00
 -1      6644 0.00000E+00
 -1      6645 0.00000E+00
 -1      6646 0.00000E+00
 -1      6647 0.00000E+00
 -1      6648 0.00000E+00
 -1      6649 0.00000E+00
 -1      6650 0.00000E+00
 -1      6651 0.00000E+00
 -1      6652 0.00000E+00
 -1      6653 0.00000E+00
 -1      6654 0.00000E+00
 -1      6655 0.00000E+00
 -1      6656 0.00000E+00
 -1      6657 0.00000E+00
 -1      6658 0.00000E+00
 -1      6659 0.00000E+00
 -1      6660 0.00000E+00
 -1      6661 0.00000E+00
 -1      6662 0.00000E+00
 -1      6663 0.00000E+00
 -1      6664 0.00000E+00
 -1      6665 0.00000E+00
 -1      6666 0.00000E+00
 -1      6667 0.00000E+00
 -1      6668 0.00000E+00
 -1      6669 0.00000E+00
 -1      6670 0.00000E+00
 -1      6671 0.00000E+00
 -1      6672 0.00000E+00
 -1      6673 0.00000E+00
 -1      6674 0.00000E+00
 -1      6675 0.00000E+00
 -1      6676 0.00000E+00
 -1      6677 0.00000E+00
 -1      6678 0.00000E+00
 -1      6679 0.00000E+00
 -1      6680 0.00000E+00
 -1      6681 0.00000E+00
 -1      6682 0.00000E+00
 -1      6683 0.00000E+00
 -1      6684 0.00000E+00
 -1      6685 0.00000E+00
 -1      6686 0.00000E+00
 -1      6687 0.00000E+00
 -1      6688 0.00000E+00
 -1      6689 0.00000E+00
 -1      6690 0.00000E+00
 -1      6691 0.00000E+00
 -1      6692 0.00000E+00
 -1      6693 0.00000E+00
 -1      6694 0.00000E+00
 -1      6695 0.00000E+00
 -1      6696 0.00000E+00
 -1      6697 0.00000E+00
 -1      6698 0.00000E+00
 -1      6699 0.00000E+00
 -1      6700 0.00000E+00
 -1      6701 0.00000E+00
 -1      6702 0.00000E+00
 -1      6703 0.00000E+00
 -1      6704 0.00000E+00
 -1      6705 0.00000E+00
 -1      6706 0.00000E+00
 -1      6707 0.00000E+00
 -1      6708 0.00000E+00
 -1      6709 0.00000E+00
 -1      6710 0.00000E+00
 -1      6711 0.00000E+00
 -1      6712 0.00000E+00
 -1      6713 0.00000E+00
 -1      6714 0.00000E+00
 -1      6715 0.00000E+00
 -1      6716 0.00000E+00
 -1      6717 0.00000E+00
 -1      6718 0.00000E+00
 -1      6719 0.00000E+00
 -1      6720 0.00000E+00
 -1      6721 0.00000E+00
 -1      6722 0.00000E+00
 -1      6723 0.00000E+00
 -1      6724 0.00000E+00
 -1      6725 0.00000E+00
 -1      6726 0.00000E+00
 -1      6727 0.00000E+00
 -1      6728 0.00000E+00
 -1      6729 0.00000E+00
 -1      6730 0.00000E+00
 -1      6731 0.00000E+00
 -1      6732 0.00000E+00
 -1      6733 0.00000E+00
 -1      6734 0.00000E+00
 -1      6735 0.00000E+00
 -1      6736 0.00000E+00
 -1      6737 0.00000E+00
 -1      6738 0.00000E+00
 -1      6739 0.00000E+00
 -1      6740 0.00000E+00
 -1      6741 0.00000E+00
 -1      6742 0.00000E+00
 -1      6743 0.00000E+00
 -1      6744 0.00000E+00
 -1      6745 0.00000E+00
 -1      6746 0.00000E+00
 -1      6747 0.00000E+00
 -1      6748 0.00000E+00
 -1      6749 0.00000E+00
 -1      6750 0.00000E+00
 -1      6751 0.00000E+00
 -1      6752 0.00000E+00
 -1      6753 0.00000E+00
 -1      6754 0.00000E+00
 -1      6755 0.00000E+00
 -1      6756 0.00000E+00
 -1      6757 0.00000E+00
 -1      6758 0.00000E+00
 -1      6759 0.00000E+00
 -1      6760 0.00000E+00
 -1      6761 0.00000E+00
 -1      6762 0.00000E+00
 -1      6763 0.00000E+00
 -1      6764 0.00000E+00
 -1      6765 0.00000E+00
 -1      6766 0.00000E+00
 -1      6767 0.00000E+00
 -1      6768 0.00000E+00
 -1      6769 0.00000E+00
 -1      6770 0.00000E+00
 -1      6771 0.00000E+00
 -1      6772 0.00000E+00
 -1      6773 0.00000E+00
 -1      6774 0.00000E+00
 -1      6775 0.00000E+00
 -1      6776 0.00000E+00
 -1      6777 0.00000E+00
 -1      6778 0.00000E+00
 -1      6779 0.00000E+00
 -1      6780 0.00000E+00
 -1      6781 0.00000E+00
 -1      6782 0.00000E+00
 -1      6783 0.00000E+00
 -1      6784 0.00000E+00
 -1      6785 0.00000E+00
 -1      6786 0.00000E+00
 -1      6787 0.00000E+00
 -1      6788 0.00000E+00
 -1      6789 0.00000E+00
 -1      6790 0.00000E+00
 -1      6791 0.00000E+00
 -1      6792 0.00000E+00
 -1      6793 0.00000E+00
 -1      6794 0.00000E+00
 -1      6795 0.00000E+00
 -1      6796 0.00000E+00
 -1      6797 0.00000E+00
 -1      6798 0.00000E+00
 -1      6799 0.00000E+00
 -1      6800 0.00000E+00
 -1      6801 0.00000E+00
 -1      6802 0.00000E+00
 -1      6803 0.00000E+00
 -1      6804 0.00000E+00
 -1      6805 0.00000E+00
 -1      6806 0.00000E+00
 -1      6807 0.00000E+00
 -1      6808 0.00000E+00
 -1      6809 0.00000E+00
 -1      6810 0.00000E+00
 -1      6811 0.00000E+00
 -1      6812 0.00000E+00
 -1      6813 0.00000E+00
 -1      6814 0.00000E+00
 -1      6815 0.00000E+00
 -1      6816 0.00000E+00
 -1      6817 0.00000E+00
 -1      6818 0.00000E+00
 -1      6819 0.00000E+00
 -1      6820 0.00000E+00
 -1      6821 0.00000E+00
 -1      6822 0.00000E+00
 -1      6823 0.00000E+00
 -1      6824 0.00000E+00
 -1      6825 0.00000E+00
 -1      6826 0.00000E+00
 -1      6827 0.00000E+00
 -1      6828 0.00000E+00
 -1      6829 0.00000E+00
 -1      6830 0.00000E+00
 -1      6831 0.00000E+00
 -1      6832 0.00000E+00
 -1      6833 0.00000E+00
 -1      6834 0.00000E+00
 -1      6835 0.00000E+00
 -1      6836 0.00000E+00
 -1      6837 0.00000E+00
 -1      6838 0.00000E+00
 -1      6839 0.00000E+00
 -1      6840 0.00000E+00
 -1      6841 0.00000E+00
 -1      6842 0.00000E+00
 -1      6843 0.00000E+00
 -1      6844 0.00000E+00
 -1      6845 0.00000E+00
 -1      6846 0.00000E+00
 -1      6847 0.00000E+00
 -1      6848 0.00000E+00
 -1      6849 0.00000E+00
 -1      6850 0.00000E+00
 -1      6851 0.00000E+00
 -1      6852 0.00000E+00
 -1      6853 0.00000E+00
 -1      6854 0.00000E+00
 -1      6855 0.00000E+00
 -1      6856 0.00000E+00
 -1      6857 0.00000E+00
 -1      6858 0.00000E+00
 -1      6859 0.00000E+00
 -1      6860 0.00000E+00
 -1      6861 0.00000E+00
 -1      6862 0.00000E+00
 -1      6863 0.00000E+00
 -1      6864 0.00000E+00
 -1      6865 0.00000E+00
 -1      6866 0.00000E+00
 -1      6867 0.00000E+00
 -1      6868 0.00000E+00
 -1      6869 0.00000E+00
 -1      6870 0.00000E+00
 -1      6871 0.00000E+00
 -1      6872 0.00000E+00
 -1      6873 0.00000E+00
 -1      6874 0.00000E+00
 -1      6875 0.00000E+00
 -1      6876 0.00000E+00
 -1      6877 0.00000E+00
 -1      6878 0.00000E+00
 -1      6879 0.00000E+00
 -1      6880 0.00000E+00
 -1      6881 0.00000E+00
 -1      6882 0.00000E+00
 -1      6883 0.00000E+00
 -1      6884 0.00000E+00
 -1      6885 0.00000E+00
 -1      6886 0.00000E+00
 -1      6887 0.00000E+00
 -1      6888 0.00000E+00
 -1      6889 0.00000E+00
 -1      6890 0.00000E+00
 -1      6891 0.00000E+00
 -1      6892 0.00000E+00
 -1      6893 0.00000E+00
 -1      6894 0.00000E+00
 -1      6895 0.00000E+00
 -1      6896 0.00000E+00
 -1      6897 0.00000E+00
 -1      6898 0.00000E+00
 -1      6899 0.00000E+00
 -1      6900 0.00000E+00
 -1      6901 0.00000E+00
 -1      6902 0.00000E+00
 -1      6903 0.00000E+00
 -1      6904 0.00000E+00
 -1      6905 0.00000E+00
 -1      6906 0.00000E+00
 -1      6907 0.00000E+00
 -1      6908 0.00000E+00
 -1      6909 0.00000E+00
 -1      6910 0.00000E+00
 -1      6911 0.00000E+00
 -1      6912 0.00000E+00
 -1      6913 0.00000E+00
 -1      6914 0.00000E+00
 -1      6915 0.00000E+00
 -1      6916 0.00000E+00
 -1      6917 0.00000E+00
 -1      6918 0.00000E+00
 -1      6919 0.00000E+00
 -1      6920 0.00000E+00
 -1      6921 0.00000E+00
 -1      6922 0.00000E+00
 -1      6923 0.00000E+00
 -1      6924 0.00000E+00
 -1      6925 0.00000E+00
 -1      6926 0.00000E+00
 -1      6927 0.00000E+00
 -1      6928 0.00000E+00
 -1      6929 0.00000E+00
 -1      6930 0.00000E+00
 -1      6931 0.00000E+00
 -1      6932 0.00000E+00
 -1      6933 0.00000E+00
 -1      6934 0.00000E+00
 -1      6935 0.00000E+00
 -1      6936 0.00000E+00
 -1      6937 0.00000E+00
 -1      6938 0.00000E+00
 -1      6939 0.00000E+00
 -1      6940 0.00000E+00
 -1      6941 0.00000E+00
 -1      6942 0.00000E+00
 -1      6943 0.00000E+00
 -1      6944 0.00000E+00
 -1      6945 0.00000E+00
 -1      6946 0.00000E+00
 -1      6947 0.00000E+00
 -1      6948 0.00000E+00
 -1      6949 0.00000E+00
 -1      6950 0.00000E+00
 -1      6951 0.00000E+00
 -1      6952 0.00000E+00
 -1      6953 0.00000E+00
 -1      6954 0.00000E+00
 -1      6955 0.00000E+00
 -1      6956 0.00000E+00
 -1      6957 0.00000E+00
 -1      6958 0.00000E+00
 -1      6959 0.00000E+00
 -1      6960 0.00000E+00
 -1      6961 0.00000E+00
 -1      6962 0.00000E+00
 -1      6963 0.00000E+00
 -1      6964 0.00000E+00
 -1      6965 0.00000E+00
 -1      6966 0.00000E+00
 -1      6967 0.00000E+00
 -1      6968 0.00000E+00
 -1      6969 0.00000E+00
 -1      6970 0.00000E+00
 -1      6971 0.00000E+00
 -1      6972 0.00000E+00
 -1      6973 0.00000E+00
 -1      6974 0.00000E+00
 -1      6975 0.00000E+00
 -1      6976 0.00000E+00
 -1      6977 0.00000E+00
 -1      6978 0.00000E+00
 -1      6979 0.00000E+00
 -1      6980 0.00000E+00
 -1      6981 0.00000E+00
 -1      6982 0.00000E+00
 -1      6983 0.00000E+00
 -1      6984 0.00000E+00
 -1      6985 0.00000E+00
 -1      6986 0.00000E+00
 -1      6987 0.00000E+00
 -1      6988 0.00000E+00
 -1      6989 0.00000E+00
 -1      6990 0.00000E+00
 -1      6991 0.00000E+00
 -1      6992 0.00000E+00
 -1      6993 0.00000E+00
 -1      6994 0.00000E+00
 -1      6995 0.00000E+00
 -1      6996 0.00000E+00
 -1      6997 0.00000E+00
 -1      6998 0.00000E+00
 -1      6999 0.00000E+00
 -1      7000 0.00000E+00
 -1      7001 0.00000E+00
 -1      7002 0.00000E+00
 -1      7003 0.00000E+00
 -1      7004 0.00000E+00
 -1      7005 0.00000E+00
 -1      7006 0.00000E+00
 -1      7007 0.00000E+00
 -1      7008 0.00000E+00
 -1      7009 0.00000E+00
 -1      7010 0.00000E+00
 -1      7011 0.00000E+00
 -1      7012 0.00000E+00
 -1      7013 0.00000E+00
 -1      7014 0.00000E+00
 -1      7015 0.00000E+00
 -1      7016 0.00000E+00
 -1      7017 0.00000E+00
 -1      7018 0.00000E+00
 -1      7019 0.00000E+00
 -1      7020 0.00000E+00
 -1      7021 0.00000E+00
 -1      7022 0.00000E+00
 -1      7023 0.00000E+00
 -1      7024 0.00000E+00
 -1      7025 0.00000E+00
 -1      7026 0.00000E+00
 -1      7027 0.00000E+00
 -1      7028 0.00000E+00
 -1      7029 0.00000E+00
 -1      7030 0.00000E+00
 -1      7031 0.00000E+00
 -1      7032 0.00000E+00
 -1      7033 0.00000E+00
 -1      7034 0.00000E+00
 -1      7035 0.00000E+00
 -1      7036 0.00000E+00
 -1      7037 0.00000E+00
 -1      7038 0.00000E+00
 -1      7039 0.00000E+00
 -1      7040 0.00000E+00
 -1      7041 0.00000E+00
 -1      7042 0.00000E+00
 -1      7043 0.00000E+00
 -1      7044 0.00000E+00
 -1      7045 0.00000E+00
 -1      7046 0.00000E+00
 -1      7047 0.00000E+00
 -1      7048 0.00000E+00
 -1      7049 0.00000E+00
 -1      7050 0.00000E+00
 -1      7051 0.00000E+00
 -1      7052 0.00000E+00
 -1      7053 0.00000E+00
 -1      7054 0.00000E+00
 -1      7055 0.00000E+00
 -1      7056 0.00000E+00
 -1      7057 0.00000E+00
 -1      7058 0.00000E+00
 -1      7059 0.00000E+00
 -1      7060 0.00000E+00
 -1      7061 0.00000E+00
 -1      7062 0.00000E+00
 -1      7063 0.00000E+00
 -1      7064 0.00000E+00
 -1      7065 0.00000E+00
 -1      7066 0.00000E+00
 -1      7067 0.00000E+00
 -1      7068 0.00000E+00
 -1      7069 0.00000E+00
 -1      7070 0.00000E+00
 -1      7071 0.00000E+00
 -1      7072 0.00000E+00
 -1      7073 0.00000E+00
 -1      7074 0.00000E+00
 -1      7075 0.00000E+00
 -1      7076 0.00000E+00
 -1      7077 0.00000E+00
 -1      7078 0.00000E+00
 -1      7079 0.00000E+00
 -1      7080 0.00000E+00
 -1      7081 0.00000E+00
 -1      7082 0.00000E+00
 -1      7083 0.00000E+00
 -1      7084 0.00000E+00
 -1      7085 0.00000E+00
 -1      7086 0.00000E+00
 -1      7087 0.00000E+00
 -1      7088 0.00000E+00
 -1      7089 0.00000E+00
 -1      7090 0.00000E+00
 -1      7091 0.00000E+00
 -1      7092 0.00000E+00
 -1      7093 0.00000E+00
 -1      7094 0.00000E+00
 -1      7095 0.00000E+00
 -1      7096 0.00000E+00
 -1      7097 0.00000E+00
 -1      7098 0.00000E+00
 -1      7099 0.00000E+00
 -1      7100 0.00000E+00
 -1      7101 0.00000E+00
 -1      7102 0.00000E+00
 -1      7103 0.00000E+00
 -1      7104 0.00000E+00
 -1      7105 0.00000E+00
 -1      7106 0.00000E+00
 -1      7107 0.00000E+00
 -1      7108 0.00000E+00
 -1      7109 0.00000E+00
 -1      7110 0.00000E+00
 -1      7111 0.00000E+00
 -1      7112 0.00000E+00
 -1      7113 0.00000E+00
 -1      7114 0.00000E+00
 -1      7115 0.00000E+00
 -1      7116 0.00000E+00
 -1      7117 0.00000E+00
 -1      7118 0.00000E+00
 -1      7119 0.00000E+00
 -1      7120 0.00000E+00
 -1      7121 0.00000E+00
 -1      7122 0.00000E+00
 -1      7123 0.00000E+00
 -1      7124 0.00000E+00
 -1      7125 0.00000E+00
 -1      7126 0.00000E+00
 -1      7127 0.00000E+00
 -1      7128 0.00000E+00
 -1      7129 0.00000E+00
 -1      7130 0.00000E+00
 -1      7131 0.00000E+00
 -1      7132 0.00000E+00
 -1      7133 0.00000E+00
 -1      7134 0.00000E+00
 -1      7135 0.00000E+00
 -1      7136 0.00000E+00
 -1      7137 0.00000E+00
 -1      7138 0.00000E+00
 -1      7139 0.00000E+00
 -1      7140 0.00000E+00
 -1      7141 0.00000E+00
 -1      7142 0.00000E+00
 -1      7143 0.00000E+00
 -1      7144 0.00000E+00
 -1      7145 0.00000E+00
 -1      7146 0.00000E+00
 -1      7147 0.00000E+00
 -1      7148 0.00000E+00
 -1      7149 0.00000E+00
 -1      7150 0.00000E+00
 -1      7151 0.00000E+00
 -1      7152 0.00000E+00
 -1      7153 0.00000E+00
 -1      7154 0.00000E+00
 -1      7155 0.00000E+00
 -1      7156 0.00000E+00
 -1      7157 0.00000E+00
 -1      7158 0.00000E+00
 -1      7159 0.00000E+00
 -1      7160 0.00000E+00
 -1      7161 0.00000E+00
 -1      7162 0.00000E+00
 -1      7163 0.00000E+00
 -1      7164 0.00000E+00
 -1      7165 0.00000E+00
 -1      7166 0.00000E+00
 -1      7167 0.00000E+00
 -1      7168 0.00000E+00
 -1      7169 0.00000E+00
 -1      7170 0.00000E+00
 -1      7171 0.00000E+00
 -1      7172 0.00000E+00
 -1      7173 0.00000E+00
 -1      7174 0.00000E+00
 -1      7175 0.00000E+00
 -1      7176 0.00000E+00
 -1      7177 0.00000E+00
 -1      7178 0.00000E+00
 -1      7179 0.00000E+00
 -1      7180 0.00000E+00
 -1      7181 0.00000E+00
 -1      7182 0.00000E+00
 -1      7183 0.00000E+00
 -1      7184 0.00000E+00
 -1      7185 0.00000E+00
 -1      7186 0.00000E+00
 -1      7187 0.00000E+00
 -1      7188 0.00000E+00
 -1      7189 0.00000E+00
 -1      7190 0.00000E+00
 -1      7191 0.00000E+00
 -1      7192 0.00000E+00
 -1      7193 0.00000E+00
 -1      7194 0.00000E+00
 -1      7195 0.00000E+00
 -1      7196 0.00000E+00
 -1      7197 0.00000E+00
 -1      7198 0.00000E+00
 -1      7199 0.00000E+00
 -1      7200 0.00000E+00
 -1      7201 0.00000E+00
 -1      7202 0.00000E+00
 -1      7203 0.00000E+00
 -1      7204 0.00000E+00
 -1      7205 0.00000E+00
 -1      7206 0.00000E+00
 -1      7207 0.00000E+00
 -1      7208 0.00000E+00
 -1      7209 0.00000E+00
 -1      7210 0.00000E+00
 -1      7211 0.00000E+00
 -1      7212 0.00000E+00
 -1      7213 0.00000E+00
 -1      7214 0.00000E+00
 -1      7215 0.00000E+00
 -1      7216 0.00000E+00
 -1      7217 0.00000E+00
 -1      7218 0.00000E+00
 -1      7219 0.00000E+00
 -1      7220 0.00000E+00
 -1      7221 0.00000E+00
 -1      7222 0.00000E+00
 -1      7223 0.00000E+00
 -1      7224 0.00000E+00
 -1      7225 0.00000E+00
 -1      7226 0.00000E+00
 -1      7227 0.00000E+00
 -1      7228 0.00000E+00
 -1      7229 0.00000E+00
 -1      7230 0.00000E+00
 -1      7231 0.00000E+00
 -1      7232 0.00000E+00
 -1      7233 0.00000E+00
 -1      7234 0.00000E+00
 -1      7235 0.00000E+00
 -1      7236 0.00000E+00
 -1      7237 0.00000E+00
 -1      7238 0.00000E+00
 -1      7239 0.00000E+00
 -1      7240 0.00000E+00
 -1      7241 0.00000E+00
 -1      7242 0.00000E+00
 -1      7243 0.00000E+00
 -1      7244 0.00000E+00
 -1      7245 0.00000E+00
 -1      7246 0.00000E+00
 -1      7247 0.00000E+00
 -1      7248 0.00000E+00
 -1      7249 0.00000E+00
 -1      7250 0.00000E+00
 -1      7251 0.00000E+00
 -1      7252 0.00000E+00
 -1      7253 0.00000E+00
 -1      7254 0.00000E+00
 -1      7255 0.00000E+00
 -1      7256 0.00000E+00
 -1      7257 0.00000E+00
 -1      7258 0.00000E+00
 -1      7259 0.00000E+00
 -1      7260 0.00000E+00
 -1      7261 0.00000E+00
 -1      7262 0.00000E+00
 -1      7263 0.00000E+00
 -1      7264 0.00000E+00
 -1      7265 0.00000E+00
 -1      7266 0.00000E+00
 -1      7267 0.00000E+00
 -1      7268 0.00000E+00
 -1      7269 0.00000E+00
 -1      7270 0.00000E+00
 -1      7271 0.00000E+00
 -1      7272 0.00000E+00
 -1      7273 0.00000E+00
 -1      7274 0.00000E+00
 -1      7275 0.00000E+00
 -1      7276 0.00000E+00
 -1      7277 0.00000E+00
 -1      7278 0.00000E+00
 -1      7279 0.00000E+00
 -1      7280 0.00000E+00
 -1      7281 0.00000E+00
 -1      7282 0.00000E+00
 -1      7283 0.00000E+00
 -1      7284 0.00000E+00
 -1      7285 0.00000E+00
 -1      7286 0.00000E+00
 -1      7287 0.00000E+00
 -1      7288 0.00000E+00
 -1      7289 0.00000E+00
 -1      7290 0.00000E+00
 -1      7291 0.00000E+00
 -1      7292 0.00000E+00
 -1      7293 0.00000E+00
 -1      7294 0.00000E+00
 -1      7295 0.00000E+00
 -1      7296 0.00000E+00
 -1      7297 0.00000E+00
 -1      7298 0.00000E+00
 -1      7299 0.00000E+00
 -1      7300 0.00000E+00
 -1      7301 0.00000E+00
 -1      7302 0.00000E+00
 -1      7303 0.00000E+00
 -1      7304 0.00000E+00
 -1      7305 0.00000E+00
 -1      7306 0.00000E+00
 -1      7307 0.00000E+00
 -1      7308 0.00000E+00
 -1      7309 0.00000E+00
 -1      7310 0.00000E+00
 -1      7311 0.00000E+00
 -1      7312 0.00000E+00
 -1      7313 0.00000E+00
 -1      7314 0.00000E+00
 -1      7315 0.00000E+00
 -1      7316 0.00000E+00
 -1      7317 0.00000E+00
 -1      7318 0.00000E+00
 -1      7319 0.00000E+00
 -1      7320 0.00000E+00
 -1      7321 0.00000E+00
 -1      7322 0.00000E+00
 -1      7323 0.00000E+00
 -1      7324 0.00000E+00
 -1      7325 0.00000E+00
 -1      7326 0.00000E+00
 -1      7327 0.00000E+00
 -1      7328 0.00000E+00
 -1      7329 0.00000E+00
 -1      7330 0.00000E+00
 -1      7331 0.00000E+00
 -1      7332 0.00000E+00
 -1      7333 0.00000E+00
 -1      7334 0.00000E+00
 -1      7335 0.00000E+00
 -1      7336 0.00000E+00
 -1      7337 0.00000E+00
 -1      7338 0.00000E+00
 -1      7339 0.00000E+00
 -1      7340 0.00000E+00
 -1      7341 0.00000E+00
 -1      7342 0.00000E+00
 -1      7343 0.00000E+00
 -1      7344 0.00000E+00
 -1      7345 0.00000E+00
 -1      7346 0.00000E+00
 -1      7347 0.00000E+00
 -1      7348 0.00000E+00
 -1      7349 0.00000E+00
 -1      7350 0.00000E+00
 -1      7351 0.00000E+00
 -1      7352 0.00000E+00
 -1      7353 0.00000E+00
 -1      7354 0.00000E+00
 -1      7355 0.00000E+00
 -1      7356 0.00000E+00
 -1      7357 0.00000E+00
 -1      7358 0.00000E+00
 -1      7359 0.00000E+00
 -1      7360 0.00000E+00
 -1      7361 0.00000E+00
 -1      7362 0.00000E+00
 -1      7363 0.00000E+00
 -1      7364 0.00000E+00
 -1      7365 0.00000E+00
 -1      7366 0.00000E+00
 -1      7367 0.00000E+00
 -1      7368 0.00000E+00
 -1      7369 0.00000E+00
 -1      7370 0.00000E+00
 -1      7371 0.00000E+00
 -1      7372 0.00000E+00
 -1      7373 0.00000E+00
 -1      7374 0.00000E+00
 -1      7375 0.00000E+00
 -1      7376 0.00000E+00
 -1      7377 0.00000E+00
 -1      7378 0.00000E+00
 -1      7379 0.00000E+00
 -1      7380 0.00000E+00
 -1      7381 0.00000E+00
 -1      7382 0.00000E+00
 -1      7383 0.00000E+00
 -1      7384 0.00000E+00
 -1      7385 0.00000E+00
 -1      7386 0.00000E+00
 -1      7387 0.00000E+00
 -1      7388 0.00000E+00
 -1      7389 0.00000E+00
 -1      7390 0.00000E+00
 -1      7391 0.00000E+00
 -1      7392 0.00000E+00
 -1      7393 0.00000E+00
 -1      7394 0.00000E+00
 -1      7395 0.00000E+00
 -1      7396 0.00000E+00
 -1      7397 0.00000E+00
 -1      7398 0.00000E+00
 -1      7399 0.00000E+00
 -1      7400 0.00000E+00
 -1      7401 0.00000E+00
 -1      7402 0.00000E+00
 -1      7403 0.00000E+00
 -1      7404 0.00000E+00
 -1      7405 0.00000E+00
 -1      7406 0.00000E+00
 -1      7407 0.00000E+00
 -1      7408 0.00000E+00
 -1      7409 0.00000E+00
 -1      7410 0.00000E+00
 -1      7411 0.00000E+00
 -1      7412 0.00000E+00
 -1      7413 0.00000E+00
 -1      7414 0.00000E+00
 -1      7415 0.00000E+00
 -1      7416 0.00000E+00
 -1      7417 0.00000E+00
 -1      7418 0.00000E+00
 -1      7419 0.00000E+00
 -1      7420 0.00000E+00
 -1      7421 0.00000E+00
 -1      7422 0.00000E+00
 -1      7423 0.00000E+00
 -1      7424 0.00000E+00
 -1      7425 0.00000E+00
 -1      7426 0.00000E+00
 -1      7427 0.00000E+00
 -1      7428 0.00000E+00
 -1      7429 0.00000E+00
 -1      7430 0.00000E+00
 -1      7431 0.00000E+00
 -1      7432 0.00000E+00
 -1      7433 0.00000E+00
 -1      7434 0.00000E+00
 -1      7435 0.00000E+00
 -1      7436 0.00000E+00
 -1      7437 0.00000E+00
 -1      7438 0.00000E+00
 -1      7439 0.00000E+00
 -1      7440 0.00000E+00
 -1      7441 0.00000E+00
 -1      7442 0.00000E+00
 -1      7443 0.00000E+00
 -1      7444 0.00000E+00
 -1      7445 0.00000E+00
 -1      7446 0.00000E+00
 -1      7447 0.00000E+00
 -1      7448 0.00000E+00
 -1      7449 0.00000E+00
 -1      7450 0.00000E+00
 -1      7451 0.00000E+00
 -1      7452 0.00000E+00
 -1      7453 0.00000E+00
 -1      7454 0.00000E+00
 -1      7455 0.00000E+00
 -1      7456 0.00000E+00
 -1      7457 0.00000E+00
 -1      7458 0.00000E+00
 -1      7459 0.00000E+00
 -1      7460 0.00000E+00
 -1      7461 0.00000E+00
 -1      7462 0.00000E+00
 -1      7463 0.00000E+00
 -1      7464 0.00000E+00
 -1      7465 0.00000E+00
 -1      7466 0.00000E+00
 -1      7467 0.00000E+00
 -1      7468 0.00000E+00
 -1      7469 0.00000E+00
 -1      7470 0.00000E+00
 -1      7471 0.00000E+00
 -1      7472 0.00000E+00
 -1      7473 0.00000E+00
 -1      7474 0.00000E+00
 -1      7475 0.00000E+00
 -1      7476 0.00000E+00
 -1      7477 0.00000E+00
 -1      7478 0.00000E+00
 -1      7479 0.00000E+00
 -1      7480 0.00000E+00
 -1      7481 0.00000E+00
 -1      7482 0.00000E+00
 -1      7483 0.00000E+00
 -1      7484 0.00000E+00
 -1      7485 0.00000E+00
 -1      7486 0.00000E+00
 -1      7487 0.00000E+00
 -1      7488 0.00000E+00
 -1      7489 0.00000E+00
 -1      7490 0.00000E+00
 -1      7491 0.00000E+00
 -1      7492 0.00000E+00
 -1      7493 0.00000E+00
 -1      7494 0.00000E+00
 -1      7495 0.00000E+00
 -1      7496 0.00000E+00
 -1      7497 0.00000E+00
 -1      7498 0.00000E+00
 -1      7499 0.00000E+00
 -1      7500 0.00000E+00
 -1      7501 0.00000E+00
 -1      7502 0.00000E+00
 -1      7503 0.00000E+00
 -1      7504 0.00000E+00
 -1      7505 0.00000E+00
 -1      7506 0.00000E+00
 -1      7507 0.00000E+00
 -1      7508 0.00000E+00
 -1      7509 0.00000E+00
 -1      7510 0.00000E+00
 -1      7511 0.00000E+00
 -1      7512 0.00000E+00
 -1      7513 0.00000E+00
 -1      7514 0.00000E+00
 -1      7515 0.00000E+00
 -1      7516 0.00000E+00
 -1      7517 0.00000E+00
 -1      7518 0.00000E+00
 -1      7519 0.00000E+00
 -1      7520 0.00000E+00
 -1      7521 0.00000E+00
 -1      7522 0.00000E+00
 -1      7523 0.00000E+00
 -1      7524 0.00000E+00
 -1      7525 0.00000E+00
 -1      7526 0.00000E+00
 -1      7527 0.00000E+00
 -1      7528 0.00000E+00
 -1      7529 0.00000E+00
 -1      7530 0.00000E+00
 -1      7531 0.00000E+00
 -1      7532 0.00000E+00
 -3
 9999
