# vtk DataFile Version 3.0

ASCII
DATASET UNSTRUCTURED_GRID

POINTS 7532 double
	 8.28240000E+02	-1.52455000E+03	 0.00000000E+00
	-8.28240000E+02	-1.52455000E+03	 0.00000000E+00
	 8.11987000E+02	-1.49640000E+03	 0.00000000E+00
	 8.50959000E+02	-1.47390000E+03	 0.00000000E+00
	 8.42500000E+02	-1.45925000E+03	 0.00000000E+00
	 7.77500000E+02	-1.34667000E+03	 0.00000000E+00
	 7.68500000E+02	-1.33108000E+03	 0.00000000E+00
	 7.08000000E+02	-1.36601000E+03	 0.00000000E+00
	 7.08000000E+02	-1.50227000E+03	 0.00000000E+00
	 5.90000000E+02	-1.57039000E+03	 0.00000000E+00
	 4.72000000E+02	-1.50227000E+03	 0.00000000E+00
	 3.54000000E+02	-1.57039000E+03	 0.00000000E+00
	 2.36000000E+02	-1.50227000E+03	 0.00000000E+00
	 1.18000000E+02	-1.57039000E+03	 0.00000000E+00
	 0.00000000E+00	-1.50227000E+03	 0.00000000E+00
	-1.18000000E+02	-1.57039000E+03	 0.00000000E+00
	-2.36000000E+02	-1.50227000E+03	 0.00000000E+00
	-3.54000000E+02	-1.57039000E+03	 0.00000000E+00
	-4.72000000E+02	-1.50227000E+03	 0.00000000E+00
	-5.90000000E+02	-1.57039000E+03	 0.00000000E+00
	-7.08000000E+02	-1.50227000E+03	 0.00000000E+00
	-7.08000000E+02	-1.36601000E+03	 0.00000000E+00
	-7.68500000E+02	-1.33108000E+03	 0.00000000E+00
	-7.77500000E+02	-1.34667000E+03	 0.00000000E+00
	-8.42500000E+02	-1.45925000E+03	 0.00000000E+00
	-8.50959000E+02	-1.47390000E+03	 0.00000000E+00
	-8.11987000E+02	-1.49640000E+03	 0.00000000E+00
	 0.00000000E+00	-1.70700000E+03	 0.00000000E+00
	 0.00000000E+00	-1.62040000E+03	 0.00000000E+00
	-7.48000000E+01	-1.66370000E+03	 0.00000000E+00
	 7.48000000E+01	-1.66370000E+03	 0.00000000E+00
	-1.61200000E+02	-1.66370000E+03	 0.00000000E+00
	 1.61200000E+02	-1.66370000E+03	 0.00000000E+00
	-2.36000000E+02	-1.62040000E+03	 0.00000000E+00
	 2.36000000E+02	-1.62040000E+03	 0.00000000E+00
	-3.10800000E+02	-1.66370000E+03	 0.00000000E+00
	 3.10800000E+02	-1.66370000E+03	 0.00000000E+00
	-3.97200000E+02	-1.66370000E+03	 0.00000000E+00
	 3.97200000E+02	-1.66370000E+03	 0.00000000E+00
	-4.72000000E+02	-1.62040000E+03	 0.00000000E+00
	 4.72000000E+02	-1.62040000E+03	 0.00000000E+00
	 8.23126000E+02	-1.52731000E+03	 0.00000000E+00
	 8.18003000E+02	-1.53006000E+03	 0.00000000E+00
	 8.12871000E+02	-1.53280000E+03	 0.00000000E+00
	 8.07729000E+02	-1.53551000E+03	 0.00000000E+00
	 8.02579000E+02	-1.53821000E+03	 0.00000000E+00
	 7.97420000E+02	-1.54089000E+03	 0.00000000E+00
	 7.92251000E+02	-1.54356000E+03	 0.00000000E+00
	 7.87074000E+02	-1.54620000E+03	 0.00000000E+00
	 7.81888000E+02	-1.54883000E+03	 0.00000000E+00
	 7.76693000E+02	-1.55144000E+03	 0.00000000E+00
	 7.71489000E+02	-1.55404000E+03	 0.00000000E+00
	 7.66277000E+02	-1.55661000E+03	 0.00000000E+00
	 7.61056000E+02	-1.55917000E+03	 0.00000000E+00
	 7.55827000E+02	-1.56171000E+03	 0.00000000E+00
	 7.50589000E+02	-1.56424000E+03	 0.00000000E+00
	 7.45342000E+02	-1.56674000E+03	 0.00000000E+00
	 7.40088000E+02	-1.56923000E+03	 0.00000000E+00
	 7.34825000E+02	-1.57171000E+03	 0.00000000E+00
	 7.29553000E+02	-1.57416000E+03	 0.00000000E+00
	 7.24274000E+02	-1.57660000E+03	 0.00000000E+00
	 7.18986000E+02	-1.57901000E+03	 0.00000000E+00
	 7.13690000E+02	-1.58141000E+03	 0.00000000E+00
	 7.08387000E+02	-1.58380000E+03	 0.00000000E+00
	 7.03075000E+02	-1.58616000E+03	 0.00000000E+00
	 6.97755000E+02	-1.58851000E+03	 0.00000000E+00
	 6.92428000E+02	-1.59084000E+03	 0.00000000E+00
	 6.87093000E+02	-1.59315000E+03	 0.00000000E+00
	 6.81750000E+02	-1.59544000E+03	 0.00000000E+00
	 6.76399000E+02	-1.59772000E+03	 0.00000000E+00
	 6.71041000E+02	-1.59998000E+03	 0.00000000E+00
	 6.65676000E+02	-1.60222000E+03	 0.00000000E+00
	 6.60302000E+02	-1.60444000E+03	 0.00000000E+00
	 6.54922000E+02	-1.60664000E+03	 0.00000000E+00
	 6.49534000E+02	-1.60883000E+03	 0.00000000E+00
	 6.44139000E+02	-1.61100000E+03	 0.00000000E+00
	 6.38736000E+02	-1.61315000E+03	 0.00000000E+00
	 6.33327000E+02	-1.61528000E+03	 0.00000000E+00
	 6.27910000E+02	-1.61739000E+03	 0.00000000E+00
	 6.22486000E+02	-1.61949000E+03	 0.00000000E+00
	 6.17055000E+02	-1.62156000E+03	 0.00000000E+00
	 6.11617000E+02	-1.62362000E+03	 0.00000000E+00
	 6.06173000E+02	-1.62566000E+03	 0.00000000E+00
	 6.00721000E+02	-1.62769000E+03	 0.00000000E+00
	 5.95263000E+02	-1.62969000E+03	 0.00000000E+00
	 5.89799000E+02	-1.63167000E+03	 0.00000000E+00
	 5.84327000E+02	-1.63364000E+03	 0.00000000E+00
	 5.78849000E+02	-1.63559000E+03	 0.00000000E+00
	 5.73365000E+02	-1.63752000E+03	 0.00000000E+00
	 5.67874000E+02	-1.63943000E+03	 0.00000000E+00
	 5.62376000E+02	-1.64133000E+03	 0.00000000E+00
	 5.56873000E+02	-1.64320000E+03	 0.00000000E+00
	 5.51363000E+02	-1.64506000E+03	 0.00000000E+00
	 5.45847000E+02	-1.64690000E+03	 0.00000000E+00
	 5.40324000E+02	-1.64872000E+03	 0.00000000E+00
	 5.34796000E+02	-1.65052000E+03	 0.00000000E+00
	 5.29262000E+02	-1.65230000E+03	 0.00000000E+00
	 5.23721000E+02	-1.65407000E+03	 0.00000000E+00
	 5.18175000E+02	-1.65581000E+03	 0.00000000E+00
	 5.12623000E+02	-1.65754000E+03	 0.00000000E+00
	 5.07066000E+02	-1.65925000E+03	 0.00000000E+00
	 5.01502000E+02	-1.66094000E+03	 0.00000000E+00
	 4.95933000E+02	-1.66261000E+03	 0.00000000E+00
	 4.90359000E+02	-1.66426000E+03	 0.00000000E+00
	 4.84779000E+02	-1.66590000E+03	 0.00000000E+00
	 4.79193000E+02	-1.66751000E+03	 0.00000000E+00
	 4.73602000E+02	-1.66911000E+03	 0.00000000E+00
	 4.68006000E+02	-1.67069000E+03	 0.00000000E+00
	 4.62404000E+02	-1.67225000E+03	 0.00000000E+00
	 4.56798000E+02	-1.67379000E+03	 0.00000000E+00
	 4.51186000E+02	-1.67531000E+03	 0.00000000E+00
	 4.45569000E+02	-1.67681000E+03	 0.00000000E+00
	 4.39947000E+02	-1.67829000E+03	 0.00000000E+00
	 4.34320000E+02	-1.67976000E+03	 0.00000000E+00
	 4.28688000E+02	-1.68121000E+03	 0.00000000E+00
	 4.23052000E+02	-1.68263000E+03	 0.00000000E+00
	 4.17410000E+02	-1.68404000E+03	 0.00000000E+00
	 4.11765000E+02	-1.68543000E+03	 0.00000000E+00
	 4.06114000E+02	-1.68680000E+03	 0.00000000E+00
	 4.00459000E+02	-1.68815000E+03	 0.00000000E+00
	 3.94799000E+02	-1.68948000E+03	 0.00000000E+00
	 3.89135000E+02	-1.69080000E+03	 0.00000000E+00
	 3.83467000E+02	-1.69209000E+03	 0.00000000E+00
	 3.77794000E+02	-1.69337000E+03	 0.00000000E+00
	 3.72117000E+02	-1.69463000E+03	 0.00000000E+00
	 3.66436000E+02	-1.69586000E+03	 0.00000000E+00
	 3.60750000E+02	-1.69708000E+03	 0.00000000E+00
	 3.55061000E+02	-1.69828000E+03	 0.00000000E+00
	 3.49368000E+02	-1.69946000E+03	 0.00000000E+00
	 3.43670000E+02	-1.70062000E+03	 0.00000000E+00
	 3.37969000E+02	-1.70176000E+03	 0.00000000E+00
	 3.32264000E+02	-1.70289000E+03	 0.00000000E+00
	 3.26556000E+02	-1.70399000E+03	 0.00000000E+00
	 3.20843000E+02	-1.70508000E+03	 0.00000000E+00
	 3.15127000E+02	-1.70614000E+03	 0.00000000E+00
	 3.09408000E+02	-1.70719000E+03	 0.00000000E+00
	 3.03685000E+02	-1.70822000E+03	 0.00000000E+00
	 2.97958000E+02	-1.70922000E+03	 0.00000000E+00
	 2.92229000E+02	-1.71021000E+03	 0.00000000E+00
	 2.86496000E+02	-1.71118000E+03	 0.00000000E+00
	 2.80760000E+02	-1.71213000E+03	 0.00000000E+00
	 2.75020000E+02	-1.71306000E+03	 0.00000000E+00
	 2.69278000E+02	-1.71398000E+03	 0.00000000E+00
	 2.63532000E+02	-1.71487000E+03	 0.00000000E+00
	 2.57784000E+02	-1.71574000E+03	 0.00000000E+00
	 2.52033000E+02	-1.71660000E+03	 0.00000000E+00
	 2.46278000E+02	-1.71743000E+03	 0.00000000E+00
	 2.40521000E+02	-1.71825000E+03	 0.00000000E+00
	 2.34762000E+02	-1.71904000E+03	 0.00000000E+00
	 2.29000000E+02	-1.71982000E+03	 0.00000000E+00
	 2.23235000E+02	-1.72058000E+03	 0.00000000E+00
	 2.17467000E+02	-1.72132000E+03	 0.00000000E+00
	 2.11698000E+02	-1.72204000E+03	 0.00000000E+00
	 2.05925000E+02	-1.72274000E+03	 0.00000000E+00
	 2.00151000E+02	-1.72342000E+03	 0.00000000E+00
	 1.94374000E+02	-1.72408000E+03	 0.00000000E+00
	 1.88595000E+02	-1.72472000E+03	 0.00000000E+00
	 1.82814000E+02	-1.72534000E+03	 0.00000000E+00
	 1.77031000E+02	-1.72594000E+03	 0.00000000E+00
	 1.71246000E+02	-1.72653000E+03	 0.00000000E+00
	 1.65459000E+02	-1.72709000E+03	 0.00000000E+00
	 1.59670000E+02	-1.72764000E+03	 0.00000000E+00
	 1.53880000E+02	-1.72816000E+03	 0.00000000E+00
	 1.48087000E+02	-1.72867000E+03	 0.00000000E+00
	 1.42293000E+02	-1.72916000E+03	 0.00000000E+00
	 1.36498000E+02	-1.72962000E+03	 0.00000000E+00
	 1.30701000E+02	-1.73007000E+03	 0.00000000E+00
	 1.24902000E+02	-1.73050000E+03	 0.00000000E+00
	 1.19102000E+02	-1.73091000E+03	 0.00000000E+00
	 1.13301000E+02	-1.73130000E+03	 0.00000000E+00
	 1.07498000E+02	-1.73167000E+03	 0.00000000E+00
	 1.01694000E+02	-1.73202000E+03	 0.00000000E+00
	 9.58891000E+01	-1.73235000E+03	 0.00000000E+00
	 9.00831000E+01	-1.73266000E+03	 0.00000000E+00
	 8.42760000E+01	-1.73295000E+03	 0.00000000E+00
	 7.84680000E+01	-1.73322000E+03	 0.00000000E+00
	 7.26590000E+01	-1.73348000E+03	 0.00000000E+00
	 6.68493000E+01	-1.73371000E+03	 0.00000000E+00
	 6.10389000E+01	-1.73393000E+03	 0.00000000E+00
	 5.52277000E+01	-1.73412000E+03	 0.00000000E+00
	 4.94159000E+01	-1.73430000E+03	 0.00000000E+00
	 4.36036000E+01	-1.73445000E+03	 0.00000000E+00
	 3.77908000E+01	-1.73459000E+03	 0.00000000E+00
	 3.19775000E+01	-1.73471000E+03	 0.00000000E+00
	 2.61639000E+01	-1.73480000E+03	 0.00000000E+00
	 2.03500000E+01	-1.73488000E+03	 0.00000000E+00
	 1.45359000E+01	-1.73494000E+03	 0.00000000E+00
	 8.72160000E+00	-1.73498000E+03	 0.00000000E+00
	 2.90721000E+00	-1.73500000E+03	 0.00000000E+00
	-2.90721000E+00	-1.73500000E+03	 0.00000000E+00
	-8.72160000E+00	-1.73498000E+03	 0.00000000E+00
	-1.45359000E+01	-1.73494000E+03	 0.00000000E+00
	-2.03500000E+01	-1.73488000E+03	 0.00000000E+00
	-2.61639000E+01	-1.73480000E+03	 0.00000000E+00
	-3.19775000E+01	-1.73471000E+03	 0.00000000E+00
	-3.77908000E+01	-1.73459000E+03	 0.00000000E+00
	-4.36036000E+01	-1.73445000E+03	 0.00000000E+00
	-4.94159000E+01	-1.73430000E+03	 0.00000000E+00
	-5.52277000E+01	-1.73412000E+03	 0.00000000E+00
	-6.10389000E+01	-1.73393000E+03	 0.00000000E+00
	-6.68493000E+01	-1.73371000E+03	 0.00000000E+00
	-7.26590000E+01	-1.73348000E+03	 0.00000000E+00
	-7.84680000E+01	-1.73322000E+03	 0.00000000E+00
	-8.42760000E+01	-1.73295000E+03	 0.00000000E+00
	-9.00831000E+01	-1.73266000E+03	 0.00000000E+00
	-9.58891000E+01	-1.73235000E+03	 0.00000000E+00
	-1.01694000E+02	-1.73202000E+03	 0.00000000E+00
	-1.07498000E+02	-1.73167000E+03	 0.00000000E+00
	-1.13301000E+02	-1.73130000E+03	 0.00000000E+00
	-1.19102000E+02	-1.73091000E+03	 0.00000000E+00
	-1.24902000E+02	-1.73050000E+03	 0.00000000E+00
	-1.30701000E+02	-1.73007000E+03	 0.00000000E+00
	-1.36498000E+02	-1.72962000E+03	 0.00000000E+00
	-1.42293000E+02	-1.72916000E+03	 0.00000000E+00
	-1.48087000E+02	-1.72867000E+03	 0.00000000E+00
	-1.53880000E+02	-1.72816000E+03	 0.00000000E+00
	-1.59670000E+02	-1.72764000E+03	 0.00000000E+00
	-1.65459000E+02	-1.72709000E+03	 0.00000000E+00
	-1.71246000E+02	-1.72653000E+03	 0.00000000E+00
	-1.77031000E+02	-1.72594000E+03	 0.00000000E+00
	-1.82814000E+02	-1.72534000E+03	 0.00000000E+00
	-1.88595000E+02	-1.72472000E+03	 0.00000000E+00
	-1.94374000E+02	-1.72408000E+03	 0.00000000E+00
	-2.00151000E+02	-1.72342000E+03	 0.00000000E+00
	-2.05925000E+02	-1.72274000E+03	 0.00000000E+00
	-2.11698000E+02	-1.72204000E+03	 0.00000000E+00
	-2.17467000E+02	-1.72132000E+03	 0.00000000E+00
	-2.23235000E+02	-1.72058000E+03	 0.00000000E+00
	-2.29000000E+02	-1.71982000E+03	 0.00000000E+00
	-2.34762000E+02	-1.71904000E+03	 0.00000000E+00
	-2.40521000E+02	-1.71825000E+03	 0.00000000E+00
	-2.46278000E+02	-1.71743000E+03	 0.00000000E+00
	-2.52033000E+02	-1.71660000E+03	 0.00000000E+00
	-2.57784000E+02	-1.71574000E+03	 0.00000000E+00
	-2.63532000E+02	-1.71487000E+03	 0.00000000E+00
	-2.69278000E+02	-1.71398000E+03	 0.00000000E+00
	-2.75020000E+02	-1.71306000E+03	 0.00000000E+00
	-2.80760000E+02	-1.71213000E+03	 0.00000000E+00
	-2.86496000E+02	-1.71118000E+03	 0.00000000E+00
	-2.92229000E+02	-1.71021000E+03	 0.00000000E+00
	-2.97958000E+02	-1.70922000E+03	 0.00000000E+00
	-3.03685000E+02	-1.70822000E+03	 0.00000000E+00
	-3.09408000E+02	-1.70719000E+03	 0.00000000E+00
	-3.15127000E+02	-1.70614000E+03	 0.00000000E+00
	-3.20843000E+02	-1.70508000E+03	 0.00000000E+00
	-3.26556000E+02	-1.70399000E+03	 0.00000000E+00
	-3.32264000E+02	-1.70289000E+03	 0.00000000E+00
	-3.37969000E+02	-1.70176000E+03	 0.00000000E+00
	-3.43670000E+02	-1.70062000E+03	 0.00000000E+00
	-3.49368000E+02	-1.69946000E+03	 0.00000000E+00
	-3.55061000E+02	-1.69828000E+03	 0.00000000E+00
	-3.60750000E+02	-1.69708000E+03	 0.00000000E+00
	-3.66436000E+02	-1.69586000E+03	 0.00000000E+00
	-3.72117000E+02	-1.69463000E+03	 0.00000000E+00
	-3.77794000E+02	-1.69337000E+03	 0.00000000E+00
	-3.83467000E+02	-1.69209000E+03	 0.00000000E+00
	-3.89135000E+02	-1.69080000E+03	 0.00000000E+00
	-3.94799000E+02	-1.68948000E+03	 0.00000000E+00
	-4.00459000E+02	-1.68815000E+03	 0.00000000E+00
	-4.06114000E+02	-1.68680000E+03	 0.00000000E+00
	-4.11765000E+02	-1.68543000E+03	 0.00000000E+00
	-4.17410000E+02	-1.68404000E+03	 0.00000000E+00
	-4.23052000E+02	-1.68263000E+03	 0.00000000E+00
	-4.28688000E+02	-1.68121000E+03	 0.00000000E+00
	-4.34320000E+02	-1.67976000E+03	 0.00000000E+00
	-4.39947000E+02	-1.67829000E+03	 0.00000000E+00
	-4.45569000E+02	-1.67681000E+03	 0.00000000E+00
	-4.51186000E+02	-1.67531000E+03	 0.00000000E+00
	-4.56798000E+02	-1.67379000E+03	 0.00000000E+00
	-4.62404000E+02	-1.67225000E+03	 0.00000000E+00
	-4.68006000E+02	-1.67069000E+03	 0.00000000E+00
	-4.73602000E+02	-1.66911000E+03	 0.00000000E+00
	-4.79193000E+02	-1.66751000E+03	 0.00000000E+00
	-4.84779000E+02	-1.66590000E+03	 0.00000000E+00
	-4.90359000E+02	-1.66426000E+03	 0.00000000E+00
	-4.95933000E+02	-1.66261000E+03	 0.00000000E+00
	-5.01502000E+02	-1.66094000E+03	 0.00000000E+00
	-5.07066000E+02	-1.65925000E+03	 0.00000000E+00
	-5.12623000E+02	-1.65754000E+03	 0.00000000E+00
	-5.18175000E+02	-1.65581000E+03	 0.00000000E+00
	-5.23721000E+02	-1.65407000E+03	 0.00000000E+00
	-5.29262000E+02	-1.65230000E+03	 0.00000000E+00
	-5.34796000E+02	-1.65052000E+03	 0.00000000E+00
	-5.40324000E+02	-1.64872000E+03	 0.00000000E+00
	-5.45847000E+02	-1.64690000E+03	 0.00000000E+00
	-5.51363000E+02	-1.64506000E+03	 0.00000000E+00
	-5.56873000E+02	-1.64320000E+03	 0.00000000E+00
	-5.62376000E+02	-1.64133000E+03	 0.00000000E+00
	-5.67874000E+02	-1.63943000E+03	 0.00000000E+00
	-5.73365000E+02	-1.63752000E+03	 0.00000000E+00
	-5.78849000E+02	-1.63559000E+03	 0.00000000E+00
	-5.84327000E+02	-1.63364000E+03	 0.00000000E+00
	-5.89799000E+02	-1.63167000E+03	 0.00000000E+00
	-5.95263000E+02	-1.62969000E+03	 0.00000000E+00
	-6.00721000E+02	-1.62769000E+03	 0.00000000E+00
	-6.06173000E+02	-1.62566000E+03	 0.00000000E+00
	-6.11617000E+02	-1.62362000E+03	 0.00000000E+00
	-6.17055000E+02	-1.62156000E+03	 0.00000000E+00
	-6.22486000E+02	-1.61949000E+03	 0.00000000E+00
	-6.27910000E+02	-1.61739000E+03	 0.00000000E+00
	-6.33327000E+02	-1.61528000E+03	 0.00000000E+00
	-6.38736000E+02	-1.61315000E+03	 0.00000000E+00
	-6.44139000E+02	-1.61100000E+03	 0.00000000E+00
	-6.49534000E+02	-1.60883000E+03	 0.00000000E+00
	-6.54922000E+02	-1.60664000E+03	 0.00000000E+00
	-6.60302000E+02	-1.60444000E+03	 0.00000000E+00
	-6.65676000E+02	-1.60222000E+03	 0.00000000E+00
	-6.71041000E+02	-1.59998000E+03	 0.00000000E+00
	-6.76399000E+02	-1.59772000E+03	 0.00000000E+00
	-6.81750000E+02	-1.59544000E+03	 0.00000000E+00
	-6.87093000E+02	-1.59315000E+03	 0.00000000E+00
	-6.92428000E+02	-1.59084000E+03	 0.00000000E+00
	-6.97755000E+02	-1.58851000E+03	 0.00000000E+00
	-7.03075000E+02	-1.58616000E+03	 0.00000000E+00
	-7.08387000E+02	-1.58380000E+03	 0.00000000E+00
	-7.13690000E+02	-1.58141000E+03	 0.00000000E+00
	-7.18986000E+02	-1.57901000E+03	 0.00000000E+00
	-7.24274000E+02	-1.57660000E+03	 0.00000000E+00
	-7.29553000E+02	-1.57416000E+03	 0.00000000E+00
	-7.34825000E+02	-1.57171000E+03	 0.00000000E+00
	-7.40088000E+02	-1.56923000E+03	 0.00000000E+00
	-7.45342000E+02	-1.56674000E+03	 0.00000000E+00
	-7.50589000E+02	-1.56424000E+03	 0.00000000E+00
	-7.55827000E+02	-1.56171000E+03	 0.00000000E+00
	-7.61056000E+02	-1.55917000E+03	 0.00000000E+00
	-7.66277000E+02	-1.55661000E+03	 0.00000000E+00
	-7.71489000E+02	-1.55404000E+03	 0.00000000E+00
	-7.76693000E+02	-1.55144000E+03	 0.00000000E+00
	-7.81888000E+02	-1.54883000E+03	 0.00000000E+00
	-7.87074000E+02	-1.54620000E+03	 0.00000000E+00
	-7.92251000E+02	-1.54356000E+03	 0.00000000E+00
	-7.97420000E+02	-1.54089000E+03	 0.00000000E+00
	-8.02579000E+02	-1.53821000E+03	 0.00000000E+00
	-8.07729000E+02	-1.53551000E+03	 0.00000000E+00
	-8.12871000E+02	-1.53280000E+03	 0.00000000E+00
	-8.18003000E+02	-1.53006000E+03	 0.00000000E+00
	-8.23126000E+02	-1.52731000E+03	 0.00000000E+00
	 8.25531000E+02	-1.51986000E+03	 0.00000000E+00
	 8.22822000E+02	-1.51517000E+03	 0.00000000E+00
	 8.20113000E+02	-1.51047000E+03	 0.00000000E+00
	 8.17405000E+02	-1.50578000E+03	 0.00000000E+00
	 8.14696000E+02	-1.50109000E+03	 0.00000000E+00
	 8.16859000E+02	-1.49359000E+03	 0.00000000E+00
	 8.21730000E+02	-1.49078000E+03	 0.00000000E+00
	 8.26602000E+02	-1.48796000E+03	 0.00000000E+00
	 8.31473000E+02	-1.48515000E+03	 0.00000000E+00
	 8.36344000E+02	-1.48234000E+03	 0.00000000E+00
	 8.41216000E+02	-1.47953000E+03	 0.00000000E+00
	 8.46088000E+02	-1.47671000E+03	 0.00000000E+00
	 8.37323000E+02	-1.46194000E+03	 0.00000000E+00
	 8.31926000E+02	-1.46415000E+03	 0.00000000E+00
	 8.26353000E+02	-1.46587000E+03	 0.00000000E+00
	 8.20648000E+02	-1.46708000E+03	 0.00000000E+00
	 8.14857000E+02	-1.46778000E+03	 0.00000000E+00
	 8.09028000E+02	-1.46795000E+03	 0.00000000E+00
	 8.03206000E+02	-1.46760000E+03	 0.00000000E+00
	 7.97438000E+02	-1.46674000E+03	 0.00000000E+00
	 7.91772000E+02	-1.46535000E+03	 0.00000000E+00
	 7.86253000E+02	-1.46347000E+03	 0.00000000E+00
	 7.80925000E+02	-1.46110000E+03	 0.00000000E+00
	 7.75831000E+02	-1.45826000E+03	 0.00000000E+00
	 7.71012000E+02	-1.45497000E+03	 0.00000000E+00
	 7.66507000E+02	-1.45127000E+03	 0.00000000E+00
	 7.62352000E+02	-1.44717000E+03	 0.00000000E+00
	 7.58580000E+02	-1.44272000E+03	 0.00000000E+00
	 7.55223000E+02	-1.43795000E+03	 0.00000000E+00
	 7.52307000E+02	-1.43290000E+03	 0.00000000E+00
	 7.49855000E+02	-1.42761000E+03	 0.00000000E+00
	 7.47888000E+02	-1.42212000E+03	 0.00000000E+00
	 7.46420000E+02	-1.41648000E+03	 0.00000000E+00
	 7.45465000E+02	-1.41072000E+03	 0.00000000E+00
	 7.45029000E+02	-1.40491000E+03	 0.00000000E+00
	 7.45116000E+02	-1.39907000E+03	 0.00000000E+00
	 7.45726000E+02	-1.39327000E+03	 0.00000000E+00
	 7.46853000E+02	-1.38755000E+03	 0.00000000E+00
	 7.48489000E+02	-1.38195000E+03	 0.00000000E+00
	 7.50620000E+02	-1.37652000E+03	 0.00000000E+00
	 7.53228000E+02	-1.37131000E+03	 0.00000000E+00
	 7.56294000E+02	-1.36635000E+03	 0.00000000E+00
	 7.59793000E+02	-1.36168000E+03	 0.00000000E+00
	 7.63696000E+02	-1.35734000E+03	 0.00000000E+00
	 7.67971000E+02	-1.35338000E+03	 0.00000000E+00
	 7.72585000E+02	-1.34981000E+03	 0.00000000E+00
	 8.48139000E+02	-1.46902000E+03	 0.00000000E+00
	 8.45320000E+02	-1.46414000E+03	 0.00000000E+00
	 7.75250000E+02	-1.34277000E+03	 0.00000000E+00
	 7.73000000E+02	-1.33888000E+03	 0.00000000E+00
	 7.70750000E+02	-1.33498000E+03	 0.00000000E+00
	 7.63458000E+02	-1.33399000E+03	 0.00000000E+00
	 7.58417000E+02	-1.33690000E+03	 0.00000000E+00
	 7.53375000E+02	-1.33981000E+03	 0.00000000E+00
	 7.48333000E+02	-1.34272000E+03	 0.00000000E+00
	 7.43292000E+02	-1.34563000E+03	 0.00000000E+00
	 7.38250000E+02	-1.34855000E+03	 0.00000000E+00
	 7.33208000E+02	-1.35146000E+03	 0.00000000E+00
	 7.28167000E+02	-1.35437000E+03	 0.00000000E+00
	 7.23125000E+02	-1.35728000E+03	 0.00000000E+00
	 7.18083000E+02	-1.36019000E+03	 0.00000000E+00
	 7.13042000E+02	-1.36310000E+03	 0.00000000E+00
	 7.08000000E+02	-1.37169000E+03	 0.00000000E+00
	 7.08000000E+02	-1.37736000E+03	 0.00000000E+00
	 7.08000000E+02	-1.38304000E+03	 0.00000000E+00
	 7.08000000E+02	-1.38872000E+03	 0.00000000E+00
	 7.08000000E+02	-1.39440000E+03	 0.00000000E+00
	 7.08000000E+02	-1.40007000E+03	 0.00000000E+00
	 7.08000000E+02	-1.40575000E+03	 0.00000000E+00
	 7.08000000E+02	-1.41143000E+03	 0.00000000E+00
	 7.08000000E+02	-1.41711000E+03	 0.00000000E+00
	 7.08000000E+02	-1.42278000E+03	 0.00000000E+00
	 7.08000000E+02	-1.42846000E+03	 0.00000000E+00
	 7.08000000E+02	-1.43414000E+03	 0.00000000E+00
	 7.08000000E+02	-1.43981000E+03	 0.00000000E+00
	 7.08000000E+02	-1.44549000E+03	 0.00000000E+00
	 7.08000000E+02	-1.45117000E+03	 0.00000000E+00
	 7.08000000E+02	-1.45685000E+03	 0.00000000E+00
	 7.08000000E+02	-1.46252000E+03	 0.00000000E+00
	 7.08000000E+02	-1.46820000E+03	 0.00000000E+00
	 7.08000000E+02	-1.47388000E+03	 0.00000000E+00
	 7.08000000E+02	-1.47956000E+03	 0.00000000E+00
	 7.08000000E+02	-1.48523000E+03	 0.00000000E+00
	 7.08000000E+02	-1.49091000E+03	 0.00000000E+00
	 7.08000000E+02	-1.49659000E+03	 0.00000000E+00
	 7.03083000E+02	-1.50510000E+03	 0.00000000E+00
	 6.98167000E+02	-1.50794000E+03	 0.00000000E+00
	 6.93250000E+02	-1.51078000E+03	 0.00000000E+00
	 6.88333000E+02	-1.51362000E+03	 0.00000000E+00
	 6.83417000E+02	-1.51646000E+03	 0.00000000E+00
	 6.78500000E+02	-1.51930000E+03	 0.00000000E+00
	 6.73583000E+02	-1.52214000E+03	 0.00000000E+00
	 6.68667000E+02	-1.52497000E+03	 0.00000000E+00
	 6.63750000E+02	-1.52781000E+03	 0.00000000E+00
	 6.58833000E+02	-1.53065000E+03	 0.00000000E+00
	 6.53917000E+02	-1.53349000E+03	 0.00000000E+00
	 6.49000000E+02	-1.53633000E+03	 0.00000000E+00
	 6.44083000E+02	-1.53917000E+03	 0.00000000E+00
	 6.39167000E+02	-1.54201000E+03	 0.00000000E+00
	 6.34250000E+02	-1.54484000E+03	 0.00000000E+00
	 6.29333000E+02	-1.54768000E+03	 0.00000000E+00
	 6.24417000E+02	-1.55052000E+03	 0.00000000E+00
	 6.19500000E+02	-1.55336000E+03	 0.00000000E+00
	 6.14583000E+02	-1.55620000E+03	 0.00000000E+00
	 6.09667000E+02	-1.55904000E+03	 0.00000000E+00
	 6.04750000E+02	-1.56188000E+03	 0.00000000E+00
	 5.99833000E+02	-1.56471000E+03	 0.00000000E+00
	 5.94917000E+02	-1.56755000E+03	 0.00000000E+00
	 5.85083000E+02	-1.56755000E+03	 0.00000000E+00
	 5.80167000E+02	-1.56471000E+03	 0.00000000E+00
	 5.75250000E+02	-1.56188000E+03	 0.00000000E+00
	 5.70333000E+02	-1.55904000E+03	 0.00000000E+00
	 5.65417000E+02	-1.55620000E+03	 0.00000000E+00
	 5.60500000E+02	-1.55336000E+03	 0.00000000E+00
	 5.55583000E+02	-1.55052000E+03	 0.00000000E+00
	 5.50667000E+02	-1.54768000E+03	 0.00000000E+00
	 5.45750000E+02	-1.54484000E+03	 0.00000000E+00
	 5.40833000E+02	-1.54201000E+03	 0.00000000E+00
	 5.35917000E+02	-1.53917000E+03	 0.00000000E+00
	 5.31000000E+02	-1.53633000E+03	 0.00000000E+00
	 5.26083000E+02	-1.53349000E+03	 0.00000000E+00
	 5.21167000E+02	-1.53065000E+03	 0.00000000E+00
	 5.16250000E+02	-1.52781000E+03	 0.00000000E+00
	 5.11333000E+02	-1.52497000E+03	 0.00000000E+00
	 5.06417000E+02	-1.52214000E+03	 0.00000000E+00
	 5.01500000E+02	-1.51930000E+03	 0.00000000E+00
	 4.96583000E+02	-1.51646000E+03	 0.00000000E+00
	 4.91667000E+02	-1.51362000E+03	 0.00000000E+00
	 4.86750000E+02	-1.51078000E+03	 0.00000000E+00
	 4.81833000E+02	-1.50794000E+03	 0.00000000E+00
	 4.76917000E+02	-1.50510000E+03	 0.00000000E+00
	 4.67083000E+02	-1.50510000E+03	 0.00000000E+00
	 4.62167000E+02	-1.50794000E+03	 0.00000000E+00
	 4.57250000E+02	-1.51078000E+03	 0.00000000E+00
	 4.52333000E+02	-1.51362000E+03	 0.00000000E+00
	 4.47417000E+02	-1.51646000E+03	 0.00000000E+00
	 4.42500000E+02	-1.51930000E+03	 0.00000000E+00
	 4.37583000E+02	-1.52214000E+03	 0.00000000E+00
	 4.32667000E+02	-1.52497000E+03	 0.00000000E+00
	 4.27750000E+02	-1.52781000E+03	 0.00000000E+00
	 4.22833000E+02	-1.53065000E+03	 0.00000000E+00
	 4.17917000E+02	-1.53349000E+03	 0.00000000E+00
	 4.13000000E+02	-1.53633000E+03	 0.00000000E+00
	 4.08083000E+02	-1.53917000E+03	 0.00000000E+00
	 4.03167000E+02	-1.54201000E+03	 0.00000000E+00
	 3.98250000E+02	-1.54484000E+03	 0.00000000E+00
	 3.93333000E+02	-1.54768000E+03	 0.00000000E+00
	 3.88417000E+02	-1.55052000E+03	 0.00000000E+00
	 3.83500000E+02	-1.55336000E+03	 0.00000000E+00
	 3.78583000E+02	-1.55620000E+03	 0.00000000E+00
	 3.73667000E+02	-1.55904000E+03	 0.00000000E+00
	 3.68750000E+02	-1.56188000E+03	 0.00000000E+00
	 3.63833000E+02	-1.56471000E+03	 0.00000000E+00
	 3.58917000E+02	-1.56755000E+03	 0.00000000E+00
	 3.49083000E+02	-1.56755000E+03	 0.00000000E+00
	 3.44167000E+02	-1.56471000E+03	 0.00000000E+00
	 3.39250000E+02	-1.56188000E+03	 0.00000000E+00
	 3.34333000E+02	-1.55904000E+03	 0.00000000E+00
	 3.29417000E+02	-1.55620000E+03	 0.00000000E+00
	 3.24500000E+02	-1.55336000E+03	 0.00000000E+00
	 3.19583000E+02	-1.55052000E+03	 0.00000000E+00
	 3.14667000E+02	-1.54768000E+03	 0.00000000E+00
	 3.09750000E+02	-1.54484000E+03	 0.00000000E+00
	 3.04833000E+02	-1.54201000E+03	 0.00000000E+00
	 2.99917000E+02	-1.53917000E+03	 0.00000000E+00
	 2.95000000E+02	-1.53633000E+03	 0.00000000E+00
	 2.90083000E+02	-1.53349000E+03	 0.00000000E+00
	 2.85167000E+02	-1.53065000E+03	 0.00000000E+00
	 2.80250000E+02	-1.52781000E+03	 0.00000000E+00
	 2.75333000E+02	-1.52497000E+03	 0.00000000E+00
	 2.70417000E+02	-1.52214000E+03	 0.00000000E+00
	 2.65500000E+02	-1.51930000E+03	 0.00000000E+00
	 2.60583000E+02	-1.51646000E+03	 0.00000000E+00
	 2.55667000E+02	-1.51362000E+03	 0.00000000E+00
	 2.50750000E+02	-1.51078000E+03	 0.00000000E+00
	 2.45833000E+02	-1.50794000E+03	 0.00000000E+00
	 2.40917000E+02	-1.50510000E+03	 0.00000000E+00
	 2.31083000E+02	-1.50510000E+03	 0.00000000E+00
	 2.26167000E+02	-1.50794000E+03	 0.00000000E+00
	 2.21250000E+02	-1.51078000E+03	 0.00000000E+00
	 2.16333000E+02	-1.51362000E+03	 0.00000000E+00
	 2.11417000E+02	-1.51646000E+03	 0.00000000E+00
	 2.06500000E+02	-1.51930000E+03	 0.00000000E+00
	 2.01583000E+02	-1.52214000E+03	 0.00000000E+00
	 1.96667000E+02	-1.52497000E+03	 0.00000000E+00
	 1.91750000E+02	-1.52781000E+03	 0.00000000E+00
	 1.86833000E+02	-1.53065000E+03	 0.00000000E+00
	 1.81917000E+02	-1.53349000E+03	 0.00000000E+00
	 1.77000000E+02	-1.53633000E+03	 0.00000000E+00
	 1.72083000E+02	-1.53917000E+03	 0.00000000E+00
	 1.67167000E+02	-1.54201000E+03	 0.00000000E+00
	 1.62250000E+02	-1.54484000E+03	 0.00000000E+00
	 1.57333000E+02	-1.54768000E+03	 0.00000000E+00
	 1.52417000E+02	-1.55052000E+03	 0.00000000E+00
	 1.47500000E+02	-1.55336000E+03	 0.00000000E+00
	 1.42583000E+02	-1.55620000E+03	 0.00000000E+00
	 1.37667000E+02	-1.55904000E+03	 0.00000000E+00
	 1.32750000E+02	-1.56188000E+03	 0.00000000E+00
	 1.27833000E+02	-1.56471000E+03	 0.00000000E+00
	 1.22917000E+02	-1.56755000E+03	 0.00000000E+00
	 1.13083000E+02	-1.56755000E+03	 0.00000000E+00
	 1.08167000E+02	-1.56471000E+03	 0.00000000E+00
	 1.03250000E+02	-1.56188000E+03	 0.00000000E+00
	 9.83333000E+01	-1.55904000E+03	 0.00000000E+00
	 9.34167000E+01	-1.55620000E+03	 0.00000000E+00
	 8.85000000E+01	-1.55336000E+03	 0.00000000E+00
	 8.35833000E+01	-1.55052000E+03	 0.00000000E+00
	 7.86667000E+01	-1.54768000E+03	 0.00000000E+00
	 7.37500000E+01	-1.54484000E+03	 0.00000000E+00
	 6.88333000E+01	-1.54201000E+03	 0.00000000E+00
	 6.39167000E+01	-1.53917000E+03	 0.00000000E+00
	 5.90000000E+01	-1.53633000E+03	 0.00000000E+00
	 5.40833000E+01	-1.53349000E+03	 0.00000000E+00
	 4.91667000E+01	-1.53065000E+03	 0.00000000E+00
	 4.42500000E+01	-1.52781000E+03	 0.00000000E+00
	 3.93333000E+01	-1.52497000E+03	 0.00000000E+00
	 3.44167000E+01	-1.52214000E+03	 0.00000000E+00
	 2.95000000E+01	-1.51930000E+03	 0.00000000E+00
	 2.45833000E+01	-1.51646000E+03	 0.00000000E+00
	 1.96667000E+01	-1.51362000E+03	 0.00000000E+00
	 1.47500000E+01	-1.51078000E+03	 0.00000000E+00
	 9.83333000E+00	-1.50794000E+03	 0.00000000E+00
	 4.91667000E+00	-1.50510000E+03	 0.00000000E+00
	-4.91667000E+00	-1.50510000E+03	 0.00000000E+00
	-9.83333000E+00	-1.50794000E+03	 0.00000000E+00
	-1.47500000E+01	-1.51078000E+03	 0.00000000E+00
	-1.96667000E+01	-1.51362000E+03	 0.00000000E+00
	-2.45833000E+01	-1.51646000E+03	 0.00000000E+00
	-2.95000000E+01	-1.51930000E+03	 0.00000000E+00
	-3.44167000E+01	-1.52214000E+03	 0.00000000E+00
	-3.93333000E+01	-1.52497000E+03	 0.00000000E+00
	-4.42500000E+01	-1.52781000E+03	 0.00000000E+00
	-4.91667000E+01	-1.53065000E+03	 0.00000000E+00
	-5.40833000E+01	-1.53349000E+03	 0.00000000E+00
	-5.90000000E+01	-1.53633000E+03	 0.00000000E+00
	-6.39167000E+01	-1.53917000E+03	 0.00000000E+00
	-6.88333000E+01	-1.54201000E+03	 0.00000000E+00
	-7.37500000E+01	-1.54484000E+03	 0.00000000E+00
	-7.86667000E+01	-1.54768000E+03	 0.00000000E+00
	-8.35833000E+01	-1.55052000E+03	 0.00000000E+00
	-8.85000000E+01	-1.55336000E+03	 0.00000000E+00
	-9.34167000E+01	-1.55620000E+03	 0.00000000E+00
	-9.83333000E+01	-1.55904000E+03	 0.00000000E+00
	-1.03250000E+02	-1.56188000E+03	 0.00000000E+00
	-1.08167000E+02	-1.56471000E+03	 0.00000000E+00
	-1.13083000E+02	-1.56755000E+03	 0.00000000E+00
	-1.22917000E+02	-1.56755000E+03	 0.00000000E+00
	-1.27833000E+02	-1.56471000E+03	 0.00000000E+00
	-1.32750000E+02	-1.56188000E+03	 0.00000000E+00
	-1.37667000E+02	-1.55904000E+03	 0.00000000E+00
	-1.42583000E+02	-1.55620000E+03	 0.00000000E+00
	-1.47500000E+02	-1.55336000E+03	 0.00000000E+00
	-1.52417000E+02	-1.55052000E+03	 0.00000000E+00
	-1.57333000E+02	-1.54768000E+03	 0.00000000E+00
	-1.62250000E+02	-1.54484000E+03	 0.00000000E+00
	-1.67167000E+02	-1.54201000E+03	 0.00000000E+00
	-1.72083000E+02	-1.53917000E+03	 0.00000000E+00
	-1.77000000E+02	-1.53633000E+03	 0.00000000E+00
	-1.81917000E+02	-1.53349000E+03	 0.00000000E+00
	-1.86833000E+02	-1.53065000E+03	 0.00000000E+00
	-1.91750000E+02	-1.52781000E+03	 0.00000000E+00
	-1.96667000E+02	-1.52497000E+03	 0.00000000E+00
	-2.01583000E+02	-1.52214000E+03	 0.00000000E+00
	-2.06500000E+02	-1.51930000E+03	 0.00000000E+00
	-2.11417000E+02	-1.51646000E+03	 0.00000000E+00
	-2.16333000E+02	-1.51362000E+03	 0.00000000E+00
	-2.21250000E+02	-1.51078000E+03	 0.00000000E+00
	-2.26167000E+02	-1.50794000E+03	 0.00000000E+00
	-2.31083000E+02	-1.50510000E+03	 0.00000000E+00
	-2.40917000E+02	-1.50510000E+03	 0.00000000E+00
	-2.45833000E+02	-1.50794000E+03	 0.00000000E+00
	-2.50750000E+02	-1.51078000E+03	 0.00000000E+00
	-2.55667000E+02	-1.51362000E+03	 0.00000000E+00
	-2.60583000E+02	-1.51646000E+03	 0.00000000E+00
	-2.65500000E+02	-1.51930000E+03	 0.00000000E+00
	-2.70417000E+02	-1.52214000E+03	 0.00000000E+00
	-2.75333000E+02	-1.52497000E+03	 0.00000000E+00
	-2.80250000E+02	-1.52781000E+03	 0.00000000E+00
	-2.85167000E+02	-1.53065000E+03	 0.00000000E+00
	-2.90083000E+02	-1.53349000E+03	 0.00000000E+00
	-2.95000000E+02	-1.53633000E+03	 0.00000000E+00
	-2.99917000E+02	-1.53917000E+03	 0.00000000E+00
	-3.04833000E+02	-1.54201000E+03	 0.00000000E+00
	-3.09750000E+02	-1.54484000E+03	 0.00000000E+00
	-3.14667000E+02	-1.54768000E+03	 0.00000000E+00
	-3.19583000E+02	-1.55052000E+03	 0.00000000E+00
	-3.24500000E+02	-1.55336000E+03	 0.00000000E+00
	-3.29417000E+02	-1.55620000E+03	 0.00000000E+00
	-3.34333000E+02	-1.55904000E+03	 0.00000000E+00
	-3.39250000E+02	-1.56188000E+03	 0.00000000E+00
	-3.44167000E+02	-1.56471000E+03	 0.00000000E+00
	-3.49083000E+02	-1.56755000E+03	 0.00000000E+00
	-3.58917000E+02	-1.56755000E+03	 0.00000000E+00
	-3.63833000E+02	-1.56471000E+03	 0.00000000E+00
	-3.68750000E+02	-1.56188000E+03	 0.00000000E+00
	-3.73667000E+02	-1.55904000E+03	 0.00000000E+00
	-3.78583000E+02	-1.55620000E+03	 0.00000000E+00
	-3.83500000E+02	-1.55336000E+03	 0.00000000E+00
	-3.88417000E+02	-1.55052000E+03	 0.00000000E+00
	-3.93333000E+02	-1.54768000E+03	 0.00000000E+00
	-3.98250000E+02	-1.54484000E+03	 0.00000000E+00
	-4.03167000E+02	-1.54201000E+03	 0.00000000E+00
	-4.08083000E+02	-1.53917000E+03	 0.00000000E+00
	-4.13000000E+02	-1.53633000E+03	 0.00000000E+00
	-4.17917000E+02	-1.53349000E+03	 0.00000000E+00
	-4.22833000E+02	-1.53065000E+03	 0.00000000E+00
	-4.27750000E+02	-1.52781000E+03	 0.00000000E+00
	-4.32667000E+02	-1.52497000E+03	 0.00000000E+00
	-4.37583000E+02	-1.52214000E+03	 0.00000000E+00
	-4.42500000E+02	-1.51930000E+03	 0.00000000E+00
	-4.47417000E+02	-1.51646000E+03	 0.00000000E+00
	-4.52333000E+02	-1.51362000E+03	 0.00000000E+00
	-4.57250000E+02	-1.51078000E+03	 0.00000000E+00
	-4.62167000E+02	-1.50794000E+03	 0.00000000E+00
	-4.67083000E+02	-1.50510000E+03	 0.00000000E+00
	-4.76917000E+02	-1.50510000E+03	 0.00000000E+00
	-4.81833000E+02	-1.50794000E+03	 0.00000000E+00
	-4.86750000E+02	-1.51078000E+03	 0.00000000E+00
	-4.91667000E+02	-1.51362000E+03	 0.00000000E+00
	-4.96583000E+02	-1.51646000E+03	 0.00000000E+00
	-5.01500000E+02	-1.51930000E+03	 0.00000000E+00
	-5.06417000E+02	-1.52214000E+03	 0.00000000E+00
	-5.11333000E+02	-1.52497000E+03	 0.00000000E+00
	-5.16250000E+02	-1.52781000E+03	 0.00000000E+00
	-5.21167000E+02	-1.53065000E+03	 0.00000000E+00
	-5.26083000E+02	-1.53349000E+03	 0.00000000E+00
	-5.31000000E+02	-1.53633000E+03	 0.00000000E+00
	-5.35917000E+02	-1.53917000E+03	 0.00000000E+00
	-5.40833000E+02	-1.54201000E+03	 0.00000000E+00
	-5.45750000E+02	-1.54484000E+03	 0.00000000E+00
	-5.50667000E+02	-1.54768000E+03	 0.00000000E+00
	-5.55583000E+02	-1.55052000E+03	 0.00000000E+00
	-5.60500000E+02	-1.55336000E+03	 0.00000000E+00
	-5.65417000E+02	-1.55620000E+03	 0.00000000E+00
	-5.70333000E+02	-1.55904000E+03	 0.00000000E+00
	-5.75250000E+02	-1.56188000E+03	 0.00000000E+00
	-5.80167000E+02	-1.56471000E+03	 0.00000000E+00
	-5.85083000E+02	-1.56755000E+03	 0.00000000E+00
	-5.94917000E+02	-1.56755000E+03	 0.00000000E+00
	-5.99833000E+02	-1.56471000E+03	 0.00000000E+00
	-6.04750000E+02	-1.56188000E+03	 0.00000000E+00
	-6.09667000E+02	-1.55904000E+03	 0.00000000E+00
	-6.14583000E+02	-1.55620000E+03	 0.00000000E+00
	-6.19500000E+02	-1.55336000E+03	 0.00000000E+00
	-6.24417000E+02	-1.55052000E+03	 0.00000000E+00
	-6.29333000E+02	-1.54768000E+03	 0.00000000E+00
	-6.34250000E+02	-1.54484000E+03	 0.00000000E+00
	-6.39167000E+02	-1.54201000E+03	 0.00000000E+00
	-6.44083000E+02	-1.53917000E+03	 0.00000000E+00
	-6.49000000E+02	-1.53633000E+03	 0.00000000E+00
	-6.53917000E+02	-1.53349000E+03	 0.00000000E+00
	-6.58833000E+02	-1.53065000E+03	 0.00000000E+00
	-6.63750000E+02	-1.52781000E+03	 0.00000000E+00
	-6.68667000E+02	-1.52497000E+03	 0.00000000E+00
	-6.73583000E+02	-1.52214000E+03	 0.00000000E+00
	-6.78500000E+02	-1.51930000E+03	 0.00000000E+00
	-6.83417000E+02	-1.51646000E+03	 0.00000000E+00
	-6.88333000E+02	-1.51362000E+03	 0.00000000E+00
	-6.93250000E+02	-1.51078000E+03	 0.00000000E+00
	-6.98167000E+02	-1.50794000E+03	 0.00000000E+00
	-7.03083000E+02	-1.50510000E+03	 0.00000000E+00
	-7.08000000E+02	-1.49659000E+03	 0.00000000E+00
	-7.08000000E+02	-1.49091000E+03	 0.00000000E+00
	-7.08000000E+02	-1.48523000E+03	 0.00000000E+00
	-7.08000000E+02	-1.47956000E+03	 0.00000000E+00
	-7.08000000E+02	-1.47388000E+03	 0.00000000E+00
	-7.08000000E+02	-1.46820000E+03	 0.00000000E+00
	-7.08000000E+02	-1.46252000E+03	 0.00000000E+00
	-7.08000000E+02	-1.45685000E+03	 0.00000000E+00
	-7.08000000E+02	-1.45117000E+03	 0.00000000E+00
	-7.08000000E+02	-1.44549000E+03	 0.00000000E+00
	-7.08000000E+02	-1.43981000E+03	 0.00000000E+00
	-7.08000000E+02	-1.43414000E+03	 0.00000000E+00
	-7.08000000E+02	-1.42846000E+03	 0.00000000E+00
	-7.08000000E+02	-1.42278000E+03	 0.00000000E+00
	-7.08000000E+02	-1.41711000E+03	 0.00000000E+00
	-7.08000000E+02	-1.41143000E+03	 0.00000000E+00
	-7.08000000E+02	-1.40575000E+03	 0.00000000E+00
	-7.08000000E+02	-1.40007000E+03	 0.00000000E+00
	-7.08000000E+02	-1.39440000E+03	 0.00000000E+00
	-7.08000000E+02	-1.38872000E+03	 0.00000000E+00
	-7.08000000E+02	-1.38304000E+03	 0.00000000E+00
	-7.08000000E+02	-1.37736000E+03	 0.00000000E+00
	-7.08000000E+02	-1.37169000E+03	 0.00000000E+00
	-7.13042000E+02	-1.36310000E+03	 0.00000000E+00
	-7.18083000E+02	-1.36019000E+03	 0.00000000E+00
	-7.23125000E+02	-1.35728000E+03	 0.00000000E+00
	-7.28167000E+02	-1.35437000E+03	 0.00000000E+00
	-7.33208000E+02	-1.35146000E+03	 0.00000000E+00
	-7.38250000E+02	-1.34855000E+03	 0.00000000E+00
	-7.43292000E+02	-1.34563000E+03	 0.00000000E+00
	-7.48333000E+02	-1.34272000E+03	 0.00000000E+00
	-7.53375000E+02	-1.33981000E+03	 0.00000000E+00
	-7.58417000E+02	-1.33690000E+03	 0.00000000E+00
	-7.63458000E+02	-1.33399000E+03	 0.00000000E+00
	-7.72585000E+02	-1.34981000E+03	 0.00000000E+00
	-7.67971000E+02	-1.35338000E+03	 0.00000000E+00
	-7.63696000E+02	-1.35734000E+03	 0.00000000E+00
	-7.59793000E+02	-1.36168000E+03	 0.00000000E+00
	-7.56294000E+02	-1.36635000E+03	 0.00000000E+00
	-7.53228000E+02	-1.37131000E+03	 0.00000000E+00
	-7.50620000E+02	-1.37652000E+03	 0.00000000E+00
	-7.48489000E+02	-1.38195000E+03	 0.00000000E+00
	-7.46853000E+02	-1.38755000E+03	 0.00000000E+00
	-7.45726000E+02	-1.39327000E+03	 0.00000000E+00
	-7.45116000E+02	-1.39907000E+03	 0.00000000E+00
	-7.45029000E+02	-1.40491000E+03	 0.00000000E+00
	-7.45465000E+02	-1.41072000E+03	 0.00000000E+00
	-7.46420000E+02	-1.41648000E+03	 0.00000000E+00
	-7.47888000E+02	-1.42212000E+03	 0.00000000E+00
	-7.49855000E+02	-1.42761000E+03	 0.00000000E+00
	-7.52307000E+02	-1.43290000E+03	 0.00000000E+00
	-7.55223000E+02	-1.43795000E+03	 0.00000000E+00
	-7.58580000E+02	-1.44272000E+03	 0.00000000E+00
	-7.62352000E+02	-1.44717000E+03	 0.00000000E+00
	-7.66507000E+02	-1.45127000E+03	 0.00000000E+00
	-7.71012000E+02	-1.45497000E+03	 0.00000000E+00
	-7.75831000E+02	-1.45826000E+03	 0.00000000E+00
	-7.80925000E+02	-1.46110000E+03	 0.00000000E+00
	-7.86253000E+02	-1.46347000E+03	 0.00000000E+00
	-7.91772000E+02	-1.46535000E+03	 0.00000000E+00
	-7.97438000E+02	-1.46674000E+03	 0.00000000E+00
	-8.03206000E+02	-1.46760000E+03	 0.00000000E+00
	-8.09028000E+02	-1.46795000E+03	 0.00000000E+00
	-8.14857000E+02	-1.46778000E+03	 0.00000000E+00
	-8.20648000E+02	-1.46708000E+03	 0.00000000E+00
	-8.26353000E+02	-1.46587000E+03	 0.00000000E+00
	-8.31926000E+02	-1.46415000E+03	 0.00000000E+00
	-8.37323000E+02	-1.46194000E+03	 0.00000000E+00
	-7.70750000E+02	-1.33498000E+03	 0.00000000E+00
	-7.73000000E+02	-1.33888000E+03	 0.00000000E+00
	-7.75250000E+02	-1.34277000E+03	 0.00000000E+00
	-8.45320000E+02	-1.46414000E+03	 0.00000000E+00
	-8.48139000E+02	-1.46902000E+03	 0.00000000E+00
	-8.46088000E+02	-1.47671000E+03	 0.00000000E+00
	-8.41216000E+02	-1.47953000E+03	 0.00000000E+00
	-8.36344000E+02	-1.48234000E+03	 0.00000000E+00
	-8.31473000E+02	-1.48515000E+03	 0.00000000E+00
	-8.26602000E+02	-1.48796000E+03	 0.00000000E+00
	-8.21730000E+02	-1.49078000E+03	 0.00000000E+00
	-8.16859000E+02	-1.49359000E+03	 0.00000000E+00
	-8.14696000E+02	-1.50109000E+03	 0.00000000E+00
	-8.17405000E+02	-1.50578000E+03	 0.00000000E+00
	-8.20113000E+02	-1.51047000E+03	 0.00000000E+00
	-8.22822000E+02	-1.51517000E+03	 0.00000000E+00
	-8.25531000E+02	-1.51986000E+03	 0.00000000E+00
	-5.76081000E+00	-1.70652000E+03	 0.00000000E+00
	-1.13645000E+01	-1.70510000E+03	 0.00000000E+00
	-1.66582000E+01	-1.70278000E+03	 0.00000000E+00
	-2.14974000E+01	-1.69962000E+03	 0.00000000E+00
	-2.57503000E+01	-1.69570000E+03	 0.00000000E+00
	-2.93008000E+01	-1.69114000E+03	 0.00000000E+00
	-3.20521000E+01	-1.68606000E+03	 0.00000000E+00
	-3.39290000E+01	-1.68059000E+03	 0.00000000E+00
	-3.48805000E+01	-1.67489000E+03	 0.00000000E+00
	-3.48805000E+01	-1.66911000E+03	 0.00000000E+00
	-3.39290000E+01	-1.66341000E+03	 0.00000000E+00
	-3.20521000E+01	-1.65794000E+03	 0.00000000E+00
	-2.93008000E+01	-1.65286000E+03	 0.00000000E+00
	-2.57503000E+01	-1.64830000E+03	 0.00000000E+00
	-2.14974000E+01	-1.64438000E+03	 0.00000000E+00
	-1.66582000E+01	-1.64122000E+03	 0.00000000E+00
	-1.13645000E+01	-1.63890000E+03	 0.00000000E+00
	-5.76081000E+00	-1.63748000E+03	 0.00000000E+00
	 0.00000000E+00	-1.63700000E+03	 0.00000000E+00
	 5.76081000E+00	-1.63748000E+03	 0.00000000E+00
	 1.13645000E+01	-1.63890000E+03	 0.00000000E+00
	 1.66582000E+01	-1.64122000E+03	 0.00000000E+00
	 2.14974000E+01	-1.64438000E+03	 0.00000000E+00
	 2.57503000E+01	-1.64830000E+03	 0.00000000E+00
	 2.93008000E+01	-1.65286000E+03	 0.00000000E+00
	 3.20521000E+01	-1.65794000E+03	 0.00000000E+00
	 3.39290000E+01	-1.66341000E+03	 0.00000000E+00
	 3.48805000E+01	-1.66911000E+03	 0.00000000E+00
	 3.48805000E+01	-1.67489000E+03	 0.00000000E+00
	 3.39290000E+01	-1.68059000E+03	 0.00000000E+00
	 3.20521000E+01	-1.68606000E+03	 0.00000000E+00
	 2.93008000E+01	-1.69114000E+03	 0.00000000E+00
	 2.57503000E+01	-1.69570000E+03	 0.00000000E+00
	 2.14974000E+01	-1.69962000E+03	 0.00000000E+00
	 1.66582000E+01	-1.70278000E+03	 0.00000000E+00
	 1.13645000E+01	-1.70510000E+03	 0.00000000E+00
	 5.76081000E+00	-1.70652000E+03	 0.00000000E+00
	-5.76081000E+00	-1.61992000E+03	 0.00000000E+00
	-1.13645000E+01	-1.61850000E+03	 0.00000000E+00
	-1.66582000E+01	-1.61618000E+03	 0.00000000E+00
	-2.14974000E+01	-1.61302000E+03	 0.00000000E+00
	-2.57503000E+01	-1.60910000E+03	 0.00000000E+00
	-2.93008000E+01	-1.60454000E+03	 0.00000000E+00
	-3.20521000E+01	-1.59946000E+03	 0.00000000E+00
	-3.39290000E+01	-1.59399000E+03	 0.00000000E+00
	-3.48805000E+01	-1.58829000E+03	 0.00000000E+00
	-3.48805000E+01	-1.58251000E+03	 0.00000000E+00
	-3.39290000E+01	-1.57681000E+03	 0.00000000E+00
	-3.20521000E+01	-1.57134000E+03	 0.00000000E+00
	-2.93008000E+01	-1.56626000E+03	 0.00000000E+00
	-2.57503000E+01	-1.56170000E+03	 0.00000000E+00
	-2.14974000E+01	-1.55778000E+03	 0.00000000E+00
	-1.66582000E+01	-1.55462000E+03	 0.00000000E+00
	-1.13645000E+01	-1.55230000E+03	 0.00000000E+00
	-5.76081000E+00	-1.55088000E+03	 0.00000000E+00
	 0.00000000E+00	-1.55040000E+03	 0.00000000E+00
	 5.76081000E+00	-1.55088000E+03	 0.00000000E+00
	 1.13645000E+01	-1.55230000E+03	 0.00000000E+00
	 1.66582000E+01	-1.55462000E+03	 0.00000000E+00
	 2.14974000E+01	-1.55778000E+03	 0.00000000E+00
	 2.57503000E+01	-1.56170000E+03	 0.00000000E+00
	 2.93008000E+01	-1.56626000E+03	 0.00000000E+00
	 3.20521000E+01	-1.57134000E+03	 0.00000000E+00
	 3.39290000E+01	-1.57681000E+03	 0.00000000E+00
	 3.48805000E+01	-1.58251000E+03	 0.00000000E+00
	 3.48805000E+01	-1.58829000E+03	 0.00000000E+00
	 3.39290000E+01	-1.59399000E+03	 0.00000000E+00
	 3.20521000E+01	-1.59946000E+03	 0.00000000E+00
	 2.93008000E+01	-1.60454000E+03	 0.00000000E+00
	 2.57503000E+01	-1.60910000E+03	 0.00000000E+00
	 2.14974000E+01	-1.61302000E+03	 0.00000000E+00
	 1.66582000E+01	-1.61618000E+03	 0.00000000E+00
	 1.13645000E+01	-1.61850000E+03	 0.00000000E+00
	 5.76081000E+00	-1.61992000E+03	 0.00000000E+00
	-8.05608000E+01	-1.66322000E+03	 0.00000000E+00
	-8.61645000E+01	-1.66180000E+03	 0.00000000E+00
	-9.14582000E+01	-1.65948000E+03	 0.00000000E+00
	-9.62974000E+01	-1.65632000E+03	 0.00000000E+00
	-1.00550000E+02	-1.65240000E+03	 0.00000000E+00
	-1.04101000E+02	-1.64784000E+03	 0.00000000E+00
	-1.06852000E+02	-1.64276000E+03	 0.00000000E+00
	-1.08729000E+02	-1.63729000E+03	 0.00000000E+00
	-1.09680000E+02	-1.63159000E+03	 0.00000000E+00
	-1.09680000E+02	-1.62581000E+03	 0.00000000E+00
	-1.08729000E+02	-1.62011000E+03	 0.00000000E+00
	-1.06852000E+02	-1.61464000E+03	 0.00000000E+00
	-1.04101000E+02	-1.60956000E+03	 0.00000000E+00
	-1.00550000E+02	-1.60500000E+03	 0.00000000E+00
	-9.62974000E+01	-1.60108000E+03	 0.00000000E+00
	-9.14582000E+01	-1.59792000E+03	 0.00000000E+00
	-8.61645000E+01	-1.59560000E+03	 0.00000000E+00
	-8.05608000E+01	-1.59418000E+03	 0.00000000E+00
	-7.48000000E+01	-1.59370000E+03	 0.00000000E+00
	-6.90392000E+01	-1.59418000E+03	 0.00000000E+00
	-6.34355000E+01	-1.59560000E+03	 0.00000000E+00
	-5.81418000E+01	-1.59792000E+03	 0.00000000E+00
	-5.33026000E+01	-1.60108000E+03	 0.00000000E+00
	-4.90497000E+01	-1.60500000E+03	 0.00000000E+00
	-4.54992000E+01	-1.60956000E+03	 0.00000000E+00
	-4.27479000E+01	-1.61464000E+03	 0.00000000E+00
	-4.08710000E+01	-1.62011000E+03	 0.00000000E+00
	-3.99195000E+01	-1.62581000E+03	 0.00000000E+00
	-3.99195000E+01	-1.63159000E+03	 0.00000000E+00
	-4.08710000E+01	-1.63729000E+03	 0.00000000E+00
	-4.27479000E+01	-1.64276000E+03	 0.00000000E+00
	-4.54992000E+01	-1.64784000E+03	 0.00000000E+00
	-4.90497000E+01	-1.65240000E+03	 0.00000000E+00
	-5.33026000E+01	-1.65632000E+03	 0.00000000E+00
	-5.81418000E+01	-1.65948000E+03	 0.00000000E+00
	-6.34355000E+01	-1.66180000E+03	 0.00000000E+00
	-6.90392000E+01	-1.66322000E+03	 0.00000000E+00
	 6.90392000E+01	-1.66322000E+03	 0.00000000E+00
	 6.34355000E+01	-1.66180000E+03	 0.00000000E+00
	 5.81418000E+01	-1.65948000E+03	 0.00000000E+00
	 5.33026000E+01	-1.65632000E+03	 0.00000000E+00
	 4.90497000E+01	-1.65240000E+03	 0.00000000E+00
	 4.54992000E+01	-1.64784000E+03	 0.00000000E+00
	 4.27479000E+01	-1.64276000E+03	 0.00000000E+00
	 4.08710000E+01	-1.63729000E+03	 0.00000000E+00
	 3.99195000E+01	-1.63159000E+03	 0.00000000E+00
	 3.99195000E+01	-1.62581000E+03	 0.00000000E+00
	 4.08710000E+01	-1.62011000E+03	 0.00000000E+00
	 4.27479000E+01	-1.61464000E+03	 0.00000000E+00
	 4.54992000E+01	-1.60956000E+03	 0.00000000E+00
	 4.90497000E+01	-1.60500000E+03	 0.00000000E+00
	 5.33026000E+01	-1.60108000E+03	 0.00000000E+00
	 5.81418000E+01	-1.59792000E+03	 0.00000000E+00
	 6.34355000E+01	-1.59560000E+03	 0.00000000E+00
	 6.90392000E+01	-1.59418000E+03	 0.00000000E+00
	 7.48000000E+01	-1.59370000E+03	 0.00000000E+00
	 8.05608000E+01	-1.59418000E+03	 0.00000000E+00
	 8.61645000E+01	-1.59560000E+03	 0.00000000E+00
	 9.14582000E+01	-1.59792000E+03	 0.00000000E+00
	 9.62974000E+01	-1.60108000E+03	 0.00000000E+00
	 1.00550000E+02	-1.60500000E+03	 0.00000000E+00
	 1.04101000E+02	-1.60956000E+03	 0.00000000E+00
	 1.06852000E+02	-1.61464000E+03	 0.00000000E+00
	 1.08729000E+02	-1.62011000E+03	 0.00000000E+00
	 1.09680000E+02	-1.62581000E+03	 0.00000000E+00
	 1.09680000E+02	-1.63159000E+03	 0.00000000E+00
	 1.08729000E+02	-1.63729000E+03	 0.00000000E+00
	 1.06852000E+02	-1.64276000E+03	 0.00000000E+00
	 1.04101000E+02	-1.64784000E+03	 0.00000000E+00
	 1.00550000E+02	-1.65240000E+03	 0.00000000E+00
	 9.62974000E+01	-1.65632000E+03	 0.00000000E+00
	 9.14582000E+01	-1.65948000E+03	 0.00000000E+00
	 8.61645000E+01	-1.66180000E+03	 0.00000000E+00
	 8.05608000E+01	-1.66322000E+03	 0.00000000E+00
	-1.66961000E+02	-1.66322000E+03	 0.00000000E+00
	-1.72564000E+02	-1.66180000E+03	 0.00000000E+00
	-1.77858000E+02	-1.65948000E+03	 0.00000000E+00
	-1.82697000E+02	-1.65632000E+03	 0.00000000E+00
	-1.86950000E+02	-1.65240000E+03	 0.00000000E+00
	-1.90501000E+02	-1.64784000E+03	 0.00000000E+00
	-1.93252000E+02	-1.64276000E+03	 0.00000000E+00
	-1.95129000E+02	-1.63729000E+03	 0.00000000E+00
	-1.96080000E+02	-1.63159000E+03	 0.00000000E+00
	-1.96080000E+02	-1.62581000E+03	 0.00000000E+00
	-1.95129000E+02	-1.62011000E+03	 0.00000000E+00
	-1.93252000E+02	-1.61464000E+03	 0.00000000E+00
	-1.90501000E+02	-1.60956000E+03	 0.00000000E+00
	-1.86950000E+02	-1.60500000E+03	 0.00000000E+00
	-1.82697000E+02	-1.60108000E+03	 0.00000000E+00
	-1.77858000E+02	-1.59792000E+03	 0.00000000E+00
	-1.72564000E+02	-1.59560000E+03	 0.00000000E+00
	-1.66961000E+02	-1.59418000E+03	 0.00000000E+00
	-1.61200000E+02	-1.59370000E+03	 0.00000000E+00
	-1.55439000E+02	-1.59418000E+03	 0.00000000E+00
	-1.49836000E+02	-1.59560000E+03	 0.00000000E+00
	-1.44542000E+02	-1.59792000E+03	 0.00000000E+00
	-1.39703000E+02	-1.60108000E+03	 0.00000000E+00
	-1.35450000E+02	-1.60500000E+03	 0.00000000E+00
	-1.31899000E+02	-1.60956000E+03	 0.00000000E+00
	-1.29148000E+02	-1.61464000E+03	 0.00000000E+00
	-1.27271000E+02	-1.62011000E+03	 0.00000000E+00
	-1.26320000E+02	-1.62581000E+03	 0.00000000E+00
	-1.26320000E+02	-1.63159000E+03	 0.00000000E+00
	-1.27271000E+02	-1.63729000E+03	 0.00000000E+00
	-1.29148000E+02	-1.64276000E+03	 0.00000000E+00
	-1.31899000E+02	-1.64784000E+03	 0.00000000E+00
	-1.35450000E+02	-1.65240000E+03	 0.00000000E+00
	-1.39703000E+02	-1.65632000E+03	 0.00000000E+00
	-1.44542000E+02	-1.65948000E+03	 0.00000000E+00
	-1.49836000E+02	-1.66180000E+03	 0.00000000E+00
	-1.55439000E+02	-1.66322000E+03	 0.00000000E+00
	 1.55439000E+02	-1.66322000E+03	 0.00000000E+00
	 1.49836000E+02	-1.66180000E+03	 0.00000000E+00
	 1.44542000E+02	-1.65948000E+03	 0.00000000E+00
	 1.39703000E+02	-1.65632000E+03	 0.00000000E+00
	 1.35450000E+02	-1.65240000E+03	 0.00000000E+00
	 1.31899000E+02	-1.64784000E+03	 0.00000000E+00
	 1.29148000E+02	-1.64276000E+03	 0.00000000E+00
	 1.27271000E+02	-1.63729000E+03	 0.00000000E+00
	 1.26320000E+02	-1.63159000E+03	 0.00000000E+00
	 1.26320000E+02	-1.62581000E+03	 0.00000000E+00
	 1.27271000E+02	-1.62011000E+03	 0.00000000E+00
	 1.29148000E+02	-1.61464000E+03	 0.00000000E+00
	 1.31899000E+02	-1.60956000E+03	 0.00000000E+00
	 1.35450000E+02	-1.60500000E+03	 0.00000000E+00
	 1.39703000E+02	-1.60108000E+03	 0.00000000E+00
	 1.44542000E+02	-1.59792000E+03	 0.00000000E+00
	 1.49836000E+02	-1.59560000E+03	 0.00000000E+00
	 1.55439000E+02	-1.59418000E+03	 0.00000000E+00
	 1.61200000E+02	-1.59370000E+03	 0.00000000E+00
	 1.66961000E+02	-1.59418000E+03	 0.00000000E+00
	 1.72564000E+02	-1.59560000E+03	 0.00000000E+00
	 1.77858000E+02	-1.59792000E+03	 0.00000000E+00
	 1.82697000E+02	-1.60108000E+03	 0.00000000E+00
	 1.86950000E+02	-1.60500000E+03	 0.00000000E+00
	 1.90501000E+02	-1.60956000E+03	 0.00000000E+00
	 1.93252000E+02	-1.61464000E+03	 0.00000000E+00
	 1.95129000E+02	-1.62011000E+03	 0.00000000E+00
	 1.96080000E+02	-1.62581000E+03	 0.00000000E+00
	 1.96080000E+02	-1.63159000E+03	 0.00000000E+00
	 1.95129000E+02	-1.63729000E+03	 0.00000000E+00
	 1.93252000E+02	-1.64276000E+03	 0.00000000E+00
	 1.90501000E+02	-1.64784000E+03	 0.00000000E+00
	 1.86950000E+02	-1.65240000E+03	 0.00000000E+00
	 1.82697000E+02	-1.65632000E+03	 0.00000000E+00
	 1.77858000E+02	-1.65948000E+03	 0.00000000E+00
	 1.72564000E+02	-1.66180000E+03	 0.00000000E+00
	 1.66961000E+02	-1.66322000E+03	 0.00000000E+00
	-2.41761000E+02	-1.61992000E+03	 0.00000000E+00
	-2.47364000E+02	-1.61850000E+03	 0.00000000E+00
	-2.52658000E+02	-1.61618000E+03	 0.00000000E+00
	-2.57497000E+02	-1.61302000E+03	 0.00000000E+00
	-2.61750000E+02	-1.60910000E+03	 0.00000000E+00
	-2.65301000E+02	-1.60454000E+03	 0.00000000E+00
	-2.68052000E+02	-1.59946000E+03	 0.00000000E+00
	-2.69929000E+02	-1.59399000E+03	 0.00000000E+00
	-2.70880000E+02	-1.58829000E+03	 0.00000000E+00
	-2.70880000E+02	-1.58251000E+03	 0.00000000E+00
	-2.69929000E+02	-1.57681000E+03	 0.00000000E+00
	-2.68052000E+02	-1.57134000E+03	 0.00000000E+00
	-2.65301000E+02	-1.56626000E+03	 0.00000000E+00
	-2.61750000E+02	-1.56170000E+03	 0.00000000E+00
	-2.57497000E+02	-1.55778000E+03	 0.00000000E+00
	-2.52658000E+02	-1.55462000E+03	 0.00000000E+00
	-2.47364000E+02	-1.55230000E+03	 0.00000000E+00
	-2.41761000E+02	-1.55088000E+03	 0.00000000E+00
	-2.36000000E+02	-1.55040000E+03	 0.00000000E+00
	-2.30239000E+02	-1.55088000E+03	 0.00000000E+00
	-2.24636000E+02	-1.55230000E+03	 0.00000000E+00
	-2.19342000E+02	-1.55462000E+03	 0.00000000E+00
	-2.14503000E+02	-1.55778000E+03	 0.00000000E+00
	-2.10250000E+02	-1.56170000E+03	 0.00000000E+00
	-2.06699000E+02	-1.56626000E+03	 0.00000000E+00
	-2.03948000E+02	-1.57134000E+03	 0.00000000E+00
	-2.02071000E+02	-1.57681000E+03	 0.00000000E+00
	-2.01120000E+02	-1.58251000E+03	 0.00000000E+00
	-2.01120000E+02	-1.58829000E+03	 0.00000000E+00
	-2.02071000E+02	-1.59399000E+03	 0.00000000E+00
	-2.03948000E+02	-1.59946000E+03	 0.00000000E+00
	-2.06699000E+02	-1.60454000E+03	 0.00000000E+00
	-2.10250000E+02	-1.60910000E+03	 0.00000000E+00
	-2.14503000E+02	-1.61302000E+03	 0.00000000E+00
	-2.19342000E+02	-1.61618000E+03	 0.00000000E+00
	-2.24636000E+02	-1.61850000E+03	 0.00000000E+00
	-2.30239000E+02	-1.61992000E+03	 0.00000000E+00
	 2.30239000E+02	-1.61992000E+03	 0.00000000E+00
	 2.24636000E+02	-1.61850000E+03	 0.00000000E+00
	 2.19342000E+02	-1.61618000E+03	 0.00000000E+00
	 2.14503000E+02	-1.61302000E+03	 0.00000000E+00
	 2.10250000E+02	-1.60910000E+03	 0.00000000E+00
	 2.06699000E+02	-1.60454000E+03	 0.00000000E+00
	 2.03948000E+02	-1.59946000E+03	 0.00000000E+00
	 2.02071000E+02	-1.59399000E+03	 0.00000000E+00
	 2.01120000E+02	-1.58829000E+03	 0.00000000E+00
	 2.01120000E+02	-1.58251000E+03	 0.00000000E+00
	 2.02071000E+02	-1.57681000E+03	 0.00000000E+00
	 2.03948000E+02	-1.57134000E+03	 0.00000000E+00
	 2.06699000E+02	-1.56626000E+03	 0.00000000E+00
	 2.10250000E+02	-1.56170000E+03	 0.00000000E+00
	 2.14503000E+02	-1.55778000E+03	 0.00000000E+00
	 2.19342000E+02	-1.55462000E+03	 0.00000000E+00
	 2.24636000E+02	-1.55230000E+03	 0.00000000E+00
	 2.30239000E+02	-1.55088000E+03	 0.00000000E+00
	 2.36000000E+02	-1.55040000E+03	 0.00000000E+00
	 2.41761000E+02	-1.55088000E+03	 0.00000000E+00
	 2.47364000E+02	-1.55230000E+03	 0.00000000E+00
	 2.52658000E+02	-1.55462000E+03	 0.00000000E+00
	 2.57497000E+02	-1.55778000E+03	 0.00000000E+00
	 2.61750000E+02	-1.56170000E+03	 0.00000000E+00
	 2.65301000E+02	-1.56626000E+03	 0.00000000E+00
	 2.68052000E+02	-1.57134000E+03	 0.00000000E+00
	 2.69929000E+02	-1.57681000E+03	 0.00000000E+00
	 2.70880000E+02	-1.58251000E+03	 0.00000000E+00
	 2.70880000E+02	-1.58829000E+03	 0.00000000E+00
	 2.69929000E+02	-1.59399000E+03	 0.00000000E+00
	 2.68052000E+02	-1.59946000E+03	 0.00000000E+00
	 2.65301000E+02	-1.60454000E+03	 0.00000000E+00
	 2.61750000E+02	-1.60910000E+03	 0.00000000E+00
	 2.57497000E+02	-1.61302000E+03	 0.00000000E+00
	 2.52658000E+02	-1.61618000E+03	 0.00000000E+00
	 2.47364000E+02	-1.61850000E+03	 0.00000000E+00
	 2.41761000E+02	-1.61992000E+03	 0.00000000E+00
	-3.16561000E+02	-1.66322000E+03	 0.00000000E+00
	-3.22164000E+02	-1.66180000E+03	 0.00000000E+00
	-3.27458000E+02	-1.65948000E+03	 0.00000000E+00
	-3.32297000E+02	-1.65632000E+03	 0.00000000E+00
	-3.36550000E+02	-1.65240000E+03	 0.00000000E+00
	-3.40101000E+02	-1.64784000E+03	 0.00000000E+00
	-3.42852000E+02	-1.64276000E+03	 0.00000000E+00
	-3.44729000E+02	-1.63729000E+03	 0.00000000E+00
	-3.45680000E+02	-1.63159000E+03	 0.00000000E+00
	-3.45680000E+02	-1.62581000E+03	 0.00000000E+00
	-3.44729000E+02	-1.62011000E+03	 0.00000000E+00
	-3.42852000E+02	-1.61464000E+03	 0.00000000E+00
	-3.40101000E+02	-1.60956000E+03	 0.00000000E+00
	-3.36550000E+02	-1.60500000E+03	 0.00000000E+00
	-3.32297000E+02	-1.60108000E+03	 0.00000000E+00
	-3.27458000E+02	-1.59792000E+03	 0.00000000E+00
	-3.22164000E+02	-1.59560000E+03	 0.00000000E+00
	-3.16561000E+02	-1.59418000E+03	 0.00000000E+00
	-3.10800000E+02	-1.59370000E+03	 0.00000000E+00
	-3.05039000E+02	-1.59418000E+03	 0.00000000E+00
	-2.99436000E+02	-1.59560000E+03	 0.00000000E+00
	-2.94142000E+02	-1.59792000E+03	 0.00000000E+00
	-2.89303000E+02	-1.60108000E+03	 0.00000000E+00
	-2.85050000E+02	-1.60500000E+03	 0.00000000E+00
	-2.81499000E+02	-1.60956000E+03	 0.00000000E+00
	-2.78748000E+02	-1.61464000E+03	 0.00000000E+00
	-2.76871000E+02	-1.62011000E+03	 0.00000000E+00
	-2.75920000E+02	-1.62581000E+03	 0.00000000E+00
	-2.75920000E+02	-1.63159000E+03	 0.00000000E+00
	-2.76871000E+02	-1.63729000E+03	 0.00000000E+00
	-2.78748000E+02	-1.64276000E+03	 0.00000000E+00
	-2.81499000E+02	-1.64784000E+03	 0.00000000E+00
	-2.85050000E+02	-1.65240000E+03	 0.00000000E+00
	-2.89303000E+02	-1.65632000E+03	 0.00000000E+00
	-2.94142000E+02	-1.65948000E+03	 0.00000000E+00
	-2.99436000E+02	-1.66180000E+03	 0.00000000E+00
	-3.05039000E+02	-1.66322000E+03	 0.00000000E+00
	 3.05039000E+02	-1.66322000E+03	 0.00000000E+00
	 2.99436000E+02	-1.66180000E+03	 0.00000000E+00
	 2.94142000E+02	-1.65948000E+03	 0.00000000E+00
	 2.89303000E+02	-1.65632000E+03	 0.00000000E+00
	 2.85050000E+02	-1.65240000E+03	 0.00000000E+00
	 2.81499000E+02	-1.64784000E+03	 0.00000000E+00
	 2.78748000E+02	-1.64276000E+03	 0.00000000E+00
	 2.76871000E+02	-1.63729000E+03	 0.00000000E+00
	 2.75920000E+02	-1.63159000E+03	 0.00000000E+00
	 2.75920000E+02	-1.62581000E+03	 0.00000000E+00
	 2.76871000E+02	-1.62011000E+03	 0.00000000E+00
	 2.78748000E+02	-1.61464000E+03	 0.00000000E+00
	 2.81499000E+02	-1.60956000E+03	 0.00000000E+00
	 2.85050000E+02	-1.60500000E+03	 0.00000000E+00
	 2.89303000E+02	-1.60108000E+03	 0.00000000E+00
	 2.94142000E+02	-1.59792000E+03	 0.00000000E+00
	 2.99436000E+02	-1.59560000E+03	 0.00000000E+00
	 3.05039000E+02	-1.59418000E+03	 0.00000000E+00
	 3.10800000E+02	-1.59370000E+03	 0.00000000E+00
	 3.16561000E+02	-1.59418000E+03	 0.00000000E+00
	 3.22164000E+02	-1.59560000E+03	 0.00000000E+00
	 3.27458000E+02	-1.59792000E+03	 0.00000000E+00
	 3.32297000E+02	-1.60108000E+03	 0.00000000E+00
	 3.36550000E+02	-1.60500000E+03	 0.00000000E+00
	 3.40101000E+02	-1.60956000E+03	 0.00000000E+00
	 3.42852000E+02	-1.61464000E+03	 0.00000000E+00
	 3.44729000E+02	-1.62011000E+03	 0.00000000E+00
	 3.45680000E+02	-1.62581000E+03	 0.00000000E+00
	 3.45680000E+02	-1.63159000E+03	 0.00000000E+00
	 3.44729000E+02	-1.63729000E+03	 0.00000000E+00
	 3.42852000E+02	-1.64276000E+03	 0.00000000E+00
	 3.40101000E+02	-1.64784000E+03	 0.00000000E+00
	 3.36550000E+02	-1.65240000E+03	 0.00000000E+00
	 3.32297000E+02	-1.65632000E+03	 0.00000000E+00
	 3.27458000E+02	-1.65948000E+03	 0.00000000E+00
	 3.22164000E+02	-1.66180000E+03	 0.00000000E+00
	 3.16561000E+02	-1.66322000E+03	 0.00000000E+00
	-4.02961000E+02	-1.66322000E+03	 0.00000000E+00
	-4.08564000E+02	-1.66180000E+03	 0.00000000E+00
	-4.13858000E+02	-1.65948000E+03	 0.00000000E+00
	-4.18697000E+02	-1.65632000E+03	 0.00000000E+00
	-4.22950000E+02	-1.65240000E+03	 0.00000000E+00
	-4.26501000E+02	-1.64784000E+03	 0.00000000E+00
	-4.29252000E+02	-1.64276000E+03	 0.00000000E+00
	-4.31129000E+02	-1.63729000E+03	 0.00000000E+00
	-4.32080000E+02	-1.63159000E+03	 0.00000000E+00
	-4.32080000E+02	-1.62581000E+03	 0.00000000E+00
	-4.31129000E+02	-1.62011000E+03	 0.00000000E+00
	-4.29252000E+02	-1.61464000E+03	 0.00000000E+00
	-4.26501000E+02	-1.60956000E+03	 0.00000000E+00
	-4.22950000E+02	-1.60500000E+03	 0.00000000E+00
	-4.18697000E+02	-1.60108000E+03	 0.00000000E+00
	-4.13858000E+02	-1.59792000E+03	 0.00000000E+00
	-4.08564000E+02	-1.59560000E+03	 0.00000000E+00
	-4.02961000E+02	-1.59418000E+03	 0.00000000E+00
	-3.97200000E+02	-1.59370000E+03	 0.00000000E+00
	-3.91439000E+02	-1.59418000E+03	 0.00000000E+00
	-3.85836000E+02	-1.59560000E+03	 0.00000000E+00
	-3.80542000E+02	-1.59792000E+03	 0.00000000E+00
	-3.75703000E+02	-1.60108000E+03	 0.00000000E+00
	-3.71450000E+02	-1.60500000E+03	 0.00000000E+00
	-3.67899000E+02	-1.60956000E+03	 0.00000000E+00
	-3.65148000E+02	-1.61464000E+03	 0.00000000E+00
	-3.63271000E+02	-1.62011000E+03	 0.00000000E+00
	-3.62320000E+02	-1.62581000E+03	 0.00000000E+00
	-3.62320000E+02	-1.63159000E+03	 0.00000000E+00
	-3.63271000E+02	-1.63729000E+03	 0.00000000E+00
	-3.65148000E+02	-1.64276000E+03	 0.00000000E+00
	-3.67899000E+02	-1.64784000E+03	 0.00000000E+00
	-3.71450000E+02	-1.65240000E+03	 0.00000000E+00
	-3.75703000E+02	-1.65632000E+03	 0.00000000E+00
	-3.80542000E+02	-1.65948000E+03	 0.00000000E+00
	-3.85836000E+02	-1.66180000E+03	 0.00000000E+00
	-3.91439000E+02	-1.66322000E+03	 0.00000000E+00
	 3.91439000E+02	-1.66322000E+03	 0.00000000E+00
	 3.85836000E+02	-1.66180000E+03	 0.00000000E+00
	 3.80542000E+02	-1.65948000E+03	 0.00000000E+00
	 3.75703000E+02	-1.65632000E+03	 0.00000000E+00
	 3.71450000E+02	-1.65240000E+03	 0.00000000E+00
	 3.67899000E+02	-1.64784000E+03	 0.00000000E+00
	 3.65148000E+02	-1.64276000E+03	 0.00000000E+00
	 3.63271000E+02	-1.63729000E+03	 0.00000000E+00
	 3.62320000E+02	-1.63159000E+03	 0.00000000E+00
	 3.62320000E+02	-1.62581000E+03	 0.00000000E+00
	 3.63271000E+02	-1.62011000E+03	 0.00000000E+00
	 3.65148000E+02	-1.61464000E+03	 0.00000000E+00
	 3.67899000E+02	-1.60956000E+03	 0.00000000E+00
	 3.71450000E+02	-1.60500000E+03	 0.00000000E+00
	 3.75703000E+02	-1.60108000E+03	 0.00000000E+00
	 3.80542000E+02	-1.59792000E+03	 0.00000000E+00
	 3.85836000E+02	-1.59560000E+03	 0.00000000E+00
	 3.91439000E+02	-1.59418000E+03	 0.00000000E+00
	 3.97200000E+02	-1.59370000E+03	 0.00000000E+00
	 4.02961000E+02	-1.59418000E+03	 0.00000000E+00
	 4.08564000E+02	-1.59560000E+03	 0.00000000E+00
	 4.13858000E+02	-1.59792000E+03	 0.00000000E+00
	 4.18697000E+02	-1.60108000E+03	 0.00000000E+00
	 4.22950000E+02	-1.60500000E+03	 0.00000000E+00
	 4.26501000E+02	-1.60956000E+03	 0.00000000E+00
	 4.29252000E+02	-1.61464000E+03	 0.00000000E+00
	 4.31129000E+02	-1.62011000E+03	 0.00000000E+00
	 4.32080000E+02	-1.62581000E+03	 0.00000000E+00
	 4.32080000E+02	-1.63159000E+03	 0.00000000E+00
	 4.31129000E+02	-1.63729000E+03	 0.00000000E+00
	 4.29252000E+02	-1.64276000E+03	 0.00000000E+00
	 4.26501000E+02	-1.64784000E+03	 0.00000000E+00
	 4.22950000E+02	-1.65240000E+03	 0.00000000E+00
	 4.18697000E+02	-1.65632000E+03	 0.00000000E+00
	 4.13858000E+02	-1.65948000E+03	 0.00000000E+00
	 4.08564000E+02	-1.66180000E+03	 0.00000000E+00
	 4.02961000E+02	-1.66322000E+03	 0.00000000E+00
	-4.77761000E+02	-1.61992000E+03	 0.00000000E+00
	-4.83364000E+02	-1.61850000E+03	 0.00000000E+00
	-4.88658000E+02	-1.61618000E+03	 0.00000000E+00
	-4.93497000E+02	-1.61302000E+03	 0.00000000E+00
	-4.97750000E+02	-1.60910000E+03	 0.00000000E+00
	-5.01301000E+02	-1.60454000E+03	 0.00000000E+00
	-5.04052000E+02	-1.59946000E+03	 0.00000000E+00
	-5.05929000E+02	-1.59399000E+03	 0.00000000E+00
	-5.06880000E+02	-1.58829000E+03	 0.00000000E+00
	-5.06880000E+02	-1.58251000E+03	 0.00000000E+00
	-5.05929000E+02	-1.57681000E+03	 0.00000000E+00
	-5.04052000E+02	-1.57134000E+03	 0.00000000E+00
	-5.01301000E+02	-1.56626000E+03	 0.00000000E+00
	-4.97750000E+02	-1.56170000E+03	 0.00000000E+00
	-4.93497000E+02	-1.55778000E+03	 0.00000000E+00
	-4.88658000E+02	-1.55462000E+03	 0.00000000E+00
	-4.83364000E+02	-1.55230000E+03	 0.00000000E+00
	-4.77761000E+02	-1.55088000E+03	 0.00000000E+00
	-4.72000000E+02	-1.55040000E+03	 0.00000000E+00
	-4.66239000E+02	-1.55088000E+03	 0.00000000E+00
	-4.60636000E+02	-1.55230000E+03	 0.00000000E+00
	-4.55342000E+02	-1.55462000E+03	 0.00000000E+00
	-4.50503000E+02	-1.55778000E+03	 0.00000000E+00
	-4.46250000E+02	-1.56170000E+03	 0.00000000E+00
	-4.42699000E+02	-1.56626000E+03	 0.00000000E+00
	-4.39948000E+02	-1.57134000E+03	 0.00000000E+00
	-4.38071000E+02	-1.57681000E+03	 0.00000000E+00
	-4.37120000E+02	-1.58251000E+03	 0.00000000E+00
	-4.37120000E+02	-1.58829000E+03	 0.00000000E+00
	-4.38071000E+02	-1.59399000E+03	 0.00000000E+00
	-4.39948000E+02	-1.59946000E+03	 0.00000000E+00
	-4.42699000E+02	-1.60454000E+03	 0.00000000E+00
	-4.46250000E+02	-1.60910000E+03	 0.00000000E+00
	-4.50503000E+02	-1.61302000E+03	 0.00000000E+00
	-4.55342000E+02	-1.61618000E+03	 0.00000000E+00
	-4.60636000E+02	-1.61850000E+03	 0.00000000E+00
	-4.66239000E+02	-1.61992000E+03	 0.00000000E+00
	 4.66239000E+02	-1.61992000E+03	 0.00000000E+00
	 4.60636000E+02	-1.61850000E+03	 0.00000000E+00
	 4.55342000E+02	-1.61618000E+03	 0.00000000E+00
	 4.50503000E+02	-1.61302000E+03	 0.00000000E+00
	 4.46250000E+02	-1.60910000E+03	 0.00000000E+00
	 4.42699000E+02	-1.60454000E+03	 0.00000000E+00
	 4.39948000E+02	-1.59946000E+03	 0.00000000E+00
	 4.38071000E+02	-1.59399000E+03	 0.00000000E+00
	 4.37120000E+02	-1.58829000E+03	 0.00000000E+00
	 4.37120000E+02	-1.58251000E+03	 0.00000000E+00
	 4.38071000E+02	-1.57681000E+03	 0.00000000E+00
	 4.39948000E+02	-1.57134000E+03	 0.00000000E+00
	 4.42699000E+02	-1.56626000E+03	 0.00000000E+00
	 4.46250000E+02	-1.56170000E+03	 0.00000000E+00
	 4.50503000E+02	-1.55778000E+03	 0.00000000E+00
	 4.55342000E+02	-1.55462000E+03	 0.00000000E+00
	 4.60636000E+02	-1.55230000E+03	 0.00000000E+00
	 4.66239000E+02	-1.55088000E+03	 0.00000000E+00
	 4.72000000E+02	-1.55040000E+03	 0.00000000E+00
	 4.77761000E+02	-1.55088000E+03	 0.00000000E+00
	 4.83364000E+02	-1.55230000E+03	 0.00000000E+00
	 4.88658000E+02	-1.55462000E+03	 0.00000000E+00
	 4.93497000E+02	-1.55778000E+03	 0.00000000E+00
	 4.97750000E+02	-1.56170000E+03	 0.00000000E+00
	 5.01301000E+02	-1.56626000E+03	 0.00000000E+00
	 5.04052000E+02	-1.57134000E+03	 0.00000000E+00
	 5.05929000E+02	-1.57681000E+03	 0.00000000E+00
	 5.06880000E+02	-1.58251000E+03	 0.00000000E+00
	 5.06880000E+02	-1.58829000E+03	 0.00000000E+00
	 5.05929000E+02	-1.59399000E+03	 0.00000000E+00
	 5.04052000E+02	-1.59946000E+03	 0.00000000E+00
	 5.01301000E+02	-1.60454000E+03	 0.00000000E+00
	 4.97750000E+02	-1.60910000E+03	 0.00000000E+00
	 4.93497000E+02	-1.61302000E+03	 0.00000000E+00
	 4.88658000E+02	-1.61618000E+03	 0.00000000E+00
	 4.83364000E+02	-1.61850000E+03	 0.00000000E+00
	 4.77761000E+02	-1.61992000E+03	 0.00000000E+00
	 7.75986000E+02	-1.46361000E+03	 0.00000000E+00
	-1.95751000E+02	-1.64768000E+03	 0.00000000E+00
	-7.75918000E+02	-1.46409000E+03	 0.00000000E+00
	-2.42873000E+02	-1.71329000E+03	 0.00000000E+00
	 2.42694000E+02	-1.71285000E+03	 0.00000000E+00
	 7.77725000E+02	-1.54529000E+03	 0.00000000E+00
	-7.77725000E+02	-1.54529000E+03	 0.00000000E+00
	 1.20938000E+02	-1.72646000E+03	 0.00000000E+00
	 5.70296000E+02	-1.56464000E+03	 0.00000000E+00
	 4.13346000E+02	-1.59215000E+03	 0.00000000E+00
	 1.96588000E+02	-1.64711000E+03	 0.00000000E+00
	 2.75721000E+02	-1.64768000E+03	 0.00000000E+00
	-7.12949000E+02	-1.50025000E+03	 0.00000000E+00
	 7.12949000E+02	-1.50025000E+03	 0.00000000E+00
	 5.63656000E+02	-1.63580000E+03	 0.00000000E+00
	 5.10996000E+02	-1.59241000E+03	 0.00000000E+00
	-2.76094000E+02	-1.64794000E+03	 0.00000000E+00
	-5.63656000E+02	-1.63580000E+03	 0.00000000E+00
	-5.70296000E+02	-1.56464000E+03	 0.00000000E+00
	-1.22678000E+02	-1.72617000E+03	 0.00000000E+00
	 2.19802000E+02	-1.71584000E+03	 0.00000000E+00
	-2.19866000E+02	-1.71577000E+03	 0.00000000E+00
	-7.56161000E+02	-1.55613000E+03	 0.00000000E+00
	 7.56150000E+02	-1.55609000E+03	 0.00000000E+00
	-3.02322000E+02	-1.58004000E+03	 0.00000000E+00
	-7.07541000E+02	-1.50778000E+03	 0.00000000E+00
	-6.62548000E+01	-1.58022000E+03	 0.00000000E+00
	 7.07536000E+02	-1.50777000E+03	 0.00000000E+00
	-9.63527000E+01	-1.66221000E+03	 0.00000000E+00
	-1.39246000E+02	-1.66182000E+03	 0.00000000E+00
	 6.87730000E+02	-1.51936000E+03	 0.00000000E+00
	-9.28401000E+01	-1.72747000E+03	 0.00000000E+00
	 9.29214000E+01	-1.72714000E+03	 0.00000000E+00
	 6.68667000E+02	-1.53065000E+03	 0.00000000E+00
	-7.35595000E+02	-1.45161000E+03	 0.00000000E+00
	 7.32737000E+02	-1.46654000E+03	 0.00000000E+00
	 7.35602000E+02	-1.46157000E+03	 0.00000000E+00
	 7.41350000E+02	-1.46157000E+03	 0.00000000E+00
	 7.38474000E+02	-1.45659000E+03	 0.00000000E+00
	 7.32725000E+02	-1.45659000E+03	 0.00000000E+00
	 7.35595000E+02	-1.45161000E+03	 0.00000000E+00
	-6.55024000E+02	-1.60034000E+03	 0.00000000E+00
	 6.55024000E+02	-1.60034000E+03	 0.00000000E+00
	 6.46475000E+02	-1.56556000E+03	 0.00000000E+00
	-6.46475000E+02	-1.56556000E+03	 0.00000000E+00
	-6.63657000E+02	-1.57558000E+03	 0.00000000E+00
	-3.70580000E+02	-1.66939000E+03	 0.00000000E+00
	-3.72926000E+02	-1.67467000E+03	 0.00000000E+00
	-6.61986000E+01	-1.71753000E+03	 0.00000000E+00
	-6.04680000E+01	-1.71662000E+03	 0.00000000E+00
	-6.08785000E+01	-1.67639000E+03	 0.00000000E+00
	-1.13584000E+02	-1.65920000E+03	 0.00000000E+00
	-1.19224000E+02	-1.66006000E+03	 0.00000000E+00
	-1.17295000E+02	-1.65477000E+03	 0.00000000E+00
	-4.53808000E+01	-1.71919000E+03	 0.00000000E+00
	-1.72294000E+02	-1.71442000E+03	 0.00000000E+00
	-7.19411000E+01	-1.71834000E+03	 0.00000000E+00
	-1.88601000E+02	-1.67086000E+03	 0.00000000E+00
	-2.65031000E+02	-1.64755000E+03	 0.00000000E+00
	-2.62977000E+02	-1.64214000E+03	 0.00000000E+00
	-3.49676000E+02	-1.68712000E+03	 0.00000000E+00
	-1.19347000E+02	-1.71573000E+03	 0.00000000E+00
	-1.22987000E+02	-1.71132000E+03	 0.00000000E+00
	-1.20909000E+02	-1.70592000E+03	 0.00000000E+00
	-1.26640000E+02	-1.70683000E+03	 0.00000000E+00
	-1.28717000E+02	-1.71225000E+03	 0.00000000E+00
	-1.32370000E+02	-1.70775000E+03	 0.00000000E+00
	-1.34489000E+02	-1.71334000E+03	 0.00000000E+00
	-1.38107000E+02	-1.70869000E+03	 0.00000000E+00
	-1.40206000E+02	-1.71418000E+03	 0.00000000E+00
	-1.43839000E+02	-1.70959000E+03	 0.00000000E+00
	-2.59187000E+01	-1.71110000E+03	 0.00000000E+00
	-2.27768000E+01	-1.71588000E+03	 0.00000000E+00
	-8.17046000E+02	-1.48829000E+03	 0.00000000E+00
	 7.15480000E+02	-1.52598000E+03	 0.00000000E+00
	-7.15480000E+02	-1.52598000E+03	 0.00000000E+00
	 2.57310000E+02	-1.61822000E+03	 0.00000000E+00
	-2.58366000E+02	-1.61843000E+03	 0.00000000E+00
	 5.52193000E+02	-1.63913000E+03	 0.00000000E+00
	-5.52193000E+02	-1.63913000E+03	 0.00000000E+00
	-7.32738000E+02	-1.46654000E+03	 0.00000000E+00
	-7.35605000E+02	-1.46157000E+03	 0.00000000E+00
	-7.38474000E+02	-1.45659000E+03	 0.00000000E+00
	-7.32725000E+02	-1.45659000E+03	 0.00000000E+00
	-7.41351000E+02	-1.46157000E+03	 0.00000000E+00
	-2.93823000E+02	-1.59215000E+03	 0.00000000E+00
	-5.10996000E+02	-1.59241000E+03	 0.00000000E+00
	 9.61336000E+01	-1.66174000E+03	 0.00000000E+00
	 1.39076000E+02	-1.66179000E+03	 0.00000000E+00
	-6.87730000E+02	-1.51936000E+03	 0.00000000E+00
	 6.48769000E+02	-1.54198000E+03	 0.00000000E+00
	 6.87101000E+02	-1.58667000E+03	 0.00000000E+00
	 5.99856000E+02	-1.57036000E+03	 0.00000000E+00
	-5.11328000E+02	-1.57969000E+03	 0.00000000E+00
	-5.24726000E+02	-1.64827000E+03	 0.00000000E+00
	 4.34495000E+02	-1.64155000E+03	 0.00000000E+00
	 7.93360000E+02	-1.47087000E+03	 0.00000000E+00
	 4.62167000E+02	-1.51362000E+03	 0.00000000E+00
	-2.38285000E+02	-1.54524000E+03	 0.00000000E+00
	 2.00303000E+02	-1.63539000E+03	 0.00000000E+00
	 1.05958000E+02	-1.65291000E+03	 0.00000000E+00
	-1.30838000E+02	-1.65333000E+03	 0.00000000E+00
	-3.25940000E+02	-1.66524000E+03	 0.00000000E+00
	 7.41137000E+02	-1.41434000E+03	 0.00000000E+00
	-2.63717000E+02	-1.55601000E+03	 0.00000000E+00
	-7.95476000E+02	-1.50604000E+03	 0.00000000E+00
	-7.35581000E+02	-1.53095000E+03	 0.00000000E+00
	 4.46339000E+02	-1.67081000E+03	 0.00000000E+00
	-2.71745000E+02	-1.63579000E+03	 0.00000000E+00
	 7.41296000E+02	-1.49137000E+03	 0.00000000E+00
	-7.41339000E+02	-1.47151000E+03	 0.00000000E+00
	 7.84169000E+02	-1.50609000E+03	 0.00000000E+00
	-2.02448000E+02	-1.71806000E+03	 0.00000000E+00
	 1.60223000E+01	-1.70853000E+03	 0.00000000E+00
	 8.17050000E+02	-1.48831000E+03	 0.00000000E+00
	 3.62100000E+02	-1.64880000E+03	 0.00000000E+00
	-4.19038000E+02	-1.59451000E+03	 0.00000000E+00
	-6.68667000E+02	-1.53065000E+03	 0.00000000E+00
	-7.12267000E+01	-1.66838000E+03	 0.00000000E+00
	 7.21190000E+01	-1.66853000E+03	 0.00000000E+00
	-7.12839000E+02	-1.47736000E+03	 0.00000000E+00
	 7.12839000E+02	-1.47733000E+03	 0.00000000E+00
	-2.65915000E+02	-1.70899000E+03	 0.00000000E+00
	 2.65544000E+02	-1.70998000E+03	 0.00000000E+00
	 1.83013000E+02	-1.66209000E+03	 0.00000000E+00
	-1.83503000E+02	-1.66106000E+03	 0.00000000E+00
	-7.30094000E+02	-1.56813000E+03	 0.00000000E+00
	 7.30094000E+02	-1.56813000E+03	 0.00000000E+00
	-2.32058000E+02	-1.62531000E+03	 0.00000000E+00
	 6.66917000E+02	-1.59605000E+03	 0.00000000E+00
	 2.32706000E+02	-1.62515000E+03	 0.00000000E+00
	-6.48769000E+02	-1.54198000E+03	 0.00000000E+00
	-5.85158000E+02	-1.62860000E+03	 0.00000000E+00
	 5.85158000E+02	-1.62860000E+03	 0.00000000E+00
	 7.09001000E+02	-1.57837000E+03	 0.00000000E+00
	-7.09001000E+02	-1.57837000E+03	 0.00000000E+00
	 5.55185000E+02	-1.58447000E+03	 0.00000000E+00
	 1.44150000E+02	-1.72387000E+03	 0.00000000E+00
	-1.44987000E+02	-1.72425000E+03	 0.00000000E+00
	-1.01185000E+02	-1.72258000E+03	 0.00000000E+00
	 6.38643000E+01	-1.72913000E+03	 0.00000000E+00
	-6.36246000E+01	-1.72786000E+03	 0.00000000E+00
	 5.40923000E+02	-1.64421000E+03	 0.00000000E+00
	-5.40923000E+02	-1.64421000E+03	 0.00000000E+00
	-6.87101000E+02	-1.58667000E+03	 0.00000000E+00
	-6.29383000E+02	-1.55290000E+03	 0.00000000E+00
	 6.29393000E+02	-1.55288000E+03	 0.00000000E+00
	 1.79683000E+02	-1.72073000E+03	 0.00000000E+00
	-1.80147000E+02	-1.72074000E+03	 0.00000000E+00
	-5.55459000E+02	-1.55607000E+03	 0.00000000E+00
	 5.55459000E+02	-1.55607000E+03	 0.00000000E+00
	-5.85079000E+02	-1.57323000E+03	 0.00000000E+00
	 5.85079000E+02	-1.57323000E+03	 0.00000000E+00
	-6.66917000E+02	-1.59605000E+03	 0.00000000E+00
	-2.32307000E+01	-1.73021000E+03	 0.00000000E+00
	-1.57165000E+02	-1.66860000E+03	 0.00000000E+00
	 1.58519000E+02	-1.66853000E+03	 0.00000000E+00
	 6.14687000E+02	-1.56213000E+03	 0.00000000E+00
	-6.14687000E+02	-1.56213000E+03	 0.00000000E+00
	-7.92960000E+02	-1.53802000E+03	 0.00000000E+00
	 7.92960000E+02	-1.53802000E+03	 0.00000000E+00
	 1.97079000E+02	-1.71887000E+03	 0.00000000E+00
	-1.95717000E+02	-1.71846000E+03	 0.00000000E+00
	-7.59738000E+02	-1.45278000E+03	 0.00000000E+00
	 7.60884000E+02	-1.45282000E+03	 0.00000000E+00
	-5.99857000E+02	-1.57036000E+03	 0.00000000E+00
	 6.44743000E+02	-1.60614000E+03	 0.00000000E+00
	-6.44743000E+02	-1.60614000E+03	 0.00000000E+00
	 5.06861000E+02	-1.60444000E+03	 0.00000000E+00
	-5.06698000E+02	-1.60370000E+03	 0.00000000E+00
	 8.45916000E+01	-1.66737000E+03	 0.00000000E+00
	-1.70977000E+02	-1.66731000E+03	 0.00000000E+00
	 1.71256000E+02	-1.66725000E+03	 0.00000000E+00
	 2.83786000E+02	-1.65805000E+03	 0.00000000E+00
	-2.84177000E+02	-1.65840000E+03	 0.00000000E+00
	-8.39996000E+01	-1.66754000E+03	 0.00000000E+00
	-1.62649000E+02	-1.72211000E+03	 0.00000000E+00
	 1.62403000E+02	-1.72307000E+03	 0.00000000E+00
	 5.11328000E+02	-1.57969000E+03	 0.00000000E+00
	 6.28704000E+02	-1.61163000E+03	 0.00000000E+00
	-6.28704000E+02	-1.61163000E+03	 0.00000000E+00
	 5.88847000E+01	-1.59178000E+03	 0.00000000E+00
	 6.01518000E+02	-1.62201000E+03	 0.00000000E+00
	-6.01518000E+02	-1.62201000E+03	 0.00000000E+00
	 3.46531000E+01	-1.69121000E+03	 0.00000000E+00
	-3.47015000E+01	-1.69117000E+03	 0.00000000E+00
	-8.09267000E+02	-1.50111000E+03	 0.00000000E+00
	 8.09267000E+02	-1.50111000E+03	 0.00000000E+00
	-7.13014000E+02	-1.46041000E+03	 0.00000000E+00
	 7.13014000E+02	-1.46041000E+03	 0.00000000E+00
	-2.82365000E+02	-1.70655000E+03	 0.00000000E+00
	 5.76986000E+01	-1.72863000E+03	 0.00000000E+00
	 2.82663000E+02	-1.70761000E+03	 0.00000000E+00
	 3.00948000E+02	-1.59054000E+03	 0.00000000E+00
	-5.55222000E+02	-1.59027000E+03	 0.00000000E+00
	-4.07099000E+02	-1.59026000E+03	 0.00000000E+00
	-4.62417000E+02	-1.62390000E+03	 0.00000000E+00
	-3.00340000E+02	-1.58971000E+03	 0.00000000E+00
	 4.07077000E+02	-1.58988000E+03	 0.00000000E+00
	-1.70696000E+02	-1.59084000E+03	 0.00000000E+00
	 6.53072000E+01	-1.59082000E+03	 0.00000000E+00
	-6.53995000E+01	-1.59000000E+03	 0.00000000E+00
	 1.70601000E+02	-1.59000000E+03	 0.00000000E+00
	 4.62344000E+02	-1.62360000E+03	 0.00000000E+00
	 5.24726000E+02	-1.64827000E+03	 0.00000000E+00
	 6.84326000E+01	-1.54772000E+03	 0.00000000E+00
	-1.67574000E+02	-1.54773000E+03	 0.00000000E+00
	 3.04426000E+02	-1.54773000E+03	 0.00000000E+00
	-4.02449000E+02	-1.54723000E+03	 0.00000000E+00
	 7.21180000E+02	-1.37704000E+03	 0.00000000E+00
	 4.02456000E+02	-1.54723000E+03	 0.00000000E+00
	 3.58362000E+02	-1.67537000E+03	 0.00000000E+00
	-6.88333000E+01	-1.54768000E+03	 0.00000000E+00
	-3.04833000E+02	-1.54768000E+03	 0.00000000E+00
	 1.67167000E+02	-1.54768000E+03	 0.00000000E+00
	-7.61328000E+02	-1.49627000E+03	 0.00000000E+00
	-7.58474000E+02	-1.50122000E+03	 0.00000000E+00
	 3.55618000E+02	-1.69252000E+03	 0.00000000E+00
	-3.57063000E+02	-1.69282000E+03	 0.00000000E+00
	-1.47336000E+02	-1.56003000E+03	 0.00000000E+00
	-4.34925000E+02	-1.64165000E+03	 0.00000000E+00
	-2.46058000E+02	-1.62381000E+03	 0.00000000E+00
	 2.46075000E+02	-1.62400000E+03	 0.00000000E+00
	 5.40685000E+02	-1.54751000E+03	 0.00000000E+00
	-5.40685000E+02	-1.54751000E+03	 0.00000000E+00
	-2.94113000E+02	-1.66517000E+03	 0.00000000E+00
	 2.95057000E+02	-1.66530000E+03	 0.00000000E+00
	-4.64866000E+02	-1.66606000E+03	 0.00000000E+00
	 4.64866000E+02	-1.66606000E+03	 0.00000000E+00
	 2.21571000E+02	-1.68412000E+03	 0.00000000E+00
	 4.93372000E+02	-1.61960000E+03	 0.00000000E+00
	-4.94371000E+02	-1.61956000E+03	 0.00000000E+00
	 6.36931000E+01	-1.70662000E+03	 0.00000000E+00
	-7.93756000E+02	-1.47104000E+03	 0.00000000E+00
	-7.49463000E+02	-1.43752000E+03	 0.00000000E+00
	 7.49463000E+02	-1.43752000E+03	 0.00000000E+00
	 4.80032000E+02	-1.66234000E+03	 0.00000000E+00
	-4.80032000E+02	-1.66234000E+03	 0.00000000E+00
	-1.97568000E+02	-1.57272000E+03	 0.00000000E+00
	 3.84576000E+01	-1.57299000E+03	 0.00000000E+00
	-4.34040000E+02	-1.57266000E+03	 0.00000000E+00
	 2.74441000E+02	-1.57300000E+03	 0.00000000E+00
	 4.34280000E+02	-1.57177000E+03	 0.00000000E+00
	-2.73564000E+02	-1.57246000E+03	 0.00000000E+00
	-3.75638000E+01	-1.57246000E+03	 0.00000000E+00
	 1.98436000E+02	-1.57246000E+03	 0.00000000E+00
	 4.63748000E+01	-1.72934000E+03	 0.00000000E+00
	 5.40257000E+02	-1.62775000E+03	 0.00000000E+00
	-4.68855000E+01	-1.72909000E+03	 0.00000000E+00
	 3.37534000E+02	-1.65776000E+03	 0.00000000E+00
	-3.37188000E+02	-1.65814000E+03	 0.00000000E+00
	-7.26943000E+02	-1.51607000E+03	 0.00000000E+00
	 2.45774000E+02	-1.51381000E+03	 0.00000000E+00
	-2.26226000E+02	-1.51381000E+03	 0.00000000E+00
	-4.81573000E+02	-1.51324000E+03	 0.00000000E+00
	-9.83335000E+00	-1.51362000E+03	 0.00000000E+00
	-3.70183000E+02	-1.65804000E+03	 0.00000000E+00
	 3.69508000E+02	-1.65771000E+03	 0.00000000E+00
	-3.05615000E+02	-1.70296000E+03	 0.00000000E+00
	 3.05083000E+02	-1.70324000E+03	 0.00000000E+00
	 8.36731000E+01	-1.55610000E+03	 0.00000000E+00
	 3.19658000E+02	-1.55612000E+03	 0.00000000E+00
	-5.40257000E+02	-1.62775000E+03	 0.00000000E+00
	-3.88203000E+02	-1.55601000E+03	 0.00000000E+00
	-1.52342000E+02	-1.55612000E+03	 0.00000000E+00
	 1.53137000E+02	-1.55511000E+03	 0.00000000E+00
	-8.28626000E+01	-1.55511000E+03	 0.00000000E+00
	-3.18863000E+02	-1.55511000E+03	 0.00000000E+00
	 3.87639000E+02	-1.55571000E+03	 0.00000000E+00
	-4.82017000E+02	-1.62385000E+03	 0.00000000E+00
	 4.81792000E+02	-1.62407000E+03	 0.00000000E+00
	 5.07352000E+02	-1.56717000E+03	 0.00000000E+00
	-1.77121000E+02	-1.59179000E+03	 0.00000000E+00
	-5.07352000E+02	-1.56717000E+03	 0.00000000E+00
	-3.39831000E+02	-1.69626000E+03	 0.00000000E+00
	 3.39676000E+02	-1.69702000E+03	 0.00000000E+00
	 2.33803000E+02	-1.54495000E+03	 0.00000000E+00
	-6.02655000E+01	-1.59107000E+03	 0.00000000E+00
	 4.75294000E+02	-1.54565000E+03	 0.00000000E+00
	-4.68688000E+02	-1.54622000E+03	 0.00000000E+00
	 3.12969000E+00	-1.54592000E+03	 0.00000000E+00
	 5.08365000E+02	-1.65358000E+03	 0.00000000E+00
	-5.08365000E+02	-1.65358000E+03	 0.00000000E+00
	-5.73979000E+01	-1.72944000E+03	 0.00000000E+00
	 4.17438000E+02	-1.53875000E+03	 0.00000000E+00
	-1.82170000E+02	-1.53960000E+03	 0.00000000E+00
	 2.89830000E+02	-1.53960000E+03	 0.00000000E+00
	-4.17440000E+02	-1.53875000E+03	 0.00000000E+00
	 5.38428000E+01	-1.53958000E+03	 0.00000000E+00
	-5.42647000E+01	-1.53887000E+03	 0.00000000E+00
	 1.81735000E+02	-1.53887000E+03	 0.00000000E+00
	-2.90265000E+02	-1.53887000E+03	 0.00000000E+00
	 7.12991000E+02	-1.43164000E+03	 0.00000000E+00
	-7.12994000E+02	-1.43164000E+03	 0.00000000E+00
	 3.22531000E+02	-1.70025000E+03	 0.00000000E+00
	-3.21955000E+02	-1.70006000E+03	 0.00000000E+00
	-2.00122000E+02	-1.63530000E+03	 0.00000000E+00
	 3.93426000E+01	-1.67857000E+03	 0.00000000E+00
	-3.93426000E+01	-1.67857000E+03	 0.00000000E+00
	-7.12827000E+02	-1.38102000E+03	 0.00000000E+00
	 7.12841000E+02	-1.38102000E+03	 0.00000000E+00
	-3.42238000E+02	-1.60430000E+03	 0.00000000E+00
	 1.29762000E+02	-1.60430000E+03	 0.00000000E+00
	 3.65754000E+02	-1.60422000E+03	 0.00000000E+00
	-1.06010000E+02	-1.60401000E+03	 0.00000000E+00
	 3.87414000E+02	-1.59006000E+03	 0.00000000E+00
	-3.20305000E+02	-1.59002000E+03	 0.00000000E+00
	 1.51695000E+02	-1.59002000E+03	 0.00000000E+00
	-8.43052000E+01	-1.59002000E+03	 0.00000000E+00
	-3.10930000E+01	-1.56136000E+03	 0.00000000E+00
	 3.19971000E+02	-1.59061000E+03	 0.00000000E+00
	-3.87560000E+02	-1.59008000E+03	 0.00000000E+00
	 8.39781000E+01	-1.59059000E+03	 0.00000000E+00
	-1.52029000E+02	-1.59061000E+03	 0.00000000E+00
	-3.07804000E+02	-1.66895000E+03	 0.00000000E+00
	 3.08053000E+02	-1.66859000E+03	 0.00000000E+00
	 2.73835000E+01	-1.70208000E+03	 0.00000000E+00
	-2.71140000E+01	-1.70100000E+03	 0.00000000E+00
	-5.16041000E+02	-1.53323000E+03	 0.00000000E+00
	 5.16040000E+02	-1.53323000E+03	 0.00000000E+00
	 3.38098000E+02	-1.60003000E+03	 0.00000000E+00
	-3.70153000E+02	-1.59960000E+03	 0.00000000E+00
	 1.02096000E+02	-1.60002000E+03	 0.00000000E+00
	-1.33902000E+02	-1.60003000E+03	 0.00000000E+00
	 4.62208000E+02	-1.54673000E+03	 0.00000000E+00
	-2.26212000E+02	-1.54674000E+03	 0.00000000E+00
	 2.45884000E+02	-1.54571000E+03	 0.00000000E+00
	-4.81705000E+02	-1.54693000E+03	 0.00000000E+00
	-9.63576000E+00	-1.54666000E+03	 0.00000000E+00
	 3.27434000E+02	-1.66574000E+03	 0.00000000E+00
	-8.06325000E+02	-1.49649000E+03	 0.00000000E+00
	-8.03747000E+02	-1.50116000E+03	 0.00000000E+00
	-8.00982000E+02	-1.49638000E+03	 0.00000000E+00
	-7.98241000E+02	-1.50117000E+03	 0.00000000E+00
	-7.95442000E+02	-1.49633000E+03	 0.00000000E+00
	-7.92637000E+02	-1.50119000E+03	 0.00000000E+00
	-7.89818000E+02	-1.49630000E+03	 0.00000000E+00
	-7.86989000E+02	-1.50121000E+03	 0.00000000E+00
	-7.84151000E+02	-1.49629000E+03	 0.00000000E+00
	-7.81306000E+02	-1.50122000E+03	 0.00000000E+00
	-7.78457000E+02	-1.49628000E+03	 0.00000000E+00
	-7.75601000E+02	-1.50122000E+03	 0.00000000E+00
	-7.72748000E+02	-1.49627000E+03	 0.00000000E+00
	-7.69891000E+02	-1.50122000E+03	 0.00000000E+00
	-7.67037000E+02	-1.49627000E+03	 0.00000000E+00
	-7.64181000E+02	-1.50122000E+03	 0.00000000E+00
	-7.55622000E+02	-1.49628000E+03	 0.00000000E+00
	-7.52770000E+02	-1.50122000E+03	 0.00000000E+00
	-7.81321000E+02	-1.49148000E+03	 0.00000000E+00
	 6.37769000E+02	-1.58043000E+03	 0.00000000E+00
	 7.81091000E+02	-1.49160000E+03	 0.00000000E+00
	-7.55623000E+02	-1.50616000E+03	 0.00000000E+00
	-7.49910000E+02	-1.50615000E+03	 0.00000000E+00
	-7.52769000E+02	-1.51110000E+03	 0.00000000E+00
	-7.47049000E+02	-1.51110000E+03	 0.00000000E+00
	-7.49917000E+02	-1.49628000E+03	 0.00000000E+00
	-7.49913000E+02	-1.51605000E+03	 0.00000000E+00
	-7.44186000E+02	-1.51605000E+03	 0.00000000E+00
	-7.52840000E+02	-1.49129000E+03	 0.00000000E+00
	-7.72693000E+02	-1.50606000E+03	 0.00000000E+00
	-7.47073000E+02	-1.49133000E+03	 0.00000000E+00
	-7.47054000E+02	-1.52099000E+03	 0.00000000E+00
	-7.41320000E+02	-1.52101000E+03	 0.00000000E+00
	-7.50001000E+02	-1.48634000E+03	 0.00000000E+00
	-7.52725000E+02	-1.52096000E+03	 0.00000000E+00
	-7.44184000E+02	-1.52595000E+03	 0.00000000E+00
	-7.38456000E+02	-1.52598000E+03	 0.00000000E+00
	-7.44202000E+02	-1.48639000E+03	 0.00000000E+00
	-7.47076000E+02	-1.48143000E+03	 0.00000000E+00
	 8.06326000E+02	-1.49649000E+03	 0.00000000E+00
	 8.03748000E+02	-1.50116000E+03	 0.00000000E+00
	 8.01040000E+02	-1.49636000E+03	 0.00000000E+00
	 7.98234000E+02	-1.50117000E+03	 0.00000000E+00
	 7.95450000E+02	-1.49639000E+03	 0.00000000E+00
	 7.92637000E+02	-1.50120000E+03	 0.00000000E+00
	 7.89834000E+02	-1.49631000E+03	 0.00000000E+00
	 7.86991000E+02	-1.50121000E+03	 0.00000000E+00
	 7.84154000E+02	-1.49629000E+03	 0.00000000E+00
	 7.81307000E+02	-1.50122000E+03	 0.00000000E+00
	 7.78458000E+02	-1.49628000E+03	 0.00000000E+00
	 7.75602000E+02	-1.50122000E+03	 0.00000000E+00
	 7.72748000E+02	-1.49627000E+03	 0.00000000E+00
	 7.69891000E+02	-1.50122000E+03	 0.00000000E+00
	 7.67277000E+02	-1.49641000E+03	 0.00000000E+00
	 7.64221000E+02	-1.50124000E+03	 0.00000000E+00
	 7.61647000E+02	-1.49545000E+03	 0.00000000E+00
	 7.58534000E+02	-1.50108000E+03	 0.00000000E+00
	 7.55621000E+02	-1.49628000E+03	 0.00000000E+00
	 7.52787000E+02	-1.50120000E+03	 0.00000000E+00
	 7.55621000E+02	-1.50615000E+03	 0.00000000E+00
	 7.49925000E+02	-1.50616000E+03	 0.00000000E+00
	 7.52770000E+02	-1.51110000E+03	 0.00000000E+00
	 7.47058000E+02	-1.51110000E+03	 0.00000000E+00
	 7.49915000E+02	-1.49630000E+03	 0.00000000E+00
	 7.49915000E+02	-1.51605000E+03	 0.00000000E+00
	 7.44195000E+02	-1.51605000E+03	 0.00000000E+00
	 7.52674000E+02	-1.49139000E+03	 0.00000000E+00
	 7.72694000E+02	-1.50606000E+03	 0.00000000E+00
	 7.47062000E+02	-1.49134000E+03	 0.00000000E+00
	 7.47056000E+02	-1.52099000E+03	 0.00000000E+00
	 7.41328000E+02	-1.52101000E+03	 0.00000000E+00
	 7.49903000E+02	-1.48640000E+03	 0.00000000E+00
	 7.52725000E+02	-1.52096000E+03	 0.00000000E+00
	 7.44186000E+02	-1.52595000E+03	 0.00000000E+00
	 7.38458000E+02	-1.52598000E+03	 0.00000000E+00
	 7.44199000E+02	-1.48639000E+03	 0.00000000E+00
	 7.47060000E+02	-1.48144000E+03	 0.00000000E+00
	-7.41137000E+02	-1.41434000E+03	 0.00000000E+00
	-4.45113000E+02	-1.55602000E+03	 0.00000000E+00
	-2.08851000E+02	-1.55634000E+03	 0.00000000E+00
	 2.63149000E+02	-1.55634000E+03	 0.00000000E+00
	 2.70445000E+01	-1.55621000E+03	 0.00000000E+00
	-2.73285000E+01	-1.55688000E+03	 0.00000000E+00
	 2.08283000E+02	-1.55601000E+03	 0.00000000E+00
	 4.44958000E+02	-1.55556000E+03	 0.00000000E+00
	-1.13267000E+02	-1.57323000E+03	 0.00000000E+00
	 3.58921000E+02	-1.57324000E+03	 0.00000000E+00
	-3.49267000E+02	-1.57323000E+03	 0.00000000E+00
	 1.22733000E+02	-1.57323000E+03	 0.00000000E+00
	 3.05987000E+01	-1.52494000E+03	 0.00000000E+00
	 5.01270000E+02	-1.52466000E+03	 0.00000000E+00
	-4.41954000E+02	-1.52461000E+03	 0.00000000E+00
	 2.05735000E+02	-1.52501000E+03	 0.00000000E+00
	-2.66265000E+02	-1.52501000E+03	 0.00000000E+00
	 7.12752000E+02	-1.39775000E+03	 0.00000000E+00
	-7.12752000E+02	-1.39775000E+03	 0.00000000E+00
	 7.95476000E+02	-1.50604000E+03	 0.00000000E+00
	-7.41318000E+02	-1.53094000E+03	 0.00000000E+00
	 7.41320000E+02	-1.53094000E+03	 0.00000000E+00
	 7.35578000E+02	-1.53095000E+03	 0.00000000E+00
	-7.38455000E+02	-1.53591000E+03	 0.00000000E+00
	-7.32708000E+02	-1.53592000E+03	 0.00000000E+00
	-7.29835000E+02	-1.53095000E+03	 0.00000000E+00
	-7.26962000E+02	-1.53591000E+03	 0.00000000E+00
	 7.38455000E+02	-1.53591000E+03	 0.00000000E+00
	 7.32708000E+02	-1.53592000E+03	 0.00000000E+00
	 7.29831000E+02	-1.53095000E+03	 0.00000000E+00
	 7.26962000E+02	-1.53591000E+03	 0.00000000E+00
	-4.46339000E+02	-1.67081000E+03	 0.00000000E+00
	 7.44117000E+02	-1.42657000E+03	 0.00000000E+00
	-7.44215000E+02	-1.42655000E+03	 0.00000000E+00
	 4.86492000E+02	-1.51609000E+03	 0.00000000E+00
	-4.56891000E+02	-1.51612000E+03	 0.00000000E+00
	 1.47500000E+01	-1.51646000E+03	 0.00000000E+00
	 2.20934000E+02	-1.51691000E+03	 0.00000000E+00
	-2.51066000E+02	-1.51691000E+03	 0.00000000E+00
	 2.71703000E+02	-1.63572000E+03	 0.00000000E+00
	 7.41288000E+02	-1.51111000E+03	 0.00000000E+00
	-7.41327000E+02	-1.51110000E+03	 0.00000000E+00
	-3.73995000E+02	-1.68930000E+03	 0.00000000E+00
	 3.74328000E+02	-1.68874000E+03	 0.00000000E+00
	-3.63339000E+02	-1.57001000E+03	 0.00000000E+00
	 3.44604000E+02	-1.57031000E+03	 0.00000000E+00
	 1.08613000E+02	-1.57030000E+03	 0.00000000E+00
	-1.27396000E+02	-1.57031000E+03	 0.00000000E+00
	 7.44857000E+02	-1.37751000E+03	 0.00000000E+00
	-7.44929000E+02	-1.37721000E+03	 0.00000000E+00
	-7.41325000E+02	-1.48144000E+03	 0.00000000E+00
	-7.44202000E+02	-1.47647000E+03	 0.00000000E+00
	 7.38474000E+02	-1.47647000E+03	 0.00000000E+00
	 7.41338000E+02	-1.48143000E+03	 0.00000000E+00
	 7.44202000E+02	-1.47647000E+03	 0.00000000E+00
	 7.24091000E+02	-1.53095000E+03	 0.00000000E+00
	 7.21220000E+02	-1.53592000E+03	 0.00000000E+00
	-7.24093000E+02	-1.53095000E+03	 0.00000000E+00
	-7.21221000E+02	-1.53592000E+03	 0.00000000E+00
	-2.01583000E+02	-1.52781000E+03	 0.00000000E+00
	 2.70417000E+02	-1.52781000E+03	 0.00000000E+00
	-3.48032000E+01	-1.52757000E+03	 0.00000000E+00
	 4.37504000E+02	-1.52774000E+03	 0.00000000E+00
	-4.93551000E+02	-1.55190000E+03	 0.00000000E+00
	 7.41411000E+02	-1.38957000E+03	 0.00000000E+00
	-7.41411000E+02	-1.38957000E+03	 0.00000000E+00
	-7.41279000E+02	-1.49135000E+03	 0.00000000E+00
	 7.18353000E+02	-1.53095000E+03	 0.00000000E+00
	 7.15482000E+02	-1.53591000E+03	 0.00000000E+00
	 7.18347000E+02	-1.54089000E+03	 0.00000000E+00
	 7.12602000E+02	-1.54088000E+03	 0.00000000E+00
	 7.15473000E+02	-1.54586000E+03	 0.00000000E+00
	 7.09726000E+02	-1.54586000E+03	 0.00000000E+00
	 7.06857000E+02	-1.54088000E+03	 0.00000000E+00
	 7.03980000E+02	-1.54585000E+03	 0.00000000E+00
	-7.18353000E+02	-1.53095000E+03	 0.00000000E+00
	-7.15482000E+02	-1.53591000E+03	 0.00000000E+00
	-7.18347000E+02	-1.54089000E+03	 0.00000000E+00
	-7.12602000E+02	-1.54088000E+03	 0.00000000E+00
	-7.15473000E+02	-1.54586000E+03	 0.00000000E+00
	-7.09726000E+02	-1.54586000E+03	 0.00000000E+00
	-7.06857000E+02	-1.54088000E+03	 0.00000000E+00
	-7.03980000E+02	-1.54585000E+03	 0.00000000E+00
	 4.93380000E+02	-1.55223000E+03	 0.00000000E+00
	 3.73326000E+02	-1.56413000E+03	 0.00000000E+00
	-3.34333000E+02	-1.56471000E+03	 0.00000000E+00
	-9.83333000E+01	-1.56471000E+03	 0.00000000E+00
	 1.37667000E+02	-1.56471000E+03	 0.00000000E+00
	 7.52361000E+02	-1.48151000E+03	 0.00000000E+00
	-7.52786000E+02	-1.48144000E+03	 0.00000000E+00
	-5.01270000E+02	-1.52466000E+03	 0.00000000E+00
	-7.38473000E+02	-1.47647000E+03	 0.00000000E+00
	 7.41339000E+02	-1.47151000E+03	 0.00000000E+00
	 7.69938000E+02	-1.49123000E+03	 0.00000000E+00
	-7.69906000E+02	-1.49153000E+03	 0.00000000E+00
	-7.35606000E+02	-1.54087000E+03	 0.00000000E+00
	 7.35606000E+02	-1.54087000E+03	 0.00000000E+00
	-2.92103000E+01	-1.73055000E+03	 0.00000000E+00
	 2.94713000E+01	-1.72927000E+03	 0.00000000E+00
	 7.12648000E+02	-1.41455000E+03	 0.00000000E+00
	-7.12648000E+02	-1.41455000E+03	 0.00000000E+00
	-5.50255000E+02	-1.61044000E+03	 0.00000000E+00
	-7.22864000E+02	-1.36307000E+03	 0.00000000E+00
	-7.92351000E+01	-1.70945000E+03	 0.00000000E+00
	 7.22870000E+02	-1.36306000E+03	 0.00000000E+00
	-9.61033000E+01	-1.59495000E+03	 0.00000000E+00
	-3.32103000E+02	-1.59495000E+03	 0.00000000E+00
	 3.76063000E+02	-1.59457000E+03	 0.00000000E+00
	 1.39897000E+02	-1.59495000E+03	 0.00000000E+00
	 7.40137000E+02	-1.40228000E+03	 0.00000000E+00
	-4.01127000E+02	-1.58885000E+03	 0.00000000E+00
	-7.40137000E+02	-1.40228000E+03	 0.00000000E+00
	 7.01116000E+02	-1.54087000E+03	 0.00000000E+00
	 6.98239000E+02	-1.54584000E+03	 0.00000000E+00
	 7.01102000E+02	-1.55081000E+03	 0.00000000E+00
	 6.95358000E+02	-1.55081000E+03	 0.00000000E+00
	 6.92479000E+02	-1.54584000E+03	 0.00000000E+00
	 6.89598000E+02	-1.55080000E+03	 0.00000000E+00
	 6.92472000E+02	-1.55577000E+03	 0.00000000E+00
	 6.86727000E+02	-1.55576000E+03	 0.00000000E+00
	-7.01120000E+02	-1.54087000E+03	 0.00000000E+00
	-6.98241000E+02	-1.54584000E+03	 0.00000000E+00
	-7.01102000E+02	-1.55081000E+03	 0.00000000E+00
	-6.95359000E+02	-1.55081000E+03	 0.00000000E+00
	-6.92509000E+02	-1.54583000E+03	 0.00000000E+00
	-6.89619000E+02	-1.55079000E+03	 0.00000000E+00
	-6.92476000E+02	-1.55577000E+03	 0.00000000E+00
	-6.86731000E+02	-1.55576000E+03	 0.00000000E+00
	-4.56020000E+02	-1.54910000E+03	 0.00000000E+00
	-2.52023000E+02	-1.54888000E+03	 0.00000000E+00
	 2.19977000E+02	-1.54888000E+03	 0.00000000E+00
	 1.56317000E+01	-1.54910000E+03	 0.00000000E+00
	 1.30139000E+02	-1.65333000E+03	 0.00000000E+00
	-1.06276000E+02	-1.65320000E+03	 0.00000000E+00
	-8.08002000E+02	-1.53002000E+03	 0.00000000E+00
	 8.08002000E+02	-1.53002000E+03	 0.00000000E+00
	 6.83848000E+02	-1.55078000E+03	 0.00000000E+00
	 6.80987000E+02	-1.55574000E+03	 0.00000000E+00
	 6.83842000E+02	-1.56073000E+03	 0.00000000E+00
	 6.78096000E+02	-1.56071000E+03	 0.00000000E+00
	 6.75243000E+02	-1.55573000E+03	 0.00000000E+00
	 6.72348000E+02	-1.56069000E+03	 0.00000000E+00
	 6.75204000E+02	-1.56568000E+03	 0.00000000E+00
	 6.69452000E+02	-1.56566000E+03	 0.00000000E+00
	 6.72310000E+02	-1.57065000E+03	 0.00000000E+00
	 6.66557000E+02	-1.57062000E+03	 0.00000000E+00
	 6.63701000E+02	-1.56563000E+03	 0.00000000E+00
	 6.60806000E+02	-1.57060000E+03	 0.00000000E+00
	 6.57957000E+02	-1.56561000E+03	 0.00000000E+00
	 6.55060000E+02	-1.57057000E+03	 0.00000000E+00
	-6.83883000E+02	-1.55078000E+03	 0.00000000E+00
	-6.80988000E+02	-1.55574000E+03	 0.00000000E+00
	-6.83842000E+02	-1.56073000E+03	 0.00000000E+00
	-6.78096000E+02	-1.56071000E+03	 0.00000000E+00
	-6.75243000E+02	-1.55573000E+03	 0.00000000E+00
	-6.72348000E+02	-1.56069000E+03	 0.00000000E+00
	-6.75205000E+02	-1.56568000E+03	 0.00000000E+00
	-6.69452000E+02	-1.56566000E+03	 0.00000000E+00
	-6.72311000E+02	-1.57065000E+03	 0.00000000E+00
	-6.66557000E+02	-1.57062000E+03	 0.00000000E+00
	-6.63701000E+02	-1.56563000E+03	 0.00000000E+00
	-6.60806000E+02	-1.57060000E+03	 0.00000000E+00
	-6.57957000E+02	-1.56561000E+03	 0.00000000E+00
	-6.55060000E+02	-1.57057000E+03	 0.00000000E+00
	 6.52214000E+02	-1.56558000E+03	 0.00000000E+00
	 6.49317000E+02	-1.57054000E+03	 0.00000000E+00
	 6.52164000E+02	-1.57553000E+03	 0.00000000E+00
	 6.46418000E+02	-1.57550000E+03	 0.00000000E+00
	-6.52214000E+02	-1.56558000E+03	 0.00000000E+00
	-6.49317000E+02	-1.57054000E+03	 0.00000000E+00
	-6.52164000E+02	-1.57553000E+03	 0.00000000E+00
	-6.46418000E+02	-1.57550000E+03	 0.00000000E+00
	-2.19233000E+02	-1.62142000E+03	 0.00000000E+00
	 2.20576000E+02	-1.62194000E+03	 0.00000000E+00
	-5.87777000E+01	-1.66523000E+03	 0.00000000E+00
	 5.80276000E+01	-1.66513000E+03	 0.00000000E+00
	-7.35605000E+02	-1.47151000E+03	 0.00000000E+00
	-7.38473000E+02	-1.46654000E+03	 0.00000000E+00
	 7.35603000E+02	-1.47151000E+03	 0.00000000E+00
	 7.38473000E+02	-1.46654000E+03	 0.00000000E+00
	 7.21230000E+02	-1.52598000E+03	 0.00000000E+00
	-7.21228000E+02	-1.52598000E+03	 0.00000000E+00
	 4.28503000E+02	-1.65280000E+03	 0.00000000E+00
	-4.28523000E+02	-1.65305000E+03	 0.00000000E+00
	-7.44216000E+02	-1.53587000E+03	 0.00000000E+00
	 7.44217000E+02	-1.53588000E+03	 0.00000000E+00
	-6.49268000E+02	-1.58050000E+03	 0.00000000E+00
	-6.43517000E+02	-1.58047000E+03	 0.00000000E+00
	-6.40674000E+02	-1.57547000E+03	 0.00000000E+00
	-6.37769000E+02	-1.58043000E+03	 0.00000000E+00
	 6.49268000E+02	-1.58050000E+03	 0.00000000E+00
	 6.43517000E+02	-1.58047000E+03	 0.00000000E+00
	 6.40674000E+02	-1.57547000E+03	 0.00000000E+00
	 3.49585000E+02	-1.63519000E+03	 0.00000000E+00
	 4.34252000E+02	-1.61532000E+03	 0.00000000E+00
	-4.34238000E+02	-1.61597000E+03	 0.00000000E+00
	-2.73836000E+02	-1.59833000E+03	 0.00000000E+00
	 4.33690000E+02	-1.59753000E+03	 0.00000000E+00
	 3.69637000E+01	-1.61577000E+03	 0.00000000E+00
	-7.03989000E+02	-1.53591000E+03	 0.00000000E+00
	 7.03989000E+02	-1.53591000E+03	 0.00000000E+00
	 7.35566000E+02	-1.48145000E+03	 0.00000000E+00
	-7.35551000E+02	-1.48145000E+03	 0.00000000E+00
	 7.12596000E+02	-1.55084000E+03	 0.00000000E+00
	-7.12596000E+02	-1.55084000E+03	 0.00000000E+00
	-7.84169000E+02	-1.50610000E+03	 0.00000000E+00
	-6.78262000E+02	-1.52480000E+03	 0.00000000E+00
	-6.58853000E+02	-1.53681000E+03	 0.00000000E+00
	 6.78279000E+02	-1.52479000E+03	 0.00000000E+00
	 5.30820000E+02	-1.54179000E+03	 0.00000000E+00
	-5.30820000E+02	-1.54179000E+03	 0.00000000E+00
	 6.58853000E+02	-1.53681000E+03	 0.00000000E+00
	-2.79345000E+02	-1.53312000E+03	 0.00000000E+00
	-4.41895000E+01	-1.53362000E+03	 0.00000000E+00
	-1.91920000E+02	-1.53344000E+03	 0.00000000E+00
	-4.27665000E+02	-1.53341000E+03	 0.00000000E+00
	 1.92655000E+02	-1.53312000E+03	 0.00000000E+00
	 4.27750000E+02	-1.53349000E+03	 0.00000000E+00
	 4.40907000E+01	-1.53343000E+03	 0.00000000E+00
	-3.77980000E+02	-1.56136000E+03	 0.00000000E+00
	 9.40764000E+01	-1.56083000E+03	 0.00000000E+00
	 3.30069000E+02	-1.56085000E+03	 0.00000000E+00
	-1.41931000E+02	-1.56085000E+03	 0.00000000E+00
	-2.16673000E+02	-1.51936000E+03	 0.00000000E+00
	 2.55327000E+02	-1.51936000E+03	 0.00000000E+00
	 4.51956000E+02	-1.51895000E+03	 0.00000000E+00
	-2.88093000E+02	-1.56630000E+03	 0.00000000E+00
	-1.94058000E+01	-1.51891000E+03	 0.00000000E+00
	-5.20932000E+01	-1.56630000E+03	 0.00000000E+00
	-7.12843000E+02	-1.44841000E+03	 0.00000000E+00
	 1.83907000E+02	-1.56630000E+03	 0.00000000E+00
	 7.12845000E+02	-1.44841000E+03	 0.00000000E+00
	-6.29119000E+02	-1.58610000E+03	 0.00000000E+00
	 2.80080000E+02	-1.53344000E+03	 0.00000000E+00
	 5.70392000E+02	-1.62207000E+03	 0.00000000E+00
	-4.91421000E+02	-1.51895000E+03	 0.00000000E+00
	-5.90004000E+02	-1.57608000E+03	 0.00000000E+00
	-5.85075000E+02	-1.57892000E+03	 0.00000000E+00
	-5.90010000E+02	-1.58177000E+03	 0.00000000E+00
	-5.85070000E+02	-1.58463000E+03	 0.00000000E+00
	-5.90016000E+02	-1.58748000E+03	 0.00000000E+00
	-5.85075000E+02	-1.59033000E+03	 0.00000000E+00
	-5.80103000E+02	-1.58744000E+03	 0.00000000E+00
	-5.80151000E+02	-1.59318000E+03	 0.00000000E+00
	-5.75141000E+02	-1.59029000E+03	 0.00000000E+00
	-5.75187000E+02	-1.59605000E+03	 0.00000000E+00
	-5.70175000E+02	-1.59316000E+03	 0.00000000E+00
	-5.70186000E+02	-1.59892000E+03	 0.00000000E+00
	-5.65195000E+02	-1.59603000E+03	 0.00000000E+00
	-5.65221000E+02	-1.60179000E+03	 0.00000000E+00
	-5.60228000E+02	-1.59892000E+03	 0.00000000E+00
	-5.60195000E+02	-1.59313000E+03	 0.00000000E+00
	-5.55248000E+02	-1.59604000E+03	 0.00000000E+00
	-5.55242000E+02	-1.60179000E+03	 0.00000000E+00
	-5.50264000E+02	-1.59891000E+03	 0.00000000E+00
	-5.50275000E+02	-1.59315000E+03	 0.00000000E+00
	-5.50253000E+02	-1.60467000E+03	 0.00000000E+00
	-5.45267000E+02	-1.60178000E+03	 0.00000000E+00
	-5.45259000E+02	-1.60754000E+03	 0.00000000E+00
	-5.40270000E+02	-1.60465000E+03	 0.00000000E+00
	-5.40259000E+02	-1.61042000E+03	 0.00000000E+00
	-5.90020000E+02	-1.59320000E+03	 0.00000000E+00
	-5.94978000E+02	-1.59033000E+03	 0.00000000E+00
	-5.45254000E+02	-1.61331000E+03	 0.00000000E+00
	-5.40249000E+02	-1.61620000E+03	 0.00000000E+00
	-5.35251000E+02	-1.61330000E+03	 0.00000000E+00
	-5.35240000E+02	-1.61908000E+03	 0.00000000E+00
	-5.75246000E+02	-1.60180000E+03	 0.00000000E+00
	-5.30236000E+02	-1.61618000E+03	 0.00000000E+00
	-5.30226000E+02	-1.62197000E+03	 0.00000000E+00
	-5.94993000E+02	-1.59605000E+03	 0.00000000E+00
	-5.99954000E+02	-1.59318000E+03	 0.00000000E+00
	-5.25220000E+02	-1.61906000E+03	 0.00000000E+00
	-5.25209000E+02	-1.62485000E+03	 0.00000000E+00
	-5.20200000E+02	-1.62195000E+03	 0.00000000E+00
	-5.20190000E+02	-1.62774000E+03	 0.00000000E+00
	-5.45250000E+02	-1.61909000E+03	 0.00000000E+00
	-5.40279000E+02	-1.59889000E+03	 0.00000000E+00
	-5.30258000E+02	-1.61040000E+03	 0.00000000E+00
	-5.55238000E+02	-1.60755000E+03	 0.00000000E+00
	 5.90004000E+02	-1.57608000E+03	 0.00000000E+00
	 5.85075000E+02	-1.57892000E+03	 0.00000000E+00
	 5.90010000E+02	-1.58177000E+03	 0.00000000E+00
	 5.85070000E+02	-1.58463000E+03	 0.00000000E+00
	 5.90016000E+02	-1.58748000E+03	 0.00000000E+00
	 5.85075000E+02	-1.59033000E+03	 0.00000000E+00
	 5.80103000E+02	-1.58744000E+03	 0.00000000E+00
	 5.80151000E+02	-1.59318000E+03	 0.00000000E+00
	 5.75141000E+02	-1.59029000E+03	 0.00000000E+00
	 5.75187000E+02	-1.59605000E+03	 0.00000000E+00
	 5.70175000E+02	-1.59316000E+03	 0.00000000E+00
	 5.70186000E+02	-1.59892000E+03	 0.00000000E+00
	 5.65195000E+02	-1.59603000E+03	 0.00000000E+00
	 5.65221000E+02	-1.60179000E+03	 0.00000000E+00
	 5.60228000E+02	-1.59892000E+03	 0.00000000E+00
	 5.60195000E+02	-1.59313000E+03	 0.00000000E+00
	 5.55248000E+02	-1.59604000E+03	 0.00000000E+00
	 5.55242000E+02	-1.60179000E+03	 0.00000000E+00
	 5.50259000E+02	-1.59890000E+03	 0.00000000E+00
	 5.50275000E+02	-1.59315000E+03	 0.00000000E+00
	 5.50252000E+02	-1.60467000E+03	 0.00000000E+00
	 5.45264000E+02	-1.60177000E+03	 0.00000000E+00
	 5.45258000E+02	-1.60754000E+03	 0.00000000E+00
	 5.40269000E+02	-1.60465000E+03	 0.00000000E+00
	 5.40259000E+02	-1.61042000E+03	 0.00000000E+00
	 5.90020000E+02	-1.59320000E+03	 0.00000000E+00
	 5.94978000E+02	-1.59033000E+03	 0.00000000E+00
	 5.45254000E+02	-1.61331000E+03	 0.00000000E+00
	 5.40249000E+02	-1.61620000E+03	 0.00000000E+00
	 5.35251000E+02	-1.61330000E+03	 0.00000000E+00
	 5.35240000E+02	-1.61908000E+03	 0.00000000E+00
	 5.75246000E+02	-1.60180000E+03	 0.00000000E+00
	 5.30236000E+02	-1.61618000E+03	 0.00000000E+00
	 5.30226000E+02	-1.62197000E+03	 0.00000000E+00
	 5.94993000E+02	-1.59605000E+03	 0.00000000E+00
	 5.99954000E+02	-1.59318000E+03	 0.00000000E+00
	 5.25220000E+02	-1.61906000E+03	 0.00000000E+00
	 5.25209000E+02	-1.62485000E+03	 0.00000000E+00
	 5.20258000E+02	-1.62205000E+03	 0.00000000E+00
	 5.20200000E+02	-1.62776000E+03	 0.00000000E+00
	 5.45250000E+02	-1.61909000E+03	 0.00000000E+00
	 5.40277000E+02	-1.59888000E+03	 0.00000000E+00
	 5.30258000E+02	-1.61040000E+03	 0.00000000E+00
	 5.55238000E+02	-1.60755000E+03	 0.00000000E+00
	 3.53994000E+02	-1.57608000E+03	 0.00000000E+00
	 1.17962000E+02	-1.57608000E+03	 0.00000000E+00
	-1.18038000E+02	-1.57608000E+03	 0.00000000E+00
	-3.54038000E+02	-1.57608000E+03	 0.00000000E+00
	 5.70132000E+02	-1.58738000E+03	 0.00000000E+00
	-5.70132000E+02	-1.58738000E+03	 0.00000000E+00
	 5.74443000E+02	-1.63157000E+03	 0.00000000E+00
	-5.74443000E+02	-1.63157000E+03	 0.00000000E+00
	 6.18270000E+02	-1.61586000E+03	 0.00000000E+00
	-6.18270000E+02	-1.61586000E+03	 0.00000000E+00
	 4.61138000E+02	-1.54094000E+03	 0.00000000E+00
	-6.98382000E+02	-1.58273000E+03	 0.00000000E+00
	 6.98382000E+02	-1.58273000E+03	 0.00000000E+00
	-7.65682000E+02	-1.55074000E+03	 0.00000000E+00
	 7.65656000E+02	-1.55068000E+03	 0.00000000E+00
	 1.73620000E+01	-1.72989000E+03	 0.00000000E+00
	-1.73931000E+01	-1.72996000E+03	 0.00000000E+00
	 3.85477000E+02	-1.68642000E+03	 0.00000000E+00
	 6.96714000E+01	-1.72904000E+03	 0.00000000E+00
	-3.85015000E+02	-1.68652000E+03	 0.00000000E+00
	 4.92371000E+02	-1.65901000E+03	 0.00000000E+00
	-4.92370000E+02	-1.65901000E+03	 0.00000000E+00
	 2.93843000E+02	-1.70509000E+03	 0.00000000E+00
	-2.94237000E+02	-1.70476000E+03	 0.00000000E+00
	 2.08206000E+02	-1.71739000E+03	 0.00000000E+00
	-2.08241000E+02	-1.71766000E+03	 0.00000000E+00
	-2.54036000E+02	-1.71113000E+03	 0.00000000E+00
	 1.32476000E+02	-1.72512000E+03	 0.00000000E+00
	-1.32636000E+02	-1.72438000E+03	 0.00000000E+00
	-7.59637000E+01	-1.72877000E+03	 0.00000000E+00
	 7.53646000E+01	-1.72861000E+03	 0.00000000E+00
	 1.10982000E+02	-1.72666000E+03	 0.00000000E+00
	-1.09999000E+02	-1.72693000E+03	 0.00000000E+00
	-2.31128000E+02	-1.71434000E+03	 0.00000000E+00
	-8.14697000E+02	-1.51047000E+03	 0.00000000E+00
	 8.14697000E+02	-1.51047000E+03	 0.00000000E+00
	 2.31525000E+02	-1.71367000E+03	 0.00000000E+00
	 2.54193000E+02	-1.71135000E+03	 0.00000000E+00
	-2.74979000E+02	-1.58616000E+03	 0.00000000E+00
	 1.97021000E+02	-1.58616000E+03	 0.00000000E+00
	 4.32394000E+02	-1.58572000E+03	 0.00000000E+00
	-3.89793000E+01	-1.58616000E+03	 0.00000000E+00
	-1.95193000E+02	-1.58544000E+03	 0.00000000E+00
	 4.37087000E+02	-1.62870000E+03	 0.00000000E+00
	 3.49608000E+01	-1.62898000E+03	 0.00000000E+00
	-4.36890000E+02	-1.62878000E+03	 0.00000000E+00
	 2.76404000E+02	-1.58488000E+03	 0.00000000E+00
	-4.31898000E+02	-1.58476000E+03	 0.00000000E+00
	-3.48897000E+01	-1.62932000E+03	 0.00000000E+00
	 3.97386000E+01	-1.58514000E+03	 0.00000000E+00
	 6.34928000E+02	-1.57544000E+03	 0.00000000E+00
	 6.32026000E+02	-1.58040000E+03	 0.00000000E+00
	-6.34928000E+02	-1.57544000E+03	 0.00000000E+00
	-6.32026000E+02	-1.58040000E+03	 0.00000000E+00
	 6.60853000E+02	-1.56064000E+03	 0.00000000E+00
	-6.60849000E+02	-1.56064000E+03	 0.00000000E+00
	 5.99971000E+02	-1.59891000E+03	 0.00000000E+00
	 6.04932000E+02	-1.59605000E+03	 0.00000000E+00
	 5.95082000E+02	-1.60176000E+03	 0.00000000E+00
	 6.04924000E+02	-1.59031000E+03	 0.00000000E+00
	 6.09902000E+02	-1.59318000E+03	 0.00000000E+00
	 6.09893000E+02	-1.58743000E+03	 0.00000000E+00
	-5.99971000E+02	-1.59891000E+03	 0.00000000E+00
	-6.04932000E+02	-1.59605000E+03	 0.00000000E+00
	-5.95082000E+02	-1.60176000E+03	 0.00000000E+00
	-6.04924000E+02	-1.59031000E+03	 0.00000000E+00
	-6.09902000E+02	-1.59318000E+03	 0.00000000E+00
	-6.09893000E+02	-1.58743000E+03	 0.00000000E+00
	-7.12806000E+02	-1.48823000E+03	 0.00000000E+00
	 7.12804000E+02	-1.48821000E+03	 0.00000000E+00
	 7.47002000E+02	-1.47147000E+03	 0.00000000E+00
	-7.46891000E+02	-1.47162000E+03	 0.00000000E+00
	-8.03827000E+02	-1.49157000E+03	 0.00000000E+00
	 8.03385000E+02	-1.49191000E+03	 0.00000000E+00
	 3.81248000E+02	-1.66507000E+03	 0.00000000E+00
	-3.80244000E+02	-1.66534000E+03	 0.00000000E+00
	-6.35051000E+02	-1.58529000E+03	 0.00000000E+00
	 6.35051000E+02	-1.58529000E+03	 0.00000000E+00
	-3.49435000E+02	-1.57893000E+03	 0.00000000E+00
	-3.54081000E+02	-1.58178000E+03	 0.00000000E+00
	 3.58929000E+02	-1.57893000E+03	 0.00000000E+00
	 3.53985000E+02	-1.58178000E+03	 0.00000000E+00
	-1.13435000E+02	-1.57893000E+03	 0.00000000E+00
	-1.18081000E+02	-1.58178000E+03	 0.00000000E+00
	 1.22565000E+02	-1.57893000E+03	 0.00000000E+00
	 1.17919000E+02	-1.58178000E+03	 0.00000000E+00
	 6.98307000E+02	-1.51324000E+03	 0.00000000E+00
	-6.98297000E+02	-1.51326000E+03	 0.00000000E+00
	-3.61589000E+02	-1.64715000E+03	 0.00000000E+00
	 3.45814000E+02	-1.64724000E+03	 0.00000000E+00
	-7.18874000E+02	-1.57360000E+03	 0.00000000E+00
	 7.18874000E+02	-1.57360000E+03	 0.00000000E+00
	-7.40634000E+02	-1.56379000E+03	 0.00000000E+00
	 7.40634000E+02	-1.56379000E+03	 0.00000000E+00
	 5.98460000E+00	-1.73025000E+03	 0.00000000E+00
	-5.79798000E+00	-1.73009000E+03	 0.00000000E+00
	 7.32731000E+02	-1.35738000E+03	 0.00000000E+00
	-7.32824000E+02	-1.35733000E+03	 0.00000000E+00
	-5.15180000E+02	-1.62483000E+03	 0.00000000E+00
	-5.15169000E+02	-1.63063000E+03	 0.00000000E+00
	 5.15249000E+02	-1.62495000E+03	 0.00000000E+00
	 5.15182000E+02	-1.63065000E+03	 0.00000000E+00
	-4.31046000E+02	-1.67610000E+03	 0.00000000E+00
	 4.30426000E+02	-1.67521000E+03	 0.00000000E+00
	 6.38930000E+02	-1.54745000E+03	 0.00000000E+00
	 7.89827000E+02	-1.50605000E+03	 0.00000000E+00
	-6.38936000E+02	-1.54746000E+03	 0.00000000E+00
	-7.18352000E+02	-1.55085000E+03	 0.00000000E+00
	 7.18352000E+02	-1.55085000E+03	 0.00000000E+00
	-1.58402000E+01	-1.70814000E+03	 0.00000000E+00
	-6.77206000E+02	-1.59149000E+03	 0.00000000E+00
	 6.77206000E+02	-1.59149000E+03	 0.00000000E+00
	-2.17800000E+02	-1.65019000E+03	 0.00000000E+00
	-3.17533000E+01	-1.71200000E+03	 0.00000000E+00
	-2.81773000E+01	-1.71652000E+03	 0.00000000E+00
	-2.21447000E+02	-1.64569000E+03	 0.00000000E+00
	-2.15725000E+02	-1.64479000E+03	 0.00000000E+00
	-2.19372000E+02	-1.64029000E+03	 0.00000000E+00
	-2.12075000E+02	-1.64929000E+03	 0.00000000E+00
	-2.13653000E+02	-1.63939000E+03	 0.00000000E+00
	-2.17557000E+02	-1.63473000E+03	 0.00000000E+00
	-2.11631000E+02	-1.63396000E+03	 0.00000000E+00
	-2.22971000E+02	-1.63609000E+03	 0.00000000E+00
	-2.54180000E+02	-1.66102000E+03	 0.00000000E+00
	-1.73992000E+02	-1.70421000E+03	 0.00000000E+00
	-1.70338000E+02	-1.70872000E+03	 0.00000000E+00
	-1.76068000E+02	-1.70963000E+03	 0.00000000E+00
	-1.64619000E+02	-1.70780000E+03	 0.00000000E+00
	-1.89098000E+02	-1.70153000E+03	 0.00000000E+00
	-1.85445000E+02	-1.70604000E+03	 0.00000000E+00
	-1.91176000E+02	-1.70695000E+03	 0.00000000E+00
	-1.87523000E+02	-1.71146000E+03	 0.00000000E+00
	-8.13018000E+01	-1.71487000E+03	 0.00000000E+00
	-8.33901000E+01	-1.72028000E+03	 0.00000000E+00
	-2.65612000E+02	-1.66283000E+03	 0.00000000E+00
	-2.69254000E+02	-1.65833000E+03	 0.00000000E+00
	-5.01657000E+01	-1.68954000E+03	 0.00000000E+00
	-1.10094000E+02	-1.66358000E+03	 0.00000000E+00
	-2.71331000E+02	-1.66373000E+03	 0.00000000E+00
	-4.81928000E+01	-1.68414000E+03	 0.00000000E+00
	 6.63657000E+02	-1.57558000E+03	 0.00000000E+00
	 6.98260000E+02	-1.53590000E+03	 0.00000000E+00
	-6.98263000E+02	-1.53590000E+03	 0.00000000E+00
	 3.58934000E+02	-1.58464000E+03	 0.00000000E+00
	 3.63487000E+02	-1.58159000E+03	 0.00000000E+00
	 3.53681000E+02	-1.58754000E+03	 0.00000000E+00
	 3.48573000E+02	-1.58444000E+03	 0.00000000E+00
	-3.49137000E+02	-1.58464000E+03	 0.00000000E+00
	-3.44153000E+02	-1.58059000E+03	 0.00000000E+00
	-3.54045000E+02	-1.58750000E+03	 0.00000000E+00
	-3.58698000E+02	-1.58425000E+03	 0.00000000E+00
	-1.13137000E+02	-1.58464000E+03	 0.00000000E+00
	-1.08153000E+02	-1.58059000E+03	 0.00000000E+00
	-1.18342000E+02	-1.58754000E+03	 0.00000000E+00
	-1.23441000E+02	-1.58444000E+03	 0.00000000E+00
	 1.22863000E+02	-1.58464000E+03	 0.00000000E+00
	 1.27847000E+02	-1.58059000E+03	 0.00000000E+00
	 1.17670000E+02	-1.58752000E+03	 0.00000000E+00
	 1.12586000E+02	-1.58440000E+03	 0.00000000E+00
	 6.14875000E+02	-1.59030000E+03	 0.00000000E+00
	 6.14861000E+02	-1.58456000E+03	 0.00000000E+00
	-6.14875000E+02	-1.59030000E+03	 0.00000000E+00
	-6.14862000E+02	-1.58456000E+03	 0.00000000E+00
	-6.78069000E+02	-1.57067000E+03	 0.00000000E+00
	 6.78069000E+02	-1.57067000E+03	 0.00000000E+00
	-1.26000000E+02	-1.61039000E+03	 0.00000000E+00
	 1.09581000E+02	-1.60998000E+03	 0.00000000E+00
	-3.62419000E+02	-1.60998000E+03	 0.00000000E+00
	 3.45424000E+02	-1.60966000E+03	 0.00000000E+00
	 6.14883000E+02	-1.59605000E+03	 0.00000000E+00
	-6.14883000E+02	-1.59605000E+03	 0.00000000E+00
	-3.93805000E+02	-1.66843000E+03	 0.00000000E+00
	 3.94611000E+02	-1.66872000E+03	 0.00000000E+00
	 7.92677000E+02	-1.49135000E+03	 0.00000000E+00
	-7.92519000E+02	-1.49136000E+03	 0.00000000E+00
	 6.29350000E+02	-1.57532000E+03	 0.00000000E+00
	-6.29350000E+02	-1.57532000E+03	 0.00000000E+00
	 1.60282000E+01	-1.63558000E+03	 0.00000000E+00
	-1.54657000E+01	-1.62220000E+03	 0.00000000E+00
	-5.10174000E+02	-1.62775000E+03	 0.00000000E+00
	-5.10150000E+02	-1.63352000E+03	 0.00000000E+00
	 5.10179000E+02	-1.62776000E+03	 0.00000000E+00
	 5.10153000E+02	-1.63353000E+03	 0.00000000E+00
	-7.42583000E+02	-1.35137000E+03	 0.00000000E+00
	 7.43441000E+02	-1.35109000E+03	 0.00000000E+00
	-6.46368000E+02	-1.58547000E+03	 0.00000000E+00
	 6.46368000E+02	-1.58547000E+03	 0.00000000E+00
	-5.05154000E+02	-1.63064000E+03	 0.00000000E+00
	-5.05127000E+02	-1.63641000E+03	 0.00000000E+00
	-5.00113000E+02	-1.63351000E+03	 0.00000000E+00
	-5.00100000E+02	-1.63930000E+03	 0.00000000E+00
	-4.95085000E+02	-1.63639000E+03	 0.00000000E+00
	 5.05147000E+02	-1.63063000E+03	 0.00000000E+00
	 5.05127000E+02	-1.63641000E+03	 0.00000000E+00
	 5.00162000E+02	-1.63359000E+03	 0.00000000E+00
	 5.00108000E+02	-1.63931000E+03	 0.00000000E+00
	 4.95144000E+02	-1.63649000E+03	 0.00000000E+00
	 4.18936000E+02	-1.67864000E+03	 0.00000000E+00
	-4.19136000E+02	-1.67857000E+03	 0.00000000E+00
	 6.05023000E+02	-1.60175000E+03	 0.00000000E+00
	-6.05023000E+02	-1.60175000E+03	 0.00000000E+00
	 5.35230000E+02	-1.62486000E+03	 0.00000000E+00
	-5.35230000E+02	-1.62486000E+03	 0.00000000E+00
	-5.25202000E+02	-1.63064000E+03	 0.00000000E+00
	 5.25204000E+02	-1.63064000E+03	 0.00000000E+00
	 7.18365000E+02	-1.52102000E+03	 0.00000000E+00
	-7.18360000E+02	-1.52102000E+03	 0.00000000E+00
	 8.05679000E+02	-1.47280000E+03	 0.00000000E+00
	-8.05884000E+02	-1.47276000E+03	 0.00000000E+00
	 6.49365000E+02	-1.56061000E+03	 0.00000000E+00
	-6.49365000E+02	-1.56061000E+03	 0.00000000E+00
	-7.35576000E+02	-1.52101000E+03	 0.00000000E+00
	 7.35593000E+02	-1.52100000E+03	 0.00000000E+00
	 4.49899000E+00	-1.51041000E+03	 0.00000000E+00
	-4.67083000E+02	-1.51078000E+03	 0.00000000E+00
	 2.30968000E+02	-1.51058000E+03	 0.00000000E+00
	-2.41032000E+02	-1.51058000E+03	 0.00000000E+00
	 4.76702000E+02	-1.51052000E+03	 0.00000000E+00
	 7.58449000E+02	-1.51108000E+03	 0.00000000E+00
	-7.58449000E+02	-1.51108000E+03	 0.00000000E+00
	-5.80165000E+02	-1.57606000E+03	 0.00000000E+00
	 5.80165000E+02	-1.57606000E+03	 0.00000000E+00
	 4.07132000E+02	-1.68165000E+03	 0.00000000E+00
	-4.07648000E+02	-1.68143000E+03	 0.00000000E+00
	 3.93807000E+00	-1.71192000E+03	 0.00000000E+00
	-7.29875000E+02	-1.47150000E+03	 0.00000000E+00
	 7.29876000E+02	-1.47150000E+03	 0.00000000E+00
	-5.10382000E+02	-1.62229000E+03	 0.00000000E+00
	 5.10960000E+02	-1.62196000E+03	 0.00000000E+00
	-7.15469000E+02	-1.55583000E+03	 0.00000000E+00
	 7.15469000E+02	-1.55583000E+03	 0.00000000E+00
	-5.20220000E+02	-1.61616000E+03	 0.00000000E+00
	 5.20213000E+02	-1.61616000E+03	 0.00000000E+00
	-6.52129000E+02	-1.58550000E+03	 0.00000000E+00
	 6.52129000E+02	-1.58550000E+03	 0.00000000E+00
	-6.19864000E+02	-1.59316000E+03	 0.00000000E+00
	 6.19864000E+02	-1.59316000E+03	 0.00000000E+00
	 7.01127000E+02	-1.53095000E+03	 0.00000000E+00
	-7.01127000E+02	-1.53095000E+03	 0.00000000E+00
	-7.29846000E+02	-1.45161000E+03	 0.00000000E+00
	-7.32715000E+02	-1.44663000E+03	 0.00000000E+00
	 7.29846000E+02	-1.45161000E+03	 0.00000000E+00
	 7.32715000E+02	-1.44663000E+03	 0.00000000E+00
	-7.50608000E+02	-1.36588000E+03	 0.00000000E+00
	 7.50396000E+02	-1.36631000E+03	 0.00000000E+00
	 6.32111000E+02	-1.57045000E+03	 0.00000000E+00
	-6.32111000E+02	-1.57045000E+03	 0.00000000E+00
	-3.74661000E+02	-1.68016000E+03	 0.00000000E+00
	 4.19078000E+02	-1.66195000E+03	 0.00000000E+00
	-4.19578000E+02	-1.66226000E+03	 0.00000000E+00
	 7.44233000E+02	-1.45658000E+03	 0.00000000E+00
	-7.44233000E+02	-1.45658000E+03	 0.00000000E+00
	-4.11454000E+02	-1.67075000E+03	 0.00000000E+00
	 2.00652000E+02	-1.62148000E+03	 0.00000000E+00
	 3.92555000E+01	-1.66534000E+03	 0.00000000E+00
	-2.01095000E+02	-1.62248000E+03	 0.00000000E+00
	-3.92747000E+01	-1.66558000E+03	 0.00000000E+00
	-3.45245000E+02	-1.64753000E+03	 0.00000000E+00
	 4.95086000E+02	-1.64220000E+03	 0.00000000E+00
	 4.90070000E+02	-1.63930000E+03	 0.00000000E+00
	-4.95074000E+02	-1.64219000E+03	 0.00000000E+00
	-4.90201000E+02	-1.63953000E+03	 0.00000000E+00
	 1.11876000E+02	-1.64154000E+03	 0.00000000E+00
	-1.23475000E+02	-1.64165000E+03	 0.00000000E+00
	 1.83870000E+02	-1.59588000E+03	 0.00000000E+00
	-5.21297000E+01	-1.59588000E+03	 0.00000000E+00
	-2.88751000E+02	-1.59613000E+03	 0.00000000E+00
	 4.18604000E+02	-1.59478000E+03	 0.00000000E+00
	-4.37570000E+02	-1.60642000E+03	 0.00000000E+00
	 5.29841000E+01	-1.59531000E+03	 0.00000000E+00
	 3.65894000E+02	-1.65344000E+03	 0.00000000E+00
	-1.83016000E+02	-1.59531000E+03	 0.00000000E+00
	 2.89431000E+02	-1.59543000E+03	 0.00000000E+00
	 2.14844000E+01	-1.61856000E+03	 0.00000000E+00
	-2.16108000E+01	-1.63872000E+03	 0.00000000E+00
	-4.49536000E+02	-1.61863000E+03	 0.00000000E+00
	 4.50767000E+02	-1.61857000E+03	 0.00000000E+00
	 8.26467000E+02	-1.48291000E+03	 0.00000000E+00
	-8.26746000E+02	-1.48294000E+03	 0.00000000E+00
	-6.75169000E+02	-1.57565000E+03	 0.00000000E+00
	 6.75169000E+02	-1.57565000E+03	 0.00000000E+00
	-7.21236000E+02	-1.55584000E+03	 0.00000000E+00
	 7.21236000E+02	-1.55584000E+03	 0.00000000E+00
	 7.57089000E+02	-1.35634000E+03	 0.00000000E+00
	-7.58123000E+02	-1.35602000E+03	 0.00000000E+00
	-7.27011000E+02	-1.46655000E+03	 0.00000000E+00
	 7.27010000E+02	-1.46655000E+03	 0.00000000E+00
	 7.12611000E+02	-1.52103000E+03	 0.00000000E+00
	-7.12610000E+02	-1.52103000E+03	 0.00000000E+00
	 5.10139000E+02	-1.63931000E+03	 0.00000000E+00
	-5.10139000E+02	-1.63931000E+03	 0.00000000E+00
	-7.26969000E+02	-1.44664000E+03	 0.00000000E+00
	-7.29837000E+02	-1.44166000E+03	 0.00000000E+00
	 7.26971000E+02	-1.44664000E+03	 0.00000000E+00
	 7.29837000E+02	-1.44166000E+03	 0.00000000E+00
	-3.96813000E+02	-1.68410000E+03	 0.00000000E+00
	 3.96986000E+02	-1.68315000E+03	 0.00000000E+00
	-2.67735000E+01	-1.61490000E+03	 0.00000000E+00
	 2.70144000E+01	-1.64265000E+03	 0.00000000E+00
	 5.31336000E+01	-1.66780000E+03	 0.00000000E+00
	 7.24094000E+02	-1.44168000E+03	 0.00000000E+00
	 7.26956000E+02	-1.43669000E+03	 0.00000000E+00
	-7.24096000E+02	-1.44167000E+03	 0.00000000E+00
	-7.26958000E+02	-1.43669000E+03	 0.00000000E+00
	 6.43622000E+02	-1.56059000E+03	 0.00000000E+00
	-6.43624000E+02	-1.56059000E+03	 0.00000000E+00
	 6.19873000E+02	-1.59892000E+03	 0.00000000E+00
	 6.24857000E+02	-1.59603000E+03	 0.00000000E+00
	-6.19873000E+02	-1.59892000E+03	 0.00000000E+00
	-6.24857000E+02	-1.59603000E+03	 0.00000000E+00
	-3.49075000E+02	-1.59036000E+03	 0.00000000E+00
	-3.54035000E+02	-1.59323000E+03	 0.00000000E+00
	 3.58891000E+02	-1.59037000E+03	 0.00000000E+00
	 3.53617000E+02	-1.59328000E+03	 0.00000000E+00
	 1.22877000E+02	-1.59037000E+03	 0.00000000E+00
	 1.17624000E+02	-1.59326000E+03	 0.00000000E+00
	-1.13125000E+02	-1.59037000E+03	 0.00000000E+00
	-1.18389000E+02	-1.59328000E+03	 0.00000000E+00
	-6.09890000E+02	-1.58170000E+03	 0.00000000E+00
	-6.14846000E+02	-1.57883000E+03	 0.00000000E+00
	 6.09890000E+02	-1.58170000E+03	 0.00000000E+00
	 6.14846000E+02	-1.57883000E+03	 0.00000000E+00
	 7.32518000E+02	-1.43669000E+03	 0.00000000E+00
	 7.29708000E+02	-1.43166000E+03	 0.00000000E+00
	-7.32569000E+02	-1.43655000E+03	 0.00000000E+00
	-7.29722000E+02	-1.43167000E+03	 0.00000000E+00
	-7.24119000E+02	-1.55084000E+03	 0.00000000E+00
	 7.24119000E+02	-1.55084000E+03	 0.00000000E+00
	 4.90052000E+02	-1.64508000E+03	 0.00000000E+00
	 4.85033000E+02	-1.64217000E+03	 0.00000000E+00
	-4.90072000E+02	-1.64512000E+03	 0.00000000E+00
	-4.85201000E+02	-1.64246000E+03	 0.00000000E+00
	-7.27009000E+02	-1.55584000E+03	 0.00000000E+00
	 7.27009000E+02	-1.55584000E+03	 0.00000000E+00
	 3.58766000E+02	-1.61528000E+03	 0.00000000E+00
	-1.12238000E+02	-1.61574000E+03	 0.00000000E+00
	 1.23475000E+02	-1.61575000E+03	 0.00000000E+00
	-3.48525000E+02	-1.61575000E+03	 0.00000000E+00
	 6.26406000E+02	-1.57029000E+03	 0.00000000E+00
	-6.26406000E+02	-1.57029000E+03	 0.00000000E+00
	 4.85022000E+02	-1.64797000E+03	 0.00000000E+00
	 4.80004000E+02	-1.64506000E+03	 0.00000000E+00
	 4.79919000E+02	-1.63942000E+03	 0.00000000E+00
	 4.74971000E+02	-1.64218000E+03	 0.00000000E+00
	 4.74973000E+02	-1.64795000E+03	 0.00000000E+00
	 4.69958000E+02	-1.64504000E+03	 0.00000000E+00
	 4.69969000E+02	-1.63925000E+03	 0.00000000E+00
	 4.65108000E+02	-1.64241000E+03	 0.00000000E+00
	 4.64961000E+02	-1.64797000E+03	 0.00000000E+00
	 4.60114000E+02	-1.64535000E+03	 0.00000000E+00
	 4.59945000E+02	-1.65087000E+03	 0.00000000E+00
	 4.54953000E+02	-1.64800000E+03	 0.00000000E+00
	 4.55324000E+02	-1.64163000E+03	 0.00000000E+00
	 4.54898000E+02	-1.65372000E+03	 0.00000000E+00
	 4.49900000E+02	-1.65084000E+03	 0.00000000E+00
	 4.49863000E+02	-1.65660000E+03	 0.00000000E+00
	 4.44911000E+02	-1.65379000E+03	 0.00000000E+00
	-4.85053000E+02	-1.64802000E+03	 0.00000000E+00
	-4.80037000E+02	-1.64512000E+03	 0.00000000E+00
	-4.80688000E+02	-1.63888000E+03	 0.00000000E+00
	-4.75106000E+02	-1.64209000E+03	 0.00000000E+00
	-4.75001000E+02	-1.64795000E+03	 0.00000000E+00
	-4.69985000E+02	-1.64503000E+03	 0.00000000E+00
	-4.69997000E+02	-1.63923000E+03	 0.00000000E+00
	-4.64956000E+02	-1.64212000E+03	 0.00000000E+00
	-4.64936000E+02	-1.64792000E+03	 0.00000000E+00
	-4.59923000E+02	-1.64501000E+03	 0.00000000E+00
	-4.59909000E+02	-1.65081000E+03	 0.00000000E+00
	-4.54974000E+02	-1.64804000E+03	 0.00000000E+00
	-4.55280000E+02	-1.64237000E+03	 0.00000000E+00
	-4.54895000E+02	-1.65372000E+03	 0.00000000E+00
	-4.49962000E+02	-1.65095000E+03	 0.00000000E+00
	-4.49872000E+02	-1.65661000E+03	 0.00000000E+00
	-4.44935000E+02	-1.65384000E+03	 0.00000000E+00
	 6.95407000E+02	-1.53094000E+03	 0.00000000E+00
	-6.95407000E+02	-1.53094000E+03	 0.00000000E+00
	-6.80937000E+02	-1.57567000E+03	 0.00000000E+00
	 6.80937000E+02	-1.57567000E+03	 0.00000000E+00
	-7.59202000E+02	-1.34231000E+03	 0.00000000E+00
	 7.58847000E+02	-1.34249000E+03	 0.00000000E+00
	 1.09643000E+02	-1.68333000E+03	 0.00000000E+00
	-2.71348000E+02	-1.62148000E+03	 0.00000000E+00
	-1.13093000E+02	-1.69960000E+03	 0.00000000E+00
	 2.71457000E+02	-1.62242000E+03	 0.00000000E+00
	 7.38466000E+02	-1.44672000E+03	 0.00000000E+00
	-7.38466000E+02	-1.44672000E+03	 0.00000000E+00
	-4.06705000E+02	-1.66739000E+03	 0.00000000E+00
	 4.06341000E+02	-1.66775000E+03	 0.00000000E+00
	 4.64925000E+02	-1.65372000E+03	 0.00000000E+00
	-4.18262000E+02	-1.66878000E+03	 0.00000000E+00
	-4.64922000E+02	-1.65372000E+03	 0.00000000E+00
	 8.30671000E+02	-1.46976000E+03	 0.00000000E+00
	-8.30611000E+02	-1.46982000E+03	 0.00000000E+00
	 8.18796000E+02	-1.47222000E+03	 0.00000000E+00
	-8.18215000E+02	-1.47332000E+03	 0.00000000E+00
	-7.40274000E+02	-1.40842000E+03	 0.00000000E+00
	-7.24357000E+02	-1.45164000E+03	 0.00000000E+00
	 7.24359000E+02	-1.45164000E+03	 0.00000000E+00
	-3.58505000E+02	-1.63478000E+03	 0.00000000E+00
	 2.85015000E+01	-1.53529000E+03	 0.00000000E+00
	 3.26524000E+01	-1.53928000E+03	 0.00000000E+00
	 3.06111000E+01	-1.54494000E+03	 0.00000000E+00
	 3.66778000E+01	-1.54336000E+03	 0.00000000E+00
	 3.48035000E+01	-1.54890000E+03	 0.00000000E+00
	 4.06386000E+01	-1.54743000E+03	 0.00000000E+00
	 3.89278000E+01	-1.55295000E+03	 0.00000000E+00
	 4.46878000E+01	-1.55150000E+03	 0.00000000E+00
	 4.31640000E+01	-1.55703000E+03	 0.00000000E+00
	 4.87602000E+01	-1.55559000E+03	 0.00000000E+00
	 4.72343000E+01	-1.56111000E+03	 0.00000000E+00
	 5.12720000E+01	-1.56519000E+03	 0.00000000E+00
	 5.68371000E+01	-1.56374000E+03	 0.00000000E+00
	 5.27978000E+01	-1.55966000E+03	 0.00000000E+00
	-3.78363000E+01	-1.59833000E+03	 0.00000000E+00
	 1.98164000E+02	-1.59833000E+03	 0.00000000E+00
	-3.76489000E+01	-1.64170000E+03	 0.00000000E+00
	 3.78363000E+01	-1.59833000E+03	 0.00000000E+00
	-1.98285000E+02	-1.59758000E+03	 0.00000000E+00
	 2.73151000E+02	-1.59840000E+03	 0.00000000E+00
	-4.34467000E+02	-1.59804000E+03	 0.00000000E+00
	 4.44840000E+02	-1.65949000E+03	 0.00000000E+00
	-4.44846000E+02	-1.65950000E+03	 0.00000000E+00
	 9.62331000E+00	-1.62335000E+03	 0.00000000E+00
	-9.79157000E+00	-1.63333000E+03	 0.00000000E+00
	-6.49224000E+02	-1.59048000E+03	 0.00000000E+00
	 6.49224000E+02	-1.59048000E+03	 0.00000000E+00
	-4.65026000E+02	-1.63619000E+03	 0.00000000E+00
	-4.69813000E+02	-1.63361000E+03	 0.00000000E+00
	 4.64961000E+02	-1.63633000E+03	 0.00000000E+00
	 4.70026000E+02	-1.63357000E+03	 0.00000000E+00
	 4.95067000E+02	-1.64799000E+03	 0.00000000E+00
	-4.95069000E+02	-1.64799000E+03	 0.00000000E+00
	-4.89544000E+02	-1.63360000E+03	 0.00000000E+00
	 4.89911000E+02	-1.63278000E+03	 0.00000000E+00
	 8.40811000E+02	-1.47384000E+03	 0.00000000E+00
	-8.40767000E+02	-1.47386000E+03	 0.00000000E+00
	-7.24154000E+02	-1.47150000E+03	 0.00000000E+00
	 7.24154000E+02	-1.47150000E+03	 0.00000000E+00
	 6.98271000E+02	-1.52600000E+03	 0.00000000E+00
	-6.98272000E+02	-1.52600000E+03	 0.00000000E+00
	 7.15501000E+02	-1.51608000E+03	 0.00000000E+00
	 7.21222000E+02	-1.51607000E+03	 0.00000000E+00
	 7.18362000E+02	-1.51113000E+03	 0.00000000E+00
	 7.24064000E+02	-1.51112000E+03	 0.00000000E+00
	 7.21209000E+02	-1.50619000E+03	 0.00000000E+00
	 7.26908000E+02	-1.50618000E+03	 0.00000000E+00
	 7.24057000E+02	-1.50125000E+03	 0.00000000E+00
	 7.29757000E+02	-1.50125000E+03	 0.00000000E+00
	 7.26905000E+02	-1.49631000E+03	 0.00000000E+00
	-7.15501000E+02	-1.51608000E+03	 0.00000000E+00
	-7.21217000E+02	-1.51607000E+03	 0.00000000E+00
	-7.18362000E+02	-1.51113000E+03	 0.00000000E+00
	-7.24062000E+02	-1.51113000E+03	 0.00000000E+00
	-7.21208000E+02	-1.50619000E+03	 0.00000000E+00
	-7.26911000E+02	-1.50619000E+03	 0.00000000E+00
	-7.24057000E+02	-1.50125000E+03	 0.00000000E+00
	-7.29759000E+02	-1.50125000E+03	 0.00000000E+00
	-7.26906000E+02	-1.49631000E+03	 0.00000000E+00
	-7.18349000E+02	-1.56084000E+03	 0.00000000E+00
	-7.12573000E+02	-1.56083000E+03	 0.00000000E+00
	 7.18349000E+02	-1.56084000E+03	 0.00000000E+00
	 7.12573000E+02	-1.56083000E+03	 0.00000000E+00
	 2.66774000E+02	-1.60979000E+03	 0.00000000E+00
	-2.66911000E+02	-1.60914000E+03	 0.00000000E+00
	 4.32268000E+01	-1.65351000E+03	 0.00000000E+00
	 2.05089000E+02	-1.60914000E+03	 0.00000000E+00
	-2.05089000E+02	-1.60914000E+03	 0.00000000E+00
	-4.40262000E+01	-1.65309000E+03	 0.00000000E+00
	-6.54897000E+02	-1.59045000E+03	 0.00000000E+00
	 6.54897000E+02	-1.59045000E+03	 0.00000000E+00
	-8.17936000E+02	-1.52427000E+03	 0.00000000E+00
	 8.17936000E+02	-1.52427000E+03	 0.00000000E+00
	 6.25528000E+02	-1.57977000E+03	 0.00000000E+00
	-6.25529000E+02	-1.57977000E+03	 0.00000000E+00
	 6.09886000E+02	-1.57597000E+03	 0.00000000E+00
	-6.09888000E+02	-1.57597000E+03	 0.00000000E+00
	 6.29251000E+02	-1.56547000E+03	 0.00000000E+00
	-6.29252000E+02	-1.56547000E+03	 0.00000000E+00
	-4.44524000E+02	-1.64754000E+03	 0.00000000E+00
	 4.44533000E+02	-1.64834000E+03	 0.00000000E+00
	-7.27008000E+02	-1.47645000E+03	 0.00000000E+00
	 7.27000000E+02	-1.47646000E+03	 0.00000000E+00
	-6.69500000E+02	-1.55571000E+03	 0.00000000E+00
	-6.72388000E+02	-1.55075000E+03	 0.00000000E+00
	-6.66660000E+02	-1.55073000E+03	 0.00000000E+00
	-6.69539000E+02	-1.54579000E+03	 0.00000000E+00
	-6.75258000E+02	-1.54580000E+03	 0.00000000E+00
	 6.69500000E+02	-1.55571000E+03	 0.00000000E+00
	 6.72388000E+02	-1.55075000E+03	 0.00000000E+00
	 6.66660000E+02	-1.55073000E+03	 0.00000000E+00
	 6.69537000E+02	-1.54578000E+03	 0.00000000E+00
	 6.75261000E+02	-1.54580000E+03	 0.00000000E+00
	-6.92542000E+02	-1.53589000E+03	 0.00000000E+00
	-6.89692000E+02	-1.53093000E+03	 0.00000000E+00
	-6.86804000E+02	-1.53589000E+03	 0.00000000E+00
	 6.92522000E+02	-1.53590000E+03	 0.00000000E+00
	 6.89687000E+02	-1.53094000E+03	 0.00000000E+00
	 6.86764000E+02	-1.53591000E+03	 0.00000000E+00
	 7.29771000E+02	-1.51110000E+03	 0.00000000E+00
	-7.29777000E+02	-1.51112000E+03	 0.00000000E+00
	 6.46540000E+02	-1.55566000E+03	 0.00000000E+00
	 6.52235000E+02	-1.55566000E+03	 0.00000000E+00
	-6.46540000E+02	-1.55566000E+03	 0.00000000E+00
	-6.52235000E+02	-1.55566000E+03	 0.00000000E+00
	-5.35282000E+02	-1.60176000E+03	 0.00000000E+00
	-5.35294000E+02	-1.59599000E+03	 0.00000000E+00
	-5.30295000E+02	-1.59887000E+03	 0.00000000E+00
	-5.30307000E+02	-1.59310000E+03	 0.00000000E+00
	-5.35303000E+02	-1.59023000E+03	 0.00000000E+00
	-5.30321000E+02	-1.58734000E+03	 0.00000000E+00
	-5.35311000E+02	-1.58447000E+03	 0.00000000E+00
	-5.30337000E+02	-1.58158000E+03	 0.00000000E+00
	-5.35321000E+02	-1.57872000E+03	 0.00000000E+00
	-5.30352000E+02	-1.57583000E+03	 0.00000000E+00
	-5.35329000E+02	-1.57297000E+03	 0.00000000E+00
	-5.30363000E+02	-1.57009000E+03	 0.00000000E+00
	-5.40294000E+02	-1.57585000E+03	 0.00000000E+00
	-5.40302000E+02	-1.57012000E+03	 0.00000000E+00
	-5.45260000E+02	-1.57299000E+03	 0.00000000E+00
	-5.25385000E+02	-1.57295000E+03	 0.00000000E+00
	-5.25403000E+02	-1.56721000E+03	 0.00000000E+00
	-5.30375000E+02	-1.56435000E+03	 0.00000000E+00
	-5.25420000E+02	-1.56147000E+03	 0.00000000E+00
	-5.25529000E+02	-1.58445000E+03	 0.00000000E+00
	-5.45255000E+02	-1.57873000E+03	 0.00000000E+00
	-5.50219000E+02	-1.57586000E+03	 0.00000000E+00
	-5.30399000E+02	-1.55863000E+03	 0.00000000E+00
	-5.25438000E+02	-1.55574000E+03	 0.00000000E+00
	-5.20469000E+02	-1.55859000E+03	 0.00000000E+00
	-5.20487000E+02	-1.55286000E+03	 0.00000000E+00
	-5.15518000E+02	-1.55571000E+03	 0.00000000E+00
	-5.15535000E+02	-1.54998000E+03	 0.00000000E+00
	-5.10564000E+02	-1.55283000E+03	 0.00000000E+00
	-5.10581000E+02	-1.54710000E+03	 0.00000000E+00
	-5.45273000E+02	-1.56727000E+03	 0.00000000E+00
	-5.25306000E+02	-1.59597000E+03	 0.00000000E+00
	-5.20807000E+02	-1.57007000E+03	 0.00000000E+00
	-5.20498000E+02	-1.54714000E+03	 0.00000000E+00
	-5.50226000E+02	-1.58161000E+03	 0.00000000E+00
	-5.55177000E+02	-1.57873000E+03	 0.00000000E+00
	-5.55180000E+02	-1.57301000E+03	 0.00000000E+00
	-5.60133000E+02	-1.57588000E+03	 0.00000000E+00
	-5.60136000E+02	-1.57016000E+03	 0.00000000E+00
	-5.60129000E+02	-1.58159000E+03	 0.00000000E+00
	-5.65084000E+02	-1.57874000E+03	 0.00000000E+00
	-5.35364000E+02	-1.56151000E+03	 0.00000000E+00
	-5.40286000E+02	-1.58736000E+03	 0.00000000E+00
	 5.35283000E+02	-1.60176000E+03	 0.00000000E+00
	 5.35292000E+02	-1.59599000E+03	 0.00000000E+00
	 5.30295000E+02	-1.59887000E+03	 0.00000000E+00
	 5.30307000E+02	-1.59310000E+03	 0.00000000E+00
	 5.35302000E+02	-1.59023000E+03	 0.00000000E+00
	 5.30321000E+02	-1.58734000E+03	 0.00000000E+00
	 5.35311000E+02	-1.58447000E+03	 0.00000000E+00
	 5.30337000E+02	-1.58158000E+03	 0.00000000E+00
	 5.35321000E+02	-1.57872000E+03	 0.00000000E+00
	 5.30352000E+02	-1.57583000E+03	 0.00000000E+00
	 5.35331000E+02	-1.57297000E+03	 0.00000000E+00
	 5.30365000E+02	-1.57009000E+03	 0.00000000E+00
	 5.40294000E+02	-1.57585000E+03	 0.00000000E+00
	 5.40304000E+02	-1.57012000E+03	 0.00000000E+00
	 5.45261000E+02	-1.57299000E+03	 0.00000000E+00
	 5.25385000E+02	-1.57295000E+03	 0.00000000E+00
	 5.25403000E+02	-1.56721000E+03	 0.00000000E+00
	 5.30377000E+02	-1.56435000E+03	 0.00000000E+00
	 5.25421000E+02	-1.56147000E+03	 0.00000000E+00
	 5.25529000E+02	-1.58445000E+03	 0.00000000E+00
	 5.45255000E+02	-1.57873000E+03	 0.00000000E+00
	 5.50219000E+02	-1.57586000E+03	 0.00000000E+00
	 5.30399000E+02	-1.55863000E+03	 0.00000000E+00
	 5.25438000E+02	-1.55574000E+03	 0.00000000E+00
	 5.20470000E+02	-1.55860000E+03	 0.00000000E+00
	 5.20487000E+02	-1.55286000E+03	 0.00000000E+00
	 5.15518000E+02	-1.55571000E+03	 0.00000000E+00
	 5.15535000E+02	-1.54998000E+03	 0.00000000E+00
	 5.10564000E+02	-1.55283000E+03	 0.00000000E+00
	 5.10581000E+02	-1.54710000E+03	 0.00000000E+00
	 5.45274000E+02	-1.56727000E+03	 0.00000000E+00
	 5.25306000E+02	-1.59597000E+03	 0.00000000E+00
	 5.20807000E+02	-1.57007000E+03	 0.00000000E+00
	 5.20498000E+02	-1.54714000E+03	 0.00000000E+00
	 5.50227000E+02	-1.58161000E+03	 0.00000000E+00
	 5.55176000E+02	-1.57873000E+03	 0.00000000E+00
	 5.55180000E+02	-1.57301000E+03	 0.00000000E+00
	 5.60133000E+02	-1.57588000E+03	 0.00000000E+00
	 5.60135000E+02	-1.57016000E+03	 0.00000000E+00
	 5.60129000E+02	-1.58159000E+03	 0.00000000E+00
	 5.65084000E+02	-1.57874000E+03	 0.00000000E+00
	 5.35359000E+02	-1.56151000E+03	 0.00000000E+00
	 5.40285000E+02	-1.58735000E+03	 0.00000000E+00
	 5.50258000E+02	-1.61621000E+03	 0.00000000E+00
	 5.50254000E+02	-1.62199000E+03	 0.00000000E+00
	 5.55267000E+02	-1.61910000E+03	 0.00000000E+00
	 5.55262000E+02	-1.62489000E+03	 0.00000000E+00
	 5.60275000E+02	-1.62200000E+03	 0.00000000E+00
	 5.50246000E+02	-1.62778000E+03	 0.00000000E+00
	 5.60280000E+02	-1.61622000E+03	 0.00000000E+00
	 5.65284000E+02	-1.61911000E+03	 0.00000000E+00
	 5.65290000E+02	-1.61333000E+03	 0.00000000E+00
	 5.70291000E+02	-1.61622000E+03	 0.00000000E+00
	-5.50258000E+02	-1.61621000E+03	 0.00000000E+00
	-5.50254000E+02	-1.62199000E+03	 0.00000000E+00
	-5.55267000E+02	-1.61910000E+03	 0.00000000E+00
	-5.55262000E+02	-1.62489000E+03	 0.00000000E+00
	-5.60275000E+02	-1.62200000E+03	 0.00000000E+00
	-5.50246000E+02	-1.62778000E+03	 0.00000000E+00
	-5.60280000E+02	-1.61622000E+03	 0.00000000E+00
	-5.65284000E+02	-1.61911000E+03	 0.00000000E+00
	-5.65290000E+02	-1.61333000E+03	 0.00000000E+00
	-5.70291000E+02	-1.61622000E+03	 0.00000000E+00
	-6.43461000E+02	-1.59023000E+03	 0.00000000E+00
	 6.43461000E+02	-1.59023000E+03	 0.00000000E+00
	 6.83831000E+02	-1.57069000E+03	 0.00000000E+00
	 6.86710000E+02	-1.57569000E+03	 0.00000000E+00
	 6.89607000E+02	-1.57070000E+03	 0.00000000E+00
	-6.83831000E+02	-1.57069000E+03	 0.00000000E+00
	-6.86710000E+02	-1.57569000E+03	 0.00000000E+00
	-6.89607000E+02	-1.57070000E+03	 0.00000000E+00
	 1.21313000E+02	-1.62870000E+03	 0.00000000E+00
	-1.14687000E+02	-1.62870000E+03	 0.00000000E+00
	-5.25292000E+02	-1.60174000E+03	 0.00000000E+00
	-5.20308000E+02	-1.59886000E+03	 0.00000000E+00
	-5.20289000E+02	-1.60462000E+03	 0.00000000E+00
	 5.25292000E+02	-1.60174000E+03	 0.00000000E+00
	 5.20308000E+02	-1.59886000E+03	 0.00000000E+00
	 5.20289000E+02	-1.60462000E+03	 0.00000000E+00
	 6.14904000E+02	-1.60178000E+03	 0.00000000E+00
	-6.14904000E+02	-1.60178000E+03	 0.00000000E+00
	 5.94945000E+02	-1.57891000E+03	 0.00000000E+00
	-5.94945000E+02	-1.57891000E+03	 0.00000000E+00
	 5.05012000E+02	-1.54968000E+03	 0.00000000E+00
	 5.05663000E+02	-1.54395000E+03	 0.00000000E+00
	-5.05012000E+02	-1.54968000E+03	 0.00000000E+00
	-5.05662000E+02	-1.54395000E+03	 0.00000000E+00
	 7.47112000E+02	-1.46158000E+03	 0.00000000E+00
	-7.47112000E+02	-1.46158000E+03	 0.00000000E+00
	-6.57875000E+02	-1.58551000E+03	 0.00000000E+00
	 6.57875000E+02	-1.58551000E+03	 0.00000000E+00
	-7.29887000E+02	-1.55084000E+03	 0.00000000E+00
	 7.29887000E+02	-1.55084000E+03	 0.00000000E+00
	-6.14826000E+02	-1.57312000E+03	 0.00000000E+00
	 6.14826000E+02	-1.57312000E+03	 0.00000000E+00
	 5.55175000E+02	-1.56732000E+03	 0.00000000E+00
	-5.55175000E+02	-1.56732000E+03	 0.00000000E+00
	-8.06578000E+02	-1.50580000E+03	 0.00000000E+00
	 8.06578000E+02	-1.50580000E+03	 0.00000000E+00
	-4.39915000E+02	-1.65674000E+03	 0.00000000E+00
	-4.39820000E+02	-1.66239000E+03	 0.00000000E+00
	 4.39869000E+02	-1.65662000E+03	 0.00000000E+00
	 4.39811000E+02	-1.66237000E+03	 0.00000000E+00
	 5.65235000E+02	-1.62481000E+03	 0.00000000E+00
	-5.65235000E+02	-1.62481000E+03	 0.00000000E+00
	-7.24083000E+02	-1.43173000E+03	 0.00000000E+00
	-7.26919000E+02	-1.42672000E+03	 0.00000000E+00
	-7.32657000E+02	-1.42656000E+03	 0.00000000E+00
	-7.29797000E+02	-1.42174000E+03	 0.00000000E+00
	-7.24042000E+02	-1.42175000E+03	 0.00000000E+00
	-7.26858000E+02	-1.41679000E+03	 0.00000000E+00
	 7.24073000E+02	-1.43172000E+03	 0.00000000E+00
	 7.26915000E+02	-1.42672000E+03	 0.00000000E+00
	 7.32688000E+02	-1.42672000E+03	 0.00000000E+00
	 7.29750000E+02	-1.42176000E+03	 0.00000000E+00
	 7.24034000E+02	-1.42176000E+03	 0.00000000E+00
	 7.26849000E+02	-1.41680000E+03	 0.00000000E+00
	 4.54872000E+02	-1.65950000E+03	 0.00000000E+00
	-4.54871000E+02	-1.65950000E+03	 0.00000000E+00
	 3.49597000E+02	-1.62201000E+03	 0.00000000E+00
	-3.58403000E+02	-1.62201000E+03	 0.00000000E+00
	-3.97963000E+01	-1.60839000E+03	 0.00000000E+00
	 4.37598000E+02	-1.60633000E+03	 0.00000000E+00
	-6.19834000E+02	-1.60460000E+03	 0.00000000E+00
	 6.19834000E+02	-1.60460000E+03	 0.00000000E+00
	 7.51171000E+02	-1.45625000E+03	 0.00000000E+00
	 7.53324000E+02	-1.46188000E+03	 0.00000000E+00
	 7.47316000E+02	-1.45153000E+03	 0.00000000E+00
	-7.49873000E+02	-1.45651000E+03	 0.00000000E+00
	-7.52330000E+02	-1.46136000E+03	 0.00000000E+00
	-7.47100000E+02	-1.45157000E+03	 0.00000000E+00
	 5.30391000E+02	-1.55294000E+03	 0.00000000E+00
	-5.30391000E+02	-1.55294000E+03	 0.00000000E+00
	 6.63819000E+02	-1.54584000E+03	 0.00000000E+00
	-6.63820000E+02	-1.54584000E+03	 0.00000000E+00
	-6.78033000E+02	-1.58066000E+03	 0.00000000E+00
	-6.72261000E+02	-1.58056000E+03	 0.00000000E+00
	 6.78033000E+02	-1.58066000E+03	 0.00000000E+00
	 6.72261000E+02	-1.58056000E+03	 0.00000000E+00
	 6.72411000E+02	-1.54088000E+03	 0.00000000E+00
	-6.72413000E+02	-1.54088000E+03	 0.00000000E+00
	 1.24086000E+02	-1.64170000E+03	 0.00000000E+00
	-1.12144000E+02	-1.64145000E+03	 0.00000000E+00
	 1.13597000E+02	-1.62201000E+03	 0.00000000E+00
	-1.22210000E+02	-1.62234000E+03	 0.00000000E+00
	 3.35978000E+00	-1.63202000E+03	 0.00000000E+00
	 7.21295000E+02	-1.46655000E+03	 0.00000000E+00
	-7.21295000E+02	-1.46655000E+03	 0.00000000E+00
	 7.70497000E+02	-1.34280000E+03	 0.00000000E+00
	-7.70492000E+02	-1.34280000E+03	 0.00000000E+00
	-7.32785000E+02	-1.55578000E+03	 0.00000000E+00
	-7.35675000E+02	-1.55084000E+03	 0.00000000E+00
	 7.32785000E+02	-1.55578000E+03	 0.00000000E+00
	 7.35675000E+02	-1.55084000E+03	 0.00000000E+00
	-5.00801000E+02	-1.62736000E+03	 0.00000000E+00
	 4.99898000E+02	-1.62768000E+03	 0.00000000E+00
	-3.29381000E+00	-1.62515000E+03	 0.00000000E+00
	-3.49200000E+02	-1.59586000E+03	 0.00000000E+00
	-3.54189000E+02	-1.59871000E+03	 0.00000000E+00
	-3.59010000E+02	-1.59610000E+03	 0.00000000E+00
	-3.44445000E+02	-1.59269000E+03	 0.00000000E+00
	 3.59021000E+02	-1.59637000E+03	 0.00000000E+00
	 3.54097000E+02	-1.59929000E+03	 0.00000000E+00
	 3.48990000E+02	-1.59610000E+03	 0.00000000E+00
	 3.64467000E+02	-1.59282000E+03	 0.00000000E+00
	-1.12960000E+02	-1.59636000E+03	 0.00000000E+00
	-1.17901000E+02	-1.59929000E+03	 0.00000000E+00
	-1.23010000E+02	-1.59610000E+03	 0.00000000E+00
	-1.08414000E+02	-1.59278000E+03	 0.00000000E+00
	 1.22736000E+02	-1.59586000E+03	 0.00000000E+00
	 1.17743000E+02	-1.59872000E+03	 0.00000000E+00
	 1.12990000E+02	-1.59610000E+03	 0.00000000E+00
	 1.27536000E+02	-1.59269000E+03	 0.00000000E+00
	-3.51019000E+02	-1.62862000E+03	 0.00000000E+00
	 3.57313000E+02	-1.62870000E+03	 0.00000000E+00
	 5.20198000E+02	-1.57651000E+03	 0.00000000E+00
	-5.20198000E+02	-1.57651000E+03	 0.00000000E+00
	-6.24616000E+02	-1.59000000E+03	 0.00000000E+00
	-6.29394000E+02	-1.59267000E+03	 0.00000000E+00
	-6.29782000E+02	-1.59883000E+03	 0.00000000E+00
	-6.35031000E+02	-1.59521000E+03	 0.00000000E+00
	-6.34864000E+02	-1.60179000E+03	 0.00000000E+00
	 6.24616000E+02	-1.59000000E+03	 0.00000000E+00
	 6.29394000E+02	-1.59267000E+03	 0.00000000E+00
	 6.29782000E+02	-1.59883000E+03	 0.00000000E+00
	 6.35031000E+02	-1.59521000E+03	 0.00000000E+00
	 6.34864000E+02	-1.60179000E+03	 0.00000000E+00
	 5.20331000E+02	-1.59252000E+03	 0.00000000E+00
	-5.20331000E+02	-1.59252000E+03	 0.00000000E+00
	 5.15488000E+02	-1.56219000E+03	 0.00000000E+00
	-5.15488000E+02	-1.56219000E+03	 0.00000000E+00
	 3.67159000E+01	-1.64295000E+03	 0.00000000E+00
	-7.32615000E+02	-1.49631000E+03	 0.00000000E+00
	-7.29757000E+02	-1.49137000E+03	 0.00000000E+00
	-7.35490000E+02	-1.50124000E+03	 0.00000000E+00
	-7.24051000E+02	-1.49137000E+03	 0.00000000E+00
	 7.32629000E+02	-1.49630000E+03	 0.00000000E+00
	 7.29759000E+02	-1.49137000E+03	 0.00000000E+00
	 7.35478000E+02	-1.50126000E+03	 0.00000000E+00
	 7.24052000E+02	-1.49137000E+03	 0.00000000E+00
	 6.78126000E+02	-1.54086000E+03	 0.00000000E+00
	-6.78127000E+02	-1.54086000E+03	 0.00000000E+00
	-6.60918000E+02	-1.55073000E+03	 0.00000000E+00
	 6.60918000E+02	-1.55073000E+03	 0.00000000E+00
	 5.05589000E+02	-1.55569000E+03	 0.00000000E+00
	-5.05589000E+02	-1.55569000E+03	 0.00000000E+00
	 6.04902000E+02	-1.57885000E+03	 0.00000000E+00
	-6.04904000E+02	-1.57885000E+03	 0.00000000E+00
	-7.26906000E+02	-1.48643000E+03	 0.00000000E+00
	 7.26902000E+02	-1.48643000E+03	 0.00000000E+00
	 7.03985000E+02	-1.52600000E+03	 0.00000000E+00
	-7.03985000E+02	-1.52600000E+03	 0.00000000E+00
	 6.34955000E+02	-1.56552000E+03	 0.00000000E+00
	-6.34955000E+02	-1.56552000E+03	 0.00000000E+00
	-7.24277000E+02	-1.46167000E+03	 0.00000000E+00
	 7.24276000E+02	-1.46167000E+03	 0.00000000E+00
	 6.58418000E+02	-1.54604000E+03	 0.00000000E+00
	-6.58418000E+02	-1.54604000E+03	 0.00000000E+00
	-6.09795000E+02	-1.57031000E+03	 0.00000000E+00
	 6.09793000E+02	-1.57031000E+03	 0.00000000E+00
	-7.26992000E+02	-1.54585000E+03	 0.00000000E+00
	 7.26992000E+02	-1.54585000E+03	 0.00000000E+00
	 5.60260000E+02	-1.56453000E+03	 0.00000000E+00
	-5.60260000E+02	-1.56453000E+03	 0.00000000E+00
	 5.70278000E+02	-1.61044000E+03	 0.00000000E+00
	 5.75292000E+02	-1.61333000E+03	 0.00000000E+00
	 5.75292000E+02	-1.61911000E+03	 0.00000000E+00
	 5.80296000E+02	-1.61622000E+03	 0.00000000E+00
	 5.80296000E+02	-1.61045000E+03	 0.00000000E+00
	 5.85297000E+02	-1.61333000E+03	 0.00000000E+00
	 5.85269000E+02	-1.60756000E+03	 0.00000000E+00
	 5.90264000E+02	-1.61045000E+03	 0.00000000E+00
	 5.90299000E+02	-1.61622000E+03	 0.00000000E+00
	 5.95297000E+02	-1.61333000E+03	 0.00000000E+00
	-5.70278000E+02	-1.61044000E+03	 0.00000000E+00
	-5.75292000E+02	-1.61333000E+03	 0.00000000E+00
	-5.75292000E+02	-1.61911000E+03	 0.00000000E+00
	-5.80296000E+02	-1.61622000E+03	 0.00000000E+00
	-5.80296000E+02	-1.61045000E+03	 0.00000000E+00
	-5.85297000E+02	-1.61333000E+03	 0.00000000E+00
	-5.85269000E+02	-1.60756000E+03	 0.00000000E+00
	-5.90264000E+02	-1.61045000E+03	 0.00000000E+00
	-5.90299000E+02	-1.61622000E+03	 0.00000000E+00
	-5.95297000E+02	-1.61333000E+03	 0.00000000E+00
	 5.55172000E+02	-1.63053000E+03	 0.00000000E+00
	-5.55172000E+02	-1.63053000E+03	 0.00000000E+00
	-6.45789000E+02	-1.59547000E+03	 0.00000000E+00
	 6.45789000E+02	-1.59547000E+03	 0.00000000E+00
	 5.10574000E+02	-1.54138000E+03	 0.00000000E+00
	 5.05653000E+02	-1.53845000E+03	 0.00000000E+00
	 5.00820000E+02	-1.54106000E+03	 0.00000000E+00
	 5.00697000E+02	-1.53562000E+03	 0.00000000E+00
	 4.95761000E+02	-1.53841000E+03	 0.00000000E+00
	 4.95732000E+02	-1.53278000E+03	 0.00000000E+00
	 4.90798000E+02	-1.53557000E+03	 0.00000000E+00
	 4.90816000E+02	-1.52985000E+03	 0.00000000E+00
	 4.85849000E+02	-1.53268000E+03	 0.00000000E+00
	 4.85700000E+02	-1.53829000E+03	 0.00000000E+00
	 4.80877000E+02	-1.53552000E+03	 0.00000000E+00
	 4.80901000E+02	-1.52979000E+03	 0.00000000E+00
	 4.76009000E+02	-1.53243000E+03	 0.00000000E+00
	 4.75971000E+02	-1.52687000E+03	 0.00000000E+00
	 4.70987000E+02	-1.52967000E+03	 0.00000000E+00
	 4.71025000E+02	-1.52400000E+03	 0.00000000E+00
	 4.66053000E+02	-1.52685000E+03	 0.00000000E+00
	 4.66001000E+02	-1.53253000E+03	 0.00000000E+00
	 4.61076000E+02	-1.52967000E+03	 0.00000000E+00
	 4.61043000E+02	-1.53540000E+03	 0.00000000E+00
	 4.56102000E+02	-1.53251000E+03	 0.00000000E+00
	 4.56070000E+02	-1.53824000E+03	 0.00000000E+00
	 4.51121000E+02	-1.53535000E+03	 0.00000000E+00
	 4.51091000E+02	-1.54107000E+03	 0.00000000E+00
	 4.46139000E+02	-1.53818000E+03	 0.00000000E+00
	 4.46110000E+02	-1.54391000E+03	 0.00000000E+00
	 4.41161000E+02	-1.54102000E+03	 0.00000000E+00
	 4.41241000E+02	-1.54656000E+03	 0.00000000E+00
	 4.36203000E+02	-1.54382000E+03	 0.00000000E+00
	 4.36466000E+02	-1.55017000E+03	 0.00000000E+00
	 4.31262000E+02	-1.54678000E+03	 0.00000000E+00
	 4.31168000E+02	-1.55242000E+03	 0.00000000E+00
	 4.26238000E+02	-1.54954000E+03	 0.00000000E+00
	 4.26194000E+02	-1.55525000E+03	 0.00000000E+00
	 4.21255000E+02	-1.55236000E+03	 0.00000000E+00
	 4.21218000E+02	-1.55808000E+03	 0.00000000E+00
	 4.16277000E+02	-1.55519000E+03	 0.00000000E+00
	 4.16237000E+02	-1.56092000E+03	 0.00000000E+00
	 4.21184000E+02	-1.56381000E+03	 0.00000000E+00
	 4.16092000E+02	-1.56646000E+03	 0.00000000E+00
	 4.11236000E+02	-1.56372000E+03	 0.00000000E+00
	 4.11189000E+02	-1.56944000E+03	 0.00000000E+00
	 4.06262000E+02	-1.56657000E+03	 0.00000000E+00
	 4.16473000E+02	-1.57278000E+03	 0.00000000E+00
	 4.06219000E+02	-1.57230000E+03	 0.00000000E+00
	 4.01282000E+02	-1.56941000E+03	 0.00000000E+00
	 4.01242000E+02	-1.57515000E+03	 0.00000000E+00
	 3.96298000E+02	-1.57225000E+03	 0.00000000E+00
	 4.01324000E+02	-1.56368000E+03	 0.00000000E+00
	 3.96227000E+02	-1.57791000E+03	 0.00000000E+00
	 3.91371000E+02	-1.57496000E+03	 0.00000000E+00
	 4.31013000E+02	-1.55808000E+03	 0.00000000E+00
	 3.91363000E+02	-1.56933000E+03	 0.00000000E+00
	 3.86380000E+02	-1.57216000E+03	 0.00000000E+00
	 3.86258000E+02	-1.57752000E+03	 0.00000000E+00
	 3.81376000E+02	-1.57494000E+03	 0.00000000E+00
	 3.81211000E+02	-1.58122000E+03	 0.00000000E+00
	 3.76380000E+02	-1.57790000E+03	 0.00000000E+00
	 4.06194000E+02	-1.57806000E+03	 0.00000000E+00
	 3.76003000E+02	-1.58366000E+03	 0.00000000E+00
	 3.86378000E+02	-1.56651000E+03	 0.00000000E+00
	 4.16278000E+02	-1.54954000E+03	 0.00000000E+00
	 4.51109000E+02	-1.52970000E+03	 0.00000000E+00
	 4.75945000E+02	-1.52125000E+03	 0.00000000E+00
	 4.71193000E+02	-1.51851000E+03	 0.00000000E+00
	 4.66181000E+02	-1.53796000E+03	 0.00000000E+00
	 4.61328000E+02	-1.52408000E+03	 0.00000000E+00
	 4.36512000E+02	-1.53820000E+03	 0.00000000E+00
	 4.26598000E+02	-1.54388000E+03	 0.00000000E+00
	 4.11510000E+02	-1.55234000E+03	 0.00000000E+00
	-5.10575000E+02	-1.54138000E+03	 0.00000000E+00
	-5.05654000E+02	-1.53845000E+03	 0.00000000E+00
	-5.00758000E+02	-1.54120000E+03	 0.00000000E+00
	-5.00687000E+02	-1.53564000E+03	 0.00000000E+00
	-4.95894000E+02	-1.53819000E+03	 0.00000000E+00
	-4.95752000E+02	-1.53275000E+03	 0.00000000E+00
	-4.90820000E+02	-1.53553000E+03	 0.00000000E+00
	-4.90785000E+02	-1.52991000E+03	 0.00000000E+00
	-4.85854000E+02	-1.53268000E+03	 0.00000000E+00
	-4.85832000E+02	-1.52704000E+03	 0.00000000E+00
	-4.80901000E+02	-1.52981000E+03	 0.00000000E+00
	-4.80874000E+02	-1.53551000E+03	 0.00000000E+00
	-4.75935000E+02	-1.53264000E+03	 0.00000000E+00
	-4.75964000E+02	-1.52691000E+03	 0.00000000E+00
	-4.70995000E+02	-1.52975000E+03	 0.00000000E+00
	-4.71027000E+02	-1.52403000E+03	 0.00000000E+00
	-4.66057000E+02	-1.52686000E+03	 0.00000000E+00
	-4.66024000E+02	-1.53258000E+03	 0.00000000E+00
	-4.61085000E+02	-1.52969000E+03	 0.00000000E+00
	-4.61052000E+02	-1.53541000E+03	 0.00000000E+00
	-4.56108000E+02	-1.53252000E+03	 0.00000000E+00
	-4.56098000E+02	-1.52688000E+03	 0.00000000E+00
	-4.56036000E+02	-1.53818000E+03	 0.00000000E+00
	-4.51123000E+02	-1.53534000E+03	 0.00000000E+00
	-4.51110000E+02	-1.54089000E+03	 0.00000000E+00
	-4.46151000E+02	-1.53816000E+03	 0.00000000E+00
	-4.46031000E+02	-1.54392000E+03	 0.00000000E+00
	-4.41157000E+02	-1.54102000E+03	 0.00000000E+00
	-4.40824000E+02	-1.54708000E+03	 0.00000000E+00
	-4.36138000E+02	-1.54391000E+03	 0.00000000E+00
	-4.35977000E+02	-1.54964000E+03	 0.00000000E+00
	-4.31206000E+02	-1.54670000E+03	 0.00000000E+00
	-4.30994000E+02	-1.55219000E+03	 0.00000000E+00
	-4.26202000E+02	-1.54949000E+03	 0.00000000E+00
	-4.26161000E+02	-1.55521000E+03	 0.00000000E+00
	-4.21246000E+02	-1.55235000E+03	 0.00000000E+00
	-4.21213000E+02	-1.55808000E+03	 0.00000000E+00
	-4.16275000E+02	-1.55520000E+03	 0.00000000E+00
	-4.16235000E+02	-1.56092000E+03	 0.00000000E+00
	-4.21682000E+02	-1.56417000E+03	 0.00000000E+00
	-4.16140000E+02	-1.56646000E+03	 0.00000000E+00
	-4.11235000E+02	-1.56372000E+03	 0.00000000E+00
	-4.11234000E+02	-1.56950000E+03	 0.00000000E+00
	-4.06272000E+02	-1.56659000E+03	 0.00000000E+00
	-4.16169000E+02	-1.57240000E+03	 0.00000000E+00
	-4.06265000E+02	-1.57238000E+03	 0.00000000E+00
	-4.01294000E+02	-1.56943000E+03	 0.00000000E+00
	-4.01294000E+02	-1.57510000E+03	 0.00000000E+00
	-3.96310000E+02	-1.57225000E+03	 0.00000000E+00
	-4.01316000E+02	-1.56369000E+03	 0.00000000E+00
	-3.96592000E+02	-1.57782000E+03	 0.00000000E+00
	-3.91451000E+02	-1.57492000E+03	 0.00000000E+00
	-4.30888000E+02	-1.55723000E+03	 0.00000000E+00
	-3.91381000E+02	-1.56933000E+03	 0.00000000E+00
	-3.86398000E+02	-1.57216000E+03	 0.00000000E+00
	-3.86382000E+02	-1.57753000E+03	 0.00000000E+00
	-3.81401000E+02	-1.57495000E+03	 0.00000000E+00
	-3.81318000E+02	-1.58125000E+03	 0.00000000E+00
	-3.76402000E+02	-1.57791000E+03	 0.00000000E+00
	-3.76023000E+02	-1.58366000E+03	 0.00000000E+00
	-3.71362000E+02	-1.58070000E+03	 0.00000000E+00
	-3.71445000E+02	-1.58619000E+03	 0.00000000E+00
	-4.06300000E+02	-1.57820000E+03	 0.00000000E+00
	-3.76415000E+02	-1.57218000E+03	 0.00000000E+00
	-4.16279000E+02	-1.54954000E+03	 0.00000000E+00
	-4.41163000E+02	-1.53537000E+03	 0.00000000E+00
	-4.90895000E+02	-1.54181000E+03	 0.00000000E+00
	-4.66288000E+02	-1.52126000E+03	 0.00000000E+00
	-4.75909000E+02	-1.53837000E+03	 0.00000000E+00
	-4.26585000E+02	-1.54386000E+03	 0.00000000E+00
	-4.11499000E+02	-1.55234000E+03	 0.00000000E+00
	-4.71211000E+02	-1.51842000E+03	 0.00000000E+00
	-5.05932000E+02	-1.53297000E+03	 0.00000000E+00
	 5.05932000E+02	-1.53297000E+03	 0.00000000E+00
	 6.23520000E+02	-1.56546000E+03	 0.00000000E+00
	-6.23520000E+02	-1.56546000E+03	 0.00000000E+00
	-6.14854000E+02	-1.60744000E+03	 0.00000000E+00
	 6.14854000E+02	-1.60744000E+03	 0.00000000E+00
	-3.76240000E+02	-1.58973000E+03	 0.00000000E+00
	-3.86869000E+02	-1.56646000E+03	 0.00000000E+00
	 6.75366000E+02	-1.53614000E+03	 0.00000000E+00
	-6.75353000E+02	-1.53615000E+03	 0.00000000E+00
	-4.34918000E+02	-1.65968000E+03	 0.00000000E+00
	-4.34798000E+02	-1.66529000E+03	 0.00000000E+00
	-4.31091000E+02	-1.66254000E+03	 0.00000000E+00
	 4.34880000E+02	-1.65956000E+03	 0.00000000E+00
	 4.34790000E+02	-1.66527000E+03	 0.00000000E+00
	 4.29759000E+02	-1.66233000E+03	 0.00000000E+00
	-6.92318000E+02	-1.57562000E+03	 0.00000000E+00
	-6.95364000E+02	-1.57070000E+03	 0.00000000E+00
	-6.92482000E+02	-1.56572000E+03	 0.00000000E+00
	-6.98270000E+02	-1.56572000E+03	 0.00000000E+00
	-7.01164000E+02	-1.57063000E+03	 0.00000000E+00
	-7.04074000E+02	-1.56573000E+03	 0.00000000E+00
	-7.01145000E+02	-1.56074000E+03	 0.00000000E+00
	 6.92318000E+02	-1.57562000E+03	 0.00000000E+00
	 6.95364000E+02	-1.57070000E+03	 0.00000000E+00
	 6.92482000E+02	-1.56572000E+03	 0.00000000E+00
	 6.98270000E+02	-1.56572000E+03	 0.00000000E+00
	 7.01164000E+02	-1.57063000E+03	 0.00000000E+00
	 7.04074000E+02	-1.56573000E+03	 0.00000000E+00
	 7.01145000E+02	-1.56074000E+03	 0.00000000E+00
	-4.61023000E+02	-1.54114000E+03	 0.00000000E+00
	 7.35561000E+02	-1.42172000E+03	 0.00000000E+00
	-7.35561000E+02	-1.42172000E+03	 0.00000000E+00
	 7.09810000E+02	-1.51629000E+03	 0.00000000E+00
	-7.09800000E+02	-1.51630000E+03	 0.00000000E+00
	-7.21408000E+02	-1.48631000E+03	 0.00000000E+00
	 7.21402000E+02	-1.48626000E+03	 0.00000000E+00
	 4.51060000E+02	-1.54681000E+03	 0.00000000E+00
	-3.91905000E+02	-1.56364000E+03	 0.00000000E+00
	 6.40841000E+02	-1.55586000E+03	 0.00000000E+00
	-6.40834000E+02	-1.55587000E+03	 0.00000000E+00
	 3.91570000E+02	-1.56370000E+03	 0.00000000E+00
	 6.49780000E+02	-1.55085000E+03	 0.00000000E+00
	-6.49780000E+02	-1.55085000E+03	 0.00000000E+00
	-7.21337000E+02	-1.41684000E+03	 0.00000000E+00
	-7.24029000E+02	-1.41181000E+03	 0.00000000E+00
	-7.29480000E+02	-1.41205000E+03	 0.00000000E+00
	-7.26581000E+02	-1.40699000E+03	 0.00000000E+00
	-7.21070000E+02	-1.40687000E+03	 0.00000000E+00
	-7.23901000E+02	-1.40188000E+03	 0.00000000E+00
	-7.30214000E+02	-1.40228000E+03	 0.00000000E+00
	-7.26873000E+02	-1.39693000E+03	 0.00000000E+00
	-7.33041000E+02	-1.39635000E+03	 0.00000000E+00
	-7.29645000E+02	-1.39184000E+03	 0.00000000E+00
	-7.23900000E+02	-1.39189000E+03	 0.00000000E+00
	-7.26720000E+02	-1.38687000E+03	 0.00000000E+00
	-7.17970000E+02	-1.42224000E+03	 0.00000000E+00
	-7.21006000E+02	-1.38693000E+03	 0.00000000E+00
	-7.23816000E+02	-1.38192000E+03	 0.00000000E+00
	-7.29566000E+02	-1.38186000E+03	 0.00000000E+00
	-7.26625000E+02	-1.37688000E+03	 0.00000000E+00
	-7.32585000E+02	-1.37697000E+03	 0.00000000E+00
	-7.29579000E+02	-1.37190000E+03	 0.00000000E+00
	-7.35549000E+02	-1.37206000E+03	 0.00000000E+00
	-7.23994000E+02	-1.37202000E+03	 0.00000000E+00
	-7.35364000E+02	-1.38184000E+03	 0.00000000E+00
	-7.33226000E+02	-1.36689000E+03	 0.00000000E+00
	-7.38750000E+02	-1.36648000E+03	 0.00000000E+00
	 7.21334000E+02	-1.41684000E+03	 0.00000000E+00
	 7.24027000E+02	-1.41181000E+03	 0.00000000E+00
	 7.29478000E+02	-1.41205000E+03	 0.00000000E+00
	 7.26580000E+02	-1.40700000E+03	 0.00000000E+00
	 7.21070000E+02	-1.40687000E+03	 0.00000000E+00
	 7.23901000E+02	-1.40188000E+03	 0.00000000E+00
	 7.30214000E+02	-1.40228000E+03	 0.00000000E+00
	 7.26873000E+02	-1.39693000E+03	 0.00000000E+00
	 7.33041000E+02	-1.39635000E+03	 0.00000000E+00
	 7.29645000E+02	-1.39184000E+03	 0.00000000E+00
	 7.23900000E+02	-1.39189000E+03	 0.00000000E+00
	 7.26720000E+02	-1.38687000E+03	 0.00000000E+00
	 7.17968000E+02	-1.42224000E+03	 0.00000000E+00
	 7.21006000E+02	-1.38693000E+03	 0.00000000E+00
	 7.23842000E+02	-1.38193000E+03	 0.00000000E+00
	 7.29570000E+02	-1.38186000E+03	 0.00000000E+00
	 7.26655000E+02	-1.37690000E+03	 0.00000000E+00
	 7.32627000E+02	-1.37705000E+03	 0.00000000E+00
	 7.29591000E+02	-1.37192000E+03	 0.00000000E+00
	 7.35432000E+02	-1.37202000E+03	 0.00000000E+00
	 7.24044000E+02	-1.37206000E+03	 0.00000000E+00
	 7.35364000E+02	-1.38184000E+03	 0.00000000E+00
	 7.33115000E+02	-1.36694000E+03	 0.00000000E+00
	 7.38400000E+02	-1.36673000E+03	 0.00000000E+00
	 5.15440000E+02	-1.60166000E+03	 0.00000000E+00
	 5.15282000E+02	-1.60750000E+03	 0.00000000E+00
	-5.15328000E+02	-1.60131000E+03	 0.00000000E+00
	-5.15455000E+02	-1.60658000E+03	 0.00000000E+00
	-7.21511000E+02	-1.47634000E+03	 0.00000000E+00
	 7.21508000E+02	-1.47631000E+03	 0.00000000E+00
	-7.15473000E+02	-1.56547000E+03	 0.00000000E+00
	-7.21209000E+02	-1.56540000E+03	 0.00000000E+00
	 7.15473000E+02	-1.56547000E+03	 0.00000000E+00
	 7.21209000E+02	-1.56540000E+03	 0.00000000E+00
	 1.12568000E+02	-1.60143000E+03	 0.00000000E+00
	 1.17847000E+02	-1.60420000E+03	 0.00000000E+00
	-1.23248000E+02	-1.60157000E+03	 0.00000000E+00
	-1.18332000E+02	-1.60475000E+03	 0.00000000E+00
	 3.49428000E+02	-1.60080000E+03	 0.00000000E+00
	 3.52893000E+02	-1.60476000E+03	 0.00000000E+00
	-3.59420000E+02	-1.60143000E+03	 0.00000000E+00
	-3.54142000E+02	-1.60420000E+03	 0.00000000E+00
	-1.96277000E+02	-1.60944000E+03	 0.00000000E+00
	 1.95454000E+02	-1.60907000E+03	 0.00000000E+00
	 2.76048000E+02	-1.60792000E+03	 0.00000000E+00
	-3.47520000E+01	-1.65122000E+03	 0.00000000E+00
	 3.47440000E+01	-1.65387000E+03	 0.00000000E+00
	-2.76546000E+02	-1.60907000E+03	 0.00000000E+00
	 7.52566000E+02	-1.45125000E+03	 0.00000000E+00
	 7.50079000E+02	-1.44679000E+03	 0.00000000E+00
	-7.52901000E+02	-1.45158000E+03	 0.00000000E+00
	-7.50168000E+02	-1.44707000E+03	 0.00000000E+00
	-7.38568000E+02	-1.55549000E+03	 0.00000000E+00
	-7.41463000E+02	-1.55078000E+03	 0.00000000E+00
	-7.44296000E+02	-1.55577000E+03	 0.00000000E+00
	-7.47248000E+02	-1.55083000E+03	 0.00000000E+00
	-7.44327000E+02	-1.54582000E+03	 0.00000000E+00
	-7.50154000E+02	-1.54580000E+03	 0.00000000E+00
	 7.38568000E+02	-1.55549000E+03	 0.00000000E+00
	 7.41463000E+02	-1.55078000E+03	 0.00000000E+00
	 7.44296000E+02	-1.55577000E+03	 0.00000000E+00
	 7.47248000E+02	-1.55083000E+03	 0.00000000E+00
	 7.44327000E+02	-1.54582000E+03	 0.00000000E+00
	 7.50154000E+02	-1.54580000E+03	 0.00000000E+00
	 6.84174000E+02	-1.53107000E+03	 0.00000000E+00
	-6.84166000E+02	-1.53108000E+03	 0.00000000E+00
	-4.11808000E+02	-1.54692000E+03	 0.00000000E+00
	 4.11807000E+02	-1.54692000E+03	 0.00000000E+00
	 7.01144000E+02	-1.52134000E+03	 0.00000000E+00
	-7.01132000E+02	-1.52135000E+03	 0.00000000E+00
	-6.60375000E+02	-1.59025000E+03	 0.00000000E+00
	-6.63479000E+02	-1.58539000E+03	 0.00000000E+00
	 6.60375000E+02	-1.59025000E+03	 0.00000000E+00
	 6.63479000E+02	-1.58539000E+03	 0.00000000E+00
	 6.19833000E+02	-1.57618000E+03	 0.00000000E+00
	-6.19834000E+02	-1.57618000E+03	 0.00000000E+00
	 4.39788000E+02	-1.66816000E+03	 0.00000000E+00
	-4.39788000E+02	-1.66816000E+03	 0.00000000E+00
	 4.96708000E+02	-1.54390000E+03	 0.00000000E+00
	 4.41210000E+02	-1.60994000E+03	 0.00000000E+00
	 4.28561000E+02	-1.60540000E+03	 0.00000000E+00
	-4.41037000E+02	-1.61044000E+03	 0.00000000E+00
	-4.27954000E+02	-1.60376000E+03	 0.00000000E+00
	 3.08138000E+01	-1.60967000E+03	 0.00000000E+00
	 4.39862000E+01	-1.60443000E+03	 0.00000000E+00
	 3.76922000E+02	-1.57211000E+03	 0.00000000E+00
	 3.71890000E+02	-1.57493000E+03	 0.00000000E+00
	 6.26504000E+02	-1.56088000E+03	 0.00000000E+00
	-6.26506000E+02	-1.56088000E+03	 0.00000000E+00
	 4.68988000E+02	-1.54618000E+03	 0.00000000E+00
	 4.72106000E+02	-1.54082000E+03	 0.00000000E+00
	 1.45209000E+02	-1.59137000E+03	 0.00000000E+00
	 1.47546000E+02	-1.58568000E+03	 0.00000000E+00
	 1.53322000E+02	-1.58440000E+03	 0.00000000E+00
	 1.49035000E+02	-1.58032000E+03	 0.00000000E+00
	 1.54519000E+02	-1.57895000E+03	 0.00000000E+00
	 1.50525000E+02	-1.57484000E+03	 0.00000000E+00
	 1.56075000E+02	-1.57343000E+03	 0.00000000E+00
	 1.60072000E+02	-1.57751000E+03	 0.00000000E+00
	 1.61630000E+02	-1.57201000E+03	 0.00000000E+00
	 1.65636000E+02	-1.57611000E+03	 0.00000000E+00
	 1.67188000E+02	-1.57059000E+03	 0.00000000E+00
	 1.71197000E+02	-1.57470000E+03	 0.00000000E+00
	 1.72749000E+02	-1.56917000E+03	 0.00000000E+00
	 1.76760000E+02	-1.57328000E+03	 0.00000000E+00
	 1.78310000E+02	-1.56775000E+03	 0.00000000E+00
	 1.74302000E+02	-1.56365000E+03	 0.00000000E+00
	 1.79856000E+02	-1.56223000E+03	 0.00000000E+00
	 1.62984000E+02	-1.56609000E+03	 0.00000000E+00
	 1.82326000E+02	-1.57186000E+03	 0.00000000E+00
	 1.80773000E+02	-1.57740000E+03	 0.00000000E+00
	 1.43760000E+02	-1.58141000E+03	 0.00000000E+00
	 1.75855000E+02	-1.55813000E+03	 0.00000000E+00
	 1.81404000E+02	-1.55671000E+03	 0.00000000E+00
	 1.85406000E+02	-1.56081000E+03	 0.00000000E+00
	 1.86950000E+02	-1.55529000E+03	 0.00000000E+00
	 1.90958000E+02	-1.55939000E+03	 0.00000000E+00
	 1.92506000E+02	-1.55386000E+03	 0.00000000E+00
	 1.52073000E+02	-1.56933000E+03	 0.00000000E+00
	 1.77415000E+02	-1.55260000E+03	 0.00000000E+00
	 1.86473000E+02	-1.57581000E+03	 0.00000000E+00
	 1.84803000E+02	-1.58145000E+03	 0.00000000E+00
	 1.96236000E+02	-1.55800000E+03	 0.00000000E+00
	 1.98668000E+02	-1.55237000E+03	 0.00000000E+00
	 1.94153000E+02	-1.54833000E+03	 0.00000000E+00
	 1.99636000E+02	-1.54659000E+03	 0.00000000E+00
	 1.70307000E+02	-1.55955000E+03	 0.00000000E+00
	 1.88132000E+02	-1.57027000E+03	 0.00000000E+00
	 1.64041000E+02	-1.58126000E+03	 0.00000000E+00
	 1.46548000E+02	-1.57089000E+03	 0.00000000E+00
	 1.47576000E+02	-1.56553000E+03	 0.00000000E+00
	 1.79375000E+02	-1.58275000E+03	 0.00000000E+00
	 1.95618000E+02	-1.54281000E+03	 0.00000000E+00
	 2.01150000E+02	-1.54134000E+03	 0.00000000E+00
	 2.04946000E+02	-1.54518000E+03	 0.00000000E+00
	 2.06572000E+02	-1.53989000E+03	 0.00000000E+00
	 2.02661000E+02	-1.53587000E+03	 0.00000000E+00
	 2.08205000E+02	-1.53450000E+03	 0.00000000E+00
	 2.12059000E+02	-1.53826000E+03	 0.00000000E+00
	 2.13750000E+02	-1.53303000E+03	 0.00000000E+00
	 2.18285000E+02	-1.53752000E+03	 0.00000000E+00
	 2.19382000E+02	-1.53166000E+03	 0.00000000E+00
	 2.23639000E+02	-1.53553000E+03	 0.00000000E+00
	 2.24910000E+02	-1.53015000E+03	 0.00000000E+00
	 2.28921000E+02	-1.53422000E+03	 0.00000000E+00
	 2.30406000E+02	-1.52872000E+03	 0.00000000E+00
	 2.34415000E+02	-1.53280000E+03	 0.00000000E+00
	 2.35932000E+02	-1.52729000E+03	 0.00000000E+00
	 2.39946000E+02	-1.53137000E+03	 0.00000000E+00
	 2.41469000E+02	-1.52585000E+03	 0.00000000E+00
	 2.45485000E+02	-1.52994000E+03	 0.00000000E+00
	 2.37442000E+02	-1.52177000E+03	 0.00000000E+00
	 2.38358000E+02	-1.53666000E+03	 0.00000000E+00
	 2.15312000E+02	-1.52736000E+03	 0.00000000E+00
	 2.46946000E+02	-1.52447000E+03	 0.00000000E+00
	 2.50954000E+02	-1.52857000E+03	 0.00000000E+00
	 2.49483000E+02	-1.53403000E+03	 0.00000000E+00
	 2.55021000E+02	-1.53259000E+03	 0.00000000E+00
	 2.53477000E+02	-1.53800000E+03	 0.00000000E+00
	 2.59047000E+02	-1.53665000E+03	 0.00000000E+00
	 2.57556000E+02	-1.54196000E+03	 0.00000000E+00
	 2.63081000E+02	-1.54071000E+03	 0.00000000E+00
	 2.60504000E+02	-1.53121000E+03	 0.00000000E+00
	 2.61332000E+02	-1.54621000E+03	 0.00000000E+00
	 2.67060000E+02	-1.54482000E+03	 0.00000000E+00
	 2.68619000E+02	-1.53930000E+03	 0.00000000E+00
	 2.72633000E+02	-1.54339000E+03	 0.00000000E+00
	 2.70978000E+02	-1.54905000E+03	 0.00000000E+00
	 2.76636000E+02	-1.54749000E+03	 0.00000000E+00
	 2.74984000E+02	-1.55315000E+03	 0.00000000E+00
	 2.80670000E+02	-1.55157000E+03	 0.00000000E+00
	 2.79140000E+02	-1.55710000E+03	 0.00000000E+00
	 2.84720000E+02	-1.55563000E+03	 0.00000000E+00
	 2.83191000E+02	-1.56116000E+03	 0.00000000E+00
	 2.88753000E+02	-1.55971000E+03	 0.00000000E+00
	 2.87223000E+02	-1.56524000E+03	 0.00000000E+00
	 2.92789000E+02	-1.56379000E+03	 0.00000000E+00
	 2.91253000E+02	-1.56932000E+03	 0.00000000E+00
	 2.96811000E+02	-1.56787000E+03	 0.00000000E+00
	 2.95281000E+02	-1.57341000E+03	 0.00000000E+00
	 3.00836000E+02	-1.57196000E+03	 0.00000000E+00
	 3.02367000E+02	-1.56643000E+03	 0.00000000E+00
	 3.06391000E+02	-1.57051000E+03	 0.00000000E+00
	 2.89721000E+02	-1.57486000E+03	 0.00000000E+00
	 2.90309000E+02	-1.55418000E+03	 0.00000000E+00
	 3.04868000E+02	-1.57604000E+03	 0.00000000E+00
	 3.10419000E+02	-1.57459000E+03	 0.00000000E+00
	 3.11938000E+02	-1.56906000E+03	 0.00000000E+00
	 3.15966000E+02	-1.57314000E+03	 0.00000000E+00
	 3.08902000E+02	-1.58013000E+03	 0.00000000E+00
	 2.93755000E+02	-1.57895000E+03	 0.00000000E+00
	 2.87900000E+02	-1.58052000E+03	 0.00000000E+00
	 3.17477000E+02	-1.56761000E+03	 0.00000000E+00
	 3.21508000E+02	-1.57168000E+03	 0.00000000E+00
	 3.19994000E+02	-1.57721000E+03	 0.00000000E+00
	 3.25539000E+02	-1.57575000E+03	 0.00000000E+00
	 2.91956000E+02	-1.58445000E+03	 0.00000000E+00
	 2.86506000E+02	-1.58607000E+03	 0.00000000E+00
	 2.73622000E+02	-1.55852000E+03	 0.00000000E+00
	 3.13405000E+02	-1.56359000E+03	 0.00000000E+00
	 2.84147000E+02	-1.57630000E+03	 0.00000000E+00
	 2.82199000E+02	-1.54602000E+03	 0.00000000E+00
	 3.24154000E+02	-1.58115000E+03	 0.00000000E+00
	 3.29588000E+02	-1.57980000E+03	 0.00000000E+00
	 3.31075000E+02	-1.57430000E+03	 0.00000000E+00
	 3.35107000E+02	-1.57836000E+03	 0.00000000E+00
	 3.33603000E+02	-1.58389000E+03	 0.00000000E+00
	 3.39080000E+02	-1.58249000E+03	 0.00000000E+00
	 3.37789000E+02	-1.58781000E+03	 0.00000000E+00
	 2.26419000E+02	-1.52477000E+03	 0.00000000E+00
	 2.81727000E+02	-1.56663000E+03	 0.00000000E+00
	 1.90128000E+02	-1.54445000E+03	 0.00000000E+00
	 3.32257000E+02	-1.59009000E+03	 0.00000000E+00
	 1.95090000E+02	-1.56338000E+03	 0.00000000E+00
	 1.39451000E+02	-1.58874000E+03	 0.00000000E+00
	 3.03533000E+02	-1.58140000E+03	 0.00000000E+00
	 3.08063000E+02	-1.58538000E+03	 0.00000000E+00
	 3.13406000E+02	-1.58398000E+03	 0.00000000E+00
	 1.53004000E+02	-1.56378000E+03	 0.00000000E+00
	 1.83070000E+02	-1.58649000E+03	 0.00000000E+00
	 3.36609000E+02	-1.57285000E+03	 0.00000000E+00
	 2.27460000E+02	-1.53836000E+03	 0.00000000E+00
	 1.90570000E+02	-1.57929000E+03	 0.00000000E+00
	-3.26791000E+02	-1.59137000E+03	 0.00000000E+00
	-3.24454000E+02	-1.58568000E+03	 0.00000000E+00
	-3.18678000E+02	-1.58440000E+03	 0.00000000E+00
	-3.22965000E+02	-1.58032000E+03	 0.00000000E+00
	-3.17481000E+02	-1.57895000E+03	 0.00000000E+00
	-3.21475000E+02	-1.57484000E+03	 0.00000000E+00
	-3.15925000E+02	-1.57343000E+03	 0.00000000E+00
	-3.11928000E+02	-1.57751000E+03	 0.00000000E+00
	-3.10370000E+02	-1.57201000E+03	 0.00000000E+00
	-3.06364000E+02	-1.57611000E+03	 0.00000000E+00
	-3.04812000E+02	-1.57059000E+03	 0.00000000E+00
	-3.00803000E+02	-1.57470000E+03	 0.00000000E+00
	-2.99251000E+02	-1.56917000E+03	 0.00000000E+00
	-2.95240000E+02	-1.57328000E+03	 0.00000000E+00
	-2.93690000E+02	-1.56775000E+03	 0.00000000E+00
	-2.97698000E+02	-1.56365000E+03	 0.00000000E+00
	-2.92144000E+02	-1.56223000E+03	 0.00000000E+00
	-3.09016000E+02	-1.56609000E+03	 0.00000000E+00
	-2.89674000E+02	-1.57186000E+03	 0.00000000E+00
	-2.91227000E+02	-1.57740000E+03	 0.00000000E+00
	-3.28240000E+02	-1.58141000E+03	 0.00000000E+00
	-2.96145000E+02	-1.55813000E+03	 0.00000000E+00
	-2.90596000E+02	-1.55671000E+03	 0.00000000E+00
	-2.86594000E+02	-1.56081000E+03	 0.00000000E+00
	-2.85050000E+02	-1.55529000E+03	 0.00000000E+00
	-2.81042000E+02	-1.55939000E+03	 0.00000000E+00
	-2.79494000E+02	-1.55386000E+03	 0.00000000E+00
	-3.19927000E+02	-1.56933000E+03	 0.00000000E+00
	-2.94585000E+02	-1.55260000E+03	 0.00000000E+00
	-2.85527000E+02	-1.57581000E+03	 0.00000000E+00
	-2.87197000E+02	-1.58145000E+03	 0.00000000E+00
	-2.75764000E+02	-1.55800000E+03	 0.00000000E+00
	-2.73332000E+02	-1.55237000E+03	 0.00000000E+00
	-2.77847000E+02	-1.54833000E+03	 0.00000000E+00
	-2.72364000E+02	-1.54659000E+03	 0.00000000E+00
	-3.01693000E+02	-1.55955000E+03	 0.00000000E+00
	-2.83868000E+02	-1.57027000E+03	 0.00000000E+00
	-3.07959000E+02	-1.58126000E+03	 0.00000000E+00
	-3.25452000E+02	-1.57089000E+03	 0.00000000E+00
	-3.24424000E+02	-1.56553000E+03	 0.00000000E+00
	-2.92831000E+02	-1.58275000E+03	 0.00000000E+00
	-2.76383000E+02	-1.54281000E+03	 0.00000000E+00
	-2.70850000E+02	-1.54134000E+03	 0.00000000E+00
	-2.67054000E+02	-1.54518000E+03	 0.00000000E+00
	-2.65428000E+02	-1.53989000E+03	 0.00000000E+00
	-2.69339000E+02	-1.53587000E+03	 0.00000000E+00
	-2.63795000E+02	-1.53450000E+03	 0.00000000E+00
	-2.59941000E+02	-1.53826000E+03	 0.00000000E+00
	-2.58250000E+02	-1.53303000E+03	 0.00000000E+00
	-2.53715000E+02	-1.53752000E+03	 0.00000000E+00
	-2.52618000E+02	-1.53166000E+03	 0.00000000E+00
	-2.48361000E+02	-1.53553000E+03	 0.00000000E+00
	-2.47090000E+02	-1.53015000E+03	 0.00000000E+00
	-2.43079000E+02	-1.53422000E+03	 0.00000000E+00
	-2.41594000E+02	-1.52872000E+03	 0.00000000E+00
	-2.37585000E+02	-1.53280000E+03	 0.00000000E+00
	-2.36068000E+02	-1.52729000E+03	 0.00000000E+00
	-2.32054000E+02	-1.53137000E+03	 0.00000000E+00
	-2.30531000E+02	-1.52585000E+03	 0.00000000E+00
	-2.26515000E+02	-1.52994000E+03	 0.00000000E+00
	-2.34558000E+02	-1.52177000E+03	 0.00000000E+00
	-2.33318000E+02	-1.53680000E+03	 0.00000000E+00
	-2.56688000E+02	-1.52736000E+03	 0.00000000E+00
	-2.25054000E+02	-1.52447000E+03	 0.00000000E+00
	-2.21046000E+02	-1.52857000E+03	 0.00000000E+00
	-2.22527000E+02	-1.53383000E+03	 0.00000000E+00
	-2.16980000E+02	-1.53256000E+03	 0.00000000E+00
	-2.18783000E+02	-1.53859000E+03	 0.00000000E+00
	-2.12997000E+02	-1.53674000E+03	 0.00000000E+00
	-2.14173000E+02	-1.54223000E+03	 0.00000000E+00
	-2.08882000E+02	-1.54077000E+03	 0.00000000E+00
	-2.11504000E+02	-1.53122000E+03	 0.00000000E+00
	-2.10702000E+02	-1.54623000E+03	 0.00000000E+00
	-2.04899000E+02	-1.54483000E+03	 0.00000000E+00
	-2.03374000E+02	-1.53931000E+03	 0.00000000E+00
	-1.99359000E+02	-1.54339000E+03	 0.00000000E+00
	-2.01014000E+02	-1.54905000E+03	 0.00000000E+00
	-1.95361000E+02	-1.54749000E+03	 0.00000000E+00
	-1.97014000E+02	-1.55315000E+03	 0.00000000E+00
	-1.91329000E+02	-1.55157000E+03	 0.00000000E+00
	-1.92859000E+02	-1.55710000E+03	 0.00000000E+00
	-1.87280000E+02	-1.55563000E+03	 0.00000000E+00
	-1.88809000E+02	-1.56116000E+03	 0.00000000E+00
	-1.83247000E+02	-1.55971000E+03	 0.00000000E+00
	-1.84777000E+02	-1.56524000E+03	 0.00000000E+00
	-1.79211000E+02	-1.56379000E+03	 0.00000000E+00
	-1.80747000E+02	-1.56932000E+03	 0.00000000E+00
	-1.75189000E+02	-1.56787000E+03	 0.00000000E+00
	-1.76719000E+02	-1.57341000E+03	 0.00000000E+00
	-1.71164000E+02	-1.57196000E+03	 0.00000000E+00
	-1.69633000E+02	-1.56643000E+03	 0.00000000E+00
	-1.65609000E+02	-1.57051000E+03	 0.00000000E+00
	-1.82279000E+02	-1.57486000E+03	 0.00000000E+00
	-1.81691000E+02	-1.55418000E+03	 0.00000000E+00
	-1.67132000E+02	-1.57604000E+03	 0.00000000E+00
	-1.61581000E+02	-1.57459000E+03	 0.00000000E+00
	-1.60062000E+02	-1.56906000E+03	 0.00000000E+00
	-1.56034000E+02	-1.57314000E+03	 0.00000000E+00
	-1.63098000E+02	-1.58013000E+03	 0.00000000E+00
	-1.78245000E+02	-1.57895000E+03	 0.00000000E+00
	-1.84133000E+02	-1.58034000E+03	 0.00000000E+00
	-1.54523000E+02	-1.56761000E+03	 0.00000000E+00
	-1.50492000E+02	-1.57168000E+03	 0.00000000E+00
	-1.52006000E+02	-1.57721000E+03	 0.00000000E+00
	-1.46461000E+02	-1.57575000E+03	 0.00000000E+00
	-1.79280000E+02	-1.58533000E+03	 0.00000000E+00
	-1.85427000E+02	-1.58569000E+03	 0.00000000E+00
	-1.98378000E+02	-1.55852000E+03	 0.00000000E+00
	-1.58595000E+02	-1.56359000E+03	 0.00000000E+00
	-1.87853000E+02	-1.57630000E+03	 0.00000000E+00
	-1.89800000E+02	-1.54602000E+03	 0.00000000E+00
	-1.47846000E+02	-1.58115000E+03	 0.00000000E+00
	-1.42412000E+02	-1.57980000E+03	 0.00000000E+00
	-1.40925000E+02	-1.57430000E+03	 0.00000000E+00
	-1.36893000E+02	-1.57836000E+03	 0.00000000E+00
	-1.38397000E+02	-1.58389000E+03	 0.00000000E+00
	-1.32920000E+02	-1.58249000E+03	 0.00000000E+00
	-1.34210000E+02	-1.58781000E+03	 0.00000000E+00
	-2.45581000E+02	-1.52477000E+03	 0.00000000E+00
	-1.90273000E+02	-1.56663000E+03	 0.00000000E+00
	-2.81872000E+02	-1.54445000E+03	 0.00000000E+00
	-1.39743000E+02	-1.59009000E+03	 0.00000000E+00
	-2.76910000E+02	-1.56338000E+03	 0.00000000E+00
	-3.32549000E+02	-1.58874000E+03	 0.00000000E+00
	-1.68467000E+02	-1.58140000E+03	 0.00000000E+00
	-1.63937000E+02	-1.58538000E+03	 0.00000000E+00
	-1.58594000E+02	-1.58398000E+03	 0.00000000E+00
	-3.18996000E+02	-1.56378000E+03	 0.00000000E+00
	-2.89791000E+02	-1.58673000E+03	 0.00000000E+00
	-1.35391000E+02	-1.57285000E+03	 0.00000000E+00
	-2.44540000E+02	-1.53836000E+03	 0.00000000E+00
	-2.81430000E+02	-1.57929000E+03	 0.00000000E+00
	-9.07910000E+01	-1.59137000E+03	 0.00000000E+00
	-8.84538000E+01	-1.58568000E+03	 0.00000000E+00
	-8.26785000E+01	-1.58440000E+03	 0.00000000E+00
	-8.69647000E+01	-1.58032000E+03	 0.00000000E+00
	-8.14809000E+01	-1.57895000E+03	 0.00000000E+00
	-8.54745000E+01	-1.57484000E+03	 0.00000000E+00
	-7.99251000E+01	-1.57343000E+03	 0.00000000E+00
	-7.59284000E+01	-1.57751000E+03	 0.00000000E+00
	-7.43697000E+01	-1.57201000E+03	 0.00000000E+00
	-7.03636000E+01	-1.57611000E+03	 0.00000000E+00
	-6.88122000E+01	-1.57059000E+03	 0.00000000E+00
	-6.48028000E+01	-1.57470000E+03	 0.00000000E+00
	-6.32512000E+01	-1.56917000E+03	 0.00000000E+00
	-5.92396000E+01	-1.57328000E+03	 0.00000000E+00
	-5.76901000E+01	-1.56775000E+03	 0.00000000E+00
	-6.16984000E+01	-1.56365000E+03	 0.00000000E+00
	-5.61440000E+01	-1.56223000E+03	 0.00000000E+00
	-7.30163000E+01	-1.56609000E+03	 0.00000000E+00
	-5.36741000E+01	-1.57186000E+03	 0.00000000E+00
	-5.52265000E+01	-1.57740000E+03	 0.00000000E+00
	-9.22398000E+01	-1.58141000E+03	 0.00000000E+00
	-6.01452000E+01	-1.55813000E+03	 0.00000000E+00
	-5.45956000E+01	-1.55671000E+03	 0.00000000E+00
	-5.05937000E+01	-1.56081000E+03	 0.00000000E+00
	-4.90500000E+01	-1.55529000E+03	 0.00000000E+00
	-4.50417000E+01	-1.55939000E+03	 0.00000000E+00
	-4.34940000E+01	-1.55386000E+03	 0.00000000E+00
	-8.39267000E+01	-1.56933000E+03	 0.00000000E+00
	-5.85850000E+01	-1.55260000E+03	 0.00000000E+00
	-4.95267000E+01	-1.57581000E+03	 0.00000000E+00
	-5.11969000E+01	-1.58145000E+03	 0.00000000E+00
	-3.94344000E+01	-1.55768000E+03	 0.00000000E+00
	-3.77793000E+01	-1.55204000E+03	 0.00000000E+00
	-4.19211000E+01	-1.54827000E+03	 0.00000000E+00
	-3.63994000E+01	-1.54692000E+03	 0.00000000E+00
	-6.56933000E+01	-1.55955000E+03	 0.00000000E+00
	-4.78676000E+01	-1.57027000E+03	 0.00000000E+00
	-7.19588000E+01	-1.58126000E+03	 0.00000000E+00
	-8.94520000E+01	-1.57089000E+03	 0.00000000E+00
	-8.84237000E+01	-1.56553000E+03	 0.00000000E+00
	-5.66255000E+01	-1.58275000E+03	 0.00000000E+00
	-4.03926000E+01	-1.54286000E+03	 0.00000000E+00
	-3.48599000E+01	-1.54141000E+03	 0.00000000E+00
	-3.08877000E+01	-1.54536000E+03	 0.00000000E+00
	-2.93202000E+01	-1.53995000E+03	 0.00000000E+00
	-2.53098000E+01	-1.54404000E+03	 0.00000000E+00
	-2.37655000E+01	-1.53853000E+03	 0.00000000E+00
	-1.95095000E+01	-1.54272000E+03	 0.00000000E+00
	-1.79346000E+01	-1.53721000E+03	 0.00000000E+00
	-2.21784000E+01	-1.53304000E+03	 0.00000000E+00
	-1.66236000E+01	-1.53161000E+03	 0.00000000E+00
	-1.26647000E+01	-1.53568000E+03	 0.00000000E+00
	-1.11223000E+01	-1.53016000E+03	 0.00000000E+00
	-7.19087000E+00	-1.53395000E+03	 0.00000000E+00
	-5.60091000E+00	-1.52867000E+03	 0.00000000E+00
	-1.58578000E+00	-1.53275000E+03	 0.00000000E+00
	-4.97879000E-02	-1.52727000E+03	 0.00000000E+00
	 3.96795000E+00	-1.53136000E+03	 0.00000000E+00
	 5.50151000E+00	-1.52585000E+03	 0.00000000E+00
	 9.51492000E+00	-1.52993000E+03	 0.00000000E+00
	 1.49247000E+00	-1.52178000E+03	 0.00000000E+00
	 7.97199000E+00	-1.53532000E+03	 0.00000000E+00
	 1.34912000E+01	-1.53386000E+03	 0.00000000E+00
	 1.50487000E+01	-1.52847000E+03	 0.00000000E+00
	 1.90626000E+01	-1.53254000E+03	 0.00000000E+00
	-9.60595000E+00	-1.52463000E+03	 0.00000000E+00
	 1.72102000E+01	-1.53785000E+03	 0.00000000E+00
	 2.30332000E+01	-1.53661000E+03	 0.00000000E+00
	-3.47041000E+00	-1.53856000E+03	 0.00000000E+00
	-4.58857000E+01	-1.54445000E+03	 0.00000000E+00
	 2.09107000E+01	-1.54192000E+03	 0.00000000E+00
	 2.67531000E+01	-1.54079000E+03	 0.00000000E+00
	-5.45272000E+02	-1.59601000E+03	 0.00000000E+00
	-5.50279000E+02	-1.58740000E+03	 0.00000000E+00
	 3.89781000E+01	-1.53715000E+03	 0.00000000E+00
	 7.38423000E+02	-1.48640000E+03	 0.00000000E+00
	 7.38378000E+02	-1.49634000E+03	 0.00000000E+00
	 7.41218000E+02	-1.50130000E+03	 0.00000000E+00
	 7.44163000E+02	-1.49631000E+03	 0.00000000E+00
	 7.38337000E+02	-1.50619000E+03	 0.00000000E+00
	 2.82362000E+02	-1.66361000E+03	 0.00000000E+00
	 1.54671000E+02	-1.70600000E+03	 0.00000000E+00
	 3.03366000E+02	-1.67996000E+03	 0.00000000E+00
	-3.34099000E+02	-1.67316000E+03	 0.00000000E+00
	-2.93030000E+02	-1.67673000E+03	 0.00000000E+00
	 2.93847000E+02	-1.67667000E+03	 0.00000000E+00
	-1.36018000E+02	-1.70324000E+03	 0.00000000E+00
	-4.95270000E+02	-1.62977000E+03	 0.00000000E+00
	-4.85339000E+01	-1.69939000E+03	 0.00000000E+00
	 4.84790000E+02	-1.63665000E+03	 0.00000000E+00
	 6.95369000E+02	-1.54087000E+03	 0.00000000E+00
	-2.81238000E+02	-1.67557000E+03	 0.00000000E+00
	-2.79204000E+02	-1.67007000E+03	 0.00000000E+00
	 3.37592000E+02	-1.67385000E+03	 0.00000000E+00
	 1.85012000E+02	-1.67939000E+03	 0.00000000E+00
	-4.60364000E+02	-1.63938000E+03	 0.00000000E+00
	-1.39916000E+02	-1.68280000E+03	 0.00000000E+00
	-3.04232000E+02	-1.67914000E+03	 0.00000000E+00
	 1.97038000E+02	-1.67825000E+03	 0.00000000E+00
	 1.92959000E+02	-1.67308000E+03	 0.00000000E+00
	 7.55665000E+02	-1.46725000E+03	 0.00000000E+00
	 7.57108000E+02	-1.45767000E+03	 0.00000000E+00
	-4.74972000E+02	-1.63647000E+03	 0.00000000E+00
	-1.82886000E+02	-1.68531000E+03	 0.00000000E+00
	 5.53053000E+01	-1.56928000E+03	 0.00000000E+00
	 6.08628000E+01	-1.56782000E+03	 0.00000000E+00
	 5.93368000E+01	-1.57336000E+03	 0.00000000E+00
	 6.48907000E+01	-1.57191000E+03	 0.00000000E+00
	 6.64174000E+01	-1.56637000E+03	 0.00000000E+00
	 7.04446000E+01	-1.57045000E+03	 0.00000000E+00
	 5.37783000E+01	-1.57482000E+03	 0.00000000E+00
	 5.43498000E+01	-1.55413000E+03	 0.00000000E+00
	 6.89253000E+01	-1.57599000E+03	 0.00000000E+00
	 7.44754000E+01	-1.57453000E+03	 0.00000000E+00
	 7.59904000E+01	-1.56900000E+03	 0.00000000E+00
	 8.00206000E+01	-1.57307000E+03	 0.00000000E+00
	 7.29628000E+01	-1.58007000E+03	 0.00000000E+00
	 5.78153000E+01	-1.57891000E+03	 0.00000000E+00
	 5.19511000E+01	-1.58048000E+03	 0.00000000E+00
	 8.15279000E+01	-1.56755000E+03	 0.00000000E+00
	 8.55614000E+01	-1.57161000E+03	 0.00000000E+00
	 8.40518000E+01	-1.57714000E+03	 0.00000000E+00
	 8.95953000E+01	-1.57568000E+03	 0.00000000E+00
	 3.75289000E+01	-1.55843000E+03	 0.00000000E+00
	 5.67585000E+01	-1.58532000E+03	 0.00000000E+00
	 4.96572000E+01	-1.58668000E+03	 0.00000000E+00
	 4.82052000E+01	-1.57626000E+03	 0.00000000E+00
	 7.74483000E+01	-1.56353000E+03	 0.00000000E+00
	 4.62457000E+01	-1.54599000E+03	 0.00000000E+00
	 3.38121000E+01	-1.53350000E+03	 0.00000000E+00
	 8.82087000E+01	-1.58108000E+03	 0.00000000E+00
	 9.36466000E+01	-1.57973000E+03	 0.00000000E+00
	 9.51306000E+01	-1.57422000E+03	 0.00000000E+00
	 9.91655000E+01	-1.57828000E+03	 0.00000000E+00
	 9.76652000E+01	-1.58381000E+03	 0.00000000E+00
	 1.03135000E+02	-1.58241000E+03	 0.00000000E+00
	 1.01847000E+02	-1.58773000E+03	 0.00000000E+00
	 4.57731000E+01	-1.56659000E+03	 0.00000000E+00
	 9.62871000E+01	-1.59005000E+03	 0.00000000E+00
	 2.03775000E+01	-1.52700000E+03	 0.00000000E+00
	-4.08901000E+01	-1.56336000E+03	 0.00000000E+00
	-9.65490000E+01	-1.58874000E+03	 0.00000000E+00
	 6.75891000E+01	-1.58135000E+03	 0.00000000E+00
	 7.02333000E+00	-1.52035000E+03	 0.00000000E+00
	 7.23693000E+01	-1.58521000E+03	 0.00000000E+00
	 7.76718000E+01	-1.58381000E+03	 0.00000000E+00
	-8.29960000E+01	-1.56378000E+03	 0.00000000E+00
	-2.06006000E+01	-1.52778000E+03	 0.00000000E+00
	-2.59541000E+01	-1.52906000E+03	 0.00000000E+00
	-5.29296000E+01	-1.58649000E+03	 0.00000000E+00
	-3.27852000E+01	-1.53597000E+03	 0.00000000E+00
	 1.00663000E+02	-1.57276000E+03	 0.00000000E+00
	-2.13571000E+01	-1.54775000E+03	 0.00000000E+00
	-4.54295000E+01	-1.57929000E+03	 0.00000000E+00
	 3.81608000E+02	-1.59146000E+03	 0.00000000E+00
	 2.14610000E+02	-1.55144000E+03	 0.00000000E+00
	-4.50601000E+02	-1.55237000E+03	 0.00000000E+00
	-2.57390000E+02	-1.55144000E+03	 0.00000000E+00
	 2.18500000E+01	-1.55162000E+03	 0.00000000E+00
	 9.78859000E+00	-1.54586000E+03	 0.00000000E+00
	-4.88275000E+02	-1.54818000E+03	 0.00000000E+00
	-2.32305000E+02	-1.54602000E+03	 0.00000000E+00
	-2.28498000E+02	-1.54112000E+03	 0.00000000E+00
	 2.39133000E+02	-1.54552000E+03	 0.00000000E+00
	 5.10484000E+02	-1.57328000E+03	 0.00000000E+00
	-5.10484000E+02	-1.57328000E+03	 0.00000000E+00
	-5.12381000E+02	-1.58629000E+03	 0.00000000E+00
	 5.12381000E+02	-1.58629000E+03	 0.00000000E+00
	 3.69137000E+02	-1.60021000E+03	 0.00000000E+00
	-3.37449000E+02	-1.59847000E+03	 0.00000000E+00
	 1.34551000E+02	-1.59847000E+03	 0.00000000E+00
	-1.01449000E+02	-1.59847000E+03	 0.00000000E+00
	 4.87823000E+02	-1.54942000E+03	 0.00000000E+00
	 4.81691000E+02	-1.54715000E+03	 0.00000000E+00
	-3.93906000E+02	-1.58895000E+03	 0.00000000E+00
	 3.93245000E+02	-1.58899000E+03	 0.00000000E+00
	 3.98822000E+02	-1.58707000E+03	 0.00000000E+00
	-2.67487000E+02	-1.56153000E+03	 0.00000000E+00
	 2.04513000E+02	-1.56153000E+03	 0.00000000E+00
	-4.41103000E+02	-1.56016000E+03	 0.00000000E+00
	-4.37545000E+02	-1.56452000E+03	 0.00000000E+00
	 4.40911000E+02	-1.56079000E+03	 0.00000000E+00
	 4.36385000E+02	-1.56580000E+03	 0.00000000E+00
	 4.30979000E+02	-1.56808000E+03	 0.00000000E+00
	 4.28387000E+02	-1.57244000E+03	 0.00000000E+00
	 4.31100000E+02	-1.57709000E+03	 0.00000000E+00
	 4.25303000E+02	-1.57727000E+03	 0.00000000E+00
	 2.51985000E+02	-1.54913000E+03	 0.00000000E+00
	-2.20610000E+02	-1.54815000E+03	 0.00000000E+00
	 3.92452000E+01	-1.57946000E+03	 0.00000000E+00
	 2.75348000E+02	-1.57941000E+03	 0.00000000E+00
	-4.32120000E+02	-1.57829000E+03	 0.00000000E+00
	-4.27093000E+02	-1.58136000E+03	 0.00000000E+00
	-4.28323000E+02	-1.57355000E+03	 0.00000000E+00
	-4.26455000E+02	-1.58722000E+03	 0.00000000E+00
	-4.21921000E+02	-1.58324000E+03	 0.00000000E+00
	-4.23223000E+02	-1.57698000E+03	 0.00000000E+00
	-4.29907000E+02	-1.56868000E+03	 0.00000000E+00
	-4.17422000E+02	-1.57812000E+03	 0.00000000E+00
	-4.16590000E+02	-1.58484000E+03	 0.00000000E+00
	-4.30673000E+02	-1.59071000E+03	 0.00000000E+00
	-1.96581000E+02	-1.57925000E+03	 0.00000000E+00
	 2.70845000E+02	-1.56702000E+03	 0.00000000E+00
	-2.01156000E+02	-1.56697000E+03	 0.00000000E+00
	 3.48571000E+01	-1.56701000E+03	 0.00000000E+00
	 2.94933000E+02	-1.59295000E+03	 0.00000000E+00
	 4.18380000E+02	-1.58909000E+03	 0.00000000E+00
	 4.23583000E+02	-1.59201000E+03	 0.00000000E+00
	 4.12802000E+02	-1.58551000E+03	 0.00000000E+00
	 4.18461000E+02	-1.58331000E+03	 0.00000000E+00
	 4.14722000E+02	-1.57910000E+03	 0.00000000E+00
	 4.23558000E+02	-1.59811000E+03	 0.00000000E+00
	 1.75735000E+02	-1.59107000E+03	 0.00000000E+00
	-3.46599000E+02	-1.61012000E+03	 0.00000000E+00
	-1.09826000E+02	-1.60876000E+03	 0.00000000E+00
	 1.25401000E+02	-1.61012000E+03	 0.00000000E+00
	 3.62265000E+02	-1.60936000E+03	 0.00000000E+00
	 3.48629000E+02	-1.61495000E+03	 0.00000000E+00
	-3.60095000E+02	-1.61577000E+03	 0.00000000E+00
	 1.11905000E+02	-1.61577000E+03	 0.00000000E+00
	-1.23692000E+02	-1.61604000E+03	 0.00000000E+00
	 2.75411000E+02	-1.59315000E+03	 0.00000000E+00
	 2.78529000E+02	-1.59868000E+03	 0.00000000E+00
	 2.80664000E+02	-1.59321000E+03	 0.00000000E+00
	-1.96550000E+02	-1.59204000E+03	 0.00000000E+00
	-1.92516000E+02	-1.59583000E+03	 0.00000000E+00
	 3.98865000E+01	-1.59118000E+03	 0.00000000E+00
	 4.37027000E+01	-1.59580000E+03	 0.00000000E+00
	-3.98865000E+01	-1.59118000E+03	 0.00000000E+00
	-4.37027000E+01	-1.59580000E+03	 0.00000000E+00
	-4.54847000E+01	-1.59087000E+03	 0.00000000E+00
	 1.96113000E+02	-1.59118000E+03	 0.00000000E+00
	 1.92297000E+02	-1.59580000E+03	 0.00000000E+00
	 1.90515000E+02	-1.59087000E+03	 0.00000000E+00
	-2.75887000E+02	-1.59118000E+03	 0.00000000E+00
	-2.79703000E+02	-1.59580000E+03	 0.00000000E+00
	-2.81610000E+02	-1.59094000E+03	 0.00000000E+00
	 4.33085000E+02	-1.59162000E+03	 0.00000000E+00
	-4.23892000E+02	-1.59903000E+03	 0.00000000E+00
	 3.64091000E+02	-1.65905000E+03	 0.00000000E+00
	 3.67599000E+02	-1.66332000E+03	 0.00000000E+00
	 3.62225000E+02	-1.66449000E+03	 0.00000000E+00
	 3.65963000E+02	-1.66889000E+03	 0.00000000E+00
	 3.60316000E+02	-1.66992000E+03	 0.00000000E+00
	 3.56607000E+02	-1.66553000E+03	 0.00000000E+00
	 3.54636000E+02	-1.67094000E+03	 0.00000000E+00
	 3.64052000E+02	-1.67435000E+03	 0.00000000E+00
	 3.69761000E+02	-1.67335000E+03	 0.00000000E+00
	 3.50916000E+02	-1.66650000E+03	 0.00000000E+00
	 3.48939000E+02	-1.67194000E+03	 0.00000000E+00
	 3.52662000E+02	-1.67638000E+03	 0.00000000E+00
	 3.46958000E+02	-1.67738000E+03	 0.00000000E+00
	 3.43250000E+02	-1.67305000E+03	 0.00000000E+00
	 3.41252000E+02	-1.67841000E+03	 0.00000000E+00
	 3.52853000E+02	-1.66104000E+03	 0.00000000E+00
	 3.44978000E+02	-1.68284000E+03	 0.00000000E+00
	 3.39267000E+02	-1.68384000E+03	 0.00000000E+00
	 3.35539000E+02	-1.67940000E+03	 0.00000000E+00
	 3.33555000E+02	-1.68485000E+03	 0.00000000E+00
	 3.29841000E+02	-1.68048000E+03	 0.00000000E+00
	 3.27846000E+02	-1.68586000E+03	 0.00000000E+00
	 3.24132000E+02	-1.68150000E+03	 0.00000000E+00
	 3.22136000E+02	-1.68687000E+03	 0.00000000E+00
	 3.18409000E+02	-1.68243000E+03	 0.00000000E+00
	 3.16423000E+02	-1.68787000E+03	 0.00000000E+00
	 3.12696000E+02	-1.68343000E+03	 0.00000000E+00
	 3.10711000E+02	-1.68887000E+03	 0.00000000E+00
	 3.06984000E+02	-1.68443000E+03	 0.00000000E+00
	 3.05000000E+02	-1.68988000E+03	 0.00000000E+00
	 3.01273000E+02	-1.68543000E+03	 0.00000000E+00
	 2.99289000E+02	-1.69088000E+03	 0.00000000E+00
	 2.95562000E+02	-1.68644000E+03	 0.00000000E+00
	 2.97746000E+02	-1.68073000E+03	 0.00000000E+00
	 2.91869000E+02	-1.68195000E+03	 0.00000000E+00
	 2.89857000E+02	-1.68744000E+03	 0.00000000E+00
	 2.86132000E+02	-1.68299000E+03	 0.00000000E+00
	 2.84142000E+02	-1.68845000E+03	 0.00000000E+00
	 2.80415000E+02	-1.68400000E+03	 0.00000000E+00
	 2.78430000E+02	-1.68945000E+03	 0.00000000E+00
	 2.74703000E+02	-1.68501000E+03	 0.00000000E+00
	 2.76688000E+02	-1.67956000E+03	 0.00000000E+00
	 2.70976000E+02	-1.68056000E+03	 0.00000000E+00
	 2.68992000E+02	-1.68601000E+03	 0.00000000E+00
	 2.65266000E+02	-1.68157000E+03	 0.00000000E+00
	 2.67243000E+02	-1.67611000E+03	 0.00000000E+00
	 2.61541000E+02	-1.67712000E+03	 0.00000000E+00
	 2.59556000E+02	-1.68257000E+03	 0.00000000E+00
	 2.55833000E+02	-1.67812000E+03	 0.00000000E+00
	 2.57820000E+02	-1.67268000E+03	 0.00000000E+00
	 2.52112000E+02	-1.67368000E+03	 0.00000000E+00
	 2.54094000E+02	-1.66823000E+03	 0.00000000E+00
	 2.48384000E+02	-1.66923000E+03	 0.00000000E+00
	 2.46404000E+02	-1.67468000E+03	 0.00000000E+00
	 2.42672000E+02	-1.67023000E+03	 0.00000000E+00
	 2.40695000E+02	-1.67568000E+03	 0.00000000E+00
	 2.36971000E+02	-1.67123000E+03	 0.00000000E+00
	 2.34988000E+02	-1.67668000E+03	 0.00000000E+00
	 2.31268000E+02	-1.67223000E+03	 0.00000000E+00
	 2.29281000E+02	-1.67767000E+03	 0.00000000E+00
	 2.33248000E+02	-1.66679000E+03	 0.00000000E+00
	 2.25561000E+02	-1.67323000E+03	 0.00000000E+00
	 2.23573000E+02	-1.67868000E+03	 0.00000000E+00
	 2.50346000E+02	-1.66378000E+03	 0.00000000E+00
	 2.19853000E+02	-1.67423000E+03	 0.00000000E+00
	 2.17865000E+02	-1.67967000E+03	 0.00000000E+00
	 2.14145000E+02	-1.67523000E+03	 0.00000000E+00
	 2.12157000E+02	-1.68068000E+03	 0.00000000E+00
	 2.16133000E+02	-1.66979000E+03	 0.00000000E+00
	 2.32992000E+02	-1.68212000E+03	 0.00000000E+00
	 2.15867000E+02	-1.68512000E+03	 0.00000000E+00
	 2.10164000E+02	-1.68612000E+03	 0.00000000E+00
	 2.06447000E+02	-1.68168000E+03	 0.00000000E+00
	 2.04456000E+02	-1.68712000E+03	 0.00000000E+00
	 2.00737000E+02	-1.68268000E+03	 0.00000000E+00
	 1.98747000E+02	-1.68812000E+03	 0.00000000E+00
	 1.95027000E+02	-1.68367000E+03	 0.00000000E+00
	 1.93037000E+02	-1.68911000E+03	 0.00000000E+00
	 1.89318000E+02	-1.68467000E+03	 0.00000000E+00
	 1.87327000E+02	-1.69011000E+03	 0.00000000E+00
	 2.08152000E+02	-1.69157000E+03	 0.00000000E+00
	 2.02727000E+02	-1.67723000E+03	 0.00000000E+00
	 2.59780000E+02	-1.66722000E+03	 0.00000000E+00
	 2.53845000E+02	-1.68357000E+03	 0.00000000E+00
	 1.96730000E+02	-1.69356000E+03	 0.00000000E+00
	 1.83608000E+02	-1.68567000E+03	 0.00000000E+00
	 1.81618000E+02	-1.69111000E+03	 0.00000000E+00
	 1.77908000E+02	-1.68672000E+03	 0.00000000E+00
	 1.75910000E+02	-1.69212000E+03	 0.00000000E+00
	 1.72201000E+02	-1.68773000E+03	 0.00000000E+00
	 1.70201000E+02	-1.69312000E+03	 0.00000000E+00
	 1.66482000E+02	-1.68868000E+03	 0.00000000E+00
	 1.64490000E+02	-1.69411000E+03	 0.00000000E+00
	 1.60771000E+02	-1.68967000E+03	 0.00000000E+00
	 1.58782000E+02	-1.69511000E+03	 0.00000000E+00
	 1.55061000E+02	-1.69067000E+03	 0.00000000E+00
	 1.53070000E+02	-1.69611000E+03	 0.00000000E+00
	 1.49350000E+02	-1.69167000E+03	 0.00000000E+00
	 1.47359000E+02	-1.69710000E+03	 0.00000000E+00
	 1.43640000E+02	-1.69267000E+03	 0.00000000E+00
	 1.41648000E+02	-1.69810000E+03	 0.00000000E+00
	 1.37928000E+02	-1.69366000E+03	 0.00000000E+00
	 1.35936000E+02	-1.69910000E+03	 0.00000000E+00
	 1.32216000E+02	-1.69466000E+03	 0.00000000E+00
	 1.30187000E+02	-1.70009000E+03	 0.00000000E+00
	 1.26499000E+02	-1.69565000E+03	 0.00000000E+00
	 1.28494000E+02	-1.69022000E+03	 0.00000000E+00
	 1.22783000E+02	-1.69122000E+03	 0.00000000E+00
	 1.20752000E+02	-1.69664000E+03	 0.00000000E+00
	 1.17068000E+02	-1.69221000E+03	 0.00000000E+00
	 1.19065000E+02	-1.68677000E+03	 0.00000000E+00
	 1.13356000E+02	-1.68777000E+03	 0.00000000E+00
	 1.11362000E+02	-1.69320000E+03	 0.00000000E+00
	 1.07647000E+02	-1.68877000E+03	 0.00000000E+00
	 1.05653000E+02	-1.69420000E+03	 0.00000000E+00
	 1.01938000E+02	-1.68976000E+03	 0.00000000E+00
	 9.99439000E+01	-1.69519000E+03	 0.00000000E+00
	 9.62281000E+01	-1.69076000E+03	 0.00000000E+00
	 9.42340000E+01	-1.69619000E+03	 0.00000000E+00
	 9.05175000E+01	-1.69176000E+03	 0.00000000E+00
	 8.85254000E+01	-1.69719000E+03	 0.00000000E+00
	 8.48075000E+01	-1.69275000E+03	 0.00000000E+00
	 8.28140000E+01	-1.69818000E+03	 0.00000000E+00
	 7.90976000E+01	-1.69375000E+03	 0.00000000E+00
	 7.71036000E+01	-1.69918000E+03	 0.00000000E+00
	 7.33879000E+01	-1.69475000E+03	 0.00000000E+00
	 7.13937000E+01	-1.70018000E+03	 0.00000000E+00
	 6.76783000E+01	-1.69574000E+03	 0.00000000E+00
	 6.56862000E+01	-1.70118000E+03	 0.00000000E+00
	 1.15347000E+02	-1.68233000E+03	 0.00000000E+00
	 9.78675000E+01	-1.70064000E+03	 0.00000000E+00
	 6.19695000E+01	-1.69674000E+03	 0.00000000E+00
	 5.99796000E+01	-1.70218000E+03	 0.00000000E+00
	 8.07282000E+01	-1.70364000E+03	 0.00000000E+00
	 6.39601000E+01	-1.69130000E+03	 0.00000000E+00
	 1.45630000E+02	-1.68722000E+03	 0.00000000E+00
	 1.68168000E+02	-1.69856000E+03	 0.00000000E+00
	 1.21053000E+02	-1.68133000E+03	 0.00000000E+00
	 1.17338000E+02	-1.67689000E+03	 0.00000000E+00
	 1.85304000E+02	-1.69556000E+03	 0.00000000E+00
	 1.09293000E+02	-1.69865000E+03	 0.00000000E+00
	 1.51029000E+02	-1.70155000E+03	 0.00000000E+00
	 5.82544000E+01	-1.69230000E+03	 0.00000000E+00
	 1.03937000E+02	-1.68432000E+03	 0.00000000E+00
	 6.93797000E+01	-1.70560000E+03	 0.00000000E+00
	 2.57568000E+02	-1.68802000E+03	 0.00000000E+00
	 2.51855000E+02	-1.68902000E+03	 0.00000000E+00
	 8.11454000E+01	-1.68863000E+03	 0.00000000E+00
	 6.02449000E+01	-1.68686000E+03	 0.00000000E+00
	 1.23041000E+02	-1.67589000E+03	 0.00000000E+00
	 1.19326000E+02	-1.67145000E+03	 0.00000000E+00
	 1.39601000E+02	-1.70355000E+03	 0.00000000E+00
	 9.25160000E+01	-1.68632000E+03	 0.00000000E+00
	 1.13624000E+02	-1.67245000E+03	 0.00000000E+00
	 1.91419000E+02	-1.67933000E+03	 0.00000000E+00
	 6.59498000E+01	-1.68586000E+03	 0.00000000E+00
	 2.55579000E+02	-1.69346000E+03	 0.00000000E+00
	 2.49864000E+02	-1.69447000E+03	 0.00000000E+00
	 5.45408000E+01	-1.68786000E+03	 0.00000000E+00
	 5.25508000E+01	-1.69329000E+03	 0.00000000E+00
	 5.65356000E+01	-1.68254000E+03	 0.00000000E+00
	 1.15612000E+02	-1.66701000E+03	 0.00000000E+00
	 1.79889000E+02	-1.68123000E+03	 0.00000000E+00
	 1.56976000E+02	-1.68505000E+03	 0.00000000E+00
	 1.25028000E+02	-1.67045000E+03	 0.00000000E+00
	 1.28743000E+02	-1.67489000E+03	 0.00000000E+00
	 1.68490000E+02	-1.68326000E+03	 0.00000000E+00
	 2.88155000E+02	-1.67776000E+03	 0.00000000E+00
	 2.46139000E+02	-1.69002000E+03	 0.00000000E+00
	 2.44146000E+02	-1.69547000E+03	 0.00000000E+00
	 4.88380000E+01	-1.68885000E+03	 0.00000000E+00
	 4.68474000E+01	-1.69429000E+03	 0.00000000E+00
	 1.09911000E+02	-1.66801000E+03	 0.00000000E+00
	 3.20918000E+02	-1.67692000E+03	 0.00000000E+00
	 2.87866000E+02	-1.69289000E+03	 0.00000000E+00
	 2.47873000E+02	-1.69992000E+03	 0.00000000E+00
	 2.42155000E+02	-1.70092000E+03	 0.00000000E+00
	 2.38429000E+02	-1.69647000E+03	 0.00000000E+00
	 2.36436000E+02	-1.70192000E+03	 0.00000000E+00
	 2.32709000E+02	-1.69747000E+03	 0.00000000E+00
	 2.30717000E+02	-1.70292000E+03	 0.00000000E+00
	 2.26990000E+02	-1.69847000E+03	 0.00000000E+00
	 2.24998000E+02	-1.70392000E+03	 0.00000000E+00
	 2.21271000E+02	-1.69947000E+03	 0.00000000E+00
	 2.19279000E+02	-1.70493000E+03	 0.00000000E+00
	 2.28982000E+02	-1.69302000E+03	 0.00000000E+00
	 3.67798000E+02	-1.67880000E+03	 0.00000000E+00
	 3.73504000E+02	-1.67779000E+03	 0.00000000E+00
	 1.07923000E+02	-1.67344000E+03	 0.00000000E+00
	 2.10427000E+02	-1.67079000E+03	 0.00000000E+00
	 2.12414000E+02	-1.66535000E+03	 0.00000000E+00
	 2.06711000E+02	-1.66635000E+03	 0.00000000E+00
	 2.08697000E+02	-1.66091000E+03	 0.00000000E+00
	 2.14400000E+02	-1.65991000E+03	 0.00000000E+00
	 2.10683000E+02	-1.65547000E+03	 0.00000000E+00
	 2.16384000E+02	-1.65448000E+03	 0.00000000E+00
	 2.12669000E+02	-1.65004000E+03	 0.00000000E+00
	 2.18368000E+02	-1.64904000E+03	 0.00000000E+00
	 2.14653000E+02	-1.64460000E+03	 0.00000000E+00
	 2.20352000E+02	-1.64360000E+03	 0.00000000E+00
	 2.24067000E+02	-1.64804000E+03	 0.00000000E+00
	 2.26051000E+02	-1.64260000E+03	 0.00000000E+00
	 2.29766000E+02	-1.64704000E+03	 0.00000000E+00
	 2.31749000E+02	-1.64161000E+03	 0.00000000E+00
	 2.35464000E+02	-1.64604000E+03	 0.00000000E+00
	 2.37384000E+02	-1.64066000E+03	 0.00000000E+00
	 2.41153000E+02	-1.64505000E+03	 0.00000000E+00
	 2.39178000E+02	-1.65048000E+03	 0.00000000E+00
	 2.44877000E+02	-1.64948000E+03	 0.00000000E+00
	 2.46861000E+02	-1.64404000E+03	 0.00000000E+00
	 2.50578000E+02	-1.64848000E+03	 0.00000000E+00
	 2.52561000E+02	-1.64304000E+03	 0.00000000E+00
	 2.56277000E+02	-1.64748000E+03	 0.00000000E+00
	 2.02995000E+02	-1.66191000E+03	 0.00000000E+00
	 2.16900000E+02	-1.63927000E+03	 0.00000000E+00
	 2.20102000E+02	-1.65891000E+03	 0.00000000E+00
	 2.58126000E+02	-1.64215000E+03	 0.00000000E+00
	 2.54523000E+02	-1.63763000E+03	 0.00000000E+00
	 2.61819000E+02	-1.64661000E+03	 0.00000000E+00
	 2.59966000E+02	-1.65193000E+03	 0.00000000E+00
	 2.27938000E+02	-1.63689000E+03	 0.00000000E+00
	 2.08907000E+02	-1.64573000E+03	 0.00000000E+00
	 2.42894000E+02	-1.65491000E+03	 0.00000000E+00
	 2.01008000E+02	-1.66735000E+03	 0.00000000E+00
	 1.97460000E+02	-1.66277000E+03	 0.00000000E+00
	 1.95777000E+02	-1.66786000E+03	 0.00000000E+00
	 5.05601000E+01	-1.69873000E+03	 0.00000000E+00
	 4.48562000E+01	-1.69972000E+03	 0.00000000E+00
	 4.85701000E+01	-1.70417000E+03	 0.00000000E+00
	 4.28625000E+01	-1.70516000E+03	 0.00000000E+00
	 4.65808000E+01	-1.70961000E+03	 0.00000000E+00
	 4.08688000E+01	-1.71060000E+03	 0.00000000E+00
	 4.45879000E+01	-1.71505000E+03	 0.00000000E+00
	 5.03015000E+01	-1.71406000E+03	 0.00000000E+00
	 3.88756000E+01	-1.71605000E+03	 0.00000000E+00
	 3.51568000E+01	-1.71160000E+03	 0.00000000E+00
	 3.31630000E+01	-1.71704000E+03	 0.00000000E+00
	 2.95327000E+01	-1.71263000E+03	 0.00000000E+00
	 2.74659000E+01	-1.71804000E+03	 0.00000000E+00
	 3.68811000E+01	-1.72149000E+03	 0.00000000E+00
	 2.27782000E+02	-1.65247000E+03	 0.00000000E+00
	 2.37197000E+02	-1.65591000E+03	 0.00000000E+00
	 2.61294000E+02	-1.69246000E+03	 0.00000000E+00
	 2.59306000E+02	-1.69791000E+03	 0.00000000E+00
	 2.65022000E+02	-1.69691000E+03	 0.00000000E+00
	 3.62087000E+02	-1.67981000E+03	 0.00000000E+00
	 2.15557000E+02	-1.70047000E+03	 0.00000000E+00
	 2.13560000E+02	-1.70593000E+03	 0.00000000E+00
	 2.09839000E+02	-1.70148000E+03	 0.00000000E+00
	 2.07837000E+02	-1.70690000E+03	 0.00000000E+00
	 2.04114000E+02	-1.70247000E+03	 0.00000000E+00
	 2.02117000E+02	-1.70790000E+03	 0.00000000E+00
	 1.98398000E+02	-1.70347000E+03	 0.00000000E+00
	 2.60134000E+02	-1.63657000E+03	 0.00000000E+00
	 2.56507000E+02	-1.63217000E+03	 0.00000000E+00
	 2.61676000E+02	-1.63086000E+03	 0.00000000E+00
	 3.93110000E+01	-1.70080000E+03	 0.00000000E+00
	 3.14395000E+02	-1.69307000E+03	 0.00000000E+00
	 1.31172000E+02	-1.66932000E+03	 0.00000000E+00
	 1.34796000E+02	-1.67373000E+03	 0.00000000E+00
	 1.27016000E+02	-1.66502000E+03	 0.00000000E+00
	 1.32517000E+02	-1.67930000E+03	 0.00000000E+00
	 1.38228000E+02	-1.67830000E+03	 0.00000000E+00
	 1.40146000E+02	-1.67290000E+03	 0.00000000E+00
	 1.43873000E+02	-1.67733000E+03	 0.00000000E+00
	 2.50955000E+02	-1.63331000E+03	 0.00000000E+00
	 2.65514000E+02	-1.65088000E+03	 0.00000000E+00
	 2.63674000E+02	-1.65634000E+03	 0.00000000E+00
	 2.69083000E+02	-1.65505000E+03	 0.00000000E+00
	 2.67369000E+02	-1.66073000E+03	 0.00000000E+00
	 1.45671000E+02	-1.67261000E+03	 0.00000000E+00
	 1.49563000E+02	-1.67634000E+03	 0.00000000E+00
	 2.72896000E+02	-1.65957000E+03	 0.00000000E+00
	 2.71104000E+02	-1.66517000E+03	 0.00000000E+00
	 3.31524000E+02	-1.69003000E+03	 0.00000000E+00
	 1.11907000E+02	-1.66262000E+03	 0.00000000E+00
	 1.17559000E+02	-1.66162000E+03	 0.00000000E+00
	 1.96388000E+02	-1.70884000E+03	 0.00000000E+00
	 1.92680000E+02	-1.70446000E+03	 0.00000000E+00
	 1.90667000E+02	-1.70983000E+03	 0.00000000E+00
	 1.86961000E+02	-1.70546000E+03	 0.00000000E+00
	 1.84937000E+02	-1.71077000E+03	 0.00000000E+00
	 1.81233000E+02	-1.70645000E+03	 0.00000000E+00
	 2.76980000E+02	-1.66437000E+03	 0.00000000E+00
	 3.32158000E+02	-1.67477000E+03	 0.00000000E+00
	 3.09042000E+02	-1.67900000E+03	 0.00000000E+00
	 1.04312000E+02	-1.66904000E+03	 0.00000000E+00
	 1.02239000E+02	-1.67444000E+03	 0.00000000E+00
	 3.65712000E+02	-1.68456000E+03	 0.00000000E+00
	 1.98934000E+02	-1.65739000E+03	 0.00000000E+00
	 3.47317000E+02	-1.66222000E+03	 0.00000000E+00
	 4.82863000E+01	-1.71938000E+03	 0.00000000E+00
	 5.40198000E+01	-1.71848000E+03	 0.00000000E+00
	 5.60160000E+01	-1.71306000E+03	 0.00000000E+00
	 5.97389000E+01	-1.71750000E+03	 0.00000000E+00
	 3.60268000E+02	-1.65446000E+03	 0.00000000E+00
	 3.56102000E+02	-1.65004000E+03	 0.00000000E+00
	 3.58010000E+02	-1.64460000E+03	 0.00000000E+00
	 2.74858000E+02	-1.66966000E+03	 0.00000000E+00
	 2.80589000E+02	-1.66872000E+03	 0.00000000E+00
	 1.36189000E+02	-1.68377000E+03	 0.00000000E+00
	 2.40912000E+02	-1.66035000E+03	 0.00000000E+00
	 2.44415000E+02	-1.68012000E+03	 0.00000000E+00
	 2.17563000E+02	-1.69502000E+03	 0.00000000E+00
	 2.58003000E+02	-1.65735000E+03	 0.00000000E+00
	 6.17245000E+01	-1.71206000E+03	 0.00000000E+00
	 6.54561000E+01	-1.71651000E+03	 0.00000000E+00
	 1.79229000E+02	-1.71184000E+03	 0.00000000E+00
	 1.75522000E+02	-1.70746000E+03	 0.00000000E+00
	 1.73493000E+02	-1.71274000E+03	 0.00000000E+00
	 1.69801000E+02	-1.70845000E+03	 0.00000000E+00
	 1.67758000E+02	-1.71365000E+03	 0.00000000E+00
	 1.64071000E+02	-1.70943000E+03	 0.00000000E+00
	 1.77524000E+02	-1.70202000E+03	 0.00000000E+00
	 3.48291000E+02	-1.65694000E+03	 0.00000000E+00
	 1.14054000E+02	-1.65726000E+03	 0.00000000E+00
	 1.19478000E+02	-1.65619000E+03	 0.00000000E+00
	 1.15380000E+02	-1.65099000E+03	 0.00000000E+00
	 1.21277000E+02	-1.65052000E+03	 0.00000000E+00
	 1.88154000E+02	-1.71503000E+03	 0.00000000E+00
	 2.67673000E+02	-1.64511000E+03	 0.00000000E+00
	 2.40642000E+01	-1.71356000E+03	 0.00000000E+00
	 2.18940000E+01	-1.71892000E+03	 0.00000000E+00
	 1.93409000E+02	-1.65837000E+03	 0.00000000E+00
	 3.75500000E+02	-1.67241000E+03	 0.00000000E+00
	 3.79333000E+02	-1.67675000E+03	 0.00000000E+00
	 9.87148000E+01	-1.67021000E+03	 0.00000000E+00
	 9.65579000E+01	-1.67547000E+03	 0.00000000E+00
	 9.28085000E+01	-1.67099000E+03	 0.00000000E+00
	 9.09344000E+01	-1.67653000E+03	 0.00000000E+00
	 3.43215000E+02	-1.68810000E+03	 0.00000000E+00
	 3.48687000E+02	-1.68694000E+03	 0.00000000E+00
	 5.77465000E+01	-1.72296000E+03	 0.00000000E+00
	 2.52702000E+02	-1.62754000E+03	 0.00000000E+00
	 2.46297000E+02	-1.70494000E+03	 0.00000000E+00
	 4.34402000E+01	-1.68996000E+03	 0.00000000E+00
	 4.54771000E+01	-1.68548000E+03	 0.00000000E+00
	 3.60335000E+02	-1.68510000E+03	 0.00000000E+00
	 1.71178000E+02	-1.71769000E+03	 0.00000000E+00
	 2.34173000E+02	-1.70759000E+03	 0.00000000E+00
	-3.58923000E+02	-1.64104000E+03	 0.00000000E+00
	-3.56164000E+02	-1.64664000E+03	 0.00000000E+00
	-3.57917000E+02	-1.65177000E+03	 0.00000000E+00
	-3.53174000E+02	-1.64217000E+03	 0.00000000E+00
	-3.52607000E+02	-1.65155000E+03	 0.00000000E+00
	-3.54550000E+02	-1.65656000E+03	 0.00000000E+00
	-3.48724000E+02	-1.65578000E+03	 0.00000000E+00
	-3.50984000E+02	-1.66111000E+03	 0.00000000E+00
	-3.56764000E+02	-1.66201000E+03	 0.00000000E+00
	-3.53116000E+02	-1.66651000E+03	 0.00000000E+00
	-3.58816000E+02	-1.66760000E+03	 0.00000000E+00
	-3.55199000E+02	-1.67195000E+03	 0.00000000E+00
	-3.49481000E+02	-1.67102000E+03	 0.00000000E+00
	-3.60923000E+02	-1.67285000E+03	 0.00000000E+00
	-3.51563000E+02	-1.67643000E+03	 0.00000000E+00
	-3.45838000E+02	-1.67552000E+03	 0.00000000E+00
	-3.47921000E+02	-1.68093000E+03	 0.00000000E+00
	-3.42193000E+02	-1.68003000E+03	 0.00000000E+00
	-3.40211000E+02	-1.67470000E+03	 0.00000000E+00
	-3.36482000E+02	-1.67914000E+03	 0.00000000E+00
	-3.64651000E+02	-1.66851000E+03	 0.00000000E+00
	-3.66723000E+02	-1.67381000E+03	 0.00000000E+00
	-3.63086000E+02	-1.67822000E+03	 0.00000000E+00
	-3.54151000E+02	-1.68273000E+03	 0.00000000E+00
	-3.38551000E+02	-1.68454000E+03	 0.00000000E+00
	-3.32823000E+02	-1.68364000E+03	 0.00000000E+00
	-3.30742000E+02	-1.67823000E+03	 0.00000000E+00
	-3.27094000E+02	-1.68273000E+03	 0.00000000E+00
	-3.25064000E+02	-1.67736000E+03	 0.00000000E+00
	-3.21377000E+02	-1.68183000E+03	 0.00000000E+00
	-3.19474000E+02	-1.67656000E+03	 0.00000000E+00
	-3.15675000E+02	-1.68094000E+03	 0.00000000E+00
	-3.17729000E+02	-1.68634000E+03	 0.00000000E+00
	-3.12001000E+02	-1.68543000E+03	 0.00000000E+00
	-3.14077000E+02	-1.69084000E+03	 0.00000000E+00
	-3.08348000E+02	-1.68993000E+03	 0.00000000E+00
	-3.06268000E+02	-1.68452000E+03	 0.00000000E+00
	-3.02618000E+02	-1.68902000E+03	 0.00000000E+00
	-3.00540000E+02	-1.68361000E+03	 0.00000000E+00
	-2.96891000E+02	-1.68812000E+03	 0.00000000E+00
	-2.94813000E+02	-1.68270000E+03	 0.00000000E+00
	-2.91164000E+02	-1.68721000E+03	 0.00000000E+00
	-2.89086000E+02	-1.68180000E+03	 0.00000000E+00
	-2.85438000E+02	-1.68630000E+03	 0.00000000E+00
	-2.83360000E+02	-1.68089000E+03	 0.00000000E+00
	-2.79711000E+02	-1.68539000E+03	 0.00000000E+00
	-2.77634000E+02	-1.67998000E+03	 0.00000000E+00
	-2.73985000E+02	-1.68449000E+03	 0.00000000E+00
	-2.71905000E+02	-1.67907000E+03	 0.00000000E+00
	-2.68258000E+02	-1.68358000E+03	 0.00000000E+00
	-2.66178000E+02	-1.67817000E+03	 0.00000000E+00
	-2.62531000E+02	-1.68267000E+03	 0.00000000E+00
	-2.60454000E+02	-1.67726000E+03	 0.00000000E+00
	-2.56805000E+02	-1.68176000E+03	 0.00000000E+00
	-2.54725000E+02	-1.67635000E+03	 0.00000000E+00
	-2.51077000E+02	-1.68086000E+03	 0.00000000E+00
	-2.48997000E+02	-1.67545000E+03	 0.00000000E+00
	-2.45350000E+02	-1.67995000E+03	 0.00000000E+00
	-2.43273000E+02	-1.67454000E+03	 0.00000000E+00
	-2.39626000E+02	-1.67903000E+03	 0.00000000E+00
	-2.37547000E+02	-1.67363000E+03	 0.00000000E+00
	-2.33901000E+02	-1.67812000E+03	 0.00000000E+00
	-2.46916000E+02	-1.67003000E+03	 0.00000000E+00
	-2.31822000E+02	-1.67272000E+03	 0.00000000E+00
	-2.28177000E+02	-1.67721000E+03	 0.00000000E+00
	-2.26098000E+02	-1.67181000E+03	 0.00000000E+00
	-2.22450000E+02	-1.67632000E+03	 0.00000000E+00
	-2.29745000E+02	-1.66731000E+03	 0.00000000E+00
	-2.24537000E+02	-1.68170000E+03	 0.00000000E+00
	-2.18804000E+02	-1.68082000E+03	 0.00000000E+00
	-2.16726000E+02	-1.67541000E+03	 0.00000000E+00
	-2.13078000E+02	-1.67991000E+03	 0.00000000E+00
	-2.15153000E+02	-1.68533000E+03	 0.00000000E+00
	-2.09430000E+02	-1.68442000E+03	 0.00000000E+00
	-2.11003000E+02	-1.67450000E+03	 0.00000000E+00
	-2.41700000E+02	-1.68442000E+03	 0.00000000E+00
	-2.64097000E+02	-1.67275000E+03	 0.00000000E+00
	-2.11505000E+02	-1.68983000E+03	 0.00000000E+00
	-2.05779000E+02	-1.68892000E+03	 0.00000000E+00
	-2.14650000E+02	-1.67000000E+03	 0.00000000E+00
	-2.08928000E+02	-1.66910000E+03	 0.00000000E+00
	-2.12575000E+02	-1.66460000E+03	 0.00000000E+00
	-2.05282000E+02	-1.67360000E+03	 0.00000000E+00
	-2.17248000E+02	-1.69071000E+03	 0.00000000E+00
	-2.53157000E+02	-1.68626000E+03	 0.00000000E+00
	-2.07861000E+02	-1.69432000E+03	 0.00000000E+00
	-2.02127000E+02	-1.69343000E+03	 0.00000000E+00
	-2.00049000E+02	-1.68801000E+03	 0.00000000E+00
	-1.96398000E+02	-1.69252000E+03	 0.00000000E+00
	-1.94324000E+02	-1.68711000E+03	 0.00000000E+00
	-1.90672000E+02	-1.69161000E+03	 0.00000000E+00
	-1.88595000E+02	-1.68620000E+03	 0.00000000E+00
	-1.84945000E+02	-1.69070000E+03	 0.00000000E+00
	-1.87020000E+02	-1.69611000E+03	 0.00000000E+00
	-1.81294000E+02	-1.69520000E+03	 0.00000000E+00
	-1.79219000E+02	-1.68979000E+03	 0.00000000E+00
	-1.75567000E+02	-1.69429000E+03	 0.00000000E+00
	-1.73493000E+02	-1.68888000E+03	 0.00000000E+00
	-1.69841000E+02	-1.69338000E+03	 0.00000000E+00
	-1.71916000E+02	-1.69880000E+03	 0.00000000E+00
	-1.66189000E+02	-1.69789000E+03	 0.00000000E+00
	-1.64115000E+02	-1.69247000E+03	 0.00000000E+00
	-1.60463000E+02	-1.69697000E+03	 0.00000000E+00
	-1.58396000E+02	-1.69157000E+03	 0.00000000E+00
	-1.54739000E+02	-1.69606000E+03	 0.00000000E+00
	-1.52629000E+02	-1.69093000E+03	 0.00000000E+00
	-1.49008000E+02	-1.69519000E+03	 0.00000000E+00
	-1.46890000E+02	-1.69006000E+03	 0.00000000E+00
	-1.43279000E+02	-1.69430000E+03	 0.00000000E+00
	-1.41206000E+02	-1.68889000E+03	 0.00000000E+00
	-1.37562000E+02	-1.69335000E+03	 0.00000000E+00
	-1.35490000E+02	-1.68793000E+03	 0.00000000E+00
	-1.31840000E+02	-1.69242000E+03	 0.00000000E+00
	-1.29768000E+02	-1.68701000E+03	 0.00000000E+00
	-1.26117000E+02	-1.69150000E+03	 0.00000000E+00
	-1.24046000E+02	-1.68609000E+03	 0.00000000E+00
	-1.20395000E+02	-1.69059000E+03	 0.00000000E+00
	-1.18324000E+02	-1.68518000E+03	 0.00000000E+00
	-1.14673000E+02	-1.68968000E+03	 0.00000000E+00
	-1.16747000E+02	-1.69509000E+03	 0.00000000E+00
	-1.11021000E+02	-1.69418000E+03	 0.00000000E+00
	-1.09000000E+02	-1.68902000E+03	 0.00000000E+00
	-1.05289000E+02	-1.69341000E+03	 0.00000000E+00
	-1.22016000E+02	-1.68067000E+03	 0.00000000E+00
	-1.07367000E+02	-1.69871000E+03	 0.00000000E+00
	-1.01641000E+02	-1.69780000E+03	 0.00000000E+00
	-9.95538000E+01	-1.69249000E+03	 0.00000000E+00
	-9.59148000E+01	-1.69688000E+03	 0.00000000E+00
	-9.38072000E+01	-1.69170000E+03	 0.00000000E+00
	-9.01865000E+01	-1.69599000E+03	 0.00000000E+00
	-8.81772000E+01	-1.69098000E+03	 0.00000000E+00
	-8.44767000E+01	-1.69511000E+03	 0.00000000E+00
	-8.65402000E+01	-1.70047000E+03	 0.00000000E+00
	-8.08165000E+01	-1.69955000E+03	 0.00000000E+00
	-7.87460000E+01	-1.69413000E+03	 0.00000000E+00
	-7.50913000E+01	-1.69862000E+03	 0.00000000E+00
	-7.30218000E+01	-1.69320000E+03	 0.00000000E+00
	-6.93677000E+01	-1.69770000E+03	 0.00000000E+00
	-6.72990000E+01	-1.69229000E+03	 0.00000000E+00
	-6.36462000E+01	-1.69678000E+03	 0.00000000E+00
	-1.33920000E+02	-1.69783000E+03	 0.00000000E+00
	-6.57142000E+01	-1.70220000E+03	 0.00000000E+00
	-5.99920000E+01	-1.70128000E+03	 0.00000000E+00
	-6.15768000E+01	-1.69137000E+03	 0.00000000E+00
	-1.03715000E+02	-1.70319000E+03	 0.00000000E+00
	-1.16497000E+02	-1.67968000E+03	 0.00000000E+00
	-1.09442000E+02	-1.70410000E+03	 0.00000000E+00
	-9.72511000E+01	-1.68651000E+03	 0.00000000E+00
	-1.19992000E+02	-1.67524000E+03	 0.00000000E+00
	-8.28859000E+01	-1.70495000E+03	 0.00000000E+00
	-1.45360000E+02	-1.69965000E+03	 0.00000000E+00
	-1.56821000E+02	-1.70147000E+03	 0.00000000E+00
	-6.20599000E+01	-1.70670000E+03	 0.00000000E+00
	-5.63363000E+01	-1.70578000E+03	 0.00000000E+00
	-1.45855000E+02	-1.68524000E+03	 0.00000000E+00
	-2.03207000E+02	-1.66819000E+03	 0.00000000E+00
	-7.64545000E+01	-1.68879000E+03	 0.00000000E+00
	-5.42687000E+01	-1.70037000E+03	 0.00000000E+00
	-5.06123000E+01	-1.70486000E+03	 0.00000000E+00
	-2.64611000E+02	-1.68807000E+03	 0.00000000E+00
	-1.14476000E+02	-1.67425000E+03	 0.00000000E+00
	-1.17894000E+02	-1.66984000E+03	 0.00000000E+00
	-1.33419000E+02	-1.68250000E+03	 0.00000000E+00
	-1.98478000E+02	-1.69793000E+03	 0.00000000E+00
	-1.83369000E+02	-1.70062000E+03	 0.00000000E+00
	-5.26785000E+01	-1.71028000E+03	 0.00000000E+00
	-4.69564000E+01	-1.70936000E+03	 0.00000000E+00
	-1.68263000E+02	-1.70330000E+03	 0.00000000E+00
	-1.61667000E+02	-1.68608000E+03	 0.00000000E+00
	-6.52292000E+01	-1.68688000E+03	 0.00000000E+00
	-5.95109000E+01	-1.68596000E+03	 0.00000000E+00
	-2.20374000E+02	-1.67091000E+03	 0.00000000E+00
	-2.76065000E+02	-1.68988000E+03	 0.00000000E+00
	-1.77144000E+02	-1.68438000E+03	 0.00000000E+00
	-1.05788000E+02	-1.70861000E+03	 0.00000000E+00
	-1.11519000E+02	-1.70952000E+03	 0.00000000E+00
	-2.75541000E+02	-1.67457000E+03	 0.00000000E+00
	-1.92251000E+02	-1.68169000E+03	 0.00000000E+00
	-6.77849000E+01	-1.70761000E+03	 0.00000000E+00
	-8.86130000E+01	-1.70586000E+03	 0.00000000E+00
	-8.49580000E+01	-1.71036000E+03	 0.00000000E+00
	-9.06859000E+01	-1.71128000E+03	 0.00000000E+00
	-1.23455000E+02	-1.67078000E+03	 0.00000000E+00
	-1.12245000E+02	-1.66891000E+03	 0.00000000E+00
	-1.08222000E+02	-1.67364000E+03	 0.00000000E+00
	-1.15792000E+02	-1.66445000E+03	 0.00000000E+00
	-6.41287000E+01	-1.71211000E+03	 0.00000000E+00
	-6.98555000E+01	-1.71303000E+03	 0.00000000E+00
	-4.48894000E+01	-1.70395000E+03	 0.00000000E+00
	-4.12311000E+01	-1.70844000E+03	 0.00000000E+00
	-4.33001000E+01	-1.71386000E+03	 0.00000000E+00
	-3.75732000E+01	-1.71294000E+03	 0.00000000E+00
	-6.31345000E+01	-1.68163000E+03	 0.00000000E+00
	-5.74401000E+01	-1.68058000E+03	 0.00000000E+00
	-5.37951000E+01	-1.68505000E+03	 0.00000000E+00
	-2.87552000E+02	-1.69169000E+03	 0.00000000E+00
	-3.96432000E+01	-1.71836000E+03	 0.00000000E+00
	-3.39176000E+01	-1.71744000E+03	 0.00000000E+00
	-2.86866000E+02	-1.67658000E+03	 0.00000000E+00
	-8.70295000E+01	-1.71579000E+03	 0.00000000E+00
	-2.98693000E+02	-1.67838000E+03	 0.00000000E+00
	-3.29172000E+02	-1.68814000E+03	 0.00000000E+00
	-5.18705000E+01	-1.67976000E+03	 0.00000000E+00
	-3.91687000E+01	-1.70303000E+03	 0.00000000E+00
	-4.27921000E+01	-1.69814000E+03	 0.00000000E+00
	-1.07861000E+02	-1.71403000E+03	 0.00000000E+00
	-1.13594000E+02	-1.71494000E+03	 0.00000000E+00
	-1.17251000E+02	-1.71043000E+03	 0.00000000E+00
	-9.27574000E+01	-1.71669000E+03	 0.00000000E+00
	-2.98968000E+02	-1.69353000E+03	 0.00000000E+00
	-1.99556000E+02	-1.67269000E+03	 0.00000000E+00
	-1.97613000E+02	-1.66739000E+03	 0.00000000E+00
	-2.01154000E+02	-1.66280000E+03	 0.00000000E+00
	-1.95704000E+02	-1.66242000E+03	 0.00000000E+00
	-6.88424000E+01	-1.68260000E+03	 0.00000000E+00
	-1.86521000E+02	-1.68079000E+03	 0.00000000E+00
	-1.90170000E+02	-1.67628000E+03	 0.00000000E+00
	-1.84521000E+02	-1.67544000E+03	 0.00000000E+00
	-1.71454000E+02	-1.68350000E+03	 0.00000000E+00
	-1.75115000E+02	-1.67931000E+03	 0.00000000E+00
	-1.69620000E+02	-1.67810000E+03	 0.00000000E+00
	-2.24022000E+02	-1.66641000E+03	 0.00000000E+00
	-2.27670000E+02	-1.66191000E+03	 0.00000000E+00
	-2.33391000E+02	-1.66281000E+03	 0.00000000E+00
	-2.31315000E+02	-1.65740000E+03	 0.00000000E+00
	-2.25596000E+02	-1.65650000E+03	 0.00000000E+00
	-2.29238000E+02	-1.65200000E+03	 0.00000000E+00
	-2.34957000E+02	-1.65290000E+03	 0.00000000E+00
	-2.23521000E+02	-1.65109000E+03	 0.00000000E+00
	-2.32881000E+02	-1.64750000E+03	 0.00000000E+00
	-2.38598000E+02	-1.64841000E+03	 0.00000000E+00
	-2.36589000E+02	-1.64306000E+03	 0.00000000E+00
	-2.42250000E+02	-1.64392000E+03	 0.00000000E+00
	-2.44315000E+02	-1.64931000E+03	 0.00000000E+00
	-2.47956000E+02	-1.64481000E+03	 0.00000000E+00
	-2.50029000E+02	-1.65021000E+03	 0.00000000E+00
	-2.30528000E+02	-1.64128000E+03	 0.00000000E+00
	-2.53670000E+02	-1.64572000E+03	 0.00000000E+00
	-2.55744000E+02	-1.65112000E+03	 0.00000000E+00
	-2.52131000E+02	-1.64063000E+03	 0.00000000E+00
	-2.59385000E+02	-1.64662000E+03	 0.00000000E+00
	-2.61460000E+02	-1.65202000E+03	 0.00000000E+00
	-2.57819000E+02	-1.65652000E+03	 0.00000000E+00
	-2.63536000E+02	-1.65742000E+03	 0.00000000E+00
	-2.40497000E+02	-1.63864000E+03	 0.00000000E+00
	-2.46390000E+02	-1.65471000E+03	 0.00000000E+00
	-2.59894000E+02	-1.66192000E+03	 0.00000000E+00
	-2.19875000E+02	-1.65560000E+03	 0.00000000E+00
	-1.99097000E+02	-1.65782000E+03	 0.00000000E+00
	-2.04785000E+02	-1.65836000E+03	 0.00000000E+00
	-3.61321000E+01	-1.72280000E+03	 0.00000000E+00
	-1.46000000E+02	-1.71491000E+03	 0.00000000E+00
	-1.49581000E+02	-1.71047000E+03	 0.00000000E+00
	-1.51760000E+02	-1.71585000E+03	 0.00000000E+00
	-2.43817000E+01	-1.72091000E+03	 0.00000000E+00
	-1.89409000E+01	-1.72042000E+03	 0.00000000E+00
	-2.01634000E+02	-1.67810000E+03	 0.00000000E+00
	-2.56263000E+02	-1.66643000E+03	 0.00000000E+00
	-1.24557000E+02	-1.70142000E+03	 0.00000000E+00
	-7.35085000E+01	-1.70853000E+03	 0.00000000E+00
	-9.43395000E+01	-1.70677000E+03	 0.00000000E+00
	-1.02131000E+02	-1.71311000E+03	 0.00000000E+00
	-1.04240000E+02	-1.71832000E+03	 0.00000000E+00
	-1.55303000E+02	-1.71138000E+03	 0.00000000E+00
	-4.42791000E+01	-1.68795000E+03	 0.00000000E+00
	-2.02949000E+02	-1.65301000E+03	 0.00000000E+00
	-3.13680000E+02	-1.67592000E+03	 0.00000000E+00
	-2.15526000E+02	-1.62959000E+03	 0.00000000E+00
	-2.09516000E+02	-1.62859000E+03	 0.00000000E+00
	-2.74915000E+02	-1.65904000E+03	 0.00000000E+00
	-2.77034000E+02	-1.66475000E+03	 0.00000000E+00
	-3.10465000E+02	-1.69510000E+03	 0.00000000E+00
	-2.68137000E+02	-1.64277000E+03	 0.00000000E+00
	-1.82377000E+02	-1.66997000E+03	 0.00000000E+00
	-3.19851000E+02	-1.69144000E+03	 0.00000000E+00
	-2.08205000E+02	-1.63862000E+03	 0.00000000E+00
	-1.15669000E+02	-1.72036000E+03	 0.00000000E+00
	-3.45536000E+02	-1.66034000E+03	 0.00000000E+00
	-3.28600000E+02	-1.67401000E+03	 0.00000000E+00
	 4.81159000E+01	-1.65817000E+03	 0.00000000E+00
	 3.54304000E+01	-1.62255000E+03	 0.00000000E+00
	 3.01347000E+01	-1.62557000E+03	 0.00000000E+00
	 2.99752000E+01	-1.63184000E+03	 0.00000000E+00
	 2.53677000E+01	-1.62834000E+03	 0.00000000E+00
	 3.13468000E+01	-1.61863000E+03	 0.00000000E+00
	 2.51170000E+01	-1.63445000E+03	 0.00000000E+00
	-3.85066000E+01	-1.66023000E+03	 0.00000000E+00
	-4.37480000E+01	-1.66208000E+03	 0.00000000E+00
	-4.46675000E+01	-1.66768000E+03	 0.00000000E+00
	-4.92721000E+01	-1.66470000E+03	 0.00000000E+00
	-5.01273000E+01	-1.66990000E+03	 0.00000000E+00
	-4.56715000E+01	-1.67315000E+03	 0.00000000E+00
	-3.11861000E+01	-1.61140000E+03	 0.00000000E+00
	-3.25395000E+01	-1.61716000E+03	 0.00000000E+00
	-2.82785000E+01	-1.62039000E+03	 0.00000000E+00
	 1.21598000E+02	-1.63618000E+03	 0.00000000E+00
	-1.99030000E+02	-1.61480000E+03	 0.00000000E+00
	-2.04689000E+02	-1.61746000E+03	 0.00000000E+00
	 3.09980000E+01	-1.64615000E+03	 0.00000000E+00
	-3.57972000E+01	-1.63551000E+03	 0.00000000E+00
	-3.06976000E+01	-1.63326000E+03	 0.00000000E+00
	-3.23118000E+01	-1.64063000E+03	 0.00000000E+00
	 1.98943000E+02	-1.61501000E+03	 0.00000000E+00
	 2.04594000E+02	-1.61785000E+03	 0.00000000E+00
	 2.06268000E+02	-1.62315000E+03	 0.00000000E+00
	 2.02792000E+02	-1.62714000E+03	 0.00000000E+00
	 2.08429000E+02	-1.62847000E+03	 0.00000000E+00
	 2.11497000E+02	-1.62414000E+03	 0.00000000E+00
	 2.14524000E+02	-1.62988000E+03	 0.00000000E+00
	 2.10015000E+02	-1.63413000E+03	 0.00000000E+00
	 3.97959000E+01	-1.60934000E+03	 0.00000000E+00
	 9.89532000E+00	-1.63377000E+03	 0.00000000E+00
	 1.53863000E+01	-1.62973000E+03	 0.00000000E+00
	-1.92820000E+02	-1.60470000E+03	 0.00000000E+00
	-9.56687000E+00	-1.62382000E+03	 0.00000000E+00
	-1.35181000E+01	-1.62865000E+03	 0.00000000E+00
	-1.98852000E+01	-1.62690000E+03	 0.00000000E+00
	-4.39988000E+01	-1.60421000E+03	 0.00000000E+00
	-2.00758000E+02	-1.62927000E+03	 0.00000000E+00
	-1.22396000E+02	-1.63519000E+03	 0.00000000E+00
	 1.56807000E+01	-1.62112000E+03	 0.00000000E+00
	 3.78938000E+01	-1.65810000E+03	 0.00000000E+00
	 1.91876000E+02	-1.60432000E+03	 0.00000000E+00
	-1.53952000E+01	-1.63475000E+03	 0.00000000E+00
	 3.48074000E+02	-1.64145000E+03	 0.00000000E+00
	 5.30660000E+01	-1.66186000E+03	 0.00000000E+00
	 5.79966000E+01	-1.67099000E+03	 0.00000000E+00
	 5.32233000E+01	-1.67368000E+03	 0.00000000E+00
	 4.84580000E+01	-1.67090000E+03	 0.00000000E+00
	 4.89531000E+01	-1.67699000E+03	 0.00000000E+00
	 4.36915000E+02	-1.62118000E+03	 0.00000000E+00
	 4.42074000E+02	-1.62476000E+03	 0.00000000E+00
	 4.42665000E+02	-1.63063000E+03	 0.00000000E+00
	 4.47146000E+02	-1.62724000E+03	 0.00000000E+00
	 4.48077000E+02	-1.63304000E+03	 0.00000000E+00
	 4.52613000E+02	-1.62937000E+03	 0.00000000E+00
	 4.43436000E+02	-1.63636000E+03	 0.00000000E+00
	 4.42219000E+02	-1.61887000E+03	 0.00000000E+00
	-2.80124000E+02	-1.60432000E+03	 0.00000000E+00
	-4.45237000E+02	-1.61493000E+03	 0.00000000E+00
	-4.44234000E+02	-1.62071000E+03	 0.00000000E+00
	-4.48437000E+02	-1.62449000E+03	 0.00000000E+00
	-4.53800000E+02	-1.62287000E+03	 0.00000000E+00
	-4.52741000E+02	-1.62857000E+03	 0.00000000E+00
	-4.47153000E+02	-1.63014000E+03	 0.00000000E+00
	-4.51598000E+02	-1.63385000E+03	 0.00000000E+00
	-4.46660000E+02	-1.63560000E+03	 0.00000000E+00
	-4.55881000E+02	-1.63206000E+03	 0.00000000E+00
	-2.73057000E+02	-1.61501000E+03	 0.00000000E+00
	-2.67407000E+02	-1.61785000E+03	 0.00000000E+00
	-2.65789000E+02	-1.62317000E+03	 0.00000000E+00
	-2.69290000E+02	-1.62706000E+03	 0.00000000E+00
	-2.63825000E+02	-1.62850000E+03	 0.00000000E+00
	 2.72282000E+02	-1.61696000E+03	 0.00000000E+00
	 2.67188000E+02	-1.61884000E+03	 0.00000000E+00
	 2.66714000E+02	-1.62443000E+03	 0.00000000E+00
	 4.56363000E+02	-1.62120000E+03	 0.00000000E+00
	-2.25126000E+02	-1.62440000E+03	 0.00000000E+00
	-2.28386000E+02	-1.62967000E+03	 0.00000000E+00
	-2.33932000E+02	-1.63120000E+03	 0.00000000E+00
	-2.37959000E+02	-1.62714000E+03	 0.00000000E+00
	-2.14171000E+02	-1.61862000E+03	 0.00000000E+00
	-4.36543000E+02	-1.63527000E+03	 0.00000000E+00
	 1.99713000E+02	-1.64161000E+03	 0.00000000E+00
	-6.45664000E+01	-1.66776000E+03	 0.00000000E+00
	 1.34391000E+02	-1.65781000E+03	 0.00000000E+00
	-1.25085000E+02	-1.64681000E+03	 0.00000000E+00
	-1.19649000E+02	-1.64562000E+03	 0.00000000E+00
	-1.10238000E+02	-1.64768000E+03	 0.00000000E+00
	 2.40283000E+02	-1.62573000E+03	 0.00000000E+00
	 2.36223000E+02	-1.63032000E+03	 0.00000000E+00
	 2.41894000E+02	-1.63107000E+03	 0.00000000E+00
	-2.51169000E+02	-1.62267000E+03	 0.00000000E+00
	-2.49864000E+02	-1.62814000E+03	 0.00000000E+00
	-2.55256000E+02	-1.62679000E+03	 0.00000000E+00
	-2.53371000E+02	-1.63202000E+03	 0.00000000E+00
	-2.48170000E+02	-1.63337000E+03	 0.00000000E+00
	 4.00455000E+01	-1.67133000E+03	 0.00000000E+00
	 2.26650000E+02	-1.62412000E+03	 0.00000000E+00
	 2.21550000E+02	-1.62829000E+03	 0.00000000E+00
	 5.03887000E+02	-1.60958000E+03	 0.00000000E+00
	 5.00573000E+02	-1.61410000E+03	 0.00000000E+00
	 5.06218000E+02	-1.61466000E+03	 0.00000000E+00
	 5.03178000E+02	-1.61956000E+03	 0.00000000E+00
	-5.04142000E+02	-1.60974000E+03	 0.00000000E+00
	-1.33584000E+02	-1.65789000E+03	 0.00000000E+00
	-1.33304000E+02	-1.66402000E+03	 0.00000000E+00
	-1.38344000E+02	-1.66764000E+03	 0.00000000E+00
	-1.32691000E+02	-1.66973000E+03	 0.00000000E+00
	-1.37214000E+02	-1.67336000E+03	 0.00000000E+00
	-1.42583000E+02	-1.67162000E+03	 0.00000000E+00
	-1.29076000E+02	-1.66123000E+03	 0.00000000E+00
	-4.68109000E+02	-1.62484000E+03	 0.00000000E+00
	-4.73823000E+02	-1.62655000E+03	 0.00000000E+00
	 4.68694000E+02	-1.62467000E+03	 0.00000000E+00
	-1.99101000E+02	-1.64165000E+03	 0.00000000E+00
	 1.02068000E+02	-1.65859000E+03	 0.00000000E+00
	-1.01456000E+02	-1.65893000E+03	 0.00000000E+00
	-1.01567000E+02	-1.66505000E+03	 0.00000000E+00
	-9.69330000E+01	-1.66787000E+03	 0.00000000E+00
	-1.88263000E+02	-1.65823000E+03	 0.00000000E+00
	-7.78008000E+01	-1.66917000E+03	 0.00000000E+00
	-8.19747000E+01	-1.67305000E+03	 0.00000000E+00
	-8.76364000E+01	-1.67202000E+03	 0.00000000E+00
	-8.53269000E+01	-1.67753000E+03	 0.00000000E+00
	-9.13672000E+01	-1.67694000E+03	 0.00000000E+00
	-7.94009000E+01	-1.67901000E+03	 0.00000000E+00
	-8.33606000E+01	-1.68303000E+03	 0.00000000E+00
	-7.35424000E+01	-1.67279000E+03	 0.00000000E+00
	-7.06923000E+02	-1.57026000E+03	 0.00000000E+00
	 7.06923000E+02	-1.57026000E+03	 0.00000000E+00
	-1.51652000E+02	-1.66728000E+03	 0.00000000E+00
	-1.53769000E+02	-1.67289000E+03	 0.00000000E+00
	-1.59029000E+02	-1.67421000E+03	 0.00000000E+00
	-1.55619000E+02	-1.67810000E+03	 0.00000000E+00
	-1.50132000E+02	-1.67672000E+03	 0.00000000E+00
	 2.79833000E+02	-1.65303000E+03	 0.00000000E+00
	-2.89112000E+02	-1.66224000E+03	 0.00000000E+00
	-2.89300000E+02	-1.66810000E+03	 0.00000000E+00
	-2.94093000E+02	-1.67103000E+03	 0.00000000E+00
	-2.98504000E+02	-1.66879000E+03	 0.00000000E+00
	 2.88788000E+02	-1.66286000E+03	 0.00000000E+00
	 2.90984000E+02	-1.66817000E+03	 0.00000000E+00
	 2.95417000E+02	-1.67098000E+03	 0.00000000E+00
	-3.11912000E+01	-1.69629000E+03	 0.00000000E+00
	 7.79953000E+01	-1.66847000E+03	 0.00000000E+00
	 7.50219000E+01	-1.67362000E+03	 0.00000000E+00
	 6.87359000E+01	-1.67436000E+03	 0.00000000E+00
	 8.13611000E+01	-1.67412000E+03	 0.00000000E+00
	 7.72797000E+01	-1.67882000E+03	 0.00000000E+00
	 8.26272000E+01	-1.68001000E+03	 0.00000000E+00
	-3.32085000E+02	-1.66280000E+03	 0.00000000E+00
	-3.37594000E+02	-1.66413000E+03	 0.00000000E+00
	 1.64965000E+02	-1.66837000E+03	 0.00000000E+00
	 1.61942000E+02	-1.67344000E+03	 0.00000000E+00
	 1.68893000E+02	-1.67352000E+03	 0.00000000E+00
	 1.75027000E+02	-1.67151000E+03	 0.00000000E+00
	 1.73810000E+02	-1.67717000E+03	 0.00000000E+00
	-4.99359000E+02	-1.61470000E+03	 0.00000000E+00
	-5.04998000E+02	-1.61584000E+03	 0.00000000E+00
	 4.87761000E+02	-1.62213000E+03	 0.00000000E+00
	-4.88269000E+02	-1.62288000E+03	 0.00000000E+00
	-4.93180000E+02	-1.62510000E+03	 0.00000000E+00
	 4.75152000E+02	-1.62552000E+03	 0.00000000E+00
	 4.80397000E+02	-1.62907000E+03	 0.00000000E+00
	-3.74888000E+02	-1.66153000E+03	 0.00000000E+00
	 3.14142000E+02	-1.66806000E+03	 0.00000000E+00
	 3.13599000E+01	-1.69647000E+03	 0.00000000E+00
	-3.19992000E+02	-1.66708000E+03	 0.00000000E+00
	 3.32809000E+02	-1.66185000E+03	 0.00000000E+00
	 3.38305000E+02	-1.66310000E+03	 0.00000000E+00
	 3.20607000E+02	-1.66710000E+03	 0.00000000E+00
	 3.24586000E+02	-1.67126000E+03	 0.00000000E+00
	 4.31936000E+02	-1.64747000E+03	 0.00000000E+00
	-4.32100000E+02	-1.64794000E+03	 0.00000000E+00
	-1.03625000E+01	-1.71022000E+03	 0.00000000E+00
	 9.70273000E+00	-1.71073000E+03	 0.00000000E+00
	 7.52397000E+00	-1.71647000E+03	 0.00000000E+00
	 1.84555000E+00	-1.71752000E+03	 0.00000000E+00
	 1.32233000E+01	-1.71541000E+03	 0.00000000E+00
	 1.08449000E+01	-1.72100000E+03	 0.00000000E+00
	-2.11126000E+00	-1.71377000E+03	 0.00000000E+00
	-3.41566000E+00	-1.71991000E+03	 0.00000000E+00
	 9.90782000E-01	-1.72220000E+03	 0.00000000E+00
	 2.14850000E+01	-1.70520000E+03	 0.00000000E+00
	 4.00480000E+02	-1.66829000E+03	 0.00000000E+00
	 3.98176000E+02	-1.67329000E+03	 0.00000000E+00
	 3.92130000E+02	-1.67397000E+03	 0.00000000E+00
	 4.04101000E+02	-1.67266000E+03	 0.00000000E+00
	 4.10058000E+02	-1.67174000E+03	 0.00000000E+00
	 4.01734000E+02	-1.67829000E+03	 0.00000000E+00
	-3.87408000E+02	-1.66737000E+03	 0.00000000E+00
	-3.89176000E+02	-1.67273000E+03	 0.00000000E+00
	-3.95185000E+02	-1.67452000E+03	 0.00000000E+00
	-3.82666000E+02	-1.67104000E+03	 0.00000000E+00
	-3.84796000E+02	-1.67691000E+03	 0.00000000E+00
	-3.90150000E+02	-1.67857000E+03	 0.00000000E+00
	-4.12813000E+02	-1.66553000E+03	 0.00000000E+00
	-4.05200000E+02	-1.67259000E+03	 0.00000000E+00
	 6.63872000E+01	-1.66837000E+03	 0.00000000E+00
	-3.66111000E+02	-1.65451000E+03	 0.00000000E+00
	-3.65262000E+02	-1.65956000E+03	 0.00000000E+00
	 5.16648000E+02	-1.58172000E+03	 0.00000000E+00
	-5.16648000E+02	-1.58172000E+03	 0.00000000E+00
	-1.65789000E+02	-1.66878000E+03	 0.00000000E+00
	 3.76344000E+02	-1.66305000E+03	 0.00000000E+00
	 3.03016000E+02	-1.69533000E+03	 0.00000000E+00
	 2.97301000E+02	-1.69633000E+03	 0.00000000E+00
	 3.86049000E+02	-1.66711000E+03	 0.00000000E+00
	 4.14495000E+02	-1.66485000E+03	 0.00000000E+00
	 4.19338000E+02	-1.66787000E+03	 0.00000000E+00
	 3.76836000E+02	-1.68255000E+03	 0.00000000E+00
	-1.61317000E+02	-1.67957000E+03	 0.00000000E+00
	-1.49174000E+02	-1.56608000E+03	 0.00000000E+00
	 3.22826000E+02	-1.56608000E+03	 0.00000000E+00
	-1.41110000E+02	-1.67694000E+03	 0.00000000E+00
	-3.89955000E+02	-1.58504000E+03	 0.00000000E+00
	-4.37035000E+02	-1.62215000E+03	 0.00000000E+00
	 1.61767000E+02	-1.71454000E+03	 0.00000000E+00
	 1.58314000E+02	-1.71041000E+03	 0.00000000E+00
	 1.56038000E+02	-1.71576000E+03	 0.00000000E+00
	 1.52586000E+02	-1.71145000E+03	 0.00000000E+00
	 1.60366000E+02	-1.70502000E+03	 0.00000000E+00
	 1.50789000E+02	-1.71715000E+03	 0.00000000E+00
	 1.46944000E+02	-1.71252000E+03	 0.00000000E+00
	-1.31670000E+02	-1.67600000E+03	 0.00000000E+00
	-1.51800000E+02	-1.68267000E+03	 0.00000000E+00
	-5.80322000E+02	-1.62148000E+03	 0.00000000E+00
	 5.80322000E+02	-1.62148000E+03	 0.00000000E+00
	 8.68620000E+01	-1.56603000E+03	 0.00000000E+00
	-5.09093000E+02	-1.61238000E+03	 0.00000000E+00
	-1.39378000E+02	-1.56892000E+03	 0.00000000E+00
	 3.32622000E+02	-1.56892000E+03	 0.00000000E+00
	-3.49683000E+02	-1.62216000E+03	 0.00000000E+00
	 3.58254000E+02	-1.62209000E+03	 0.00000000E+00
	 1.22372000E+02	-1.62217000E+03	 0.00000000E+00
	-1.13480000E+02	-1.62223000E+03	 0.00000000E+00
	-1.13540000E+02	-1.63516000E+03	 0.00000000E+00
	 3.58340000E+02	-1.63488000E+03	 0.00000000E+00
	 3.42794000E+02	-1.65317000E+03	 0.00000000E+00
	 2.47842000E+02	-1.53952000E+03	 0.00000000E+00
	 9.66665000E+01	-1.56885000E+03	 0.00000000E+00
	-6.82088000E+01	-1.67320000E+03	 0.00000000E+00
	 2.05238000E+02	-1.63789000E+03	 0.00000000E+00
	-3.80640000E+01	-1.68543000E+03	 0.00000000E+00
	 4.29745000E+02	-1.66813000E+03	 0.00000000E+00
	-4.29598000E+02	-1.66643000E+03	 0.00000000E+00
	-1.30795000E+02	-1.71779000E+03	 0.00000000E+00
	 2.15105000E+02	-1.54616000E+03	 0.00000000E+00
	-2.56895000E+02	-1.54616000E+03	 0.00000000E+00
	-1.91952000E+02	-1.65278000E+03	 0.00000000E+00
	 2.52082000E+02	-1.70388000E+03	 0.00000000E+00
	-3.66432000E+02	-1.58349000E+03	 0.00000000E+00
	-3.67607000E+02	-1.58902000E+03	 0.00000000E+00
	-3.66927000E+02	-1.57792000E+03	 0.00000000E+00
	-1.96993000E+02	-1.53721000E+03	 0.00000000E+00
	 2.75005000E+02	-1.53721000E+03	 0.00000000E+00
	-4.12730000E+02	-1.59239000E+03	 0.00000000E+00
	 7.15808000E+02	-1.50584000E+03	 0.00000000E+00
	-7.15808000E+02	-1.50584000E+03	 0.00000000E+00
	-7.18475000E+02	-1.39173000E+03	 0.00000000E+00
	 7.18475000E+02	-1.39173000E+03	 0.00000000E+00
	-3.50039000E+02	-1.63429000E+03	 0.00000000E+00
	 2.63440000E+02	-1.70199000E+03	 0.00000000E+00
	 2.69023000E+02	-1.70111000E+03	 0.00000000E+00
	 2.70782000E+02	-1.69587000E+03	 0.00000000E+00
	 3.13227000E+01	-1.72275000E+03	 0.00000000E+00
	 2.74454000E+02	-1.70030000E+03	 0.00000000E+00
	 2.72778000E+02	-1.70509000E+03	 0.00000000E+00
	 2.22895000E+02	-1.70946000E+03	 0.00000000E+00
	 1.14690000E+02	-1.63548000E+03	 0.00000000E+00
	 7.15736000E+02	-1.38656000E+03	 0.00000000E+00
	-7.15733000E+02	-1.38656000E+03	 0.00000000E+00
	-7.30166000E+02	-1.56176000E+03	 0.00000000E+00
	 7.30166000E+02	-1.56176000E+03	 0.00000000E+00
	 3.33913000E+02	-1.66813000E+03	 0.00000000E+00
	-2.79181000E+02	-1.65429000E+03	 0.00000000E+00
	 6.95792000E+02	-1.52157000E+03	 0.00000000E+00
	-6.95792000E+02	-1.52157000E+03	 0.00000000E+00
	 2.78472000E+02	-1.60463000E+03	 0.00000000E+00
	-3.07899000E+01	-1.64696000E+03	 0.00000000E+00
	-6.80713000E+01	-1.72294000E+03	 0.00000000E+00
	 4.83145000E+01	-1.66458000E+03	 0.00000000E+00
	 1.52886000E+02	-1.66788000E+03	 0.00000000E+00
	-6.39864000E+02	-1.59888000E+03	 0.00000000E+00
	 6.39864000E+02	-1.59888000E+03	 0.00000000E+00
	-1.46622000E+01	-1.71350000E+03	 0.00000000E+00
	 2.29133000E+02	-1.63036000E+03	 0.00000000E+00
	 3.14876000E+01	-1.70710000E+03	 0.00000000E+00
	 3.91262000E+01	-1.68539000E+03	 0.00000000E+00
	-3.19149000E+00	-1.54511000E+03	 0.00000000E+00
	-3.34453000E+02	-1.66778000E+03	 0.00000000E+00
	 1.64651000E+02	-1.58953000E+03	 0.00000000E+00
	-7.13485000E+01	-1.58953000E+03	 0.00000000E+00
	-3.07267000E+02	-1.58933000E+03	 0.00000000E+00
	-4.75391000E+02	-1.54517000E+03	 0.00000000E+00
	 4.53569000E+02	-1.63531000E+03	 0.00000000E+00
	 4.57957000E+02	-1.63154000E+03	 0.00000000E+00
	-1.93334000E+02	-1.71249000E+03	 0.00000000E+00
	-1.96942000E+02	-1.70789000E+03	 0.00000000E+00
	-1.89468000E+02	-1.71672000E+03	 0.00000000E+00
	-3.51494000E+02	-1.61225000E+03	 0.00000000E+00
	 1.20506000E+02	-1.61225000E+03	 0.00000000E+00
	 1.17924000E+02	-1.64639000E+03	 0.00000000E+00
	-1.57894000E+02	-1.71767000E+03	 0.00000000E+00
	 1.09873000E+02	-1.64772000E+03	 0.00000000E+00
	 3.47222000E+02	-1.69257000E+03	 0.00000000E+00
	-3.36510000E+02	-1.59194000E+03	 0.00000000E+00
	-3.36651000E+02	-1.58644000E+03	 0.00000000E+00
	-1.00510000E+02	-1.59194000E+03	 0.00000000E+00
	-1.00651000E+02	-1.58644000E+03	 0.00000000E+00
	 1.35490000E+02	-1.59194000E+03	 0.00000000E+00
	 1.35349000E+02	-1.58644000E+03	 0.00000000E+00
	-3.42522000E+02	-1.65403000E+03	 0.00000000E+00
	 2.54886000E+01	-1.72384000E+03	 0.00000000E+00
	-4.37917000E+02	-1.64734000E+03	 0.00000000E+00
	-4.40367000E+02	-1.64176000E+03	 0.00000000E+00
	 2.24554000E+02	-1.54649000E+03	 0.00000000E+00
	-2.47446000E+02	-1.54649000E+03	 0.00000000E+00
	 3.41709000E+02	-1.60469000E+03	 0.00000000E+00
	-1.28760000E+02	-1.60452000E+03	 0.00000000E+00
	 1.07047000E+02	-1.60440000E+03	 0.00000000E+00
	-3.64987000E+02	-1.60434000E+03	 0.00000000E+00
	-7.17673000E+02	-1.40123000E+03	 0.00000000E+00
	-7.14967000E+02	-1.40633000E+03	 0.00000000E+00
	 7.17673000E+02	-1.40123000E+03	 0.00000000E+00
	 7.14967000E+02	-1.40633000E+03	 0.00000000E+00
	-2.21371000E+01	-1.70553000E+03	 0.00000000E+00
	-5.01491000E+02	-1.62081000E+03	 0.00000000E+00
	 2.02693000E+02	-1.64665000E+03	 0.00000000E+00
	-1.02202000E+02	-1.67072000E+03	 0.00000000E+00
	 3.89306000E+02	-1.58496000E+03	 0.00000000E+00
	 5.12891000E+02	-1.56769000E+03	 0.00000000E+00
	-5.12891000E+02	-1.56769000E+03	 0.00000000E+00
	 5.95446000E+02	-1.61908000E+03	 0.00000000E+00
	 5.90458000E+02	-1.62167000E+03	 0.00000000E+00
	-5.95446000E+02	-1.61908000E+03	 0.00000000E+00
	-5.90458000E+02	-1.62167000E+03	 0.00000000E+00
	 2.71015000E+02	-1.60452000E+03	 0.00000000E+00
	 4.04544000E+01	-1.64792000E+03	 0.00000000E+00
	-3.52604000E+01	-1.60413000E+03	 0.00000000E+00
	 2.01592000E+02	-1.60395000E+03	 0.00000000E+00
	-2.70408000E+02	-1.60395000E+03	 0.00000000E+00
	-3.97855000E+01	-1.64782000E+03	 0.00000000E+00
	 3.50294000E+01	-1.60463000E+03	 0.00000000E+00
	-2.00067000E+02	-1.60427000E+03	 0.00000000E+00
	-3.79010000E+02	-1.67571000E+03	 0.00000000E+00
	 3.28402000E+00	-1.62532000E+03	 0.00000000E+00
	-3.29381000E+00	-1.63225000E+03	 0.00000000E+00
	-3.14067000E+02	-1.66793000E+03	 0.00000000E+00
	-1.76621000E+02	-1.66599000E+03	 0.00000000E+00
	-1.75118000E+02	-1.67125000E+03	 0.00000000E+00
	 6.30119000E+02	-1.60576000E+03	 0.00000000E+00
	-6.30119000E+02	-1.60576000E+03	 0.00000000E+00
	-1.22355000E+02	-1.65589000E+03	 0.00000000E+00
	 4.86623000E+02	-1.62780000E+03	 0.00000000E+00
	 4.92676000E+02	-1.62653000E+03	 0.00000000E+00
	-7.75823000E+01	-1.58853000E+03	 0.00000000E+00
	 1.58418000E+02	-1.58853000E+03	 0.00000000E+00
	-3.13576000E+02	-1.58852000E+03	 0.00000000E+00
	 4.59200000E+01	-1.59103000E+03	 0.00000000E+00
	 4.64633000E+02	-1.62955000E+03	 0.00000000E+00
	 2.11449000E+02	-1.71143000E+03	 0.00000000E+00
	-4.24290000E+02	-1.65727000E+03	 0.00000000E+00
	 4.24796000E+02	-1.65830000E+03	 0.00000000E+00
	-2.16186000E+01	-1.61965000E+03	 0.00000000E+00
	 3.51977000E+01	-1.63618000E+03	 0.00000000E+00
	 2.70506000E+02	-1.62956000E+03	 0.00000000E+00
	-2.30258000E+02	-1.63517000E+03	 0.00000000E+00
	-9.07669000E+01	-1.66599000E+03	 0.00000000E+00
	 1.77542000E+02	-1.66585000E+03	 0.00000000E+00
	 1.83336000E+02	-1.66787000E+03	 0.00000000E+00
	 1.87759000E+02	-1.66498000E+03	 0.00000000E+00
	 1.87929000E+02	-1.67051000E+03	 0.00000000E+00
	 1.83854000E+02	-1.67353000E+03	 0.00000000E+00
	 4.38488000E+02	-1.64625000E+03	 0.00000000E+00
	-1.19698000E+02	-1.61059000E+03	 0.00000000E+00
	-5.75969000E+02	-1.62541000E+03	 0.00000000E+00
	 5.75969000E+02	-1.62541000E+03	 0.00000000E+00
	 3.01367000E+02	-1.66839000E+03	 0.00000000E+00
	 2.99574000E+02	-1.67525000E+03	 0.00000000E+00
	-3.99669000E+02	-1.66893000E+03	 0.00000000E+00
	 4.97800000E+02	-1.55546000E+03	 0.00000000E+00
	-4.97829000E+02	-1.55540000E+03	 0.00000000E+00
	-4.98697000E+02	-1.54921000E+03	 0.00000000E+00
	 6.87335000E+02	-1.52544000E+03	 0.00000000E+00
	-6.87336000E+02	-1.52544000E+03	 0.00000000E+00
	 4.36883000E+02	-1.63519000E+03	 0.00000000E+00
	-1.91342000E+02	-1.59084000E+03	 0.00000000E+00
	-2.83326000E+02	-1.66506000E+03	 0.00000000E+00
	-9.72176000E+01	-1.67370000E+03	 0.00000000E+00
	-1.02551000E+02	-1.67669000E+03	 0.00000000E+00
	-1.07537000E+02	-1.67974000E+03	 0.00000000E+00
	-9.74078000E+01	-1.67971000E+03	 0.00000000E+00
	 7.99349000E+02	-1.47210000E+03	 0.00000000E+00
	 7.95331000E+02	-1.47639000E+03	 0.00000000E+00
	 7.89451000E+02	-1.47515000E+03	 0.00000000E+00
	 7.91088000E+02	-1.48067000E+03	 0.00000000E+00
	 7.85489000E+02	-1.47932000E+03	 0.00000000E+00
	 7.83852000E+02	-1.47380000E+03	 0.00000000E+00
	 7.79885000E+02	-1.47799000E+03	 0.00000000E+00
	 7.97387000E+02	-1.48268000E+03	 0.00000000E+00
	 7.87195000E+02	-1.48459000E+03	 0.00000000E+00
	 7.78241000E+02	-1.47246000E+03	 0.00000000E+00
	 7.74275000E+02	-1.47665000E+03	 0.00000000E+00
	 7.75967000E+02	-1.48200000E+03	 0.00000000E+00
	 7.70330000E+02	-1.48078000E+03	 0.00000000E+00
	 7.68665000E+02	-1.47531000E+03	 0.00000000E+00
	 7.64713000E+02	-1.47951000E+03	 0.00000000E+00
	 7.63051000E+02	-1.47400000E+03	 0.00000000E+00
	 7.66985000E+02	-1.46988000E+03	 0.00000000E+00
	 7.61383000E+02	-1.46848000E+03	 0.00000000E+00
	 7.65219000E+02	-1.46343000E+03	 0.00000000E+00
	 7.57637000E+02	-1.47263000E+03	 0.00000000E+00
	 7.66542000E+02	-1.48611000E+03	 0.00000000E+00
	 7.60764000E+02	-1.48371000E+03	 0.00000000E+00
	 8.01655000E+02	-1.47752000E+03	 0.00000000E+00
	 8.07881000E+02	-1.47812000E+03	 0.00000000E+00
	 8.03929000E+02	-1.48271000E+03	 0.00000000E+00
	 8.10318000E+02	-1.48279000E+03	 0.00000000E+00
	 8.13027000E+02	-1.47874000E+03	 0.00000000E+00
	 7.62415000E+02	-1.48921000E+03	 0.00000000E+00
	 7.59068000E+02	-1.46288000E+03	 0.00000000E+00
	-7.99823000E+02	-1.47217000E+03	 0.00000000E+00
	-7.95902000E+02	-1.47657000E+03	 0.00000000E+00
	-7.89959000E+02	-1.47546000E+03	 0.00000000E+00
	-7.91861000E+02	-1.48099000E+03	 0.00000000E+00
	-7.86195000E+02	-1.48000000E+03	 0.00000000E+00
	-7.84197000E+02	-1.47449000E+03	 0.00000000E+00
	-7.80508000E+02	-1.47904000E+03	 0.00000000E+00
	-7.98140000E+02	-1.48184000E+03	 0.00000000E+00
	-7.78467000E+02	-1.47378000E+03	 0.00000000E+00
	-7.74809000E+02	-1.47813000E+03	 0.00000000E+00
	-7.72764000E+02	-1.47287000E+03	 0.00000000E+00
	-7.69111000E+02	-1.47719000E+03	 0.00000000E+00
	-7.67091000E+02	-1.47179000E+03	 0.00000000E+00
	-7.63423000E+02	-1.47622000E+03	 0.00000000E+00
	-7.61403000E+02	-1.47081000E+03	 0.00000000E+00
	-7.65258000E+02	-1.46628000E+03	 0.00000000E+00
	-7.65383000E+02	-1.48156000E+03	 0.00000000E+00
	-7.76697000E+02	-1.48320000E+03	 0.00000000E+00
	-7.57674000E+02	-1.47452000E+03	 0.00000000E+00
	-7.55715000E+02	-1.46985000E+03	 0.00000000E+00
	-7.88228000E+02	-1.48565000E+03	 0.00000000E+00
	-7.82199000E+02	-1.46929000E+03	 0.00000000E+00
	-8.02325000E+02	-1.47743000E+03	 0.00000000E+00
	-8.08359000E+02	-1.47799000E+03	 0.00000000E+00
	-8.04855000E+02	-1.48252000E+03	 0.00000000E+00
	-8.10833000E+02	-1.48264000E+03	 0.00000000E+00
	-8.14159000E+02	-1.47802000E+03	 0.00000000E+00
	-8.24830000E+02	-1.47239000E+03	 0.00000000E+00
	-8.29660000E+02	-1.47485000E+03	 0.00000000E+00
	-8.22070000E+02	-1.47673000E+03	 0.00000000E+00
	 8.24922000E+02	-1.47223000E+03	 0.00000000E+00
	 8.29690000E+02	-1.47480000E+03	 0.00000000E+00
	 8.21738000E+02	-1.47614000E+03	 0.00000000E+00
	-6.89582000E+02	-1.58071000E+03	 0.00000000E+00
	 6.89582000E+02	-1.58071000E+03	 0.00000000E+00
	-4.46081000E+02	-1.64135000E+03	 0.00000000E+00
	 1.62774000E+01	-1.52228000E+03	 0.00000000E+00
	-3.49134000E+01	-1.62292000E+03	 0.00000000E+00
	 8.36540000E+02	-1.46772000E+03	 0.00000000E+00
	-8.36885000E+02	-1.46801000E+03	 0.00000000E+00
	 7.40274000E+02	-1.40842000E+03	 0.00000000E+00
	 2.57816000E+02	-1.55201000E+03	 0.00000000E+00
	-2.14184000E+02	-1.55201000E+03	 0.00000000E+00
	 7.39534000E+02	-1.39606000E+03	 0.00000000E+00
	-7.39534000E+02	-1.39606000E+03	 0.00000000E+00
	 7.46552000E+02	-1.43243000E+03	 0.00000000E+00
	 7.43488000E+02	-1.43737000E+03	 0.00000000E+00
	 7.40718000E+02	-1.43212000E+03	 0.00000000E+00
	-7.46591000E+02	-1.43218000E+03	 0.00000000E+00
	-7.43599000E+02	-1.43701000E+03	 0.00000000E+00
	-7.41076000E+02	-1.43154000E+03	 0.00000000E+00
	-9.29593000E+01	-1.68257000E+03	 0.00000000E+00
	-1.44952000E+02	-1.66594000E+03	 0.00000000E+00
	-7.41940000E+02	-1.38316000E+03	 0.00000000E+00
	 7.41960000E+02	-1.38327000E+03	 0.00000000E+00
	-4.65055000E+02	-1.62977000E+03	 0.00000000E+00
	 1.43621000E+02	-1.66464000E+03	 0.00000000E+00
	-7.64931000E+02	-1.45664000E+03	 0.00000000E+00
	-7.69577000E+02	-1.46131000E+03	 0.00000000E+00
	-7.60006000E+02	-1.45781000E+03	 0.00000000E+00
	 7.65947000E+02	-1.45702000E+03	 0.00000000E+00
	 4.51095000E+01	-1.58190000E+03	 0.00000000E+00
	 7.53604000E+02	-1.36126000E+03	 0.00000000E+00
	 7.47701000E+02	-1.36117000E+03	 0.00000000E+00
	 7.50888000E+02	-1.35655000E+03	 0.00000000E+00
	 7.53576000E+02	-1.35110000E+03	 0.00000000E+00
	 7.59823000E+02	-1.35154000E+03	 0.00000000E+00
	-7.54159000E+02	-1.36078000E+03	 0.00000000E+00
	-7.48181000E+02	-1.36054000E+03	 0.00000000E+00
	-7.52287000E+02	-1.35492000E+03	 0.00000000E+00
	-7.55940000E+02	-1.35059000E+03	 0.00000000E+00
	-7.50589000E+02	-1.34954000E+03	 0.00000000E+00
	 7.47493000E+02	-1.37175000E+03	 0.00000000E+00
	-7.47576000E+02	-1.37145000E+03	 0.00000000E+00
	-3.76530000E+02	-1.67042000E+03	 0.00000000E+00
	-3.80732000E+02	-1.68182000E+03	 0.00000000E+00
	-1.02526000E+02	-1.68256000E+03	 0.00000000E+00
	 2.81304000E+02	-1.58204000E+03	 0.00000000E+00
	-1.53591000E+02	-1.72145000E+03	 0.00000000E+00
	-4.85823000E+02	-1.62821000E+03	 0.00000000E+00
	-4.79647000E+02	-1.62888000E+03	 0.00000000E+00
	-2.72853000E+02	-1.65361000E+03	 0.00000000E+00
	 7.41523000E+02	-1.42079000E+03	 0.00000000E+00
	-7.41599000E+02	-1.42062000E+03	 0.00000000E+00
	-2.11486000E+01	-1.63313000E+03	 0.00000000E+00
	 1.54374000E+02	-1.72139000E+03	 0.00000000E+00
	 6.36056000E+02	-1.60759000E+03	 0.00000000E+00
	-6.36056000E+02	-1.60759000E+03	 0.00000000E+00
	 7.18067000E+02	-1.49121000E+03	 0.00000000E+00
	-7.18070000E+02	-1.49123000E+03	 0.00000000E+00
	-1.90211000E+02	-1.58137000E+03	 0.00000000E+00
	-2.22228000E+02	-1.63029000E+03	 0.00000000E+00
	-4.11354000E+02	-1.58128000E+03	 0.00000000E+00
	 3.20556000E+01	-1.56096000E+03	 0.00000000E+00
	 3.63624000E+02	-1.69044000E+03	 0.00000000E+00
	-3.50792000E+01	-1.56642000E+03	 0.00000000E+00
	 2.00669000E+02	-1.56645000E+03	 0.00000000E+00
	-2.71331000E+02	-1.56645000E+03	 0.00000000E+00
	-2.97220000E+01	-1.62674000E+03	 0.00000000E+00
	-4.23990000E+02	-1.66717000E+03	 0.00000000E+00
	-4.23256000E+02	-1.67151000E+03	 0.00000000E+00
	 3.56291000E+02	-1.60957000E+03	 0.00000000E+00
	-4.24679000E+02	-1.56866000E+03	 0.00000000E+00
	 2.73075000E+02	-1.64165000E+03	 0.00000000E+00
	 2.68120000E+02	-1.56112000E+03	 0.00000000E+00
	-2.03880000E+02	-1.56111000E+03	 0.00000000E+00
	-3.57307000E+02	-1.62862000E+03	 0.00000000E+00
	 3.50687000E+02	-1.62870000E+03	 0.00000000E+00
	 1.14933000E+02	-1.62874000E+03	 0.00000000E+00
	-1.21313000E+02	-1.62870000E+03	 0.00000000E+00
	 7.35473000E+02	-1.40559000E+03	 0.00000000E+00
	-7.35473000E+02	-1.40559000E+03	 0.00000000E+00
	-7.44743000E+02	-1.36593000E+03	 0.00000000E+00
	-7.42193000E+02	-1.36011000E+03	 0.00000000E+00
	-7.67904000E+02	-1.34746000E+03	 0.00000000E+00
	-7.65248000E+02	-1.34252000E+03	 0.00000000E+00
	 7.68167000E+02	-1.34743000E+03	 0.00000000E+00
	 7.65257000E+02	-1.34257000E+03	 0.00000000E+00
	-6.74841000E+02	-1.58566000E+03	 0.00000000E+00
	-6.80625000E+02	-1.58593000E+03	 0.00000000E+00
	-6.71324000E+02	-1.59031000E+03	 0.00000000E+00
	 6.74841000E+02	-1.58566000E+03	 0.00000000E+00
	 6.80625000E+02	-1.58593000E+03	 0.00000000E+00
	 6.71324000E+02	-1.59031000E+03	 0.00000000E+00
	 1.55015000E+02	-1.67395000E+03	 0.00000000E+00
	 1.59115000E+02	-1.67907000E+03	 0.00000000E+00
	-7.62085000E+02	-1.35116000E+03	 0.00000000E+00
	 4.22605000E+02	-1.57270000E+03	 0.00000000E+00
	-3.32552000E+01	-1.70178000E+03	 0.00000000E+00
	 4.39034000E+02	-1.55564000E+03	 0.00000000E+00
	-2.40905000E+01	-1.52286000E+03	 0.00000000E+00
	-5.09725000E+02	-1.59835000E+03	 0.00000000E+00
	 5.10045000E+02	-1.59894000E+03	 0.00000000E+00
	 4.07206000E+02	-1.58364000E+03	 0.00000000E+00
	-3.97434000E+02	-1.58398000E+03	 0.00000000E+00
	 8.34407000E+02	-1.47399000E+03	 0.00000000E+00
	 7.44550000E+02	-1.36643000E+03	 0.00000000E+00
	 7.41878000E+02	-1.36086000E+03	 0.00000000E+00
	-4.05201000E+02	-1.58430000E+03	 0.00000000E+00
	 8.00953000E+02	-1.48749000E+03	 0.00000000E+00
	 6.20377000E+02	-1.56001000E+03	 0.00000000E+00
	-6.20378000E+02	-1.56001000E+03	 0.00000000E+00
	-2.06362000E+02	-1.62312000E+03	 0.00000000E+00
	-1.83724000E+02	-1.71589000E+03	 0.00000000E+00
	-3.74437000E+02	-1.59545000E+03	 0.00000000E+00
	-2.75468000E+02	-1.57771000E+03	 0.00000000E+00
	-3.94683000E+01	-1.57771000E+03	 0.00000000E+00
	 1.96532000E+02	-1.57771000E+03	 0.00000000E+00
	 7.81265000E+02	-1.46745000E+03	 0.00000000E+00
	 1.33004000E+02	-1.66343000E+03	 0.00000000E+00
	 1.99703000E+02	-1.71336000E+03	 0.00000000E+00
	 4.32262000E+02	-1.60959000E+03	 0.00000000E+00
	-4.32243000E+02	-1.60959000E+03	 0.00000000E+00
	-7.41620000E+02	-1.37207000E+03	 0.00000000E+00
	 1.28597000E+02	-1.65917000E+03	 0.00000000E+00
	 4.98966000E+02	-1.54941000E+03	 0.00000000E+00
	 4.34897000E+02	-1.65311000E+03	 0.00000000E+00
	 4.59127000E+02	-1.63646000E+03	 0.00000000E+00
	 4.49151000E+02	-1.63929000E+03	 0.00000000E+00
	 4.79585000E+02	-1.54141000E+03	 0.00000000E+00
	 2.83280000E+01	-1.55044000E+03	 0.00000000E+00
	 9.01896000E+01	-1.59145000E+03	 0.00000000E+00
	 1.65643000E+02	-1.67805000E+03	 0.00000000E+00
	 8.12427000E+02	-1.47353000E+03	 0.00000000E+00
	 3.81811000E+02	-1.67098000E+03	 0.00000000E+00
	 3.84781000E+02	-1.67624000E+03	 0.00000000E+00
	 1.58388000E+01	-1.54329000E+03	 0.00000000E+00
	 3.31147000E+01	-1.55465000E+03	 0.00000000E+00
	-5.50237000E+02	-1.63357000E+03	 0.00000000E+00
	-5.45228000E+02	-1.63067000E+03	 0.00000000E+00
	-5.45688000E+02	-1.63624000E+03	 0.00000000E+00
	-5.40380000E+02	-1.63346000E+03	 0.00000000E+00
	 5.50237000E+02	-1.63357000E+03	 0.00000000E+00
	 5.45228000E+02	-1.63067000E+03	 0.00000000E+00
	 5.45688000E+02	-1.63624000E+03	 0.00000000E+00
	 5.40380000E+02	-1.63346000E+03	 0.00000000E+00
	-3.68886000E+02	-1.67931000E+03	 0.00000000E+00
	-3.64212000E+02	-1.68327000E+03	 0.00000000E+00
	 9.76410000E+01	-1.59558000E+03	 0.00000000E+00
	-1.12366000E+02	-1.60289000E+03	 0.00000000E+00
	 3.59393000E+02	-1.60328000E+03	 0.00000000E+00
	 7.70805000E+02	-1.46056000E+03	 0.00000000E+00
	 3.26190000E+02	-1.59145000E+03	 0.00000000E+00
	-1.45810000E+02	-1.59145000E+03	 0.00000000E+00
	-1.28819000E+02	-1.58650000E+03	 0.00000000E+00
	-1.30223000E+02	-1.59132000E+03	 0.00000000E+00
	 3.43181000E+02	-1.58650000E+03	 0.00000000E+00
	 3.41777000E+02	-1.59132000E+03	 0.00000000E+00
	 7.35765000E+02	-1.39128000E+03	 0.00000000E+00
	-7.35765000E+02	-1.39128000E+03	 0.00000000E+00
	 3.33670000E+02	-1.59564000E+03	 0.00000000E+00
	-1.38330000E+02	-1.59564000E+03	 0.00000000E+00
	-4.21107000E+02	-1.58893000E+03	 0.00000000E+00
	-2.39617000E+02	-1.63260000E+03	 0.00000000E+00
	-1.86785000E+02	-1.66499000E+03	 0.00000000E+00
	 4.95997000E+02	-1.52724000E+03	 0.00000000E+00
	 4.91164000E+02	-1.52440000E+03	 0.00000000E+00
	-4.95956000E+02	-1.52731000E+03	 0.00000000E+00
	 2.08763000E+02	-1.54982000E+03	 0.00000000E+00
	-2.63237000E+02	-1.54982000E+03	 0.00000000E+00
	-6.20367000E+02	-1.57032000E+03	 0.00000000E+00
	 6.20366000E+02	-1.57032000E+03	 0.00000000E+00
	 1.07201000E+02	-1.58639000E+03	 0.00000000E+00
	 1.05804000E+02	-1.59125000E+03	 0.00000000E+00
	 3.76249000E+02	-1.58947000E+03	 0.00000000E+00
	 3.70618000E+02	-1.59197000E+03	 0.00000000E+00
	-7.49771000E+02	-1.55579000E+03	 0.00000000E+00
	 7.49769000E+02	-1.55578000E+03	 0.00000000E+00
	 9.08223000E+01	-1.66523000E+03	 0.00000000E+00
	-2.02050000E+02	-1.53338000E+03	 0.00000000E+00
	 2.69948000E+02	-1.53338000E+03	 0.00000000E+00
	 4.24616000E+02	-1.66513000E+03	 0.00000000E+00
	 3.11104000E+02	-1.67339000E+03	 0.00000000E+00
	 3.53763000E+02	-1.61818000E+03	 0.00000000E+00
	-3.54198000E+02	-1.61763000E+03	 0.00000000E+00
	 1.17810000E+02	-1.61763000E+03	 0.00000000E+00
	-4.93600000E+02	-1.54676000E+03	 0.00000000E+00
	-5.18155000E+02	-1.58683000E+03	 0.00000000E+00
	 5.18155000E+02	-1.58683000E+03	 0.00000000E+00
	 1.23853000E+02	-1.60459000E+03	 0.00000000E+00
	-3.48147000E+02	-1.60459000E+03	 0.00000000E+00
	 1.08008000E+02	-1.59873000E+03	 0.00000000E+00
	 3.44101000E+02	-1.59931000E+03	 0.00000000E+00
	-1.27927000E+02	-1.59879000E+03	 0.00000000E+00
	-3.64377000E+02	-1.59848000E+03	 0.00000000E+00
	 2.03933000E+02	-1.55320000E+03	 0.00000000E+00
	-2.68068000E+02	-1.55320000E+03	 0.00000000E+00
	-7.53060000E+02	-1.55085000E+03	 0.00000000E+00
	-7.55956000E+02	-1.54570000E+03	 0.00000000E+00
	-7.52955000E+02	-1.54074000E+03	 0.00000000E+00
	-7.58727000E+02	-1.54062000E+03	 0.00000000E+00
	-7.55730000E+02	-1.53568000E+03	 0.00000000E+00
	-7.61502000E+02	-1.53556000E+03	 0.00000000E+00
	-7.64475000E+02	-1.54048000E+03	 0.00000000E+00
	-7.67265000E+02	-1.53542000E+03	 0.00000000E+00
	-7.64271000E+02	-1.53049000E+03	 0.00000000E+00
	-7.70029000E+02	-1.53036000E+03	 0.00000000E+00
	-7.67037000E+02	-1.52544000E+03	 0.00000000E+00
	-7.72793000E+02	-1.52530000E+03	 0.00000000E+00
	-7.75782000E+02	-1.53022000E+03	 0.00000000E+00
	-7.78541000E+02	-1.52517000E+03	 0.00000000E+00
	-7.69804000E+02	-1.52040000E+03	 0.00000000E+00
	-7.81528000E+02	-1.53007000E+03	 0.00000000E+00
	-7.84272000E+02	-1.52503000E+03	 0.00000000E+00
	-7.81298000E+02	-1.52013000E+03	 0.00000000E+00
	-7.87015000E+02	-1.52000000E+03	 0.00000000E+00
	-7.89995000E+02	-1.52488000E+03	 0.00000000E+00
	-7.92734000E+02	-1.51986000E+03	 0.00000000E+00
	-7.95706000E+02	-1.52473000E+03	 0.00000000E+00
	-7.98445000E+02	-1.51973000E+03	 0.00000000E+00
	-7.64059000E+02	-1.52062000E+03	 0.00000000E+00
	-7.66825000E+02	-1.51559000E+03	 0.00000000E+00
	-7.89839000E+02	-1.51514000E+03	 0.00000000E+00
	-7.72600000E+02	-1.51547000E+03	 0.00000000E+00
	-7.78780000E+02	-1.53511000E+03	 0.00000000E+00
	-7.70164000E+02	-1.54007000E+03	 0.00000000E+00
	-7.84348000E+02	-1.53497000E+03	 0.00000000E+00
	-8.01330000E+02	-1.52434000E+03	 0.00000000E+00
	-8.04142000E+02	-1.51958000E+03	 0.00000000E+00
	-8.01174000E+02	-1.51478000E+03	 0.00000000E+00
	-7.98365000E+02	-1.52977000E+03	 0.00000000E+00
	-8.06809000E+02	-1.51489000E+03	 0.00000000E+00
	-8.09616000E+02	-1.51942000E+03	 0.00000000E+00
	-7.81489000E+02	-1.54005000E+03	 0.00000000E+00
	-7.59112000E+02	-1.55060000E+03	 0.00000000E+00
	 7.53053000E+02	-1.55080000E+03	 0.00000000E+00
	 7.55942000E+02	-1.54568000E+03	 0.00000000E+00
	 7.52953000E+02	-1.54074000E+03	 0.00000000E+00
	 7.58725000E+02	-1.54061000E+03	 0.00000000E+00
	 7.55728000E+02	-1.53568000E+03	 0.00000000E+00
	 7.61500000E+02	-1.53555000E+03	 0.00000000E+00
	 7.64456000E+02	-1.54046000E+03	 0.00000000E+00
	 7.67262000E+02	-1.53541000E+03	 0.00000000E+00
	 7.64271000E+02	-1.53049000E+03	 0.00000000E+00
	 7.70029000E+02	-1.53036000E+03	 0.00000000E+00
	 7.67037000E+02	-1.52544000E+03	 0.00000000E+00
	 7.72786000E+02	-1.52531000E+03	 0.00000000E+00
	 7.75781000E+02	-1.53022000E+03	 0.00000000E+00
	 7.78532000E+02	-1.52517000E+03	 0.00000000E+00
	 7.69796000E+02	-1.52040000E+03	 0.00000000E+00
	 7.81529000E+02	-1.53007000E+03	 0.00000000E+00
	 7.84271000E+02	-1.52503000E+03	 0.00000000E+00
	 7.81283000E+02	-1.52014000E+03	 0.00000000E+00
	 7.87010000E+02	-1.52000000E+03	 0.00000000E+00
	 7.89993000E+02	-1.52488000E+03	 0.00000000E+00
	 7.92726000E+02	-1.51986000E+03	 0.00000000E+00
	 7.95704000E+02	-1.52473000E+03	 0.00000000E+00
	 7.98436000E+02	-1.51972000E+03	 0.00000000E+00
	 7.64058000E+02	-1.52062000E+03	 0.00000000E+00
	 7.66824000E+02	-1.51559000E+03	 0.00000000E+00
	 7.89826000E+02	-1.51513000E+03	 0.00000000E+00
	 7.72592000E+02	-1.51547000E+03	 0.00000000E+00
	 7.78780000E+02	-1.53511000E+03	 0.00000000E+00
	 7.70154000E+02	-1.54007000E+03	 0.00000000E+00
	 7.84349000E+02	-1.53497000E+03	 0.00000000E+00
	 8.01328000E+02	-1.52434000E+03	 0.00000000E+00
	 8.04142000E+02	-1.51958000E+03	 0.00000000E+00
	 8.01172000E+02	-1.51480000E+03	 0.00000000E+00
	 7.98365000E+02	-1.52977000E+03	 0.00000000E+00
	 8.06808000E+02	-1.51489000E+03	 0.00000000E+00
	 8.09616000E+02	-1.51942000E+03	 0.00000000E+00
	 7.81489000E+02	-1.54005000E+03	 0.00000000E+00
	 7.59054000E+02	-1.55059000E+03	 0.00000000E+00
	-5.65080000E+02	-1.58446000E+03	 0.00000000E+00
	-5.70112000E+02	-1.58161000E+03	 0.00000000E+00
	-5.70154000E+02	-1.57593000E+03	 0.00000000E+00
	-5.75150000E+02	-1.58455000E+03	 0.00000000E+00
	 5.65080000E+02	-1.58446000E+03	 0.00000000E+00
	 5.70112000E+02	-1.58161000E+03	 0.00000000E+00
	 5.70154000E+02	-1.57593000E+03	 0.00000000E+00
	 5.75150000E+02	-1.58455000E+03	 0.00000000E+00
	-2.67645000E+02	-1.53055000E+03	 0.00000000E+00
	-2.73076000E+02	-1.53211000E+03	 0.00000000E+00
	 2.04355000E+02	-1.53055000E+03	 0.00000000E+00
	 1.98924000E+02	-1.53211000E+03	 0.00000000E+00
	-1.99075000E+02	-1.71335000E+03	 0.00000000E+00
	-2.02689000E+02	-1.70865000E+03	 0.00000000E+00
	-2.02891000E+02	-1.55498000E+03	 0.00000000E+00
	 2.69108000E+02	-1.55498000E+03	 0.00000000E+00
	-3.70301000E+01	-1.69688000E+03	 0.00000000E+00
	 7.35533000E+02	-1.49136000E+03	 0.00000000E+00
	-7.35464000E+02	-1.49136000E+03	 0.00000000E+00
	-5.65275000E+02	-1.56740000E+03	 0.00000000E+00
	 5.65275000E+02	-1.56740000E+03	 0.00000000E+00
	 7.41550000E+02	-1.37229000E+03	 0.00000000E+00
	 4.19926000E+02	-1.57768000E+03	 0.00000000E+00
	-8.00915000E+02	-1.48663000E+03	 0.00000000E+00
	-6.00316000E+02	-1.61622000E+03	 0.00000000E+00
	-6.00259000E+02	-1.61042000E+03	 0.00000000E+00
	-6.05323000E+02	-1.61332000E+03	 0.00000000E+00
	 6.00316000E+02	-1.61622000E+03	 0.00000000E+00
	 6.00259000E+02	-1.61042000E+03	 0.00000000E+00
	 6.05323000E+02	-1.61332000E+03	 0.00000000E+00
	-3.32432000E+01	-1.55583000E+03	 0.00000000E+00
	 1.44926000E+02	-1.71794000E+03	 0.00000000E+00
	 1.41202000E+02	-1.71349000E+03	 0.00000000E+00
	 1.39332000E+02	-1.71895000E+03	 0.00000000E+00
	 1.35485000E+02	-1.71441000E+03	 0.00000000E+00
	-1.53917000E+01	-1.54694000E+03	 0.00000000E+00
	-1.29845000E+01	-1.54143000E+03	 0.00000000E+00
	-8.34442000E+02	-1.47406000E+03	 0.00000000E+00
	 1.11851000E+02	-1.59049000E+03	 0.00000000E+00
	-3.98866000E+01	-1.67200000E+03	 0.00000000E+00
	-5.80285000E+02	-1.60469000E+03	 0.00000000E+00
	-5.85199000E+02	-1.60178000E+03	 0.00000000E+00
	 5.80285000E+02	-1.60469000E+03	 0.00000000E+00
	 5.85199000E+02	-1.60178000E+03	 0.00000000E+00
	-7.18925000E+02	-1.46138000E+03	 0.00000000E+00
	-7.15971000E+02	-1.46608000E+03	 0.00000000E+00
	-7.17245000E+02	-1.45621000E+03	 0.00000000E+00
	 7.18925000E+02	-1.46138000E+03	 0.00000000E+00
	 7.15971000E+02	-1.46608000E+03	 0.00000000E+00
	 7.17246000E+02	-1.45621000E+03	 0.00000000E+00
	-8.30929000E+00	-1.71571000E+03	 0.00000000E+00
	-8.53143000E+00	-1.72219000E+03	 0.00000000E+00
	 3.22988000E+00	-1.51601000E+03	 0.00000000E+00
	-2.37163000E+00	-1.51790000E+03	 0.00000000E+00
	-9.73983000E-01	-1.51291000E+03	 0.00000000E+00
	-3.81810000E+02	-1.59145000E+03	 0.00000000E+00
	-5.60132000E+02	-1.58733000E+03	 0.00000000E+00
	 5.60132000E+02	-1.58733000E+03	 0.00000000E+00
	-6.81092000E+02	-1.53597000E+03	 0.00000000E+00
	-6.78257000E+02	-1.53067000E+03	 0.00000000E+00
	-6.83920000E+02	-1.54086000E+03	 0.00000000E+00
	 6.81086000E+02	-1.53596000E+03	 0.00000000E+00
	 6.78262000E+02	-1.53067000E+03	 0.00000000E+00
	 6.83864000E+02	-1.54088000E+03	 0.00000000E+00
	 8.12032000E+02	-1.49085000E+03	 0.00000000E+00
	-8.12102000E+02	-1.49079000E+03	 0.00000000E+00
	-6.55353000E+02	-1.55081000E+03	 0.00000000E+00
	 6.55352000E+02	-1.55081000E+03	 0.00000000E+00
	 5.87057000E+01	-1.67708000E+03	 0.00000000E+00
	 5.10235000E+02	-1.60993000E+03	 0.00000000E+00
	 5.11385000E+02	-1.61605000E+03	 0.00000000E+00
	 2.68370000E+02	-1.63975000E+03	 0.00000000E+00
	-1.18000000E+02	-1.63964000E+03	 0.00000000E+00
	-7.61870000E+02	-1.54556000E+03	 0.00000000E+00
	 1.37471000E+02	-1.70903000E+03	 0.00000000E+00
	 1.31785000E+02	-1.71001000E+03	 0.00000000E+00
	 1.29750000E+02	-1.71539000E+03	 0.00000000E+00
	 1.26036000E+02	-1.71101000E+03	 0.00000000E+00
	 1.24005000E+02	-1.71628000E+03	 0.00000000E+00
	 1.20307000E+02	-1.71200000E+03	 0.00000000E+00
	 1.18279000E+02	-1.71726000E+03	 0.00000000E+00
	 1.14585000E+02	-1.71299000E+03	 0.00000000E+00
	 1.16586000E+02	-1.70758000E+03	 0.00000000E+00
	 1.10869000E+02	-1.70859000E+03	 0.00000000E+00
	 1.08872000E+02	-1.71403000E+03	 0.00000000E+00
	 1.05152000E+02	-1.70959000E+03	 0.00000000E+00
	 1.03155000E+02	-1.71503000E+03	 0.00000000E+00
	 9.94328000E+01	-1.71059000E+03	 0.00000000E+00
	 9.74362000E+01	-1.71603000E+03	 0.00000000E+00
	 9.37114000E+01	-1.71158000E+03	 0.00000000E+00
	 9.17167000E+01	-1.71703000E+03	 0.00000000E+00
	 8.79946000E+01	-1.71259000E+03	 0.00000000E+00
	 8.59977000E+01	-1.71803000E+03	 0.00000000E+00
	 8.22755000E+01	-1.71359000E+03	 0.00000000E+00
	 1.01127000E+02	-1.72047000E+03	 0.00000000E+00
	 8.02582000E+01	-1.71892000E+03	 0.00000000E+00
	 7.66000000E+01	-1.71452000E+03	 0.00000000E+00
	 8.99869000E+01	-1.70712000E+03	 0.00000000E+00
	 8.37204000E+01	-1.72323000E+03	 0.00000000E+00
	 7.45616000E+01	-1.71984000E+03	 0.00000000E+00
	 1.28161000E+02	-1.72052000E+03	 0.00000000E+00
	 7.86280000E+01	-1.70910000E+03	 0.00000000E+00
	 1.07213000E+02	-1.70414000E+03	 0.00000000E+00
	 1.28062000E+02	-1.70557000E+03	 0.00000000E+00
	-5.75159000E+02	-1.57884000E+03	 0.00000000E+00
	-7.06869000E+02	-1.52113000E+03	 0.00000000E+00
	-7.03510000E+02	-1.51614000E+03	 0.00000000E+00
	 7.06840000E+02	-1.52105000E+03	 0.00000000E+00
	 7.03506000E+02	-1.51612000E+03	 0.00000000E+00
	 1.48976000E+02	-1.70702000E+03	 0.00000000E+00
	 2.52040000E+02	-1.62167000E+03	 0.00000000E+00
	 7.95494000E+02	-1.51496000E+03	 0.00000000E+00
	-7.95520000E+02	-1.51497000E+03	 0.00000000E+00
	 7.09728000E+02	-1.52599000E+03	 0.00000000E+00
	-7.09733000E+02	-1.52601000E+03	 0.00000000E+00
	 1.97852000E+01	-1.72472000E+03	 0.00000000E+00
	 6.40716000E+02	-1.56554000E+03	 0.00000000E+00
	-6.40718000E+02	-1.56554000E+03	 0.00000000E+00
	-8.12678000E+02	-1.52738000E+03	 0.00000000E+00
	 8.12678000E+02	-1.52738000E+03	 0.00000000E+00
	 3.47541000E+02	-1.59055000E+03	 0.00000000E+00
	-1.24462000E+02	-1.59055000E+03	 0.00000000E+00
	-4.84056000E+02	-1.63375000E+03	 0.00000000E+00
	 2.64907000E+02	-1.55057000E+03	 0.00000000E+00
	-2.07090000E+02	-1.55057000E+03	 0.00000000E+00
	-2.73422000E+02	-1.66915000E+03	 0.00000000E+00
	-4.39806000E+02	-1.55382000E+03	 0.00000000E+00
	-7.12958000E+02	-1.36888000E+03	 0.00000000E+00
	-7.17847000E+02	-1.36578000E+03	 0.00000000E+00
	-7.17953000E+02	-1.37185000E+03	 0.00000000E+00
	-7.21152000E+02	-1.37701000E+03	 0.00000000E+00
	 7.12987000E+02	-1.36888000E+03	 0.00000000E+00
	-5.40315000E+02	-1.56439000E+03	 0.00000000E+00
	-5.45283000E+02	-1.56155000E+03	 0.00000000E+00
	 5.40317000E+02	-1.56439000E+03	 0.00000000E+00
	 5.45283000E+02	-1.56155000E+03	 0.00000000E+00
	 7.17870000E+02	-1.36580000E+03	 0.00000000E+00
	 5.40322000E+02	-1.55871000E+03	 0.00000000E+00
	 5.45450000E+02	-1.55595000E+03	 0.00000000E+00
	 5.50387000E+02	-1.55882000E+03	 0.00000000E+00
	 5.35352000E+02	-1.55583000E+03	 0.00000000E+00
	 5.35503000E+02	-1.55025000E+03	 0.00000000E+00
	-5.40323000E+02	-1.55871000E+03	 0.00000000E+00
	-5.45450000E+02	-1.55595000E+03	 0.00000000E+00
	-5.50387000E+02	-1.55882000E+03	 0.00000000E+00
	-5.35353000E+02	-1.55583000E+03	 0.00000000E+00
	-5.35503000E+02	-1.55025000E+03	 0.00000000E+00
	-5.60286000E+02	-1.61043000E+03	 0.00000000E+00
	 5.60286000E+02	-1.61043000E+03	 0.00000000E+00
	 3.51813000E+02	-1.64597000E+03	 0.00000000E+00
	-7.27193000E+02	-1.45670000E+03	 0.00000000E+00
	 7.27192000E+02	-1.45671000E+03	 0.00000000E+00
	 7.21292000E+02	-1.39660000E+03	 0.00000000E+00
	-7.21292000E+02	-1.39660000E+03	 0.00000000E+00
	 1.94709000E+02	-1.69902000E+03	 0.00000000E+00
	-7.24159000E+02	-1.48142000E+03	 0.00000000E+00
	-7.18081000E+02	-1.48073000E+03	 0.00000000E+00
	-7.29829000E+02	-1.48144000E+03	 0.00000000E+00
	 7.24150000E+02	-1.48138000E+03	 0.00000000E+00
	 7.18076000E+02	-1.48070000E+03	 0.00000000E+00
	 7.29829000E+02	-1.48144000E+03	 0.00000000E+00
	-7.70977000E+02	-1.48234000E+03	 0.00000000E+00
	-8.12093000E+02	-1.47290000E+03	 0.00000000E+00
	-7.17537000E+02	-1.41192000E+03	 0.00000000E+00
	 7.17537000E+02	-1.41192000E+03	 0.00000000E+00
	 2.19484000E+02	-1.54333000E+03	 0.00000000E+00
	-2.52516000E+02	-1.54333000E+03	 0.00000000E+00
	-7.21390000E+02	-1.42700000E+03	 0.00000000E+00
	 7.21386000E+02	-1.42700000E+03	 0.00000000E+00
	-2.22743000E+02	-1.54281000E+03	 0.00000000E+00
	 9.08751000E+01	-1.57036000E+03	 0.00000000E+00
	-1.45168000E+02	-1.57043000E+03	 0.00000000E+00
	 3.26832000E+02	-1.57043000E+03	 0.00000000E+00
	 2.06140000E+02	-1.69702000E+03	 0.00000000E+00
	-7.21417000E+02	-1.44655000E+03	 0.00000000E+00
	-7.18364000E+02	-1.44168000E+03	 0.00000000E+00
	 7.21420000E+02	-1.44656000E+03	 0.00000000E+00
	 7.18362000E+02	-1.44169000E+03	 0.00000000E+00
	 7.21242000E+02	-1.43673000E+03	 0.00000000E+00
	 7.15853000E+02	-1.43692000E+03	 0.00000000E+00
	 2.46614000E+02	-1.65935000E+03	 0.00000000E+00
	 7.12602000E+02	-1.53095000E+03	 0.00000000E+00
	-7.12603000E+02	-1.53095000E+03	 0.00000000E+00
	 4.31664000E+02	-1.54107000E+03	 0.00000000E+00
	-4.74802000E+01	-1.54979000E+03	 0.00000000E+00
	-5.14211000E+01	-1.54592000E+03	 0.00000000E+00
	-5.30260000E+01	-1.55123000E+03	 0.00000000E+00
	-5.69180000E+01	-1.54713000E+03	 0.00000000E+00
	-6.26513000E+01	-1.54844000E+03	 0.00000000E+00
	-6.41392000E+01	-1.55399000E+03	 0.00000000E+00
	-7.04439000E+01	-1.55378000E+03	 0.00000000E+00
	-7.18173000E+01	-1.55991000E+03	 0.00000000E+00
	-7.65193000E+01	-1.55590000E+03	 0.00000000E+00
	 1.88534000E+02	-1.54980000E+03	 0.00000000E+00
	 1.84581000E+02	-1.54592000E+03	 0.00000000E+00
	 1.82977000E+02	-1.55123000E+03	 0.00000000E+00
	 1.79082000E+02	-1.54713000E+03	 0.00000000E+00
	 1.73349000E+02	-1.54844000E+03	 0.00000000E+00
	 1.71861000E+02	-1.55399000E+03	 0.00000000E+00
	 1.65556000E+02	-1.55378000E+03	 0.00000000E+00
	 1.64183000E+02	-1.55991000E+03	 0.00000000E+00
	 1.59481000E+02	-1.55590000E+03	 0.00000000E+00
	-2.83466000E+02	-1.54980000E+03	 0.00000000E+00
	-2.87419000E+02	-1.54592000E+03	 0.00000000E+00
	-2.89023000E+02	-1.55123000E+03	 0.00000000E+00
	-2.92918000E+02	-1.54713000E+03	 0.00000000E+00
	-2.98651000E+02	-1.54844000E+03	 0.00000000E+00
	-3.00139000E+02	-1.55399000E+03	 0.00000000E+00
	-3.06444000E+02	-1.55378000E+03	 0.00000000E+00
	-3.07817000E+02	-1.55991000E+03	 0.00000000E+00
	-3.12519000E+02	-1.55590000E+03	 0.00000000E+00
	 5.35342000E+02	-1.56724000E+03	 0.00000000E+00
	-5.35341000E+02	-1.56724000E+03	 0.00000000E+00
	-7.21247000E+02	-1.43672000E+03	 0.00000000E+00
	-7.15857000E+02	-1.43692000E+03	 0.00000000E+00
	-3.96426000E+02	-1.56652000E+03	 0.00000000E+00
	-3.96678000E+02	-1.56081000E+03	 0.00000000E+00
	-4.01344000E+02	-1.55803000E+03	 0.00000000E+00
	-3.96934000E+02	-1.55538000E+03	 0.00000000E+00
	-4.06281000E+02	-1.56085000E+03	 0.00000000E+00
	-4.06507000E+02	-1.55524000E+03	 0.00000000E+00
	 3.96371000E+02	-1.56653000E+03	 0.00000000E+00
	 3.96627000E+02	-1.56082000E+03	 0.00000000E+00
	 4.01364000E+02	-1.55803000E+03	 0.00000000E+00
	 3.96941000E+02	-1.55539000E+03	 0.00000000E+00
	 4.44198000E+02	-1.64252000E+03	 0.00000000E+00
	-2.40079000E+02	-1.52323000E+03	 0.00000000E+00
	-2.44624000E+02	-1.51893000E+03	 0.00000000E+00
	-2.38428000E+02	-1.51798000E+03	 0.00000000E+00
	-2.33051000E+02	-1.51626000E+03	 0.00000000E+00
	-2.28817000E+02	-1.52018000E+03	 0.00000000E+00
	-2.23037000E+02	-1.51927000E+03	 0.00000000E+00
	-2.31501000E+02	-1.51063000E+03	 0.00000000E+00
	 2.31921000E+02	-1.52323000E+03	 0.00000000E+00
	 2.27376000E+02	-1.51893000E+03	 0.00000000E+00
	 2.33572000E+02	-1.51798000E+03	 0.00000000E+00
	 2.38949000E+02	-1.51626000E+03	 0.00000000E+00
	 2.43183000E+02	-1.52018000E+03	 0.00000000E+00
	 2.48963000E+02	-1.51927000E+03	 0.00000000E+00
	 2.40499000E+02	-1.51063000E+03	 0.00000000E+00
	 1.10523000E+01	-1.52442000E+03	 0.00000000E+00
	 2.20900000E+02	-1.52621000E+03	 0.00000000E+00
	 2.17291000E+02	-1.52199000E+03	 0.00000000E+00
	-2.51100000E+02	-1.52621000E+03	 0.00000000E+00
	-2.54709000E+02	-1.52199000E+03	 0.00000000E+00
	-7.84144000E+02	-1.51527000E+03	 0.00000000E+00
	-7.78426000E+02	-1.51540000E+03	 0.00000000E+00
	-7.75573000E+02	-1.52024000E+03	 0.00000000E+00
	 7.84135000E+02	-1.51527000E+03	 0.00000000E+00
	 7.78413000E+02	-1.51540000E+03	 0.00000000E+00
	-2.08464000E+02	-1.65382000E+03	 0.00000000E+00
	-2.06567000E+02	-1.64834000E+03	 0.00000000E+00
	-3.03268000E+02	-1.56507000E+03	 0.00000000E+00
	-6.72677000E+01	-1.56507000E+03	 0.00000000E+00
	 1.68732000E+02	-1.56507000E+03	 0.00000000E+00
	-3.71646000E+02	-1.57521000E+03	 0.00000000E+00
	-3.72108000E+02	-1.56956000E+03	 0.00000000E+00
	 3.18756000E+02	-1.56179000E+03	 0.00000000E+00
	-1.53244000E+02	-1.56179000E+03	 0.00000000E+00
	 8.27829000E+01	-1.56176000E+03	 0.00000000E+00
	-2.74891000E+02	-1.53737000E+03	 0.00000000E+00
	 1.97109000E+02	-1.53737000E+03	 0.00000000E+00
	-4.63829000E+01	-1.69367000E+03	 0.00000000E+00
	 4.56228000E+02	-1.52696000E+03	 0.00000000E+00
	-2.14157000E+02	-1.65470000E+03	 0.00000000E+00
	-4.21456000E+02	-1.54675000E+03	 0.00000000E+00
	 4.21464000E+02	-1.54676000E+03	 0.00000000E+00
	 5.15516000E+02	-1.54431000E+03	 0.00000000E+00
	 5.20734000E+02	-1.54159000E+03	 0.00000000E+00
	 5.25668000E+02	-1.54448000E+03	 0.00000000E+00
	 5.25460000E+02	-1.55010000E+03	 0.00000000E+00
	-5.15516000E+02	-1.54431000E+03	 0.00000000E+00
	-5.20734000E+02	-1.54159000E+03	 0.00000000E+00
	-5.25668000E+02	-1.54448000E+03	 0.00000000E+00
	-5.25460000E+02	-1.55010000E+03	 0.00000000E+00
	-7.58736000E+02	-1.48047000E+03	 0.00000000E+00
	-7.61713000E+02	-1.48615000E+03	 0.00000000E+00
	 7.19542000E+01	-1.56494000E+03	 0.00000000E+00
	 6.79415000E+01	-1.56085000E+03	 0.00000000E+00
	 6.23972000E+01	-1.56230000E+03	 0.00000000E+00
	 6.38785000E+01	-1.55683000E+03	 0.00000000E+00
	 6.95797000E+01	-1.55426000E+03	 0.00000000E+00
	 5.83639000E+01	-1.55823000E+03	 0.00000000E+00
	 5.98402000E+01	-1.55276000E+03	 0.00000000E+00
	 5.55898000E+01	-1.54885000E+03	 0.00000000E+00
	 6.11984000E+01	-1.54732000E+03	 0.00000000E+00
	 5.02331000E+01	-1.55009000E+03	 0.00000000E+00
	 5.15740000E+01	-1.54492000E+03	 0.00000000E+00
	 4.78077000E+01	-1.54074000E+03	 0.00000000E+00
	-1.64094000E+02	-1.56500000E+03	 0.00000000E+00
	-1.68104000E+02	-1.56091000E+03	 0.00000000E+00
	-1.73650000E+02	-1.56235000E+03	 0.00000000E+00
	-1.72160000E+02	-1.55688000E+03	 0.00000000E+00
	-1.66446000E+02	-1.55430000E+03	 0.00000000E+00
	-1.77679000E+02	-1.55827000E+03	 0.00000000E+00
	-1.76194000E+02	-1.55280000E+03	 0.00000000E+00
	-1.80442000E+02	-1.54890000E+03	 0.00000000E+00
	-1.74818000E+02	-1.54734000E+03	 0.00000000E+00
	-1.85802000E+02	-1.55014000E+03	 0.00000000E+00
	-1.84317000E+02	-1.54463000E+03	 0.00000000E+00
	-1.88210000E+02	-1.54074000E+03	 0.00000000E+00
	 3.07906000E+02	-1.56500000E+03	 0.00000000E+00
	 3.03896000E+02	-1.56091000E+03	 0.00000000E+00
	 2.98350000E+02	-1.56235000E+03	 0.00000000E+00
	 2.99840000E+02	-1.55688000E+03	 0.00000000E+00
	 3.05554000E+02	-1.55430000E+03	 0.00000000E+00
	 2.94321000E+02	-1.55827000E+03	 0.00000000E+00
	 2.95806000E+02	-1.55280000E+03	 0.00000000E+00
	 2.91558000E+02	-1.54890000E+03	 0.00000000E+00
	 2.97182000E+02	-1.54734000E+03	 0.00000000E+00
	 2.86198000E+02	-1.55014000E+03	 0.00000000E+00
	 2.87546000E+02	-1.54495000E+03	 0.00000000E+00
	 2.83779000E+02	-1.54077000E+03	 0.00000000E+00
	 5.04328000E+02	-1.56134000E+03	 0.00000000E+00
	-3.81702000E+02	-1.56934000E+03	 0.00000000E+00
	-5.04328000E+02	-1.56134000E+03	 0.00000000E+00
	-2.74398000E+01	-1.53454000E+03	 0.00000000E+00
	-9.09682000E+01	-1.57621000E+03	 0.00000000E+00
	-9.64096000E+01	-1.57748000E+03	 0.00000000E+00
	-9.50192000E+01	-1.57225000E+03	 0.00000000E+00
	-1.00508000E+02	-1.57376000E+03	 0.00000000E+00
	-1.02102000E+02	-1.57870000E+03	 0.00000000E+00
	-1.05786000E+02	-1.57483000E+03	 0.00000000E+00
	-1.04586000E+02	-1.56947000E+03	 0.00000000E+00
	-3.26968000E+02	-1.57621000E+03	 0.00000000E+00
	-3.32410000E+02	-1.57748000E+03	 0.00000000E+00
	-3.31019000E+02	-1.57225000E+03	 0.00000000E+00
	-3.36508000E+02	-1.57376000E+03	 0.00000000E+00
	-3.38102000E+02	-1.57870000E+03	 0.00000000E+00
	-3.41786000E+02	-1.57483000E+03	 0.00000000E+00
	-3.40586000E+02	-1.56947000E+03	 0.00000000E+00
	 1.45032000E+02	-1.57621000E+03	 0.00000000E+00
	 1.39590000E+02	-1.57748000E+03	 0.00000000E+00
	 1.40981000E+02	-1.57225000E+03	 0.00000000E+00
	 1.35492000E+02	-1.57376000E+03	 0.00000000E+00
	 1.33898000E+02	-1.57870000E+03	 0.00000000E+00
	 1.30214000E+02	-1.57483000E+03	 0.00000000E+00
	 1.31414000E+02	-1.56947000E+03	 0.00000000E+00
	-2.07438000E+02	-1.53524000E+03	 0.00000000E+00
	 2.64575000E+02	-1.53523000E+03	 0.00000000E+00
	-1.94067000E+02	-1.67190000E+03	 0.00000000E+00
	-7.78455000E+02	-1.50607000E+03	 0.00000000E+00
	 7.78455000E+02	-1.50607000E+03	 0.00000000E+00
	 3.81739000E+02	-1.56928000E+03	 0.00000000E+00
	 3.82172000E+02	-1.56366000E+03	 0.00000000E+00
	-4.46223000E+02	-1.53253000E+03	 0.00000000E+00
	-4.51288000E+02	-1.52971000E+03	 0.00000000E+00
	-4.51458000E+02	-1.52431000E+03	 0.00000000E+00
	-1.50512000E+01	-1.52639000E+03	 0.00000000E+00
	-1.43383000E+01	-1.52140000E+03	 0.00000000E+00
	-8.32319000E+00	-1.51901000E+03	 0.00000000E+00
	-4.07650000E+00	-1.52321000E+03	 0.00000000E+00
	 4.41517000E+02	-1.53539000E+03	 0.00000000E+00
	 4.46356000E+02	-1.53253000E+03	 0.00000000E+00
	 4.46501000E+02	-1.52713000E+03	 0.00000000E+00
	 6.58041000E+02	-1.55569000E+03	 0.00000000E+00
	-6.58041000E+02	-1.55569000E+03	 0.00000000E+00
	 6.04829000E+02	-1.57317000E+03	 0.00000000E+00
	-6.04830000E+02	-1.57317000E+03	 0.00000000E+00
	-4.36359000E+02	-1.53819000E+03	 0.00000000E+00
	-4.36585000E+02	-1.53279000E+03	 0.00000000E+00
	-4.31617000E+02	-1.54107000E+03	 0.00000000E+00
	 4.66345000E+02	-1.52131000E+03	 0.00000000E+00
	 7.35301000E+02	-1.41173000E+03	 0.00000000E+00
	-7.35301000E+02	-1.41173000E+03	 0.00000000E+00
	 7.18799000E+02	-1.47121000E+03	 0.00000000E+00
	-7.18800000E+02	-1.47122000E+03	 0.00000000E+00
	-5.50227000E+02	-1.57015000E+03	 0.00000000E+00
	-5.50245000E+02	-1.56447000E+03	 0.00000000E+00
	 5.50227000E+02	-1.57015000E+03	 0.00000000E+00
	 5.50245000E+02	-1.56447000E+03	 0.00000000E+00
	 5.65150000E+02	-1.59023000E+03	 0.00000000E+00
	-5.65150000E+02	-1.59023000E+03	 0.00000000E+00
	 4.80878000E+02	-1.52414000E+03	 0.00000000E+00
	 4.81130000E+02	-1.51871000E+03	 0.00000000E+00
	-6.66589000E+02	-1.56067000E+03	 0.00000000E+00
	 6.66605000E+02	-1.56067000E+03	 0.00000000E+00
	 2.42725000E+01	-1.53115000E+03	 0.00000000E+00
	-4.75974000E+02	-1.52129000E+03	 0.00000000E+00
	-4.76271000E+02	-1.51574000E+03	 0.00000000E+00
	-4.80879000E+02	-1.52418000E+03	 0.00000000E+00
	-4.86072000E+02	-1.52159000E+03	 0.00000000E+00
	-6.81016000E+02	-1.54581000E+03	 0.00000000E+00
	 4.85874000E+02	-1.52708000E+03	 0.00000000E+00
	-2.15406000E+02	-1.52599000E+03	 0.00000000E+00
	-2.09916000E+02	-1.52563000E+03	 0.00000000E+00
	 2.56596000E+02	-1.52599000E+03	 0.00000000E+00
	 2.62084000E+02	-1.52563000E+03	 0.00000000E+00
	 9.45436000E+01	-1.68090000E+03	 0.00000000E+00
	 4.06299000E+02	-1.56086000E+03	 0.00000000E+00
	 4.06524000E+02	-1.55524000E+03	 0.00000000E+00
	-4.61201000E+02	-1.52414000E+03	 0.00000000E+00
	 7.59245000E+02	-1.47816000E+03	 0.00000000E+00
	 6.66653000E+02	-1.54127000E+03	 0.00000000E+00
	-6.66655000E+02	-1.54127000E+03	 0.00000000E+00
	 6.04922000E+02	-1.58457000E+03	 0.00000000E+00
	 5.99914000E+02	-1.58173000E+03	 0.00000000E+00
	 5.99940000E+02	-1.58746000E+03	 0.00000000E+00
	-6.04922000E+02	-1.58457000E+03	 0.00000000E+00
	-5.99914000E+02	-1.58173000E+03	 0.00000000E+00
	-5.99940000E+02	-1.58746000E+03	 0.00000000E+00
	-7.09726000E+02	-1.53591000E+03	 0.00000000E+00
	 7.09726000E+02	-1.53591000E+03	 0.00000000E+00
	 7.87063000E+02	-1.52982000E+03	 0.00000000E+00
	-7.87063000E+02	-1.52983000E+03	 0.00000000E+00
	 6.92986000E+02	-1.52615000E+03	 0.00000000E+00
	-6.92987000E+02	-1.52615000E+03	 0.00000000E+00
	 5.65194000E+02	-1.57307000E+03	 0.00000000E+00
	-5.65194000E+02	-1.57307000E+03	 0.00000000E+00
	 7.26962000E+02	-1.52598000E+03	 0.00000000E+00
	 7.32714000E+02	-1.52597000E+03	 0.00000000E+00
	 7.29844000E+02	-1.52101000E+03	 0.00000000E+00
	 7.32666000E+02	-1.51605000E+03	 0.00000000E+00
	-7.26966000E+02	-1.52598000E+03	 0.00000000E+00
	-7.32708000E+02	-1.52598000E+03	 0.00000000E+00
	-7.29831000E+02	-1.52102000E+03	 0.00000000E+00
	-7.32683000E+02	-1.51606000E+03	 0.00000000E+00
	-5.40285000E+02	-1.59312000E+03	 0.00000000E+00
	-5.45272000E+02	-1.59024000E+03	 0.00000000E+00
	 5.40282000E+02	-1.59311000E+03	 0.00000000E+00
	 5.45271000E+02	-1.59024000E+03	 0.00000000E+00
	-3.14605000E+02	-1.56763000E+03	 0.00000000E+00
	 1.57395000E+02	-1.56763000E+03	 0.00000000E+00
	-7.86050000E+01	-1.56763000E+03	 0.00000000E+00
	-6.32136000E+02	-1.56093000E+03	 0.00000000E+00
	-6.37878000E+02	-1.56068000E+03	 0.00000000E+00
	-6.34543000E+02	-1.55574000E+03	 0.00000000E+00
	-6.37827000E+02	-1.57049000E+03	 0.00000000E+00
	 6.32146000E+02	-1.56092000E+03	 0.00000000E+00
	 6.37821000E+02	-1.56058000E+03	 0.00000000E+00
	 6.34533000E+02	-1.55572000E+03	 0.00000000E+00
	 6.37826000E+02	-1.57049000E+03	 0.00000000E+00
	-2.16225000E+02	-1.66010000E+03	 0.00000000E+00
	 3.09396000E+02	-1.55935000E+03	 0.00000000E+00
	 3.10948000E+02	-1.55397000E+03	 0.00000000E+00
	-1.62604000E+02	-1.55935000E+03	 0.00000000E+00
	-1.61052000E+02	-1.55397000E+03	 0.00000000E+00
	 7.34331000E+01	-1.55930000E+03	 0.00000000E+00
	 7.49884000E+01	-1.55391000E+03	 0.00000000E+00
	-7.38440000E+02	-1.51605000E+03	 0.00000000E+00
	-7.35561000E+02	-1.51109000E+03	 0.00000000E+00
	-7.38439000E+02	-1.50615000E+03	 0.00000000E+00
	-7.44172000E+02	-1.50613000E+03	 0.00000000E+00
	-7.41287000E+02	-1.50122000E+03	 0.00000000E+00
	-7.21336000E+02	-1.49633000E+03	 0.00000000E+00
	-7.18570000E+02	-1.50112000E+03	 0.00000000E+00
	 7.21335000E+02	-1.49633000E+03	 0.00000000E+00
	 7.18570000E+02	-1.50112000E+03	 0.00000000E+00
	 7.87384000E+02	-1.46918000E+03	 0.00000000E+00
	-5.10850000E+02	-1.53587000E+03	 0.00000000E+00
	-7.32723000E+02	-1.47647000E+03	 0.00000000E+00
	 7.32725000E+02	-1.47647000E+03	 0.00000000E+00
	 5.10849000E+02	-1.53587000E+03	 0.00000000E+00
	-6.89657000E+02	-1.54086000E+03	 0.00000000E+00
	 7.75567000E+02	-1.52032000E+03	 0.00000000E+00
	 5.45268000E+02	-1.59600000E+03	 0.00000000E+00
	 5.50279000E+02	-1.58740000E+03	 0.00000000E+00
	 7.81644000E+02	-1.48303000E+03	 0.00000000E+00
	-7.38391000E+02	-1.49629000E+03	 0.00000000E+00
	-7.38399000E+02	-1.48641000E+03	 0.00000000E+00
	-4.11339000E+02	-1.55804000E+03	 0.00000000E+00
	 6.89600000E+02	-1.54088000E+03	 0.00000000E+00
	 4.11347000E+02	-1.55804000E+03	 0.00000000E+00
	-1.47481000E+02	-1.70506000E+03	 0.00000000E+00
	-7.82381000E+02	-1.48399000E+03	 0.00000000E+00
	 3.71848000E+02	-1.58084000E+03	 0.00000000E+00
	-7.24086000E+02	-1.52102000E+03	 0.00000000E+00
	-1.95944000E+02	-1.67721000E+03	 0.00000000E+00
	 6.78116000E+02	-1.55077000E+03	 0.00000000E+00
	-6.78129000E+02	-1.55077000E+03	 0.00000000E+00
	 6.43571000E+02	-1.57052000E+03	 0.00000000E+00
	-6.43571000E+02	-1.57052000E+03	 0.00000000E+00
	-1.80890000E+02	-1.68000000E+03	 0.00000000E+00
	 1.05935000E+02	-1.67888000E+03	 0.00000000E+00
	 6.55115000E+02	-1.56062000E+03	 0.00000000E+00
	-6.55115000E+02	-1.56062000E+03	 0.00000000E+00
	-3.53658000E+01	-1.70744000E+03	 0.00000000E+00
	 7.38411000E+02	-1.51605000E+03	 0.00000000E+00
	 7.58504000E+02	-1.53066000E+03	 0.00000000E+00
	 7.52776000E+02	-1.53080000E+03	 0.00000000E+00
	 7.61284000E+02	-1.52566000E+03	 0.00000000E+00
	-7.58505000E+02	-1.53066000E+03	 0.00000000E+00
	-7.52777000E+02	-1.53080000E+03	 0.00000000E+00
	-7.61285000E+02	-1.52566000E+03	 0.00000000E+00
	 3.15035000E+02	-1.67788000E+03	 0.00000000E+00
	-3.87385000E+01	-1.53651000E+03	 0.00000000E+00
	 7.24090000E+02	-1.52101000E+03	 0.00000000E+00
	 4.74864000E+02	-1.63661000E+03	 0.00000000E+00
	 2.82409000E+02	-1.67859000E+03	 0.00000000E+00
	 2.84248000E+02	-1.67349000E+03	 0.00000000E+00
	-6.63759000E+02	-1.55569000E+03	 0.00000000E+00
	 6.63763000E+02	-1.55569000E+03	 0.00000000E+00
	 8.68520000E+01	-1.68761000E+03	 0.00000000E+00
	 8.81914000E+01	-1.68183000E+03	 0.00000000E+00
	-5.15289000E+02	-1.61921000E+03	 0.00000000E+00
	 1.51309000E+02	-1.68619000E+03	 0.00000000E+00
	 1.62759000E+02	-1.68423000E+03	 0.00000000E+00
	-7.44182000E+02	-1.49628000E+03	 0.00000000E+00
	 3.71901000E+01	-1.70618000E+03	 0.00000000E+00
	-1.27799000E+02	-1.68139000E+03	 0.00000000E+00
	-1.25877000E+02	-1.67609000E+03	 0.00000000E+00
	 2.23265000E+02	-1.69402000E+03	 0.00000000E+00
	 2.25276000E+02	-1.68857000E+03	 0.00000000E+00
	 2.30982000E+02	-1.68757000E+03	 0.00000000E+00
	 2.34705000E+02	-1.69202000E+03	 0.00000000E+00
	 2.40425000E+02	-1.69102000E+03	 0.00000000E+00
	-1.67745000E+02	-1.68784000E+03	 0.00000000E+00
	 7.66935000E+02	-1.50608000E+03	 0.00000000E+00
	-7.66929000E+02	-1.50608000E+03	 0.00000000E+00
	-5.21901000E+01	-1.69488000E+03	 0.00000000E+00
	 1.22346000E+02	-1.70656000E+03	 0.00000000E+00
	 1.18580000E+02	-1.70213000E+03	 0.00000000E+00
	 5.03099000E+01	-1.68290000E+03	 0.00000000E+00
	-2.57431000E+02	-1.64131000E+03	 0.00000000E+00
	-2.60914000E+02	-1.63677000E+03	 0.00000000E+00
	-3.09914000E+02	-1.68001000E+03	 0.00000000E+00
	-3.08004000E+02	-1.67476000E+03	 0.00000000E+00
	 7.54035000E+01	-1.68944000E+03	 0.00000000E+00
	 6.96737000E+01	-1.69033000E+03	 0.00000000E+00
	 7.17643000E+01	-1.68533000E+03	 0.00000000E+00
	 6.82467000E+01	-1.68054000E+03	 0.00000000E+00
	 6.23774000E+01	-1.68182000E+03	 0.00000000E+00
	-8.24104000E+01	-1.68899000E+03	 0.00000000E+00
	-2.41197000E+02	-1.66913000E+03	 0.00000000E+00
	-2.44834000E+02	-1.66462000E+03	 0.00000000E+00
	-2.39115000E+02	-1.66372000E+03	 0.00000000E+00
	 1.04570000E+02	-1.57693000E+03	 0.00000000E+00
	-1.31369000E+02	-1.57691000E+03	 0.00000000E+00
	 3.40631000E+02	-1.57691000E+03	 0.00000000E+00
	 1.83228000E+02	-1.70103000E+03	 0.00000000E+00
	 2.21841000E+02	-1.66879000E+03	 0.00000000E+00
	 2.27547000E+02	-1.66779000E+03	 0.00000000E+00
	 2.29528000E+02	-1.66235000E+03	 0.00000000E+00
	 2.23827000E+02	-1.66335000E+03	 0.00000000E+00
	-5.49431000E+01	-1.67436000E+03	 0.00000000E+00
	 1.66071000E+02	-1.70403000E+03	 0.00000000E+00
	-3.43907000E+02	-1.67023000E+03	 0.00000000E+00
	 9.57782000E+01	-1.70612000E+03	 0.00000000E+00
	-5.25246000E+02	-1.61328000E+03	 0.00000000E+00
	 5.25245000E+02	-1.61328000E+03	 0.00000000E+00
	 1.24771000E+02	-1.68577000E+03	 0.00000000E+00
	-2.58378000E+02	-1.67185000E+03	 0.00000000E+00
	-1.15175000E+02	-1.70501000E+03	 0.00000000E+00
	 2.63507000E+02	-1.67166000E+03	 0.00000000E+00
	 1.39913000E+02	-1.68822000E+03	 0.00000000E+00
	 2.04751000E+02	-1.65643000E+03	 0.00000000E+00
	 2.06656000E+02	-1.65102000E+03	 0.00000000E+00
	 5.75286000E+02	-1.60757000E+03	 0.00000000E+00
	-5.75286000E+02	-1.60757000E+03	 0.00000000E+00
	 2.42421000E+02	-1.68557000E+03	 0.00000000E+00
	 2.10786000E+02	-1.64003000E+03	 0.00000000E+00
	-2.46639000E+02	-1.63894000E+03	 0.00000000E+00
	-1.12180000E+02	-1.68369000E+03	 0.00000000E+00
	 2.08438000E+02	-1.67623000E+03	 0.00000000E+00
	-7.29867000E+02	-1.46159000E+03	 0.00000000E+00
	 7.29860000E+02	-1.46159000E+03	 0.00000000E+00
	 1.21265000E+02	-1.66606000E+03	 0.00000000E+00
	-1.21278000E+02	-1.66545000E+03	 0.00000000E+00
	-1.27460000E+02	-1.66633000E+03	 0.00000000E+00
	 3.45482000E+02	-1.66773000E+03	 0.00000000E+00
	 2.33579000E+02	-1.63589000E+03	 0.00000000E+00
	 2.22369000E+02	-1.63817000E+03	 0.00000000E+00
	 2.19032000E+02	-1.63397000E+03	 0.00000000E+00
	-2.67088000E+02	-1.65292000E+03	 0.00000000E+00
	-2.35470000E+02	-1.66822000E+03	 0.00000000E+00
	-2.37034000E+02	-1.65831000E+03	 0.00000000E+00
	-2.27118000E+02	-1.64646000E+03	 0.00000000E+00
	 1.06256000E+02	-1.66357000E+03	 0.00000000E+00
	-2.10130000E+02	-1.64388000E+03	 0.00000000E+00
	-7.09071000E+01	-1.68784000E+03	 0.00000000E+00
	-7.45957000E+01	-1.68329000E+03	 0.00000000E+00
	 4.16865000E+01	-1.69548000E+03	 0.00000000E+00
	 2.48991000E+02	-1.63868000E+03	 0.00000000E+00
	 2.43148000E+02	-1.63961000E+03	 0.00000000E+00
	-2.10491000E+02	-1.65919000E+03	 0.00000000E+00
	-2.24716000E+02	-1.64122000E+03	 0.00000000E+00
	-5.40287000E+02	-1.58160000E+03	 0.00000000E+00
	 5.40287000E+02	-1.58160000E+03	 0.00000000E+00
	 2.58511000E+02	-1.62674000E+03	 0.00000000E+00
	-1.18825000E+02	-1.70051000E+03	 0.00000000E+00
	 1.12538000E+02	-1.71814000E+03	 0.00000000E+00
	 1.15834000E+02	-1.72272000E+03	 0.00000000E+00
	-1.97985000E+02	-1.68260000E+03	 0.00000000E+00
	-4.79981000E+02	-1.65083000E+03	 0.00000000E+00
	-4.74938000E+02	-1.65369000E+03	 0.00000000E+00
	-4.85011000E+02	-1.65377000E+03	 0.00000000E+00
	 4.79966000E+02	-1.65081000E+03	 0.00000000E+00
	 4.74931000E+02	-1.65369000E+03	 0.00000000E+00
	 4.85012000E+02	-1.65377000E+03	 0.00000000E+00
	-6.19698000E+02	-1.58743000E+03	 0.00000000E+00
	 6.19697000E+02	-1.58743000E+03	 0.00000000E+00
	 2.18118000E+02	-1.66435000E+03	 0.00000000E+00
	 2.48595000E+02	-1.65391000E+03	 0.00000000E+00
	 1.34202000E+02	-1.68922000E+03	 0.00000000E+00
	 7.27648000E+02	-1.36025000E+03	 0.00000000E+00
	 7.38705000E+02	-1.35535000E+03	 0.00000000E+00
	-7.27698000E+02	-1.36022000E+03	 0.00000000E+00
	 2.04723000E+02	-1.67179000E+03	 0.00000000E+00
	-2.00574000E+02	-1.70333000E+03	 0.00000000E+00
	-2.06315000E+02	-1.70422000E+03	 0.00000000E+00
	-2.08450000E+02	-1.70926000E+03	 0.00000000E+00
	-2.12059000E+02	-1.70505000E+03	 0.00000000E+00
	-2.14685000E+02	-1.71101000E+03	 0.00000000E+00
	-2.17788000E+02	-1.70600000E+03	 0.00000000E+00
	-2.15692000E+02	-1.70059000E+03	 0.00000000E+00
	-2.21430000E+02	-1.70147000E+03	 0.00000000E+00
	-2.23542000E+02	-1.70679000E+03	 0.00000000E+00
	-2.27164000E+02	-1.70233000E+03	 0.00000000E+00
	-2.25063000E+02	-1.69694000E+03	 0.00000000E+00
	-2.30794000E+02	-1.69782000E+03	 0.00000000E+00
	-2.32901000E+02	-1.70323000E+03	 0.00000000E+00
	-2.36532000E+02	-1.69870000E+03	 0.00000000E+00
	-2.34417000E+02	-1.69330000E+03	 0.00000000E+00
	-2.40157000E+02	-1.69419000E+03	 0.00000000E+00
	-2.42269000E+02	-1.69958000E+03	 0.00000000E+00
	-2.45900000E+02	-1.69506000E+03	 0.00000000E+00
	-2.48008000E+02	-1.70046000E+03	 0.00000000E+00
	-2.51640000E+02	-1.69593000E+03	 0.00000000E+00
	-2.53763000E+02	-1.70124000E+03	 0.00000000E+00
	-2.57379000E+02	-1.69681000E+03	 0.00000000E+00
	-2.59542000E+02	-1.70186000E+03	 0.00000000E+00
	-2.63120000E+02	-1.69768000E+03	 0.00000000E+00
	-2.44008000E+02	-1.70469000E+03	 0.00000000E+00
	-2.65228000E+02	-1.70310000E+03	 0.00000000E+00
	-2.68856000E+02	-1.69858000E+03	 0.00000000E+00
	-2.70784000E+02	-1.70399000E+03	 0.00000000E+00
	-2.74601000E+02	-1.69944000E+03	 0.00000000E+00
	-2.76151000E+02	-1.70480000E+03	 0.00000000E+00
	-2.80324000E+02	-1.70040000E+03	 0.00000000E+00
	-2.86066000E+02	-1.70144000E+03	 0.00000000E+00
	-2.28692000E+02	-1.69241000E+03	 0.00000000E+00
	-2.32331000E+02	-1.68792000E+03	 0.00000000E+00
	 7.35511000E+02	-1.51111000E+03	 0.00000000E+00
	-2.29226000E+02	-1.70796000E+03	 0.00000000E+00
	-2.35009000E+02	-1.70864000E+03	 0.00000000E+00
	-2.24907000E+02	-1.71208000E+03	 0.00000000E+00
	-7.38330000E+02	-1.35514000E+03	 0.00000000E+00
	 7.48255000E+02	-1.34816000E+03	 0.00000000E+00
	-2.07356000E+02	-1.67901000E+03	 0.00000000E+00
	 6.19820000E+02	-1.58194000E+03	 0.00000000E+00
	-6.19820000E+02	-1.58194000E+03	 0.00000000E+00
	-2.06857000E+02	-1.66371000E+03	 0.00000000E+00
	 2.33480000E+02	-1.65148000E+03	 0.00000000E+00
	-3.34734000E+02	-1.68891000E+03	 0.00000000E+00
	-3.31346000E+02	-1.69330000E+03	 0.00000000E+00
	-3.40772000E+02	-1.69079000E+03	 0.00000000E+00
	 2.22083000E+02	-1.65347000E+03	 0.00000000E+00
	-6.98474000E+02	-1.57648000E+03	 0.00000000E+00
	 6.98474000E+02	-1.57648000E+03	 0.00000000E+00
	 5.22911000E+01	-1.70861000E+03	 0.00000000E+00
	-2.47430000E+02	-1.68534000E+03	 0.00000000E+00
	 5.55271000E+02	-1.61333000E+03	 0.00000000E+00
	-5.55271000E+02	-1.61333000E+03	 0.00000000E+00
	 5.19536000E+01	-1.72423000E+03	 0.00000000E+00
	-2.40674000E+02	-1.65381000E+03	 0.00000000E+00
	-2.52104000E+02	-1.65561000E+03	 0.00000000E+00
	 5.35269000E+02	-1.60753000E+03	 0.00000000E+00
	-5.35270000E+02	-1.60753000E+03	 0.00000000E+00
	 2.63280000E+02	-1.68701000E+03	 0.00000000E+00
	 1.26766000E+02	-1.68033000E+03	 0.00000000E+00
	 2.54289000E+02	-1.65291000E+03	 0.00000000E+00
	-9.22639000E+01	-1.70137000E+03	 0.00000000E+00
	-2.38436000E+02	-1.70394000E+03	 0.00000000E+00
	 1.99039000E+02	-1.67259000E+03	 0.00000000E+00
	-1.77643000E+02	-1.69971000E+03	 0.00000000E+00
	-2.58885000E+02	-1.68716000E+03	 0.00000000E+00
	-1.92748000E+02	-1.69703000E+03	 0.00000000E+00
	 4.71931000E+02	-1.50784000E+03	 0.00000000E+00
	-4.71979000E+02	-1.50776000E+03	 0.00000000E+00
	-7.49975000E+02	-1.53580000E+03	 0.00000000E+00
	 7.49979000E+02	-1.53581000E+03	 0.00000000E+00
	 9.38522000E+00	-1.51454000E+03	 0.00000000E+00
	 5.62643000E+01	-1.69774000E+03	 0.00000000E+00
	-1.25084000E+02	-1.71663000E+03	 0.00000000E+00
	-1.27136000E+02	-1.72219000E+03	 0.00000000E+00
	-1.36690000E+02	-1.71938000E+03	 0.00000000E+00
	 3.50679000E+02	-1.68177000E+03	 0.00000000E+00
	 2.40533000E+02	-1.70721000E+03	 0.00000000E+00
	-2.20899000E+02	-1.68620000E+03	 0.00000000E+00
	-1.62542000E+02	-1.70239000E+03	 0.00000000E+00
	 2.28610000E+02	-1.70846000E+03	 0.00000000E+00
	 2.37102000E+02	-1.71293000E+03	 0.00000000E+00
	 2.17118000E+02	-1.71050000E+03	 0.00000000E+00
	 2.25844000E+02	-1.71464000E+03	 0.00000000E+00
	 1.41877000E+02	-1.68277000E+03	 0.00000000E+00
	 1.11635000E+02	-1.67789000E+03	 0.00000000E+00
	 2.50125000E+02	-1.67912000E+03	 0.00000000E+00
	-7.47053000E+02	-1.50121000E+03	 0.00000000E+00
	 8.95041000E+01	-1.72248000E+03	 0.00000000E+00
	-2.49902000E+02	-1.70643000E+03	 0.00000000E+00
	 9.53118000E+01	-1.72152000E+03	 0.00000000E+00
	 9.86048000E+01	-1.72639000E+03	 0.00000000E+00
	-2.70340000E+02	-1.68897000E+03	 0.00000000E+00
	 5.65249000E+02	-1.60755000E+03	 0.00000000E+00
	-5.65249000E+02	-1.60755000E+03	 0.00000000E+00
	-1.66688000E+02	-1.71318000E+03	 0.00000000E+00
	-1.68245000E+02	-1.71861000E+03	 0.00000000E+00
	-1.09960000E+02	-1.71930000E+03	 0.00000000E+00
	 2.48133000E+02	-1.68457000E+03	 0.00000000E+00
	 1.06778000E+02	-1.71911000E+03	 0.00000000E+00
	-8.92688000E+01	-1.72238000E+03	 0.00000000E+00
	-8.44214000E+01	-1.72639000E+03	 0.00000000E+00
	-2.81836000E+02	-1.69075000E+03	 0.00000000E+00
	 2.53670000E+02	-1.69884000E+03	 0.00000000E+00
	 2.93577000E+02	-1.69189000E+03	 0.00000000E+00
	-2.93250000E+02	-1.69260000E+03	 0.00000000E+00
	-2.95437000E+02	-1.69895000E+03	 0.00000000E+00
	-3.01960000E+02	-1.69875000E+03	 0.00000000E+00
	-6.25390000E+01	-1.72204000E+03	 0.00000000E+00
	-5.68563000E+01	-1.72083000E+03	 0.00000000E+00
	-5.58613000E+01	-1.69045000E+03	 0.00000000E+00
	-7.12734000E+02	-1.49397000E+03	 0.00000000E+00
	 7.12733000E+02	-1.49396000E+03	 0.00000000E+00
	-5.47529000E+01	-1.71565000E+03	 0.00000000E+00
	-5.84040000E+01	-1.71119000E+03	 0.00000000E+00
	-5.79225000E+01	-1.69585000E+03	 0.00000000E+00
	-7.14379000E+01	-1.70311000E+03	 0.00000000E+00
	 6.34277000E+01	-1.72181000E+03	 0.00000000E+00
	-6.98231000E+02	-1.55577000E+03	 0.00000000E+00
	 6.98230000E+02	-1.55577000E+03	 0.00000000E+00
	-3.04894000E+02	-1.69412000E+03	 0.00000000E+00
	 5.25670000E+02	-1.59012000E+03	 0.00000000E+00
	-5.25670000E+02	-1.59012000E+03	 0.00000000E+00
	-6.89594000E+02	-1.56074000E+03	 0.00000000E+00
	 6.89593000E+02	-1.56074000E+03	 0.00000000E+00
	 1.47586000E+02	-1.68177000E+03	 0.00000000E+00
	-5.60237000E+02	-1.60467000E+03	 0.00000000E+00
	 5.60237000E+02	-1.60467000E+03	 0.00000000E+00
	 4.69947000E+02	-1.65083000E+03	 0.00000000E+00
	-4.69949000E+02	-1.65083000E+03	 0.00000000E+00
	-3.23458000E+02	-1.68719000E+03	 0.00000000E+00
	 3.71997000E+02	-1.66722000E+03	 0.00000000E+00
	 2.82154000E+02	-1.69390000E+03	 0.00000000E+00
	 2.86035000E+02	-1.69792000E+03	 0.00000000E+00
	-3.58644000E+02	-1.57847000E+03	 0.00000000E+00
	-1.22957000E+02	-1.57892000E+03	 0.00000000E+00
	 1.13043000E+02	-1.57892000E+03	 0.00000000E+00
	 3.49043000E+02	-1.57892000E+03	 0.00000000E+00
	-3.03050000E+01	-1.72174000E+03	 0.00000000E+00
	-5.45268000E+02	-1.58449000E+03	 0.00000000E+00
	 5.45267000E+02	-1.58449000E+03	 0.00000000E+00
	-5.75254000E+02	-1.56752000E+03	 0.00000000E+00
	 5.75254000E+02	-1.56752000E+03	 0.00000000E+00
	 3.37484000E+02	-1.68876000E+03	 0.00000000E+00
	 3.26054000E+02	-1.69109000E+03	 0.00000000E+00
	 3.30271000E+02	-1.69572000E+03	 0.00000000E+00
	 5.15165000E+02	-1.63643000E+03	 0.00000000E+00
	 5.15156000E+02	-1.64222000E+03	 0.00000000E+00
	 5.20181000E+02	-1.63933000E+03	 0.00000000E+00
	 5.10125000E+02	-1.64488000E+03	 0.00000000E+00
	 5.14777000E+02	-1.64746000E+03	 0.00000000E+00
	-5.15161000E+02	-1.63642000E+03	 0.00000000E+00
	-5.15155000E+02	-1.64222000E+03	 0.00000000E+00
	-5.20179000E+02	-1.63933000E+03	 0.00000000E+00
	-5.10125000E+02	-1.64488000E+03	 0.00000000E+00
	-5.14777000E+02	-1.64746000E+03	 0.00000000E+00
	 5.00092000E+02	-1.64510000E+03	 0.00000000E+00
	 4.99527000E+02	-1.65126000E+03	 0.00000000E+00
	 4.93953000E+02	-1.65371000E+03	 0.00000000E+00
	-5.00090000E+02	-1.64509000E+03	 0.00000000E+00
	-4.99527000E+02	-1.65126000E+03	 0.00000000E+00
	-4.93953000E+02	-1.65371000E+03	 0.00000000E+00
	 3.20333000E+02	-1.69182000E+03	 0.00000000E+00
	-3.57317000E+02	-1.67734000E+03	 0.00000000E+00
	 4.49720000E+02	-1.66217000E+03	 0.00000000E+00
	 4.54148000E+02	-1.66489000E+03	 0.00000000E+00
	-4.49723000E+02	-1.66217000E+03	 0.00000000E+00
	-4.54148000E+02	-1.66489000E+03	 0.00000000E+00
	 6.63879000E+02	-1.53331000E+03	 0.00000000E+00
	-6.63880000E+02	-1.53331000E+03	 0.00000000E+00
	 6.53371000E+02	-1.53939000E+03	 0.00000000E+00
	 2.67014000E+02	-1.69145000E+03	 0.00000000E+00
	-6.43839000E+02	-1.54463000E+03	 0.00000000E+00
	-6.53371000E+02	-1.53939000E+03	 0.00000000E+00
	-6.86767000E+02	-1.54582000E+03	 0.00000000E+00
	 4.25691000E+01	-1.72035000E+03	 0.00000000E+00
	 4.12496000E+01	-1.72551000E+03	 0.00000000E+00
	 3.54661000E+01	-1.72684000E+03	 0.00000000E+00
	 3.08676000E+02	-1.69403000E+03	 0.00000000E+00
	 3.12522000E+02	-1.69753000E+03	 0.00000000E+00
	-2.21947000E+02	-1.66100000E+03	 0.00000000E+00
	-3.44245000E+02	-1.68571000E+03	 0.00000000E+00
	 6.43838000E+02	-1.54463000E+03	 0.00000000E+00
	 7.09722000E+02	-1.55581000E+03	 0.00000000E+00
	-7.09722000E+02	-1.55581000E+03	 0.00000000E+00
	-2.03705000E+02	-1.68351000E+03	 0.00000000E+00
	-5.05114000E+02	-1.64216000E+03	 0.00000000E+00
	 5.05115000E+02	-1.64217000E+03	 0.00000000E+00
	-4.89715000E+02	-1.65062000E+03	 0.00000000E+00
	 4.89707000E+02	-1.65061000E+03	 0.00000000E+00
	 4.59905000E+02	-1.65662000E+03	 0.00000000E+00
	 4.64907000E+02	-1.65964000E+03	 0.00000000E+00
	-4.59898000E+02	-1.65661000E+03	 0.00000000E+00
	-4.64905000E+02	-1.65964000E+03	 0.00000000E+00
	 2.95713000E+02	-1.54180000E+03	 0.00000000E+00
	 5.97220000E+01	-1.54178000E+03	 0.00000000E+00
	-1.76287000E+02	-1.54180000E+03	 0.00000000E+00
	-4.92871000E+01	-1.53613000E+03	 0.00000000E+00
	 1.86839000E+02	-1.53625000E+03	 0.00000000E+00
	 4.22653000E+02	-1.53606000E+03	 0.00000000E+00
	-3.47625000E+02	-1.66579000E+03	 0.00000000E+00
	 5.80168000E+02	-1.57038000E+03	 0.00000000E+00
	-5.80168000E+02	-1.57038000E+03	 0.00000000E+00
	 5.20186000E+02	-1.63354000E+03	 0.00000000E+00
	-5.20183000E+02	-1.63353000E+03	 0.00000000E+00
	-3.23224000E+02	-1.55947000E+03	 0.00000000E+00
	-3.29121000E+02	-1.56222000E+03	 0.00000000E+00
	 1.48776000E+02	-1.55947000E+03	 0.00000000E+00
	 1.42879000E+02	-1.56222000E+03	 0.00000000E+00
	-8.72240000E+01	-1.55947000E+03	 0.00000000E+00
	-9.31214000E+01	-1.56222000E+03	 0.00000000E+00
	 8.86780000E+01	-1.56001000E+03	 0.00000000E+00
	 7.18088000E+02	-1.37194000E+03	 0.00000000E+00
	 1.00240000E+02	-1.67989000E+03	 0.00000000E+00
	 1.30490000E+02	-1.68477000E+03	 0.00000000E+00
	-1.96827000E+02	-1.53077000E+03	 0.00000000E+00
	 2.75172000E+02	-1.53077000E+03	 0.00000000E+00
	 4.67083000E+02	-1.51078000E+03	 0.00000000E+00
	-3.16945000E+02	-1.69638000E+03	 0.00000000E+00
	-3.11957000E+02	-1.70096000E+03	 0.00000000E+00
	 2.26162000E+02	-1.51355000E+03	 0.00000000E+00
	-2.45838000E+02	-1.51355000E+03	 0.00000000E+00
	-4.62031000E+02	-1.51342000E+03	 0.00000000E+00
	 2.72728000E+02	-1.69045000E+03	 0.00000000E+00
	-2.18299000E+02	-1.66550000E+03	 0.00000000E+00
	-4.22346000E+01	-1.72459000E+03	 0.00000000E+00
	-3.79190000E+01	-1.72833000E+03	 0.00000000E+00
	 3.24664000E+02	-1.56003000E+03	 0.00000000E+00
	-3.83148000E+02	-1.55855000E+03	 0.00000000E+00
	-4.22643000E+02	-1.53606000E+03	 0.00000000E+00
	 3.91468000E+01	-1.53078000E+03	 0.00000000E+00
	-2.85161000E+02	-1.53625000E+03	 0.00000000E+00
	 4.57109000E+02	-1.51625000E+03	 0.00000000E+00
	 3.68674000E+02	-1.56742000E+03	 0.00000000E+00
	 2.24371000E+01	-1.52141000E+03	 0.00000000E+00
	 5.30217000E+02	-1.62775000E+03	 0.00000000E+00
	 5.30320000E+02	-1.63371000E+03	 0.00000000E+00
	-5.30217000E+02	-1.62775000E+03	 0.00000000E+00
	-5.30320000E+02	-1.63371000E+03	 0.00000000E+00
	-7.32624000E+02	-1.50618000E+03	 0.00000000E+00
	 1.02976000E+02	-1.56790000E+03	 0.00000000E+00
	-1.33046000E+02	-1.56794000E+03	 0.00000000E+00
	 3.38954000E+02	-1.56794000E+03	 0.00000000E+00
	 7.44195000E+02	-1.50616000E+03	 0.00000000E+00
	 3.71437000E+02	-1.68339000E+03	 0.00000000E+00
	-3.94283000E+01	-1.53042000E+03	 0.00000000E+00
	 4.32667000E+02	-1.53065000E+03	 0.00000000E+00
	 4.44813000E+02	-1.66527000E+03	 0.00000000E+00
	-4.44813000E+02	-1.66527000E+03	 0.00000000E+00
	 3.63707000E+02	-1.57017000E+03	 0.00000000E+00
	 7.75339000E+02	-1.49139000E+03	 0.00000000E+00
	-7.75610000E+02	-1.49164000E+03	 0.00000000E+00
	 3.45160000E+01	-1.52775000E+03	 0.00000000E+00
	-7.06856000E+02	-1.53095000E+03	 0.00000000E+00
	 7.06855000E+02	-1.53095000E+03	 0.00000000E+00
	-7.58512000E+02	-1.49131000E+03	 0.00000000E+00
	-9.79896000E+01	-1.70228000E+03	 0.00000000E+00
	-6.95390000E+02	-1.54086000E+03	 0.00000000E+00
	 4.35428000E+02	-1.67091000E+03	 0.00000000E+00
	 4.24916000E+02	-1.67182000E+03	 0.00000000E+00
	-4.34759000E+02	-1.67104000E+03	 0.00000000E+00
	-4.70998000E+02	-1.53541000E+03	 0.00000000E+00
	 5.40241000E+02	-1.62198000E+03	 0.00000000E+00
	 5.45244000E+02	-1.62487000E+03	 0.00000000E+00
	-5.40241000E+02	-1.62198000E+03	 0.00000000E+00
	-5.45244000E+02	-1.62487000E+03	 0.00000000E+00
	-1.79719000E+02	-1.70513000E+03	 0.00000000E+00
	 5.30279000E+02	-1.60463000E+03	 0.00000000E+00
	-5.30279000E+02	-1.60463000E+03	 0.00000000E+00
	-7.32651000E+02	-1.48641000E+03	 0.00000000E+00
	 7.32651000E+02	-1.48641000E+03	 0.00000000E+00
	 5.42763000E+01	-1.70317000E+03	 0.00000000E+00
	 6.29119000E+02	-1.58610000E+03	 0.00000000E+00
	-5.70392000E+02	-1.62207000E+03	 0.00000000E+00
	 7.86214000E+01	-1.57855000E+03	 0.00000000E+00
	 3.14528000E+02	-1.57863000E+03	 0.00000000E+00
	-1.57472000E+02	-1.57863000E+03	 0.00000000E+00
	 9.82339000E+01	-1.68532000E+03	 0.00000000E+00
	-2.42752000E+02	-1.65921000E+03	 0.00000000E+00
	-1.94836000E+02	-1.70244000E+03	 0.00000000E+00
	-7.64225000E+02	-1.49136000E+03	 0.00000000E+00
	-7.55903000E+02	-1.48616000E+03	 0.00000000E+00
	 3.79939000E+02	-1.68745000E+03	 0.00000000E+00
	 2.31500000E+02	-1.65691000E+03	 0.00000000E+00
	-2.27989000E+02	-1.53540000E+03	 0.00000000E+00
	 5.80139000E+02	-1.58173000E+03	 0.00000000E+00
	-5.80139000E+02	-1.58173000E+03	 0.00000000E+00
	 2.38704000E+02	-1.68112000E+03	 0.00000000E+00
	-7.71625000E+01	-1.70403000E+03	 0.00000000E+00
	-5.60109000E+02	-1.62750000E+03	 0.00000000E+00
	 5.60109000E+02	-1.62750000E+03	 0.00000000E+00
	 2.57889000E+02	-1.70282000E+03	 0.00000000E+00
	 7.06849000E+02	-1.55082000E+03	 0.00000000E+00
	-7.06849000E+02	-1.55082000E+03	 0.00000000E+00
	-7.24094000E+02	-1.54088000E+03	 0.00000000E+00
	 7.24094000E+02	-1.54088000E+03	 0.00000000E+00
	 2.25804000E+02	-1.65791000E+03	 0.00000000E+00
	-6.57908000E+02	-1.57556000E+03	 0.00000000E+00
	 6.57908000E+02	-1.57556000E+03	 0.00000000E+00
	-4.90262000E+01	-1.71476000E+03	 0.00000000E+00
	 5.80197000E+02	-1.59891000E+03	 0.00000000E+00
	-5.80197000E+02	-1.59891000E+03	 0.00000000E+00
	-6.40646000E+02	-1.58538000E+03	 0.00000000E+00
	 6.40646000E+02	-1.58538000E+03	 0.00000000E+00
	 7.38522000E+02	-1.54584000E+03	 0.00000000E+00
	-7.38522000E+02	-1.54584000E+03	 0.00000000E+00
	-7.12787000E+02	-1.42546000E+03	 0.00000000E+00
	-7.12659000E+02	-1.41987000E+03	 0.00000000E+00
	 7.12787000E+02	-1.42546000E+03	 0.00000000E+00
	 7.12659000E+02	-1.41987000E+03	 0.00000000E+00
	 2.44640000E+02	-1.66479000E+03	 0.00000000E+00
	 2.91590000E+02	-1.69734000E+03	 0.00000000E+00
	 5.94923000E+02	-1.57322000E+03	 0.00000000E+00
	-5.94923000E+02	-1.57322000E+03	 0.00000000E+00
	 5.50255000E+02	-1.61044000E+03	 0.00000000E+00
	 7.61277000E+02	-1.50609000E+03	 0.00000000E+00
	-7.61260000E+02	-1.50611000E+03	 0.00000000E+00
	 2.61724000E+02	-1.66178000E+03	 0.00000000E+00
	 2.72947000E+02	-1.67512000E+03	 0.00000000E+00
	 2.35754000E+00	-1.53674000E+03	 0.00000000E+00
	 2.52316000E+02	-1.65835000E+03	 0.00000000E+00
	-5.85198000E+02	-1.61874000E+03	 0.00000000E+00
	 5.85198000E+02	-1.61874000E+03	 0.00000000E+00
	 5.95178000E+02	-1.60753000E+03	 0.00000000E+00
	-5.95178000E+02	-1.60753000E+03	 0.00000000E+00
	-4.69931000E+02	-1.65664000E+03	 0.00000000E+00
	-4.69978000E+02	-1.66219000E+03	 0.00000000E+00
	-2.05885000E+02	-1.63308000E+03	 0.00000000E+00
	-3.58708000E+02	-1.59014000E+03	 0.00000000E+00
	 4.69930000E+02	-1.65664000E+03	 0.00000000E+00
	 4.69977000E+02	-1.66219000E+03	 0.00000000E+00
	 6.80955000E+02	-1.56570000E+03	 0.00000000E+00
	-6.80955000E+02	-1.56570000E+03	 0.00000000E+00
	-2.48468000E+02	-1.66011000E+03	 0.00000000E+00
	-7.24121000E+02	-1.56084000E+03	 0.00000000E+00
	 7.24121000E+02	-1.56084000E+03	 0.00000000E+00
	 3.49335000E+02	-1.57322000E+03	 0.00000000E+00
	 1.13337000E+02	-1.57322000E+03	 0.00000000E+00
	-1.22671000E+02	-1.57322000E+03	 0.00000000E+00
	-3.58668000E+02	-1.57290000E+03	 0.00000000E+00
	-1.00064000E+02	-1.70769000E+03	 0.00000000E+00
	-1.81771000E+02	-1.71053000E+03	 0.00000000E+00
	 6.83831000E+02	-1.58089000E+03	 0.00000000E+00
	-6.83831000E+02	-1.58089000E+03	 0.00000000E+00
	-6.69412000E+02	-1.57561000E+03	 0.00000000E+00
	 6.69412000E+02	-1.57561000E+03	 0.00000000E+00
	 2.14329000E+02	-1.61901000E+03	 0.00000000E+00
	-7.59619000E+02	-1.46599000E+03	 0.00000000E+00
	 2.78677000E+02	-1.67413000E+03	 0.00000000E+00
	-4.85811000E+02	-1.53836000E+03	 0.00000000E+00
	-1.72657000E+02	-1.57747000E+03	 0.00000000E+00
	 2.99343000E+02	-1.57747000E+03	 0.00000000E+00
	 6.34014000E+01	-1.57742000E+03	 0.00000000E+00
	-5.25371000E+02	-1.57869000E+03	 0.00000000E+00
	 5.25371000E+02	-1.57869000E+03	 0.00000000E+00
	-4.11457000E+02	-1.57531000E+03	 0.00000000E+00
	-1.22472000E+02	-1.69600000E+03	 0.00000000E+00
	-2.52636000E+02	-1.67094000E+03	 0.00000000E+00
	 2.32601000E+02	-1.53885000E+03	 0.00000000E+00
	-2.39282000E+02	-1.53881000E+03	 0.00000000E+00
	 5.19988000E+02	-1.64499000E+03	 0.00000000E+00
	 5.25109000E+02	-1.64237000E+03	 0.00000000E+00
	 5.30899000E+02	-1.64612000E+03	 0.00000000E+00
	 5.30431000E+02	-1.63973000E+03	 0.00000000E+00
	 5.35802000E+02	-1.64206000E+03	 0.00000000E+00
	-5.19987000E+02	-1.64499000E+03	 0.00000000E+00
	-5.25109000E+02	-1.64237000E+03	 0.00000000E+00
	-5.30899000E+02	-1.64612000E+03	 0.00000000E+00
	-5.30431000E+02	-1.63973000E+03	 0.00000000E+00
	-5.35802000E+02	-1.64206000E+03	 0.00000000E+00
	-2.96804000E+02	-1.57878000E+03	 0.00000000E+00
	-2.98423000E+02	-1.58404000E+03	 0.00000000E+00
	 1.75230000E+02	-1.57878000E+03	 0.00000000E+00
	 1.73944000E+02	-1.58509000E+03	 0.00000000E+00
	-6.07702000E+01	-1.57878000E+03	 0.00000000E+00
	-6.20560000E+01	-1.58509000E+03	 0.00000000E+00
	 6.23641000E+02	-1.61365000E+03	 0.00000000E+00
	-6.23641000E+02	-1.61365000E+03	 0.00000000E+00
	 7.72537000E+02	-1.47149000E+03	 0.00000000E+00
	 5.79998000E+02	-1.63014000E+03	 0.00000000E+00
	-5.79998000E+02	-1.63014000E+03	 0.00000000E+00
	-7.71156000E+02	-1.46757000E+03	 0.00000000E+00
	-7.55820000E+01	-1.71393000E+03	 0.00000000E+00
	 2.85706000E+02	-1.57076000E+03	 0.00000000E+00
	-1.86294000E+02	-1.57076000E+03	 0.00000000E+00
	 4.97592000E+01	-1.57072000E+03	 0.00000000E+00
	-5.94967000E+02	-1.58461000E+03	 0.00000000E+00
	 5.94967000E+02	-1.58461000E+03	 0.00000000E+00
	-6.49685000E+02	-1.60350000E+03	 0.00000000E+00
	 6.49685000E+02	-1.60350000E+03	 0.00000000E+00
	 4.25909000E+02	-1.56093000E+03	 0.00000000E+00
	-4.26245000E+02	-1.56052000E+03	 0.00000000E+00
	-3.25735000E+02	-1.69233000E+03	 0.00000000E+00
	 6.09939000E+02	-1.59889000E+03	 0.00000000E+00
	-6.09939000E+02	-1.59889000E+03	 0.00000000E+00
	-6.51897000E+02	-1.59512000E+03	 0.00000000E+00
	 6.51897000E+02	-1.59512000E+03	 0.00000000E+00
	 2.76453000E+02	-1.69488000E+03	 0.00000000E+00
	 3.63493000E+02	-1.58714000E+03	 0.00000000E+00
	-1.08477000E+02	-1.58665000E+03	 0.00000000E+00
	 1.27515000E+02	-1.58664000E+03	 0.00000000E+00
	-3.44474000E+02	-1.58664000E+03	 0.00000000E+00
	 6.61277000E+02	-1.59879000E+03	 0.00000000E+00
	-6.61277000E+02	-1.59879000E+03	 0.00000000E+00
	-5.69104000E+02	-1.63372000E+03	 0.00000000E+00
	 5.69104000E+02	-1.63372000E+03	 0.00000000E+00
	 4.91295000E+02	-1.54116000E+03	 0.00000000E+00
	-5.25237000E+02	-1.63655000E+03	 0.00000000E+00
	 5.25239000E+02	-1.63655000E+03	 0.00000000E+00
	-7.03562000E+02	-1.58045000E+03	 0.00000000E+00
	 7.03562000E+02	-1.58045000E+03	 0.00000000E+00
	-7.14049000E+02	-1.57589000E+03	 0.00000000E+00
	 7.14049000E+02	-1.57589000E+03	 0.00000000E+00
	-1.43820000E+02	-1.58540000E+03	 0.00000000E+00
	 3.28180000E+02	-1.58540000E+03	 0.00000000E+00
	 9.22183000E+01	-1.58535000E+03	 0.00000000E+00
	-7.35247000E+02	-1.56585000E+03	 0.00000000E+00
	 7.35247000E+02	-1.56585000E+03	 0.00000000E+00
	 7.24072000E+02	-1.57033000E+03	 0.00000000E+00
	-7.24072000E+02	-1.57033000E+03	 0.00000000E+00
	-9.64098000E+01	-1.71219000E+03	 0.00000000E+00
	-3.46357000E+02	-1.69085000E+03	 0.00000000E+00
	-6.24886000E+02	-1.60194000E+03	 0.00000000E+00
	 6.24886000E+02	-1.60194000E+03	 0.00000000E+00
	-7.55570000E+02	-1.51601000E+03	 0.00000000E+00
	 7.55570000E+02	-1.51601000E+03	 0.00000000E+00
	 4.19261000E+01	-1.56229000E+03	 0.00000000E+00
	 2.77914000E+02	-1.56234000E+03	 0.00000000E+00
	-1.94086000E+02	-1.56234000E+03	 0.00000000E+00
	-7.71963000E+02	-1.54844000E+03	 0.00000000E+00
	 7.71952000E+02	-1.54844000E+03	 0.00000000E+00
	-1.28196000E+02	-1.69691000E+03	 0.00000000E+00
	 3.56422000E+02	-1.68078000E+03	 0.00000000E+00
	-7.21229000E+02	-1.54586000E+03	 0.00000000E+00
	 7.21229000E+02	-1.54586000E+03	 0.00000000E+00
	 5.20829000E+02	-1.56445000E+03	 0.00000000E+00
	-5.20829000E+02	-1.56445000E+03	 0.00000000E+00
	 2.36705000E+02	-1.68657000E+03	 0.00000000E+00
	 6.80974000E+02	-1.54581000E+03	 0.00000000E+00
	 4.01190000E+02	-1.58122000E+03	 0.00000000E+00
	 4.56270000E+02	-1.54388000E+03	 0.00000000E+00
	-2.04220000E+02	-1.69883000E+03	 0.00000000E+00
	 5.05155000E+02	-1.64862000E+03	 0.00000000E+00
	-5.05155000E+02	-1.64862000E+03	 0.00000000E+00
	 4.59617000E+02	-1.66251000E+03	 0.00000000E+00
	-4.59615000E+02	-1.66251000E+03	 0.00000000E+00
	-2.61984000E+02	-1.66733000E+03	 0.00000000E+00
	 7.44211000E+02	-1.46654000E+03	 0.00000000E+00
	-7.44193000E+02	-1.46656000E+03	 0.00000000E+00
	-2.69806000E+02	-1.67366000E+03	 0.00000000E+00
	 5.58201000E+02	-1.63784000E+03	 0.00000000E+00
	-5.58201000E+02	-1.63784000E+03	 0.00000000E+00
	 7.73027000E+02	-1.53527000E+03	 0.00000000E+00
	-7.73027000E+02	-1.53527000E+03	 0.00000000E+00
	 7.35448000E+02	-1.44184000E+03	 0.00000000E+00
	-7.35502000E+02	-1.44163000E+03	 0.00000000E+00
	-2.67704000E+02	-1.66824000E+03	 0.00000000E+00
	 6.55012000E+02	-1.58052000E+03	 0.00000000E+00
	-6.55012000E+02	-1.58052000E+03	 0.00000000E+00
	-4.13582000E+02	-1.67989000E+03	 0.00000000E+00
	 4.13046000E+02	-1.68014000E+03	 0.00000000E+00
	-4.02088000E+02	-1.68281000E+03	 0.00000000E+00
	 4.46076000E+02	-1.54964000E+03	 0.00000000E+00
	-5.11136000E+01	-1.72003000E+03	 0.00000000E+00
	-5.31337000E+01	-1.72558000E+03	 0.00000000E+00
	 7.41387000E+02	-1.45160000E+03	 0.00000000E+00
	-7.41351000E+02	-1.45161000E+03	 0.00000000E+00
	-1.93844000E+02	-1.54194000E+03	 0.00000000E+00
	 2.78156000E+02	-1.54194000E+03	 0.00000000E+00
	 4.21846000E+01	-1.54189000E+03	 0.00000000E+00
	 5.10386000E+02	-1.55852000E+03	 0.00000000E+00
	-5.10386000E+02	-1.55852000E+03	 0.00000000E+00
	-4.63136000E+01	-1.56481000E+03	 0.00000000E+00
	 1.89683000E+02	-1.56481000E+03	 0.00000000E+00
	-2.82317000E+02	-1.56481000E+03	 0.00000000E+00
	 2.43925000E+02	-1.53541000E+03	 0.00000000E+00
	-2.71011000E+01	-1.54884000E+03	 0.00000000E+00
	-7.76870000E+01	-1.71924000E+03	 0.00000000E+00
	-3.90975000E+02	-1.68449000E+03	 0.00000000E+00
	 3.91117000E+02	-1.68514000E+03	 0.00000000E+00
	 3.92427000E+02	-1.67973000E+03	 0.00000000E+00
	 7.56143000E+02	-1.48653000E+03	 0.00000000E+00
	 2.16695000E-01	-1.73041000E+03	 0.00000000E+00
	-1.15957000E+01	-1.73025000E+03	 0.00000000E+00
	-1.41232000E+01	-1.72491000E+03	 0.00000000E+00
	 1.16223000E+01	-1.73021000E+03	 0.00000000E+00
	-6.13009000E+02	-1.61803000E+03	 0.00000000E+00
	-6.06775000E+02	-1.61909000E+03	 0.00000000E+00
	 6.13009000E+02	-1.61803000E+03	 0.00000000E+00
	 6.06775000E+02	-1.61909000E+03	 0.00000000E+00
	-1.30278000E+02	-1.70233000E+03	 0.00000000E+00
	-5.55183000E+02	-1.58446000E+03	 0.00000000E+00
	-5.14498000E+02	-1.61270000E+03	 0.00000000E+00
	 2.31035000E+01	-1.72957000E+03	 0.00000000E+00
	-3.79530000E+02	-1.68784000E+03	 0.00000000E+00
	-9.84860000E+01	-1.71757000E+03	 0.00000000E+00
	 2.80327000E+02	-1.69907000E+03	 0.00000000E+00
	 5.79956000E+01	-1.70762000E+03	 0.00000000E+00
	 1.69745000E+02	-1.58022000E+03	 0.00000000E+00
	 4.85930000E+02	-1.65954000E+03	 0.00000000E+00
	-4.85930000E+02	-1.65954000E+03	 0.00000000E+00
	 2.99398000E+02	-1.70423000E+03	 0.00000000E+00
	 2.88276000E+02	-1.70636000E+03	 0.00000000E+00
	 8.29089000E+01	-1.58225000E+03	 0.00000000E+00
	-1.53177000E+02	-1.58233000E+03	 0.00000000E+00
	 3.18823000E+02	-1.58233000E+03	 0.00000000E+00
	-8.21972000E+02	-1.48563000E+03	 0.00000000E+00
	 8.21655000E+02	-1.48562000E+03	 0.00000000E+00
	-4.65912000E+02	-1.53802000E+03	 0.00000000E+00
	 7.49606000E+02	-1.47645000E+03	 0.00000000E+00
	-7.49800000E+02	-1.47655000E+03	 0.00000000E+00
	 2.27284000E+02	-1.68311000E+03	 0.00000000E+00
	-7.89825000E+02	-1.50610000E+03	 0.00000000E+00
	-2.59838000E+02	-1.71051000E+03	 0.00000000E+00
	 2.59924000E+02	-1.71053000E+03	 0.00000000E+00
	-2.13912000E+02	-1.71675000E+03	 0.00000000E+00
	 2.14047000E+02	-1.71663000E+03	 0.00000000E+00
	-3.68374000E+02	-1.69069000E+03	 0.00000000E+00
	-3.62671000E+02	-1.69194000E+03	 0.00000000E+00
	-3.59490000E+02	-1.68709000E+03	 0.00000000E+00
	-2.48373000E+02	-1.71236000E+03	 0.00000000E+00
	 2.48435000E+02	-1.71205000E+03	 0.00000000E+00
	 1.85513000E+02	-1.72024000E+03	 0.00000000E+00
	 5.55222000E+02	-1.59027000E+03	 0.00000000E+00
	 8.12038000E+02	-1.50576000E+03	 0.00000000E+00
	-8.12038000E+02	-1.50576000E+03	 0.00000000E+00
	 2.35221000E+02	-1.66135000E+03	 0.00000000E+00
	-1.39646000E+02	-1.69875000E+03	 0.00000000E+00
	 6.05235000E+02	-1.60754000E+03	 0.00000000E+00
	-6.05235000E+02	-1.60754000E+03	 0.00000000E+00
	 1.53261000E+02	-1.68077000E+03	 0.00000000E+00
	-2.50550000E+02	-1.66552000E+03	 0.00000000E+00
	 3.63515000E+02	-1.57561000E+03	 0.00000000E+00
	 2.98001000E+02	-1.58270000E+03	 0.00000000E+00
	-1.73721000E+02	-1.58277000E+03	 0.00000000E+00
	 6.23182000E+01	-1.58274000E+03	 0.00000000E+00
	 2.19568000E+02	-1.68957000E+03	 0.00000000E+00
	 3.54671000E+02	-1.68653000E+03	 0.00000000E+00
	-7.44128000E+02	-1.44687000E+03	 0.00000000E+00
	 7.44155000E+02	-1.44682000E+03	 0.00000000E+00
	 6.74149000E+01	-1.71106000E+03	 0.00000000E+00
	-4.75000000E+02	-1.65929000E+03	 0.00000000E+00
	 1.87835000E+02	-1.65893000E+03	 0.00000000E+00
	 5.70284000E+02	-1.62779000E+03	 0.00000000E+00
	-5.70284000E+02	-1.62779000E+03	 0.00000000E+00
	 2.38944000E+02	-1.66579000E+03	 0.00000000E+00
	 4.74999000E+02	-1.65929000E+03	 0.00000000E+00
	-5.25272000E+02	-1.60751000E+03	 0.00000000E+00
	 5.25271000E+02	-1.60751000E+03	 0.00000000E+00
	-1.41740000E+02	-1.70416000E+03	 0.00000000E+00
	 6.86718000E+02	-1.56571000E+03	 0.00000000E+00
	-6.86719000E+02	-1.56571000E+03	 0.00000000E+00
	 2.13861000E+02	-1.69057000E+03	 0.00000000E+00
	-4.62148000E+02	-1.54671000E+03	 0.00000000E+00
	-6.37965000E+02	-1.59000000E+03	 0.00000000E+00
	 6.37965000E+02	-1.59000000E+03	 0.00000000E+00
	 2.11852000E+02	-1.69602000E+03	 0.00000000E+00
	-8.17592000E+02	-1.51512000E+03	 0.00000000E+00
	 8.17592000E+02	-1.51512000E+03	 0.00000000E+00
	 7.49992000E+02	-1.46655000E+03	 0.00000000E+00
	-7.50412000E+02	-1.46695000E+03	 0.00000000E+00
	-5.35517000E+02	-1.63672000E+03	 0.00000000E+00
	 5.35517000E+02	-1.63672000E+03	 0.00000000E+00
	-2.09956000E+02	-1.69970000E+03	 0.00000000E+00
	 2.02441000E+02	-1.69257000E+03	 0.00000000E+00
	-3.02640000E+02	-1.67300000E+03	 0.00000000E+00
	-1.51097000E+02	-1.70056000E+03	 0.00000000E+00
	 5.35320000E+02	-1.63071000E+03	 0.00000000E+00
	-5.35320000E+02	-1.63071000E+03	 0.00000000E+00
	 2.00422000E+02	-1.69802000E+03	 0.00000000E+00
	 7.12210000E+02	-1.51066000E+03	 0.00000000E+00
	-7.12212000E+02	-1.51066000E+03	 0.00000000E+00
	 7.32591000E+02	-1.50617000E+03	 0.00000000E+00
	 7.86788000E+02	-1.49186000E+03	 0.00000000E+00
	-7.86996000E+02	-1.49138000E+03	 0.00000000E+00
	-1.53197000E+02	-1.70597000E+03	 0.00000000E+00
	 6.86727000E+02	-1.54583000E+03	 0.00000000E+00
	-6.98885000E+01	-1.72846000E+03	 0.00000000E+00
	-9.53196000E+01	-1.72233000E+03	 0.00000000E+00
	 1.91016000E+02	-1.69457000E+03	 0.00000000E+00
	-7.47160000E+02	-1.54081000E+03	 0.00000000E+00
	-5.20163000E+02	-1.61014000E+03	 0.00000000E+00
	 5.20357000E+02	-1.61023000E+03	 0.00000000E+00
	 2.56044000E+02	-1.66278000E+03	 0.00000000E+00
	 7.26943000E+02	-1.51606000E+03	 0.00000000E+00
	 1.88986000E+02	-1.70004000E+03	 0.00000000E+00
	 5.75233000E+02	-1.57317000E+03	 0.00000000E+00
	-5.75233000E+02	-1.57317000E+03	 0.00000000E+00
	 7.47160000E+02	-1.54081000E+03	 0.00000000E+00
	-1.58905000E+02	-1.70688000E+03	 0.00000000E+00
	-6.60740000E+02	-1.58052000E+03	 0.00000000E+00
	 6.60740000E+02	-1.58052000E+03	 0.00000000E+00
	 2.35834000E+02	-1.50774000E+03	 0.00000000E+00
	-2.36166000E+02	-1.50774000E+03	 0.00000000E+00
	 1.79595000E+02	-1.69655000E+03	 0.00000000E+00
	-7.73856000E+01	-1.56218000E+03	 0.00000000E+00
	-3.13386000E+02	-1.56218000E+03	 0.00000000E+00
	 1.58614000E+02	-1.56218000E+03	 0.00000000E+00
	-3.51048000E+02	-1.69332000E+03	 0.00000000E+00
	-2.13603000E+02	-1.69521000E+03	 0.00000000E+00
	 2.65445000E+02	-1.66620000E+03	 0.00000000E+00
	-7.29844000E+02	-1.54088000E+03	 0.00000000E+00
	 7.29844000E+02	-1.54088000E+03	 0.00000000E+00
	 1.73893000E+02	-1.69755000E+03	 0.00000000E+00
	-7.92354000E+02	-1.52955000E+03	 0.00000000E+00
	 7.92354000E+02	-1.52954000E+03	 0.00000000E+00
	 2.42085000E+02	-1.54073000E+03	 0.00000000E+00
	 1.71836000E+02	-1.70304000E+03	 0.00000000E+00
	 2.69187000E+02	-1.67063000E+03	 0.00000000E+00
	 1.93527000E+02	-1.65273000E+03	 0.00000000E+00
	 2.80333000E+02	-1.57188000E+03	 0.00000000E+00
	-1.91631000E+02	-1.57180000E+03	 0.00000000E+00
	 4.43717000E+01	-1.57186000E+03	 0.00000000E+00
	 7.61843000E+02	-1.54555000E+03	 0.00000000E+00
	 1.62458000E+02	-1.69955000E+03	 0.00000000E+00
	 6.95365000E+02	-1.56074000E+03	 0.00000000E+00
	-6.95366000E+02	-1.56074000E+03	 0.00000000E+00
	-1.15998000E+02	-1.72599000E+03	 0.00000000E+00
	-1.55439000E+02	-1.68670000E+03	 0.00000000E+00
	 3.54153000E+02	-1.63917000E+03	 0.00000000E+00
	 1.56757000E+02	-1.70054000E+03	 0.00000000E+00
	-8.01027000E+02	-1.50593000E+03	 0.00000000E+00
	 8.01027000E+02	-1.50593000E+03	 0.00000000E+00
	 7.32754000E+02	-1.54585000E+03	 0.00000000E+00
	-7.32755000E+02	-1.54585000E+03	 0.00000000E+00
	-1.77962000E+02	-1.71542000E+03	 0.00000000E+00
	-1.61089000E+02	-1.71234000E+03	 0.00000000E+00
	 7.47090000E+02	-1.50124000E+03	 0.00000000E+00
	-2.19354000E+02	-1.69609000E+03	 0.00000000E+00
	-6.66478000E+02	-1.58048000E+03	 0.00000000E+00
	 6.66478000E+02	-1.58048000E+03	 0.00000000E+00
	 6.13298000E+00	-1.54076000E+03	 0.00000000E+00
	-7.97926000E+02	-1.49139000E+03	 0.00000000E+00
	 1.45311000E+02	-1.70256000E+03	 0.00000000E+00
	-3.68804000E+02	-1.66392000E+03	 0.00000000E+00
	-4.41876000E+02	-1.63188000E+03	 0.00000000E+00
	-4.42185000E+02	-1.62607000E+03	 0.00000000E+00
	-5.99896000E+02	-1.57604000E+03	 0.00000000E+00
	 5.99895000E+02	-1.57604000E+03	 0.00000000E+00
	-4.35419000E+01	-1.57404000E+03	 0.00000000E+00
	 1.92458000E+02	-1.57404000E+03	 0.00000000E+00
	-2.79542000E+02	-1.57404000E+03	 0.00000000E+00
	 5.70244000E+02	-1.60468000E+03	 0.00000000E+00
	-5.70244000E+02	-1.60468000E+03	 0.00000000E+00
	-4.24682000E+02	-1.67694000E+03	 0.00000000E+00
	 1.43251000E+02	-1.70805000E+03	 0.00000000E+00
	 6.73386000E+02	-1.52756000E+03	 0.00000000E+00
	 7.47066000E+02	-1.53087000E+03	 0.00000000E+00
	 6.30011000E+01	-1.67285000E+03	 0.00000000E+00
	 1.33840000E+02	-1.70456000E+03	 0.00000000E+00
	-7.47065000E+02	-1.53087000E+03	 0.00000000E+00
	 7.12719000E+02	-1.37471000E+03	 0.00000000E+00
	 1.24404000E+02	-1.70111000E+03	 0.00000000E+00
	 2.00230000E+02	-1.65183000E+03	 0.00000000E+00
	-2.23004000E+02	-1.69157000E+03	 0.00000000E+00
	 8.71868000E+01	-1.67262000E+03	 0.00000000E+00
	 7.03982000E+02	-1.55577000E+03	 0.00000000E+00
	-7.03982000E+02	-1.55577000E+03	 0.00000000E+00
	 1.15012000E+02	-1.69765000E+03	 0.00000000E+00
	 6.04782000E+02	-1.56751000E+03	 0.00000000E+00
	 7.38317000E+02	-1.42670000E+03	 0.00000000E+00
	 1.12926000E+02	-1.70312000E+03	 0.00000000E+00
	-7.12675000E+02	-1.37469000E+03	 0.00000000E+00
	-6.04782000E+02	-1.56751000E+03	 0.00000000E+00
	-2.35987000E+02	-1.68348000E+03	 0.00000000E+00
	-3.27754000E+02	-1.69798000E+03	 0.00000000E+00
	-7.41381000E+02	-1.54086000E+03	 0.00000000E+00
	 7.41381000E+02	-1.54086000E+03	 0.00000000E+00
	 1.03568000E+02	-1.69967000E+03	 0.00000000E+00
	-6.73383000E+02	-1.52757000E+03	 0.00000000E+00
	 1.01502000E+02	-1.70513000E+03	 0.00000000E+00
	-4.34864000E+02	-1.65342000E+03	 0.00000000E+00
	-2.26634000E+02	-1.68706000E+03	 0.00000000E+00
	 9.21522000E+01	-1.70164000E+03	 0.00000000E+00
	 8.64149000E+01	-1.70266000E+03	 0.00000000E+00
	-5.15350000E+02	-1.59602000E+03	 0.00000000E+00
	 5.15487000E+02	-1.59599000E+03	 0.00000000E+00
	-6.09742000E+02	-1.56473000E+03	 0.00000000E+00
	 6.09741000E+02	-1.56473000E+03	 0.00000000E+00
	 4.10788000E+02	-1.57532000E+03	 0.00000000E+00
	 8.43380000E+01	-1.70812000E+03	 0.00000000E+00
	-7.87478000E+02	-1.54042000E+03	 0.00000000E+00
	 7.87478000E+02	-1.54042000E+03	 0.00000000E+00
	 7.50345000E+01	-1.70462000E+03	 0.00000000E+00
	 6.24577000E+02	-1.60781000E+03	 0.00000000E+00
	-6.24577000E+02	-1.60781000E+03	 0.00000000E+00
	-2.38065000E+02	-1.68884000E+03	 0.00000000E+00
	-7.13005000E+02	-1.44217000E+03	 0.00000000E+00
	-2.89607000E+02	-1.69704000E+03	 0.00000000E+00
	 5.05345000E+02	-1.62445000E+03	 0.00000000E+00
	 7.12741000E+02	-1.48277000E+03	 0.00000000E+00
	-7.06884000E+02	-1.56077000E+03	 0.00000000E+00
	 7.06884000E+02	-1.56077000E+03	 0.00000000E+00
	 7.13004000E+02	-1.44218000E+03	 0.00000000E+00
	-2.30263000E+02	-1.68256000E+03	 0.00000000E+00
	-7.88023000E+02	-1.46985000E+03	 0.00000000E+00
	-6.14699000E+02	-1.56758000E+03	 0.00000000E+00
	 6.14698000E+02	-1.56758000E+03	 0.00000000E+00
	 3.84036000E+02	-1.58606000E+03	 0.00000000E+00
	 3.82363000E+02	-1.68179000E+03	 0.00000000E+00
	-7.12746000E+02	-1.48280000E+03	 0.00000000E+00
	-3.84318000E+02	-1.58611000E+03	 0.00000000E+00
	 1.98475000E+01	-1.62518000E+03	 0.00000000E+00
	 7.09753000E+02	-1.56564000E+03	 0.00000000E+00
	-7.09753000E+02	-1.56564000E+03	 0.00000000E+00
	-7.98058000E+02	-1.53552000E+03	 0.00000000E+00
	 7.98058000E+02	-1.53552000E+03	 0.00000000E+00
	 5.85120000E+02	-1.59604000E+03	 0.00000000E+00
	-5.85120000E+02	-1.59604000E+03	 0.00000000E+00
	-7.95597000E+01	-1.72460000E+03	 0.00000000E+00
	 7.32407000E+02	-1.38675000E+03	 0.00000000E+00
	-7.32407000E+02	-1.38675000E+03	 0.00000000E+00
	 3.35585000E+01	-1.70176000E+03	 0.00000000E+00
	-4.80883000E+02	-1.54130000E+03	 0.00000000E+00
	 7.49887000E+02	-1.52591000E+03	 0.00000000E+00
	-7.49886000E+02	-1.52591000E+03	 0.00000000E+00
	-6.93197000E+02	-1.58505000E+03	 0.00000000E+00
	 6.93197000E+02	-1.58505000E+03	 0.00000000E+00
	-2.43796000E+02	-1.68975000E+03	 0.00000000E+00
	 5.70277000E+02	-1.57029000E+03	 0.00000000E+00
	-5.70277000E+02	-1.57029000E+03	 0.00000000E+00
	 5.90087000E+02	-1.59889000E+03	 0.00000000E+00
	-5.90087000E+02	-1.59889000E+03	 0.00000000E+00
	 5.75159000E+02	-1.57884000E+03	 0.00000000E+00
	 1.38095000E+02	-1.66761000E+03	 0.00000000E+00
	-2.49525000E+02	-1.69065000E+03	 0.00000000E+00
	-7.39153000E+02	-1.37758000E+03	 0.00000000E+00
	-5.94571000E+01	-1.54246000E+03	 0.00000000E+00
	-2.95457000E+02	-1.54246000E+03	 0.00000000E+00
	 1.76543000E+02	-1.54246000E+03	 0.00000000E+00
	-4.57831000E+01	-1.67843000E+03	 0.00000000E+00
	-3.44263000E+02	-1.59883000E+03	 0.00000000E+00
	-1.07549000E+02	-1.59825000E+03	 0.00000000E+00
	 1.27732000E+02	-1.59883000E+03	 0.00000000E+00
	 5.65359000E+02	-1.56179000E+03	 0.00000000E+00
	-5.65359000E+02	-1.56179000E+03	 0.00000000E+00
	-7.75684000E+02	-1.53995000E+03	 0.00000000E+00
	 7.75683000E+02	-1.53995000E+03	 0.00000000E+00
	 6.43780000E+02	-1.55051000E+03	 0.00000000E+00
	-6.43783000E+02	-1.55051000E+03	 0.00000000E+00
	-7.18474000E+02	-1.38180000E+03	 0.00000000E+00
	 7.18500000E+02	-1.38181000E+03	 0.00000000E+00
	-2.55260000E+02	-1.69154000E+03	 0.00000000E+00
	 5.90166000E+02	-1.60467000E+03	 0.00000000E+00
	-5.90166000E+02	-1.60467000E+03	 0.00000000E+00
	-7.18736000E+02	-1.43195000E+03	 0.00000000E+00
	 7.18731000E+02	-1.43195000E+03	 0.00000000E+00
	 2.05632000E+02	-1.71235000E+03	 0.00000000E+00
	 3.95075000E+02	-1.58339000E+03	 0.00000000E+00
	 5.60353000E+02	-1.55895000E+03	 0.00000000E+00
	-5.60353000E+02	-1.55895000E+03	 0.00000000E+00
	-7.02963000E+02	-1.51043000E+03	 0.00000000E+00
	-2.60995000E+02	-1.69243000E+03	 0.00000000E+00
	-1.73694000E+02	-1.72108000E+03	 0.00000000E+00
	 2.24004000E+02	-1.63354000E+03	 0.00000000E+00
	-8.42911000E+02	-1.46859000E+03	 0.00000000E+00
	-2.60732000E+02	-1.52214000E+03	 0.00000000E+00
	 2.11268000E+02	-1.52214000E+03	 0.00000000E+00
	 5.55313000E+02	-1.56170000E+03	 0.00000000E+00
	-5.55313000E+02	-1.56170000E+03	 0.00000000E+00
	 6.00125000E+02	-1.60465000E+03	 0.00000000E+00
	-6.00125000E+02	-1.60465000E+03	 0.00000000E+00
	 7.53314000E+02	-1.34524000E+03	 0.00000000E+00
	 1.26268000E+02	-1.64760000E+03	 0.00000000E+00
	-7.55583000E+02	-1.52581000E+03	 0.00000000E+00
	-1.08158000E+02	-1.65861000E+03	 0.00000000E+00
	-2.66727000E+02	-1.69333000E+03	 0.00000000E+00
	 7.55583000E+02	-1.52581000E+03	 0.00000000E+00
	-4.80678000E+01	-1.65842000E+03	 0.00000000E+00
	 2.62892000E+02	-1.61461000E+03	 0.00000000E+00
	 7.29827000E+01	-1.71002000E+03	 0.00000000E+00
	-5.93140000E+01	-1.67076000E+03	 0.00000000E+00
	-7.74526000E+01	-1.58284000E+03	 0.00000000E+00
	 1.58547000E+02	-1.58284000E+03	 0.00000000E+00
	-3.13452000E+02	-1.58284000E+03	 0.00000000E+00
	 7.02960000E+02	-1.51043000E+03	 0.00000000E+00
	 5.50565000E+02	-1.55323000E+03	 0.00000000E+00
	-5.50565000E+02	-1.55323000E+03	 0.00000000E+00
	-8.07403000E+02	-1.52454000E+03	 0.00000000E+00
	 8.07402000E+02	-1.52454000E+03	 0.00000000E+00
	 7.72469000E+02	-1.48632000E+03	 0.00000000E+00
	-2.72461000E+02	-1.69422000E+03	 0.00000000E+00
	 7.09871000E+01	-1.71544000E+03	 0.00000000E+00
	-4.15337000E+02	-1.67480000E+03	 0.00000000E+00
	-5.05542000E+02	-1.62490000E+03	 0.00000000E+00
	 4.31763000E+01	-1.66098000E+03	 0.00000000E+00
	 5.45565000E+02	-1.55040000E+03	 0.00000000E+00
	-5.45565000E+02	-1.55040000E+03	 0.00000000E+00
	 6.89730000E+01	-1.72068000E+03	 0.00000000E+00
	 1.38305000E+02	-1.72442000E+03	 0.00000000E+00
	 6.69063000E+02	-1.53603000E+03	 0.00000000E+00
	-6.69063000E+02	-1.53603000E+03	 0.00000000E+00
	-2.13207000E+02	-1.62408000E+03	 0.00000000E+00
	 6.09996000E+02	-1.60456000E+03	 0.00000000E+00
	-6.09996000E+02	-1.60456000E+03	 0.00000000E+00
	 1.18008000E+02	-1.64184000E+03	 0.00000000E+00
	 3.63932000E+02	-1.59891000E+03	 0.00000000E+00
	-2.78227000E+02	-1.69514000E+03	 0.00000000E+00
	 1.04990000E+02	-1.72519000E+03	 0.00000000E+00
	 5.40480000E+02	-1.55311000E+03	 0.00000000E+00
	-5.40480000E+02	-1.55311000E+03	 0.00000000E+00
	 7.92543000E+02	-1.48594000E+03	 0.00000000E+00
	-2.84004000E+02	-1.69611000E+03	 0.00000000E+00
	 8.11322000E+01	-1.72826000E+03	 0.00000000E+00
	 3.58437000E+02	-1.65997000E+03	 0.00000000E+00
	 4.49882000E+02	-1.64516000E+03	 0.00000000E+00
	-4.44775000E+01	-1.53903000E+03	 0.00000000E+00
	-2.37083000E+02	-1.71385000E+03	 0.00000000E+00
	-2.80354000E+02	-1.53899000E+03	 0.00000000E+00
	 1.91646000E+02	-1.53899000E+03	 0.00000000E+00
	-7.58388000E+02	-1.52083000E+03	 0.00000000E+00
	 7.58388000E+02	-1.52083000E+03	 0.00000000E+00
	-2.66412000E+02	-1.63763000E+03	 0.00000000E+00
	 4.71294000E+02	-1.53513000E+03	 0.00000000E+00
	 6.10037000E+02	-1.61031000E+03	 0.00000000E+00
	-6.10037000E+02	-1.61031000E+03	 0.00000000E+00
	 4.25707000E+02	-1.56700000E+03	 0.00000000E+00
	 3.54250000E+02	-1.65564000E+03	 0.00000000E+00
	-2.92133000E+01	-1.70646000E+03	 0.00000000E+00
	 8.42200000E+02	-1.46850000E+03	 0.00000000E+00
	-4.25036000E+02	-1.59290000E+03	 0.00000000E+00
	-4.45419000E+02	-1.55020000E+03	 0.00000000E+00
	-1.11799000E+02	-1.65383000E+03	 0.00000000E+00
	-5.35673000E+02	-1.54469000E+03	 0.00000000E+00
	 5.35673000E+02	-1.54469000E+03	 0.00000000E+00
	-7.12794000E+02	-1.47125000E+03	 0.00000000E+00
	 7.12794000E+02	-1.47125000E+03	 0.00000000E+00
	-1.66032000E+02	-1.68203000E+03	 0.00000000E+00
	 3.71649000E+02	-1.58656000E+03	 0.00000000E+00
	-7.94146000E+02	-1.48614000E+03	 0.00000000E+00
	 1.08404000E+02	-1.65820000E+03	 0.00000000E+00
	-7.46264000E+02	-1.56078000E+03	 0.00000000E+00
	 7.46264000E+02	-1.56078000E+03	 0.00000000E+00
	-1.04234000E+02	-1.72729000E+03	 0.00000000E+00
	-5.30586000E+02	-1.54738000E+03	 0.00000000E+00
	 5.30586000E+02	-1.54738000E+03	 0.00000000E+00
	 1.88752000E+02	-1.58539000E+03	 0.00000000E+00
	-4.72479000E+01	-1.58539000E+03	 0.00000000E+00
	-2.83470000E+02	-1.58550000E+03	 0.00000000E+00
	 2.61051000E+01	-1.62164000E+03	 0.00000000E+00
	-7.68500000E+02	-1.33888000E+03	 0.00000000E+00
	 7.68205000E+02	-1.33887000E+03	 0.00000000E+00
	 7.61172000E+02	-1.51586000E+03	 0.00000000E+00
	-7.61172000E+02	-1.51586000E+03	 0.00000000E+00
	-2.04816000E+02	-1.64303000E+03	 0.00000000E+00
	 4.78299000E+01	-1.59954000E+03	 0.00000000E+00
	-1.88574000E+02	-1.59957000E+03	 0.00000000E+00
	-4.77686000E+01	-1.59957000E+03	 0.00000000E+00
	-2.83667000E+02	-1.59961000E+03	 0.00000000E+00
	 1.88120000E+02	-1.59957000E+03	 0.00000000E+00
	 2.68142000E+01	-1.61453000E+03	 0.00000000E+00
	 6.82962000E+02	-1.52202000E+03	 0.00000000E+00
	-6.82960000E+02	-1.52202000E+03	 0.00000000E+00
	-2.43843000E+02	-1.62919000E+03	 0.00000000E+00
	-6.34106000E+02	-1.55027000E+03	 0.00000000E+00
	-5.25937000E+02	-1.53896000E+03	 0.00000000E+00
	 5.25937000E+02	-1.53896000E+03	 0.00000000E+00
	 2.97557000E+01	-1.63711000E+03	 0.00000000E+00
	 7.32345000E+02	-1.41688000E+03	 0.00000000E+00
	-7.32355000E+02	-1.41688000E+03	 0.00000000E+00
	 5.21341000E+01	-1.73012000E+03	 0.00000000E+00
	-4.79825000E+02	-1.65639000E+03	 0.00000000E+00
	-3.68689000E+02	-1.59445000E+03	 0.00000000E+00
	 4.79824000E+02	-1.65639000E+03	 0.00000000E+00
	 1.73953000E+02	-1.68255000E+03	 0.00000000E+00
	 1.23096000E+02	-1.66059000E+03	 0.00000000E+00
	 2.02783000E+02	-1.71802000E+03	 0.00000000E+00
	 4.75110000E+02	-1.63138000E+03	 0.00000000E+00
	 5.20892000E+02	-1.53613000E+03	 0.00000000E+00
	-5.20892000E+02	-1.53613000E+03	 0.00000000E+00
	-1.39117000E+02	-1.72450000E+03	 0.00000000E+00
	-2.62215000E+02	-1.52891000E+03	 0.00000000E+00
	 2.09785000E+02	-1.52891000E+03	 0.00000000E+00
	-7.38616000E+00	-1.54189000E+03	 0.00000000E+00
	-8.07747000E+02	-1.48749000E+03	 0.00000000E+00
	 6.93302000E+02	-1.51693000E+03	 0.00000000E+00
	-6.93301000E+02	-1.51693000E+03	 0.00000000E+00
	 6.34089000E+02	-1.55024000E+03	 0.00000000E+00
	 2.16311000E+01	-1.63889000E+03	 0.00000000E+00
	 7.67658000E+02	-1.54497000E+03	 0.00000000E+00
	-7.12927000E+02	-1.39162000E+03	 0.00000000E+00
	 7.12927000E+02	-1.39162000E+03	 0.00000000E+00
	 5.15767000E+02	-1.53875000E+03	 0.00000000E+00
	-5.15768000E+02	-1.53875000E+03	 0.00000000E+00
	 7.39176000E+02	-1.37785000E+03	 0.00000000E+00
	 5.03121000E+02	-1.65537000E+03	 0.00000000E+00
	-5.03121000E+02	-1.65537000E+03	 0.00000000E+00
	-3.47923000E+02	-1.64252000E+03	 0.00000000E+00
	 8.69395000E+01	-1.72779000E+03	 0.00000000E+00
	 7.63937000E+02	-1.51093000E+03	 0.00000000E+00
	-7.63936000E+02	-1.51093000E+03	 0.00000000E+00
	-7.67681000E+02	-1.54497000E+03	 0.00000000E+00
	-2.60063000E+02	-1.62421000E+03	 0.00000000E+00
	-1.69331000E+02	-1.67258000E+03	 0.00000000E+00
	 5.11167000E+02	-1.53039000E+03	 0.00000000E+00
	-5.11168000E+02	-1.53039000E+03	 0.00000000E+00
	-3.70108000E+02	-1.68507000E+03	 0.00000000E+00
	-7.36845000E+02	-1.36141000E+03	 0.00000000E+00
	 6.52988000E+02	-1.54533000E+03	 0.00000000E+00
	-6.52988000E+02	-1.54533000E+03	 0.00000000E+00
	-2.98648000E+01	-1.52507000E+03	 0.00000000E+00
	-3.23801000E+02	-1.67149000E+03	 0.00000000E+00
	-6.39916000E+02	-1.60415000E+03	 0.00000000E+00
	 6.39916000E+02	-1.60415000E+03	 0.00000000E+00
	-1.17713000E+02	-1.61757000E+03	 0.00000000E+00
	-6.69192000E+02	-1.58534000E+03	 0.00000000E+00
	 6.69192000E+02	-1.58534000E+03	 0.00000000E+00
	-3.77040000E+02	-1.56664000E+03	 0.00000000E+00
	-2.70865000E+01	-1.63721000E+03	 0.00000000E+00
	-1.71438000E+02	-1.55181000E+03	 0.00000000E+00
	 3.00562000E+02	-1.55181000E+03	 0.00000000E+00
	 4.96902000E+02	-1.62329000E+03	 0.00000000E+00
	-2.08723000E+02	-1.61434000E+03	 0.00000000E+00
	 2.09059000E+02	-1.61446000E+03	 0.00000000E+00
	-2.62978000E+02	-1.61443000E+03	 0.00000000E+00
	-5.06107000E+02	-1.52756000E+03	 0.00000000E+00
	 5.06107000E+02	-1.52756000E+03	 0.00000000E+00
	 7.36477000E+02	-1.56030000E+03	 0.00000000E+00
	-7.36477000E+02	-1.56030000E+03	 0.00000000E+00
	-2.84821000E+02	-1.67132000E+03	 0.00000000E+00
	 5.16120000E+02	-1.57229000E+03	 0.00000000E+00
	-5.16120000E+02	-1.57229000E+03	 0.00000000E+00
	-7.13334000E+02	-1.57054000E+03	 0.00000000E+00
	 7.13334000E+02	-1.57054000E+03	 0.00000000E+00
	-7.38196000E+02	-1.43677000E+03	 0.00000000E+00
	-1.48079000E+02	-1.67159000E+03	 0.00000000E+00
	-5.46742000E+02	-1.64161000E+03	 0.00000000E+00
	 5.46742000E+02	-1.64161000E+03	 0.00000000E+00
	 3.86941000E+02	-1.56097000E+03	 0.00000000E+00
	-1.15356000E+02	-1.64960000E+03	 0.00000000E+00
	 5.00956000E+02	-1.53014000E+03	 0.00000000E+00
	-5.00951000E+02	-1.53015000E+03	 0.00000000E+00
	 2.46916000E+01	-1.54600000E+03	 0.00000000E+00
	-7.27423000E+02	-1.36627000E+03	 0.00000000E+00
	 7.27381000E+02	-1.36631000E+03	 0.00000000E+00
	-1.57354000E+02	-1.55803000E+03	 0.00000000E+00
	 3.14646000E+02	-1.55803000E+03	 0.00000000E+00
	 1.87730000E+01	-1.71446000E+03	 0.00000000E+00
	 6.61386000E+02	-1.54160000E+03	 0.00000000E+00
	-6.61387000E+02	-1.54160000E+03	 0.00000000E+00
	-7.69763000E+02	-1.51080000E+03	 0.00000000E+00
	-4.01801000E+02	-1.55252000E+03	 0.00000000E+00
	 6.45859000E+01	-1.55178000E+03	 0.00000000E+00
	 7.69763000E+02	-1.51080000E+03	 0.00000000E+00
	 2.74456000E+02	-1.65404000E+03	 0.00000000E+00
	-3.98686000E+02	-1.67884000E+03	 0.00000000E+00
	 4.01819000E+02	-1.55253000E+03	 0.00000000E+00
	-7.67493000E+02	-1.48670000E+03	 0.00000000E+00
	 4.96511000E+02	-1.52182000E+03	 0.00000000E+00
	 7.56951000E+02	-1.44793000E+03	 0.00000000E+00
	-7.56755000E+02	-1.44778000E+03	 0.00000000E+00
	-4.96224000E+02	-1.52187000E+03	 0.00000000E+00
	 4.04638000E+01	-1.56726000E+03	 0.00000000E+00
	 3.26944000E+02	-1.67592000E+03	 0.00000000E+00
	 1.67993000E+02	-1.72221000E+03	 0.00000000E+00
	-4.70579000E+02	-1.54095000E+03	 0.00000000E+00
	 1.79042000E+02	-1.67583000E+03	 0.00000000E+00
	-1.81807000E+02	-1.59004000E+03	 0.00000000E+00
	 4.45280000E+02	-1.61470000E+03	 0.00000000E+00
	-1.42387000E+02	-1.71935000E+03	 0.00000000E+00
	 5.41957000E+01	-1.59005000E+03	 0.00000000E+00
	-4.28770000E+01	-1.68302000E+03	 0.00000000E+00
	 4.91342000E+02	-1.51900000E+03	 0.00000000E+00
	 3.17128000E+02	-1.70101000E+03	 0.00000000E+00
	 7.75577000E+02	-1.51069000E+03	 0.00000000E+00
	-2.70485000E+02	-1.64770000E+03	 0.00000000E+00
	-7.75571000E+02	-1.51070000E+03	 0.00000000E+00
	-4.91048000E+02	-1.52444000E+03	 0.00000000E+00
	 7.86772000E+01	-1.55799000E+03	 0.00000000E+00
	-4.29623000E+02	-1.59725000E+03	 0.00000000E+00
	 2.78489000E+02	-1.70419000E+03	 0.00000000E+00
	-8.03106000E+02	-1.53286000E+03	 0.00000000E+00
	 8.03106000E+02	-1.53286000E+03	 0.00000000E+00
	-4.16718000E+02	-1.54406000E+03	 0.00000000E+00
	-1.06772000E+02	-1.66773000E+03	 0.00000000E+00
	 4.16716000E+02	-1.54406000E+03	 0.00000000E+00
	 7.98269000E+02	-1.49198000E+03	 0.00000000E+00
	 7.36502000E+02	-1.36159000E+03	 0.00000000E+00
	-5.96248000E+02	-1.62443000E+03	 0.00000000E+00
	 5.96248000E+02	-1.62443000E+03	 0.00000000E+00
	 2.76438000E+02	-1.56728000E+03	 0.00000000E+00
	-1.95557000E+02	-1.56721000E+03	 0.00000000E+00
	 3.18045000E+02	-1.67212000E+03	 0.00000000E+00
	-2.20114000E+02	-1.52347000E+03	 0.00000000E+00
	 2.51886000E+02	-1.52347000E+03	 0.00000000E+00
	-4.86365000E+02	-1.51616000E+03	 0.00000000E+00
	 7.79132000E+01	-1.58938000E+03	 0.00000000E+00
	-4.11626000E+02	-1.58711000E+03	 0.00000000E+00
	 4.14155000E+02	-1.67497000E+03	 0.00000000E+00
	-2.06806000E+01	-1.72536000E+03	 0.00000000E+00
	 2.46921000E+02	-1.62929000E+03	 0.00000000E+00
	 4.86147000E+02	-1.52157000E+03	 0.00000000E+00
	 3.43007000E+02	-1.65899000E+03	 0.00000000E+00
	 8.03913000E+02	-1.51035000E+03	 0.00000000E+00
	-8.03914000E+02	-1.51035000E+03	 0.00000000E+00
	 7.79595000E+01	-1.68402000E+03	 0.00000000E+00
	 4.56004000E+02	-1.54947000E+03	 0.00000000E+00
	 2.84629000E+02	-1.59844000E+03	 0.00000000E+00
	-3.00034000E+02	-1.70425000E+03	 0.00000000E+00
	-4.81189000E+02	-1.51870000E+03	 0.00000000E+00
	-7.81341000E+02	-1.51060000E+03	 0.00000000E+00
	 1.93833000E+02	-1.71434000E+03	 0.00000000E+00
	 8.09516000E+02	-1.51033000E+03	 0.00000000E+00
	-8.09516000E+02	-1.51033000E+03	 0.00000000E+00
	 4.81443000E+02	-1.51333000E+03	 0.00000000E+00
	 2.10313000E+02	-1.54379000E+03	 0.00000000E+00
	-2.61687000E+02	-1.54379000E+03	 0.00000000E+00
	 9.22915000E+00	-1.62831000E+03	 0.00000000E+00
	-1.38181000E+01	-1.71878000E+03	 0.00000000E+00
	 3.13733000E+02	-1.58938000E+03	 0.00000000E+00
	-1.58267000E+02	-1.58938000E+03	 0.00000000E+00
	 4.28267000E+02	-1.59458000E+03	 0.00000000E+00
	-8.20320000E+02	-1.51958000E+03	 0.00000000E+00
	-8.14988000E+02	-1.51938000E+03	 0.00000000E+00
	 8.20320000E+02	-1.51958000E+03	 0.00000000E+00
	 8.14988000E+02	-1.51938000E+03	 0.00000000E+00
	 7.81341000E+02	-1.51059000E+03	 0.00000000E+00
	 1.33918000E+02	-1.71980000E+03	 0.00000000E+00
	 4.52637000E+02	-1.67002000E+03	 0.00000000E+00
	-4.52637000E+02	-1.67002000E+03	 0.00000000E+00
	 1.41067000E+01	-1.72535000E+03	 0.00000000E+00
	 2.39213000E+02	-1.63545000E+03	 0.00000000E+00
	-4.01364000E+02	-1.57988000E+03	 0.00000000E+00
	-1.27704000E+02	-1.58088000E+03	 0.00000000E+00
	 3.44299000E+02	-1.58088000E+03	 0.00000000E+00
	-4.41669000E+02	-1.52989000E+03	 0.00000000E+00
	-4.76700000E+02	-1.51046000E+03	 0.00000000E+00
	 2.04004000E+01	-1.63159000E+03	 0.00000000E+00
	-4.56295000E+02	-1.54370000E+03	 0.00000000E+00
	-8.16956000E+02	-1.48285000E+03	 0.00000000E+00
	 4.76341000E+02	-1.51588000E+03	 0.00000000E+00
	 6.24910000E+02	-1.55586000E+03	 0.00000000E+00
	-6.24910000E+02	-1.55587000E+03	 0.00000000E+00
	-2.35046000E+02	-1.63745000E+03	 0.00000000E+00
	-2.65078000E+01	-1.64270000E+03	 0.00000000E+00
	 7.12426000E+02	-1.45401000E+03	 0.00000000E+00
	-7.12426000E+02	-1.45401000E+03	 0.00000000E+00
	 7.98307000E+02	-1.51040000E+03	 0.00000000E+00
	-7.98307000E+02	-1.51040000E+03	 0.00000000E+00
	-7.92696000E+02	-1.51046000E+03	 0.00000000E+00
	-3.60770000E+02	-1.65718000E+03	 0.00000000E+00
	 4.51602000E+02	-1.52426000E+03	 0.00000000E+00
	-4.56556000E+02	-1.52144000E+03	 0.00000000E+00
	 3.35039000E+02	-1.69810000E+03	 0.00000000E+00
	 4.41067000E+02	-1.67331000E+03	 0.00000000E+00
	-4.40771000E+02	-1.67337000E+03	 0.00000000E+00
	-1.64669000E+02	-1.67510000E+03	 0.00000000E+00
	 7.87032000E+02	-1.51052000E+03	 0.00000000E+00
	-7.87032000E+02	-1.51052000E+03	 0.00000000E+00
	 5.64814000E+00	-1.72146000E+03	 0.00000000E+00
	 4.24539000E+02	-1.67731000E+03	 0.00000000E+00
	 7.92696000E+02	-1.51044000E+03	 0.00000000E+00
	 1.67495000E+02	-1.58525000E+03	 0.00000000E+00
	-6.85049000E+01	-1.58525000E+03	 0.00000000E+00
	-3.04156000E+02	-1.58509000E+03	 0.00000000E+00
	 8.12312000E+02	-1.51498000E+03	 0.00000000E+00
	-8.12312000E+02	-1.51498000E+03	 0.00000000E+00
	-4.03049000E+01	-1.69198000E+03	 0.00000000E+00
	 2.61016000E+01	-1.70836000E+03	 0.00000000E+00
	-7.46740000E+02	-1.35501000E+03	 0.00000000E+00
	-6.19280000E+02	-1.61030000E+03	 0.00000000E+00
	 6.19280000E+02	-1.61030000E+03	 0.00000000E+00
	 7.71291000E+02	-1.46625000E+03	 0.00000000E+00
	-4.39691000E+02	-1.61596000E+03	 0.00000000E+00
	-7.38714000E+02	-1.42605000E+03	 0.00000000E+00
	 1.08310000E+02	-1.58085000E+03	 0.00000000E+00
	-2.06297000E+02	-1.52971000E+03	 0.00000000E+00
	 2.65706000E+02	-1.52971000E+03	 0.00000000E+00
	-1.14728000E+02	-1.61140000E+03	 0.00000000E+00
	 5.64774000E+02	-1.63032000E+03	 0.00000000E+00
	-5.64774000E+02	-1.63032000E+03	 0.00000000E+00
	-1.78988000E+02	-1.67492000E+03	 0.00000000E+00
	-3.74512000E+01	-1.61450000E+03	 0.00000000E+00
	-4.77497000E+01	-1.72370000E+03	 0.00000000E+00
	 1.24809000E+02	-1.65457000E+03	 0.00000000E+00
	-3.34209000E+02	-1.69772000E+03	 0.00000000E+00
	 7.52428000E+02	-1.47181000E+03	 0.00000000E+00
	-2.56329000E+02	-1.70621000E+03	 0.00000000E+00
	-7.35381000E+02	-1.43155000E+03	 0.00000000E+00
	 7.12278000E+02	-1.40223000E+03	 0.00000000E+00
	-7.12279000E+02	-1.40223000E+03	 0.00000000E+00
	 4.50508000E+02	-1.55250000E+03	 0.00000000E+00
	 3.50418000E+02	-1.60960000E+03	 0.00000000E+00
	-3.10580000E+02	-1.55037000E+03	 0.00000000E+00
	 1.61420000E+02	-1.55037000E+03	 0.00000000E+00
	-7.45796000E+01	-1.55037000E+03	 0.00000000E+00
	-7.54303000E+02	-1.34532000E+03	 0.00000000E+00
	-2.58934000E+02	-1.63110000E+03	 0.00000000E+00
	 4.95558000E+02	-1.63141000E+03	 0.00000000E+00
	 5.19104000E+02	-1.65054000E+03	 0.00000000E+00
	-5.19104000E+02	-1.65054000E+03	 0.00000000E+00
	-1.63258000E+02	-1.71689000E+03	 0.00000000E+00
	 4.27847000E+02	-1.58871000E+03	 0.00000000E+00
	 4.27933000E+02	-1.58255000E+03	 0.00000000E+00
	-6.65628000E+02	-1.59031000E+03	 0.00000000E+00
	 6.65628000E+02	-1.59031000E+03	 0.00000000E+00
	 7.44923000E+02	-1.35651000E+03	 0.00000000E+00
	 7.35235000E+02	-1.43170000E+03	 0.00000000E+00
	 8.16224000E+02	-1.48289000E+03	 0.00000000E+00
	-1.48457000E+02	-1.72016000E+03	 0.00000000E+00
	-1.99461000E+01	-1.71169000E+03	 0.00000000E+00
	-8.31704000E+02	-1.47934000E+03	 0.00000000E+00
	 8.31664000E+02	-1.47932000E+03	 0.00000000E+00
	 2.97883000E+01	-1.53015000E+03	 0.00000000E+00
	-1.03309000E+02	-1.68825000E+03	 0.00000000E+00
	 7.04841000E+02	-1.57500000E+03	 0.00000000E+00
	-7.04841000E+02	-1.57500000E+03	 0.00000000E+00
	 2.66248000E+02	-1.63456000E+03	 0.00000000E+00
	 2.04696000E+02	-1.63247000E+03	 0.00000000E+00
	 3.40233000E+02	-1.66824000E+03	 0.00000000E+00
	-4.58553000E+02	-1.62754000E+03	 0.00000000E+00
	-4.13952000E+01	-1.56872000E+03	 0.00000000E+00
	 1.94605000E+02	-1.56872000E+03	 0.00000000E+00
	-2.77395000E+02	-1.56872000E+03	 0.00000000E+00
	 2.78386000E+02	-1.65878000E+03	 0.00000000E+00
	 3.51877000E+02	-1.69454000E+03	 0.00000000E+00
	 1.00872000E+02	-1.66485000E+03	 0.00000000E+00
	 1.64378000E+01	-1.71998000E+03	 0.00000000E+00
	 3.49627000E+02	-1.65143000E+03	 0.00000000E+00
	-2.88676000E+02	-1.70616000E+03	 0.00000000E+00
	-2.71949000E+02	-1.70911000E+03	 0.00000000E+00
	-7.40318000E+01	-1.72336000E+03	 0.00000000E+00
	-2.73704000E+02	-1.64144000E+03	 0.00000000E+00
	 2.52081000E+02	-1.54341000E+03	 0.00000000E+00
	-3.59651000E+02	-1.68173000E+03	 0.00000000E+00
	 7.40959000E+02	-1.44196000E+03	 0.00000000E+00
	-7.41042000E+02	-1.44183000E+03	 0.00000000E+00
	 1.91258000E+02	-1.71955000E+03	 0.00000000E+00
	-2.20158000E+02	-1.71033000E+03	 0.00000000E+00
	 7.57700000E+02	-1.49177000E+03	 0.00000000E+00
	 4.37269000E+01	-1.67493000E+03	 0.00000000E+00
	 5.15651000E+02	-1.61891000E+03	 0.00000000E+00
	-2.48061000E+01	-1.62424000E+03	 0.00000000E+00
	-1.86974000E+02	-1.53591000E+03	 0.00000000E+00
	 2.85025000E+02	-1.53591000E+03	 0.00000000E+00
	-1.38225000E+02	-1.56407000E+03	 0.00000000E+00
	 3.33775000E+02	-1.56407000E+03	 0.00000000E+00
	-9.85359000E+01	-1.72759000E+03	 0.00000000E+00
	 7.79046000E+01	-1.72388000E+03	 0.00000000E+00
	 4.02485000E+02	-1.68361000E+03	 0.00000000E+00
	-6.57545000E+02	-1.59499000E+03	 0.00000000E+00
	 6.57545000E+02	-1.59499000E+03	 0.00000000E+00
	 8.07354000E+02	-1.48784000E+03	 0.00000000E+00
	-3.63573000E+02	-1.59242000E+03	 0.00000000E+00
	 3.05417000E+02	-1.67410000E+03	 0.00000000E+00
	-5.10409000E+02	-1.61686000E+03	 0.00000000E+00
	 4.90394000E+01	-1.53590000E+03	 0.00000000E+00
	-7.27595000E+01	-1.67763000E+03	 0.00000000E+00
	-3.69256000E-01	-1.50776000E+03	 0.00000000E+00
	-9.28241000E+01	-1.67099000E+03	 0.00000000E+00
	-2.67660000E+02	-1.63215000E+03	 0.00000000E+00
	-2.05262000E+02	-1.71343000E+03	 0.00000000E+00
	-4.74690000E+02	-1.63149000E+03	 0.00000000E+00
	 7.38061000E+02	-1.43695000E+03	 0.00000000E+00
	 9.77895000E+01	-1.56405000E+03	 0.00000000E+00
	 4.40539000E+02	-1.65162000E+03	 0.00000000E+00
	 4.71647000E+02	-1.51311000E+03	 0.00000000E+00
	 4.23193000E+02	-1.58615000E+03	 0.00000000E+00
	-3.38629000E+02	-1.66969000E+03	 0.00000000E+00
	-7.18412000E+02	-1.45135000E+03	 0.00000000E+00
	 3.68937000E+02	-1.68988000E+03	 0.00000000E+00
	-1.21523000E+02	-1.72052000E+03	 0.00000000E+00
	-4.71658000E+02	-1.51316000E+03	 0.00000000E+00
	 4.58411000E+02	-1.66825000E+03	 0.00000000E+00
	-4.58411000E+02	-1.66825000E+03	 0.00000000E+00
	 7.18415000E+02	-1.45136000E+03	 0.00000000E+00
	 4.60867000E+01	-1.72376000E+03	 0.00000000E+00
	-5.37414000E+01	-1.66206000E+03	 0.00000000E+00
	 4.51377000E+02	-1.62390000E+03	 0.00000000E+00
	-2.01314000E+02	-1.64730000E+03	 0.00000000E+00
	 3.90608000E+02	-1.58014000E+03	 0.00000000E+00
	 4.19607000E+02	-1.67330000E+03	 0.00000000E+00
	-2.49416000E+02	-1.52176000E+03	 0.00000000E+00
	 2.22584000E+02	-1.52176000E+03	 0.00000000E+00
	-4.03874000E+02	-1.67762000E+03	 0.00000000E+00
	-4.50913000E+02	-1.54670000E+03	 0.00000000E+00
	-4.66674000E+02	-1.51594000E+03	 0.00000000E+00
	 4.66700000E+02	-1.51589000E+03	 0.00000000E+00
	-4.09516000E+02	-1.67618000E+03	 0.00000000E+00
	 2.56371000E+02	-1.54713000E+03	 0.00000000E+00
	-2.15597000E+02	-1.54669000E+03	 0.00000000E+00
	 1.26505000E+02	-1.72558000E+03	 0.00000000E+00
	-1.51388000E+01	-1.51578000E+03	 0.00000000E+00
	 4.46422000E+02	-1.62155000E+03	 0.00000000E+00
	 1.49892000E+02	-1.72387000E+03	 0.00000000E+00
	 2.45187000E+02	-1.63457000E+03	 0.00000000E+00
	-2.34338000E+02	-1.54160000E+03	 0.00000000E+00
	 7.53454000E+02	-1.44277000E+03	 0.00000000E+00
	-7.53099000E+02	-1.44263000E+03	 0.00000000E+00
	-3.45678000E+02	-1.69592000E+03	 0.00000000E+00
	-4.61607000E+02	-1.51872000E+03	 0.00000000E+00
	-2.30226000E+01	-1.55282000E+03	 0.00000000E+00
	 4.61754000E+02	-1.51872000E+03	 0.00000000E+00
	-6.82755000E+02	-1.59054000E+03	 0.00000000E+00
	 6.82755000E+02	-1.59054000E+03	 0.00000000E+00
	-3.17365000E+02	-1.70172000E+03	 0.00000000E+00
	 1.17948000E+01	-1.53874000E+03	 0.00000000E+00
	-1.85771000E+02	-1.72078000E+03	 0.00000000E+00
	-1.36609000E+02	-1.67846000E+03	 0.00000000E+00
	-5.51113000E+00	-1.51058000E+03	 0.00000000E+00
	 4.39580000E+02	-1.63965000E+03	 0.00000000E+00
	 7.23487000E+01	-1.67793000E+03	 0.00000000E+00
	-4.85606000E+02	-1.54344000E+03	 0.00000000E+00
	-4.51872000E+02	-1.51902000E+03	 0.00000000E+00
	 1.82543000E+02	-1.71574000E+03	 0.00000000E+00
	-1.20868000E+02	-1.65072000E+03	 0.00000000E+00
	 4.56663000E+02	-1.52154000E+03	 0.00000000E+00
	-3.25998000E+01	-1.55020000E+03	 0.00000000E+00
	 4.35389000E+02	-1.55971000E+03	 0.00000000E+00
	-4.47028000E+02	-1.52179000E+03	 0.00000000E+00
	 4.39615000E+01	-1.66802000E+03	 0.00000000E+00
	-3.86333000E+02	-1.68166000E+03	 0.00000000E+00
	-1.97272000E+02	-1.65277000E+03	 0.00000000E+00
	 8.69488000E+00	-1.72574000E+03	 0.00000000E+00
	 7.46933000E+02	-1.44221000E+03	 0.00000000E+00
	-7.46916000E+02	-1.44216000E+03	 0.00000000E+00
	 7.78343000E+02	-1.48697000E+03	 0.00000000E+00
	-7.76639000E+02	-1.46891000E+03	 0.00000000E+00
	 5.33814000E+01	-1.67870000E+03	 0.00000000E+00
	 1.42154000E+02	-1.56749000E+03	 0.00000000E+00
	-9.38463000E+01	-1.56749000E+03	 0.00000000E+00
	-3.29846000E+02	-1.56749000E+03	 0.00000000E+00
	 4.46932000E+02	-1.52184000E+03	 0.00000000E+00
	 6.23756000E+02	-1.58505000E+03	 0.00000000E+00
	-6.23756000E+02	-1.58505000E+03	 0.00000000E+00
	 2.96324000E+02	-1.58782000E+03	 0.00000000E+00
	-4.40431000E+02	-1.65177000E+03	 0.00000000E+00
	-4.35945000E+02	-1.55857000E+03	 0.00000000E+00
	 2.90318000E+02	-1.59001000E+03	 0.00000000E+00
	 2.61648000E+02	-1.62174000E+03	 0.00000000E+00
	-6.44863000E+02	-1.60116000E+03	 0.00000000E+00
	 6.44863000E+02	-1.60116000E+03	 0.00000000E+00
	-4.31731000E+02	-1.56330000E+03	 0.00000000E+00
	 4.42175000E+02	-1.52467000E+03	 0.00000000E+00
	-2.56761000E+01	-1.63020000E+03	 0.00000000E+00
	-7.73193000E+02	-1.48720000E+03	 0.00000000E+00
	-7.62740000E+02	-1.46165000E+03	 0.00000000E+00
	-4.46708000E+02	-1.52711000E+03	 0.00000000E+00
	-7.55223000E+02	-1.45674000E+03	 0.00000000E+00
	 2.70631000E+02	-1.64967000E+03	 0.00000000E+00
	 3.19253000E+01	-1.64118000E+03	 0.00000000E+00
	-4.50318000E+02	-1.64515000E+03	 0.00000000E+00
	 4.57875000E+02	-1.62655000E+03	 0.00000000E+00
	-3.17302000E+02	-1.67174000E+03	 0.00000000E+00
	 7.62406000E+02	-1.34684000E+03	 0.00000000E+00
	-3.26175000E+01	-1.72681000E+03	 0.00000000E+00
	-4.98860000E+01	-1.67504000E+03	 0.00000000E+00
	-4.37029000E+02	-1.52751000E+03	 0.00000000E+00
	-3.56080000E+02	-1.61052000E+03	 0.00000000E+00
	 1.15920000E+02	-1.61052000E+03	 0.00000000E+00
	-7.21735000E+02	-1.45649000E+03	 0.00000000E+00
	 7.21735000E+02	-1.45649000E+03	 0.00000000E+00
	-3.91751000E+02	-1.58001000E+03	 0.00000000E+00
	 7.37381000E+02	-1.38654000E+03	 0.00000000E+00
	-7.37377000E+02	-1.38652000E+03	 0.00000000E+00
	-6.66555000E+01	-1.67793000E+03	 0.00000000E+00
	-2.36996000E+02	-1.51302000E+03	 0.00000000E+00
	 2.35004000E+02	-1.51302000E+03	 0.00000000E+00
	 4.41985000E+02	-1.52989000E+03	 0.00000000E+00
	-4.32311000E+02	-1.53033000E+03	 0.00000000E+00
	-4.50982000E+02	-1.63909000E+03	 0.00000000E+00
	 7.94083000E-01	-1.54146000E+03	 0.00000000E+00
	-3.00738000E+02	-1.54395000E+03	 0.00000000E+00
	 1.71262000E+02	-1.54395000E+03	 0.00000000E+00
	-6.47384000E+01	-1.54395000E+03	 0.00000000E+00
	 5.13553000E+02	-1.65251000E+03	 0.00000000E+00
	-5.13553000E+02	-1.65251000E+03	 0.00000000E+00
	-5.90240000E+02	-1.62660000E+03	 0.00000000E+00
	 5.90240000E+02	-1.62660000E+03	 0.00000000E+00
	 3.87541000E+02	-1.68109000E+03	 0.00000000E+00
	-1.92401000E+02	-1.66670000E+03	 0.00000000E+00
	 4.37090000E+02	-1.53272000E+03	 0.00000000E+00
	-2.67376000E+01	-1.72593000E+03	 0.00000000E+00
	-7.25997000E+02	-1.56531000E+03	 0.00000000E+00
	 7.25997000E+02	-1.56531000E+03	 0.00000000E+00
	 1.18260000E+02	-1.63256000E+03	 0.00000000E+00
	-7.62564000E+02	-1.34608000E+03	 0.00000000E+00
	 3.66385000E+01	-1.69621000E+03	 0.00000000E+00
	-4.32096000E+02	-1.53555000E+03	 0.00000000E+00
	 4.74815000E+02	-1.66452000E+03	 0.00000000E+00
	-4.74815000E+02	-1.66452000E+03	 0.00000000E+00
	 4.32166000E+02	-1.53554000E+03	 0.00000000E+00
	-5.00638000E+01	-1.54129000E+03	 0.00000000E+00
	-2.86020000E+02	-1.54130000E+03	 0.00000000E+00
	 1.85980000E+02	-1.54130000E+03	 0.00000000E+00
	-7.52531000E+00	-1.62891000E+03	 0.00000000E+00
	-6.72577000E+02	-1.59511000E+03	 0.00000000E+00
	 6.72577000E+02	-1.59511000E+03	 0.00000000E+00
	-4.41511000E+02	-1.63685000E+03	 0.00000000E+00
	-3.63041000E+01	-1.56168000E+03	 0.00000000E+00
	 1.99657000E+02	-1.56158000E+03	 0.00000000E+00
	-2.72343000E+02	-1.56158000E+03	 0.00000000E+00
	 1.88248000E+02	-1.67539000E+03	 0.00000000E+00
	 2.63153000E+02	-1.64172000E+03	 0.00000000E+00
	-2.11927000E+02	-1.52125000E+03	 0.00000000E+00
	 2.60073000E+02	-1.52125000E+03	 0.00000000E+00
	 4.86430000E+02	-1.54416000E+03	 0.00000000E+00
	 1.10947000E+02	-1.65325000E+03	 0.00000000E+00
	-4.27196000E+02	-1.53840000E+03	 0.00000000E+00
	-5.48865000E+01	-1.66819000E+03	 0.00000000E+00
	 4.27214000E+02	-1.53841000E+03	 0.00000000E+00
	-3.33835000E+02	-1.58312000E+03	 0.00000000E+00
	 1.38165000E+02	-1.58312000E+03	 0.00000000E+00
	-9.78346000E+01	-1.58312000E+03	 0.00000000E+00
	-4.55491000E+02	-1.63708000E+03	 0.00000000E+00
	 8.67430000E+01	-1.58620000E+03	 0.00000000E+00
	-1.24228000E+02	-1.66115000E+03	 0.00000000E+00
	 3.15900000E+02	-1.55326000E+03	 0.00000000E+00
	-1.56100000E+02	-1.55326000E+03	 0.00000000E+00
	 3.77380000E+02	-1.66775000E+03	 0.00000000E+00
	-4.21024000E+02	-1.57224000E+03	 0.00000000E+00
	 1.77003000E+02	-1.71644000E+03	 0.00000000E+00
	 4.97622000E+02	-1.65777000E+03	 0.00000000E+00
	-4.97622000E+02	-1.65777000E+03	 0.00000000E+00
	-3.54087000E+02	-1.62418000E+03	 0.00000000E+00
	 3.53972000E+02	-1.62469000E+03	 0.00000000E+00
	 1.18001000E+02	-1.62479000E+03	 0.00000000E+00
	-1.17881000E+02	-1.62391000E+03	 0.00000000E+00
	 3.54011000E+02	-1.63303000E+03	 0.00000000E+00
	-1.17991000E+02	-1.63314000E+03	 0.00000000E+00
	 4.39373000E+02	-1.61526000E+03	 0.00000000E+00
	 4.03407000E+02	-1.58635000E+03	 0.00000000E+00
	 7.22293000E+01	-1.72450000E+03	 0.00000000E+00
	-1.28231000E+02	-1.67179000E+03	 0.00000000E+00
	-4.22093000E+02	-1.54125000E+03	 0.00000000E+00
	-2.40165000E+02	-1.70889000E+03	 0.00000000E+00
	 2.16635000E+02	-1.62522000E+03	 0.00000000E+00
	 4.22097000E+02	-1.54126000E+03	 0.00000000E+00
	-4.12337000E+02	-1.54168000E+03	 0.00000000E+00
	 7.99177000E+01	-1.55324000E+03	 0.00000000E+00
	 4.12336000E+02	-1.54168000E+03	 0.00000000E+00
	 4.07945000E+02	-1.67636000E+03	 0.00000000E+00
	 4.79777000E+02	-1.63423000E+03	 0.00000000E+00
	 2.09149000E+02	-1.61972000E+03	 0.00000000E+00
	-6.18775000E+02	-1.56488000E+03	 0.00000000E+00
	 6.18775000E+02	-1.56488000E+03	 0.00000000E+00
	-2.62920000E+02	-1.61962000E+03	 0.00000000E+00
	-2.09364000E+02	-1.61931000E+03	 0.00000000E+00
	-1.45727000E+02	-1.67974000E+03	 0.00000000E+00
	-6.14254000E+02	-1.61268000E+03	 0.00000000E+00
	 6.14254000E+02	-1.61268000E+03	 0.00000000E+00
	-3.62384000E+02	-1.66369000E+03	 0.00000000E+00
	 1.40468000E-02	-1.62869000E+03	 0.00000000E+00
	 3.22711000E+02	-1.58624000E+03	 0.00000000E+00
	-1.49289000E+02	-1.58624000E+03	 0.00000000E+00
	 5.10300000E+02	-1.56338000E+03	 0.00000000E+00
	-5.10300000E+02	-1.56338000E+03	 0.00000000E+00
	-3.45235000E+02	-1.57055000E+03	 0.00000000E+00
	 1.26765000E+02	-1.57055000E+03	 0.00000000E+00
	-1.09235000E+02	-1.57055000E+03	 0.00000000E+00
	-4.79120000E+02	-1.63415000E+03	 0.00000000E+00
	-2.79635000E+02	-1.66054000E+03	 0.00000000E+00
	 1.22072000E+02	-1.72115000E+03	 0.00000000E+00
	-3.50273000E+02	-1.64708000E+03	 0.00000000E+00
	-2.71353000E+02	-1.52717000E+03	 0.00000000E+00
	 2.00647000E+02	-1.52717000E+03	 0.00000000E+00
	-2.94924000E+02	-1.58717000E+03	 0.00000000E+00
	 6.24437000E+02	-1.57481000E+03	 0.00000000E+00
	-6.24437000E+02	-1.57481000E+03	 0.00000000E+00
	-4.07560000E+02	-1.54442000E+03	 0.00000000E+00
	 5.59477000E+02	-1.63276000E+03	 0.00000000E+00
	-5.59477000E+02	-1.63276000E+03	 0.00000000E+00
	-1.07016000E+02	-1.68453000E+03	 0.00000000E+00
	-1.62806000E+02	-1.54956000E+03	 0.00000000E+00
	 3.09194000E+02	-1.54956000E+03	 0.00000000E+00
	 4.07560000E+02	-1.54442000E+03	 0.00000000E+00
	-4.00523000E+02	-1.67450000E+03	 0.00000000E+00
	 5.15678000E+02	-1.61272000E+03	 0.00000000E+00
	-1.23208000E+02	-1.60636000E+03	 0.00000000E+00
	-2.70118000E+02	-1.55712000E+03	 0.00000000E+00
	 2.01882000E+02	-1.55712000E+03	 0.00000000E+00
	 7.31819000E+01	-1.54954000E+03	 0.00000000E+00
	-3.08302000E+01	-1.53069000E+03	 0.00000000E+00
	 4.76118000E+02	-1.53715000E+03	 0.00000000E+00
	-1.93539000E+02	-1.65776000E+03	 0.00000000E+00
	-4.07102000E+02	-1.54971000E+03	 0.00000000E+00
	-5.24122000E+01	-1.73051000E+03	 0.00000000E+00
	 7.61973000E+02	-1.55444000E+03	 0.00000000E+00
	 7.89463000E+02	-1.53435000E+03	 0.00000000E+00
	 4.07108000E+02	-1.54971000E+03	 0.00000000E+00
	 5.21354000E+02	-1.58259000E+03	 0.00000000E+00
	-5.21354000E+02	-1.58259000E+03	 0.00000000E+00
	-2.56055000E+02	-1.63650000E+03	 0.00000000E+00
	 5.40486000E+02	-1.63862000E+03	 0.00000000E+00
	-5.40486000E+02	-1.63862000E+03	 0.00000000E+00
	-2.43658000E+02	-1.63516000E+03	 0.00000000E+00
	-1.26975000E+02	-1.57577000E+03	 0.00000000E+00
	 3.45025000E+02	-1.57577000E+03	 0.00000000E+00
	-7.89460000E+02	-1.53435000E+03	 0.00000000E+00
	-6.94345000E+02	-1.58014000E+03	 0.00000000E+00
	 6.94345000E+02	-1.58014000E+03	 0.00000000E+00
	-3.54286000E+02	-1.68862000E+03	 0.00000000E+00
	 2.85786000E+02	-1.66836000E+03	 0.00000000E+00
	 3.97484000E+02	-1.55017000E+03	 0.00000000E+00
	 4.81344000E+01	-1.59460000E+03	 0.00000000E+00
	-4.78695000E+01	-1.59458000E+03	 0.00000000E+00
	-2.84149000E+02	-1.59474000E+03	 0.00000000E+00
	 1.88108000E+02	-1.59458000E+03	 0.00000000E+00
	-1.88284000E+02	-1.59450000E+03	 0.00000000E+00
	 4.14791000E+02	-1.67013000E+03	 0.00000000E+00
	-8.83667000E+01	-1.68213000E+03	 0.00000000E+00
	 7.54698000E+02	-1.47692000E+03	 0.00000000E+00
	-3.97476000E+02	-1.55017000E+03	 0.00000000E+00
	 1.08931000E+02	-1.57565000E+03	 0.00000000E+00
	-3.15242000E+02	-1.55192000E+03	 0.00000000E+00
	 1.56758000E+02	-1.55192000E+03	 0.00000000E+00
	-7.92423000E+01	-1.55192000E+03	 0.00000000E+00
	 4.00907000E+01	-1.73046000E+03	 0.00000000E+00
	-6.40422000E+02	-1.59396000E+03	 0.00000000E+00
	 6.40422000E+02	-1.59396000E+03	 0.00000000E+00
	 2.66825000E+02	-1.52492000E+03	 0.00000000E+00
	-2.05176000E+02	-1.52492000E+03	 0.00000000E+00
	 4.65637000E+02	-1.54281000E+03	 0.00000000E+00
	 4.98243000E+02	-1.61873000E+03	 0.00000000E+00
	 2.81707000E+02	-1.58757000E+03	 0.00000000E+00
	-1.71586000E+02	-1.54361000E+03	 0.00000000E+00
	 3.00414000E+02	-1.54361000E+03	 0.00000000E+00
	-4.30263000E+02	-1.65772000E+03	 0.00000000E+00
	 4.30519000E+02	-1.65734000E+03	 0.00000000E+00
	 3.59631000E+02	-1.63976000E+03	 0.00000000E+00
	 7.37133000E+02	-1.41724000E+03	 0.00000000E+00
	-7.37133000E+02	-1.41724000E+03	 0.00000000E+00
	 1.79747000E+02	-1.67094000E+03	 0.00000000E+00
	 7.35680000E+02	-1.40051000E+03	 0.00000000E+00
	-7.35680000E+02	-1.40051000E+03	 0.00000000E+00
	-8.05378000E+01	-1.72919000E+03	 0.00000000E+00
	 3.92754000E+02	-1.55291000E+03	 0.00000000E+00
	-1.90059000E+02	-1.58601000E+03	 0.00000000E+00
	-4.97458000E+02	-1.62396000E+03	 0.00000000E+00
	 2.90169000E+02	-1.67317000E+03	 0.00000000E+00
	-3.75805000E+02	-1.68484000E+03	 0.00000000E+00
	-3.92844000E+02	-1.55295000E+03	 0.00000000E+00
	 6.44206000E+01	-1.54360000E+03	 0.00000000E+00
	 7.63144000E+02	-1.33847000E+03	 0.00000000E+00
	-7.61926000E+02	-1.55456000E+03	 0.00000000E+00
	 3.92259000E+02	-1.55817000E+03	 0.00000000E+00
	 3.29007000E+02	-1.67116000E+03	 0.00000000E+00
	-6.33312000E+02	-1.58986000E+03	 0.00000000E+00
	 6.33312000E+02	-1.58986000E+03	 0.00000000E+00
	 2.57937000E+01	-1.52555000E+03	 0.00000000E+00
	-7.16656000E+02	-1.49658000E+03	 0.00000000E+00
	 7.16655000E+02	-1.49658000E+03	 0.00000000E+00
	 1.92468000E+02	-1.66319000E+03	 0.00000000E+00
	-3.92543000E+02	-1.55811000E+03	 0.00000000E+00
	 3.82838000E+02	-1.55812000E+03	 0.00000000E+00
	-2.18900000E+02	-1.62635000E+03	 0.00000000E+00
	-7.63377000E+02	-1.33840000E+03	 0.00000000E+00
	-9.89960000E+01	-1.56905000E+03	 0.00000000E+00
	 1.37004000E+02	-1.56905000E+03	 0.00000000E+00
	-3.34996000E+02	-1.56905000E+03	 0.00000000E+00
	 1.74413000E+02	-1.72168000E+03	 0.00000000E+00
	-1.06846000E+02	-1.72282000E+03	 0.00000000E+00
	 8.17531000E+02	-1.47719000E+03	 0.00000000E+00
	-3.87640000E+02	-1.56097000E+03	 0.00000000E+00
	 1.16729000E+01	-1.51968000E+03	 0.00000000E+00
	 9.55097000E+01	-1.66659000E+03	 0.00000000E+00
	-3.42397000E+02	-1.66516000E+03	 0.00000000E+00
	 4.92449000E+02	-1.54695000E+03	 0.00000000E+00
	 7.16167000E+01	-1.59028000E+03	 0.00000000E+00
	 4.47587000E+01	-1.68000000E+03	 0.00000000E+00
	-7.51876000E+02	-1.47234000E+03	 0.00000000E+00
	 8.36979000E+02	-1.47781000E+03	 0.00000000E+00
	-2.20597000E+02	-1.51533000E+03	 0.00000000E+00
	 2.51403000E+02	-1.51533000E+03	 0.00000000E+00
	-8.36979000E+02	-1.47781000E+03	 0.00000000E+00
	-4.90462000E+02	-1.62882000E+03	 0.00000000E+00
	-7.16430000E+02	-1.41708000E+03	 0.00000000E+00
	 7.16429000E+02	-1.41708000E+03	 0.00000000E+00
	 4.34462000E+01	-1.57670000E+03	 0.00000000E+00
	 1.91508000E+01	-1.51813000E+03	 0.00000000E+00
	-2.89809000E+02	-1.67273000E+03	 0.00000000E+00
	-2.24108000E+02	-1.53835000E+03	 0.00000000E+00
	 1.01160000E+02	-1.59221000E+03	 0.00000000E+00
	-1.49800000E+02	-1.72454000E+03	 0.00000000E+00
	 4.20473000E+02	-1.56843000E+03	 0.00000000E+00
	-5.10450000E+02	-1.60760000E+03	 0.00000000E+00
	-3.82397000E+02	-1.56389000E+03	 0.00000000E+00
	-3.35977000E+02	-1.69360000E+03	 0.00000000E+00
	 4.41555000E+02	-1.55151000E+03	 0.00000000E+00
	-6.37338000E+01	-1.67245000E+03	 0.00000000E+00
	 4.36238000E+02	-1.67550000E+03	 0.00000000E+00
	-4.36169000E+02	-1.67571000E+03	 0.00000000E+00
	-3.73000000E+02	-1.56356000E+03	 0.00000000E+00
	 3.07619000E+02	-1.59032000E+03	 0.00000000E+00
	-1.64381000E+02	-1.59032000E+03	 0.00000000E+00
	 3.77999000E+02	-1.56099000E+03	 0.00000000E+00
	 4.84336000E+02	-1.63186000E+03	 0.00000000E+00
	-9.13761000E+01	-1.68703000E+03	 0.00000000E+00
	 2.79433000E+02	-1.57672000E+03	 0.00000000E+00
	-7.91782000E+01	-1.68464000E+03	 0.00000000E+00
	-2.90835000E+02	-1.70162000E+03	 0.00000000E+00
	 4.33182000E+02	-1.60290000E+03	 0.00000000E+00
	-4.33091000E+02	-1.60282000E+03	 0.00000000E+00
	 3.77631000E+02	-1.56651000E+03	 0.00000000E+00
	 7.16699000E+02	-1.48565000E+03	 0.00000000E+00
	 3.37141000E+02	-1.59227000E+03	 0.00000000E+00
	-1.34859000E+02	-1.59227000E+03	 0.00000000E+00
	-3.89016000E+01	-1.65490000E+03	 0.00000000E+00
	 2.71897000E+02	-1.61161000E+03	 0.00000000E+00
	 5.11689000E+02	-1.60460000E+03	 0.00000000E+00
	-1.68003000E+02	-1.72322000E+03	 0.00000000E+00
	-7.78776000E+02	-1.48767000E+03	 0.00000000E+00
	 3.72916000E+02	-1.56928000E+03	 0.00000000E+00
	 7.07204000E+02	-1.51225000E+03	 0.00000000E+00
	-7.16809000E+02	-1.44603000E+03	 0.00000000E+00
	-3.68047000E+02	-1.56634000E+03	 0.00000000E+00
	 7.16809000E+02	-1.44604000E+03	 0.00000000E+00
	-7.07205000E+02	-1.51226000E+03	 0.00000000E+00
	-2.98982000E+00	-1.72562000E+03	 0.00000000E+00
	-8.67382000E+01	-1.68643000E+03	 0.00000000E+00
	 3.42869000E+02	-1.66406000E+03	 0.00000000E+00
	 2.36870000E+02	-1.54120000E+03	 0.00000000E+00
	 1.16031000E+02	-1.72761000E+03	 0.00000000E+00
	 4.30650000E+02	-1.56296000E+03	 0.00000000E+00
	-7.16704000E+02	-1.48576000E+03	 0.00000000E+00
	 1.81152000E+02	-1.59114000E+03	 0.00000000E+00
	-5.48477000E+01	-1.59114000E+03	 0.00000000E+00
	 3.68042000E+02	-1.57200000E+03	 0.00000000E+00
	 5.14956000E+02	-1.57670000E+03	 0.00000000E+00
	-5.14956000E+02	-1.57670000E+03	 0.00000000E+00
	-7.32126000E+02	-1.36225000E+03	 0.00000000E+00
	-2.61819000E+02	-1.70617000E+03	 0.00000000E+00
	 8.33551000E+01	-1.68442000E+03	 0.00000000E+00
	-3.67523000E+02	-1.57232000E+03	 0.00000000E+00
	 4.22963000E+02	-1.58139000E+03	 0.00000000E+00
	 1.64932000E+02	-1.71849000E+03	 0.00000000E+00
	-1.27566000E+02	-1.72672000E+03	 0.00000000E+00
	 3.96735000E+02	-1.67800000E+03	 0.00000000E+00
	-3.07007000E+02	-1.69838000E+03	 0.00000000E+00
	 7.16589000E+02	-1.37731000E+03	 0.00000000E+00
	 2.65691000E+02	-1.62904000E+03	 0.00000000E+00
	 3.18666000E+02	-1.69657000E+03	 0.00000000E+00
	-7.22291000E+02	-1.36758000E+03	 0.00000000E+00
	 2.12892000E+01	-1.71002000E+03	 0.00000000E+00
	 3.09088000E+00	-1.72595000E+03	 0.00000000E+00
	 3.00769000E+02	-1.69929000E+03	 0.00000000E+00
	-4.65244000E+02	-1.54275000E+03	 0.00000000E+00
	 7.22305000E+02	-1.36758000E+03	 0.00000000E+00
	 4.49076000E+02	-1.66687000E+03	 0.00000000E+00
	-4.49076000E+02	-1.66687000E+03	 0.00000000E+00
	-1.26113000E+02	-1.65181000E+03	 0.00000000E+00
	-1.11954000E+02	-1.67832000E+03	 0.00000000E+00
	-6.72863000E+02	-1.53216000E+03	 0.00000000E+00
	 3.06541000E+02	-1.69838000E+03	 0.00000000E+00
	 3.67682000E+02	-1.57827000E+03	 0.00000000E+00
	-3.63053000E+02	-1.57506000E+03	 0.00000000E+00
	 6.72857000E+02	-1.53217000E+03	 0.00000000E+00
	-2.87015000E+02	-1.59124000E+03	 0.00000000E+00
	 1.97846000E+01	-1.54638000E+03	 0.00000000E+00
	 2.95051000E+02	-1.70028000E+03	 0.00000000E+00
	 6.48040000E+02	-1.54653000E+03	 0.00000000E+00
	-6.48041000E+02	-1.54653000E+03	 0.00000000E+00
	 6.38171000E+02	-1.55203000E+03	 0.00000000E+00
	-1.57702000E+02	-1.72354000E+03	 0.00000000E+00
	 2.89508000E+02	-1.70137000E+03	 0.00000000E+00
	 3.10592000E+02	-1.70248000E+03	 0.00000000E+00
	 1.78655000E+02	-1.58731000E+03	 0.00000000E+00
	-5.73448000E+01	-1.58731000E+03	 0.00000000E+00
	-6.38193000E+02	-1.55202000E+03	 0.00000000E+00
	 4.34614000E+02	-1.55520000E+03	 0.00000000E+00
	-2.10524000E+02	-1.71359000E+03	 0.00000000E+00
	 6.65498000E+01	-1.72511000E+03	 0.00000000E+00
	 2.76634000E+02	-1.70861000E+03	 0.00000000E+00
	-7.82914000E+02	-1.54442000E+03	 0.00000000E+00
	 7.82914000E+02	-1.54442000E+03	 0.00000000E+00
	-1.91945000E+02	-1.53793000E+03	 0.00000000E+00
	 2.80055000E+02	-1.53793000E+03	 0.00000000E+00
	 6.69752000E+01	-1.58600000E+03	 0.00000000E+00
	 3.67671000E+02	-1.58386000E+03	 0.00000000E+00
	-7.16844000E+02	-1.42771000E+03	 0.00000000E+00
	 7.16844000E+02	-1.42771000E+03	 0.00000000E+00
	-7.12230000E+02	-1.40999000E+03	 0.00000000E+00
	 7.12230000E+02	-1.40999000E+03	 0.00000000E+00
	-5.02618000E+01	-1.59080000E+03	 0.00000000E+00
	 1.85738000E+02	-1.59080000E+03	 0.00000000E+00
	 2.84216000E+02	-1.70276000E+03	 0.00000000E+00
	 7.83928000E+02	-1.48764000E+03	 0.00000000E+00
	-3.53091000E+01	-1.60887000E+03	 0.00000000E+00
	 3.52598000E+01	-1.64907000E+03	 0.00000000E+00
	 8.45335000E+02	-1.47239000E+03	 0.00000000E+00
	-8.45335000E+02	-1.47239000E+03	 0.00000000E+00
	 7.57534000E+02	-1.34726000E+03	 0.00000000E+00
	-5.06118000E+02	-1.62030000E+03	 0.00000000E+00
	-3.62996000E+02	-1.58068000E+03	 0.00000000E+00
	-3.86246000E+02	-1.58222000E+03	 0.00000000E+00
	-5.15443000E+02	-1.59081000E+03	 0.00000000E+00
	 5.15470000E+02	-1.59081000E+03	 0.00000000E+00
	-1.44046000E+02	-1.56544000E+03	 0.00000000E+00
	 3.27954000E+02	-1.56544000E+03	 0.00000000E+00
	-3.59192000E+02	-1.60633000E+03	 0.00000000E+00
	 1.12808000E+02	-1.60633000E+03	 0.00000000E+00
	-7.16529000E+02	-1.37729000E+03	 0.00000000E+00
	 4.40957000E+01	-1.53791000E+03	 0.00000000E+00
	 5.01434000E+02	-1.54560000E+03	 0.00000000E+00
	-5.01342000E+02	-1.54535000E+03	 0.00000000E+00
	 3.24196000E+02	-1.69584000E+03	 0.00000000E+00
	-3.54297000E+02	-1.63257000E+03	 0.00000000E+00
	 6.15466000E+01	-1.58741000E+03	 0.00000000E+00
	 5.85437000E+02	-1.62385000E+03	 0.00000000E+00
	-5.85437000E+02	-1.62385000E+03	 0.00000000E+00
	-4.60474000E+02	-1.63362000E+03	 0.00000000E+00
	-7.11458000E+02	-1.46553000E+03	 0.00000000E+00
	 7.11458000E+02	-1.46553000E+03	 0.00000000E+00
	 3.02943000E+02	-1.58602000E+03	 0.00000000E+00
	-1.69057000E+02	-1.58602000E+03	 0.00000000E+00
	 6.82291000E+02	-1.52679000E+03	 0.00000000E+00
	-6.82287000E+02	-1.52679000E+03	 0.00000000E+00
	-4.36787000E+02	-1.61163000E+03	 0.00000000E+00
	-3.96739000E+01	-1.60291000E+03	 0.00000000E+00
	 4.36939000E+02	-1.61129000E+03	 0.00000000E+00
	 1.96836000E+02	-1.60313000E+03	 0.00000000E+00
	-2.75164000E+02	-1.60313000E+03	 0.00000000E+00
	 3.53020000E+01	-1.61109000E+03	 0.00000000E+00
	 3.95032000E+01	-1.60299000E+03	 0.00000000E+00
	-3.49988000E+02	-1.60044000E+03	 0.00000000E+00
	 1.21982000E+02	-1.60044000E+03	 0.00000000E+00
	-3.73752000E+02	-1.66638000E+03	 0.00000000E+00
	 8.08164000E+02	-1.49261000E+03	 0.00000000E+00
	-1.15145000E+02	-1.64489000E+03	 0.00000000E+00
	-3.63025000E+02	-1.58650000E+03	 0.00000000E+00
	-8.08024000E+02	-1.49238000E+03	 0.00000000E+00
	-1.74386000E+02	-1.58743000E+03	 0.00000000E+00
	 2.15432000E+02	-1.54145000E+03	 0.00000000E+00
	-2.56568000E+02	-1.54145000E+03	 0.00000000E+00
	-1.94256000E+02	-1.60025000E+03	 0.00000000E+00
	 9.19738000E+01	-1.56540000E+03	 0.00000000E+00
	 7.31932000E+02	-1.36237000E+03	 0.00000000E+00
	-1.87274000E+01	-1.52354000E+03	 0.00000000E+00
	 2.71206000E+02	-1.70941000E+03	 0.00000000E+00
	 3.27164000E+02	-1.69974000E+03	 0.00000000E+00
	 3.35756000E+02	-1.69354000E+03	 0.00000000E+00
	 7.61544000E+02	-1.45881000E+03	 0.00000000E+00
	 7.31211000E+02	-1.40760000E+03	 0.00000000E+00
	-7.31211000E+02	-1.40760000E+03	 0.00000000E+00
	-1.50523000E+02	-1.68712000E+03	 0.00000000E+00
	 7.72634000E+02	-1.54374000E+03	 0.00000000E+00
	-7.72644000E+02	-1.54374000E+03	 0.00000000E+00
	-3.71684000E+02	-1.59097000E+03	 0.00000000E+00
	-2.77349000E+02	-1.70927000E+03	 0.00000000E+00
	 4.70723000E+02	-1.62894000E+03	 0.00000000E+00
	-1.45526000E+02	-1.67532000E+03	 0.00000000E+00
	-4.20265000E+01	-1.73029000E+03	 0.00000000E+00
	-2.03520000E+02	-1.63854000E+03	 0.00000000E+00
	 7.47597000E+02	-1.35294000E+03	 0.00000000E+00
	-4.70370000E+02	-1.62915000E+03	 0.00000000E+00
	 7.76124000E+02	-1.46844000E+03	 0.00000000E+00
	-7.55007000E+02	-1.46529000E+03	 0.00000000E+00
	-3.66342000E+01	-1.61885000E+03	 0.00000000E+00
	 7.11294000E+02	-1.50510000E+03	 0.00000000E+00
	-7.11294000E+02	-1.50510000E+03	 0.00000000E+00
	-3.42981000E+01	-1.73110000E+03	 0.00000000E+00
	-1.91114000E+02	-1.72106000E+03	 0.00000000E+00
	-4.26849000E+02	-1.56507000E+03	 0.00000000E+00
	 1.50219000E+02	-1.67185000E+03	 0.00000000E+00
	 3.53011000E+02	-1.61333000E+03	 0.00000000E+00
	 2.14372000E+02	-1.63538000E+03	 0.00000000E+00
	-4.16634000E+02	-1.58957000E+03	 0.00000000E+00
	-2.25667000E+02	-1.71679000E+03	 0.00000000E+00
	-6.49253000E+02	-1.59890000E+03	 0.00000000E+00
	 6.49253000E+02	-1.59890000E+03	 0.00000000E+00
	-2.56488000E+02	-1.51787000E+03	 0.00000000E+00
	 2.15512000E+02	-1.51787000E+03	 0.00000000E+00
	-4.27650000E+02	-1.67203000E+03	 0.00000000E+00
	-3.46879000E+02	-1.65182000E+03	 0.00000000E+00
	-7.51758000E+02	-1.55997000E+03	 0.00000000E+00
	 7.51758000E+02	-1.55997000E+03	 0.00000000E+00
	 1.47661000E+02	-1.66794000E+03	 0.00000000E+00
	-7.72746000E+02	-1.34590000E+03	 0.00000000E+00
	 7.72800000E+02	-1.34590000E+03	 0.00000000E+00
	 2.56310000E+02	-1.62293000E+03	 0.00000000E+00
	-2.05284000E+02	-1.62738000E+03	 0.00000000E+00
	-3.11467000E+02	-1.67180000E+03	 0.00000000E+00
	 2.81921000E+02	-1.60191000E+03	 0.00000000E+00
	 7.65621000E+02	-1.49216000E+03	 0.00000000E+00
	-1.92615000E+02	-1.57637000E+03	 0.00000000E+00
	 8.88310000E+01	-1.66911000E+03	 0.00000000E+00
	 1.21970000E+02	-1.64577000E+03	 0.00000000E+00
	 2.67549000E+02	-1.70571000E+03	 0.00000000E+00
	-2.97564000E+02	-1.67372000E+03	 0.00000000E+00
	 1.59239000E+02	-1.71961000E+03	 0.00000000E+00
	 5.10168000E+02	-1.64949000E+03	 0.00000000E+00
	-5.10168000E+02	-1.64949000E+03	 0.00000000E+00
	-6.09620000E+02	-1.61474000E+03	 0.00000000E+00
	 6.09620000E+02	-1.61474000E+03	 0.00000000E+00
	-4.85898000E+02	-1.63786000E+03	 0.00000000E+00
	 5.54572000E+02	-1.63494000E+03	 0.00000000E+00
	-5.54572000E+02	-1.63494000E+03	 0.00000000E+00
	-6.63793000E+02	-1.53781000E+03	 0.00000000E+00
	 6.63792000E+02	-1.53781000E+03	 0.00000000E+00
	 8.40988000E+02	-1.46425000E+03	 0.00000000E+00
	 5.01977000E+02	-1.55332000E+03	 0.00000000E+00
	-5.01953000E+02	-1.55329000E+03	 0.00000000E+00
	 3.41299000E+02	-1.69273000E+03	 0.00000000E+00
	-3.40324000E+02	-1.59454000E+03	 0.00000000E+00
	 1.31674000E+02	-1.59454000E+03	 0.00000000E+00
	-1.04172000E+02	-1.59474000E+03	 0.00000000E+00
	-7.41459000E+02	-1.55914000E+03	 0.00000000E+00
	 7.41459000E+02	-1.55914000E+03	 0.00000000E+00
	 3.48177000E+01	-1.73134000E+03	 0.00000000E+00
	 6.40473000E+02	-1.60870000E+03	 0.00000000E+00
	-6.40473000E+02	-1.60870000E+03	 0.00000000E+00
	-8.69080000E+00	-1.72665000E+03	 0.00000000E+00
	 2.28635000E+02	-1.54323000E+03	 0.00000000E+00
	-2.43360000E+02	-1.54327000E+03	 0.00000000E+00
	-7.17074000E+02	-1.47559000E+03	 0.00000000E+00
	 7.17074000E+02	-1.47559000E+03	 0.00000000E+00
	-3.53171000E+01	-1.53223000E+03	 0.00000000E+00
	-3.49990000E+02	-1.63870000E+03	 0.00000000E+00
	 4.62049000E+02	-1.63307000E+03	 0.00000000E+00
	-8.18538000E+02	-1.47852000E+03	 0.00000000E+00
	-7.11308000E+02	-1.43697000E+03	 0.00000000E+00
	-3.39818000E+02	-1.58336000E+03	 0.00000000E+00
	 1.32181000E+02	-1.58336000E+03	 0.00000000E+00
	-1.03818000E+02	-1.58336000E+03	 0.00000000E+00
	 3.46903000E+02	-1.60510000E+03	 0.00000000E+00
	 8.18430000E+01	-1.58644000E+03	 0.00000000E+00
	-6.62348000E+02	-1.59408000E+03	 0.00000000E+00
	 6.62348000E+02	-1.59408000E+03	 0.00000000E+00
	-1.72781000E+02	-1.67525000E+03	 0.00000000E+00
	-5.11147000E+02	-1.60277000E+03	 0.00000000E+00
	 7.11302000E+02	-1.43697000E+03	 0.00000000E+00
	-4.96726000E+02	-1.54323000E+03	 0.00000000E+00
	-2.63257000E+02	-1.63305000E+03	 0.00000000E+00
	-4.26500000E+01	-1.65775000E+03	 0.00000000E+00
	 2.68141000E+02	-1.61432000E+03	 0.00000000E+00
	-1.05741000E+02	-1.66291000E+03	 0.00000000E+00
	 8.22923000E+02	-1.52311000E+03	 0.00000000E+00
	-8.22923000E+02	-1.52311000E+03	 0.00000000E+00
	-5.89290000E+01	-1.72498000E+03	 0.00000000E+00
	-8.03641000E+02	-1.52831000E+03	 0.00000000E+00
	 8.03641000E+02	-1.52831000E+03	 0.00000000E+00
	 4.10081000E+02	-1.58027000E+03	 0.00000000E+00
	 2.62146000E+02	-1.70661000E+03	 0.00000000E+00
	 2.85531000E+02	-1.59245000E+03	 0.00000000E+00
	-8.40988000E+02	-1.46439000E+03	 0.00000000E+00
	 1.39534000E+01	-1.62554000E+03	 0.00000000E+00
	 8.60602000E+01	-1.67702000E+03	 0.00000000E+00
	-7.42419000E+02	-1.35565000E+03	 0.00000000E+00
	 4.40218000E+01	-1.58687000E+03	 0.00000000E+00
	 2.05380000E+02	-1.64282000E+03	 0.00000000E+00
	-7.38447000E+01	-1.58544000E+03	 0.00000000E+00
	 1.62155000E+02	-1.58544000E+03	 0.00000000E+00
	-3.10012000E+02	-1.58543000E+03	 0.00000000E+00
	 1.42595000E+02	-1.66919000E+03	 0.00000000E+00
	 4.28258000E+02	-1.60040000E+03	 0.00000000E+00
	 3.17729000E+02	-1.58651000E+03	 0.00000000E+00
	-1.54271000E+02	-1.58651000E+03	 0.00000000E+00
	-7.80084000E+02	-1.46537000E+03	 0.00000000E+00
	-3.29705000E+02	-1.66883000E+03	 0.00000000E+00
	-1.81184000E+02	-1.66508000E+03	 0.00000000E+00
	 6.98281000E+02	-1.51788000E+03	 0.00000000E+00
	-6.98281000E+02	-1.51788000E+03	 0.00000000E+00
	 4.69925000E+02	-1.66678000E+03	 0.00000000E+00
	-4.69926000E+02	-1.66678000E+03	 0.00000000E+00
	-3.28916000E+02	-1.58607000E+03	 0.00000000E+00
	 1.43084000E+02	-1.58607000E+03	 0.00000000E+00
	-9.29162000E+01	-1.58607000E+03	 0.00000000E+00
	 3.73858000E+01	-1.56293000E+03	 0.00000000E+00
	-5.81883000E+00	-1.51504000E+03	 0.00000000E+00
	 8.12664000E+02	-1.48659000E+03	 0.00000000E+00
	-2.91047000E+02	-1.54331000E+03	 0.00000000E+00
	 1.80953000E+02	-1.54331000E+03	 0.00000000E+00
	 3.85729000E+02	-1.58206000E+03	 0.00000000E+00
	-5.50469000E+01	-1.54331000E+03	 0.00000000E+00
	-4.89322000E+02	-1.65527000E+03	 0.00000000E+00
	 4.89321000E+02	-1.65527000E+03	 0.00000000E+00
	-1.57352000E+02	-1.68248000E+03	 0.00000000E+00
	-7.18471000E+02	-1.56906000E+03	 0.00000000E+00
	 7.18471000E+02	-1.56906000E+03	 0.00000000E+00
	-4.20188000E+02	-1.56821000E+03	 0.00000000E+00
	-1.27189000E+02	-1.65669000E+03	 0.00000000E+00
	 8.21650000E+02	-1.48050000E+03	 0.00000000E+00
	-2.41795000E+02	-1.51494000E+03	 0.00000000E+00
	 2.30205000E+02	-1.51494000E+03	 0.00000000E+00
	-4.35088000E+02	-1.55397000E+03	 0.00000000E+00
	-8.12150000E+02	-1.52289000E+03	 0.00000000E+00
	 8.12150000E+02	-1.52289000E+03	 0.00000000E+00
	-2.45079000E+02	-1.70917000E+03	 0.00000000E+00
	 7.66980000E+02	-1.33540000E+03	 0.00000000E+00
	-7.11326000E+02	-1.38604000E+03	 0.00000000E+00
	 7.11328000E+02	-1.38604000E+03	 0.00000000E+00
	-7.66980000E+02	-1.33540000E+03	 0.00000000E+00
	 2.73380000E+02	-1.56303000E+03	 0.00000000E+00
	-1.98620000E+02	-1.56302000E+03	 0.00000000E+00
	 1.10288000E+02	-1.72214000E+03	 0.00000000E+00
	-9.10130000E+00	-1.53801000E+03	 0.00000000E+00
	 2.77832000E+02	-1.58922000E+03	 0.00000000E+00
	 2.56429000E+02	-1.70749000E+03	 0.00000000E+00
	-2.55502000E+02	-1.62166000E+03	 0.00000000E+00
	 3.44303000E+02	-1.69645000E+03	 0.00000000E+00
	-2.00496000E+02	-1.60907000E+03	 0.00000000E+00
	 2.00151000E+02	-1.60900000E+03	 0.00000000E+00
	 3.85762000E+01	-1.65234000E+03	 0.00000000E+00
	-2.71849000E+02	-1.60900000E+03	 0.00000000E+00
	 5.00947000E+02	-1.62304000E+03	 0.00000000E+00
	 1.90105000E+02	-1.65530000E+03	 0.00000000E+00
	-3.22170000E+02	-1.69533000E+03	 0.00000000E+00
	-3.78510000E+02	-1.59416000E+03	 0.00000000E+00
	-1.42363000E+02	-1.59402000E+03	 0.00000000E+00
	 3.29637000E+02	-1.59402000E+03	 0.00000000E+00
	 9.36375000E+01	-1.59401000E+03	 0.00000000E+00
	 5.01196000E+02	-1.55814000E+03	 0.00000000E+00
	-5.01197000E+02	-1.55813000E+03	 0.00000000E+00
	 7.64413000E+02	-1.35131000E+03	 0.00000000E+00
	-3.41047000E+02	-1.66036000E+03	 0.00000000E+00
	-7.09921000E+02	-1.57383000E+03	 0.00000000E+00
	 7.09921000E+02	-1.57383000E+03	 0.00000000E+00
	-1.76810000E+01	-1.55060000E+03	 0.00000000E+00
	 3.51984000E+02	-1.69007000E+03	 0.00000000E+00
	-8.84800000E+01	-1.72857000E+03	 0.00000000E+00
	-7.54122000E+02	-1.47722000E+03	 0.00000000E+00
	 5.01043000E+01	-1.59124000E+03	 0.00000000E+00
	-1.86151000E+02	-1.59080000E+03	 0.00000000E+00
	-4.34728000E+02	-1.56822000E+03	 0.00000000E+00
	-7.16927000E+02	-1.39594000E+03	 0.00000000E+00
	 7.16927000E+02	-1.39594000E+03	 0.00000000E+00
	 4.02135000E+02	-1.59015000E+03	 0.00000000E+00
	-3.17374000E+02	-1.55959000E+03	 0.00000000E+00
	 1.54627000E+02	-1.55959000E+03	 0.00000000E+00
	-8.13735000E+01	-1.55959000E+03	 0.00000000E+00
	 1.33673000E+02	-1.56595000E+03	 0.00000000E+00
	-1.02327000E+02	-1.56595000E+03	 0.00000000E+00
	-3.38327000E+02	-1.56595000E+03	 0.00000000E+00
	 5.22226000E+02	-1.58732000E+03	 0.00000000E+00
	-5.22226000E+02	-1.58732000E+03	 0.00000000E+00
	-4.77415000E+02	-1.62410000E+03	 0.00000000E+00
	-3.54088000E+02	-1.63722000E+03	 0.00000000E+00
	-8.12905000E+02	-1.48674000E+03	 0.00000000E+00
	 1.04113000E+02	-1.59564000E+03	 0.00000000E+00
	 7.56982000E+02	-1.48185000E+03	 0.00000000E+00
	-2.51814000E+02	-1.63608000E+03	 0.00000000E+00
	 1.14001000E+02	-1.64573000E+03	 0.00000000E+00
	-7.58694000E+02	-1.34706000E+03	 0.00000000E+00
	 3.86928000E+02	-1.67233000E+03	 0.00000000E+00
	 3.71326000E+02	-1.59611000E+03	 0.00000000E+00
	 2.74845000E+02	-1.60244000E+03	 0.00000000E+00
	-3.54971000E+01	-1.64570000E+03	 0.00000000E+00
	 3.44802000E+02	-1.59459000E+03	 0.00000000E+00
	-1.27122000E+02	-1.59453000E+03	 0.00000000E+00
	 1.08942000E+02	-1.59451000E+03	 0.00000000E+00
	 3.59167000E+02	-1.69009000E+03	 0.00000000E+00
	 7.96366000E+02	-1.48789000E+03	 0.00000000E+00
	-7.83948000E+02	-1.48819000E+03	 0.00000000E+00
	 4.33202000E+02	-1.58111000E+03	 0.00000000E+00
	 2.50548000E+02	-1.70830000E+03	 0.00000000E+00
	 1.69797000E+02	-1.67921000E+03	 0.00000000E+00
	 4.60909000E+02	-1.64073000E+03	 0.00000000E+00
	-6.29331000E+02	-1.55745000E+03	 0.00000000E+00
	 3.67638000E+02	-1.59603000E+03	 0.00000000E+00
	-4.16195000E+01	-1.58263000E+03	 0.00000000E+00
	 1.94380000E+02	-1.58263000E+03	 0.00000000E+00
	-2.77646000E+02	-1.58264000E+03	 0.00000000E+00
	-3.40281000E+02	-1.58907000E+03	 0.00000000E+00
	-1.04259000E+02	-1.58910000E+03	 0.00000000E+00
	 1.31715000E+02	-1.58907000E+03	 0.00000000E+00
	 6.29353000E+02	-1.55742000E+03	 0.00000000E+00
	-4.33952000E+02	-1.59380000E+03	 0.00000000E+00
	-8.22249000E+02	-1.48090000E+03	 0.00000000E+00
	 2.00068000E+02	-1.63064000E+03	 0.00000000E+00
	-2.72107000E+02	-1.63048000E+03	 0.00000000E+00
	-2.41412000E+02	-1.62412000E+03	 0.00000000E+00
	-4.58149000E+02	-1.62180000E+03	 0.00000000E+00
	 3.92619000E+01	-1.69151000E+03	 0.00000000E+00
	-3.03084000E+02	-1.66715000E+03	 0.00000000E+00
	 5.17386000E+02	-1.56718000E+03	 0.00000000E+00
	-5.17386000E+02	-1.56718000E+03	 0.00000000E+00
	-5.51007000E+00	-1.71071000E+03	 0.00000000E+00
	 2.58795000E+01	-1.63828000E+03	 0.00000000E+00
	-1.31242000E+02	-1.57276000E+03	 0.00000000E+00
	 3.40758000E+02	-1.57276000E+03	 0.00000000E+00
	 3.67661000E+02	-1.58855000E+03	 0.00000000E+00
	 3.79548000E+02	-1.58647000E+03	 0.00000000E+00
	 6.11333000E+01	-1.72548000E+03	 0.00000000E+00
	-4.25402000E+01	-1.67553000E+03	 0.00000000E+00
	 2.23527000E+02	-1.54049000E+03	 0.00000000E+00
	-2.48473000E+02	-1.54049000E+03	 0.00000000E+00
	 3.40030000E+02	-1.59565000E+03	 0.00000000E+00
	-1.31895000E+02	-1.59570000E+03	 0.00000000E+00
	-2.26341000E+02	-1.63352000E+03	 0.00000000E+00
	-7.75733000E+01	-1.67445000E+03	 0.00000000E+00
	-7.46348000E+02	-1.34855000E+03	 0.00000000E+00
	-3.64793000E+02	-1.68788000E+03	 0.00000000E+00
	 3.88967000E+02	-1.67703000E+03	 0.00000000E+00
	 2.03124000E+02	-1.54912000E+03	 0.00000000E+00
	-2.68876000E+02	-1.54912000E+03	 0.00000000E+00
	-2.76302000E+02	-1.52897000E+03	 0.00000000E+00
	 1.95698000E+02	-1.52897000E+03	 0.00000000E+00
	 6.91422000E+02	-1.52203000E+03	 0.00000000E+00
	-6.91422000E+02	-1.52203000E+03	 0.00000000E+00
	 7.56215000E+02	-1.45326000E+03	 0.00000000E+00
	-1.12159000E+02	-1.72295000E+03	 0.00000000E+00
	-1.74156000E+01	-1.63090000E+03	 0.00000000E+00
	-2.18381000E+02	-1.54369000E+03	 0.00000000E+00
	 2.71775000E+02	-1.64603000E+03	 0.00000000E+00
	 1.57913000E+02	-1.72398000E+03	 0.00000000E+00
	-3.46108000E+02	-1.57607000E+03	 0.00000000E+00
	 1.25892000E+02	-1.57607000E+03	 0.00000000E+00
	-1.10108000E+02	-1.57607000E+03	 0.00000000E+00
	-4.26468000E+02	-1.66223000E+03	 0.00000000E+00
	 1.04773000E+02	-1.57271000E+03	 0.00000000E+00
	-7.57363000E+02	-1.46159000E+03	 0.00000000E+00
	-8.26210000E+02	-1.47786000E+03	 0.00000000E+00
	 8.26022000E+02	-1.47765000E+03	 0.00000000E+00
	-4.20135000E+02	-1.67412000E+03	 0.00000000E+00
	 6.15994000E+01	-1.66828000E+03	 0.00000000E+00
	-3.62473000E+02	-1.65182000E+03	 0.00000000E+00
	-1.61566000E+02	-1.67042000E+03	 0.00000000E+00
	 3.71862000E+02	-1.66185000E+03	 0.00000000E+00
	-3.79631000E+02	-1.58645000E+03	 0.00000000E+00
	 2.45350000E+02	-1.70933000E+03	 0.00000000E+00
	 3.90105000E+02	-1.66942000E+03	 0.00000000E+00
	-1.79887000E+02	-1.54452000E+03	 0.00000000E+00
	 2.92099000E+02	-1.54455000E+03	 0.00000000E+00
	 4.11092000E+02	-1.66804000E+03	 0.00000000E+00
	-1.14711000E+02	-1.60723000E+03	 0.00000000E+00
	 5.07379000E+02	-1.61922000E+03	 0.00000000E+00
	-1.91338000E+02	-1.66202000E+03	 0.00000000E+00
	-7.94239000E+02	-1.53344000E+03	 0.00000000E+00
	 7.94240000E+02	-1.53344000E+03	 0.00000000E+00
	-1.82604000E+01	-1.71600000E+03	 0.00000000E+00
	 6.43186000E+01	-1.67752000E+03	 0.00000000E+00
	 5.61143000E+01	-1.54452000E+03	 0.00000000E+00
	 1.91378000E+02	-1.66792000E+03	 0.00000000E+00
	 5.36596000E+02	-1.64656000E+03	 0.00000000E+00
	-5.36596000E+02	-1.64656000E+03	 0.00000000E+00
	 1.93092000E+02	-1.58724000E+03	 0.00000000E+00
	-4.29084000E+01	-1.58724000E+03	 0.00000000E+00
	-2.78962000E+02	-1.58727000E+03	 0.00000000E+00
	 6.57003000E+02	-1.54184000E+03	 0.00000000E+00
	-6.57003000E+02	-1.54184000E+03	 0.00000000E+00
	-3.94417000E+02	-1.68033000E+03	 0.00000000E+00
	-4.27690000E+02	-1.57755000E+03	 0.00000000E+00
	 2.62848000E+02	-1.62656000E+03	 0.00000000E+00
	 4.25175000E+01	-1.60018000E+03	 0.00000000E+00
	-2.78499000E+02	-1.60024000E+03	 0.00000000E+00
	 1.93486000E+02	-1.60019000E+03	 0.00000000E+00
	-4.24984000E+01	-1.60017000E+03	 0.00000000E+00
	 3.22481000E+01	-1.61394000E+03	 0.00000000E+00
	 2.03143000E+02	-1.61355000E+03	 0.00000000E+00
	-2.03306000E+02	-1.61333000E+03	 0.00000000E+00
	-2.68859000E+02	-1.61355000E+03	 0.00000000E+00
	-2.26862000E+02	-1.63748000E+03	 0.00000000E+00
	 6.33141000E+02	-1.61093000E+03	 0.00000000E+00
	-6.33141000E+02	-1.61093000E+03	 0.00000000E+00
	-2.69999000E+02	-1.63941000E+03	 0.00000000E+00
	-2.94189000E+01	-1.55276000E+03	 0.00000000E+00
	-3.51214000E+02	-1.60810000E+03	 0.00000000E+00
	 1.20785000E+02	-1.60810000E+03	 0.00000000E+00
	 7.41620000E+01	-1.68161000E+03	 0.00000000E+00
	 5.81377000E+02	-1.62589000E+03	 0.00000000E+00
	-5.81377000E+02	-1.62589000E+03	 0.00000000E+00
	-3.03209000E+02	-1.55137000E+03	 0.00000000E+00
	 1.68791000E+02	-1.55137000E+03	 0.00000000E+00
	-6.72096000E+01	-1.55137000E+03	 0.00000000E+00
	 7.89133000E+02	-1.48820000E+03	 0.00000000E+00

CELLS 13789 55156
	3     2941    6887    3590
	3     5811    7016     554
	3     4625    6533    3486
	3     3360    4764    3366
	3      170    6375     171
	3     1710    5101    4716
	3     1711    5100    4715
	3     4716    5101    3332
	3     4715    5100    3200
	3     4631    3477    3664
	3     4799    5473    4836
	3     1922    5792    4506
	3     1941    5793    4507
	3     3851    5537    4538
	3     4652    4669    4667
	3     4775    4854    3076
	3     4768    7417     126
	3      440    4814     439
	3      680    4815     679
	3     4630    6721    1616
	3     1926    5807    3466
	3     2963    4890    3552
	3      890    6744    6345
	3     4712    4809    2466
	3      125    4768     126
	3     3945    6695    4490
	3     2741    4854    2740
	3     2745    4853    2744
	3     6202    6330    1356
	3     1428    5994    4525
	3     4524    5993    1427
	3     3964    5087    1523
	3     4235    6634    4495
	3     3590    6887    3588
	3     3486    6533    3793
	3     4423    6559    3804
	3     4405    4836    4406
	3     4538    5537    4341
	3     4270    4272    4271
	3     4251    4255    4252
	3     4350    4538    4349
	3     3060    4998    4810
	3     2505    5617    3112
	3     4793    5920    1445
	3     1392    5919    4796
	3     3111    5616    2504
	3     4405    4406    4404
	3     5206    5207    1554
	3     5213    5214    1553
	3     1464    6815    3087
	3     3890    6301    3889
	3     4283    6604    6279
	3     2421    2284    4448
	3     3608    4854    4775
	3     3919    6737    5821
	3     4311    6213    4468
	3     4808    4812    1818
	3     4248    4564    3977
	3     3518    4735    3510
	3     4272    6485    4271
	3     3535    5648    5029
	3     3600    4807    1499
	3     6588    6669    3599
	3     4808    6599    4812
	3     3087    6527    1464
	3     2892    6989    3127
	3     4279    5539    4350
	3     4499    6582    4872
	3     4500    6583    4873
	3     4540    7036    1598
	3     4255    6416    4252
	3     4696    4698    4681
	3     2046    6190    4976
	3     3903    6691    6521
	3     4238    4765    2152
	3     2185    5098    2349
	3     2177    5097    2345
	3     4499    4872    3547
	3     4500    4873    3549
	3     4350    6331    4538
	3     1445    5920    4707
	3     4708    5919    1392
	3     6345    6744    4260
	3     2925    6398    5103
	3     5003    6064    5001
	3     5004    6066    5006
	3     5008    6761    4474
	3     4303    4638    4307
	3     4292    6362    2496
	3     2421    6360    2284
	3     6481    6645    4627
	3     6019    6462    1582
	3     1583    6463    6020
	3     2756    1940    2757
	3     2762    5849    2761
	3     5361    6871    1931
	3     5363    6872    1932
	3     4284    7201    4596
	3     5683    6575    2055
	3     4283    7312    6584
	3      813    4540     812
	3     4531    6611    4272
	3     4631    6721    4630
	3     3237    4751    3228
	3     3572    6809    6804
	3     4786    4827    3036
	3     4938    5050    2045
	3     1806    4517    4565
	3     3127    6989    3126
	3     4248    7381    4564
	3     4461    5836    4885
	3     3387    5782    3299
	3     3538    5786    3431
	3     3255    5784    3167
	3     2189    5015    2347
	3     4640    6928    1475
	3     5270    6940    1507
	3     5282    6941    1508
	3     1310    3600    1499
	3     4652    4813    4669
	3     6279    7312    4283
	3     3387    7394    5782
	3     3255    7395    5784
	3     3538    7396    5786
	3     3045    7000    4717
	3     4718    7001    3021
	3     1348    4748    4597
	3     3616    4639    2074
	3     1408    5824    3113
	3     3114    5825    1739
	3     4283    6584    4282
	3     6542    6699    1317
	3     1556    6759    5327
	3     4639    7004    2074
	3     3590    5932    2941
	3     4396    4399    1471
	3     4409    4579    1532
	3     4388    4640    1475
	3     4411    4607    1531
	3     4133    5476    4476
	3     1213    3603    1212
	3     4244    7326    4868
	3     4427    4430    1414
	3     3552    4890    1771
	3     3510    4735    3517
	3     1608    4609    3130
	3     1609    4608    3394
	3     1607    4610    3262
	3     2504    6934    3111
	3     3112    6935    2505
	3     4717    4862    3045
	3     3021    4863    4718
	3     4802    4993    4174
	3     3915    3485    4526
	3     4766    4812    2959
	3     4244    4602    4601
	3     2467    5014    4713
	3     4430    6514    1414
	3     4607    6488    1531
	3     5327    6759    5326
	3     4247    6738    6194
	3     3884    6870    6684
	3     4399    6232    1471
	3     6194    6738    1320
	3     4579    7005    1532
	3     1931    6560    5361
	3     1932    6561    5363
	3     3551    6773    6208
	3     3000    6237    4756
	3     1523    6567    3964
	3     5572    6554    4811
	3     2075    4638    4303
	3     4840    6773    3551
	3     4265    4616    2329
	3     4253    4617    2076
	3     4333    4567    1521
	3     4326    4618    2415
	3     6684    6870    5048
	3     1419    4493    4335
	3     2923    6752    6398
	3     4370    4620    1329
	3     4407    4621    1473
	3     1196    3928    1416
	3     4394    4630    1527
	3     3970    5657    2068
	3     5258    6948    1506
	3     4342    6567    4340
	3     4340    6567    1523
	3     4867    6610    4330
	3     1403    6478    4419
	3     1403    7325    6478
	3     4578    6395    1372
	3     4449    4632    2418
	3     3321    6763    3554
	3     5622    6766    1575
	3      555    5811     554
	3     4244    4868    1358
	3     6640    7184    3118
	3     3630    6546    3119
	3     1380    4844    4842
	3     4846    4848    1379
	3     3036    4787    4786
	3     1463    4551    4549
	3     4885    5836    4496
	3     5028    7085    4433
	3     1714    6947    3570
	3     1405    6946    3569
	3     1196    6996    3928
	3     1485    4540     813
	3     4284    4596    3079
	3     1529    5907    5768
	3     5770    5903    1528
	3     3228    4751    3234
	3     4726    6502    4361
	3     4899    6947    1714
	3     4900    6946    1405
	3     3967    7036    4540
	3     6020    6463    5737
	3     5734    6462    6019
	3     3602    4999    2870
	3     4758    6811    6485
	3     4243    6699    6542
	3     4823    4828    3891
	3     4698    5000    4681
	3     4709    6865    4317
	3     1940    7014    2757
	3     2762    7015    5849
	3     4254    6416    6279
	3     3054    6461    3056
	3     2965    6290    4546
	3     4567    6865    4709
	3      171    6375    5668
	3     4333    6865    4567
	3     4571    6945    3073
	3     1627    6700    4491
	3     5167    5168    3427
	3     5176    5177    3163
	3     5185    5186    3295
	3     2331    4533    4299
	3     3664    3474    4631
	3     4358    4726    4361
	3     3113    6621    1408
	3     1739    6622    3114
	3     1507    6486    5270
	3     1508    6487    5282
	3     1454    6671    4794
	3     4797    6672    1430
	3     4552    6825    4888
	3     4553    6826    4889
	3     4350    6903    4279
	3     4711    4772    4265
	3     2466    6396    4712
	3     2107    7193    4416
	3     4491    6183    1627
	3     4596    7201    2449
	3     2925    5103    2927
	3     1627    6183    3555
	3     4261    6876    5511
	3     3233    6805    6802
	3     3604    5950    1503
	3     1578    5952    1502
	3     4794    6863    1454
	3     1430    6864    4797
	3     6209    6406    5000
	3     6036    6755    6360
	3     4888    6825    3610
	3     4889    6826    3611
	3     4467    6829    4808
	3     5630    1492    3963
	3     3260    3383    1814
	3     3128    3251    1816
	3     3392    3533    1813
	3     6802    6805    3597
	3     4468    6640    4311
	3     1322    6092    5579
	3     3574    3575    1543
	3     3556    4583    1572
	3     1574    4584    3557
	3     4310    6640    3118
	3     4498    5652    2060
	3     3559    4453    1479
	3     1394    4454    3558
	3     1297    6990    4352
	3     3629    6669    6588
	3     4527    6928    4240
	3     4644    4750    4118
	3     1380    6503    4844
	3     4848    6504    1379
	3     2079    3584    3583
	3     2870    6256    3602
	3     5461    6559    4886
	3     3439    5013    3440
	3     3463    6509    2433
	3     4467    4808    3566
	3     2299    3598    1310
	3     3612    4627    2197
	3     6521    6691    4387
	3     2448    3619    3618
	3     2449    3617    3616
	3     3626    3627    1904
	3     3620    3621    2445
	3     3623    3624    2446
	3     4270    4271    2080
	3     2210    4286    4285
	3     1906    4255    4251
	3     2285    4274    4273
	3     4267    4268    2287
	3     2413    4320    4319
	3     2307    4311    4310
	3     2075    4302    4301
	3     4747    4827    4786
	3     1881    4350    4349
	3     1429    4329    4328
	3     1431    4341    4340
	3     4464    7164    1520
	3     4465    7165    5804
	3     1311    4580    4334
	3     1506    6519    5258
	3     6535    6760    2308
	3     1213    7321    3603
	3     4355    4410    4409
	3     1420    4397    4396
	3     6333    6448    3322
	3     6334    6449    3190
	3     3920    6230    6186
	3     1476    4373    4372
	3     4294    4758    2306
	3     1457    4405    4404
	3     1526    4389    4388
	3     1532    4413    4412
	3     1571    4606    4411
	3     5001    6064    1484
	3     1483    6066    5004
	3     1521    4566    4425
	3     3561    6308    1602
	3     3563    6309    1605
	3     3562    6310    1603
	3     3581    7045    1540
	3     1205    3546    1815
	3     1094    3260    1814
	3      983    3128    1816
	3      872    3392    1813
	3      841    3550    1839
	3     1283    3565    1579
	3     1839    3551     840
	3     1063    4715    3579
	3     1026    4716    3580
	3     1709    3548    1249
	3     1019    3549    1405
	3     1056    3547    1714
	3     1242    3552    1771
	3      874    4608    1609
	3      985    4609    1608
	3     1096    4610    1607
	3     1023    3553    1399
	3     1281    3126    1625
	3     1627    3555    1061
	3     2256    4428    4427
	3     1275    3574    1543
	3     1416    3927    3926
	3     2281    2421    4448
	3     1289    3556    1572
	3     1574    3557    1238
	3     2060    5651    4498
	3     2074    4764    3593
	3     3566    1818    1171
	3     1458    4814     440
	3      679    4815    1459
	3     4118    4725    4644
	3     4566    4567    2510
	3     1394    3558    1236
	3     1291    3559    1479
	3     1092    3561    1602
	3      870    3563    1605
	3      981    3562    1603
	3      846    3581    1540
	3     1068    3582    1542
	3     5166    5167    3427
	3     5175    5176    3163
	3     5184    5185    3295
	3     2068    5658    3970
	3     2079    3583    1254
	3     2074    3593    1032
	3     3582    7065    1542
	3     4496    5836    2135
	3     1416    3926    2302
	3     1099    1386    1498
	3     1494    3597    1132
	3      909    1482    2301
	3      946    1573    2303
	3     2299    1310    1211
	3     1602    3605    1091
	3     1603    3607     980
	3     1330    4726    4358
	3     5600    5602    1423
	3     3423    6866    5007
	3      868    3606    2367
	3     1201    3608    2366
	3     1567    7396    5169
	3     1568    7394    5187
	3     1566    7395    5178
	3      956    3612    2197
	3     2698    3609    1142
	3     2699    3610    1179
	3     2722    3611     920
	3     1271    3629    1905
	3     2449    3616    1034
	3     2448    3618     849
	3      827    3620    2445
	3     1012    3626    1904
	3     1049    3623    2446
	3     1166    3630    3119
	3     2286    4292     809
	3      885    4270    2080
	3     1906    4251     904
	3     2076    4617     902
	3     2650    4266     976
	3      802    4282    2724
	3     2329    4616     823
	3      798    4294    2306
	3     2285    4273     994
	3     2210    4285     821
	3      941    4267    2287
	3     2413    4319    1105
	3     2307    4310    1260
	3     2075    4301    1217
	3     2415    4618    1125
	3     2721    4339     863
	3     1881    4349    1043
	3     1598    4348     811
	3     1429    4328    1041
	3     1431    4340      34
	3     1597    4366     938
	3     4810    4998    4746
	3     1630    4526    4420
	3     1841    4368     861
	3     1311    4334     998
	3     1419    4335     893
	3      935    4501    4371
	3     1329    4620     859
	3     4355    4409    1231
	3     1312    4387    1121
	3     1420    4396      30
	3     1547    6437    5630
	3     1476    4372     857
	3     1457    4404      32
	3     4652    4667    4646
	3     1473    4621    1003
	3     4713    6332    2467
	3     1474    4392    1119
	3     1526    4388    1113
	3     4365    4414      40
	3     1527    4630    1117
	3     1532    4412    1229
	3     1571    4411    1299
	3     5998    6766    5622
	3     1521    4425    1159
	3     2107    4416    1187
	3     2256    4427     819
	3     2281    4448    1155
	3     2418    4632    1153
	3     3034    6303    4727
	3     1442    5685    4532
	3     3608    4775    2366
	3     5754    4517    1806
	3     5821    6737    1751
	3     6612    6742    1939
	3     5630    6743    1547
	3     5630    6437    1492
	3     2511    5202    4626
	3     4490    6569    3945
	3     1559    5796     242
	3      812    4540    1598
	3     5169    6983    1567
	3     5187    6981    1568
	3     5178    6982    1566
	3     1937    6736    6613
	3     4269    7155    2770
	3     4462    5821    1751
	3     5684    6575    5683
	3     5547    6724    4377
	3     2206    6151    4694
	3     3588    6887    3585
	3     4567    4709    2510
	3     5202    6777    4626
	3     4480    7202    5788
	3     3369    4764    3360
	3     3566    4808    1818
	3     6455    6604    2209
	3     6340    6651    1840
	3     4308    6760    6535
	3     3585    6887    4776
	3     5654    5658    1305
	3     1578    7134    5952
	3     3604    7133    5950
	3     2458    4729    2459
	3     5511    6823    4261
	3     4764    7004    3366
	3     2496    6362    4250
	3     2197    6945    4571
	3     2152    4765    2154
	3     4566    6248    4425
	3     2044    5987    5625
	3     5579    6705    1322
	3     5624    5986    2043
	3      126    7417    1518
	3     1361    6175    5998
	3     4811    6673    5572
	3     4521    6372    4266
	3     5565    6440    6076
	3     4252    6416    4254
	3      944    6423    4284
	3     6077    6438    5562
	3     4443    4446    4445
	3     3565    4833    1579
	3     3804    6530    4423
	3     4437    4441    4439
	3     3889    6301    4823
	3     4594    7074    3082
	3     4589    7075    3081
	3     1618    6395    4578
	3     1617    6635    4539
	3     4758    6485    2306
	3     1839    4840    3551
	3     3409    6172    5400
	3     3145    6174    5399
	3     3277    6173    5398
	3     4240    4755    4527
	3     4466    6915    3488
	3      554    7016    1720
	3     2135    5835    4496
	3     3036    6474    4787
	3     3253    7060    6586
	3     3385    7061    6587
	3     3515    4841    4767
	3     1438    6761    5008
	3     4382    6502    4726
	3     3516    6537    1482
	3     3253    6586    3254
	3     3385    6587    3386
	3     1549    6650    6041
	3     3126    6989    1625
	3     4756    6237    1740
	3     1386    6933    1498
	3     4564    7381    1551
	3     6041    6953    1549
	3      796    6611    4531
	3     2186    5098    2185
	3     2178    5097    2177
	3     3552    6779    2963
	3     1482    7174    3516
	3     1361    6968    6175
	3     1920    5237    4986
	3     1924    5238    4988
	3     3074    4853    2745
	3     3076    4854    2741
	3     1270    7068    2701
	3     2300    7069    1257
	3     4264    4711    4265
	3     2465    4607    4606
	3     3547    4872    1714
	3     3549    4873    1405
	3     4495    6634    1486
	3     3536    7035    6563
	3     5493    6142    1615
	3     4612    6819    4548
	3     3365    6534    1573
	3     4792    4793    2142
	3     2143    4796    4795
	3     1303    5958    4732
	3     4408    6441    3793
	3     4464    1520    5235
	3     4465    5804    5234
	3     6016    6325    3568
	3     3493    7466    2704
	3     2455    6862    4286
	3     1449    6330    6202
	3     1751    5859    4462
	3     4675    4696    4681
	3      794    7074    4257
	3     1127    7075    4324
	3     2770    6817    4269
	3     3546    4878    1815
	3     4490    6695    2121
	3     5077    6929    6758
	3     4694    6406    2206
	3     4501    6951    4371
	3     4495    6538    4235
	3     5168    6172    3409
	3     5177    6174    3145
	3     5186    6173    3277
	3     6758    6929    1308
	3     4286    4294    2455
	3     1573    7198    3365
	3     3536    6563    3537
	3     1905    7068    1270
	3     1257    7069    2451
	3     4526    7013    3915
	3     3409    5230    5168
	3     3145    5231    5177
	3     3277    5229    5186
	3     4663    4855    4734
	3     5173    6306    5174
	3     5182    6305    5183
	3     1332    7386    5677
	3     5164    6304    5165
	3     3488    6915    4125
	3     3793    6533    4408
	3     6398    6752    3548
	3     2315    4738    4736
	3     6547    7152    6073
	3     6873    7034    5983
	3     3081    7075    1127
	3     3082    7074     794
	3     2698    4887    3609
	3     2699    4888    3610
	3     2722    4889    3611
	3     1603    4893    3607
	3     1602    4894    3605
	3     1470    7052    4355
	3     4565    6070    1806
	3     4787    6474    5613
	3     2286    6787    6362
	3     4527    4755    1317
	3     5286    6487    1508
	3     5274    6486    1507
	3     4506    5792    4883
	3     4507    5793    4884
	3     4700    5139    2426
	3     5010    6594    6366
	3     6540    7132     134
	3     4607    6665    2734
	3     4615    4885    2984
	3     4732    5958    4689
	3     4266    6852    4521
	3     5305    5306    2180
	3     5312    5313    2188
	3     5298    5299    2184
	3     5602    6697    1423
	3     1303    4732     754
	3     4296    4533    2331
	3     4336    4828    4823
	3     4650    4822    4654
	3     1490    5025    5024
	3     5021    5022    1489
	3     5610    5611    2065
	3     4506    7142    1922
	3     4507    7143    1941
	3     1553    5216    5213
	3     1554    5209    5206
	3     6096    6968    3994
	3     4424    4830    4626
	3     2734    6488    4607
	3     3902    6107    4798
	3     1880    6369    4332
	3     4219    6951    6789
	3      131    6620    5722
	3     4665    7250    1801
	3     3949    6651    6340
	3     3928    6196    5126
	3     3587    3590    3588
	3      172    5668    1333
	3      989    7092    3604
	3      878    7093    1578
	3     4443    4445    4442
	3     4480    5788    5236
	3     4547    4832    2384
	3     6731    7202    4492
	3     4539    6289    1617
	3     4437    4439    4436
	3     3076    7291    6659
	3     1477    6668    5673
	3     5722    7206     131
	3     2190    5015    2189
	3     6306    6840    5174
	3     6305    6839    5183
	3     1928    7202    6731
	3      714    6657    4575
	3     4577    6656     405
	3     6304    6841    5165
	3     5262    6519    1506
	3     3458    4840    3462
	3     6713    7165    4483
	3     6712    7164    4482
	3     1347    4748    1348
	3     3075    7291    3076
	3     3466    5807    3521
	3     4888    6891    4484
	3     4887    6892    4485
	3     4889    6893    4486
	3     1508    6993    5286
	3     1507    6992    5274
	3     6514    6694    3953
	3     2499    7074    4594
	3     2494    7075    4589
	3     3550    7125    1839
	3     4494    5527    4280
	3     1474    3472    4392
	3      171    5668     172
	3     2650    6852    4266
	3     6366    6594    2059
	3     5673    7077    1477
	3     2286    6362    4292
	3     4575    7148     714
	3      405    7149    4577
	3     4976    6954    2046
	3     4432    5027    4433
	3     3612    6481    4627
	3     4596    7367    3079
	3     1493    7152    6547
	3     3587    3588    3584
	3     5252    5858    1797
	3     4566    6803    6248
	3     2699    6891    4888
	3     2698    6892    4887
	3     2722    6893    4889
	3     3554    6763    3553
	3     3466    7169    1926
	3     3568    6898    6016
	3     1929    7165    6713
	3     1930    7164    6712
	3      564    4804    1935
	3     4463    6404    4139
	3     4395    4993    4802
	3     6789    6951    4501
	3     2315    4739    4738
	3     5029    5648    2245
	3     5207    5208    1554
	3     5214    5215    1553
	3     4394    3477    4631
	3     4355    7052    4481
	3     4790    7245    2727
	3     2038    5956    4629
	3     4628    5957    2039
	3     3614    7412    4530
	3     4272    7413    4531
	3     5008    5010    1438
	3     4546    6290    1628
	3     1252    3572    1251
	3     4728    6461    3058
	3     4530    7249    3614
	3     4155    4642    4581
	3     4650    5425    4822
	3     6484    7053    5291
	3     3545    6216    3421
	3     3391    6218    3289
	3     3259    6217    3157
	3     6142    7440    1615
	3     1506    7009    5262
	3     3920    6186    3954
	3     6804    6809    2949
	3     2045    7011    4938
	3     1297    4352    1296
	3     2296    7092     989
	3     2297    7093     878
	3     4299    6787    6707
	3     6546    7069    3119
	3     6362    6787    4533
	3     2433    6509    4834
	3     5657    5660    2068
	3     1494    6802    3597
	3     6463    6890    5737
	3     5734    6889    6462
	3     3081    7412    4589
	3     3082    7413    4594
	3     4546    6532    2965
	3     5935    7279    1577
	3     5936    7280    1399
	3     4716    6757    3580
	3     4715    6756    3579
	3     1709    6398    3548
	3     4853    6309    2744
	3     4666    6058    4672
	3     2367    6645    6481
	3      962    7117    4337
	3     5756    7132    6540
	3     3564    7034    6873
	3      380    4740    2315
	3     4848    6960    6504
	3     6503    6961    4844
	3     4139    7343    4463
	3     1841    6342    4368
	3     6504    6960    1443
	3     1444    6961    6503
	3     4244    6648    4602
	3     6360    6755    2284
	3     6565    6908    6037
	3     4564    7240    3977
	3     2721    7195    4339
	3     3077    4898    4573
	3     3073    4897    4571
	3     3071    4895    4572
	3       95    5939      96
	3      281    5944     282
	3     4520    5659    1321
	3     2728    7244    4788
	3     3032    6303    3030
	3     4215    6610    4867
	3     4365    7216    4414
	3     6724    7456    4377
	3     5988    6499    2122
	3     2123    6500    5989
	3     4432    7443    5027
	3      565    4804     564
	3     3553    6763    1399
	3     2264    6944    6708
	3     1836    6605    6130
	3     1520    7164    1930
	3     5804    7165    1929
	3     4538    6331    3851
	3     4307    4832    4305
	3     4748    7193    2107
	3     4175    6634    5239
	3     4896    7291    3075
	3     3535    7031    5648
	3     3614    6574    3615
	3     4300    7036    5489
	3     1427    6850    4524
	3     4525    6851    1428
	3     2328    6716    4441
	3     4509    5424    1314
	3     1313    5422    4510
	3     4766    5932    3590
	3     4727    6303    1757
	3     4570    7291    4896
	3     1573    6534    2303
	3     3056    6461    4998
	3     1482    6537    2301
	3     1630    7013    4526
	3     5010    6366    1438
	3     1475    6928    4527
	3     4854    6373    2740
	3     2885    6016    4807
	3     6423    7201    4284
	3     1598    6707    4348
	3     4591    7185    2700
	3     4281    7190    4595
	3     4595    7189    4281
	3     3606    6645    2367
	3     1312    6521    4387
	3     2433    4834    2435
	3     4282    6584    2724
	3     3629    6588    1905
	3     5737    6890    5738
	3     5735    6889    5734
	3     4641    4644    4376
	3     5573    7097    6510
	3     1597    7219    4366
	3     3010    7012    6505
	3      825    7154    4263
	3      807    7155    4269
	3     4481    7052    6069
	3     1490    7179    5025
	3     5022    7178    1489
	3     5126    6196    4295
	3     4441    7104    2328
	3     5788    7202    1928
	3     6499    7344    2122
	3     2123    7345    6500
	3     2384    4831    4547
	3     4497    7239    4773
	3     1402    7117     962
	3     2437    4841    3515
	3     6574    7310    3615
	3     5994    6494    4525
	3     4524    6495    5993
	3     4367    6693    5544
	3     4766    6564    4812
	3     2705    3493    2704
	3     3440    5013    3443
	3     3204    4992    3206
	3     3336    4991    3338
	3     3794    5473    4799
	3     4532    6154    1442
	3     1321    5660    4520
	3     5476    5477    4476
	3     4833    6873    2836
	3     6076    6440    1537
	3     1538    6438    6077
	3     2345    5097    2742
	3     2349    5098    2746
	3     4421    6569    1550
	3     4422    6559    4423
	3     5133    6277    1421
	3     2347    5015    2750
	3      159    7027    6531
	3     5204    5798    1746
	3     5211    5797    1745
	3     4799    4836    4405
	3     3423    5007    3424
	3     5462    5822    1921
	3     2254    6908    4441
	3     2704    7466    3085
	3     4643    4750    4642
	3     4421    7087    6569
	3     5168    5230    3427
	3     5177    5231    3163
	3     5186    5229    3295
	3     4814    6608     439
	3      680    6609    4815
	3      380    7380    4740
	3     6844    7176    4588
	3     4586    7175    6845
	3     3080    7368    7187
	3     3084    7370    7188
	3     6058    6706    4672
	3     4394    4631    4630
	3     4468    6213    2077
	3     3428    6688    6049
	3     3164    6689    6050
	3     3296    6690    6051
	3     1724    6448    6333
	3     1723    6449    6334
	3     4840    7125    3462
	3     2141    6677    4537
	3     1531    6990    1297
	3     6069    7052    3064
	3     4433    7085    4434
	3     4773    7239    4774
	3     2128    6554    5572
	3     5523    6230    5522
	3     5413    6885     590
	3     5411    6884     498
	3     4359    5535    4357
	3     1386    7124    3388
	3     4886    6559    4417
	3     4549    4989    1463
	3     1307    6313    4937
	3     4975    6314    1306
	3      590    6940    5413
	3      498    6941    5411
	3     4798    6107    4799
	3     6822    6849    5715
	3     4601    7326    4244
	3     1504    6819    4612
	3     2063    6375     170
	3     4125    6915    4477
	3     6404    6623    4191
	3     2461    4612    2460
	3     5677    7386    5678
	3     6501    6703    6032
	3     4810    4811    3060
	3     5544    6407    4367
	3     4773    7475    4497
	3     3472    6691    3914
	3     6845    7175    1434
	3     1433    7176    6844
	3     4291    7312    6279
	3     4674    4696    4675
	3     4286    6862    4285
	3     4646    4667    4645
	3     3554    5861    3321
	3     4256    6604    6455
	3     4413    7005    3479
	3     5923    6903    1881
	3     1540    7045    6189
	3     4497    7475    2981
	3     6617    6918    3979
	3     1819    7001    4718
	3     4717    7000    1817
	3     3479    7005    2733
	3     4834    4841    2435
	3     4830    6732    4626
	3     4729    7221    2459
	3     4315    6213    4312
	3     4435    6635    1617
	3     6393    7090    5967
	3     1370    5652    1368
	3     3083    7155     807
	3     4591    7154     825
	3     5007    6866    1610
	3     4820    6216    3545
	3     4819    6218    3391
	3     4821    6217    3259
	3     1600    6317    4523
	3     4522    6318    1601
	3     1477    7130    4555
	3     3894    6301    3890
	3     1927    7053    6484
	3     4306    6819    6745
	3     1801    6357    4665
	3     4836    5473    3797
	3     4238    7022    4765
	3     4463    6623    6404
	3     4573    7166    3077
	3     4572    7167    3071
	3     3460    6450    4541
	3     2049    6276    5859
	3     1480    7519    4603
	3     4604    7520    1481
	3     1539    7251    6188
	3     5659    6093    1321
	3     3994    6701    6096
	3     4744    4800    2316
	3     3975    7240    6930
	3     1356    6330    5673
	3     1252    7390    3572
	3     4784    5340    4714
	3     2427    5341    4785
	3     4723    4724    4722
	3     6130    6605    2999
	3     1542    7065    6187
	3     1422    6267    5136
	3     4280    6685    4494
	3     4866    6397    1417
	3     6806    7246    5555
	3     6708    6944    5047
	3     6518    6952    5197
	3     2496    7369    4292
	3     6342    6399    1352
	3     4642    4750    4644
	3     4597    2279    1348
	3      756    6272    4695
	3     4767    4841    1712
	3     5677    6155    1332
	3     2705    3492    4673
	3     7187    7368    4592
	3     7188    7370    4593
	3     5049    6896    4290
	3     4488    6896    5049
	3     5859    6276    4462
	3     1399    6763    5936
	3     2426    7286    4700
	3      560    6776    6725
	3     3970    5658    5654
	3     4754    6729    4364
	3     5367    6956    6523
	3     1417    6397    3630
	3     4541    6838    3460
	3     5415    6906     544
	3     4450    6225    4398
	3     1577    7088    5935
	3     5795    7373    1596
	3      544    6948    5415
	3     4742    4743    4741
	3     5215    6561    1932
	3     5208    6560    1931
	3     5000    6451    2104
	3      242    5796     243
	3     1596    6772    5795
	3     4671    4837    4668
	3     4668    4837    2239
	3     6677    7496    4537
	3     7279    7451    4568
	3     7280    7452    4569
	3     4259    5016    2288
	3     1314    7225    4509
	3     4510    7226    1313
	3     4489    6895    6196
	3     4734    7208    4663
	3     2465    6665    4607
	3     1629    5012     836
	3     5000    6406    4681
	3     6930    7240    2289
	3     2280    4885    4615
	3     1421    7281    5133
	3     4793    6770    2142
	3     2143    6771    4796
	3     6196    6895    1901
	3     5768    6021    1529
	3     1528    6022    5770
	3     4868    7326    1426
	3      600    6871    5362
	3      508    6872    5364
	3     1529    7329    5907
	3     5903    7330    1528
	3     4286    7468    4294
	3     3127    6390    2892
	3     4476    6775    4133
	3     4530    7412    3081
	3     4531    7413    3082
	3      147    5658     148
	3     4305    4832    4547
	3     1746    6749    5204
	3     1745    6750    5211
	3     6511    7203    5571
	3     5362    6988     600
	3     5364    6987     508
	3     4613    6093    5659
	3     4689    6813    4732
	3     4364    7402    4754
	3     3593    7251    1539
	3     3058    6830    4728
	3     4727    6831    3034
	3     5012    5013    3439
	3     2837    4833    2836
	3     4520    5660    5657
	3     1549    7218    5802
	3     4937    7140    1307
	3     1306    7141    4975
	3     2723    6894    6481
	3     5604    5605    1491
	3     4400    6572    4401
	3     1368    5652    4498
	3     4701    4703    2426
	3     2425    4706    4704
	3     4580    6230    5523
	3     4673    3493    2705
	3     4645    4667    2239
	3     2051    6071    4749
	3     4670    6675    4671
	3     3927    6695    6394
	3     1333    5668    5667
	3     4535    6985    2825
	3     2826    6986    4536
	3     3080    7187    4293
	3     3121    7190    4281
	3     2700    7185    4288
	3     3120    7189    4595
	3     3084    7188    4309
	3     4674    4675    1534
	3     1740    4721    4719
	3     5290    6922    6047
	3     6048    6923    5292
	3     5802    6650    1549
	3     5605    5606    1491
	3     1431    4538    4341
	3     1880    7022    6369
	3     6416    6427    2305
	3     7207    7269    5720
	3     6505    7012    1569
	3     4415    4606    1571
	3     6707    6787    4348
	3     6017    6573    1625
	3     4440    6908    6565
	3     1059    7279    4568
	3     1022    7280    4569
	3     2206    6406    6209
	3     3603    6588    3599
	3     2316    4800     734
	3     4816    6369    4239
	3     2825    6807    4535
	3     4536    6808    2826
	3     6478    7325    4249
	3     1463    7228    4551
	3     4555    6668    1477
	3     4469    7256    7102
	3     4672    6706    1686
	3     1576    7269    7207
	3      758    4674    1534
	3      355    4645    2239
	3     2065    5612    5610
	3      762    4701    2426
	3     2425    4704     352
	3     5678    7386     203
	3     5782    7394    1568
	3     5784    7395    1566
	3     5786    7396    1567
	3     2276    4810    4746
	3     1805    6849    6822
	3     5555    7509    6806
	3     4289    5904    1597
	3     4402    7325    1403
	3     4430    6694    6514
	3     1932    7040    5215
	3     1931    7039    5208
	3      203    7002    5678
	3     5221    6749    1746
	3     5219    6750    1745
	3     4263    6649    4264
	3     5026    6742    6612
	3     6613    6736    5023
	3     2770    7155    4590
	3     3532    6688    4769
	3     3250    6689    4770
	3     3382    6690    4771
	3     7102    7256    1478
	3     6096    6701    4851
	3     5092    6070    4565
	3     2046    6456    6190
	3     2700    7154    4591
	3     1536    6791    6764
	3     6765    6792    1535
	3      128    6692    4557
	3     4670    7336    6675
	3     1817    4784    4714
	3     2427    4785    1819
	3     3485    6686    4526
	3     4827    6303    3032
	3     2435    4841    2437
	3     4587    5001    1484
	3     1483    5004    4585
	3     5905    7196    6720
	3     6279    6604    4254
	3     3574    7090    3575
	3     3948    7408    4556
	3     4644    4725    4376
	3     4719    4720    1536
	3     1535    4723    4722
	3     5613    6474    2129
	3     2058    6097    5666
	3     6016    6898    4807
	3     4356    7347    1402
	3     6531    7027    3969
	3     4241    6928    4640
	3     4626    6777    1396
	3     1579    4833    3127
	3     1601    7357    4522
	3     4523    7356    1600
	3     5243    6904    6552
	3     1388    6693    4367
	3     6550    6901    5242
	3     1740    6237    4721
	3     4532    6698    6154
	3     3889    4823    3891
	3      625    5783     624
	3      533    5785     532
	3      579    5787     578
	3     6481    6894    4487
	3     1817    4714     371
	3      743    2427    1819
	3     1819    4718     742
	3      372    4717    1817
	3     1603    6310    4893
	3     1602    6308    4894
	3     5835    6621    3113
	3     3114    6622    5837
	3     4769    6688    1545
	3     4770    6689    1546
	3     4771    6690    1544
	3     3258    7451    7279
	3     3390    7452    7280
	3     3389    5818    4482
	3     3257    5819    4483
	3      366    4719    1536
	3     1535    4722     748
	3     4357    5535    4362
	3      933    7326    4601
	3     4580    5523    3852
	3     1757    4827    4747
	3     4986    7462    1920
	3     4988    7463    1924
	3     2275    4742    4741
	3     2287    7247    4289
	3     4640    3484    4241
	3      739    4727    1757
	3     1756    4728     375
	3     4698    6451    5000
	3     5550    6762    6598
	3     4609    6350    3130
	3     4608    6349    3394
	3     4610    6351    3262
	3     4603    6261    1480
	3     1481    6262    4604
	3     1617    6289    4418
	3     2134    7239    5837
	3     2315    4736     379
	3     2275    4741     736
	3     2276    4746     377
	3     1757    4747     738
	3     4278    6903    5923
	3     6526    6764    3086
	3     3088    6765    6527
	3     5012    7384     836
	3     1756    6461    4728
	3     6572    7099    4401
	3     4377    7066    5547
	3     1686    7250    4672
	3     5136    7282    1422
	3     5987    6682    5625
	3     5624    6683    5986
	3     2077    6212    4333
	3     2294    6372    4521
	3     4579    6361    2733
	3     7139    7205     141
	3     1746    7237    5221
	3     1745    7238    5219
	3     4548    7285    4612
	3     6510    7097    3035
	3     4556    6874    3948
	3     4574    6657    1726
	3     1725    6656    4576
	3     4784    7209    5340
	3     5341    7210    4785
	3     5815    6145    6138
	3     6139    6144    5813
	3     4155    4643    4642
	3     4330    6610    4619
	3     3388    6933    1386
	3     4672    7250    4665
	3     3930    3472    3914
	3     4263    7154    6649
	3      279    6843    6667
	3     6666    6842      98
	3     1797    7387    5252
	3     4519    7205    7139
	3     2039    6121    4628
	3     4629    6120    2038
	3     3579    6700    1627
	3     4441    6716    2254
	3     4260    6876    4261
	3     4851    7458    6096
	3     4825    7068    3117
	3     3119    7069    4826
	3     6785    7090    3574
	3     5400    6172    3538
	3     5399    6174    3255
	3     5398    6173    3387
	3     3517    7315    4611
	3     4174    4993    4175
	3     6324    6443    2056
	3     6680    7016    5354
	3     5614    7220    4739
	3     3085    6526    3086
	3     3088    6527    3087
	3     4452    6918    6617
	3     6745    6819    4327
	3     7108    7172    5739
	3     4671    7029    4837
	3     4367    6407    1401
	3     6641    6655    2686
	3     6744    6876    4260
	3     2724    6584    4598
	3     3613    7363    1070
	3     1509    6952    6518
	3     1007    7365    4343
	3     2870    4999    4801
	3     6636    7457    4745
	3     4557    7366     128
	3     3543    5817    4492
	3     3530    5992    4835
	3     4308    6897    4301
	3     4581    6551    4155
	3     3058    6461    3054
	3     1816    4562    3562
	3     1813    4560    3563
	3     1814    4558    3561
	3     3088    6792    6765
	3     6764    6791    3086
	3     1715    4803    3573
	3     4757    6641    3001
	3     1612    4467    3566
	3     5306    7472    2180
	3     5299    7474    2184
	3     5313    7473    2188
	3     6720    7196    4504
	3     2371    4874    2972
	3     2971    4875    2370
	3     4993    6634    4175
	3     6596    6741     268
	3      109    6740    6595
	3     5050    6468    2045
	3     1251    3572    3571
	3     5233    7100    7082
	3     4635    7298    7171
	3       96    5939    1505
	3     1395    5944     281
	3     1208    3568    3567
	3     2865    6393    5967
	3     3056    4998    3060
	3     4879    7447    2743
	3     4597    4748    4445
	3     5613    7314    4787
	3     2366    4887    4485
	3     2369    4888    4484
	3     2368    4889    4486
	3     1595    7172    7108
	3     2056    6093    4613
	3     4824    6443    6324
	3     4444    4447    4443
	3     4775    7231    2366
	3     4453    6957    2754
	3     2755    6958    4454
	3     1331    6428    4636
	3     4637    6429    1390
	3     4890    7298    4635
	3     7082    7100    1752
	3     6036    6360    2230
	3     2210    4616    4287
	3     2080    4772    4711
	3     2120    3972    3971
	3     4250    4533    4296
	3     4723    6501    4724
	3     4296    2331    1883
	3     1840    4828    4336
	3     5835    7057    6621
	3     6622    7058    5837
	3     1330    4357    4356
	3     4336    4823    1389
	3     1296    4352    4351
	3     1726    7391    4574
	3     4576    7392    1725
	3     4791    7010    2411
	3     5290    6047    2783
	3       39    4364    4363
	3     3956    4838    3955
	3     2784    6048    5292
	3     1420    4450    4398
	3     4301    6897    1902
	3     2743    7425    4879
	3     2302    3631    1558
	3     1504    4612    4365
	3     1456    4383    4382
	3     4705    6679    4809
	3     1476    4620    4374
	3     5014    6678    4702
	3     4534    4798    1457
	3     1551    4403    4402
	3     4420    4421    1550
	3     4395    4802    1618
	3     6485    6811    4271
	3     4424    4626    1396
	3     4422    4423    1630
	3     1372    6677    4578
	3     1890    4830    4424
	3     2141    4537    4426
	3     4707    6293    1445
	3     1392    6294    4708
	3     4442    4445    2107
	3     2142    4794    4792
	3     4795    4797    2143
	3     4837    7029    2425
	3     2203    4443    4442
	3     2204    4437    4436
	3     2063    7089    5558
	3     3971    7403    2430
	3     4436    4439    2419
	3     6242    7373    5969
	3     6523    6956    1511
	3     1715    6658    6039
	3     6991    7310    3234
	3     3035    6474    3036
	3     1577    7279    1059
	3     1399    7280    1022
	3     2754    7095    4453
	3     4454    7096    2755
	3     6581    6607    5351
	3     4542    7325    4402
	3     6155    6714    1332
	3     2249    6607    6581
	3     2701    7068    4825
	3     4826    7069    2300
	3     5558    7361    2063
	3     4585    6556    1483
	3     1484    6555    4587
	3     3206    4992    3235
	3     3338    4991    3367
	3     5837    7239    4497
	3     6578    6704    1462
	3     5489    6795    4300
	3     2199    7166    4573
	3     2198    7167    4572
	3     3903    6521    3899
	3     4892    6957    4453
	3     4454    6958    4891
	3     4808    6829    2947
	3     5103    6398    1709
	3     5611    6384    2065
	3     3117    7321    1213
	3     2410    7023    4789
	3     4477    7211    4125
	3     1391    6475    5747
	3     5750    6476    1432
	3     1543    3577    1274
	3     4735    7315    3517
	3     3565    6873    4833
	3     2984    6995    4615
	3     4729    7177    6687
	3     1445    6770    4793
	3     4796    6771    1392
	3     4253    6434    4617
	3     4287    6811    4758
	3     1255    3592    2079
	3     4695    7324     756
	3     1580    6532    4546
	3     1212    3603    2299
	3     5466    7006    6969
	3     6584    7312    2454
	3      995    4276    2285
	3     1106    4322    2413
	3       33    4331    1429
	3     1261    4313    2307
	3     4312    6213    4311
	3     4265    6709    4616
	3     1114    4391    1526
	3     4603    7519    4760
	3     4761    7520    4604
	3     4613    6324    2056
	3     1559    7105    5796
	3       27    4432    2256
	3     5358    6576    6562
	3     3204    5100    4992
	3     3336    5101    4991
	3     3575    7090    6393
	3     3518    7045    4735
	3     6539    6568    4870
	3     4326    7107    4618
	3     6725    6776    5031
	3     2464    5099    4753
	3     1498    6933    5948
	3     1812    6511    5571
	3     5573    6510    1810
	3     2366    7231    4887
	3     4362    7347    4356
	3     6154    6698    2061
	3     4619    6610    4207
	3     2735    6862    4599
	3     6562    6576    1555
	3     1625    2042    6017
	3     3421    6216    3428
	3     3157    6217    3164
	3     3289    6218    3296
	3     4768    6737    3919
	3     2105    6719    4813
	3     3462    6509    3463
	3     1204    7411    3560
	3     4598    6919    2724
	3     4599    6919    2735
	3     4806    6253    1316
	3     1387    6252    4805
	3     4262    5016    4259
	3     1586    5277    5276
	3     1587    5289    5288
	3     3950    6704    6578
	3     2511    6382    5202
	3      754    4732     753
	3     3249    5991    4856
	3     3381    5990    4857
	3     5413    6940    5270
	3     5411    6941    5282
	3     6881    7177    3487
	3     5572    6673    2216
	3      728    6663    4745
	3     5221    6333    3322
	3     5219    6334    3190
	3     4875    6934    2370
	3     2371    6935    4874
	3     6709    6811    4287
	3     1742    6568    6539
	3     1616    4886    4417
	3     2423    4809    4712
	3     3367    4991    4779
	3     3235    4992    4778
	3     4570    4896    1621
	3     4572    4895    1623
	3     4571    4897    1624
	3     4573    4898    1622
	3     4723    6703    6501
	3     4742    6636    4743
	3     4679    6272    4676
	3     1903    7184    6640
	3     1426    7326     933
	3     3577    7420    1274
	3     4376    6726    4641
	3     2411    6821    4791
	3     4461    6748    5836
	3     4739    7220    4738
	3     4779    4991    1710
	3     4778    4992    1711
	3     4370    6726    4620
	3     1485    7439    4540
	3     1255    7433    3592
	3     4821    7427    1051
	3     4820    7426     829
	3     4819    7428    1014
	3     6186    6230    1311
	3      995    7435    4276
	3     1106    7436    4322
	3     6969    7006    4393
	3     2240    5139    4697
	3       33    7437    4331
	3     1261    7438    4313
	3     4816    6914    6369
	3     4816    7247    2287
	3     1713    5007    1610
	3     6216    6688    3428
	3     6217    6689    3164
	3     6218    6690    3296
	3     1114    7440    4391
	3     1612    6278    4467
	3     3045    4862    3046
	3     3022    4863    3021
	3     4892    7400    6957
	3     6958    7401    4891
	3     6679    7038    4809
	3       27    7443    4432
	3     5014    7041    6678
	3     4871    6544    6528
	3     1486    4993    4395
	3     4799    6107    3794
	3     4441    6908    4439
	3     3036    4827    3032
	3     2727    4791    4790
	3     2984    4885    4496
	3     5883    5884    3025
	3     3049    5886    5885
	3     6602    6814    5322
	3     4743    6636    4745
	3     5815    6138    5945
	3     5940    6139    5813
	3     4813    6719    4669
	3     4307    5202    4832
	3     1397    5425    4647
	3     4880    6408    3091
	3     3097    6409    4881
	3     5253    5858    5252
	3     4777    5048    3951
	3     6528    6544    1943
	3     1589    5265    5264
	3     2451    7069    6546
	3     4805    6252    3063
	3     3061    6253    4806
	3     3237    7065    4751
	3     4407    6999    4621
	3     5126    6695    3927
	3     6687    7177    4318
	3      382    7245    4790
	3     4413    7042    4412
	3     3030    6303    3034
	3       95    7500    5939
	3     5944    7501     282
	3     4788    4789    2728
	3     4568    7451    5142
	3     4569    7452    5143
	3     6415    7124    3628
	3     4474    6761    4759
	3     1747    5048    4777
	3     4488    5049    2721
	3     2295    5049    4290
	3     4643    7118    5529
	3     2959    5932    4766
	3     5415    6948    5258
	3     5625    6967    2044
	3     4493    7056    4335
	3     2043    6966    5624
	3     1342    7235    5972
	3     5973    7236    1343
	3     4789    6853    2410
	3     1841    6399    6342
	3     3587    4866    3591
	3     3959    6232    3960
	3     4627    7491    3074
	3     2733    7005    4579
	3     5202    6382    4832
	3     3035    7097    6474
	3      148    5658    2068
	3     1305    5658     147
	3     6381    6394    3646
	3     3475    7325    4542
	3     5489    7036    3967
	3     6310    7192    4893
	3     6308    7191    4894
	3     5818    6712    4482
	3     5819    6713    4483
	3     1920    6385    5237
	3     1924    6386    5238
	3     4763    5688    2100
	3     2101    5689    4762
	3     4338    5049    2295
	3     2145    6395    5453
	3     4318    7177    6881
	3     2121    5126    4295
	3     6493    6507    2970
	3     2969    6508    6492
	3     1791    3564    1285
	3     1921    6383    5462
	3     3578    6670    3577
	3     1710    4716    1027
	3     1711    4715    1064
	3     3595    4779    1029
	3     3594    4778    1066
	3     3596    4767     844
	3     1580    4546    1245
	3     1065    4778    1711
	3     1028    4779    1710
	3      843    4767    1712
	3     1715    3573    1277
	3     1581    4541     838
	3     1244    4546    1628
	3     1713    1610     833
	3     1405    3569    1018
	3     1714    3570    1055
	3      837    4541    1629
	3     1612    3566    1172
	3     1610    4769     832
	3     3570    4770    1054
	3     3569    4771    1017
	3     5522    6230    3920
	3     1542    3594    1067
	3     1539    3595    1030
	3     1540    3596     845
	3      831    4769    1545
	3     1016    4771    1544
	3     1053    4770    1546
	3     1139    4570    1621
	3      917    4572    1623
	3      954    4571    1624
	3     1176    4573    1622
	3     1502    4544     876
	3     1498    4545    1098
	3     1503    4543     987
	3      149    5660     150
	3      842    3550     841
	3      840    3551     839
	3     1206    3546    1205
	3     1095    3260    1094
	3      984    3128     983
	3      873    3392     872
	3     1284    3565    1283
	3     1249    3548    1248
	3     1057    3547    1056
	3     1020    3549    1019
	3     5462    7283    5822
	3     1243    3552    1242
	3     1175    4818    1174
	3     1174    5032    1173
	3     1026    3580    1025
	3     1063    3579    1062
	3      952    4857     951
	3     1137    4856    1136
	3      915    4835     914
	3     1138    4864    1137
	3      953    4865     952
	3      916    4852     915
	3      986    4609     985
	3      875    4608     874
	3     1097    4610    1096
	3     2203    4632    4444
	3     1282    3126    1281
	3     1024    3553    1023
	3     1061    3555    1060
	3     1288    5290    1287
	3     1240    5292    1239
	3     1287    4633    1286
	3     1241    4634    1240
	3     4788    7244     732
	3     1022    4569    1021
	3     1059    4568    1058
	3     1251    3571    1250
	3     1276    3574    1275
	3     1721    6507    6493
	3     6492    6508    1798
	3     1208    3567    1207
	3     1387    4805    1234
	3     1293    4806    1316
	3     1204    3560    1203
	3     1171    1818    1170
	3     1290    3556    1289
	3     1238    3557    1237
	3     1496    4508    1169
	3     2199    4573    1177
	3     2197    4571     955
	3     2198    4572     918
	3     2200    4570    1140
	3     1093    3561    1092
	3      982    3562     981
	3      871    3563     870
	3     4249    7325    3475
	3     1236    3558    1235
	3     1292    3559    1291
	3      847    3581     846
	3     1069    3582    1068
	3     6552    6904    1585
	3     1168    4508    1417
	3     1254    3583    1253
	3     1032    3593    1031
	3     1100    1386    1099
	3     1132    3597    1131
	3     1052    4821    1051
	3      830    4820     829
	3     1015    4819    1014
	3     1091    3605    1090
	3      980    3607     979
	3      989    3604     988
	3      878    1578     877
	3      910    1482     909
	3      947    1573     946
	3     1211    1310    1210
	3      869    3606     868
	3     1202    3608    1201
	3     1588    6901    6550
	3     1469    4806    1294
	3     1233    4805    1470
	3     1836    6130    1247
	3      957    3612     956
	3     2366    4485    1200
	3     2369    4484    1089
	3     2367    4487     867
	3     2368    4486     978
	3     1179    3610    1178
	3     1142    3609    1141
	3      920    3611     919
	3     1167    3630    1166
	3     1071    3613    1070
	3     1180    4780    2699
	3     1143    4781    2698
	3     1272    3629    1271
	3     1034    3616    1033
	3     1050    3623    1049
	3      849    3618     848
	3     1013    3626    1012
	3      828    3620     827
	3     1088    4484    2752
	3     1199    4485    2753
	3     1129    4530    1128
	3      958    4783    2723
	3      921    4782    2722
	3     2753    4489    1198
	3     1901    4781    1144
	3     2430    4780    1181
	3      866    4487    2651
	3      977    4486    2650
	3     1087    4513    1086
	3     1258    2300    1257
	3     1164    4826    1903
	3     1214    4825    3117
	3     1270    2701    1269
	3     2494    4589    1073
	3     2446    4592    1048
	3     1904    4593    1011
	3      976    4266     975
	3      825    4263     824
	3      904    4251     903
	3      887    4594    2447
	3     2498    4596    1036
	3      942    4267     941
	3      884    4711     883
	3     2496    4250     898
	3     2295    4290     960
	3     4521    4782     922
	3     2294    4521     923
	3     3120    4595     851
	3     2700    4288     881
	3     2445    4591     826
	3      809    4292     808
	3      823    4616     822
	3     2120    3971    1183
	3      886    4270     885
	3      803    4282     802
	3     3121    4281     906
	3      799    4294     798
	3     2499    4594     888
	3     1182    3971    2430
	3      902    4617     901
	3      821    4285     820
	3      807    4269     806
	3      856    4598    2454
	3      796    4531     795
	3     2454    4291     855
	3     1047    4592    2497
	3     4290    4783     959
	3      864    4488    2721
	3     2651    4488     865
	3     1902    4825    1215
	3      800    4599    2455
	3      854    4291    2305
	3     2770    4590     900
	3      899    4590    2496
	3      994    4273     993
	3      794    4257     793
	3      850    4595    2448
	3     3080    4293     992
	3     1035    4596    2449
	3     2735    4598      28
	3     2724    4599     801
	3      905    4281    1906
	3     1010    4593    2495
	3      944    4284     943
	3     3084    4309    1103
	3     1072    4589    2450
	3     3119    4826    1165
	3     1127    4324    1126
	3     1105    4319    1104
	3     1260    4310    1259
	3     1903    4468    1163
	3     1217    4301    1216
	3     1880    4332    1039
	3     1145    4295    1901
	3     2121    4295    1146
	3     4250    4296     897
	3     1162    4468    2077
	3     2287    4289     940
	3      939    4289    1597
	3      896    4296    1883
	3     1007    4343    1006
	3     1125    4618    1124
	3      863    4339     862
	3      962    4337     961
	3     1043    4349    1042
	3      811    4348     810
	3     1041    4328    1040
	3     1246    6130    1580
	3      924    4556    2294
	3       34    4340    1078
	3     2288    5016     792
	3     1076    5087    1377
	3     1401    4556     925
	3     1185    4451    1184
	3      938    4366     937
	3      895    4450     894
	3      791    5016    1599
	3     1523    5087    1077
	3      861    4368     860
	3     2308    4327    1266
	3     1840    4336     972
	3      963    4356    1402
	3      998    4334     997
	3      893    4335     892
	3      926    4367    1401
	3     1747    4777    1123
	3     2289    4564    1084
	3      935    4371     934
	3     1296    4351    1295
	3      859    4620     858
	3     1147    4490    2121
	3      933    4601     932
	3      969    4534     968
	3     1416    2302    1195
	3     1231    4409    1230
	3     1218    4638    2075
	3     1121    4387    1120
	3      970    4730     969
	3      971    4336    1389
	3       30    4396     930
	3     1330    4356     964
	3      931    4455      31
	3     2077    4333    1161
	3     1265    4327    1504
	3     1599    4495     790
	3      857    4372      29
	3     1003    4621    1002
	3       32    4404    1004
	3     1470    4355    1232
	3       39    4363    1263
	3     1119    4392    1118
	3     1113    4388    1112
	3       40    4414    1300
	3     1193    4456    1192
	3     1117    4630    1116
	3     1229    4412    1228
	3     1299    4411    1298
	3     1388    4367     927
	3      965    4726    1330
	3     1122    4777    1312
	3     1159    4425    1158
	3     2923    6398    2925
	3     1302    4501     936
	3     1187    4416    1186
	3     1504    4365    1264
	3      928    4882    1388
	3     4382    4726     966
	3      819    4427     818
	3     1083    4564    1551
	3     1110    4527    1317
	3     1456    4382     967
	3     1191    4459    1190
	3      789    4495    1486
	3     1550    4490    1148
	3     1475    4527    1111
	3     1155    4448    1154
	3     1153    4632      37
	3     1225    4460    1224
	3     1471    4882     929
	3     1194    2302    1558
	3     1396    4638    1219
	3     1160    4333    1521
	3     1486    4395     788
	3      814    4418    1485
	3     1551    4402    1082
	3     1044    5923    1881
	3     1149    4420    1550
	3      787    4395    1618
	3     1617    4418     815
	3     1081    4402    1403
	3     1630    4420    1150
	3       35    4600    1615
	3     1616    4417      36
	3     1403    4419    1080
	3     1151    4422    1630
	3     4419    4600    1079
	3     4351    5046    1469
	3     1618    4578     786
	3     4417    4422    1152
	3     1220    4424    1396
	3      816    4435    1617
	3     1322    6705    5612
	3     1890    4424    1221
	3      785    4578    2141
	3     1891    4614    1157
	3     1222    4615    1890
	3     1414    4435     817
	3     2141    4426     784
	3     2280    4615    1223
	3     1156    4614    2281
	3     5511    6876    6348
	3     2203    4442    1189
	3     1188    4442    2107
	3     4858    5098    2186
	3     4860    5097    2178
	3     2204    4436      38
	3     1226    4436    2419
	3     5240    6783    6618
	3     3994    6968    1361
	3     4755    6542    1317
	3     1842    6355    5095
	3     5096    6356    1843
	3     1001    6119    1000
	3     1390    7465    4637
	3     4636    7464    1331
	3     1070    7363    2078
	3     1378    7365    1007
	3     5028    7278    7085
	3     3915    7013    6530
	3     1720    7016    6680
	3     5235    1520    1565
	3     5234    5804    1562
	3     1000    6186     999
	3     6212    6213    4315
	3     1469    7076    4806
	3     1333    5667    5665
	3     4811    6554    3060
	3     4331    6430    4867
	3     1496    6564    4508
	3     2176    7145    7121
	3     4379    6724    4493
	3     5529    6939    4643
	3     3956    4839    4838
	3      895    7481    4450
	3     4451    7482    1184
	3     3804    6559    5461
	3     4638    6777    4307
	3     6979    7008     636
	3     4455    7483      31
	3     3992    4850    3993
	3     1193    7484    4456
	3     4446    4749    4597
	3     4295    6196    1901
	3     5152    6264    5191
	3     4459    7487    1190
	3     2680    4830    2982
	3     1225    7490    4460
	3     1474    6691    3472
	3     5362    6871    5361
	3     5364    6872    5363
	3     7121    7145    5442
	3      624    5783    5782
	3      578    5787    5786
	3      532    5785    5784
	3     6307    6538    1599
	3     1793    5783     625
	3     1794    5787     579
	3     1795    5785     533
	3     3388    7124    6415
	3     5817    6731    4492
	3     1744    7031    4710
	3     1664    5858    1659
	3     4745    7457     728
	3     1440    6714    6155
	3     2169    6342    1352
	3     6627    6748    2229
	3      770    6332     769
	3      483    7003    6970
	3     3390    7280    5936
	3     3258    7279    5935
	3     1596    7373    6242
	3     3115    7034    4829
	3     4552    4888    2369
	3     4553    4889    2368
	3     5156    6270    5154
	3     6445    6459    5245
	3     5249    6460    6446
	3     3974    7403    3971
	3     4898    6439    1622
	3     3567    6325    4582
	3     6619    6767    5368
	3     3991    6918    6211
	3     4616    6709    4287
	3     5604    6697    5602
	3     4449    6943    4632
	3     5621    6242    5969
	3     5099    7261    2391
	3     1389    6301    4730
	3     4207    7518    4619
	3     4533    6787    4299
	3     4806    7076    3061
	3     6057    7104    4438
	3     2720    6340     974
	3      973    6340    1840
	3     2428    6827    6736
	3     1518    7417    6114
	3     3383    6878    4559
	3     3251    6879    4563
	3     3533    6880    4561
	3     6598    6762    4342
	3      889    6345    2499
	3     1074    6346    2494
	3     1377    6346    1075
	3     4756    6997    3000
	3     3001    6998    4757
	3     6802    7180    6110
	3     1620    6459    6445
	3     6446    6460    1619
	3     6667    6843    5732
	3     5727    6842    6666
	3     5195    7008    6979
	3     4291    6279    2305
	3     5167    5169    5168
	3     5176    5178    5177
	3     5185    5187    5186
	3     6742    6828    2429
	3     4626    6732    2511
	3     6724    6832    4493
	3     6825    7523    3078
	3     6826    7524    3072
	3     3059    7203    6511
	3     4535    6807    6479
	3     6480    6808    4536
	3     6530    7013    4423
	3     3251    4562    1816
	3     3533    4560    1813
	3     3383    4558    1814
	3     4379    7456    6724
	3     6475    7505    5747
	3     5750    7506    6476
	3     3006    6658    6573
	3     3575    3576    1543
	3     3598    3600    1310
	3     6970    7003    5201
	3     5946    6961    1444
	3     1443    6960    5941
	3     4560    7272    3563
	3     4562    7271    3562
	3     4558    7270    3561
	3     5236    5788    1561
	3     6138    6145    4845
	3     4849    6144    6139
	3     4739    6339    5614
	3     2079    3586    3584
	3     3619    4611    3618
	3     3620    3622    3621
	3     3623    3625    3624
	3     3626    3628    3627
	3     3617    4639    3616
	3     2299    3599    3598
	3     4302    4308    4301
	3     2210    4287    4286
	3     4271    4772    2080
	3     2285    4275    4274
	3     2413    4321    4320
	3     4268    4816    2287
	3     4329    4765    4328
	3     1429    4330    4329
	3     4341    4342    4340
	3     2307    4312    4311
	3     2738    4898    3077
	3     2742    4896    3075
	3     2746    4897    3073
	3     2750    4895    3071
	3     2075    4303    4302
	3     4355    4481    4410
	3     1420    4398    4397
	3     4452    6617    4451
	3     4412    7042    4753
	3     4759    6761     162
	3     1416    3928    3927
	3     4255    6427    6416
	3     1476    4374    4373
	3     1521    4567    4566
	3     4397    4399    4396
	3     1457    4798    4405
	3     4454    4891    3558
	3     3559    4892    4453
	3     4410    4579    4409
	3     4389    4640    4388
	3     1526    4390    4389
	3     4606    4607    4411
	3     5945    5984    5815
	3     5813    5985    5940
	3     2059    6594    5077
	3     6818    6837    2401
	3     2256    4429    4428
	3     2281    4773    2421
	3     4428    4430    4427
	3     5539    6331    4350
	3     6742    7083    1939
	3     4787    6636    4742
	3     1572    6922    5290
	3     5292    6923    1574
	3      753    4732    4731
	3     4876    5015    2190
	3     2301    6422     908
	3      990    6426    2296
	3      879    6424    2297
	3     2303    6423     945
	3     1101    6425    2298
	3      907    6422    3121
	3     4309    6425    1102
	3     4288    6424     880
	3     4293    6426     991
	3      852    6427    3120
	3     2305    6427     853
	3     2260    6708    5047
	3     4620    6726    4374
	3     1937    7081    6736
	3     3472    6969    4392
	3     4749    6788    2051
	3     4299    6707    4300
	3     4392    6969    4393
	3     6485    6611    2306
	3     3928    5126    3927
	3     4996    6297    5385
	3     5384    6296    4997
	3     3557    7096    1394
	3     1479    7095    3556
	3     7085    7111    4434
	3     5666    6654    2058
	3      480    6942    6907
	3     6059    7111    7085
	3     1305    7486    5654
	3     2330    6455     805
	3      804    6455    2209
	3     6905    6936     639
	3     4612    7285    2460
	3     4446    4597    4445
	3     4444    7507    4447
	3     4765    7022    4328
	3     2047    6070    5092
	3     1086    6464    1085
	3     4614    7475    2281
	3     1741    6641    4757
	3     4443    4447    4446
	3     4883    5792    1767
	3     4884    5793    1768
	3     4803    6785    3573
	3     4730    7243     969
	3      969    7243    4534
	3     4706    7479    4704
	3     4701    7478    4703
	3     4438    7104    4437
	3     3060    6554    3059
	3     1449    6202    4817
	3     5782    5783    3299
	3     5784    5785    3167
	3     5786    5787    3431
	3     5123    6411    6400
	3     6401    6412    5118
	3     5754    6984    5753
	3     2298    7124    1386
	3     4264    7224    4711
	3     2450    7412    3614
	3     2447    7413    4272
	3     4611    7388    3517
	3     4697    5139    4700
	3     1442    7305    5685
	3     5612    7234    1322
	3     1037    6489    2498
	3     2497    6490    1046
	3     2495    6491    1009
	3     4332    6489    1038
	3     1008    6491    1378
	3     3200    6756    4715
	3     3332    6757    4716
	3     5085    6352    2118
	3     7060    7180    1494
	3     7061    7181    1500
	3     4676    6272    1534
	3     1418    6368    5746
	3     3486    6869    4625
	3     1045    6490    5923
	3     1815    7411    1204
	3     5745    6367    1334
	3     6400    6411    1918
	3     1917    6412    6401
	3     5744    6741    6596
	3     6595    6740    5742
	3     2759    7014    6131
	3     6132    7015    2764
	3     3572    6804    3571
	3     4477    6915    4386
	3     6114    7385    1518
	3     3025    7146    5883
	3     6645    7491    4627
	3     5041    7336    6719
	3     5885    7147    3049
	3     7035    7144    1501
	3     4752    7130     215
	3     5253    5857    5832
	3     4710    7046    1744
	3     4747    4786    2275
	3     1616    6721    4886
	3     1613    6563     913
	3     5954    6262    1481
	3     1480    6261    5953
	3     1587    6711    5289
	3     1586    6710    5277
	3     3116    6535    1268
	3     1267    6535    2308
	3     4733    6815    1464
	3     5807    5829    3521
	3     4347    7407    5528
	3     1625    6573    1280
	3     2391    6927    5099
	3     2119    6328    5083
	3     1547    6743    5753
	3     4724    6655    6641
	3     2939    5932    2942
	3     4850    4851    3993
	3     4328    7022    1880
	3     3991    6211    1347
	3     2423    4712     350
	3     1611    6586    1135
	3     1614    6587     950
	3     4647    5425    4650
	3     4692    7037    4693
	3     3587    3591    3590
	3     4554    7253    6372
	3       45    6549    6283
	3     6282    6548     332
	3      125    6737    4768
	3     1130    6574    1129
	3     4587    6555    4588
	3     4586    6556    4585
	3     1377    6806    6346
	3     5077    6758    2059
	3     2315    4740    4739
	3     6470    6623    4455
	3     4222    6676    6536
	3     2239    4837     354
	3      353    4837    2425
	3     5169    7396    6172
	3     5178    7395    6174
	3     5187    7394    6173
	3     3952    6514    3953
	3     3383    7331    6878
	3     3533    7333    6880
	3     3251    7332    6879
	3     6498    7096    3557
	3     3556    7095    6497
	3     2306    6611     797
	3     1891    6994    4614
	3     4615    6995    1890
	3     6479    6807    1468
	3     1467    6808    6480
	3      760    5139    2240
	3     2426    5139     761
	3     3572    7390    6809
	3     2510    6803    4566
	3     5832    5858    5253
	3      357    5425    1397
	3     4880    7241    6408
	3     6409    7242    4881
	3     1348    4850    3992
	3     4704    7479    4705
	3     4702    7478    4701
	3     6279    6416    2305
	3      829    7426    2073
	3     1051    7427    2071
	3     1014    7428    2070
	3     4991    5101    1710
	3     4992    5100    1711
	3     1278    6658    1715
	3     1599    6538    4495
	3     6189    6529    1540
	3     1589    6723    5265
	3     1505    5939    5938
	3     5943    5944    1395
	3     5992    6882    4835
	3     4174    5453    4802
	3     6907    6942    3104
	3     2279    6473    4850
	3      883    6649     882
	3     3103    6936    6905
	3     4541    6450    1629
	3     2458    7177    4729
	3     2245    5031    5029
	3     4979    5081    4978
	3     4982    6300    4983
	3     5003    7259    6064
	3     6066    7260    5006
	3     2705    6136    3492
	3     4829    7034    1791
	3      765    4713     764
	3     4767    7334    3515
	3     5754    7275    6984
	3     1404    4756     369
	3      745    4757    1708
	3      759    4674     758
	3     1741    4757     746
	3      368    4756    1740
	3     4898    6720    6439
	3      352    4704     351
	3      763    4701     762
	3      356    4645     355
	3     6372    7253    2720
	3     4822    5425     358
	3     2876    6325    6016
	3     4833    6950    3127
	3     4734    4855     361
	3     1540    6529    3596
	3     1301    4822     359
	3     1319    6297    4996
	3     4997    6296    1309
	3     4618    6684    1747
	3     1465    4734     362
	3      360    4855    1301
	3      150    5660    1321
	3     2068    5660     149
	3     5965    7235    1342
	3     1343    7236    5966
	3     4869    6525    4870
	3     6372    7408    4554
	3     4872    6582    3171
	3     4873    6583    3303
	3      371    4714     370
	3      744    2427     743
	3      742    4718     741
	3      373    4717     372
	3      367    4719     366
	3      748    4722     747
	3      753    4731     752
	3     4119    5477    4094
	3      174    6465    6380
	3      375    4728     374
	3      740    4727     739
	3     1108    6699    1409
	3     4598    6584    2454
	3      565    6477    4804
	3      377    4746     376
	3     1317    6699    1109
	3      379    4736     378
	3      736    4741     735
	3      738    4747     737
	3     5239    6634    4235
	3     6824    6836     644
	3     5604    7215    6697
	3     1722    6814    6602
	3     4760    7519      76
	3      301    7520    4761
	3     1539    6558    3595
	3     1542    6557    3594
	3     5956    7526    4629
	3     4628    7527    5957
	3     6525    6539    4870
	3     5827    6357    1801
	3     5491    6959    6664
	3      835    6768     834
	3     4226    6566    6061
	3     4695    6272    4679
	3     4801    4999    3578
	3     4692    7387    7037
	3     4667    4668    2239
	3     5453    6395    4802
	3     6364    6377    1525
	3     1524    6376    6363
	3     4880    4901    1323
	3     1324    4939    4881
	3     2279    4850    1348
	3     5753    6984    1547
	3     2662    7170    4829
	3     2969    6472    5426
	3     4597    4749    2279
	3     4635    7171    2664
	3     5120    6377    6364
	3     6363    6376    5115
	3     6187    6557    1542
	3     6188    6558    1539
	3      384    6396     383
	3     5429    6471    2970
	3     1659    5858    5832
	3     5499    7066    4378
	3     6469    6664    4345
	3     4323    6664    6469
	3     2367    6481    4487
	3      734    4800     733
	3     2294    7408    6372
	3     6699    7521    1409
	3     5972    6717    1342
	3     1343    6718    5973
	3      891    6744     890
	3     5996    7344    3068
	3     3070    7345    5995
	3     5528    7407    4210
	3     4675    4676    1534
	3      122    5859     123
	3     1797    5858    1664
	3     6138    6961    5946
	3     5941    6960    6139
	3     3596    7334    4767
	3     3556    6497    4583
	3     4584    6498    3557
	3     3926    6394    6381
	3     5943    5984    5945
	3     5940    5985    5938
	3     2969    6492    6472
	3     6471    6493    2970
	3     1347    7193    4748
	3     1952    4980    1950
	3     1994    4984    1996
	3     5142    7451    3177
	3     5143    7452    3309
	3      473    6810    6799
	3     4779    7360    3367
	3     4778    7359    3235
	3     4719    4721    4720
	3      757    6272     756
	3     4415    7063    4606
	3     6670    7420    3577
	3     1311    6230    4580
	3     2461    7216    4612
	3     1903    6640    4468
	3     6105    6337    5005
	3     5002    6338    6106
	3     2055    7067    5683
	3     4552    7523    6825
	3     4553    7524    6826
	3     4237    7248    6820
	3     5537    6598    4341
	3     3595    7360    4779
	3     3594    7359    4778
	3     4236    6789    6746
	3     6415    7504    7428
	3     6414    7503    7426
	3     6413    7502    7427
	3     5246    6433    5245
	3     5249    6432    5250
	3     6259    6955    4968
	3     3234    7310    6805
	3     1462    6443    4824
	3     5487    6229    5488
	3     2275    4786    4742
	3     2802    6336    6327
	3     6326    6335    2801
	3     4508    7233    1417
	3     5991    6920    4856
	3     5990    6921    4857
	3     1581    6838    4541
	3     1748    5609    5454
	3     6780    6786     647
	3     1208    7393    3568
	3     6327    6336    1450
	3     1451    6335    6326
	3     6164    5081    4979
	3     4983    6300    6163
	3     4425    6248    1891
	3     3916    5461    4886
	3     4398    7497    5497
	3     6050    6689    3250
	3     6051    6690    3382
	3     6049    6688    3532
	3     4812    6599    2959
	3     5052    6226    5080
	3     1505    5938    5937
	3     5942    5943    1395
	3     4930    6965    6258
	3     6433    6445    5245
	3     5249    6446    6432
	3     4930    6258    4937
	3     4975    6259    4968
	3      382    4790     381
	3     4862    6287    3046
	3     3022    6288    4863
	3     3234    6805    3233
	3     4338    7195    5049
	3     4977    4978    2037
	3     2036    4982    4981
	3     5047    7492    2260
	3     3094    4901    3092
	3     3098    4939    3100
	3       39    7402    4364
	3     2786    6214    5335
	3     6618    6783    1933
	3     4534    7230    4798
	3     4418    6854    1485
	3     1953    5878    1975
	3     2019    5877    1997
	3     6368    7264    5746
	3     4417    6559    4422
	3     6447    6536    1439
	3      215    7050    4752
	3     1320    6738    5651
	3     4693    7037    6137
	3     4331    7437    6430
	3     1624    7454    4865
	3     1621    7453    4864
	3     3972    3974    3971
	3     6489    7516    2498
	3     2497    7515    6490
	3     2495    7517    6491
	3     5334    6215    2785
	3     2120    3973    3972
	3     4357    4362    4356
	3     2302    3926    3631
	3     5745    7265    6367
	3     2331    4297    1883
	3     1550    6569    4490
	3     1330    4358    4357
	3     4352    4353    4351
	3     1456    4384    4383
	3     4555    7130    4752
	3     3631    3632    1558
	3     4709    6837    6818
	3     4403    4542    4402
	3     4420    4526    4421
	3     4804    7204    1935
	3     5954    6637    6262
	3     6261    6638    5953
	3     6555    6844    4588
	3     4586    6845    6556
	3     4445    4748    2107
	3     4537    5027    4426
	3     2204    4438    4437
	3     1514    6660    5185
	3     1515    6661    5176
	3     2203    4444    4443
	3     1513    6662    5167
	3     4439    4440    2419
	3     1623    7405    4852
	3     2215    7457    6636
	3     3111    6934    4875
	3     4874    6935    3112
	3     1599    7450    6307
	3       26    5042     777
	3     4902    5050    4938
	3     2941    5932    2939
	3     3027    5107    3029
	3     5108    5789    5113
	3     3791    5498    5045
	3     2942    5932    2959
	3     1975    5878    5017
	3     5019    5877    2019
	3     3474    6721    4631
	3     4777    7470    1312
	3     1410    3467    4994
	3     3092    4901    4880
	3     4881    4939    3098
	3     5156    6323    1593
	3     1774    5435    4995
	3     4824    6578    1462
	3     1748    5820    3471
	3     1324    4976    4939
	3     5981    6121    2039
	3     2038    6120    5982
	3     1503    6629    4543
	3     1502    6630    4544
	3     1498    6631    4545
	3     1909    5428    5137
	3     1909    5847    3467
	3     5616    6800    2504
	3     5652    6447    2060
	3     2060    7103    5651
	3     6211    6918    4452
	3     4872    4899    1714
	3     4873    4900    1405
	3     5488    6229    3739
	3     2505    6801    5617
	3     1774    5474    5435
	3     5027    7443    4426
	3     4994    3468    1410
	3     6736    6827    5023
	3     5610    5612    5583
	3     5836    6748    6627
	3      733    4788     732
	3     1629    5013    5012
	3     4902    4938    4901
	3      162    7471    4759
	3     5120    6354    5121
	3     5116    6353    5115
	3     4153    5477    4119
	3     4094    5477    5476
	3     5036    6246    1914
	3     1197    6996    1196
	3     5605    6379    5606
	3     3467    5847    4994
	3     5335    6214    1466
	3     2037    4980    1952
	3     1996    4984    2036
	3     5137    5847    1909
	3     5080    6226    3735
	3     4363    7221    4729
	3     1743    6767    6619
	3     1883    7481     895
	3     1184    7482    2120
	3     1410    3470    1699
	3     5035    5036    3102
	3      911    7035    1501
	3       31    7483    1456
	3     4865    7454    7073
	3     4864    7453    7072
	3     2526    5035    3102
	3     3101    5038    2529
	3     1133    7060    1494
	3      948    7061    1500
	3     1558    7484    1193
	3     1594    6322    5191
	3     4832    6382    2384
	3     5026    6828    6742
	3     1956    5349    1954
	3     1998    5348    2000
	3     5407    6454    1447
	3     1190    7487    2204
	3     6415    7428    3391
	3     6414    7426    3545
	3     6413    7427    3259
	3     5337    6836    6824
	3     2419    7490    1225
	3     2781    5043    2796
	3     2795    5044    2782
	3       76    7276    4760
	3     4761    7277     301
	3     5016    7450    1599
	3     1393    6215    5334
	3     5120    6364    6354
	3     6353    6363    5115
	3     3600    7308    4807
	3     1699    3470    1694
	3     4762    7071    2101
	3     1274    7420    1273
	3     3471    5820    3469
	3      996    7435     995
	3     1107    7436    1106
	3     1256    7433    1255
	3     1005    7437      33
	3     1262    7438    1261
	3     1209    7393    1208
	3     5134    5427    1910
	3     2037    5349    4977
	3     4981    5348    2036
	3     1115    7440    1114
	3     4606    7063    2465
	3     5038    5040    2529
	3      783    7443      27
	3     1910    5846    5134
	3     4878    4879    1815
	3     1810    5105     722
	3     6623    7483    4455
	3     1227    7402      39
	3     1525    6377    5123
	3     5118    6376    1524
	3     4753    7042    2464
	3     6617    7482    4451
	3     3561    7270    6308
	3     3563    7272    6309
	3     3562    7271    6310
	3     6251    6257    5074
	3     1370    6536    5652
	3     5820    6204    3469
	3     4978    4980    2037
	3     2036    4984    4982
	3     4817    6774    1449
	3     4825    7186    2701
	3     2300    7184    4826
	3     1489    5023    5021
	3     5024    5026    1490
	3     5438    3482    2527
	3     2049    5859     122
	3     3488    6775    4466
	3      123    5859    1751
	3     3533    4561    4560
	3     3251    4563    4562
	3     3383    4559    4558
	3     3945    6569    3921
	3     3764    6257    6251
	3     1446    6431    5403
	3     2692    6237    3000
	3     4391    7440    6142
	3     6264    7287    5191
	3     1668    5436    1758
	3     4852    7405    7049
	3     5046    7076    1469
	3     7272    7430    2747
	3     7271    7431    2751
	3     7270    7429    2739
	3     3471    5609    1748
	3     3094    4902    4901
	3     4939    4940    3100
	3     2122    7344    5996
	3     5995    7345    2123
	3     4995    5436    1774
	3     3884    6684    3886
	3     4667    4669    4668
	3     5497    6778    4398
	3     3598    3601    3600
	3     2802    6312    4996
	3     4997    6311    2801
	3     4980    5863    1950
	3     6245    6247    5079
	3     1994    5862    4984
	3     5298    7290    6880
	3     5312    7289    6879
	3     5305    7288    6878
	3     6283    6549    4972
	3     4934    6548    6282
	3     5132    5133    3065
	3     5082    5083    3003
	3     3586    3587    3584
	3     5402    5403    3009
	3     3951    7470    4777
	3     4446    6788    4749
	3     1372    6395    2145
	3     3761    6247    6245
	3     3029    5107    3033
	3     3008    5406    2336
	3     3101    5039    5038
	3     2512    5132    3065
	3     3066    5135    2513
	3     3959    7252    6232
	3     6055    6788    4447
	3     2512    5134    5132
	3     2285    4276    4275
	3     2413    4322    4321
	3     5436    5846    1910
	3     3469    6204    3470
	3     1429    4331    4330
	3     1526    4391    4390
	3     2256    4432    4429
	3     5033    5349    1959
	3     2003    5348    5034
	3     4550    4989    4549
	3     2307    4313    4312
	3     2967    5437    5197
	3     5435    5474    5420
	3     3002    5084    2319
	3     2320    5082    3003
	3     4303    4304    4302
	3     2356    6501    6032
	3     4330    4619    4329
	3     1450    6336    5121
	3     5116    6335    1451
	3     2299    3603    3599
	3     6235    6238    5488
	3     2079    3592    3586
	3     3576    3577    1543
	3     4838    6886    3955
	3      363    6526    1465
	3     1464    6527     751
	3     2526    5037    5035
	3     5017    5525    1975
	3     2019    5524    5019
	3     4397    4400    4399
	3     4374    4375    4373
	3     1494    7180    6802
	3     2337    5402    3009
	3     4578    6677    2141
	3     4798    4799    4405
	3     6564    7233    4508
	3     5246    6412    1917
	3     1918    6411    5250
	3     2802    6327    6312
	3     6311    6326    2801
	3     1916    6223    5039
	3     3771    6238    6235
	3     5648    7031    1744
	3     1951    5878    1953
	3     1997    5877    1995
	3     4700    6606    4699
	3      605    5209     604
	3      513    5216     512
	3     5524    6219    2803
	3     2813    6220    5525
	3     4428    4431    4430
	3     2777    3468    2775
	3     5137    5428    2513
	3     4904    5050    4902
	3     4773    4774    2421
	3     2231    6337    6105
	3     6106    6338    2232
	3     4663    7208    4673
	3     5261    5264    5263
	3     5135    5136    3005
	3     5285    5288    5287
	3     5273    5276    5275
	3     5156    7297    6270
	3     2118    7327    5085
	3     5038    5039    2977
	3     4983    6296    5384
	3     5385    6297    4979
	3     5417    5816    5418
	3     4907    5050    4904
	3     6820    7248    4600
	3     4617    6817    2770
	3     2773    5420    5418
	3     5135    5137    2513
	3      604    5209    1554
	3      512    5216    1553
	3     5429    6459    1620
	3     1555    6576    5356
	3     5084    5090    2319
	3     2320    5091    5082
	3     2775    3468    4994
	3     5418    5816    2773
	3     4583    7441    2768
	3     2769    7442    4584
	3     4589    7412    2450
	3     4594    7413    2447
	3     4978    5081    4980
	3     4984    6300    4982
	3     3591    4766    3590
	3     2781    5333    5043
	3     5044    5332    2782
	3     2440    5263    2438
	3     5389    6161    5388
	3     3209    5287    3207
	3     3341    5275    3339
	3     5034    6100    2003
	3     1959    1495    5033
	3     5165    6841    1513
	3     5183    6839    1514
	3     5174    6840    1515
	3     2319    5090    1375
	3     1376    5091    2320
	3     5333    5452    2535
	3     2533    5451    5332
	3     5406    5407    5405
	3     1401    6874    4556
	3     4184    6951    4219
	3     4618    7107    6684
	3     6069    6722    4481
	3     2757    7014    2759
	3     2764    7015    2762
	3     2820    6321    5901
	3     5900    6320    2810
	3     1943    6544    5358
	3     3116    6897    6535
	3     4713    5014    2424
	3     4828    6442    3891
	3     2330    7444    6455
	3     3465    5716    2570
	3     4556    7408    2294
	3     2613    5717    5433
	3     1532    7005    4413
	3     3033    5107    5106
	3     4801    7051    2870
	3     1824    6153    1825
	3     1619    6460    5426
	3     2773    5435    5420
	3     5028    6585    6061
	3     3468    3470    1410
	3     5260    5261    3503
	3     5284    5285    3221
	3     5272    5273    3353
	3     4675    4677    4676
	3     1954    5349    2037
	3     2036    5348    1998
	3     5259    5260    3503
	3     5939    5940    5938
	3     5943    5945    5944
	3     5283    5284    3221
	3     5271    5272    3353
	3     2336    5406    5093
	3     2711    5122    2558
	3     2601    5117    2710
	3     4751    6991    3234
	3      342    5041       2
	3     4550    4990    4989
	3     3491    7499    4624
	3     5836    6627    2135
	3     6573    6658    1279
	3     6799    6810    5331
	3     3002    5085    5084
	3     4652    7418    4813
	3     2512    5427    5134
	3     4787    7314    6636
	3     4335    6348    1882
	3     5351    6568    1742
	3     4926    5089    4921
	3     5035    5037    2780
	3     2998    6192    2995
	3     2988    6193    2991
	3     4869    6507    1721
	3     1798    6508    4871
	3     4241    3484    5102
	3     3927    6394    3926
	3     5037    5359    2780
	3     5102    3484    4147
	3     3008    5407    5406
	3     5084    5085    3105
	3     4317    6837    4709
	3     1959    5349    1956
	3     2000    5348    2003
	3     5040    5438    2529
	3     5514    6250    5074
	3     5359    5446    2518
	3     2136    6315    5759
	3     5749    6316    2138
	3     2529    5438    2527
	3     5027    5028    4433
	3      335    2502     336
	3       41    2503      42
	3     3856    7499    3491
	3     2444    5259    3503
	3     3343    5271    3353
	3     3211    5283    3221
	3     2438    5263    3520
	3     3339    5275    3370
	3     3207    5287    3238
	3     4378    7086    5499
	3     5376    5963    2661
	3     2660    5964    5373
	3     6165    6244    3099
	3     3093    6243    6157
	3     3177    7199    5142
	3     3309    7200    5143
	3     2711    5123    5122
	3     5117    5118    2710
	3     6250    6251    5074
	3     5392    1552    5393
	3     4818    7374    1174
	3     1174    7374    5032
	3     4864    7376    1137
	3     4865    7375     952
	3     4852    7377     915
	3      952    7375    4857
	3     1137    7376    4856
	3     5094    5402    2337
	3      915    7377    4835
	3     4750    6681    4118
	3     1287    7378    4633
	3     6994    7475    4614
	3     4634    7379    1240
	3      733    4800    4788
	3     4901    4938    1323
	3     5290    7378    1287
	3     1240    7379    5292
	3     2530    6161    5389
	3     4809    7038    2466
	3     2798    6236    5334
	3     2531    5417    5393
	3     1774    5436    1668
	3     2467    7041    5014
	3     5090    5158    1375
	3     1376    5159    5091
	3     3323    5207    3318
	3     3191    5214    3186
	3     2756    6801    1940
	3     3413    5166    3427
	3     5367    5439    2896
	3     5849    6800    2761
	3     3149    5175    3163
	3     3281    5184    3295
	3     1758    5436    1910
	3     5395    5716    3465
	3     1888    5463    2237
	3     1396    6777    4638
	3     5433    5717    5397
	3     4829    7267    2662
	3     5827    6793    6357
	3     5093    5406    2791
	3     5652    6536    6447
	3     2664    7268    4635
	3     2503    5096      42
	3      335    5095    2502
	3     3323    5208    5207
	3     3191    5215    5214
	3     5043    5333    2535
	3     2533    5332    5044
	3     5356    6603    1555
	3     4933    4935    4932
	3     4970    4973    4971
	3     5080    6229    5487
	3     2940    5196    2938
	3     4830    6995    2982
	3     4258    6345    4260
	3     2424    4702    4701
	3     4704    4705    2423
	3     5377    5963    5376
	3     5373    5964    5374
	3     5335    6240    2797
	3     2443    5259    2444
	3     3213    5283    3211
	3     3345    5271    3343
	3     5051    6222    3782
	3     2100    7091    4763
	3     6061    6585    4226
	3     2791    5408    5093
	3     5094    5404    2792
	3     5881    6200    2732
	3     2730    6201    5882
	3     6255    6274    1458
	3     1459    6273    6254
	3     1842    5095     334
	3       43    5096    1843
	3     4786    4787    4742
	3     5562    7341    6077
	3     6076    7342    5565
	3     5417    5418    1749
	3     5127    5531    2793
	3     5051    6226    5052
	3     4675    4681    4677
	3     2792    5402    5094
	3     1824    3482    5438
	3     1742    6581    5351
	3     5895    5925    3929
	3     2178    6601    4860
	3     2186    6600    4858
	3     2240    4696    4674
	3     4663    6639    4855
	3     4669    4670    4668
	3     4697    4698    4696
	3     3042    5129    4576
	3     4574    5130    3018
	3     5086    3473    3772
	3     5128    5532    1340
	3      835    7384    6768
	3     5670    5704    5125
	3     5124    5703    5671
	3     2777    3469    3468
	3     3201    5100    3204
	3     3333    5101    3336
	3     5651    7103    1320
	3     4971    5088    4961
	3     2794    5532    5128
	3     3200    5100    3201
	3     3332    5101    3333
	3     2936    7229    4776
	3     5164    5165    3420
	3     5173    5174    3156
	3     5182    5183    3288
	3     5163    5164    3420
	3     2531    5816    5417
	3     4705    4809    2423
	3     5172    5173    3156
	3     5181    5182    3288
	3     4915    5224    4912
	3     2424    5014    4702
	3     5327    5328    5030
	3     1620    6471    5429
	3     5358    6562    1943
	3     1384    5531    5127
	3     4782    6852    2650
	3     5895    6185    3676
	3     5393    1552    2531
	3     2019    6219    5524
	3     5525    6220    1975
	3     3694    5887    3683
	3     5198    5199    3010
	3     2001    5704    5670
	3     5671    5703    1957
	3     3930    5925    5466
	3     1605    6309    4853
	3     1905    7321    7068
	3     2780    5359    2518
	3     4970    4971    4961
	3     4923    4933    4932
	3     5512    6184    3767
	3     3782    6222    6210
	3     2023    5374    2014
	3     1970    5377    1979
	3     5197    5437    5196
	3     5416    5417    1749
	3     5983    7034    3115
	3     3929    5925    3930
	3     2082    5408    2277
	3     2278    5404    2084
	3     1397    4646    4645
	3     4353    5046    4351
	3     3520    6046    2436
	3     1917    6433    5246
	3     5250    6432    1918
	3      397    5113    1812
	3     3973    3975    3972
	3      764    4713    2424
	3     3430    5296    5294
	3     3166    5310    5308
	3     3298    5303    5301
	3     3452    5328    3448
	3     5426    6472    1619
	3     2331    4298    4297
	3     5324    6786    6780
	3     2785    6215    5373
	3     5376    6214    2786
	3     4358    4359    4357
	3     2091    5374    2023
	3     1979    5377    2097
	3     5121    6354    1450
	3     1451    6353    5116
	3     2966    5338    2928
	3     4352    4354    4353
	3     2690    5155    2333
	3     3503    5263    2440
	3     3221    5287    3209
	3     3353    5275    3341
	3     5512    6191    4473
	3     6240    6254    2797
	3     1806    7275    5754
	3     4384    4385    4383
	3     3631    3633    3632
	3     2889    5331    5330
	3     5110    5345    2566
	3     2609    5347    5112
	3     1537    6440    6123
	3      399    5108       7
	3     6118    6438    1538
	3     1808    7148    5140
	3     5141    7149    1807
	3        7    5108     398
	3     3772    3473    6197
	3     1721    6525    4869
	3     2007    5433    5397
	3     5157    5887    3694
	3     1397    4645     356
	3     2889    5330    2849
	3     2577    5119    5109
	3     5111    5114    2620
	3     2798    6255    6236
	3     5223    5224    4927
	3     2424    4701     763
	3      351    4704    2423
	3     2558    5122    2577
	3     2620    5117    2601
	3     2710    5247    2602
	3     2559    5251    2711
	3     2935    5437    2934
	3     5193    5194    2946
	3     4648    4652    4646
	3     4871    6528    1798
	3     1437    6100    5034
	3     4965    5431    5226
	3     5033    1495    6068
	3     3512    5147    4480
	3     2240    4674     759
	3     3230    5149    4465
	3     3362    5148    4464
	3     6037    6908    2254
	3     4995    5846    5436
	3     5395    3465    1963
	3     3066    5136    5135
	3     1655    5419    1653
	3     2237    5463    2473
	3     2649    6128    2987
	3     2994    6127    2646
	3     4691    5138    4683
	3     6380    6465    5075
	3     5506    6162    3770
	3     6191    6197    4473
	3     5256    5259    2443
	3     5280    5283    3213
	3     5268    5271    3345
	3     5078    6257    3764
	3     2881    7339    6747
	3     3018    5130    3020
	3     3044    5129    3042
	3     5196    5437    2938
	3     4959    5088    4964
	3      722    5105     721
	3     5454    5609    5389
	3     5169    6172    5168
	3     5187    6173    5186
	3     5178    6174    5177
	3      836    7384     835
	3     4359    6900    5535
	3     1663    5416    1658
	3     5438    6153    1824
	3     3094    4903    4902
	3     4940    4941    3100
	3     3497    5256    2443
	3     3713    6160    3682
	3     3215    5280    3213
	3     3347    5268    3345
	3     5123    6400    1525
	3     1524    6401    5118
	3     4697    4699    4698
	3     5109    5189    2577
	3     3013    5140    3014
	3     3038    5141    3037
	3     3646    6394    3945
	3     4732    6813    4731
	3     1963    3464    5395
	3     5009    6222    5051
	3     5034    5348    4981
	3     4977    5349    5033
	3     6509    7125    3550
	3     4989    1413    1463
	3     2498    7367    4596
	3     4592    7368    2497
	3     4590    7369    2496
	3     4593    7370    2495
	3     1351    7056    6832
	3     3601    3602    3600
	3     2148    5545    2151
	3     2031    5628    5125
	3     5124    5629    1987
	3     2003    6100    2004
	3     5387    5388    5386
	3      350    4712     349
	3     1960    1495    1959
	3     2620    5188    5111
	3     3320    5205    5203
	3     3188    5212    5210
	3     6068    1495    3465
	3     4912    5224    4914
	3     5433    6100    1437
	3     6039    7055    1715
	3     3414    5163    3420
	3     5514    6247    3761
	3     4956    5431    4952
	3     2684    5144    2685
	3     2691    5145    2690
	3     3282    5181    3288
	3     3150    5172    3156
	3     2240    4697    4696
	3     5158    5831    5379
	3     5378    5830    5159
	3     5121    5345    5110
	3     5112    5347    5116
	3     3794    6107    5472
	3     5263    5264    3520
	3     5275    5276    3370
	3     5287    5288    3238
	3     4961    5088    4959
	3     2006    5432    2009
	3     5506    6171    3944
	3     5030    5328    3452
	3     2834    5360    2835
	3      758    1534     757
	3      357    1397     356
	3     5420    5664    5419
	3     3767    6184    6180
	3     5365    5470    3783
	3     5192    5193    2946
	3     5392    5393    2243
	3     3238    6045    3205
	3     3370    6044    3337
	3     6119    7372    1000
	3     4923    4932    4931
	3     4969    4970    4961
	3     4769    6866    3532
	3     4147    6026    5102
	3     4770    6867    3250
	3     4771    6868    3382
	3     2546    5189    2549
	3     4472    3473    5086
	3     3960    5470    5365
	3     2879    5198    3010
	3     5391    5392    2243
	3     3007    5192    2950
	3     2277    5408    2791
	3     2792    5404    2278
	3     5227    5228    2150
	3     2087    5452    5333
	3     5332    5451    2086
	3     5220    5221    3322
	3     5218    5219    3190
	3     5388    5463    5386
	3      764    2424     763
	3      351    2423     350
	3     5232    5233    2960
	3     4528    5382    2470
	3     5333    5467    2087
	3     5474    5664    5420
	3     2857    5160    2895
	3     4921    5089    4923
	3     5260    5262    5261
	3     5284    5286    5285
	3     5272    5274    5273
	3     4694    5441    4678
	3     5323    5324    2918
	3     2238    5443    1889
	3     2513    5428    2258
	3     3764    6260    5078
	3     5161    5163    3416
	3     5170    5172    3152
	3     5179    5181    3284
	3     5090    5831    5158
	3     5159    5830    5091
	3     5265    6046    3520
	3     3295    5229    3275
	3     3427    5230    3407
	3     3163    5231    3143
	3     5131    6146    3715
	3     6355    7352    5095
	3     5096    7353    6356
	3     3450    5217    3535
	3     5079    6238    3771
	3     4181    5317    4182
	3     5386    5463    1888
	3     2934    5437    2967
	3     1000    7372    6186
	3     6171    6180    3944
	3     3320    5206    5205
	3     3188    5213    5212
	3     2612    5245    5244
	3     5248    5249    2569
	3     3941    6184    5512
	3     4447    7507    6055
	3     4870    5360    2834
	3      355    2239     354
	3      760    2240     759
	3     4927    5224    4915
	3     3320    5203    3316
	3     3188    5210    3184
	3     3178    5218    3190
	3     3310    5220    3322
	3     2244    5387    1705
	3     2087    5467    5352
	3     2242    5452    1876
	3     1872    5451    2241
	3      353    2425     352
	3      762    2426     761
	3     1658    5416    1749
	3     3430    5294    3397
	3     3166    5308    3133
	3     3298    5301    3265
	3     1705    5387    1730
	3     5696    6192    2998
	3     2991    6193    5695
	3     3420    5166    3413
	3     1309    6311    4997
	3     4996    6312    1319
	3     2602    5247    2604
	3     2561    5251    2559
	3     3156    5175    3149
	3     3288    5184    3281
	3     5397    5432    2007
	3     2335    5190    2684
	3     2570    6068    3465
	3     2955    5232    2960
	3     3007    5193    5192
	3     2887    5321    5320
	3     1858    5446    5359
	3     3196    5316    3199
	3     3328    5315    3331
	3     2917    5323    2918
	3     2893    5240    2845
	3     2332    5154    5153
	3     4649    5434    4653
	3     5433    1437    2613
	3     3576    3578    3577
	3     3436    5293    3542
	3     3186    5214    3188
	3     3318    5207    3320
	3     2086    5468    5332
	3     1784    5378    5159
	3     5158    5379    1776
	3     2951    5291    2976
	3     5366    5439    5367
	3     2961    5242    2932
	3     4690    5253    5252
	3     4803    7136    6785
	3     2563    5248    2569
	3     2861    5243    2888
	3     2612    5244    2606
	3     2549    5189    5109
	3      354    4837     353
	3     3761    6250    5514
	3     2632    1809    5629
	3     5628    5891    2622
	3     1679    5319    1412
	3     1913    5318    1640
	3     5266    5267    3350
	3     5278    5279    3218
	3     5254    5255    3500
	3     3586    4866    3587
	3     3514    5147    3512
	3     3232    5149    3230
	3     3364    5148    3362
	3     4276    4277    4275
	3     4322    4323    4321
	3     2887    5320    2880
	3     4964    5225    4957
	3     2874    5198    2879
	3     2428    5151    2323
	3     1804    6200    5881
	3     5882    6201    1803
	3     3911    6162    5506
	3     2950    5192    2945
	3     3442    5325    3539
	3     4218    5241    2144
	3     4331    4867    4330
	3       46    1461      47
	3      330    1460     331
	3     5180    5182    5181
	3     5171    5173    5172
	3     5162    5164    5163
	3     5132    5134    2787
	3     3770    6162    6156
	3     1863    5352    2514
	3     2519    5353    1849
	3     2946    5196    2940
	3     3418    5161    3416
	3     3154    5170    3152
	3     3286    5179    3284
	3     5357    5358    2906
	3     5277    6044    3370
	3     5289    6045    3238
	3     5226    5431    4956
	3     4375    4377    4373
	3     5939    7500    5941
	3     5946    7501    5944
	3     3023    4511    3026
	3     3050    4512    3047
	3     1749    5419    1655
	3     4374    4376    4375
	3     4511    4523    3026
	3     3050    4522    4512
	3     4313    4314    4312
	3     3416    5163    3414
	3     2482    5443    2238
	3     3284    5181    3282
	3     3152    5172    3150
	3     5150    6133    3711
	3     5171    5172    5170
	3     5180    5181    5179
	3     5162    5163    5161
	3     4303    4305    4304
	3     2258    5428    1886
	3     1667    5391    2243
	3     4400    4401    4399
	3     3771    6245    5079
	3     5025    5342    2725
	3     2726    5343    5022
	3     2150    5241    5227
	3     3448    5328    3446
	3     3302    5237    3301
	3     3170    5238    3169
	3     1772    4862    4717
	3     4718    4863    1773
	3     2800    6011    2359
	3     2358    6010    2799
	3     4162    5453    4160
	3     2354    6730    6674
	3      777    5042    1374
	3     2592    5188    2589
	3     2241    5451    2533
	3     2535    5452    2242
	3     4677    4694    4678
	3     6163    6296    4983
	3     4979    6297    6164
	3     3456    5354    3531
	3     5114    5117    2620
	3     2577    5122    5119
	3     2843    5339    2893
	3     4052    5551    5409
	3     3266    5398    3287
	3     3398    5400    3419
	3     3134    5399    3155
	3     6536    6676    1439
	3     4919    4926    4921
	3     4959    4964    4957
	3     4962    5457    4949
	3     4911    5460    4924
	3     3143    5231    3140
	3     3275    5229    3272
	3     3407    5230    3404
	3     2566    5345    5344
	3     5346    5347    2609
	3     3501    5254    3500
	3     3351    5266    3350
	3     3219    5278    3218
	3     2007    5432    2006
	3     1900    5408    2082
	3     2084    5404    1896
	3     2572    5344    2675
	3     2674    5346    2615
	3     4181    5444    5317
	3     2332    5153    2325
	3     2928    5338    2926
	3     3397    5294    3395
	3     3133    5308    3131
	3     3265    5301    3263
	3     2257    5427    2512
	3     4432    4433    4429
	3     5326    6759    1935
	3     5518    5934    4228
	3     4647    4648    4646
	3     2938    5437    2935
	3     4939    4976    4940
	3     4690    5252    4687
	3     3017    4575    4574
	3     4576    4577    3041
	3     2875    5366    5200
	3     3001    6641    2686
	3     2785    5372    2352
	3     2350    5375    2786
	3     3739    6235    5488
	3     6026    6033    5102
	3     2913    5368    2964
	3     2470    5382    2406
	3     4677    4678    4676
	3     2688    3025    3013
	3     3037    3049    2694
	3     1340    5532    1337
	3     5279    5410    5282
	3     5267    5412    5270
	3     5255    5414    5258
	3     4955    4957    4956
	3     4918    4919    4917
	3     3883    6146    5131
	3     3735    6229    5080
	3     3287    5398    3387
	3     3155    5399    3255
	3     3419    5400    3538
	3     3331    5362    5361
	3     3199    5364    5363
	3     2962    5322    2922
	3     4722    4724    1741
	3     1832    5834    1829
	3     5193    5195    5194
	3     6325    6747    4582
	3     4480    5236    3511
	3     4465    5234    3229
	3     4464    5235    3361
	3     5481    6014    5480
	3     2798    5334    2506
	3     1757    6303    4827
	3     2849    5330    2851
	3     2243    5416    1663
	3     1889    5443    5390
	3     2471    5383    4529
	3     3685    6122    3687
	3     6210    6222    5086
	3     5410    5411    5282
	3     5412    5413    5270
	3     5414    5415    5258
	3     3540    5293    3441
	3     4883    5315    3334
	3     4884    5316    3202
	3     3451    5217    3450
	3     3782    6226    5051
	3     2617    5384    4997
	3     4996    5385    2574
	3     3490    5640    3491
	3     5430    5751    5037
	3     2009    5432    2029
	3     4949    5457    4947
	3     4909    5460    4911
	3     2968    5356    5355
	3     5366    5367    5200
	3     2589    5188    2590
	3     3580    5146    1626
	3     2308    6745    4327
	3     4148    5559    4060
	3     5344    5345    2675
	3     2674    5347    5346
	3     5353    5468    2086
	3     4568    5142    1838
	3     4569    5143    1837
	3     2574    5385    2573
	3     2616    5384    2617
	3     4957    5225    4956
	3     2151    5545    4246
	3     2817    5525    5017
	3     5019    5524    2807
	3     5945    5946    5944
	3     5939    5941    5940
	3     3480    5486    4128
	3     1375    5158    1775
	3     1783    5159    1376
	3     5472    5702    3766
	3     2835    5360    2838
	3     4187    5444    4148
	3     1865    5352    1863
	3     1849    5353    1851
	3     2969    5426    2898
	3     5518    6023    4047
	3     6702    6730    6031
	3     2352    5372    2093
	3     2099    5375    2350
	3     5409    5551    5241
	3     2244    5388    5387
	3     2907    5357    2906
	3     4952    5431    4950
	3     2785    5373    5372
	3     5375    5376    2786
	3     3491    5640    3856
	3     2547    5189    2546
	3     3879    6133    5150
	3     3715    6146    6141
	3     5261    5263    3503
	3     5285    5287    3221
	3     5273    5275    3353
	3     2323    5151    2334
	3     2869    5366    2875
	3     4970    4974    4973
	3     4935    4936    4932
	3     6197    3473    4473
	3     5444    5559    4148
	3     5151    5152    2334
	3     2144    5241    2150
	3     1884    5427    2257
	3     2896    5439    2863
	3     5125    5704    2031
	3     1987    5703    5124
	3     1681    5319    1679
	3     1640    5318    1642
	3     3772    6210    5086
	3     4914    4918    4917
	3     4955    4956    4952
	3     5239    3480    4175
	3     2150    5545    2148
	3     3331    5361    3326
	3     3199    5363    3194
	3     2520    5445    2523
	3     2518    5446    2515
	3     2557    5344    2572
	3     2615    5346    2600
	3     4921    4923    4922
	3     4960    4961    4959
	3     1848    5445    2520
	3     2515    5446    1862
	3     1371    6126    5440
	3     5276    5277    3370
	3     5288    5289    3238
	3     3683    5887    3685
	3     5266    5412    5267
	3     5278    5410    5279
	3     3931    5570    5521
	3     5254    5414    5255
	3     1786    5378    1784
	3     1776    5379    1778
	3     2526    5430    5037
	3     2863    5439    2864
	3     6069    6158    2263
	3     4494    7316    5527
	3     1407    5391    1667
	3     5264    5265    3520
	3     4664    5369    4660
	3     1397    4647    4646
	3     4919    4921    4920
	3     4958    4959    4957
	3     5629    1809    1987
	3     2031    5891    5628
	3     5480    6014    3700
	3     1970    5963    5377
	3     5374    5964    2014
	3     4666    4672    4665
	3     3017    4574    3018
	3     3042    4576    3041
	3     4633    4829    1791
	3     2968    5355    2912
	3     5228    5545    2150
	3     2325    2429    2273
	3     2271    2428    2323
	3     1838    4499    3547
	3     1837    4500    3549
	3     2926    5338    5336
	3     2090    6320    5900
	3     5901    6321    2096
	3     4731    4733    1464
	3     4683    5138    4685
	3     6023    6033    4047
	3     1832    5751    5430
	3     3929    6185    5895
	3     5419    5664    1653
	3     1712    4834    3550
	3     1771    4635    4634
	3     4678    5441    4680
	3     3539    4804    3540
	3     3470    6204    1694
	3     3571    5103    1709
	3     3125    5401    2509
	3     3766    5661    5521
	3      370    4714    1404
	3     1708    2427     744
	3     1775    5158    1776
	3     1784    5159    1783
	3     4160    5453    4174
	3     2325    5153    2429
	3     5418    5419    1749
	3     1609    3393    3392
	3     1608    3129    3128
	3     1607    3261    3260
	3     1579    3127    3126
	3     2851    5330    5329
	3       43    1843      44
	3      333    1842     334
	3     3263    5301    3280
	3     3395    5294    3412
	3     3131    5308    3148
	3     1893    6244    6165
	3     5896    6208    3453
	3     3262    3263    3261
	3     3130    3131    3129
	3     3394    3395    3393
	3     3542    5462    3434
	3     2590    5188    2596
	3     1772    4717     373
	3      741    4718    1773
	3     5111    5188    2592
	3     1626    3554    3553
	3     3500    5256    3497
	3     3350    5268    3347
	3     3218    5280    3215
	3     5308    5310    5309
	3     5301    5303    5302
	3     5294    5296    5295
	3     3469    3470    3468
	3     4651    5434    4649
	3     4218    5409    5241
	3     2685    5144    2688
	3     2694    5145    2691
	3     4649    4653    4648
	3     5336    5337    2962
	3     5297    5300    5299
	3     5311    5314    5313
	3     5304    5307    5306
	3     6719    7194    5041
	3     3014    5140    3017
	3     3041    5141    3038
	3     4714    5340    1404
	3     1708    5341    2427
	3     4637    5383    2525
	3     5249    5250    2569
	3     2612    5246    5245
	3     2855    5160    2857
	3     3783    5854    5365
	3     4948    4949    4947
	3     4909    4911    4910
	3     2695    3037    2694
	3     2688    3013    2689
	3     3767    6191    5512
	3     4685    4690    4687
	3     5332    5468    2782
	3     3567    4582    1606
	3     4948    4950    4949
	3     4911    4912    4910
	3     2713    5371    2517
	3     2898    5426    2897
	3     3287    3299    3298
	3     3419    3431    3430
	3     3155    3167    3166
	3     1889    5390    1765
	3     3511    5236    3519
	3     3229    5234    3236
	3     3361    5235    3368
	3     3020    5130    3023
	3     3047    5129    3044
	3     2718    5370    2522
	3     4047    6033    6026
	3     4510    5422    2485
	3     2476    5424    4509
	3     4947    5457    5455
	3     6180    6184    3944
	3     1965    3464    1962
	3     4659    4665    4657
	3     2350    2507    2351
	3     2353    2506    2352
	3     2244    5454    5389
	3     3132    3133    3131
	3     3264    3265    3263
	3     3396    3397    3395
	3     4687    5252    4692
	3     1962    3464    1963
	3     3457    5326    5325
	3     2845    5240    2847
	3     4947    5455    4944
	3     5210    5211    3246
	3     5203    5204    3378
	3     3046    3047    3044
	3     3020    3023    3022
	3     3198    5316    3196
	3     3330    5315    3328
	3     3335    4506    3334
	3     3203    4507    3202
	3     4680    4691    4683
	3     3257    4483    3241
	3     3389    4482    3373
	3     3543    4492    3524
	3     3048    3050    3047
	3     3023    3026    3024
	3     2407    5383    2471
	3     5372    5374    2091
	3     2097    5377    5375
	3     2725    5342    2469
	3     2468    5343    2726
	3     3316    5203    3314
	3     3184    5210    3182
	3     5239    5486    3480
	3     3438    5293    3436
	3     3459    5354    3456
	3     2853    2894    2855
	3     2951    2976    2950
	3     3442    3539    3441
	3     2029    5396    2580
	3     5317    5444    4187
	3     4192    5801    5757
	3     2673    2798    2506
	3     2507    2797    2672
	3     1856    5451    1872
	3     1876    5452    1870
	3     2879    2887    2880
	3     2487    5422    5421
	3     5423    5424    2478
	3     3576    4801    3578
	3     3539    3540    3441
	3     1382    5531    1384
	3     2904    4871    2902
	3     2145    5453    4162
	3     1404    6997    4756
	3     4757    6998    1708
	3     4506    4883    3334
	3     4507    4884    3202
	3      747    4722    1741
	3     1740    4719     367
	3     2273    5128    1340
	3     1384    5127    2271
	3     1910    5427    1799
	3     2432    3521    2431
	3     4987    4988    3173
	3     4985    4986    3305
	3     3433    3461    3425
	3     2828    2970    2830
	3     3525    3543    3524
	3     3202    5316    3198
	3     3334    5315    3330
	3     2900    2969    2898
	3     3242    3257    3241
	3     3374    3389    3373
	3     5310    5311    5309
	3     5303    5304    5302
	3     5296    5297    5295
	3     5430    5834    1832
	3     1730    5387    1737
	3     2527    3482    2173
	3     3306    4985    3305
	3     3174    4987    3173
	3     3169    3248    3161
	3     3301    3380    3293
	3      223    1413     224
	3     3040    3041    3038
	3     3014    3017    3016
	3     2924    2962    2922
	3     2506    5334    2785
	3     2920    5323    2917
	3     3441    5293    3438
	3     2333    5155    2332
	3     2832    4869    2834
	3     2431    5354    3459
	3     5200    5201    5199
	3     5395    3464    5394
	3     2875    5199    5198
	3     3266    3287    3265
	3     3398    3419    3397
	3     3134    3155    3133
	3     2967    3103    2961
	3     2888    3104    2896
	3     2922    5322    2920
	3     2926    5336    2924
	3     4995    5435    2771
	3     5701    6127    2994
	3     2987    6128    5700
	3     2798    6274    6255
	3     6254    6273    2797
	3     2851    5329    2853
	3     3601    4999    3602
	3     5155    5156    5154
	3     2578    5716    5395
	3     4655    4656    4651
	3     3229    3236    3224
	3     3361    3368    3356
	3     3511    3519    3506
	3     2972    3125    2509
	3     2508    3124    2971
	3     2277    2508    2370
	3     2371    2509    2278
	3     2953    5291    2951
	3     4019    6026    4147
	3     3124    4814    2971
	3     2972    4815    3125
	3     3434    5462    3433
	3     2371    2972    2509
	3     2508    2971    2370
	3     4659    4666    4665
	3     3180    5218    3178
	3     3312    5220    3310
	3     2771    5435    2773
	3     2915    5368    2913
	3     6157    6243    1892
	3     2665    2897    2565
	3     3395    3412    3393
	3     3263    3280    3261
	3     3131    3148    3129
	3     2578    5395    5394
	3     2955    2960    2953
	3     2608    2827    2663
	3     3535    5029    3452
	3     2880    5320    2882
	3     5294    5295    3412
	3     5301    5302    3280
	3     5308    5309    3148
	3     4946    4948    4947
	3     4909    4910    4908
	3     2882    3122    2884
	3     1771    4890    4635
	3     2930    2966    2928
	3     2192    2352    2093
	3     2099    2350    2194
	3     2565    5248    2563
	3     2857    2895    2859
	3     2208    2371    2278
	3     2277    2370    2207
	3     4186    5449    4188
	3     2777    3471    3469
	3     2606    5244    2608
	3     3419    3430    3397
	3     3287    3298    3265
	3     3155    3166    3133
	3     4503    4505    2957
	3      761    5139     760
	3     4505    5232    2957
	3     5152    5191    5190
	3     5458    5460    4909
	3     3444    5325    3442
	3     2487    5421    2489
	3     2480    5423    2478
	3     4025    5934    5518
	3     3294    3301    3293
	3     3162    3169    3161
	3     1626    5146    3554
	3     4550    5575    4990
	3     3426    3433    3425
	3     2932    5242    2930
	3     2890    2891    2842
	3     2786    5335    2507
	3     1367    6067    3478
	3     3531    4710    3455
	3     3512    4480    3511
	3     3362    4464    3361
	3     3230    4465    3229
	3     5267    5270    5269
	3     5279    5282    5281
	3     5255    5258    5257
	3     2859    5243    2861
	3     3182    3246    3180
	3     3314    3378    3312
	3     2241    2532    2336
	3     2337    2534    2242
	3     4450    7481    6225
	3     3694    5897    5157
	3     2337    3009    2534
	3     2532    3008    2336
	3     2726    5022    5021
	3     5024    5025    2725
	3     2957    5232    2955
	3     3186    3188    3184
	3     3318    3320    3316
	3     3450    3452    3448
	3     4685    5138    4690
	3     3450    3535    3452
	3     1875    5447    1900
	3     1896    5448    1879
	3     1825    6153    1844
	3     2173    3482    1820
	3     2894    5160    2855
	3     2208    2278    2084
	3     2082    2277    2207
	3     2559    2711    2558
	3     2601    2710    2602
	3     2556    5716    5553
	3     5554    5717    2599
	3      372    1817     371
	3      743    1819     742
	3     4911    4915    4912
	3     4950    4953    4949
	3     1838    5142    4499
	3     1837    5143    4500
	3     2241    2336    1344
	3     1345    2337    2242
	3     5510    5568    5507
	3     5105    5106    5104
	3     3766    5702    5661
	3     2847    2889    2849
	3     2847    5240    2889
	3     2281    7475    4773
	3     4656    5434    4651
	3     3178    3190    3176
	3     3310    3322    3308
	3     3333    3334    3330
	3     3201    3202    3198
	3     2934    2961    2932
	3     2861    2888    2863
	3     2522    5370    2712
	3     3446    3457    3444
	3      745    1708     744
	3      370    1404     369
	3     3440    3441    3438
	3     4946    4947    4944
	3     4906    4909    4908
	3     2874    2879    2877
	3     3564    3565    1284
	3     2516    2517    2515
	3     2520    2522    2521
	3     2882    5320    3122
	3     2912    5355    2910
	3     5165    5166    3420
	3     5174    5175    3156
	3     5183    5184    3288
	3     4903    4904    4902
	3     4940    4942    4941
	3     5496    5497    3786
	3     1712    4841    4834
	3     2516    2713    2517
	3     2522    2712    2521
	3     2827    5429    2828
	3     2244    5389    5388
	3     2897    5248    2565
	3     2578    5394    2540
	3     2809    5020    5019
	3     5017    5018    2819
	3     2943    2946    2940
	3     5322    5323    2920
	3     2257    2468    2317
	3     2318    2469    2258
	3      746    4757     745
	3      369    4756     368
	3     2608    5244    2827
	3     2867    5366    2869
	3     3507    3511    3506
	3     2194    5566    2193
	3     2191    5567    2192
	3     3225    3229    3224
	3     3357    3361    3356
	3     1872    2241    1344
	3     1345    2242    1876
	3     2869    2875    2872
	3     5570    5791    3737
	3     2948    2950    2945
	3     5252    7387    4692
	3     2093    5372    2091
	3     2097    5375    2099
	3     2828    5429    2970
	3     3304    3305    3302
	3     3172    3173    3170
	3     1884    2257    1381
	3     1336    2258    1886
	3     1248    3548    1836
	3     1837    3549    1020
	3     1838    3547    1057
	3     3339    3370    3337
	3     3207    3238    3205
	3     1607    3262    3261
	3     1609    3394    3393
	3     1608    3130    3129
	3     3436    3542    3434
	3     2438    3520    2436
	3     2840    2890    2842
	3     5393    5416    2243
	3     2853    5329    2894
	3     2514    2516    2515
	3     2520    2521    2519
	3      374    1772     373
	3      741    1773     740
	3     1606    3546    1206
	3     1622    4818    1175
	3     1608    3128     984
	3     1609    3392     873
	3     1607    3260    1095
	3     2685    2688    2687
	3     2693    2694    2691
	3     4905    5459    5458
	3     4680    5441    4691
	3     5455    5456    4943
	3     2960    5291    2953
	3     4869    4870    2834
	3     2554    2558    2553
	3     2596    2601    2597
	3     2546    2549    2548
	3     2591    2592    2589
	3     4903    4905    4904
	3     4942    4943    4941
	3     2331    4299    4298
	3     1712    3550     842
	3     5440    6126    4121
	3     2976    3007    2950
	3     1870    2087    1868
	3     1854    2086    1856
	3     3314    5203    3378
	3     3182    5210    3246
	3     3196    3199    3194
	3     3328    3331    3326
	3     3282    3288    3281
	3     3414    3420    3413
	3     3150    3156    3149
	3     1799    5427    1884
	3      359    4822     358
	3     1624    4865     953
	3     1621    4864    1138
	3     1623    4852     916
	3     2964    2968    2912
	3     1173    5032    1612
	3     2879    3010    2887
	3     3456    3531    3455
	3     4944    5455    4943
	3     2192    2353    2352
	3     2350    2351    2194
	3     5210    5212    5211
	3     5203    5205    5204
	3     2924    5336    2962
	3     2617    2801    2674
	3     2675    2802    2574
	3     2269    2470    2406
	3     2407    2471    2270
	3      839    3551    1581
	3     2593    2609    2592
	3     2549    2566    2550
	3     5350    5351    2890
	3     3276    3281    3275
	3     3144    3149    3143
	3     3408    3413    3407
	3     1908    2269    2173
	3     2174    2270    1907
	3      752    4731    1464
	3     3463    2431    3459
	3      951    4857    1614
	3     1136    4856    1611
	3      914    4835    1613
	3     3523    3524    3514
	3     2604    2612    2606
	3     2563    2569    2561
	3     3246    5218    3180
	3     3378    5220    3312
	3     3240    3241    3232
	3     3372    3373    3364
	3     3457    5327    5326
	3     3585    4776    3589
	3     2353    2673    2506
	3     2507    2672    2351
	3     2930    5242    2966
	3     4914    4917    4916
	3     4954    4955    4952
	3      368    1740     367
	3      747    1741     746
	3     3281    3295    3275
	3     3149    3163    3143
	3     3413    3427    3407
	3     5112    5115    5114
	3     5119    5120    5110
	3     1286    4633    1791
	3     3270    3277    3268
	3     3138    3145    3136
	3     3402    3409    3400
	3     2895    5243    2859
	3     2174    2407    2270
	3     2269    2406    2173
	3     2517    5371    2719
	3     1848    2520    2519
	3     2514    2515    1862
	3     2918    5368    2915
	3      605    6170    5209
	3      513    6169    5216
	3     2572    2574    2573
	3     2616    2617    2615
	3     1628    3552    1243
	3     1771    4634    1241
	3     2318    2725    2469
	3     2468    2726    2317
	3     3268    5398    3266
	3     3136    5399    3134
	3     3400    5400    3398
	3     1021    4569    1837
	3     1058    4568    1838
	3     2809    5019    2807
	3     2817    5017    2819
	3     2913    2964    2912
	3     1025    3580    1626
	3     1062    3579    1627
	3     3394    3396    3395
	3     3130    3132    3131
	3     3262    3264    3263
	3     1828    2174    1907
	3     1908    2173    1820
	3     1579    3126    1282
	3     5679    6379    6374
	3     2917    2918    2915
	3     1060    3555    1577
	3     3770    6171    5506
	3     2320    3003    2481
	3     2472    3002    2319
	3     2843    2893    2845
	3     2525    5383    2407
	3     1626    3553    1024
	3     2528    4636    3101
	3     3102    4637    2525
	3     2665    2898    2897
	3     3573    3574    1276
	3     2469    3066    2513
	3     2512    3065    2468
	3     2827    2828    2663
	3     2781    5467    5333
	3     2864    5439    2867
	3     5109    5110    2566
	3     2609    5112    5111
	3     1376    2238    1889
	3     1888    2237    1375
	3     3457    5325    3444
	3     2323    2334    2324
	3     2326    2332    2325
	3     1250    3571    1709
	3     2237    2319    1375
	3     1376    2320    2238
	3     5492    5493    4237
	3     1783    1376    1889
	3     1888    1375    1775
	3     1781    1908    1820
	3     1828    1907    1789
	3     5495    5496    3786
	3     3326    5361    3324
	3     3194    5363    3192
	3     3105    4528    2470
	3     2471    4529    3106
	3     4353    5047    5046
	3     2875    5200    5199
	3     3123    5442    2884
	3      765    7311    4713
	3     2429    5128    2273
	3     2271    5127    2428
	3     2545    2546    2544
	3     2587    2589    2588
	3     4906    5458    4909
	3     2838    5360    5350
	3     2596    5188    2620
	3     4543    4609     986
	3     4544    4608     875
	3     4545    4610    1097
	3     1765    5390    1733
	3     5029    5031    5030
	3      374    4728    1772
	3     1773    4727     740
	3     1818    4812    1496
	3     2257    2317    1381
	3     1336    2318    2258
	3     2469    5342    3066
	3     3065    5343    2468
	3     2444    3503    2440
	3     3211    3221    3209
	3     3343    3353    3341
	3     2945    5192    2943
	3     5519    2414    5556
	3     1763    1888    1775
	3     1783    1889    1765
	3     2596    2620    2601
	3     2558    2577    2553
	3     3277    5398    3268
	3     3145    5399    3136
	3     3409    5400    3400
	3     3027    6317    5107
	3     4298    5045    4297
	3     2237    2472    2319
	3     2320    2481    2238
	3     2872    5198    2874
	3     5397    5717    2621
	3     4918    5222    4919
	3     1572    5290    1288
	3     3122    3123    2884
	3     1239    5292    1574
	3     3846    5568    5510
	3     1207    3567    1606
	3     2507    5335    2797
	3     2029    5432    5396
	3     2840    2842    2841
	3     2934    2967    2961
	3     2888    2896    2863
	3     3142    3143    3140
	3     3406    3407    3404
	3     3274    3275    3272
	3     2509    5401    2792
	3     4385    4386    4383
	3     4923    5089    4933
	3     3774    2412    5450
	3     3585    3589    1541
	3     1706    3467    1410
	3     3779    5498    3791
	3     3064    7296    3063
	3     3424    3425    3418
	3     3187    3191    3186
	3     3319    3323    3318
	3     1761    3467    1706
	3     3380    5180    5179
	3     3248    5171    5170
	3     5401    5403    5402
	3     3160    3161    3154
	3     3292    3293    3286
	3     2546    2548    2544
	3     2587    2591    2589
	3     3461    5162    5161
	3     5393    5417    5416
	3     2350    2786    2507
	3     2506    2785    2352
	3     2576    4979    4978
	3     4982    4983    2619
	3     2570    5716    2556
	3     2599    5717    2613
	3     3023    5130    4511
	3     4512    5129    3047
	3     4194    5542    5502
	3     5352    5467    2514
	3     2335    2684    2357
	3     2355    2690    2333
	3     2911    2912    2910
	3     4655    4657    4656
	3     5521    5661    3931
	3     2533    3011    2532
	3     2534    3012    2535
	3     3973    3976    3975
	3     3425    5161    3418
	3     3161    5170    3154
	3     3293    5179    3286
	3     2910    5357    2907
	3     6156    6162    5131
	3     4924    4925    4915
	3     4953    4963    4962
	3     2879    2880    2877
	3     2943    5192    2946
	3     3804    5461    3655
	3     2875    5198    2872
	3     5083    7328    2119
	3      361    4855     360
	3     2573    5385    2576
	3     2619    5384    2616
	3     4033    6108    5934
	3     3748    5854    3783
	3     4905    5458    4906
	3     4358    4360    4359
	3     5120    5121    5110
	3     5112    5116    5115
	3     2948    2951    2950
	3     2585    2587    2586
	3     2543    2544    2542
	3     3499    3500    3497
	3     3049    5145    2694
	3     2688    5144    3025
	3     1701    5454    2244
	3     3349    3350    3347
	3     3217    3218    3215
	3     2541    2542    2540
	3     2583    2585    2584
	3     2842    5339    2843
	3     3132    3134    3133
	3     3264    3266    3265
	3     3396    3398    3397
	3     2523    2718    2522
	3     2517    2719    2518
	3     2576    5385    4979
	3     4983    5384    2619
	3     3287    3387    3299
	3     3155    3255    3167
	3     3419    3538    3431
	3     3505    3506    3501
	3     4038    5541    4034
	3     3223    3224    3219
	3     3355    3356    3351
	3     2590    2596    2595
	3     2552    2553    2547
	3     4384    4463    4385
	3     3057    5789    1510
	3     1877    5448    1345
	3     1344    5447    1873
	3     2614    2615    2600
	3     2557    2572    2571
	3      362    4734     361
	3      366    1536     365
	3      749    1535     748
	3     2838    5350    2840
	3     1872    1344    1873
	3     1877    1345    1876
	3     4060    5559    4058
	3     3449    3450    3448
	3     1285    3564    1284
	3     2630    5125    2628
	3     2638    5124    2640
	3     2085    2208    2084
	3     2082    2207    2083
	3     2549    2550    2548
	3     2591    2593    2592
	3     1900    2082    1650
	3     1897    2084    1896
	3     2572    2675    2574
	3     2617    2674    2615
	3     2548    5553    2544
	3     2587    5554    2591
	3     3583    3585    1541
	3     2719    2978    2780
	3     2779    2977    2718
	3     2712    2795    2782
	3     2781    2796    2713
	3     3017    5140    4575
	3     4577    5141    3041
	3     2485    5422    2487
	3     2478    5424    2476
	3     3241    5149    3232
	3     3373    5148    3364
	3     3524    5147    3514
	3     1909    3467    1761
	3     2432    3466    3521
	3     2566    5344    2550
	3     2593    5346    2609
	3     1064    4715    1063
	3     1027    4716    1026
	3     3236    5410    5278
	3     3368    5412    5266
	3     2978    5036    5035
	3     1814    3561    1093
	3     1813    3563     871
	3     1816    3562     982
	3     2604    5247    2612
	3     3519    5414    5254
	3     2569    5251    2561
	3     1856    1872    1857
	3     1871    1876    1870
	3     2471    3106    2790
	3     2789    3105    2470
	3     5502    5541    4194
	3     2838    2840    2839
	3     1845    5445    1848
	3     1862    5446    1859
	3     5134    5846    2787
	3     1886    5428    1760
	3     5279    5281    5280
	3     5267    5269    5268
	3     5255    5257    5256
	3     2617    4997    2801
	3     2802    4996    2574
	3     5556    2414    4090
	3     3333    3335    3334
	3     3201    3203    3202
	3     5125    5628    2628
	3     2638    5629    5124
	3     5480    6088    5479
	3     1286    1791    1285
	3     3478    6067    4111
	3     2542    5553    2578
	3     2621    5554    2585
	3     1985    3464    1965
	3     5390    5392    5391
	3     6018    6140    5576
	3     1248    1836    1247
	3      841    1839     840
	3     1021    1837    1020
	3     1058    1838    1057
	3     3440    3442    3441
	3     3106    5083    5082
	3     1139    1621    1138
	3     1176    1622    1175
	3      954    1624     953
	3      917    1623     916
	3     1466    6240    5335
	3     2542    2578    2540
	3     2583    2621    2585
	3      983    1816     982
	3     1094    1814    1093
	3     1205    1815    1204
	3      872    1813     871
	3     4925    4927    4915
	3     4953    4965    4963
	3     2406    2528    2527
	3     2524    2525    2407
	3     1245    4546    1244
	3     2601    2602    2597
	3     2554    2559    2558
	3     3005    4762    2778
	3     2774    4763    3004
	3     1242    1771    1241
	3     2556    5553    2548
	3     2591    5554    2599
	3     3455    5217    3451
	3     4186    3495    5449
	3     1479    3556    1290
	3     1237    3557    1394
	3     3356    5266    3351
	3     3224    5278    3219
	3     2867    5439    5366
	3     3916    3474    3659
	3     3506    5254    3501
	3     1848    2519    1849
	3     1863    2514    1862
	3     1868    5352    1865
	3     1851    5353    1854
	3     1869    1870    1868
	3     1854    1856    1855
	3      838    4541     837
	3     2180    7288    5305
	3     2188    7289    5312
	3     2184    7290    5298
	3     1029    4779    1028
	3     1066    4778    1065
	3     2528    3101    2529
	3     2526    3102    2525
	3      844    4767     843
	3     1096    1607    1095
	3      985    1608     984
	3      874    1609     873
	3      951    1614     950
	3      914    1613     913
	3     1136    1611    1135
	3     1173    1612    1172
	3     1207    1606    1206
	3     4687    4692    4688
	3     3454    3455    3451
	3     1277    3573    1276
	3     5297    5299    5298
	3     5304    5306    5305
	3     5311    5313    5312
	3     3887    5475    3860
	3     4685    4687    4686
	3     3305    5237    3302
	3     3173    5238    3170
	3     6224    6291    1704
	3     1030    3595    1029
	3     1067    3594    1066
	3      845    3596     844
	3     2274    2325    2273
	3     2271    2323    2272
	3     5443    1552    5392
	3     3270    5229    3277
	3     3138    5231    3145
	3     3402    5230    3409
	3     4912    4914    4913
	3     4951    4952    4950
	3     5124    5671    2640
	3     2630    5670    5125
	3     3404    5230    3402
	3     3140    5231    3138
	3     3272    5229    3270
	3     4950    5431    4953
	3     2550    5344    2557
	3     2600    5346    2593
	3     2631    2803    2630
	3     2640    2813    2641
	3     6131    6985    2759
	3     2764    6986    6132
	3     1278    1715    1277
	3     1019    1405    1018
	3     1250    1709    1249
	3     1065    1711    1064
	3      843    1712     842
	3     1028    1710    1027
	3      834    1713     833
	3     1056    1714    1055
	3      833    1610     832
	3     4058    5762    4049
	3     2257    2512    2468
	3     2469    2513    2258
	3     1018    3569    1017
	3     1055    3570    1054
	3     2149    5552    2147
	3     4011    3476    4171
	3      752    1464     751
	3      363    1465     362
	3     2221    3479    2733
	3     2609    5111    2592
	3     2549    5109    2566
	3     1733    5391    1407
	3     1023    1399    1022
	3     1060    1577    1059
	3      839    1581     838
	3     1246    1580    1245
	3     1283    1579    1282
	3     3860    5475    3862
	3     1760    1909    1761
	3     1758    1910    1799
	3     5109    5119    5110
	3     5112    5114    5111
	3     1858    5751    1833
	3     2465    3481    2291
	3     2086    5451    1856
	3     1870    5452    2087
	3     1789    5378    1786
	3     1778    5379    1781
	3     3320    5207    5206
	3     3188    5214    5213
	3     3463    2432    2431
	3     2540    5394    2537
	3     2997    2998    2995
	3     2988    2991    2990
	3     3799    5482    3800
	3     2614    2616    2615
	3     2572    2573    2571
	3     1172    3566    1171
	3     5390    5443    5392
	3     1781    1820    1782
	3     1790    1828    1789
	3     2993    2994    2646
	3     2649    2987    2986
	3     4228    6023    5518
	3      334    5095     335
	3       42    5096      43
	3      837    1629     836
	3     1062    1627    1061
	3     1244    1628    1243
	3     1025    1626    1024
	3     1281    1625    1280
	3     4002    5492    4237
	3     1737    5386    1763
	3     3172    3174    3173
	3     3304    3306    3305
	3     2671    2800    2359
	3     2358    2799    2670
	3     1384    2271    1335
	3     1341    2273    1340
	3     3891    5533    3795
	3     1737    5387    5386
	3     3294    3302    3301
	3     3162    3170    3169
	3     3990    3475    3989
	3     5509    5873    5510
	3     3525    5503    3543
	3      832    4769     831
	3     3374    5504    3389
	3     3242    5505    3257
	3     1017    4771    1016
	3     1054    4770    1053
	3     3931    5791    5570
	3     3098    3099    3096
	3     3090    3093    3092
	3      291    1433     292
	3       85    1434      86
	3     3633    3634    3632
	3     1821    3482    1824
	3     4140    5546    4109
	3     2396    3487    2458
	3     3701    6113    1530
	3     3426    3434    3433
	3     2817    2819    2818
	3     2808    2809    2807
	3     2545    2547    2546
	3     2589    2590    2588
	3       77    1480      78
	3      299    1481     300
	3     1666    6292    6227
	3     2794    5024    2725
	3     2726    5021    2793
	3     1763    1775    1764
	3     1766    1783    1765
	3     2406    5382    2528
	3     3507    3512    3511
	3     3758    5495    3765
	3     3225    3230    3229
	3     3357    3362    3361
	3     2927    2928    2926
	3     2476    4509    2474
	3     2483    4510    2485
	3     3808    5482    5481
	3     2855    2857    2856
	3     3447    3448    3446
	3     2481    2483    2482
	3     2473    2474    2472
	3       79    2040      80
	3      297    2041     298
	3     4004    5492    4002
	3     3798    5466    5465
	3     4662    4664    4660
	3     1734    1765    1733
	3     1737    1763    1738
	3     5394    3464    1985
	3     4015    3483    4169
	3     2629    2630    2628
	3     2638    2640    2639
	3       82    1483      83
	3      294    1484     295
	3       74    1467      75
	3      302    1468     303
	3     3691    5508    3689
	3     5757    5801    5409
	3     2596    2597    2595
	3     2552    2554    2553
	3     2909    2910    2907
	3     2891    5339    2842
	3     4051    5618    4052
	3     4277    4278    4275
	3     3185    3186    3184
	3     3317    3318    3316
	3     3798    5465    3667
	3     3490    3491    3785
	3     1845    1848    1847
	3     1861    1862    1859
	3     5521    5570    3732
	3     4521    6852    4782
	3     5029    5030    3452
	3     3715    6156    5131
	3     1170    1818    1496
	3     3276    3282    3281
	3     3144    3150    3149
	3     3408    3414    3413
	3     1875    1900    1899
	3     1895    1896    1879
	3      876    4544     875
	3      987    4543     986
	3     1098    4545    1097
	3     1031    1539    1030
	3     1068    1542    1067
	3      846    1540     845
	3     1253    1541    1252
	3     1016    1544    1015
	3     1053    1546    1052
	3     1275    1543    1274
	3      831    1545     830
	3     5472    6107    5702
	3     2332    5155    5154
	3     3765    5495    3786
	3     2929    2930    2928
	3     5486    5692    4128
	3     1873    5447    1875
	3     1879    5448    1877
	3     5894    6160    3713
	3     1289    1572    1288
	3     1239    1574    1238
	3     3406    3408    3407
	3     3142    3144    3143
	3     3274    3276    3275
	3     3691    5509    5508
	3     5194    5196    2946
	3     3783    5470    5469
	3     1821    1824    1823
	3     1831    1832    1829
	3     2857    2859    2858
	3      360    1301     359
	3      755    1303     754
	3     3523    3525    3524
	3     2814    2817    2816
	3     2806    2807    2804
	3     1835    1858    1833
	3     1825    1844    1827
	3     4194    5541    4038
	3     5269    5272    5271
	3     5281    5284    5283
	3     3240    3242    3241
	3     3372    3374    3373
	3     5257    5260    5259
	3     2842    2843    2841
	3     3644    3485    3645
	3     3712    5640    3490
	3     1867    1868    1865
	3     1851    1854    1853
	3     4658    4659    4657
	3       87    2038      88
	3      289    2039     290
	3     3716    3486    3793
	3      304    1342     305
	3       72    1343      73
	3     2374    5464    2375
	3     4133    3488    4082
	3     1844    6015    5445
	3     3808    5481    3810
	3       70    1430      71
	3      306    1454     307
	3     1316    3559    1292
	3     1235    3558    1387
	3     5267    5268    3350
	3     5279    5280    3218
	3     2905    2906    2904
	3     5255    5256    3500
	3     4068    5483    4189
	3     3707    3490    3785
	3     1976    5515    1986
	3     2030    5516    2020
	3     1253    3583    1541
	3     2814    5525    2817
	3     2807    5524    2804
	3     1982    5471    2263
	3     2537    5394    1985
	3     4171    3489    4009
	3     1203    3560    1604
	3      308    2142     309
	3       68    2143      69
	3     1031    3593    1539
	3     3816    5479    5478
	3     5359    5751    1858
	3     2778    5423    2480
	3     2489    5421    2774
	3     4144    3495    4066
	3       66    1392      67
	3      310    1445     311
	3     5546    5547    4127
	3     4905    4906    4904
	3     4942    4944    4943
	3     2911    2913    2912
	3     3160    3162    3161
	3     3292    3294    3293
	3     4647    4649    4648
	3     3794    5472    3726
	3     1788    1789    1786
	3     1778    1781    1780
	3     5418    5420    5419
	3     5194    5197    5196
	3     2539    2540    2537
	3     2580    2583    2582
	3     1605    4853    3606
	3     1604    4854    3608
	3       64    2044      65
	3      312    2043     313
	3     4198    5542    4195
	3     5508    5510    5507
	3       56    2125      57
	3      320    2124     321
	3     3797    5473    3722
	3     3040    3042    3041
	3     3017    3018    3016
	3     4128    5692    4113
	3      314    1436     315
	3       62    1435      63
	3      316    2122     317
	3       60    2123      61
	3     3800    5482    3808
	3     3786    5498    3779
	3     4903    5646    4905
	3     5409    5801    4052
	3     3783    5469    3750
	3     3057    1510    3053
	3     3315    3316    3314
	3     3183    3184    3182
	3     5355    5357    2910
	3     3187    3192    3191
	3     3319    3324    3323
	3     4953    5431    4965
	3     3424    3426    3425
	3     1684    1685    1683
	3     1644    1646    1645
	3     4953    4962    4949
	3     4911    4924    4915
	3     4129    3480    4128
	3     4185    5546    4140
	3     2434    3466    2432
	3      318    1427     319
	3       58    1428      59
	3     4550    5856    5575
	3     3744    2412    3774
	3     2695    3038    3037
	3     3013    3014    2689
	3     4305    4306    4304
	3     2791    5406    5405
	3       89    1315      90
	3      287    1318     288
	3     1730    1737    1736
	3     1732    1733    1407
	3     1844    5445    1845
	3     1859    5446    1858
	3     1237    1394    1236
	3     1291    1479    1290
	3     4094    5476    4086
	3     3499    3501    3500
	3     3349    3351    3350
	3     3217    3219    3218
	3     2791    5405    2508
	3       49    1306      50
	3      327    1307     328
	3     4914    5224    4918
	3     3505    3507    3506
	3     6141    6146    5150
	3     4746    4998    1756
	3     3816    5478    3812
	3     3355    3357    3356
	3     3223    3225    3224
	3     2459    3494    2395
	3     2483    2485    2484
	3     2475    2476    2474
	3     1545    4820     830
	3     1546    4821    1052
	3     1544    4819    1015
	3     2585    2586    2584
	3     2541    2543    2542
	3     5080    5487    5054
	3     2334    5190    2335
	3     4314    4315    4312
	3     2840    5350    2890
	3     1900    5447    5408
	3     5404    5448    1896
	3     2553    5189    2547
	3     2277    2791    2508
	3     2509    2792    2278
	3     1760    5428    1909
	3      325    2045     326
	3       51    2046      52
	3     3866    4539    3868
	3     2587    2588    2586
	3     2543    2545    2544
	3     4195    5542    4194
	3     2931    2932    2930
	3     1698    5319    1681
	3     1642    5318    1660
	3       53    1324      54
	3      323    1323     324
	3     5390    5391    1733
	3     2859    2861    2860
	3     5334    6236    1393
	3     2508    5405    3124
	3     4036    4142    4192
	3     2104    6209    5000
	3     2081    4735    3581
	3     2078    4751    3582
	3     2626    2628    2624
	3     2634    2638    2636
	3     2154    5552    2149
	3     1701    2244    1705
	3     1667    2243    1663
	3     3801    5489    3967
	3     2099    2194    2193
	3     2191    2192    2093
	3     1642    1644    1643
	3     1682    1683    1681
	3     1763    5386    1888
	3     2097    2099    2098
	3     2092    2093    2091
	3     2241    2533    2532
	3     2534    2535    2242
	3     1685    5484    1683
	3     1854    5353    2086
	3     2087    5352    1868
	3     2832    2834    2833
	3     2830    2832    2831
	3     5860    5873    5509
	3     2788    3005    2778
	3     2774    3004    2787
	3     2672    4874    3112
	3     3111    4875    2673
	3     2519    5468    5353
	3     2583    2584    2582
	3     2539    2541    2540
	3     4227    5444    4181
	3     2840    2841    2839
	3     5365    5854    5790
	3     3799    5526    5482
	3     6088    1530    5479
	3     5497    5498    3786
	3     2520    2523    2522
	3     2517    2518    2515
	3     4069    5483    4068
	3     4066    3495    4063
	3     4034    5541    4031
	3     3999    4249    3997
	3     4303    4307    4305
	3     5004    5005    2812
	3     2822    5002    5001
	3     3004    5133    5132
	3     1781    5379    1908
	3     1907    5378    1789
	3     3428    1936    3410
	3     5408    5447    5093
	3     5094    5448    5404
	3     3164    1938    3146
	3     3296    1934    3278
	3     2269    2789    2470
	3     2471    2790    2270
	3     4918    5223    5222
	3     1686    1687    1685
	3     1646    1517    1516
	3     2147    5552    5543
	3     5401    5402    2792
	3     3489    5493    5492
	3     1293    1316    1292
	3     1235    1387    1234
	3     3653    3804    3655
	3     4102    5499    4101
	3      117    2254     118
	3      259    2255     260
	3     3445    3446    3444
	3     3795    5533    3781
	3     3649    3915    3651
	3     2835    2838    2837
	3     2089    2091    2023
	3     1979    2097    2095
	3     4210    5490    4208
	3     5526    5675    3933
	3     2903    2904    2902
	3     2237    2473    2472
	3     2481    2482    2238
	3     2193    5566    2267
	3     2268    5567    2191
	3     5575    5856    4134
	3     1345    5094    2337
	3     2336    5093    1344
	3     4375    4378    4377
	3      261    2230     262
	3      115    2229     116
	3     2925    2926    2924
	3     2386    2511    2388
	3     2405    2510    2403
	3     3989    5513    3986
	3     2528    5382    4636
	3     5152    5190    2334
	3     3778    5494    3754
	3     2516    2781    2713
	3     2712    2782    2521
	3     3181    3182    3180
	3     3313    3314    3312
	3      257    2327     258
	3      119    2328     120
	3     2533    5044    3011
	3     3012    5043    2535
	3     2853    2855    2854
	3     4683    4685    4684
	3     3655    5461    3657
	3     3380    5179    3293
	3     3248    5170    3161
	3     3461    5161    3425
	3     3053    1510    3051
	3     2580    5396    2583
	3     5449    3495    4144
	3     4009    3489    4007
	3     5530    5574    3712
	3     3645    3485    3649
	3     2901    2902    2900
	3     1359    5540    4212
	3      955    4571     954
	3      918    4572     917
	3     1177    4573    1176
	3     1140    4570    1139
	3     3799    5675    5526
	3     5872    6011    2800
	3     2799    6010    5871
	3     3449    3451    3450
	3     3737    5517    3738
	3     2396    2458    2395
	3     2378    2460    2379
	3     3657    3916    3659
	3     3659    3474    3661
	3     2719    2780    2518
	3     2523    2779    2718
	3     4212    5540    4214
	3     3862    5475    3866
	3     2987    2988    2986
	3     2993    2995    2994
	3     2146    1372    2145
	3     3844    5522    3920
	3     3820    5530    3697
	3     2933    2934    2932
	3     2899    2900    2898
	3     4052    5618    5551
	3     3852    5523    3827
	3     2174    2524    2407
	3     2406    2527    2173
	3     2861    2863    2862
	3     2361    3481    2374
	3     3676    5520    3677
	3     3966    5548    3802
	3     2223    3479    2221
	3     2291    3481    2361
	3     3697    5530    3698
	3     2923    2924    2922
	3     3665    3477    3798
	3     4710    5217    3455
	3     3766    5521    3730
	3     2978    5035    2780
	3     2779    5038    2977
	3     2398    3487    2396
	3     3454    3456    3455
	3     4122    6152    6143
	3     3106    5082    2790
	3     2789    5084    3105
	3     2599    2600    2593
	3     2550    2557    2556
	3     4011    4171    4009
	3     3093    3094    3092
	3     3098    3100    3099
	3     2693    2695    2694
	3     2688    2689    2687
	3     1887    1336    1886
	3     1884    1381    1885
	3     3661    3474    3664
	3     3657    5461    3916
	3     1353    5534    4156
	3     1693    1748    1696
	3     1658    1749    1655
	3     3672    5925    5895
	3     4762    5423    2778
	3     2774    5421    4763
	3     3446    5328    3457
	3     2395    3494    2392
	3      187    2126     188
	3      189    2127     190
	3     2464    3479    2223
	3     3236    5278    3224
	3     3368    5266    3356
	3     2130    5471    1982
	3     3519    5254    3506
	3     2851    2853    2852
	3     1996    2036    1998
	3     1954    2037    1952
	3     2081    3581     847
	3     2078    3582    1069
	3     2458    2459    2395
	3     2378    2461    2460
	3     4037    4142    4036
	3     4943    5647    4941
	3     1688    1689    1687
	3     1517    1648    1647
	3     4007    5492    4004
	3     4147    3484    3483
	3     3756    5495    3758
	3     2939    2940    2938
	3     2867    2869    2868
	3     2228    2465    2291
	3     2293    2464    2223
	3     3605    4552    2369
	3     3607    4553    2368
	3     3689    5508    3692
	3     4737    4810    2276
	3     1382    1384    1383
	3     1339    1340    1337
	3     2394    2395    2392
	3     2375    2378    2377
	3     2392    3494    2391
	3     4160    4174    4159
	3     1980    5515    1976
	3     2020    5516    2024
	3     2942    2943    2940
	3     2828    2830    2829
	3      285    1380     286
	3       91    1379      92
	3     3665    3798    3667
	3     4174    4175    4159
	3     2631    2804    2803
	3     2813    2814    2641
	3     3997    3475    3990
	3     3669    5465    3672
	3      255    2051     256
	3      121    2049     122
	3     1820    3482    1821
	3     4737    4811    4810
	3     2400    2401    2398
	3     2381    2384    2383
	3     4173    5511    4164
	3     2361    2374    2373
	3     2390    2391    2363
	3     3649    3485    3915
	3      191    2048     192
	3      185    2047     186
	3     4188    1358    4187
	3     4117    5519    4146
	3     4919    5222    4926
	3     4955    4958    4957
	3     4919    4920    4917
	3     2259    5471    2130
	3     4200    5543    4207
	3      263    2134     264
	3      113    2135     114
	3     4189    4190    4144
	3     3664    3477    3665
	3     5396    5397    2621
	3     2221    2733    2219
	3     2224    2734    2226
	3     4188    4244    1358
	3     2339    2761    2268
	3     2267    2756    2341
	3     4015    4169    4013
	3     1872    1873    1857
	3     1871    1877    1876
	3     4743    4745    4744
	3     3646    3945    3921
	3     3661    3664    3663
	3     3634    5708    3632
	3     4109    5546    4107
	3     5241    5551    5227
	3     4156    5534    4132
	3     3758    3765    3762
	3     2401    3487    2398
	3     3760    5662    2412
	3     2869    2872    2871
	3     4013    3476    4011
	3     4215    5528    4203
	3     3667    5465    3669
	3     5494    5496    5495
	3     4186    4188    4187
	3     2524    2526    2525
	3     2528    2529    2527
	3     4074    4139    4072
	3     4141    4164    4163
	3     4068    4144    4066
	3     4189    4191    4190
	3     4114    4141    4140
	3     2473    2475    2474
	3     2483    2484    2482
	3     4169    3476    4013
	3     3998    3999    3997
	3     4186    4187    4148
	3     5559    5762    4058
	3     3765    3779    3773
	3     3636    3646    3640
	3     3789    5489    3801
	3     2849    2851    2850
	3     4082    3488    4080
	3     1986    5634    1973
	3     2952    2953    2951
	3     4141    4163    4140
	3     4142    5801    4192
	3     4068    4189    4144
	3     4080    4125    4078
	3     3921    5536    3640
	3     1958    1959    1956
	3     2000    2003    2002
	3     5487    5488    5059
	3     3765    3773    3762
	3     3754    5494    3756
	3     3816    5480    5479
	3     4017    3483    4015
	3     2004    2007    2006
	3     1962    1963    1960
	3     4000    4001    3999
	3     3705    3490    3707
	3     3716    3793    3718
	3     4031    5500    4029
	3     3707    3785    3709
	3     4062    4148    4060
	3     3709    3486    3716
	3     4062    4186    4148
	3     2355    2691    2690
	3     2684    2685    2357
	3     2921    2922    2920
	3     4147    3483    4017
	3     4736    4737    2276
	3     3780    3781    3769
	3     2082    2083    1650
	3     1897    2085    2084
	3     3779    3791    3789
	3     2909    2911    2910
	3     5790    5854    3774
	3      988    3604    1503
	3      877    1578    1502
	3     3866    5475    4539
	3     3906    5544    3803
	3      193    1805     194
	3      183    1806     184
	3     3768    3769    3760
	3     4107    4127    4105
	3     3489    5492    4007
	3     2132    2260    2213
	3     2211    2259    2130
	3     3827    5523    3825
	3     7064    7086    6977
	3     1501    1482     910
	3     4741    4743    2316
	3     4063    3495    4062
	3     1500    1573     947
	3     2776    2778    2480
	3     2489    2774    2772
	3     5509    5510    5508
	3      721    5104      21
	3     4114    4140    4109
	3     3726    5472    3728
	3     2167    4755    4240
	3     3204    3205    3203
	3     3336    3337    3335
	3     2263    5515    1980
	3     2024    5516    2264
	3     3724    3794    3726
	3     2477    2478    2476
	3     2485    2487    2486
	3     5607    5608    5589
	3     1856    1857    1855
	3     1869    1871    1870
	3     4086    5476    4084
	3     2085    2505    2208
	3     2207    2504    2083
	3     3779    3789    3773
	3     5502    5855    5501
	3     4002    4237    4001
	3     1364    4229    1365
	3     3913    3944    3939
	3     4185    5547    5546
	3     4019    4147    4017
	3     2954    2955    2953
	3     4482    5148    3373
	3     4483    5149    3241
	3     4164    1351    4163
	3     4084    4133    4082
	3     3703    3712    3705
	3     3724    5473    3794
	3     4092    5529    4089
	3     5070    5078    5073
	3     3720    3797    3722
	3     2378    2379    2377
	3     2394    2396    2395
	3     3722    5473    3724
	3     5538    5539    3845
	3      948    1500     947
	3      988    1503     987
	3      911    1501     910
	3      877    1502     876
	3     1099    1498    1098
	3     1210    1499    1209
	3     1133    1494    1132
	3     1170    1496    1169
	3     4492    5147    3524
	3     1210    1310    1499
	3     2524    5430    2526
	3     4080    3488    4125
	3     2782    5468    2521
	3     3941    5512    3943
	3     3791    5489    3789
	3     1820    1821    1782
	3     1790    1829    1828
	3     5519    5556    1364
	3     3443    3444    3442
	3     4168    2145    4162
	3     3669    3672    3671
	3     3830    5538    3845
	3     3883    5131    3909
	3     4131    4132    4119
	3     3711    6141    5150
	3     3752    3778    3754
	3     5037    5751    5359
	3     4099    4118    4097
	3     3780    3795    3781
	3     3206    3207    3205
	3     3338    3339    3337
	3     3943    4473    4470
	3     1831    1833    1832
	3     1824    1825    1823
	3     4146    5519    4178
	3     3911    5506    3913
	3     5225    5226    4956
	3      253    1750     254
	3      123    1751     124
	3     2437    2438    2436
	3     3823    5522    3844
	3     4029    4033    4027
	3     3967    4540    3966
	3     3837    5550    3836
	3     2632    5629    2634
	3     2624    5628    2622
	3     3866    3868    3867
	3     4116    4119    4094
	3     3728    5472    3766
	3     4182    4184    4183
	3     4906    4908    4907
	3     4945    4946    4944
	3     3879    5150    3881
	3     3768    3780    3769
	3     3750    5469    3752
	3     5494    5495    3756
	3     1766    1784    1783
	3     1775    1776    1764
	3     4472    5086    4475
	3     3868    3952    3869
	3     1848    1849    1847
	3     1861    1863    1862
	3     3801    3967    3966
	3     3692    5508    5507
	3      110    1408     111
	3      266    1739     267
	3     4299    4300    4298
	3      244    1596     245
	3      132    1595     133
	3     4197    5543    4200
	3     3896    5549    3848
	3     5054    5487    5056
	3     4743    4744    2316
	3     5064    5514    5066
	3     3748    3783    3750
	3     5500    5501    4033
	3     5066    5074    5068
	3     4154    4156    4132
	3     5009    5051    5011
	3     3814    3934    3877
	3     3741    3760    3742
	3     3943    5512    4473
	3     4110    4114    4109
	3     1169    4508    1168
	3     3781    3792    3784
	3     1371    5440    4223
	3     5052    5080    5054
	3     4986    5237    3305
	3     4988    5238    3173
	3     3646    3921    3640
	3     4072    5483    4069
	3     2147    5543    4199
	3     3785    3486    3709
	3     3728    3766    3730
	3     5060    5079    5062
	3     4165    4173    4164
	3     4045    4051    4050
	3     3988    3989    3986
	3     3996    3997    3990
	3     1835    1859    1858
	3     1844    1845    1827
	3     4137    4159    4129
	3     4045    4050    4041
	3     1895    1897    1896
	3     1900    1650    1899
	3     5056    5059    5058
	3     1367    3478    1369
	3     4088    4094    4086
	3     2573    2576    2575
	3     2618    2619    2616
	3     2557    2571    2570
	3     2613    2614    2600
	3     2640    2641    2639
	3     2629    2631    2630
	3     3810    3816    3812
	3     3734    3737    3736
	3     4178    5519    1364
	3     4164    5511    1351
	3     3730    5521    3732
	3     3889    3891    3795
	3     5586    5607    5589
	3     4108    4109    4107
	3     3744    3774    3746
	3     3812    5478    3814
	3     4178    1364    1363
	3     3920    3954    3855
	3     3712    3490    3705
	3     4131    4154    4132
	3     3698    5530    3703
	3     3695    3699    3697
	3     4182    4183    4126
	3     2872    2874    2873
	3     4029    5500    4033
	3     3913    5506    3944
	3     3986    5513    3983
	3     2880    2882    2881
	3     2944    2945    2943
	3     2169    1352    4156
	3      274    2053     275
	3      102    2052     103
	3     4084    5476    4133
	3     5056    5487    5059
	3     3680    3682    3681
	3     3821    3823    3822
	3     3792    3906    3803
	3     1967    1985    1965
	3     2009    2029    2011
	3     4116    4131    4119
	3     3741    3768    3760
	3      358    5425     357
	3     4736    4738    4737
	3      104    1537     105
	3      272    1538     273
	3     4023    4047    4021
	3     4124    4128    4113
	3     3673    3676    3675
	3       99    1582     100
	3      277    1583     278
	3     5066    5514    5074
	3     4249    3475    3997
	3     3738    3741    3740
	3      129    1576     130
	3      247    1575     248
	3     1517    1647    1516
	3     1686    1688    1687
	3     3845    5527    3829
	3     4105    5499    4102
	3     4181    4182    4126
	3     2956    2957    2955
	3     2435    2436    2434
	3      180    1547     181
	3      196    1549     197
	3     4227    5559    5444
	3     3802    5548    3858
	3     3848    5549    3842
	3      241    1559     242
	3      135    1560     136
	3      269    1528     270
	3      107    1529     108
	3     3699    3821    3820
	3      126    1518     127
	3      250    1519     251
	3     1688    1694    1689
	3     1648    1656    1647
	3     3844    3920    3855
	3     1982    2263    1980
	3     2024    2264    2026
	3     3692    5507    3695
	3     3825    5523    5522
	3     3907    3946    3906
	3     4159    3480    4129
	3     2390    2392    2391
	3     2374    2375    2373
	3     3677    3680    3679
	3     3818    3955    3639
	3     4088    4116    4094
	3     3821    3822    3820
	3     3680    3713    3682
	3     4214    5540    2167
	3     1867    1869    1868
	3     1854    1855    1853
	3     3823    3844    3822
	3     1646    1516    1645
	3     1684    1686    1685
	3     2436    6046    2434
	3     5585    5607    5586
	3     4062    3495    4186
	3     2412    5662    5450
	3     4132    5534    4153
	3     3737    5791    5517
	3     5093    5447    1344
	3     1345    5448    5094
	3     2544    5553    2542
	3     2585    5554    2587
	3     4051    4052    4050
	3     3752    5469    3778
	3     3803    5544    3917
	3     4358    4361    4360
	3     1679    1412    1677
	3     1638    1913    1640
	3     4948    4951    4950
	3     4912    4913    4910
	3     4211    1360    1359
	3     4192    4193    4038
	3     4154    2169    4156
	3     4036    4038    4034
	3     2608    2663    2662
	3       93    1443      94
	3      283    1444     284
	3     2882    2884    2883
	3     2453    2678    2405
	3     2388    2680    2452
	3     4036    4192    4038
	3     4196    4197    4195
	3     2664    2665    2565
	3     4025    5518    4023
	3     5578    5581    5580
	3     3814    5478    3934
	3     4008    4009    4007
	3     3614    3615    3613
	3      239    2055     240
	3      137    2054     138
	3       96    1505      97
	3      280    1395     281
	3     1661    1774    1668
	3     1706    1410    1699
	3     5586    5589    5588
	3     3135    3136    3134
	3     3399    3400    3398
	3     3267    3268    3266
	3     5543    5552    4207
	3     4184    4219    4183
	3     4199    5543    4197
	3     5582    5585    5584
	3     3682    3694    3683
	3     3801    3966    3802
	3     1788    1790    1789
	3     1781    1782    1780
	3     3317    3319    3318
	3     3185    3187    3186
	3     5500    5502    5501
	3     4061    4062    4060
	3     1605    3606     869
	3     1604    3608    1202
	3     4196    4199    4197
	3     4067    4068    4066
	3     4059    4060    4058
	3     3792    3907    3906
	3     4023    5518    4047
	3     4053    4126    4051
	3     2937    2938    2935
	3     4042    4045    4041
	3      735    4741    2316
	3     2626    2629    2628
	3     2638    2639    2636
	3      378    4736    2276
	3     4126    5618    4051
	3     2864    2867    2866
	3      737    4747    2275
	3     1763    1764    1738
	3     1734    1766    1765
	3     3825    5522    3823
	3     4208    5490    4211
	3     3403    3404    3402
	3     3139    3140    3138
	3     3271    3272    3270
	3     3824    3825    3823
	3     3664    3665    3663
	3     4193    4196    4195
	3     5051    5052    5011
	3     2144    2148    2147
	3     4197    4200    4198
	3     3810    5481    3816
	3     1976    1986    1973
	3     2017    2030    2020
	3     4132    4153    4119
	3     4139    5483    4072
	3      139    1493     140
	3      237    1491     238
	3     5059    5060    5058
	3     4136    5691    5690
	3     3699    3820    3697
	3     2298    1386    1100
	3     3907    3947    3946
	3     2980    2981    2979
	3     2982    2984    2983
	3      376    4746    1756
	3     3847    3884    3848
	3     3829    5527    3852
	3     1131    3597    2304
	3     2326    2333    2332
	3     2334    2335    2324
	3     2167    4240    2170
	3     2602    2604    2603
	3     2560    2561    2559
	3     2144    2147    4199
	3     3687    3691    3689
	3     3741    3742    3740
	3     2679    2979    2678
	3     2680    2982    2681
	3     1360    4243    1359
	3     3703    5530    3712
	3     4106    4107    4105
	3     2148    2151    2149
	3     4200    4202    4201
	3     3789    3801    3790
	3     3792    3803    3784
	3     3781    3784    3769
	3     1364    1365    1363
	3     3737    3738    3736
	3     3826    3827    3825
	3     3895    3901    3894
	3     3858    5548    3887
	3     3179    3180    3178
	3     3311    3312    3310
	3     4193    4195    4194
	3     2874    2877    2876
	3      219    1449     220
	3      157    1448     158
	3     3847    3848    3842
	3     2148    2149    2147
	3     4006    4007    4004
	3      216    1477     217
	3      160    1478     161
	3     3676    3677    3675
	3     2439    2440    2438
	3     3340    3341    3339
	3     3208    3209    3207
	3     3758    3762    3759
	3     3765    3786    3779
	3     2375    5464    2378
	3     3829    3852    3827
	3     4920    5381    4917
	3     3828    3829    3827
	3     3682    3683    3681
	3     4190    5449    4144
	3     4202    4215    4203
	3     4203    5528    4205
	3     4205    4210    4208
	3      222    1463     223
	3      154    1462     155
	3     3680    3681    3679
	3     5534    5535    4153
	3     2485    2486    2484
	3     2475    2477    2476
	3     2151    2153    2152
	3     4073    4074    4072
	3     2151    2152    2149
	3     2806    2808    2807
	3     2817    2818    2816
	3     3447    3449    3448
	3     3796    3889    3795
	3     2524    5834    5430
	3      234    1423     235
	3      142    1424     143
	3     4114    5692    5687
	3     4031    5541    5500
	3      163    1438     164
	3      213    1439     214
	3     2576    4978    4977
	3     4981    4982    2619
	3      199    1442     200
	3      177    1441     178
	3     2847    2849    2848
	3     1737    1738    1736
	3     1732    1734    1733
	3     3649    3651    3650
	3     1352    1354    1353
	3     4127    5499    4105
	3     1203    1604    1202
	3      981    1603     980
	3      870    1605     869
	3     1092    1602    1091
	3      165    2059     166
	3      211    2060     212
	3     4100    4101    4099
	3     4010    4011    4009
	3     3756    3758    3757
	3     3858    3887    3860
	3     3843    3847    3842
	3     4041    4142    4037
	3      175    2062     176
	3      201    2061     202
	3     3947    3948    3946
	3      209    1320     210
	3      167    1308     168
	3     4065    4066    4063
	3     2442    2443    2444
	3     3212    3213    3211
	3     3344    3345    3343
	3      224    2057     225
	3      152    2056     153
	3     3096    5881    2732
	3     2730    5882    3090
	3     4200    4207    4202
	3     3830    3845    3829
	3      207    2064     208
	3      169    2063     170
	3     2017    5633    2030
	3     3527    5503    3525
	3     2726    2793    2317
	3     2318    2794    2725
	3      172    1333     173
	3      204    1332     205
	3     3651    3653    3652
	3     2146    1373    1372
	3     3844    3855    3854
	3      380    2315     379
	3      735    2316     734
	3      378    2276     377
	3      737    2275     736
	3     3836    5537    3834
	3     1090    3605    2369
	3      979    3607    2368
	3     4035    4036    4034
	3     2153    4238    2152
	3     3834    3851    3832
	3     3376    5504    3374
	3     3244    5505    3242
	3     1352    1353    4156
	3     3862    3866    3865
	3     4108    4110    4109
	3     3897    3951    3849
	3     4030    4031    4029
	3     2804    5524    2803
	3     2813    5525    2814
	3     4141    4165    4164
	3     6176    6205    5581
	3     4218    2144    4199
	3     4032    4034    4031
	3     3695    5507    3699
	3     4098    4099    4097
	3     4075    4076    4074
	3     3976    3977    3975
	3     4028    4029    4027
	3     3832    5538    3830
	3     2267    5566    2756
	3     2761    5567    2268
	3     4107    5546    4127
	3     3991    1347    3992
	3     4057    4058    4049
	3     2521    5468    2519
	3     3672    3673    3671
	3     2167    5540    4755
	3     4124    4129    4128
	3     2386    2388    2387
	3     2404    2405    2403
	3      150    1321     151
	3      226    1322     227
	3     1358    5317    4187
	3     3653    3655    3654
	3     4200    4201    4198
	3      232    2058     233
	3      144    2069     145
	3     3884    3885    3848
	3     2819    2820    2818
	3     2808    2810    2809
	3     4202    4203    4201
	3     2947    2948    2945
	3     4121    6126    6104
	3     4165    2171    4173
	3     5589    5590    5588
	3     4077    4078    4076
	3     4104    4105    4102
	3     4071    4072    4069
	3     4197    4198    4195
	3     4079    4080    4078
	3     4211    1359    4212
	3     2958    4503    2957
	3     3840    5550    3837
	3     4081    4082    4080
	3     3655    3657    3656
	3     5581    5582    5580
	3     4236    5228    5227
	3     4137    4160    4159
	3     5490    5491    1360
	3     2536    2537    1985
	3     2029    2580    2579
	3     3821    3824    3823
	3     4040    4041    4037
	3     5585    5586    5584
	3      228    2065     229
	3      148    2068     149
	3     3269    3270    3268
	3     3401    3402    3400
	3     3137    3138    3136
	3     2884    5442    2886
	3     4219    4236    4220
	3     4083    4084    4082
	3     3851    5538    3832
	3     3834    5537    3851
	3     3824    3826    3825
	3     3841    3842    3840
	3     4087    4088    4086
	3     4085    4086    4084
	3     1682    1684    1683
	3     1644    1645    1643
	3     3893    3894    3890
	3     3695    3697    3696
	3     2604    2606    2605
	3     2562    2563    2561
	3     4277    4279    4278
	3     4012    4013    4011
	3     2153    4239    4238
	3     3884    3886    3885
	3     4205    5528    4210
	3     3828    3830    3829
	3     3826    3828    3827
	3     3947    3949    3948
	3      146    1305     147
	3      230    1304     231
	3     3732    5570    3734
	3     3703    3705    3704
	3     1354    4605    1353
	3     3645    3649    3648
	3      739    1757     738
	3      376    1756     375
	3     2606    2608    2607
	3     3754    3756    3755
	3     3842    5549    3840
	3     3705    3707    3706
	3     4211    5490    1360
	3     4193    4194    4038
	3     3886    5555    3885
	3     4026    4027    4025
	3     3707    3709    3708
	3     4163    4185    4140
	3     2564    2565    2563
	3     3709    3716    3710
	3     4096    4097    4093
	3     3641    5536    3644
	3     2621    5717    5554
	3     5553    5716    2578
	3     3885    5555    3964
	3     3821    5568    3824
	3     3716    3718    3717
	3     3885    3964    3896
	3     4515    4516    3875
	3     3677    5520    3680
	3     1294    4806    1293
	3     1234    4805    1233
	3     3861    5626    3859
	3     4208    4211    4209
	3     4106    4108    4107
	3     3949    4554    3948
	3     3718    3720    3719
	3     5507    5568    3699
	3     3738    5517    3741
	3     2151    4246    2153
	3     2144    2150    2148
	3     4091    4092    4089
	3     2584    5698    2582
	3     2539    5699    2541
	3     5005    5900    2812
	3     2822    5901    5002
	3     4692    4693    4688
	3     3881    3883    3882
	3     3752    3754    3753
	3     3641    3644    3643
	3     3883    3909    3908
	3     3781    5533    3792
	3     3879    3881    3880
	3     2919    2920    2917
	3     3692    3695    3693
	3     5250    5251    2569
	3     2612    5247    5246
	3     3824    5568    3846
	3     4968    5380    4954
	3     4053    4181    4126
	3     4050    4142    4041
	3     2838    2839    2837
	3     4214    2167    2166
	3     3877    3879    3878
	3     3657    3659    3658
	3     5887    6122    3685
	3     5070    5073    5072
	3     4014    4015    4013
	3     3843    3849    3847
	3     3909    3911    3910
	3     3633    3636    3635
	3     1364    5556    4229
	3     4218    5757    5409
	3     2441    2444    2440
	3     3814    3877    3815
	3     3342    3343    3341
	3     3210    3211    3209
	3     3911    3913    3912
	3     4045    4053    4051
	3     5388    6161    5463
	3     3998    4000    3999
	3     2182    5905    2181
	3     5450    5790    3774
	3     3812    3814    3813
	3     4175    3480    4159
	3     3913    3939    3938
	3     3750    3752    3751
	3     3988    3990    3989
	3     3698    3703    3702
	3     4917    5381    4916
	3     4168    2146    2145
	3     3839    3840    3837
	3     3801    3802    3790
	3     3789    3790    3773
	3     3957    3959    3958
	3     4196    4218    4199
	3     4659    5369    4666
	3     5269    5271    5268
	3     5281    5283    5280
	3     3810    3812    3811
	3     3720    3722    3721
	3     5257    5259    5256
	3     3636    3640    3637
	3     2551    2552    2547
	3     2590    2595    2594
	3     2152    2154    2149
	3     5513    5777    3983
	3     3996    3998    3997
	3     5690    5691    1350
	3     3939    3941    3940
	3     3841    3843    3842
	3     2379    2381    2380
	3     2397    2398    2396
	3     3639    5708    3634
	3     5068    5070    5069
	3     4016    4017    4015
	3     3803    3917    3819
	3     3917    3957    3918
	3     3748    3750    3749
	3     3808    3810    3809
	3     4035    4037    4036
	3     4024    4025    4023
	3     4205    4208    4206
	3     5379    5831    1908
	3     1907    5830    5378
	3     4018    4019    4017
	3     4240    4241    2170
	3     3941    3943    3942
	3     4203    4205    4204
	3     3742    3744    3743
	3     1799    1884    1411
	3     1800    1886    1760
	3     3746    3748    3747
	3     3659    3661    3660
	3     2381    2383    2382
	3     2399    2400    2398
	3     5066    5068    5067
	3     5060    5062    5061
	3     3046    3048    3047
	3     3023    3024    3022
	3     5064    5066    5065
	3     4687    4688    4686
	3     3943    4470    4469
	3     3744    3746    3745
	3     5052    5054    5053
	3     4059    4061    4060
	3     2378    5464    2461
	3     4198    5631    5542
	3     4040    4042    4041
	3     3885    3896    3848
	3     3835    3836    3834
	3     3177    3178    3176
	3     3309    3310    3308
	3     4000    4002    4001
	3     2383    2386    2385
	3     2402    2403    2400
	3     5062    5064    5063
	3     2723    6481    3612
	3     3640    5536    3641
	3     5574    5640    3712
	3     3738    3740    3739
	3     5466    5925    5465
	3     4470    4472    4471
	3     2004    6100    2007
	3     4475    5009    5008
	3     4061    4063    4062
	3     4472    4475    4474
	3     5297    5298    5295
	3     5304    5305    5302
	3     5311    5312    5309
	3     3689    3692    3690
	3     5009    5011    5010
	3     5056    5058    5057
	3     2577    5189    2553
	3     3687    3689    3688
	3     5054    5056    5055
	3     3833    3834    3832
	3     2610    2766    2656
	3     2653    2767    2567
	3     3685    3687    3686
	3     3683    3685    3684
	3     4022    4023    4021
	3     5598    5601    5600
	3     4660    5369    4659
	3     3780    3796    3795
	3     2774    2787    2772
	3     2776    2788    2778
	3     3722    3724    3723
	3     1963    1495    1960
	3     3677    3679    3678
	3     2375    2377    2376
	3     2393    2394    2392
	3     5549    5550    3840
	3     4057    4059    4058
	3     4067    4069    4068
	3      956    2197     955
	3     1141    2200    1140
	3      919    2198     918
	3     1178    2199    1177
	3     3726    3728    3727
	3     4020    4021    4019
	3     5596    5598    5597
	3     3925    3936    3924
	3     3844    3854    3822
	3     3724    3726    3725
	3     4360    4476    4359
	3     4065    4067    4066
	3     4236    5227    4220
	3     3728    3730    3729
	3     3831    3832    3830
	3     5603    5605    5604
	3     1178    3610    2199
	3     1141    3609    2200
	3     1365    1367    1366
	3     3742    2412    3744
	3      919    3611    2198
	3     3741    5517    3768
	3     4104    4106    4105
	3     4131    4155    4154
	3     5594    5596    5595
	3     3680    5520    3713
	3     3734    3736    3735
	3     3732    3734    3733
	3     2433    2434    2432
	3     3730    3732    3731
	3     4032    4035    4034
	3     5601    5603    5602
	3     3004    5132    2787
	3     2788    5135    3005
	3     2583    5396    2621
	3     4178    1363    1362
	3     4219    4220    4183
	3     4028    4030    4029
	3     4030    4032    4031
	3     1367    1369    1368
	3     3792    5533    3907
	3     2927    2929    2928
	3     3864    5626    3861
	3     3800    3808    3807
	3     4100    4102    4101
	3     1369    1371    1370
	3     3665    3667    3666
	3     3405    3406    3404
	3     3141    3142    3140
	3     3273    3274    3272
	3     1371    4223    4222
	3     2723    3612     957
	3     3064    6158    6069
	3     5500    5541    5502
	3     3895    3902    3901
	3     3923    3924    3864
	3     3855    3856    3854
	3     2905    2907    2906
	3     1070    2078    1069
	3     1255    2079    1254
	3     1014    2070    1013
	3     1273    2072    1272
	3     1033    2074    1032
	3     1051    2071    1050
	3      829    2073     828
	3      848    2081     847
	3     2916    2917    2915
	3     4045    5615    4053
	3     2072    3629    1272
	3     4433    4434    4429
	3     1417    3630    1167
	3      979    2368     978
	3     1201    2366    1200
	3      868    2367     867
	3     1090    2369    1089
	3      848    3618    2081
	3     1033    3616    2074
	3     2071    3623    1050
	3     2073    3620     828
	3     2070    3626    1013
	3     4223    4234    4224
	3     4088    5529    4116
	3     2228    2291    2290
	3     2292    2293    2223
	3     2226    2228    2227
	3     2222    2223    2221
	3     3661    3663    3662
	3     5592    5594    5593
	3     3981    3991    3984
	3     2450    3613    1071
	3     3796    3890    3889
	3     2857    2858    2856
	3     2450    3614    3613
	3     3839    3841    3840
	3     4026    4028    4027
	3     1180    2699    1179
	3     1143    2698    1142
	3     1101    2298    1100
	3      990    2296     989
	3      946    2303     945
	3     1131    2304    1130
	3     1168    1417    1167
	3      879    2297     878
	3      909    2301     908
	3     1212    2299    1211
	3     1829    5834    1828
	3     3777    3799    3788
	3     1128    4530    3081
	3     1089    4484    1088
	3     1200    4485    1199
	3      921    2722     920
	3      958    2723     957
	3     1088    2752    1087
	3     1199    2753    1198
	3     2752    4513    1087
	3     4071    4073    4072
	3     1144    4781    1143
	3     1181    4780    1180
	3      978    4486     977
	3      867    4487     866
	3      906    4281     905
	3      992    4293     991
	3     3079    4267     942
	3      975    2720     974
	3     1269    2701    3116
	3      864    2721     863
	3      827    2445     826
	3     1164    1903    1163
	3     1216    1902    1215
	3     2447    4272    4270
	3      901    2770     900
	3     1049    2446    1048
	3      975    4266    2720
	3      901    4617    2770
	3      961    2295     960
	3     1072    2450    1071
	3     1035    2449    1034
	3     1183    3971    1182
	3     1257    2451    1256
	3     1012    1904    1011
	3     1271    1905    1270
	3      800    2455     799
	3     3118    2300    1258
	3     1259    3118    1258
	3      907    3121     906
	3     1074    2494    1073
	3      852    3120     851
	3     1196    1416    1195
	3     1037    2498    1036
	3      826    4591     825
	3      889    2499     888
	3     4257    4258    2288
	3      806    4269    2330
	3      824    4263    2329
	3      900    4590     899
	3     2209    4283    4282
	3     2080    4711     884
	3      941    2287     940
	3      793    2288     792
	3     1010    2495    1009
	3     1103    4309    1102
	3      881    4288     880
	3     1047    2497    1046
	3     1048    4592    1047
	3     1214    3117    1213
	3      899    2496     898
	3     1104    3084    1103
	3     1215    4825    1214
	3     1011    4593    1010
	3     1085    2289    1084
	3      854    2305     853
	3     4254    4256    4253
	3     4252    4253    2076
	3      795    4531    3082
	3      798    2306     797
	3      882    2700     881
	3      856    2454     855
	3      808    3083     807
	3      993    3080     992
	3      943    4284    3079
	3      804    2209     803
	3      824    2329     823
	3     2447    4270     886
	3      898    4250     897
	3     1145    1901    1144
	3     1182    2430    1181
	3      806    2330     805
	3      855    4291     854
	3     4263    4264    2329
	3      810    2286     809
	3      923    4521     922
	3     1269    3116    1268
	3      822    4616    2210
	3      960    4290     959
	3      808    4292    3083
	3      993    4273    3080
	3      995    2285     994
	3      820    2735      28
	3     2455    4294     799
	3     1184    2120    1183
	3      851    4595     850
	3      888    4594     887
	3     1147    2121    1146
	3      822    2210     821
	3     1036    4596    1035
	3      795    3082     794
	3      943    3079     942
	3      802    2724     801
	3     1073    4589    1072
	3     1128    3081    1127
	3      801    4599     800
	3     4264    4265    2329
	3     1165    4826    1164
	3       28    4598     856
	3      793    4257    2288
	3      820    4285    2735
	3      903    4251    2076
	3      885    2080     884
	3      866    2651     865
	3      865    4488     864
	3     2209    4282     803
	3      977    2650     976
	3     4252    4254    4253
	3      922    4782     921
	3      959    4783     958
	3      903    2076     902
	3     4251    4252    2076
	3      905    1906     904
	3     1198    4489    1197
	3      887    2447     886
	3      850    2448     849
	3      924    2294     923
	3     1166    3119    1165
	3     1104    4319    3084
	3     1126    4324    2415
	3     1259    4310    3118
	3     1126    2415    1125
	3     1106    2413    1105
	3     1039    4332    1038
	3     1163    4468    1162
	3     4324    4325    2415
	3     1261    2307    1260
	3     1267    2308    1266
	3     1040    1880    1039
	3     1044    1881    1043
	3     1216    4301    1902
	3     1008    1378    1007
	3     1076    1377    1075
	3     4117    2414    5519
	3     1146    4295    1145
	3     1162    2077    1161
	3     1218    2075    1217
	3     3893    3895    3894
	3      997    1400     996
	3      939    1597     938
	3      897    4296     896
	3     5663    5675    3714
	3     5590    5592    5591
	3     4073    4075    4074
	3     3816    5481    5480
	3     4098    4100    4099
	3      940    4289     939
	3     4089    5529    4088
	3     2790    5830    2270
	3     2269    5831    2789
	3     1693    5820    1748
	3      892    1882     891
	3      896    1883     895
	3      926    1401     925
	3      973    1840     972
	3     1108    1409    1107
	3     1124    1747    1123
	3     2224    2226    2225
	3     2220    2221    2219
	3     4385    4477    4386
	3     3415    3416    3414
	3      963    1402     962
	3      862    1841     861
	3     3307    3308    3306
	3     3175    3176    3174
	3     5567    5616    2192
	3     3669    3671    3670
	3      961    4337    2295
	3     5586    5588    5587
	3     2168    4235    2171
	3     4008    4010    4009
	3     4096    4098    4097
	3     3820    5574    5530
	3     2362    2363    2293
	3     2291    2361    2360
	3     3673    3675    3674
	3     4146    4178    4177
	3     1124    4618    1747
	3     4006    4008    4007
	3     5556    5933    4229
	3      862    4339    1841
	3     5582    5584    5583
	3     4075    4077    4076
	3     3151    3152    3150
	3     3283    3284    3282
	3     4211    4212    4209
	3     4077    4079    4078
	3     4079    4081    4080
	3     2167    2170    2166
	3      810    4348    2286
	3     2361    2373    2372
	3     2389    2390    2363
	3     1078    1523    1077
	3     1006    1522    1005
	3      812    1598     811
	3      791    1599     790
	3     4081    4083    4082
	3     3667    3669    3668
	3     2538    2539    2537
	3     2580    2582    2581
	3     1042    1431      34
	3       33    1429    1041
	3     1006    4343    1522
	3     1040    4328    1880
	3     4337    4338    2295
	3     4662    3492    4664
	3     4087    4089    4088
	3     3699    5568    3821
	3     4085    4087    4086
	3     5578    5580    5579
	3     4083    4085    4084
	3     3900    3903    3899
	3     4325    4326    2415
	3      925    4556     924
	3     4823    6301    1389
	3     4091    4093    4092
	3     5687    5692    5486
	3     3835    3837    3836
	3      792    5016     791
	3     4150    4231    4152
	3     5576    5578    5577
	3     1077    5087    1076
	3     1042    4349    1431
	3     2213    2224    2214
	3     2212    2219    2211
	3     3818    3956    3955
	3     3898    3899    3897
	3     2845    2847    2846
	3     1233    1470    1232
	3     1295    1469    1294
	3     3439    3440    3438
	3     3183    3185    3184
	3     3315    3317    3316
	3     3762    3763    3759
	3     3758    3759    3757
	3     1675    2137    1727
	3     1406    6089    1636
	3     4203    4204    4201
	3     3697    3698    3696
	3     1656    5474    1661
	3     1078    4340    1523
	3     3828    3831    3830
	3     4111    6067    6008
	3     4277    4280    4279
	3     3833    3835    3834
	3     4515    4518    4516
	3     3695    3696    3693
	3     3734    5570    3737
	3     4261    4262    4259
	3     4258    4260    4259
	3     3332    3333    3330
	3     3200    3201    3198
	3     2131    2211    2130
	3     2132    2213    2133
	3     3850    3897    3849
	3     2162    4550    4549
	3     4024    4026    4025
	3     3803    3819    3784
	3     1661    5474    1774
	3     5482    6014    5481
	3     3868    3869    3867
	3     3904    3914    3903
	3     3866    3867    3865
	3     3705    3706    3704
	3     3824    3846    3826
	3     3831    3833    3832
	3     3703    3704    3702
	3     1266    4327    1265
	3      972    4336     971
	3     4258    4259    2288
	3     4343    4345    4344
	3     4012    4014    4013
	3     3457    5328    5327
	3      964    4356     963
	3     4010    4012    4011
	3     2914    2915    2913
	3     3756    3757    3755
	3     4112    4113    4110
	3     2598    5698    2584
	3     2541    5699    2555
	3     3707    3708    3706
	3     4205    4206    4204
	3     3742    3743    3740
	3     3496    3497    2443
	3     3709    3710    3708
	3     4208    4209    4206
	3     3346    3347    3345
	3     3214    3215    3213
	3     4022    4024    4023
	3     3683    3684    3681
	3     3716    3717    3710
	3     3881    3882    3880
	3     3879    3880    3878
	3     5060    5061    5058
	3     3959    3960    3958
	3     2929    2931    2930
	3      997    4334    1400
	3     1983    2130    1982
	3     2026    2132    2027
	3     3883    3908    3882
	3     3814    3815    3813
	3     4670    4671    4668
	3     3877    3878    3815
	3     5052    5053    5011
	3     3718    3719    3717
	3     4016    4018    4017
	3     3812    3813    3811
	3     4314    4316    4315
	3     3909    3910    3908
	3     2550    2556    2548
	3     2591    2599    2593
	3     3957    3958    3918
	3     2859    2860    2858
	3     3720    3721    3719
	3     2029    2579    2011
	3     1967    2536    1985
	3     3810    3811    3809
	3     3754    3755    3753
	3     4053    5615    4227
	3      927    4367     926
	3     4343    4344    1522
	3     4018    4020    4019
	3     1123    4777    1122
	3     3917    3918    3819
	3     5073    5076    5072
	3      971    1389     970
	3      965    1330     964
	3     1463    1413     223
	3     3677    3678    3675
	3     1748    5454    1696
	3     3752    3753    3751
	3     3911    3912    3910
	3     3738    3739    3736
	3     3952    3953    3869
	3     2947    6599    4808
	3     4052    5801    4050
	3     3913    3938    3912
	3     4149    4230    4158
	3     4260    4261    4259
	3     4020    4022    4021
	3     1265    1504    1264
	3     1263    1497    1262
	3     1084    4564    1083
	3      892    4335    1882
	3     3769    5662    3760
	3     3692    3693    3690
	3     2174    5834    2524
	3     4014    4016    4015
	3     1365    1366    1363
	3     3939    3940    3938
	3     3689    3690    3688
	3     3750    3751    3749
	3     4349    4538    1431
	3     4305    4547    4306
	3     4039    4040    4037
	3     5002    5003    5001
	3     5004    5006    5005
	3     3929    3930    3914
	3     4043    4044    4042
	3     3687    3688    3686
	3      224    1413    2057
	3     5070    5072    5069
	3     4516    5748    3875
	3     3651    3652    3650
	3     3748    3749    3747
	3     3790    5649    3773
	3     3644    3645    3643
	3     3808    3809    3807
	3     3685    3686    3684
	3     3744    3745    3743
	3     4136    4137    4129
	3     3838    3839    3837
	3     4547    4548    4306
	3     2353    3111    2673
	3     2672    3112    2351
	3     3746    3747    3745
	3     5066    5067    5065
	3      396    5571     395
	3      395    2128     394
	3      723    1810     722
	3      725    2129     724
	3      397    1812     396
	3      724    5573     723
	3     3941    3942    3940
	3     5575    5576    4990
	3     3649    3650    3648
	3     5064    5065    5063
	3     3760    2412    3742
	3     5062    5063    5061
	3     5068    5069    5067
	3     4345    4346    4344
	3     4316    4317    4315
	3     2628    5628    2624
	3     2634    5629    2638
	3     3762    5649    3763
	3     3943    4469    3942
	3     5058    5557    5057
	3     4123    4124    4113
	3     3933    5675    5663
	3     5054    5055    5053
	3     5056    5057    5055
	3     4042    5615    4045
	3     5009    5010    5008
	3     4470    4471    4469
	3     3653    3654    3652
	3     5590    5591    5588
	3     5061    5557    5058
	3     3822    5574    3820
	3     3722    3723    3721
	3     4475    5008    4474
	3     4472    4474    4471
	3     5517    5636    3768
	3     2388    2452    2387
	3     2404    2453    2405
	3     4658    4660    4659
	3     1337    5532    1336
	3     3633    3635    3634
	3     1148    4490    1147
	3     3679    3714    3678
	3     3799    3800    3788
	3     1232    4355    1231
	3     3843    3850    3849
	3     3925    3937    3936
	3     3728    3729    3727
	3     4334    4494    1400
	3     2323    2324    2272
	3     2274    2326    2325
	3      726    5613     725
	3      394    5572     393
	3     5586    5587    5584
	3     3655    3656    3654
	3      937    4366    1302
	3     4346    4347    4344
	3     3734    3735    3733
	3     5596    5597    5595
	3     3780    5636    3796
	3     5582    5583    5580
	3     3726    3727    3725
	3     5598    5600    5597
	3     3724    3725    3723
	3     3932    5157    3853
	3     3732    3733    3731
	3     3730    3731    3729
	3     4150    5638    4231
	3     1958    1960    1959
	3     2003    2004    2002
	3     1642    1660    1644
	3     1683    1698    1681
	3     5594    5595    5593
	3     2632    2634    2633
	3     2623    2624    2622
	3     3657    3658    3656
	3      790    4495     789
	3     1219    4638    1218
	3     1195    2302    1194
	3     2394    2397    2396
	3     2379    2380    2377
	3     1295    4351    1469
	3     3513    3514    3512
	3      936    4501     935
	3      937    1302     936
	3      999    1311     998
	3     4044    5615    4042
	3     3363    3364    3362
	3     3231    3232    3230
	3     4048    4049    4044
	3     2803    5670    2630
	3     2640    5671    2813
	3     5373    5374    5372
	3     5375    5377    5376
	3     3437    3438    3436
	3     5601    5602    5600
	3     1367    1368    1366
	3      860    4368    1329
	3     3435    3436    3434
	3     4103    4104    4102
	3     4178    1362    4177
	3     4064    4065    4063
	3     4212    4214    4213
	3      860    1329     859
	3      928    1388     927
	3     1369    1370    1368
	3     5592    5593    5591
	3      894    4450    1420
	3      727    2215     726
	3      393    2216     392
	3     1371    4222    1370
	3     4114    5687    4141
	3     4056    4057    4049
	3     4165    2168    2171
	3     1971    1809    2632
	3     2622    5891    2015
	3      934    1426     933
	3     1002    1425    1001
	3     2680    2681    2452
	3     2453    2679    2678
	3     4223    4224    4222
	3     1347    1348    3992
	3     3839    5569    3841
	3      966    4726     965
	3     5227    5551    4220
	3     3802    3858    3857
	3     4192    5757    4193
	3     1161    4333    1160
	3     3777    5675    3799
	3     1644    5485    1646
	3     4234    4555    4224
	3     1122    1312    1121
	3     1110    1317    1109
	3     2610    5698    2766
	3     2767    5699    2567
	3      392    5614     391
	3     4379    4493    1419
	3     3835    3838    3837
	3     4049    5762    4044
	3     3838    3872    3853
	3     4361    4466    4360
	3     4170    2164    4151
	3     4183    5618    4126
	3     3303    3304    3302
	3     3171    3172    3170
	3      894    1420      30
	3       29    1419     893
	3     4685    4686    4684
	3     4070    4071    4069
	3     4161    4162    4160
	3     5603    5604    5602
	3     3197    3198    3196
	3     3329    3330    3328
	3     2028    2622    2015
	3     1971    2632    1984
	3     2477    2479    2478
	3     2487    2488    2486
	3     3831    3871    3833
	3     3892    3893    3890
	3     3667    3668    3666
	3      929    4882     928
	3     3828    5623    3831
	3      968    1457      32
	3       31    1456     967
	3     3640    3641    3637
	3     2487    2489    2488
	3     2479    2480    2478
	3      967    4382     966
	3     5578    5579    5577
	3     3661    3662    3660
	3     1981    1982    1980
	3     2024    2026    2025
	3     3985    3986    3983
	3     1111    4527    1110
	3     3673    3674    3671
	3     3850    3898    3897
	3     5584    5610    5583
	3     3898    3900    3899
	3      730    2410     729
	3      390    2411     389
	3     3636    3637    3635
	3     3665    3666    3663
	3     2925    2927    2926
	3     4095    4096    4093
	3       18    5645     651
	3       10    5644     467
	3     4090    4091    4089
	3     4035    4039    4037
	3     4040    4043    4042
	3     3826    5623    3828
	3     3923    3925    3924
	3      652    5645      18
	3      468    5644      10
	3     4551    4817    2163
	3     2843    2845    2844
	3     4113    5692    4110
	3     3838    3853    3839
	3     5635    5748    3674
	3     5157    5569    3853
	3     3846    5623    3826
	3     3462    3463    3459
	3     1349    1350    4157
	3     3978    5777    4248
	3     3659    3660    3658
	3     4108    4112    4110
	3     4196    5757    4218
	3     3678    5635    3675
	3     3924    5626    3864
	3     2855    2856    2854
	3     4176    4232    4145
	3     3537    5851    3508
	3     4201    5631    4198
	3     2375    2376    2373
	3     2390    2393    2392
	3     4214    2166    4217
	3     3386    5853    3358
	3     3254    5852    3226
	3     5576    5577    4990
	3     3900    3904    3903
	3     4053    4227    4181
	3     1264    4365      40
	3     2157    2159    4138
	3     1557    4451    1185
	3     3872    3932    3853
	3     2168    5239    4235
	3     3669    3670    3668
	3     5587    5610    5584
	3     4212    4213    4209
	3     3987    3988    3986
	3     4951    4954    4952
	3     4914    4916    4913
	3     3978    4248    3977
	3     3874    3875    3873
	3      934    4371    1426
	3     1389    4730     970
	3     3995    3996    3990
	3     4847    4849    4848
	3     4844    4845    4843
	3     5396    5432    5397
	3     2097    2098    2095
	3     2089    2092    2091
	3     2381    2382    2380
	3     2397    2399    2398
	3     1112    1475    1111
	3     1120    1474    1119
	3     4622    4623    1425
	3     3504    3505    3501
	3     3991    3992    3984
	3     3698    3702    3701
	3     4217    2155    4213
	3     3787    3873    3776
	3     3354    3355    3351
	3     3222    3223    3219
	3     4028    4046    4030
	3     3768    5636    3780
	3     4206    4216    4204
	3     2984    4496    2983
	3     3854    5574    3822
	3     2980    4497    2981
	3     2903    2905    2904
	3     4314    4318    4316
	3     4514    4515    3875
	3     5587    5611    5610
	3     2679    2980    2979
	3     2982    2983    2681
	3     2383    2385    2382
	3     2399    2402    2400
	3     1118    1527    1117
	3     1114    1526    1113
	3      395    5571    2128
	3     1812    5571     396
	3      723    5573    1810
	3     2129    5573     724
	3     3526    3527    3525
	3      789    1486     788
	3      814    1485     813
	3     3965    4502    3806
	3     3375    3376    3374
	3     3243    3244    3242
	3     2614    2618    2616
	3     2573    2575    2571
	3     2599    2613    2600
	3     2557    2570    2556
	3     2402    2404    2403
	3     2386    2387    2385
	3     3853    5569    3839
	3     4057    4134    4059
	3     3445    3447    3446
	3      858    1476     857
	3      930    1471     929
	3     3181    3183    3182
	3     3313    3315    3314
	3     4368    4369    1329
	3     3858    3860    3859
	3     3796    5636    3892
	3     1366    5650    1363
	3     2996    2997    2995
	3     2988    2990    2989
	3     3679    5663    3714
	3     3421    3428    3410
	3     1263    4363    1497
	3     3982    3983    3980
	3     2159    5656    4138
	3     2756    2757    2341
	3     2339    2762    2761
	3     3850    3935    3898
	3     3157    3164    3146
	3     3289    3296    3278
	3     3833    5619    3835
	3     3773    5649    3762
	3     4100    4103    4102
	3     5685    5686    1350
	3     5591    5639    5588
	3     3746    5854    3748
	3     4024    4055    4026
	3     2228    2290    2227
	3     2222    2292    2223
	3     4167    4168    4162
	3     1149    1550    1148
	3     1083    1551    1082
	3     2092    2191    2093
	3     2099    2193    2098
	3     2291    2360    2290
	3     2292    2362    2293
	3     3841    5637    3843
	3     1341    2274    2273
	3     2271    2272    1335
	3      932    1472     931
	3     1004    1473    1003
	3      968    4534    1457
	3     4905    5646    5459
	3     4061    4064    4063
	3     2035    5711    2111
	3     3831    5623    3871
	3      725    5613    2129
	3     2128    5572     394
	3     1230    1532    1229
	3     1298    1531    1297
	3     3796    3892    3890
	3     5456    5647    4943
	3     2226    2227    2225
	3     2220    2222    2221
	3     4003    4004    4002
	3     2033    5713    2117
	3     2034    5712    2115
	3     2032    5714    2113
	3     4369    4370    1329
	3     3498    3499    3497
	3     3904    3929    3914
	3     3955    5708    3639
	3     3819    5662    3784
	3     3348    3349    3347
	3     3216    3217    3215
	3     2538    2567    2539
	3     2582    2610    2581
	3     3800    3807    3806
	3     4067    4070    4069
	3     1300    1571    1299
	3     1228    1570    1227
	3     2135    7057    5835
	3     5837    7058    2134
	3     4087    4090    4089
	3     2373    5563    2372
	3      858    4620    1476
	3     2580    2581    2579
	3     2536    2538    2537
	3     4091    4095    4093
	3     4043    4048    4044
	3     4220    5618    4183
	3     3802    3857    3790
	3     2365    2671    2359
	3     2358    2670    2364
	3     4225    4226    1373
	3     1002    4621    1425
	3     3857    5649    3790
	3     2362    2389    2363
	3     2361    2372    2360
	3     4241    5102    2170
	3     2670    2730    2729
	3     2731    2732    2671
	3     3893    5661    3895
	3     3714    3777    3776
	3     5091    5830    2790
	3     2789    5831    5090
	3     1911    5869    5760
	3     4081    4111    4083
	3       29    4372    1419
	3     3684    5663    3681
	3     1186    1557    1185
	3     1194    1558    1193
	3     4214    4217    4213
	3     3918    5450    3819
	3     3777    3788    3787
	3     4124    4136    4129
	3     5934    6108    4228
	3       35    1615    1115
	3     1116    1616      36
	3     1120    4387    1474
	3     2212    2220    2219
	3     2224    2225    2214
	3     4137    4161    4160
	3     4077    4121    4079
	3     4073    4122    4075
	3     3327    3328    3326
	3     3195    3196    3194
	3      788    4395     787
	3     4005    4006    4004
	3      816    1617     815
	3      787    1618     786
	3     1151    1630    1150
	3     1081    1403    1080
	3     4095    4117    4115
	3     3698    3701    3696
	3     3960    5365    3958
	3      815    4418     814
	3     4048    4056    4049
	3     5588    5639    5587
	3     3675    5635    3674
	3     3681    5663    3679
	3     4655    4658    4657
	3      932    4601    1472
	3     3686    3933    3684
	3     4020    4130    4022
	3     3690    3700    3688
	3     4112    4123    4113
	3     3815    4520    3813
	3     4406    4407    1473
	3     3193    3194    3192
	3     3325    3326    3324
	3     3095    3096    2732
	3     2730    3090    3089
	3     3811    3970    3809
	3     3880    4613    3878
	3     1082    4402    1081
	3     2376    5563    2373
	3     3704    3711    3702
	3     2931    2933    2932
	3     4117    4146    4145
	3     3784    5662    3769
	3     3055    3057    3053
	3     3029    3033    3031
	3     4581    4641    4370
	3     4146    4177    4176
	3     5593    5599    5591
	3     1150    4420    1149
	3     4369    4581    4370
	3     4103    4150    4120
	3     1160    1521    1159
	3     1220    1396    1219
	3     2215    5613     726
	3      393    5572    2216
	3     2861    2862    2860
	3     1230    4409    1532
	3     2992    2993    2646
	3     2649    2986    2985
	3     4103    4120    4104
	3     3745    3771    3743
	3     1363    5650    1362
	3     3522    3523    3514
	3     3843    5637    3850
	3     2668    3108    3107
	3     3109    3110    2669
	3     3908    4824    3882
	3     2213    2214    2133
	3     2131    2212    2211
	3     4064    4135    4065
	3      930    4396    1471
	3     3371    3372    3364
	3     3239    3240    3232
	3     3638    3639    3634
	3     4043    4054    4048
	3     1079    4600      35
	3     5065    5071    5063
	3     3708    3715    3706
	3     1648    5664    1656
	3     4095    4115    4096
	3     4152    4179    4170
	3     4150    4152    4151
	3     5557    5558    5057
	3     4176    4233    4232
	3     3458    3459    3456
	3     3800    3806    3788
	3     3749    3761    3747
	3     4170    2165    2164
	3     2376    5564    5563
	3     2834    2835    2833
	3       36    4417    1152
	3     5055    5077    5053
	3     4204    5631    4201
	3     3838    5619    3872
	3     4217    4228    2155
	3     3892    3931    3893
	3     3714    3776    3678
	3     3717    3770    3710
	3     2645    2646    2644
	3     2647    2649    2648
	3     3976    3978    3977
	3     1080    4419    1079
	3     1530    6113    5479
	3     3871    5619    3833
	3     4090    2414    4091
	3     2832    2833    2831
	3     1362    4247    4177
	3     5072    5075    5069
	3     3835    5619    3838
	3     3097    3098    3096
	3     3090    3092    3091
	3     1472    4455     931
	3     3912    3950    3910
	3     4064    2160    4135
	3     4642    4644    4641
	3     2162    4549    2163
	3     4581    4642    4641
	3     3733    3782    3731
	3     2132    2133    2027
	3     1983    2131    2130
	3     4039    5655    4040
	3     4842    4843    2637
	3     2627    4847    4846
	3     1112    4388    1475
	3     4515    4519    4518
	3     2634    2636    2635
	3     2625    2626    2624
	3     4070    4138    4071
	3     5569    5637    3841
	3     3755    3764    3753
	3     4474    4759    4471
	3     2160    2162    2161
	3     1977    1980    1976
	3     2020    2024    2021
	3     3856    5640    3854
	3     3776    5635    3678
	3     1004    4404    1473
	3     4070    2156    4138
	3     3729    3772    3727
	3     1368    4498    1366
	3     3787    3874    3873
	3     1118    4392    1527
	3     1152    4422    1151
	3     3942    3969    3940
	3     3874    4514    3875
	3     5551    5618    4220
	3     4502    5680    3806
	3     2216    5614     392
	3     4209    5632    4206
	3     4622    4625    4624
	3     3723    3767    3721
	3     2156    2158    2157
	3     3759    3775    3757
	3     5855    5910    5501
	3     4555    4752    4224
	3     4547    4831    4548
	3     4026    5627    4028
	3     4016    4143    4018
	3     3245    4860    3244
	3     3377    4858    3376
	3     3528    4876    3527
	3     3807    3965    3806
	3     4110    5692    4114
	3     4040    5655    4043
	3     3860    3862    3861
	3     4117    4145    4115
	3     3777    3787    3776
	3     4622    4624    4623
	3      786    4578     785
	3     3666    5681    3663
	3     1911    5760    2262
	3     2665    2899    2898
	3     4146    4176    4145
	3     2389    5560    2390
	3     2155    5632    4213
	3     1557    4452    4451
	3     4371    4868    1426
	3     2194    5617    5566
	3     2168    5486    5239
	3     1222    1890    1221
	3     1158    1891    1157
	3     4150    4151    4120
	3     1300    4414    1571
	3     4152    4170    4151
	3     4012    4166    4014
	3     2394    5706    2397
	3     2380    5705    2377
	3     1221    4424    1220
	3     1696    5454    1701
	3     2162    2163    2161
	3     4744    7409    4800
	3     4141    5687    4165
	3     3922    3923    3864
	3     4549    4551    2163
	3     4498    5650    1366
	3     2160    2161    4135
	3     5599    5639    5591
	3     4227    5762    5559
	3     4372    4379    1419
	3     4106    5693    4108
	3     4022    5642    4024
	3     3976    3979    3978
	3     5450    5662    3819
	3     2026    2027    2025
	3     1981    1983    1982
	3     1298    4411    1531
	3     3645    3648    3647
	3     1116    4630    1616
	3     2933    2935    2934
	3     1228    4412    1570
	3     2158    1356    2157
	3     2863    2864    2862
	3     4158    1357    1349
	3     4112    4149    4123
	3     4149    5693    4230
	3     4621    4622    1425
	3     4406    4408    4407
	3     3863    3864    3861
	3     3988    3995    3990
	3     3817    3818    3639
	3      817    4435     816
	3     4091    2414    4095
	3     2139    2358    2313
	3     2314    2359    2140
	3     2156    2157    4138
	3     3862    3865    3863
	3     3895    5702    3902
	3      515    2247     514
	3      607    2248     606
	3      559    2245     558
	3      467    2249     466
	3      651    2246     650
	3     4213    5632    4209
	3     3417    3418    3416
	3     2590    2594    2588
	3     2545    2551    2547
	3     3674    5800    3671
	3     3850    5637    3935
	3     4149    4158    4157
	3     3996    4172    3998
	3     5615    5762    4227
	3     4753    4754    1570
	3     1384    1335    1383
	3     1339    1341    1340
	3     3858    3859    3857
	3     2814    2816    2815
	3     2805    2806    2804
	3     3931    5661    3893
	3     4123    5691    4124
	3     4008    4180    4010
	3     4098    5638    4100
	3     3285    3286    3284
	3     3153    3154    3152
	3     5761    5870    1912
	3     3933    5663    3684
	3     4363    4729    1497
	3     3663    5681    3662
	3     2489    2772    2771
	3     2775    2776    2480
	3     4206    5632    4216
	3     3923    3963    3925
	3     3873    5748    5635
	3     3531    5811    4710
	3     4000    4003    4002
	3     3809    5654    3807
	3     3662    4458    4457
	3     2654    3063    2653
	3     2656    3061    2657
	3     4393    4394    1527
	3     3672    5895    3673
	3     4216    5631    4204
	3     3668    3805    3666
	3     2828    2829    2663
	3     3982    3985    3983
	3      818    1414     817
	3      785    2141     784
	3     2939    2942    2940
	3     5728    5730    5729
	3     5724    5725    5723
	3     4165    5687    2168
	3     1223    4615    1222
	3     1157    4614    1156
	3     4601    4602    1472
	3     2869    2871    2868
	3     3094    6157    4903
	3     3641    3643    3642
	3     2195    2647    2408
	3     2409    2644    2196
	3     4149    4157    4123
	3     4120    1811    5865
	3     4059    5643    4061
	3     3878    5659    3815
	3     3813    5657    3811
	3     5631    5855    5542
	3     4065    5641    4067
	3     3048    3051    3050
	3     3026    3027    3024
	3     3985    3987    3986
	3     1785    1786    1784
	3     1776    1778    1777
	3     2501    2669    2266
	3     2265    2668    2500
	3     2642    5879    2217
	3     2218    5880    2643
	3     4028    5627    4046
	3      784    4426     783
	3     2514    5467    2516
	3     2146    4225    1373
	3     4680    4683    4682
	3     1357    4532    1349
	3       27    2256     819
	3     4158    1349    4157
	3     4216    5855    5631
	3       37    2203    1189
	3     1190    2204      38
	3     1192    2106    1191
	3     1188    2107    1187
	3     1821    1823    1822
	3     1830    1831    1829
	3     3961    3962    3647
	3     3980    5777    3978
	3     4071    5656    4073
	3     5587    5639    5611
	3     5560    5561    2393
	3     2157    5672    2159
	3     5069    5665    5067
	3     4108    5693    4112
	3     2937    2939    2938
	3     2867    2868    2866
	3     4404    4406    1473
	3     3132    3135    3134
	3     3396    3399    3398
	3     3264    3267    3266
	3     2479    2775    2480
	3     2489    2771    2488
	3     2793    5531    2317
	3     4018    5669    4020
	3     1758    1799    1759
	3     1762    1760    1761
	3     4055    5627    4026
	3     5933    6008    4229
	3     4246    5904    2153
	3     2317    5531    1381
	3     1864    1865    1863
	3     1849    1851    1850
	3     1974    1976    1973
	3     2017    2020    2018
	3     3714    5675    3777
	3     1517    1652    1648
	3     1689    1690    1687
	3     5686    5690    1350
	3     4161    4167    4162
	3     3876    3968    3919
	3     2012    2017    2016
	3     1972    1973    1968
	3     4043    5655    4054
	3     1349    5685    1350
	3     1825    1827    1826
	3     1834    1835    1833
	3     4135    5641    4065
	3     3854    5640    5574
	3     3979    3981    3980
	3     3870    5754    5753
	3     1845    1847    1846
	3     1860    1861    1859
	3     1156    2281    1155
	3     1224    2280    1223
	3     2377    5705    2376
	3     2393    5706    2394
	3     2948    2952    2951
	3     2162    5856    4550
	3     2830    2831    2829
	3     2390    5560    2393
	3     4095    2414    4117
	3     1192    4456    2106
	3     3860    3861    3859
	3     2479    2777    2775
	3     2771    2773    2488
	3     4024    5642    4055
	3     5067    5667    5065
	3     1186    4416    1557
	3     2880    2881    2877
	3     4027    5934    4025
	3     1350    5691    4157
	3     1158    4425    1891
	3     3873    5635    3776
	3     3995    5620    3996
	3     1878    1879    1877
	3     1873    1875    1874
	3     5595    5666    5593
	3     3662    4457    3660
	3     3807    5654    3965
	3     1189    4442    1188
	3     2541    2555    2543
	3     2586    2598    2584
	3     2772    4995    2771
	3     2775    4994    2776
	3     3204    3206    3205
	3     3336    3338    3337
	3     4673    3492    4662
	3     2576    4977    2575
	3     2618    4981    2619
	3     4138    5656    4071
	3     4134    5643    4059
	3     3922    5630    3923
	3     4877    5015    4876
	3     4861    5097    4860
	3     4859    5098    4858
	3     3981    3984    3982
	3     4100    5638    4103
	3     4003    4005    4004
	3     3652    3905    3650
	3     3645    3647    3643
	3     3443    3445    3444
	3     2389    5562    5560
	3     2901    2903    2902
	3     5563    5565    2372
	3     3953    5092    4565
	3     4005    4242    4006
	3     1707    1761    1706
	3     1668    1758    1669
	3     2602    2603    2597
	3     2554    2560    2559
	3     3658    3888    3656
	3     3641    3642    3637
	3     3867    3870    3865
	3     4167    4221    4168
	3     4392    4393    1527
	3     4498    5651    5650
	3     4161    1355    4167
	3     5063    5676    5061
	3     5061    5676    5557
	3     2435    2437    2436
	3     3985    3994    3987
	3     3863    3922    3864
	3     4014    5679    4016
	3     5661    5702    3895
	3     2360    2462    2290
	3     2292    2463    2362
	3     4003    4245    4005
	3     4130    5642    4022
	3     4193    5757    4196
	3     5510    5873    3846
	3     3638    3876    3817
	3     1787    1788    1786
	3     1778    1780    1779
	3     3979    3980    3978
	3     4067    5641    4070
	3     2212    2322    2220
	3     2225    2321    2214
	3     3992    3993    3984
	3     4061    5643    4064
	3     3423    3424    3418
	3     1661    1668    1664
	3     1702    1706    1699
	3     3970    5654    3809
	3     3805    5681    3666
	3     5959    6054    1357
	3     3159    3160    3154
	3     3291    3292    3286
	3     2028    2623    2622
	3     2632    2633    1984
	3     2382    2420    2380
	3     2397    2422    2399
	3     2024    2025    2021
	3     1977    1981    1980
	3     3179    3181    3180
	3     3311    3313    3312
	3     2579    5633    2011
	3     2610    2656    2655
	3     2652    2653    2567
	3     3862    3863    3861
	3     3635    3638    3634
	3     3337    6044    3335
	3     3205    6045    3203
	3     1226    2419    1225
	3     1154    2418    1153
	3     4520    5657    3813
	3     4124    5691    4136
	3     3815    5659    4520
	3     3811    5657    3970
	3     1730    1736    1735
	3     1731    1732    1407
	3     3806    5680    3788
	3     4613    5659    3878
	3     2402    2697    2404
	3     2387    2696    2385
	3     4103    5638    4150
	3     4247    5674    4177
	3     1533    6117    3775
	3     3995    5622    5620
	3     2654    3064    3063
	3     3061    3062    2657
	3     3788    5680    3787
	3     3333    3336    3335
	3     3201    3204    3203
	3     4073    5656    4122
	3       38    4436    1226
	3     4414    4415    1571
	3     4180    5684    5683
	3     4177    5674    4176
	3     2923    2925    2924
	3     2899    2901    2900
	3      420    2101     419
	3      700    2100     699
	3     4135    5843    5641
	3     1680    1682    1681
	3     1642    1643    1641
	3     1689    1691    1690
	3     1652    1653    1648
	3     3453    3454    3451
	3     4412    4753    1570
	3     3440    3443    3442
	3     3206    3208    3207
	3     3338    3340    3339
	3     2437    2439    2438
	3     2262    5760    2493
	3     2111    5711    2182
	3     3818    4462    3956
	3     2168    5687    5486
	3     5593    5666    5599
	3     2942    2944    2943
	3     3137    3139    3138
	3     3401    3403    3402
	3     3269    3271    3270
	3      469    5794     468
	3     4753    5099    4754
	3     2117    5713    2190
	3     3643    5653    3642
	3     2115    5712    2186
	3     2113    5714    2178
	3     4179    5677    4170
	3     3638    3817    3639
	3     3933    5864    5526
	3     4010    5682    4012
	3     3994    1361    3987
	3     3961    4557    3962
	3     2853    2854    2852
	3     5075    5665    5069
	3     3648    3961    3647
	3     1866    1867    1865
	3     1851    1853    1852
	3     1683    5484    1698
	3     5748    5800    3674
	3     3671    5800    3670
	3     5065    5667    5071
	3     2582    5698    2610
	3     2567    5699    2539
	3     3981    3982    3980
	3     5667    5668    5071
	3     2027    2236    2025
	3     1981    2235    1983
	3     4020    5669    4130
	3     4134    5856    5643
	3     2397    5706    2422
	3     2420    5705    2380
	3     1656    1661    1659
	3     1697    1699    1694
	3     3923    5630    3963
	3     3925    5694    3937
	3     2462    5735    5734
	3     5737    5738    2463
	3     4112    5693    4149
	3     3700    6088    5480
	3     2538    2652    2567
	3     2610    2655    2581
	3     4064    5643    2160
	3     5071    5676    5063
	3     3996    5620    4172
	3     3662    5681    4458
	3     1356    5672    2157
	3     2872    2873    2871
	3     5677    5678    2165
	3     4070    5641    2156
	3     1653    5664    1648
	3     4176    5674    4233
	3      651    5645    2246
	3      467    5644    2249
	3     2995    6192    2994
	3     2987    6193    2988
	3     3968    4768    3919
	3     1966    1967    1965
	3     2009    2011    2010
	3     3953    4565    3869
	3     4654    4655    4651
	3     3875    5748    3873
	3     3342    3344    3343
	3     3210    3212    3211
	3     2441    2442    2444
	3     5729    5732    5731
	3     5726    5727    5724
	3     4056    6140    6018
	3     2921    2923    2922
	3     2261    5761    1912
	3     2181    5905    2343
	3     2321    5726    5724
	3     5729    5731    2322
	3     1728    1407    1667
	3     1705    1730    1729
	3     1894    1895    1879
	3     1875    1899    1898
	3     3918    5790    5450
	3      818    4427    1414
	3     2262    2493    2492
	3     2490    2491    2261
	3     1356    5673    5672
	3     1687    5892    1685
	3     1646    5893    1517
	3     4157    5691    4123
	3     2851    2852    2850
	3     4044    5762    5615
	3     3958    5790    3918
	3     4143    5669    4018
	3     3876    3919    3817
	3     3787    5680    3874
	3     5365    5790    3958
	3     4170    5677    2165
	3     4115    5833    4096
	3     4842    4844    4843
	3     4847    4848    4846
	3     2004    2006    2005
	3     1961    1962    1960
	3     4134    6018    5575
	3     4115    5917    5833
	3     2954    2956    2955
	3     3399    3401    3400
	3     3267    3269    3268
	3     3135    3137    3136
	3      451    1451     450
	3      669    1450     668
	3     3271    5947    3273
	3     3139    5949    3141
	3     3403    5951    3405
	3     4006    5697    4008
	3     2020    2021    2018
	3     1974    1977    1976
	3     2270    5830    1907
	3     1908    5831    2269
	3     3983    5777    3980
	3     1887    1337    1336
	3     1381    1382    1885
	3     5665    5667    5067
	3     5620    5621    4172
	3     2343    2738    2737
	3     2347    2750    2749
	3     2349    2746    2745
	3     2345    2742    2741
	3     3276    3283    3282
	3     3144    3151    3150
	3     3408    3415    3414
	3     4050    5801    4142
	3     3670    5709    3668
	3     1381    5531    1382
	3     3536    3537    3508
	3     3253    3254    3226
	3     3385    3386    3358
	3      398    5113     397
	3     3208    3210    3209
	3     3340    3342    3341
	3     2439    2441    2440
	3     1685    5892    5484
	3     3870    4517    5754
	3     2486    2531    2484
	3     2475    2530    2477
	3     2106    4459    1191
	3     2139    6010    2358
	3     2359    6011    2140
	3     4908    4929    4907
	3     4945    4967    4946
	3     1991    1994    1993
	3     1949    1950    1947
	3     3987    5758    3988
	3     4016    5679    4143
	3     3988    5758    3995
	3     2714    2715    2311
	3     2312    2717    2716
	3     3271    3273    3272
	3     3139    3141    3140
	3     3403    3405    3404
	3     4813    6553    2105
	3     4166    5679    4014
	3     2652    2654    2653
	3     2656    2657    2655
	3     4532    5685    1349
	3     2634    2635    2633
	3     2623    2625    2624
	3     5638    5833    4231
	3      558    5648     557
	3      608    5798     607
	3      516    5797     515
	3      650    5799     649
	3     4942    4945    4944
	3     4906    4907    4904
	3      421    5689     420
	3      699    5688     698
	3     4461    4885    2280
	3     2021    2233    2018
	3     1974    2234    1977
	3     1964    1965    1962
	3     2006    2009    2008
	3     4847    1548    4849
	3     4845    1563    4843
	3     1828    5834    2174
	3     4054    6231    6205
	3     2131    5728    2212
	3     2214    5723    2133
	3     2351    5617    2194
	3     5643    5856    2160
	3     4516    5800    5748
	3     2491    5761    2261
	3      672    1319     671
	3      448    1309     447
	3     2218    2643    2457
	3     2456    2642    2217
	3     4678    4680    4679
	3     3998    5707    4000
	3     4120    5865    4104
	3     2290    5733    2227
	3     2222    5736    2292
	3     5517    5791    5636
	3     2376    5705    5564
	3      422    1328       8
	3       20    1326     697
	3     2983    3113    2681
	3     2679    3114    2980
	3       37    4632    2203
	3     1701    1705    1704
	3     1666    1667    1663
	3     2328    6057    6056
	3     2956    2958    2957
	3     2886    6405    4878
	3     2472    6147    3002
	3     3003    6148    2481
	3     2952    2954    2953
	3      696    2119     695
	3      424    2118     423
	3     3647    5653    3643
	3     3654    5721    3652
	3     2164    1811    4151
	3     4242    5697    4006
	3     4136    5876    4137
	3     5641    5843    2156
	3     4012    5682    4166
	3     1696    1701    1700
	3     1662    1663    1658
	3     1224    4460    2280
	3      426    1331     425
	3      694    1390     693
	3     1691    1693    1692
	3     1654    1655    1653
	3     5561    5706    2393
	3     5020    5877    5019
	3     5017    5878    5018
	3     3995    5758    5622
	3     2787    5846    2772
	3     3112    5617    2351
	3     2776    5847    2788
	3     5542    5855    5502
	3     2874    2876    2873
	3     1693    1696    1695
	3     1657    1658    1655
	3      428    1916     427
	3      692    1914     691
	3     3963    5694    3925
	3     1967    5634    2536
	3     3650    5720    3648
	3     2884    2886    2883
	3     2265    6035    2668
	3     2669    6034    2266
	3     1800    1887    1886
	3     1884    1885    1411
	3     4168    5715    2146
	3     2639    2683    2636
	3     2626    2682    2629
	3     2017    2018    2016
	3     1972    1974    1973
	3      430    1334     429
	3      690    1418     689
	3     3656    5739    3654
	3     2442    3496    2443
	3     1154    4448    2418
	3     3212    3214    3213
	3     3344    3346    3345
	3     3870    5753    5752
	3     4098    5833    5638
	3     3817    5821    3818
	3     4021    6026    4019
	3     2944    2947    2945
	3     5082    5091    2790
	3     2789    5090    5084
	3     4180    5682    4010
	3      431    5745     430
	3      689    5746     688
	3     5709    5710    3805
	3     3852    7316    4580
	3     3962    5653    3647
	3     4096    5833    4098
	3      432    1919     431
	3      688    1915     687
	3     2882    2883    2881
	3      673    5718     672
	3      447    5719     446
	3      454    1524     453
	3      666    1525     665
	3     3686    5864    3933
	3     2988    2989    2986
	3     2993    2996    2995
	3     2849    2850    2848
	3     3700    5864    3688
	3     3499    3504    3501
	3     1656    5664    5474
	3     3349    3354    3351
	3     3217    3222    3219
	3      433    5747     432
	3      687    5750     686
	3     4221    5715    4168
	3     1953    1954    1952
	3     1996    1998    1997
	3     1973    5634    1968
	3     3668    5709    3805
	3      468    5794    5644
	3     3043    3044    3042
	3     3018    3020    3019
	3      434    1391     433
	3      686    1432     685
	3     3045    3046    3044
	3     3020    3022    3021
	3     4655    5955    4658
	3      299    5954    1481
	3     1480    5953      78
	3     1434    5956      86
	3      291    5957    1433
	3      435    5759     434
	3      685    5749     684
	3     3352    3369    3360
	3     3220    3237    3228
	3     4518    5974    4516
	3     3502    3518    3510
	3     3660    5755    3658
	3     2811    2812    2810
	3     2820    2822    2821
	3     4008    5697    4180
	3     2284    4449    2418
	3     1955    1956    1954
	3     1998    2000    1999
	3      436    2136     435
	3      684    2138     683
	3     5649    5848    3763
	3     2788    5137    5135
	3     3865    5752    3863
	3     1957    1958    1956
	3     2000    2002    2001
	3     2452    5741    2387
	3     2404    5743    2453
	3        8    1314     421
	3      698    1313      20
	3     2604    2605    2603
	3     2111    2182    2181
	3     2117    2190    2189
	3     2115    2186    2185
	3     2113    2178    2177
	3     2560    2562    2561
	3     1691    5820    1693
	3     4106    5865    5693
	3     3463    2433    2432
	3      446    5778     445
	3      674    5779     673
	3     2041    5954     298
	3       79    5953    2040
	3      438    1447     437
	3      682    1446     681
	3     3700    6014    5864
	3     3774    5854    3746
	3     4180    5683    5682
	3     4172    5707    3998
	3     3898    5894    3900
	3     4817    5918    2163
	3     3273    3278    3274
	3     3141    3146    3142
	3     3405    3410    3406
	3     2779    5040    5038
	3     4232    5917    4145
	3     3870    5752    3865
	3     2433    2435    2434
	3     2011    2012    2010
	3     1966    1968    1967
	3     3648    5720    3961
	3     5636    5791    3892
	3      549    1589     548
	3      595    1586     594
	3      525    1591     524
	3      571    1590     570
	3      617    1592     616
	3      503    1587     502
	3      641    1588     640
	3      479    1585     478
	3     2958    4504    4503
	3     6008    6067    4229
	3     4941    6165    3100
	3     2908    2909    2907
	3     2919    2921    2920
	3     3177    3179    3178
	3     3309    3311    3310
	3     3411    3432    3422
	3     3147    3168    3158
	3     3279    3300    3290
	3      297    6063    2041
	3     2040    6065      80
	3     3993    5740    3984
	3     4000    5707    4003
	3     5865    1811    4230
	3     4502    5868    5680
	3     5157    5897    5569
	3     2220    5763    2222
	3     2227    5764    2225
	3      679    1459     678
	3      441    1458     440
	3     1484    6064     295
	3       82    6066    1483
	3     3637    1512    3635
	3     3984    5740    3982
	3     2551    2568    2552
	3     2595    2611    2594
	3     4725    7064    6977
	3     3846    5873    5623
	3     5690    5876    4136
	3      548    5772     547
	3      594    5773     593
	3      502    5771     501
	3     2008    2031    2005
	3     1961    1987    1964
	3     2803    6219    5670
	3     5671    6220    2813
	3     6043    6115    2709
	3     2706    6116    6042
	3     2606    2607    2605
	3      445    1453       9
	3       19    1452     674
	3     2372    5766    2360
	3     2362    5765    2389
	3     2627    5840    4847
	3     4843    5842    2637
	3     2631    2805    2804
	3     2814    2815    2641
	3     3892    5791    3931
	3     2102    6136    6024
	3     6025    6137    2103
	3     2385    5767    2382
	3     2399    5769    2402
	3     3099    5881    3096
	3     3090    5882    3093
	3      574    1513     573
	3      531    1566     530
	3      500    1508     499
	3      485    1569     484
	3      546    1506     545
	3      592    1507     591
	3      482    1511     481
	3      620    1514     619
	3      543    1561     542
	3      497    1562     496
	3      589    1565     588
	3      635    1564     634
	3      638    1509     637
	3      528    1515     527
	3      577    1567     576
	3      623    1568     622
	3     3304    3307    3306
	3     3172    3175    3174
	3     2562    2564    2563
	3     2389    5765    5562
	3     4180    5697    5684
	3     2843    2844    2841
	3     2011    5633    2012
	3     2608    2662    2607
	3     1776    1777    1764
	3     1766    1785    1784
	3     1468    5965     303
	3       74    5966    1467
	3     5693    5865    4230
	3     2012    5633    2017
	3     1660    5485    1644
	3     2012    2015    2010
	3     1966    1971    1968
	3     3982    5740    3985
	3     2564    2664    2565
	3     1945    2252    1452
	3     1453    2253    1989
	3     2321    5723    2214
	3     2212    5728    2322
	3     3676    6185    5520
	3     3507    3513    3512
	3     2462    5733    2290
	3     2292    5736    2463
	3     2004    2005    2002
	3     1958    1961    1960
	3     3225    3231    3230
	3     3357    3363    3362
	3     2106    4838    4459
	3      444    1393     443
	3      676    1466     675
	3      456    1917     455
	3      664    1918     663
	3      570    5774     569
	3      478    5776     477
	3     4954    5380    4955
	3     4104    5865    4106
	3     2911    2914    2913
	3     2146    5715    4225
	3     2822    5001    4587
	3     4585    5004    2812
	3     3869    4517    3867
	3       87    5956    2038
	3     2039    5957     290
	3     2016    2028    2015
	3     1971    1984    1972
	3     1821    1822    1782
	3     1790    1830    1829
	3     3688    5864    3686
	3     3985    5740    3994
	3     2516    5467    2781
	3     6060    6061    2048
	3     2623    2627    2625
	3     2635    2637    2633
	3     4090    5933    5556
	3     1951    1952    1950
	3     1994    1996    1995
	3     3652    5721    3905
	3     2133    5780    2027
	3     1983    5781    2131
	3     3691    6103    5509
	3     1361    5758    3987
	3      642    5806     641
	3      524    5775     523
	3      616    5808     615
	3     3936    6074    3924
	3     3863    5752    3922
	3     3905    5720    3650
	3      532    5784     531
	3      578    5786     577
	3      624    5782     623
	3      542    5788     541
	3      496    5804     495
	3      588    1520     587
	3      634    5805     633
	3     2156    5843    2158
	3     2321    5764    5726
	3     5731    5763    2322
	3     3294    3303    3302
	3     3162    3171    3170
	3     2586    5931    2598
	3     2555    5930    2543
	3      304    5965    1342
	3     1343    5966      73
	3     2161    5843    4135
	3     5728    5781    5730
	3     5725    5780    5723
	3     5680    5868    3874
	3     3888    5739    3656
	3     2462    5766    5735
	3     5738    5765    2463
	3     2636    5866    2635
	3     2625    5867    2626
	3     1365    6067    1367
	3     2462    5734    5733
	3     5736    5737    2463
	3     1971    1972    1968
	3     2012    2016    2015
	3     1831    1834    1833
	3     1825    1826    1823
	3     3523    3526    3525
	3     2006    2008    2005
	3     1961    1964    1962
	3     2627    4846    2823
	3     2824    4842    2637
	3     4457    5755    3660
	3     3240    3243    3242
	3     3372    3375    3374
	3     3496    3498    3497
	3     2009    2010    2008
	3     1964    1966    1965
	3     3919    5821    3817
	3      569    1921     568
	3      597    1922     596
	3      477    1925     476
	3      505    1941     504
	3     3346    3348    3347
	3     3214    3216    3215
	3     2670    2729    2364
	3     2365    2731    2671
	3     4003    5707    4245
	3     3273    5947    3279
	3     3141    5949    3147
	3     3405    5951    3411
	3     1833    5751    1832
	3      562    1556     561
	3      470    1398     469
	3      512    1553     511
	3      604    1554     603
	3      654    1555     653
	3     1835    1860    1859
	3     1845    1846    1827
	3     3658    5755    3888
	3     1861    1864    1863
	3     1849    1850    1847
	3     1986    5845    5634
	3     3014    3016    3015
	3     3039    3040    3038
	3     2990    4380    2989
	3     2996    4381    2997
	3     2731    3095    2732
	3     2730    3089    2729
	3     1871    1878    1877
	3     1873    1874    1857
	3     3818    5821    4462
	3     5721    5722    3905
	3     5997    6072    4179
	3     4958    4960    4959
	3     4921    4922    4920
	3     5565    5766    2372
	3      609    1746     608
	3      517    1745     516
	3      649    1743     648
	3      557    1744     556
	3      465    1742     464
	3     2322    5763    2220
	3     2225    5764    2321
	3     3090    3091    3089
	3     3095    3097    3096
	3     3871    5860    5619
	3       72    5979    1343
	3     1342    5980     305
	3     3426    3435    3434
	3     3638    1512    3876
	3     2321    5724    5723
	3     5728    5729    2322
	3     3307    3309    3308
	3     3175    3177    3176
	3     1688    1697    1694
	3     1656    1659    1647
	3     2360    5766    2462
	3     2463    5765    2362
	3     2847    2848    2846
	3     1968    5634    1967
	3     2788    5847    5137
	3     2314    2365    2359
	3     2358    2364    2313
	3     2772    5846    4995
	3     4509    6147    2474
	3     2483    6148    4510
	3     5755    5756    3888
	3     2635    2824    2637
	3     2627    2823    2625
	3     5767    5768    2420
	3     2422    5770    5769
	3     4994    5847    2776
	3      306    5980    1454
	3     1430    5979      71
	3      471    5809     470
	3     3642    1512    3637
	3     5741    5742    2696
	3     2697    5744    5743
	3      541    1928     540
	3      587    1930     586
	3      495    1929     494
	3      633    1927     632
	3     2986    5624    2985
	3     2387    5741    2696
	3     2697    5743    2404
	3     2160    5856    2162
	3     4087    5933    4090
	3     1336    5532    2318
	3     5937    5938    5725
	3     5730    5943    5942
	3     2681    5824    2452
	3     2453    5825    2679
	3      476    5823     475
	3      598    5792     597
	3      568    5822     567
	3      506    5793     505
	3     2382    5767    2420
	3     2422    5769    2399
	3     2645    2992    2646
	3     2649    2985    2648
	3     1677    2137    1675
	3     1636    6089    1638
	3     4118    7064    4725
	3      615    1920     614
	3      551    1926     550
	3      643    1923     642
	3      523    1924     522
	3     2402    5769    2697
	3     2696    5767    2385
	3     4650    4651    4649
	3     2038    5982      88
	3      289    5981    2039
	3     3687    6122    3691
	3      656    1943     655
	3      539    5817     538
	3      585    5818     584
	3      493    5819     492
	3     1944    2661    1946
	3     1990    2660    1988
	3     5619    5860    3872
	3     3092    4880    3091
	3     3097    4881    3098
	3     3867    4517    3870
	3      702    1421     701
	3      418    1422     417
	3     1855    2172    1853
	3     1867    1346    1869
	3      510    1932     509
	3      602    1931     601
	3      564    1935     563
	3      472    1933     471
	3      488    1792     487
	3      580    1794     579
	3      534    1795     533
	3      626    1793     625
	3     5795    5796    4242
	3     3874    5868    4514
	3      552    5807     551
	3     3711    6133    6129
	3     5833    5917    4231
	3      661    1619     660
	3      459    1620     458
	3     4245    5795    4005
	3     5623    5873    3871
	3     2236    5813    5812
	3     5814    5815    2235
	3     5626    5848    3859
	3     1355    5802    4167
	3     2027    5780    2236
	3     2235    5781    1983
	3      415    1490     414
	3      705    1489     704
	3     3932    5887    5157
	3      538    1754     537
	3      584    1755     583
	3      492    1753     491
	3      630    1752     629
	3     2647    2648    2408
	3     2409    2645    2644
	3     2763    2764    2762
	3     2757    2759    2758
	3     2164    6054    5959
	3     3654    5739    5721
	3     2916    2919    2917
	3     5802    5803    4221
	3     2504    5849    2083
	3     3056    3060    3059
	3     3035    3036    3032
	3      553    5829     552
	3      599    1767     598
	3      475    1770     474
	3      507    1768     506
	3      567    1769     566
	3     2192    5616    2353
	3     3635    1512    3638
	3     5733    5764    2227
	3     2222    5763    5736
	3     3319    3325    3324
	3     3187    3193    3192
	3     4460    4461    2280
	3     5478    6113    3934
	3     5633    5844    2030
	3      489    5810     488
	3      490    5826     489
	3       13    1719     536
	3       15    1716     582
	3       11    1717     490
	3       17    1718     628
	3     2914    2916    2915
	3     2193    2267    2202
	3     2201    2268    2191
	3     3415    3417    3416
	3      658    1798     657
	3     2088    2089    2023
	3     1979    2095    2094
	3     1897    2108    2085
	3     2083    2109    1650
	3      612    1724     611
	3      520    1723     519
	3      462    1721     461
	3      646    1722     645
	3      554    1720     553
	3     4697    4700    4699
	3     2668    3107    2500
	3     2501    3109    2669
	3     2759    4535    2760
	3     2765    4536    2764
	3     1970    1979    1978
	3     2022    2023    2014
	3     2131    5781    5728
	3     5723    5780    2133
	3     3283    3285    3284
	3     3151    3153    3152
	3     4948    6029    4951
	3     4913    6030    4910
	3     1957    5703    1958
	3     2002    5704    2001
	3     3805    5888    5681
	3     3110    6168    2669
	3     2668    6167    3108
	3     3871    5873    5860
	3     4005    5795    4242
	3     2488    5816    2486
	3     2267    2341    2340
	3     2338    2339    2268
	3     3673    5895    3676
	3     4161    5876    1355
	3     4152    5997    4179
	3     2646    6127    2644
	3     2647    6128    2649
	3     3300    3388    3290
	3     3168    3256    3158
	3     3432    3541    3422
	3     2805    4479    2806
	3     2816    4478    2815
	3     2581    5844    2579
	3     2536    5845    2538
	3       64    5987    2044
	3     2043    5986     313
	3     2085    1940    2505
	3     4057    6018    4134
	3     4171    6142    3489
	3     4167    5802    4221
	3     2246    5799     650
	3      607    5798    2248
	3     2245    5648     558
	3      515    5797    2247
	3     1435    5987      63
	3      314    5986    1436
	3     2992    5625    2993
	3     2685    2687    2686
	3     2692    2693    2691
	3     1948    1970    1969
	3     2013    2014    1992
	3     2736    2739    2342
	3     2744    2747    2348
	3     2748    2751    2346
	3     2740    2743    2344
	3     1436    5988     315
	3       62    5989    1435
	3     4565    4517    3869
	3      316    5988    2122
	3     2123    5989      61
	3     2125    5994      57
	3      320    5993    2124
	3     1318    5981     288
	3       89    5982    1315
	3     1785    1787    1786
	3     1778    1779    1777
	3     3437    3439    3438
	3     4137    5876    4161
	3     2122    5996     317
	3       60    5995    2123
	3     3857    5848    5649
	3     4158    5959    1357
	3     3935    5894    3898
	3     2025    5812    2021
	3     1977    5814    1981
	3     2417    6115    6043
	3     6042    6116    2416
	3     3682    6160    3694
	3     2989    5624    2986
	3     4448    2284    2418
	3     6104    6126    3478
	3       58    5994    1428
	3     1427    5993     319
	3     6129    6133    3934
	3      318    5996    1427
	3     1428    5995      59
	3     5848    6074    3763
	3     2153    5904    4239
	3     2187    2188    2116
	3     2175    2176    2112
	3     2179    2180    2110
	3     2183    2184    2114
	3     3197    3200    3198
	3     3329    3332    3330
	3     6024    6136    2666
	3     2667    6137    6025
	3     1787    1912    1788
	3     1780    1911    1779
	3     2236    5812    2025
	3     1981    5814    2235
	3     1680    1681    1679
	3     1640    1642    1641
	3     3075    3076    2741
	3     3071    3072    2749
	3     3073    3074    2745
	3     3077    3078    2737
	3     3290    3391    3289
	3     3158    3259    3157
	3     3422    3545    3421
	3     3228    3234    3233
	3     3360    3366    3365
	3     3510    3517    3516
	3     3454    3458    3456
	3     1736    1804    1735
	3     1731    1803    1732
	3     5520    6177    3713
	3     3375    3377    3376
	3     3243    3245    3244
	3     3526    3528    3527
	3     2493    3069    2492
	3     2490    3067    2491
	3     3504    3508    3505
	3     2835    2837    2836
	3     3222    3226    3223
	3     3354    3358    3355
	3     4663    4673    4662
	3     5485    5893    1646
	3     5681    5888    4458
	3     4111    6104    3478
	3     1728    1731    1407
	3     1730    1735    1729
	3     1830    5695    1831
	3     1823    5696    1822
	3     2805    4629    4479
	3     4478    4628    2815
	3     2820    2821    2818
	3     2808    2811    2810
	3     4111    6008    4083
	3     3449    3453    3451
	3     4496    5835    2983
	3     2980    5837    4497
	3     1955    1957    1956
	3     2000    2001    1999
	3     1953    1955    1954
	3     1998    1999    1997
	3     1864    1866    1865
	3     1851    1852    1850
	3     1958    5703    1961
	3     2005    5704    2002
	3     2021    5812    2233
	3     2234    5814    1977
	3     5445    6015    2523
	3     5768    5907    5906
	3     5902    5903    5770
	3     4172    5969    5707
	3     5569    5897    5637
	3     3377    4859    4858
	3     3245    4861    4860
	3     2936    2937    2935
	3     3528    4877    4876
	3     2864    2866    2865
	3     5637    5897    3935
	3     5465    5925    3672
	3     3859    5848    3857
	3     2161    5918    5843
	3     5864    6014    5526
	3     3513    3522    3514
	3     1306    6007      50
	3      327    6006    1307
	3     5727    5937    5724
	3     5729    5942    5732
	3     3231    3239    3232
	3     3363    3371    3364
	3     1767    6643    4883
	3     1768    6644    4884
	3      675    5890      19
	3        9    5889     444
	3     4683    4684    4682
	3     1834    5700    1835
	3     1827    5701    1826
	3     3279    3289    3278
	3     3147    3157    3146
	3     3411    3421    3410
	3     3435    3437    3436
	3     1519    6096    6095
	3     2452    5824    5741
	3     5743    5825    2453
	3     3113    5824    2681
	3     2679    5825    3114
	3       51    6007    2046
	3     2045    6006     326
	3     2683    5866    2636
	3     2626    5867    2682
	3     4151    1811    4120
	3      707    1937     706
	3      413    1939     412
	3     2773    5816    2488
	3     1691    1692    1690
	3     1652    1654    1653
	3     5843    5918    2158
	3     2714    4792    2715
	3     2717    4795    2716
	3     5501    6108    4033
	3     2655    5844    2581
	3     2538    5845    2652
	3     5102    6033    2170
	3     1875    1898    1874
	3     1878    1894    1879
	3     2845    2846    2844
	3     2335    2357    2356
	3     2354    2355    2333
	3      420    5689    2101
	3     2100    5688     699
	3     1996    1997    1995
	3     1951    1953    1952
	3     2746    3073    2745
	3     2750    3071    2749
	3     2742    3075    2741
	3     2738    3077    2737
	3     5710    5888    3805
	3     2618    5034    4981
	3     4977    5033    2575
	3     3411    3422    3421
	3     3279    3290    3289
	3     3147    3158    3157
	3     4217    6023    4228
	3     1692    2250    1690
	3     1652    2251    1654
	3     5800    5974    3670
	3     2579    5844    5633
	3     1953    1975    1955
	3     1999    2019    1997
	3     5632    5910    4216
	3     1894    2217    1895
	3     1899    2218    1898
	3     1045    5923    1044
	3     1666    1728    1667
	3     1705    1729    1704
	3     1647    5832    1516
	3     3458    3462    3459
	3     2551    2755    2568
	3     2611    2754    2594
	3     2456    2825    2642
	3     2643    2826    2457
	3     2937    2941    2939
	3     2868    2870    2866
	3     3195    3197    3196
	3     3327    3329    3328
	3      287    6028    1318
	3     1315    6027      90
	3     1701    1704    1700
	3     1662    1666    1663
	3     3273    3279    3278
	3     3141    3147    3146
	3     3405    3411    3410
	3     3410    1936    3406
	3     3146    1938    3142
	3     3278    1934    3274
	3     1657    1662    1658
	3     1696    1700    1695
	3     2482    1552    5443
	3     1654    1657    1655
	3     1693    1695    1692
	3     4967    6029    4946
	3     4908    6030    4929
	3     4033    5934    4027
	3     4587    4588    2821
	3     2811    4586    4585
	3     2571    6068    2570
	3     1690    5892    1687
	3     1517    5893    1652
	3     2763    4603    2765
	3     2760    4604    2758
	3     1799    1411    1759
	3     1762    1800    1760
	3     5707    5969    4245
	3     2018    5839    2016
	3     1972    5841    1974
	3     3325    3327    3326
	3     3193    3195    3194
	3     2613    1437    2614
	3     4085    5933    4087
	3     1911    2140    1779
	3     1787    2139    1912
	3     2195    5909    2647
	3     2644    5908    2196
	3     6143    6152    5440
	3     3069    3070    2492
	3     2490    3068    3067
	3     2983    5835    3113
	3     3114    5837    2980
	3     2993    5625    2996
	3     3093    6157    3094
	3     2633    5842    1984
	3     2028    5840    2623
	3     2635    5866    2824
	3     2823    5867    2625
	3     2629    1942    2631
	3     2641    5850    2639
	3     4145    5917    4115
	3     3406    1936    3408
	3     3142    1938    3144
	3     3274    1934    3276
	3     2201    2658    2338
	3     2340    2659    2202
	3     4923    4931    4922
	3     4960    4969    4961
	3     1866    5921    1867
	3     1853    5922    1852
	3     5634    5845    2536
	3     4661    4662    4660
	3     5876    6040    1355
	3     2155    5910    5632
	3     2233    5839    2018
	3     1974    5841    2234
	3     2031    5704    2005
	3     1961    5703    1987
	3     2486    5816    2531
	3     2016    5839    2028
	3     1984    5841    1972
	3     2757    2758    2341
	3     2339    2763    2762
	3     3360    3365    3359
	3     3228    3233    3227
	3     2729    4524    2364
	3     2365    4525    2731
	3     2163    5918    2161
	3     3510    3516    3509
	3     2235    5984    5781
	3     5780    5985    2236
	3     1728    1892    1731
	3     1735    1893    1729
	3     5626    6074    5848
	3     4121    6143    5440
	3     3285    3291    3286
	3     3153    3159    3154
	3     3417    3423    3418
	3     1831    5695    1834
	3     1826    5696    1823
	3     1847    5908    1846
	3     1860    5909    1861
	3     3220    3227    3216
	3     3352    3359    3348
	3     3502    3509    3498
	3     2588    5931    2586
	3     2543    5930    2545
	3     3342    3379    3344
	3     3210    3247    3212
	3     1852    2196    1850
	3     1864    2195    1866
	3     2441    3529    2442
	3      491    5913      11
	3      583    5915      15
	3      537    5914      13
	3      629    5916      17
	3     1369    6126    1371
	3     2658    2974    2703
	3     2702    2973    2659
	3     2714    4793    4792
	3     4795    4796    2716
	3     1657    1665    1662
	3     1700    1703    1695
	3     3214    3220    3216
	3     3346    3352    3348
	3     3496    3502    3498
	3     1835    5700    1860
	3     1846    5701    1827
	3     3691    6122    6103
	3     1949    1951    1950
	3     1994    1995    1993
	3     2645    4708    2992
	3     2985    4707    2648
	3     2193    2202    2098
	3     2092    2201    2191
	3     2139    2313    2261
	3     2262    2314    2140
	3     3876    6009    3968
	3     1707    1762    1761
	3     1758    1759    1669
	3     3349    5927    3354
	3     3217    5928    3222
	3     3499    5929    3504
	3     2933    2936    2935
	3     2864    2865    2862
	3     3877    6133    3879
	3     1697    1702    1699
	3     1661    1664    1659
	3     2353    5616    3111
	3     2707    2708    2667
	3     2666    2705    2704
	3     3352    3360    3359
	3     3220    3228    3227
	3     2811    4585    2812
	3     2822    4587    2821
	3     3502    3510    3509
	3     1717    6109    5826
	3     5724    5937    5725
	3     5730    5942    5729
	3     5515    6124    1986
	3     2030    6125    5516
	3     2218    2266    1898
	3     1894    2265    2217
	3      672    5718    1319
	3     1309    5719     447
	3     1338    2666    2282
	3     2283    2667    1385
	3     3602    7308    3600
	3     1668    1669    1664
	3     1702    1707    1706
	3     2255    6036     260
	3      117    6037    2254
	3     3690    6088    3700
	3     1911    2262    2140
	3     2139    2261    1912
	3     1682    1801    1684
	3     1645    1802    1643
	3      259    6038    2255
	3      711    5883     710
	3      409    5885     408
	3      410    1593     409
	3      710    1594     709
	3     2094    2096    1978
	3     2022    2090    2088
	3     3183    3189    3185
	3     3315    3321    3317
	3     2195    2408    2311
	3     2312    2409    2196
	3     2262    2492    2314
	3     2313    2490    2261
	3      261    6036    2230
	3     2229    6037     116
	3     2905    2908    2907
	3     3031    3035    3032
	3     3056    3059    3055
	3     1991    1993    1992
	3     1948    1949    1947
	3     1314    5689     421
	3      698    5688    1313
	3     1950    5863    1947
	3     2318    5532    2794
	3     4216    5910    5855
	3     2327    6038     258
	3     1764    5872    1738
	3     1734    5871    1766
	3     2422    5902    5770
	3     3399    3429    3401
	3     3135    3165    3137
	3     3267    3297    3269
	3     1850    5908    1847
	3     1861    5909    1864
	3      430    5745    1334
	3     1418    5746     689
	3     4916    4930    4928
	3     4966    4968    4954
	3     4456    7484    5708
	3      712    5884     711
	3      408    5886     407
	3     1782    5869    1780
	3     1788    5870    1790
	3     3642    6009    1512
	3     1398    5794     469
	3     1991    5862    1994
	3     4916    5381    4930
	3     5690    6040    5876
	3      719    1600     718
	3      401    1601     400
	3     2623    5840    2627
	3     2637    5842    2633
	3     3354    3384    3358
	3     3222    3252    3226
	3     3504    3534    3508
	3     1919    5745     431
	3      688    5746    1915
	3     2812    5900    2810
	3     2820    5901    2822
	3     5768    5906    2420
	3     2253    5862    1989
	3     4516    5974    5800
	3     2929    2949    2931
	3     2873    2885    2871
	3     1989    1991    1990
	3     1946    1947    1945
	3     2860    2878    2858
	3     2343    5905    2738
	3     1915    5750     687
	3      432    5747    1919
	3     1643    5828    1641
	3     1680    5827    1682
	3     2763    2765    2764
	3     2759    2760    2758
	3     2265    2500    2456
	3     2457    2501    2266
	3     2942    2959    2944
	3     3348    5927    3349
	3     3216    5928    3217
	3     3498    5929    3499
	3     1852    2312    2196
	3     2195    2311    1866
	3     5575    6018    5576
	3      407    1807     406
	3      713    1808     712
	3     1391    5747     433
	3      686    5750    1432
	3     1945    5863    2252
	3     1380    6028     286
	3       91    6027    1379
	3     5938    5985    5725
	3     5730    5984    5943
	3     3701    1530    3696
	3      257    6055    2327
	3     2328    6056     120
	3     2312    2716    2409
	3     2408    2714    2311
	3      434    5759    1391
	3     1432    5749     685
	3     2639    5850    2683
	3     2682    1942    2629
	3     3445    3460    3447
	3     2201    2338    2268
	3     2267    2340    2202
	3      673    5779    5718
	3     5719    5778     446
	3     1516    5857    1645
	3     4232    5997    5917
	3      684    5749    2138
	3     2136    5759     435
	3     3505    5851    3507
	3     3144    1938    3151
	3     3408    1936    3415
	3     3276    1934    3283
	3     3223    5852    3225
	3     3355    5853    3357
	3      716    1726     715
	3      404    1725     403
	3     1548    6144    4849
	3     4845    6145    1563
	3     2095    2232    2094
	3     2088    2231    2089
	3     5576    6140    5578
	3     2022    2088    2023
	3     1979    2094    1978
	3     1512    6009    3876
	3     5005    6337    5900
	3     5901    6338    5002
	3     2835    2836    2833
	3     2909    5838    2911
	3     4232    6072    5997
	3     1970    1978    1969
	3     2013    2022    2014
	3     5706    5902    2422
	3     2218    2457    2266
	3     2265    2456    2217
	3     2908    2965    2909
	3     2312    5922    2717
	3     2715    5921    2311
	3     4230    5959    4158
	3     5781    5984    5730
	3     5725    5985    5780
	3     2523    6015    2779
	3     1780    5869    1911
	3     1912    5870    1788
	3     3153    3250    3159
	3     3285    3382    3291
	3     3417    3532    3423
	3      189    6059    2127
	3     2126    6059     188
	3      557    5648    1744
	3     1746    5798     608
	3     1745    5797     516
	3      649    5799    1743
	3     1869    5874    1871
	3     1857    5875    1855
	3     3759    1533    3775
	3     4231    5997    4152
	3     5742    6021    2696
	3     2697    6022    5744
	3     2127    6060     190
	3      187    6062    2126
	3     2420    5906    5705
	3     4081    6104    4111
	3     2007    6100    5433
	3     4121    6104    4079
	3     2051    6055     256
	3      121    6056    2049
	3     1984    5842    5841
	3     5839    5840    2028
	3     4640    6496    3484
	3     3384    3385    3358
	3     3252    3253    3226
	3     3534    3536    3508
	3     1338    1339    1337
	3     1382    1383    1385
	3     4678    4679    4676
	3      298    5954     299
	3     3317    5861    3319
	3       78    5953      79
	3     4693    5924    4688
	3     2164    5959    1811
	3      445    5778    1453
	3     1452    5779     674
	3     1638    6089    1913
	3     1412    2137    1677
	3     4688    4689    4686
	3     4946    6029    4948
	3     4910    6030    4908
	3     4603    4760    2765
	3     2760    4761    4604
	3     3206    3235    3208
	3     3338    3367    3340
	3     2437    3515    2439
	3     3523    5992    3526
	3     3372    5990    3375
	3     3240    5991    3243
	3     4085    6008    5933
	3     2340    2702    2659
	3     2658    2703    2338
	3     4083    6008    4085
	3       86    5956      87
	3      290    5957     291
	3     1589    5772     548
	3     1587    5771     502
	3     1586    5773     594
	3     1895    5879    1897
	3     1650    5880    1899
	3     2283    2709    2707
	3     2704    2706    2282
	3     4658    5955    4661
	3      295    6064     296
	3       81    6066      82
	3     5520    6185    6177
	3     2603    6012    2597
	3     2554    6013    2560
	3     2008    5891    2031
	3     1987    1809    1964
	3      191    6060    2048
	3     2047    6062     186
	3      296    6063     297
	3       80    6065      81
	3     5561    5902    5706
	3     2631    1942    2805
	3     2815    5850    2641
	3     5471    6069    2263
	3     5526    6014    5482
	3     1867    5921    1346
	3     2172    5922    1853
	3     2597    6012    2595
	3     2552    6013    2554
	3     5621    5969    4172
	3     3465    1495    1963
	3     2595    6012    2611
	3     2568    6013    2552
	3     2484    1552    2482
	3     2818    5898    2816
	3     2806    5899    2808
	3      303    5965     304
	3       73    5966      74
	3     3311    3390    3313
	3     3179    3258    3181
	3     1585    5776     478
	3     1590    5774     570
	3     3568    6325    3567
	3     4479    5899    2806
	3     2816    5898    4478
	3     1453    1988       9
	3       19    1944    1452
	3     3881    6146    3883
	3     2015    5891    2010
	3     1966    1809    1971
	3     2343    2737    2736
	3     2349    2745    2744
	3     2345    2741    2740
	3     2347    2749    2748
	3     3936    6117    1533
	3     5705    5906    5564
	3     5860    6103    3872
	3     4623    6119    1425
	3     3100    6165    3099
	3     4056    6018    4057
	3     1948    1969    1949
	3     1993    2013    1992
	3     1592    5808     616
	3     1591    5775     524
	3      641    5806    1588
	3     3956    6276    4839
	3     2048    1455     192
	3      185    6070    2047
	3      305    5980     306
	3       71    5979      72
	3     4518    6073    5974
	3     1946    1948    1947
	3     1991    1992    1990
	3     3702    6129    3701
	3     4918    5224    5223
	3      255    6071    2051
	3     2560    2769    2562
	3     2605    2768    2603
	3     3670    5974    5709
	3     2709    3088    3087
	3     3085    3086    2706
	3     4047    6026    4021
	3      623    5782    1568
	3      531    5784    1566
	3      577    5786    1567
	3     3335    6044    4506
	3     3203    6045    4507
	3     1564    5805     634
	3     1562    5804     496
	3     1561    5788     542
	3     1565    1520     588
	3     2010    5891    2008
	3     1964    1809    1966
	3     2112    6109    1717
	3     2831    3115    2829
	3      288    5981     289
	3       88    5982      89
	3     2901    2963    2903
	3     2083    5849    2109
	3     1989    5862    1991
	3     5733    6019    5764
	3     5763    6020    5736
	3     5686    6041    6040
	3     2545    5930    2551
	3     2594    5931    2588
	3     2166    6023    4217
	3       63    5987      64
	3      313    5986     314
	3     3352    5961    3369
	3     3220    5960    3237
	3     3502    5962    3518
	3      315    5988     316
	3       61    5989      62
	3     1947    5863    1945
	3     3508    5851    3505
	3     2763    6000    4603
	3     4604    5999    2758
	3     4233    1440    6072
	3     2170    6033    2166
	3     3226    5852    3223
	3     3358    5853    3355
	3      193    1455    1805
	3     1806    6070     184
	3      569    5774    1921
	3      477    5776    1925
	3       57    5994      58
	3      319    5993     320
	3     2108    1940    2085
	3      317    5996     318
	3       59    5995      60
	3     1989    1990    1988
	3     1944    1946    1945
	3     2217    5879    1895
	3     1899    5880    2218
	3     5764    6019    5726
	3     5731    6020    5763
	3     1777    5872    1764
	3     1766    5871    1785
	3     1822    5869    1782
	3     1790    5870    1830
	3     6394    6695    3945
	3     2355    2692    2691
	3     2685    2686    2357
	3     1641    1649    1639
	3     1678    1651    1680
	3     2956    2975    2958
	3     5910    6108    5501
	3     1750    6071     254
	3     3411    5951    3432
	3     3279    5947    3300
	3     3147    5949    3168
	3     2181    2343    2342
	3     2189    2347    2346
	3     2185    2349    2348
	3     2177    2345    2344
	3     3371    5990    3372
	3     3239    5991    3240
	3     3522    5992    3523
	3     3544    5012    3439
	3     5509    6103    5860
	3       50    6007      51
	3      326    6006     327
	3     3354    5927    3384
	3     3222    5928    3252
	3     3504    5929    3534
	3     1944    1945    1452
	3     1453    1989    1988
	3     5815    5984    2235
	3     2236    5985    5813
	3     3526    3530    3528
	3     3375    3381    3377
	3     3243    3249    3245
	3      541    5788    1928
	3      587    1520    1930
	3      495    5804    1929
	3      633    5805    1927
	3     1652    5893    2251
	3     2250    5892    1690
	3     2662    2783    2607
	3     2564    2784    2664
	3     5653    6009    3642
	3     2343    2736    2342
	3     2345    2740    2344
	3     2349    2744    2348
	3     2347    2748    2346
	3     1923    5806     642
	3      523    5775    1924
	3      615    5808    1920
	3     2166    6033    6023
	3      470    5809    1398
	3     2695    3039    3038
	3     3014    3015    2689
	3      253    6094    1750
	3     5917    5997    4231
	3     1925    5823     476
	3      597    5792    1922
	3     1921    5822     568
	3      505    5793    1941
	3     3040    3043    3042
	3     3018    3019    3016
	3     3447    5896    3449
	3     4680    4682    4679
	3     3507    5851    3513
	3     3225    5852    3231
	3     3357    5853    3363
	3     4223    6152    4234
	3     3185    6052    3187
	3     4658    4661    4660
	3     2852    3006    2850
	3     1887    1338    1337
	3     1382    1385    1885
	3     4229    6067    1365
	3     2263    6158    5515
	3     5516    6159    2264
	3     1411    2103    1759
	3     1762    2102    1800
	3     1871    5874    1878
	3     1874    5875    1857
	3      286    6028     287
	3       90    6027      91
	3     1933    5809     471
	3     5947    5948    3300
	3     5949    5950    3168
	3     5951    5952    3432
	3     2052    6076     103
	3      274    6077    2053
	3     1855    5875    2172
	3     1346    5874    1869
	3     2155    6108    5910
	3     2805    1942    4629
	3     4628    5850    2815
	3      104    6076    1537
	3     1538    6077     273
	3     2965    5838    2909
	3     1519    6095     251
	3     4951    6029    4966
	3     4928    6030    4913
	3     2196    5908    1850
	3     1864    5909    2195
	3     4807    6898    1499
	3     2326    2354    2333
	3     2335    2356    2324
	3      260    6036     261
	3      116    6037     117
	3     2916    2999    2919
	3      551    5807    1926
	3      258    6038     259
	3     1560    6078     136
	3      538    5817    1754
	3      584    5818    1755
	3      492    5819    1753
	3     2911    5838    2914
	3     1767    5792     598
	3      567    5822    1769
	3     1768    5793     506
	3      475    5823    1770
	3     4951    4966    4954
	3     4916    4928    4913
	3     3437    3544    3439
	3     4494    6685    1400
	3     1852    5922    2312
	3     2311    5921    1866
	3     2846    2892    2844
	3       17    2035    1718
	3       15    2034    1716
	3       11    2032    1717
	3       13    2033    1719
	3     4654    5955    4655
	3      137    6078    2054
	3     1341    2416    2274
	3     2272    2417    1335
	3     2434    6046    3466
	3      552    5829    5807
	3     1811    5959    4230
	3     5734    6019    5733
	3     5736    6020    5737
	3     3909    6162    3911
	3     2109    5880    1650
	3     1897    5879    2108
	3      488    5810    1792
	3     3193    4491    3195
	3     2661    5963    1946
	3     1990    5964    2660
	3     2054    6079     138
	3     2779    6015    5040
	3     1669    1797    1664
	3     1702    1796    1707
	3      256    6055     257
	3      120    6056     121
	3     2165    6054    2164
	3      139    6079    1493
	3     3099    6244    5881
	3     5882    6243    3093
	3      444    5889    1393
	3     1466    5890     675
	3      188    6059     189
	3     2283    2707    2667
	3     2666    2704    2282
	3      489    5826    5810
	3     1717    5826     490
	3     1720    5829     553
	3     1641    5828    1649
	3     1651    5827    1680
	3     2177    2344    2175
	3     2189    2346    2187
	3     2185    2348    2183
	3     2181    2342    2179
	3     3936    1533    6074
	3     1659    5832    1647
	3     1802    5828    1643
	3     1682    5827    1801
	3      190    6060     191
	3      186    6062     187
	3     2252    5779    1452
	3     1453    5778    2253
	3     2551    5930    2755
	3     2754    5931    2594
	3     2364    5911    2313
	3     2314    5912    2365
	3     5655    6249    6231
	3     2903    5926    2905
	3     1441    1492     178
	3      199    1584    1442
	3      296    6064    6063
	3     6065    6066      81
	3     2111    2181    2179
	3     2113    2177    2175
	3     2117    2189    2187
	3     2115    2185    2183
	3     4661    4663    4662
	3      157    6099    1448
	3     3428    6049    1936
	3     4513    7284    1086
	3     3164    6050    1938
	3     3296    6051    1934
	3     3704    6141    3711
	3     3319    5861    3325
	3     5655    6231    4054
	3      192    1455     193
	3      184    6070     185
	3     2575    6068    2571
	3     3181    5935    3183
	3     3313    5936    3315
	3     1948    5963    1970
	3     2014    5964    1992
	3     3715    6141    3706
	3     2684    6322    5144
	3      177    2050    1441
	3      254    6071     255
	3      234    6090    1423
	3     1424    6091     143
	3     2062    2050     176
	3     2704    3085    2706
	3     2709    3087    2707
	3     5758    5998    5622
	3     2074    7004    4764
	3     2057    6092     225
	3      152    6093    2056
	3     2200    7291    4570
	3     4650    4654    4651
	3     3020    3021    3019
	3     3043    3045    3044
	3     4122    6143    4075
	3     4077    6143    4121
	3     5145    6323    2690
	3     4233    6072    4232
	3     2058    6090     233
	3      144    6091    2069
	3     2409    5919    2645
	3     2648    5920    2408
	3     2614    1437    2618
	3     1338    2282    1339
	3     1383    2283    1385
	3      226    6092    1322
	3     1321    6093     151
	3     2821    5898    2818
	3     2808    5899    2811
	3     2175    5975    2176
	3     2183    5976    2184
	3     2187    5977    2188
	3     2179    5978    2180
	3     5686    6040    5690
	3     2747    5976    2348
	3     2751    5977    2346
	3     2743    5975    2344
	3     2739    5978    2342
	3     5850    6121    2683
	3     2682    6120    1942
	3     3030    3034    3028
	3     3052    3058    3054
	3     3227    5928    3216
	3     3359    5927    3348
	3     3509    5929    3498
	3     2089    5970    2092
	3     2098    5971    2095
	3      232    6097    2058
	3     2069    6098     145
	3      252    6094     253
	3     1361    5998    5758
	3     3070    5912    2492
	3     2490    5911    3068
	3     5020    6284    5877
	3     5878    6285    5018
	3     4647    4650    4649
	3      251    6095     252
	3     2113    2175    2112
	3     2111    2179    2110
	3     2115    2183    2114
	3     2117    2187    2116
	3     2492    5912    2314
	3     2313    5911    2490
	3     1304    6097     231
	3      146    6098    1305
	3      103    6076     104
	3      273    6077     274
	3     2931    5968    2933
	3     2862    5967    2860
	3     5767    6021    5768
	3     5770    6022    5769
	3     2454    7312    4291
	3     2758    5999    2341
	3     2339    6000    2763
	3      136    6078     137
	3     3212    5960    3214
	3     3344    5961    3346
	3     2442    5962    3496
	3     3693    6088    3690
	3     2283    6043    2709
	3     2706    6042    2282
	3      138    6079     139
	3      178    1492     179
	3     2338    6000    2339
	3     2341    5999    2340
	3      198    1584     199
	3     2035    5916    5711
	3     2033    5914    5713
	3     2034    5915    5712
	3     2032    5913    5714
	3     5709    6073    5710
	3     3187    6052    3193
	3     2231    5970    2089
	3     2095    5971    2232
	3      156    6099     157
	3     2714    5920    4793
	3     4796    5919    2716
	3      176    2050     177
	3     1565    6512    5235
	3     1562    6513    5234
	3      233    6090     234
	3      143    6091     144
	3     2408    5920    2714
	3     2716    5919    2409
	3     2696    6021    5767
	3     5769    6022    2697
	3      225    6092     226
	3      151    6093     152
	3     2811    5899    4586
	3     4588    5898    2821
	3     2768    6012    2603
	3     2560    6013    2769
	3     1614    7323    6587
	3     1611    7322    6586
	3     4524    5911    2364
	3     2365    5912    4525
	3       19    5890    1944
	3     1988    5889       9
	3      231    6097     232
	3     4955    5380    4958
	3      145    6098     146
	3     5033    6068    2575
	3     3924    6074    5626
	3     1697    6058    1702
	3     5463    6161    2473
	3     2660    5889    1988
	3     1944    5890    2661
	3     5845    6124    2652
	3     2655    6125    5844
	3     2618    1437    5034
	3     3449    5896    3453
	3     3208    6004    3210
	3     3340    6005    3342
	3     2439    6003    2441
	3     1753    5913     491
	3     1754    5914     537
	3     1755    5915     583
	3     1752    5916     629
	3     5974    6073    5709
	3     3526    5992    3530
	3     2833    5983    2831
	3     2692    3000    2693
	3     2687    3001    2686
	3     3375    5990    3381
	3     3243    5991    3249
	3     2033    2117    2116
	3     2034    2115    2114
	3     2032    2113    2112
	3     2035    2111    2110
	3     4966    4975    4968
	3     4930    4937    4928
	3     3031    3032    3030
	3     3054    3056    3055
	3     5832    5857    1516
	3     3708    6156    3715
	3     3770    6156    3710
	3     2645    5919    4708
	3     4707    5920    2648
	3     3247    5960    3212
	3     3379    5961    3344
	3     3529    5962    2442
	3     3321    5861    3317
	3     3696    1530    3693
	3       12    6169     513
	3       16    6170     605
	3     3763    1533    3759
	3     6603    6739    5645
	3     3027    3029    3028
	3     3052    3053    3051
	3     2777    6149    3471
	3     2500    5972    2456
	3     2457    5973    2501
	3     3693    1530    6088
	3     1692    6002    2250
	3     2251    6001    1654
	3     5927    6111    3384
	3     5928    6110    3252
	3     5929    6112    3534
	3     1645    5857    1802
	3     2456    5972    2825
	3     2826    5973    2457
	3     1787    6010    2139
	3     2140    6011    1779
	3     3346    5961    3352
	3     3214    5960    3220
	3     3496    5962    3502
	3     2201    5970    2658
	3     2659    5971    2202
	3     2850    6017    2848
	3     3939    6184    3941
	3     6009    6114    3968
	3     2479    6149    2777
	3     4628    6121    5850
	3     1942    6120    4629
	3     1844    6153    6015
	3     6179    6200    1804
	3     1803    6201    6178
	3     3609    6659    2200
	3     2032    2112    1717
	3     2035    2110    1718
	3     2034    2114    1716
	3     2033    2116    1719
	3     3435    6053    3437
	3     1657    6001    1665
	3     1703    6002    1695
	3     4079    6104    4081
	3     3872    6103    3932
	3     1785    6010    1787
	3     1779    6011    1777
	3     2876    6016    2873
	3     3189    6052    3185
	3     3460    5896    3447
	3     1946    5963    1948
	3     1992    5964    1990
	3     2092    5970    2201
	3     2202    5971    2098
	3     3227    6110    5928
	3     3359    6111    5927
	3     3509    6112    5929
	3     1338    6024    2666
	3     2667    6025    1385
	3     2531    1552    2484
	3     4729    6687    1497
	3     1637    6151    2206
	3     2205    6150    1676
	3     4686    5958    4684
	3     1536    6764     365
	3      749    6765    1535
	3     2905    5926    2908
	3     2854    6039    2852
	3     5479    6113    5478
	3     2473    6161    2475
	3     1695    6002    1692
	3     1654    6001    1657
	3     5894    6177    3900
	3     4688    5924    4689
	3     5897    6160    3935
	3     2190    6642    4876
	3     2933    5968    2936
	3     2865    5967    2862
	3     4985    6448    1724
	3     4987    6449    1723
	3     2530    6149    2477
	3     3048    3052    3051
	3     3027    3028    3024
	3     3183    5935    3189
	3     3315    5936    3321
	3       15    5915    2034
	3       13    5914    2033
	3       11    5913    2032
	3       17    5916    2035
	3     3269    1325    3271
	3     3137    6075    3139
	3     3401    1327    3403
	3     3342    6005    3379
	3     3210    6004    3247
	3     2441    6003    3529
	3     2676    6198    1632
	3     1671    6199    2677
	3     3054    3055    3053
	3     3029    3031    3030
	3     5966    6808    1467
	3     1468    6807    5965
	3     1885    6025    1411
	3     1800    6024    1887
	3     1339    6042    1341
	3     1335    6043    1383
	3     2703    6000    2338
	3     2340    5999    2702
	3     2348    5976    2183
	3     2344    5975    2175
	3     2346    5977    2187
	3     2342    5978    2179
	3     1986    6124    5845
	3     5844    6125    2030
	3     2266    6034    1898
	3     1894    6035    2265
	3     1639    6151    1637
	3     1676    6150    1678
	3     3717    6171    3770
	3     2949    5968    2931
	3     2860    5967    2878
	3     3258    5935    3181
	3     3390    5936    3313
	3     5515    6158    6124
	3     6125    6159    5516
	3     4076    6195    4074
	3     6113    6129    3934
	3     4228    6108    2155
	3     2274    6031    2326
	3     2324    6032    2272
	3     6103    6122    3932
	3     5871    6010    1785
	3     1777    6011    5872
	3     2247    6169     514
	3     2248    6170     606
	3     1898    6034    1874
	3     1878    6035    1894
	3     2873    6016    2885
	3     5945    6138    5946
	3     5941    6139    5940
	3      710    5883    1594
	3     1593    5885     409
	3     4048    6176    4056
	3     5702    6107    3902
	3     5653    6114    6009
	3     2607    6047    2605
	3     3165    6075    3137
	3     3429    1327    3401
	3     3297    1325    3269
	3     1425    6119    1001
	3     2562    6048    2564
	3      711    5884    5883
	3     5885    5886     408
	3     5006    6105    5005
	3     5002    6106    5003
	3     3515    6003    2439
	3     3235    6004    3208
	3     3367    6005    3340
	3     5947    1325    5948
	3     5951    1327    5952
	3     5949    6075    5950
	3     3937    6117    3936
	3     3415    6049    3417
	3     3151    6050    3153
	3     3283    6051    3285
	3     2963    5926    2903
	3     2836    5983    2833
	3     3767    6180    3721
	3     4179    6155    5677
	3     1893    6165    5647
	3     3478    6126    1369
	3     5185    6660    5187
	3     5176    6661    5178
	3     6074    1533    3763
	3     1808    5884     712
	3      407    5886    1807
	3     5167    6662    5169
	3     3271    1325    5947
	3     3403    1327    5951
	3     3139    6075    5949
	3     3701    6129    6113
	3     3694    6160    5897
	3     2831    5983    3115
	3     3153    6050    3250
	3     3285    6051    3382
	3     1936    6049    3415
	3     1938    6050    3151
	3     1934    6051    3283
	3     3417    6049    3532
	3     1442    6154     200
	3     3029    3030    3028
	3     3052    3054    3053
	3      201    6154    2061
	3     3193    6052    4491
	3     1415    5041     342
	3     5646    6157    1892
	3     4054    6205    6176
	3     1874    6034    5875
	3     5874    6035    1878
	3     2848    2042    2846
	3     1702    6058    1796
	3     2670    6201    2730
	3     2732    6200    2671
	3     3110    6207    6168
	3     6167    6206    3108
	3     1383    6043    2283
	3     2282    6042    1339
	3      252    6095    6094
	3     3934    6133    3877
	3     5840    1548    4847
	3     4843    1563    5842
	3     3711    6129    3702
	3     5123    6377    5122
	3     5117    6376    5118
	3     5908    6127    1846
	3     1860    6128    5909
	3     4470    3473    4472
	3     3962    6114    5653
	3     2176    6109    2112
	3     2652    6124    2654
	3     2657    6125    2655
	3     4039    6249    5655
	3     4805    7296    1470
	3     4689    5958    4686
	3     3713    6177    5894
	3     5581    6205    5582
	3     2605    6047    2768
	3     2769    6048    2562
	3     5813    6144    5812
	3     5814    6145    5815
	3     1694    6204    1689
	3     1411    6025    2103
	3     2102    6024    1800
	3      770    7157    6332
	3     1887    6024    1338
	3     1385    6025    1885
	3     5839    1548    5840
	3     5842    1563    5841
	3      343    1415     342
	3      777    1374     776
	3     3006    6017    2850
	3     1634    1406    1636
	3     1675    1727    1673
	3     2233    1548    5839
	3     5841    1563    2234
	3     3365    6111    3359
	3     3233    6110    3227
	3     3516    6112    3509
	3     4682    4695    4679
	3     5902    6118    5903
	3     4903    6157    5646
	3     3437    6053    3544
	3     1678    1680    1679
	3     1640    1641    1639
	3     4056    6176    6140
	3     3537    6080    5851
	3     3386    6081    5853
	3     3254    6082    5852
	3     2783    6047    2607
	3     2564    6048    2784
	3     3932    6122    5887
	3     2852    6039    3006
	3     3723    6191    3767
	3     2914    6085    2916
	3     3513    6080    3522
	3     3363    6081    3371
	3     3231    6082    3239
	3     5578    6140    5581
	3     6298    6320    2090
	3     2096    6321    6299
	3     5907    6123    5906
	3     1736    6179    1804
	3     1803    6178    1732
	3     5040    6153    5438
	3     1341    6042    2416
	3     2417    6043    1335
	3      344    6084     343
	3      776    6083     775
	3     1846    6127    5701
	3     5700    6128    1860
	3     2233    6144    1548
	3     1563    6145    2234
	3     1247    6130    1246
	3     1302    6789    4501
	3     1707    6086    1762
	3     1759    6087    1669
	3     3772    6197    3727
	3     2846    2042    2892
	3     3489    6142    5493
	3     3706    6141    3704
	3     5561    6118    5902
	3     4794    6482    4792
	3     4795    6483    4797
	3     2916    6085    2999
	3     2644    6127    5908
	3     5909    6128    2647
	3     2642    6131    5879
	3     5880    6132    2643
	3     2326    6031    2354
	3     2356    6032    2324
	3     4475    6222    5009
	3     2272    6032    2417
	3     2416    6031    2274
	3     5851    6080    3513
	3     5852    6082    3231
	3     5853    6081    3363
	3     5656    6166    4122
	3     2709    6115    3088
	3     3086    6116    2706
	3      345    2309     344
	3      775    2310     774
	3     4075    6143    4077
	3     2103    6087    1759
	3     1762    6086    2102
	3     4940    6190    4942
	3      778    1487      26
	3        2    1488     341
	3     6520    6541    1698
	3     2474    6147    2472
	3     2481    6148    2483
	3     5906    6123    5564
	3     5838    6085    2914
	3      249    6175     250
	3     4582    6275    1606
	3     1796    6086    1707
	3     1669    6087    1797
	3     5150    6146    3881
	3     1632    6198    1634
	3     1673    6199    1671
	3     5347    6335    5116
	3     5121    6336    5345
	3      348    2466     347
	3      772    2467     771
	3     6017    2042    2848
	3      721    5105    5104
	3     1638    1640    1639
	3     1678    1679    1677
	3     5647    6165    4941
	3     1461    6955    6259
	3     3592    6546    6397
	3     2666    6136    2705
	3     2708    6137    2667
	3     2159    6166    5656
	3     1660    6543    6517
	3     1691    6204    5820
	3     3782    6210    3731
	3     5879    6131    2108
	3     2109    6132    5880
	3     3729    6210    3772
	3     1734    6178    5871
	3     5872    6179    1738
	3     2158    6202    1356
	3     2078    6991    4751
	3     6285    6299    5018
	3     5020    6298    6284
	3     5108    6228    5789
	3     4976    6190    4940
	3     2477    6149    2479
	3     2159    6203    6166
	3      732    7244      23
	3        5    7245     382
	3     5108    5113     398
	3     5440    6152    4223
	3     6124    6158    2654
	3     2657    6159    6125
	3     1440    6155    6072
	3     5812    6144    2233
	3     2234    6145    5814
	3      209    6194    1320
	3     2064    6194     208
	3     1674    2205    1676
	3     1637    2206    1635
	3      200    6154     201
	3     4390    7255    3476
	3     3710    6156    3708
	3     5488    6238    5059
	3      779    6102     778
	3      341    6101     340
	3     4416    6211    1557
	3     3736    6229    3735
	3     3733    6226    3782
	3     5060    6238    5079
	3     2230    6221     262
	3     5131    6162    3909
	3     5064    6247    5514
	3     5665    6465    1333
	3     6233    6269    5760
	3     5761    6268    6234
	3      263    6221    2134
	3     6152    6166    4234
	3     2654    6158    3064
	3     3062    6159    2657
	3     4817    6202    5918
	3     3740    6235    3739
	3     6015    6153    5040
	3      514    6169      12
	3      606    6170      16
	3     5079    6247    5062
	3     5871    6178    2799
	3     2800    6179    5872
	3     5701    6192    1826
	3     1834    6193    5700
	3     2475    6161    2530
	3     6554    7203    3059
	3     6035    6167    2668
	3     2669    6168    6034
	3     4920    6181    5381
	3      780    2066     779
	3      340    2067     339
	3     1676    1678    1677
	3     1638    1639    1637
	3      428    6223    1916
	3     1334    6223     429
	3     6166    6203    4234
	3     3771    6235    3743
	3     3935    6160    5894
	3     1086    7284    6464
	3     6370    6391    2974
	3     2973    6392    6371
	3     3719    6171    3717
	3     1613    7292    6563
	3     5670    6219    2001
	3     1957    6220    5671
	3     1649    6151    1639
	3     1678    6150    1651
	3     4046    6241    4030
	3     4709    6818    2510
	3     4931    4934    4922
	3     4960    4972    4969
	3      399    6228    5108
	3     6278    7161    4467
	3     2001    6219    1999
	3     1955    6220    1957
	3      250    6175    1519
	3     5070    6257    5078
	3     6263    6295    5590
	3     5074    6257    5068
	3     3745    6245    3771
	3     6072    6155    4179
	3     3761    6245    3747
	3     4784    7000    3043
	3     3019    7001    4785
	3     4054    6176    4048
	3     6178    6201    2799
	3     2800    6200    6179
	3     1636    1638    1637
	3     1676    1677    1675
	3     6227    6292    5459
	3     1893    6224    1729
	3     5140    7148    4575
	3     4577    7149    5141
	3     2653    6252    2767
	3     2766    6253    2656
	3     3721    6180    3719
	3     1732    6178    1734
	3     1738    6179    1736
	3     3900    6177    3904
	3     3719    6180    6171
	3     4234    6203    4555
	3     1728    6227    1892
	3     2994    6192    5701
	3     5700    6193    2987
	3     4780    7173    2752
	3       21    5104     720
	3     4122    6166    6152
	3     2752    6891    4780
	3     2753    6892    4781
	3     4781    6895    2753
	3     2224    6266    2734
	3     2650    6893    4782
	3     2651    6894    4783
	3     4783    6896    2651
	3     5875    6168    2172
	3     1346    6167    5874
	3     5719    6163    5778
	3     5779    6164    5718
	3     3944    6184    3939
	3     2260    6266    2213
	3     2672    6273    4874
	3     4875    6274    2673
	3     2661    6214    5376
	3     5373    6215    2660
	3     5075    6465    5665
	3     3749    6250    3761
	3     4523    6317    3026
	3     3050    6318    4522
	3     6177    6185    3904
	3     5456    6291    6224
	3     5874    6167    6035
	3     6034    6168    5875
	3      999    6186    1311
	3     2245    6725    5031
	3     5647    6224    1893
	3     3904    6185    3929
	3     3764    6251    3753
	3     1393    6236     443
	3     5155    6323    5156
	3     1487    2676    1632
	3     1671    2677    1488
	3     1892    6227    5646
	3     6258    6965    1460
	3     5536    7087    6686
	3     1914    6246     691
	3      676    6240    1466
	3      690    6246    1418
	3      339    6135     338
	3      781    6134     780
	3     6140    6176    5581
	3     1830    6234    5695
	3     5696    6233    1822
	3      245    6242     246
	3     3755    6260    3764
	3     3775    6260    3757
	3     3887    6289    5475
	3     6094    7458    6473
	3     4942    6190    4945
	3     3725    6191    3723
	3     1674    1676    1675
	3     1636    1637    1635
	3     4074    6195    4139
	3     5761    6234    5870
	3     4035    6271    4039
	3     1731    6243    1803
	3     1804    6244    1735
	3      208    6194     209
	3     5881    6244    1804
	3     1803    6243    5882
	3     5778    6163    2253
	3     2252    6164    5779
	3     5869    6233    5760
	3     5380    6182    4958
	3     4327    6819    1504
	3     2998    6233    5696
	3     5695    6234    2991
	3     1839    7125    4840
	3     3727    6197    3725
	3     3725    6197    6191
	3     5922    6207    2717
	3     2715    6206    5921
	3      441    6255    1458
	3     1459    6254     678
	3     6168    6207    2172
	3     1346    6206    6167
	3     2799    6201    2670
	3     2671    6200    2800
	3     1826    6192    5696
	3     5695    6193    1834
	3     5802    7218    5803
	3     1634    1636    1635
	3     1674    1675    1673
	3     4039    6271    6249
	3     6315    7127    5759
	3     5749    7128    6316
	3     2101    6267     419
	3     1601    6228     400
	3      329    6258     330
	3       47    6259      48
	3     1374    6083     776
	3      343    6084    1415
	3     2868    6256    2870
	3     4473    3473    4470
	3     5683    6265    5682
	3     3551    6208    1581
	3     1689    6204    1691
	3     5582    6205    5585
	3     4772    6709    4265
	3     5672    6203    2159
	3     5961    6188    3369
	3     5960    6187    3237
	3     5962    6189    3518
	3     4922    6181    4920
	3     4958    6182    4960
	3     6061    7278    5028
	3     2885    6256    2871
	3     3247    6187    5960
	3     3379    6188    5961
	3     3529    6189    5962
	3      418    6267    1422
	3     2309    6084     344
	3      775    6083    2310
	3     5918    6202    2158
	3     1129    7249    4530
	3     3189    6183    6052
	3     1633    2104    1631
	3     1670    2105    1672
	3      719    6239    1600
	3      700    6277    2100
	3     3731    6210    3729
	3      400    6228     399
	3     5646    6227    5459
	3     1557    6211    4452
	3      707    6264    1937
	3     1545    6216    4820
	3     1546    6217    4821
	3     1544    6218    4819
	3     4317    6212    4315
	3     4225    6566    4226
	3     6700    6756    3197
	3     4419    6820    4600
	3     2998    6269    6233
	3     2532    6315    3008
	3     3009    6316    2534
	3     3775    6347    6260
	3     5921    6206    1346
	3     2172    6207    5922
	3     1939    6270     412
	3     6205    6231    5585
	3      429    6223     428
	3     6234    6268    2991
	3     5456    6224    5647
	3     5606    6379    6265
	3     5086    6222    4475
	3     5191    6322    5190
	3     1421    6277     701
	3     6052    6183    4491
	3     5045    6225    4297
	3     1672    1674    1673
	3     1634    1635    1633
	3     5087    7246    1377
	3      262    6221     263
	3     1445    6293     311
	3       66    6294    1392
	3      312    6293    2043
	3     2044    6294      65
	3     1999    6219    2019
	3     1975    6220    1955
	3     4250    6362    4533
	3      778    6102    1487
	3     1488    6101     341
	3     1610    6866    4769
	3     3570    6867    4770
	3     3569    6868    4771
	3     1729    6224    1704
	3     1466    6214    5890
	3     5889    6215    1393
	3     5981    6647    6121
	3     6120    6646    5982
	3     5608    6263    5589
	3     3735    6226    3733
	3     2660    6215    5889
	3     5890    6214    2661
	3      331    6282     332
	3       45    6283      46
	3     2289    7240    4564
	3     1666    6227    1728
	3     2165    6286    6054
	3     4423    7013    1630
	3     1487    1631      26
	3        2    1670    1488
	3     1672    1673    1671
	3     1632    1634    1633
	3     1634    6198    1406
	3     1727    6199    1673
	3      720    6239     719
	3     4934    6181    4922
	3     4960    6182    4972
	3     1995    6284    1993
	3     1949    6285    1951
	3     3739    6229    3736
	3     6517    6543    4927
	3     1510    6318    3051
	3     5877    6284    1995
	3     1951    6285    5878
	3     5585    6231    5607
	3     3542    7283    5462
	3     4374    6726    4376
	3     4965    6541    6520
	3      443    6236     442
	3     2810    6320    2809
	3     2819    6321    2820
	3     4046    6295    6263
	3     4711    7224     883
	3      340    6101    2067
	3     2066    6102     779
	3     5237    6385    3301
	3     5238    6386    3169
	3     6071    7007    4749
	3     1704    6291    1700
	3     1662    6292    1666
	3     3743    6235    3740
	3     6000    6261    4603
	3     4604    6262    5999
	3     2675    6336    2802
	3     2801    6335    2674
	3      677    6240     676
	3     5589    6263    5590
	3     6879    7289    4563
	3     6880    7290    4561
	3     6878    7288    4559
	3     5059    6238    5060
	3     3046    6287    3048
	3     3024    6288    3022
	3     3052    6287    3058
	3     3034    6288    3028
	3      571    6304    1590
	3      617    6305    1592
	3      525    6306    1591
	3     6231    6249    5607
	3     6746    6789    1302
	3     4030    6241    4032
	3     1822    6233    5869
	3     5870    6234    1830
	3     2253    6300    5862
	3     5458    6341    5460
	3     5863    5081    2252
	3     1596    6242     245
	3     1534    6272     757
	3      691    6246     690
	3     3880    6324    4613
	3     4824    6324    3882
	3     3747    6245    3745
	3     4289    7247    5904
	3      448    6311    1309
	3     1319    6312     671
	3     2022    6298    2090
	3     2096    6299    1978
	3     1575    7054    5622
	3     5457    6344    5455
	3     1447    7432    5407
	3      330    6258    1460
	3     1461    6259      47
	3     5538    6331    5539
	3     6097    7354    5666
	3     1670    1672    1671
	3     1632    1633    1631
	3     2720    7253    6340
	3     4980    5081    5863
	3     5862    6300    4984
	3     5926    6290    2908
	3     4653    6378    4648
	3     2206    6209    1635
	3     5389    5609    2530
	3     5062    6247    5064
	3     1892    6243    1731
	3     1735    6244    1893
	3     2077    6213    6212
	3     4665    6357    4657
	3     5106    6239    5104
	3     1561    6545    5236
	3     1487    1632    1631
	3     1670    1671    1488
	3     2680    6732    4830
	3     1451    6326     450
	3      669    6327    1450
	3     2979    6248    2678
	3      611    6333     610
	3      519    6334     518
	3     4599    6862    2455
	3     1491    7215    5604
	3     6094    6473    1750
	3     5607    6249    5608
	3     4812    6564    1496
	3     2977    6367    2718
	3     5614    6339     391
	3      390    6339    2411
	3     3751    6250    3749
	3     5044    6475    3011
	3     3012    6476    5043
	3     4878    6405    4879
	3     3517    6537    3516
	3     6236    6255     442
	3     2067    6135     339
	3      780    6134    2066
	3      678    6254     677
	3      442    6255     441
	3     5340    7209    3039
	3     3015    7210    5341
	3     6030    6313    4929
	3     4967    6314    6029
	3     1326    6328     697
	3      696    6328    2119
	3      677    6254    6240
	3     3753    6251    3751
	3     1487    6102    2676
	3     2677    6101    1488
	3     3751    6251    6250
	3     3063    6252    2653
	3     2656    6253    3061
	3     6137    7223    4693
	3     4868    6847    1358
	3     6195    7343    4139
	3     6374    6379    5605
	3     5020    6320    6298
	3     6299    6321    5018
	3     2719    6368    2978
	3     4580    7316    4334
	3     6241    6271    4032
	3     5068    6257    5070
	3     4341    6598    4342
	3     2991    6268    2990
	3     5104    6239     720
	3     4932    6355    4931
	3     4969    6356    4970
	3     2871    6256    2868
	3      218    6330     219
	3     2997    6269    2998
	3      708    6264     707
	3     5608    6271    6241
	3     2768    6922    4583
	3     4584    6923    2769
	3     3757    6260    3755
	3     5719    6296    6163
	3     6164    6297    5718
	3     3926    6381    3631
	3      412    6270     411
	3     5462    6383    3433
	3     1414    7110    4435
	3     4720    6730    6702
	3     5078    6347    5073
	3     2733    6361    2219
	3     4891    7162    3558
	3     3559    7163    4892
	3     4046    6263    6241
	3      419    6267     418
	3     2530    5609    6149
	3     2211    6361    2259
	3     5900    6337    2090
	3     2096    6338    5901
	3     4826    7184    1903
	3     2446    7187    4592
	3     1904    7188    4593
	3     2445    7185    4591
	3     4281    7189    1906
	3     1902    7186    4825
	3     4595    7190    2448
	3     4780    6891    2699
	3     4781    6892    2698
	3     4484    6891    2752
	3     4485    6892    2753
	3     4782    6893    2722
	3     4783    6894    2723
	3     2753    6895    4489
	3     4486    6893    2650
	3     4487    6894    2651
	3     1901    6895    4781
	3     2651    6896    4488
	3     4290    6896    4783
	3     2090    6337    2088
	3     2094    6338    2096
	3     4803    7055    2856
	3     4852    7049    3530
	3     6268    6281    2990
	3     1604    6373    4854
	3     2213    6266    2224
	3     6130    7113    1580
	3     5073    6359    5076
	3     3130    6350    3132
	3     3394    6349    3396
	3     3262    6351    3264
	3     1417    7233    4866
	3     5682    6265    4166
	3     1935    7204    5326
	3     2997    6280    6269
	3     1635    6209    1633
	3     4369    6551    4581
	3     4032    6271    4035
	3     2041    6637    5954
	3     5953    6638    2040
	3     1606    6275    3546
	3     5247    6412    5246
	3      451    6353    1451
	3     1450    6354     668
	3     5250    6411    5251
	3      422    6352    1328
	3     2118    6352     423
	3     2797    6273    2672
	3     2673    6274    2798
	3     3043    7209    4784
	3     4785    7210    3019
	3     4937    6313    4928
	3     4966    6314    4975
	3     6359    6365    5076
	3     1633    6209    2104
	3     5999    6262    2702
	3     2703    6261    6000
	3     2430    7173    4780
	3     6574    7249    1129
	3     4831    7423    2460
	3     2491    6268    5761
	3     5760    6269    2493
	3     2711    6411    5123
	3     5118    6412    2710
	3     2491    6281    6268
	3     4962    6388    5457
	3     5460    6387    4924
	3     6269    6280    2493
	3     6241    6263    5608
	3     6249    6271    5608
	3     5032    6278    1612
	3     5606    6696    1491
	3     4866    7233    3591
	3     1791    7034    3564
	3      701    6277     700
	3     4381    6280    2997
	3     2990    6281    4380
	3     2740    6373    2743
	3     3135    6350    3165
	3     3399    6349    3429
	3     3267    6351    3297
	3     1460    6282     331
	3       46    6283    1461
	3     6260    6347    5078
	3     1524    6363     453
	3      666    6364    1525
	3     4462    6276    3956
	3     2658    6370    2974
	3     2973    6371    2659
	3     2724    6919    4599
	3     2735    6919    4598
	3     6434    6817    4617
	3     1438    6366     164
	3      165    6366    2059
	3     6149    5609    3471
	3     2386    6382    2511
	3     5071    6375    5676
	3     3636    6381    3646
	3     2384    6382    2383
	3     5457    6388    6344
	3     6341    6387    5460
	3     4677    6406    4694
	3     2493    6280    3069
	3     3067    6281    2491
	3     1360    6389    4243
	3     5590    6295    5592
	3     1471    7252    4882
	3     5115    6376    5114
	3     5119    6377    5120
	3     4802    6395    1618
	3      381    7380     380
	3     6347    6359    5073
	3     5829    6680    3521
	3      883    7224    6649
	3     5678    6286    2165
	3     1890    6995    4830
	3     4166    6379    5679
	3     6422    7510    3121
	3     4309    7511    6425
	3     4288    7513    6424
	3     4293    7512    6426
	3     6427    7514    3120
	3     4855    6639    1301
	3     5228    6421    5545
	3     5475    6289    4539
	3     3631    6381    3633
	3     3124    6608    4814
	3     4815    6609    3125
	3     1993    6284    2013
	3     1969    6285    1949
	3     4139    6404    5483
	3     2841    6390    2839
	3     5527    7316    3852
	3     2856    7136    4803
	3     1559    6575    5684
	3     2065    6384     229
	3      230    6384    1304
	3      174    6380     175
	3     6563    7035     912
	3     3297    7319    6631
	3     3429    7317    6630
	3     3165    7318    6629
	3     3048    6287    3052
	3     3028    6288    3024
	3     4189    6404    4191
	3     3946    6407    3906
	3     2908    6290    2965
	3     6442    6651    3947
	3     5627    6295    4046
	3      311    6293     312
	3       65    6294      66
	3     1700    6291    1703
	3     1665    6292    1662
	3      703    6402     702
	3      417    6403     416
	3     6295    6302    5592
	3     5803    7218     195
	3     1309    6296    5719
	3     5718    6297    1319
	3     2690    6323    5155
	3     2124    6408     321
	3       56    6409    2125
	3     5592    6302    5594
	3     3366    6534    3365
	3     6491    6913    1378
	3     4332    6914    6489
	3     6751    6755    2255
	3     2231    6370    5970
	3     5971    6371    2232
	3     1525    6400     665
	3      454    6401    1524
	3     2892    6390    2844
	3     5245    6459    5244
	3     5248    6460    5249
	3     6490    6910    5923
	3     3128    7332    3251
	3     3392    7333    3533
	3     3260    7331    3383
	3      664    6400    1918
	3     1917    6401     455
	3     5627    6302    6295
	3     6284    6298    2013
	3     1969    6299    6285
	3      572    6304     571
	3      618    6305     617
	3      526    6306     525
	3     5950    6629    1503
	3     5952    6630    1502
	3     5948    6631    1498
	3     6105    6370    2231
	3     2232    6371    6106
	3     2827    6459    5429
	3     2171    6307    4173
	3     3541    6414    3422
	3     3256    6413    3158
	3     3388    6415    3290
	3     3322    6448    3308
	3     3190    6449    3176
	3     5190    6322    2684
	3     2013    6298    2022
	3     1978    6299    1969
	3     4055    6302    5627
	3     5272    6486    5274
	3     5284    6487    5286
	3     4934    7494    6181
	3     6182    7495    4972
	3      206    6410     207
	3     4882    7032    1388
	3     4623    7019    6119
	3     2736    6308    2739
	3     2748    6310    2751
	3     2744    6309    2747
	3     6586    7060    1134
	3     6587    7061     949
	3     3306    6448    4985
	3     3174    6449    4987
	3     5426    6460    2897
	3     3891    6442    5533
	3     5343    6402    5022
	3     5025    6403    5342
	3     4600    7248    1615
	3     4414    7216    6444
	3     6747    7339    4582
	3     1377    7246    6806
	3     4347    6430    4344
	3     6302    6319    5594
	3      449    6311     448
	3      671    6312     670
	3     4632    6943    4444
	3     3011    6315    2532
	3     2534    6316    3012
	3     6105    6391    6370
	3     6371    6392    6106
	3     4339    7195    6506
	3     4963    6419    4962
	3     4924    6420    4925
	3     4190    7295    6648
	3     4055    6319    6302
	3     1465    7208    4734
	3     4774    7480    2421
	3     4378    7066    4377
	3     3793    6441    3718
	3     3720    6441    3797
	3     6345    7300    2499
	3     6346    7301    2494
	3     5594    6319    5596
	3     4745    6663    4744
	3     2301    6971    6422
	3     6426    6974    2296
	3     6424    6972    2297
	3     6425    6973    2298
	3     2303    6975    6423
	3     3907    6442    3947
	3     3585    7508    3588
	3     6119    7019    3954
	3     6301    7320    4730
	3      426    6428    1331
	3     1390    6429     693
	3     1916    6428     427
	3      692    6429    1914
	3     3558    7162    1387
	3     1316    7163    3559
	3     7052    7296    3064
	3     2809    6320    5020
	3     5018    6321    2819
	3     6248    6994    1891
	3     3615    7310    6991
	3     6378    7418    4652
	3     2138    6431     683
	3      682    6431    1446
	3     4928    6313    6030
	3     6029    6314    4966
	3     3588    7508    3584
	3     1914    7183    5036
	3     5563    6440    5565
	3     5642    6319    4055
	3     3039    6435    5340
	3     5341    6436    3015
	3     1918    6432     663
	3      456    6433    1917
	3     5260    6519    5262
	3      450    6326     449
	3      670    6327     669
	3     5562    6438    5560
	3      449    6326    6311
	3     6312    6327     670
	3     3882    6324    3880
	3     3026    6317    3027
	3     3051    6318    3050
	3     5708    6886    4456
	3     4864    7072    3249
	3     4865    7073    3381
	3     6163    6300    2253
	3     2252    5081    6164
	3      180    6437    1547
	3     2960    6484    5291
	3      154    6443    1462
	3     2056    6443     153
	3     3575    6393    3576
	3      213    6447    1439
	3     2060    6447     212
	3      697    6328     696
	3     5789    7114    5113
	3     1620    6445     458
	3      661    6446    1619
	3     5642    6329    6319
	3     2279    7007    6473
	3     6099    6781    1448
	3      756    7324     755
	3     4835    6882    1613
	3     5270    6486    5269
	3     5282    6487    5281
	3     4962    6419    6388
	3     6387    6420    4924
	3     2674    6335    5347
	3     5345    6336    2675
	3     5185    7528    1514
	3     5176    7529    1515
	3     3964    6567    3896
	3     5167    7530    1513
	3     3458    6773    4840
	3     6319    6329    5596
	3     5561    6438    6118
	3     6282    7494    4934
	3     4972    7495    6283
	3     5596    6329    5598
	3      219    6330    1449
	3     6123    6440    5564
	3      424    6452    2118
	3     2119    6453     695
	3     1331    6452     425
	3      694    6453    1390
	3     3000    6435    2693
	3     2687    6436    3001
	3     4792    6482    2715
	3     2717    6483    4795
	3     4311    6640    4310
	3     4130    6329    5642
	3     3851    6331    5538
	3     4836    7422    4406
	3     4870    6568    5360
	3      436    6454    2136
	3     1447    6454     437
	3     4526    6686    4421
	3      206    6714    6410
	3     1492    6437     179
	3     3010    6505    2887
	3     2695    6435    3039
	3     3015    6436    2689
	3      391    6339     390
	3     2713    6516    5371
	3     4871    6508    2902
	3     1724    6333     611
	3     1723    6334     519
	3     2970    6507    2830
	3     2900    6508    2969
	3     2832    6507    4869
	3      974    6340     973
	3     4001    6478    3999
	3     1582    6462     100
	3      277    6463    1583
	3     5412    6512    5413
	3     5410    6513    5411
	3     3591    7233    6564
	3     4945    6456    4967
	3     5235    6512    3368
	3     5234    6513    3236
	3     4602    6470    1472
	3     2088    6337    2231
	3     2232    6338    2094
	3      173    6465     174
	3     5184    7528    5185
	3     5175    7529    5176
	3     3323    6560    5208
	3     3191    6561    5215
	3     5166    7530    5167
	3     5138    6524    4690
	3     4130    6343    6329
	3     2961    6550    5242
	3     6329    6343    5598
	3     5243    6552    2888
	3     5598    6343    5601
	3     5258    6519    5257
	3     5370    6515    2712
	3      459    6471    1620
	3     5455    6344    5456
	3     1619    6472     660
	3     5459    6341    5458
	3     4798    7230    3902
	3     6829    7161    2952
	3     5046    6944    3062
	3     5403    7424    1446
	3     6123    6856    1537
	3     5358    6544    2906
	3     3063    7296    4805
	3     4963    6466    6419
	3     6420    6467    4925
	3     1538    6857    6118
	3      890    6345     889
	3     1075    6346    1074
	3     5669    6343    4130
	3     5485    6467    5893
	3     5527    7232    4280
	3      566    6477     565
	3     2765    6480    4536
	3     4535    6479    2760
	3     5414    6545    5415
	3     5892    6466    5484
	3     4703    7286    2426
	3     5367    6523    5200
	3     2904    6544    4871
	3     5236    6545    3519
	3     5511    6348    1351
	3      285    6503    1380
	3     1379    6504      92
	3      423    6352     422
	3     6583    7200    3307
	3     6582    7199    3175
	3     5601    6358    5603
	3     5612    6705    5583
	3      658    6492    1798
	3      452    6353     451
	3      668    6354     667
	3     1721    6493     461
	3       93    6504    1443
	3     1444    6503     284
	3     4525    6494    2731
	3     2729    6495    4524
	3     3132    6350    3135
	3     3396    6349    3399
	3     3264    6351    3267
	3     3033    6510    3031
	3     3055    6511    3057
	3     6343    6358    5601
	3     3653    6530    3804
	3     3915    6530    3651
	3     4776    7346    2936
	3     2209    6604    4283
	3     5194    6518    5197
	3     4856    6920    1611
	3     4857    6921    1614
	3     5669    6358    6343
	3     6809    7390    3589
	3     4657    6357    4656
	3     4936    6355    4932
	3     4970    6356    4974
	3     5742    6740    6021
	3     6022    6741    5744
	3     6117    6347    3775
	3      717    6457     716
	3      403    6458     402
	3     4829    7170    3115
	3     4822    7222    4654
	3     2962    6602    5322
	3     2718    6367    5370
	3     5540    6542    4755
	3     5357    6576    5358
	3     5356    6576    5355
	3     4883    6643    5315
	3     4884    6644    5316
	3     1303    6794    5958
	3     5361    6560    3324
	3     5363    6561    3192
	3      452    6363    6353
	3     6354    6364     667
	3     5603    6374    5605
	3     6358    6374    5603
	3      453    6363     452
	3      667    6364     666
	3     2219    6361    2211
	3     4143    6358    5669
	3     6021    6740    1529
	3     1528    6741    6022
	3     4243    6542    1359
	3     5371    6368    2719
	3     4235    6538    2171
	3     3937    6365    6359
	3     4542    6735    3475
	3     6117    6359    6347
	3     4155    6551    4154
	3      164    6366     165
	3     5350    6568    5351
	3     4239    6369    4238
	3     5694    6365    3937
	3      462    6525    1721
	3      656    6528    1943
	3     1798    6528     657
	3      159    6531     160
	3     1665    6387    6341
	3     6344    6388    1703
	3     4648    6378    4652
	3     6061    6566    2048
	3     3484    6496    3483
	3      294    6555    1484
	3     1483    6556      83
	3     4143    6374    6358
	3      332    6548     333
	3       44    6549      45
	3     5240    6618    2889
	3     5351    6607    2890
	3     4518    6547    6073
	3     4266    6372    2720
	3      133    6540     134
	3     3376    6600    5504
	3     3244    6601    5505
	3     5494    6572    5496
	3     1742    6539     464
	3     3937    6359    6117
	3     4929    6468    4907
	3     2918    6619    5368
	3     4408    6533    4407
	3     3560    6373    1604
	3     2676    6580    6571
	3     6570    6579    2677
	3     5114    6376    5117
	3     5122    6377    5119
	3     5026    6612    1490
	3     1489    6613    5023
	3     3199    6644    5364
	3     3331    6643    5362
	3     5679    6374    4143
	3     5550    6598    3836
	3     6473    7458    4851
	3     2421    7480    6360
	3     1660    6517    5485
	3     5668    6375    5071
	3     5484    6520    1698
	3     5970    6370    2658
	3     2659    6371    5971
	3      654    6562    1555
	3     5714    6601    2178
	3     5712    6600    2186
	3     3908    6578    4824
	3     1943    6562     655
	3     3950    6578    3910
	3     5941    7500    1443
	3     1444    7501    5946
	3     6369    6914    4332
	3     4554    7408    3948
	3     5011    6594    5010
	3     5498    7497    5045
	3      581    6926    5300
	3      535    6925    5314
	3      627    6924    5307
	3     6588    7321    1905
	3     4207    6610    4202
	3     5838    6532    6085
	3      241    6575    1559
	3     2055    6575     240
	3     2249    6581     466
	3     5077    6594    5053
	3     6606    7404    4699
	3     6781    6888    1448
	3     4401    7099    5470
	3     3172    6582    3175
	3     3304    6583    3307
	3     3110    6672    6483
	3     6482    6671    3108
	3      652    6603    5645
	3      465    6581    1742
	3     4509    7225    6147
	3     6148    7226    4510
	3     3527    6642    5503
	3      109    6595     110
	3      267    6596     268
	3     3529    6529    6189
	3      175    6380    2062
	3     6664    6959    4346
	3     3633    6381    3636
	3     6286    6698    6054
	3     3946    6874    6407
	3     2383    6382    2386
	3     5485    6517    6467
	3     1555    6603     653
	3      438    6608    1447
	3     1446    6609     681
	3      229    6384     230
	3     3868    6635    3952
	3     6242    6652     246
	3     3592    6397    3586
	3     5491    6389    1360
	3     2944    6599    2947
	3     5713    6642    2190
	3     3433    6383    3461
	3     3301    6385    3380
	3     3169    6386    3248
	3     3976    6617    3979
	3     4190    6648    5449
	3     1490    6612     414
	3      705    6613    1489
	3     6466    6520    5484
	3     3576    6393    4801
	3      115    6627    2229
	3     1408    6621     111
	3      266    6622    1739
	3     4851    6701    3993
	3     2135    6627     114
	3      413    6612    1939
	3     1937    6613     706
	3     2844    6390    2841
	3     4612    7216    4365
	3      130    6620     131
	3     4560    7430    7272
	3     4562    7431    7271
	3     4558    7429    7270
	3     5774    6383    1921
	3     5047    6944    5046
	3     3078    7166    6825
	3     3072    7167    6826
	3     1665    6341    6292
	3     6147    7225    1328
	3     1326    7226    6148
	3     4383    6502    4382
	3     6291    6344    1703
	3     5808    6385    1920
	3     5775    6386    1924
	3     6001    6387    1665
	3     1703    6388    6002
	3     4681    6406    4677
	3     1674    6553    2205
	3     3076    6659    4775
	3     2999    6605    2919
	3     3247    6557    6187
	3     3379    6558    6188
	3     4188    6648    4244
	3     1352    6399    1354
	3     4927    6543    5223
	3     6674    6730    4721
	3     2142    6863    4794
	3     4797    6864    2143
	3     2125    6494    5994
	3     5993    6495    2124
	3     2384    7423    4831
	3     3011    7127    6315
	3     6316    7128    3012
	3      388    7355       6
	3       22    7358     731
	3     5456    6344    6291
	3     3586    6397    4866
	3     1342    6717    5980
	3     5979    6718    1343
	3     2228    6665    2465
	3     6292    6341    5459
	3     5251    6411    2711
	3     2710    6412    5247
	3     2734    6665    2226
	3     5356    6739    6603
	3     5595    6654    5666
	3      247    6652    1575
	3     7023    7358    6417
	3     4738    6673    4737
	3      729    6663     728
	3      405    6656     404
	3      715    6657     714
	3      665    6400     664
	3      455    6401     454
	3     5483    6404    4189
	3     5006    6391    6105
	3     6106    6392    5003
	3     5226    6541    4965
	3     4339    6399    1841
	3     1355    6650    5802
	3     5442    6405    2886
	3     4118    6681    4097
	3     5536    6686    3644
	3     4273    7368    3080
	3     3079    7367    4267
	3     4292    7369    3083
	3     4319    7370    3084
	3     6041    6650    6040
	3     5106    7109    3033
	3     4224    6676    4222
	3     4093    6681    4092
	3     3906    6407    5544
	3     5621    6652    6242
	3      620    6660    1514
	3      528    6661    1515
	3      574    6662    1513
	3      702    6402    1421
	3     1422    6403     417
	3     1458    6912    4814
	3     4815    6911    1459
	3     6418    7355    7010
	3     5673    6668    5672
	3     4401    7313    4399
	3     6686    7087    4421
	3      364    6764    6526
	3     6527    6765     750
	3     5896    6838    6208
	3     4276    6685    4277
	3      321    6408     322
	3       55    6409      56
	3     4313    6687    4314
	3     6832    7056    4493
	3     6121    6647    2683
	3     2682    6646    6120
	3     4661    6639    4663
	3     2354    6674    2355
	3      207    6410    2064
	3     6532    7113    6085
	3     1593    7297    5156
	3     5095    7352    2502
	3     2503    7353    5096
	3     3917    6693    3957
	3     1881    6903    4350
	3     6631    7319    4545
	3     6630    7317    4544
	3     6629    7318    4543
	3     2105    6553    1672
	3     4818    7214    2975
	3     4225    6849    6566
	3     3158    6413    3259
	3     3422    6414    3545
	3     3290    6415    3391
	3     3006    6573    6017
	3     6099    6704    3950
	3     2989    6683    5624
	3     5625    6682    2996
	3     3057    7114    5789
	3     3391    7428    4819
	3     3545    7426    4820
	3     3259    7427    4821
	3     5191    7287    1594
	3     5036    7183    3102
	3     3476    7047    4390
	3     6265    6379    4166
	3      127    6692     128
	3     4429    6626    4428
	3     1323    7241    4880
	3     4881    7242    1324
	3     3165    6629    6075
	3     3429    6630    1327
	3     3297    6631    1325
	3     1324    6954    4976
	3     5226    6593    6541
	3     4725    6977    4376
	3     6001    6420    6387
	3     6388    6419    6002
	3      239    6696    2055
	3     1491    6696     238
	3     4828    6651    6442
	3     1423    6697     235
	3     4236    6746    5228
	3     2975    7374    4818
	3     6086    6653    2102
	3     2132    6708    2260
	3     5580    6705    5579
	3     2264    6708    2026
	3     5220    6749    5221
	3     5218    6750    5219
	3     1357    6698    4532
	3     5787    6797    3431
	3     5783    6798    3299
	3     5785    6796    3167
	3     5208    7039    1554
	3     5215    7040    1553
	3     5007    6784    3424
	3     1308    6929    5558
	3     2045    6468    6006
	3     1686    6706    1688
	3     5545    6421    4246
	3     2061    6698    6286
	3     6410    6714    1440
	3     2795    6475    5044
	3     5043    6476    2796
	3     3068    6850    5996
	3     5995    6851    3070
	3     4850    6473    4851
	3     1462    6704     155
	3      427    6428     426
	3      693    6429     692
	3     3074    6945    4627
	3     2981    7475    6994
	3     2701    7186    3116
	3     3118    7184    2300
	3      908    6422     907
	3      945    6423     944
	3      880    6424     879
	3      991    6426     990
	3     1102    6425    1101
	3     1629    6450    5013
	3      853    6427     852
	3     5072    6715    5075
	3     1793    6798    5783
	3     1794    6797    5787
	3     1795    6796    5785
	3     1724    6931    4985
	3     1723    6932    4987
	3     4344    6430    1522
	3     5740    6701    3994
	3     3521    6680    2431
	3     4399    7313    6232
	3     2254    6716     118
	3     3256    7151    6413
	3     3541    7150    6414
	3      119    6716    2328
	3      683    6431     682
	3      716    6457    1726
	3     1725    6458     403
	3     6002    6419    2250
	3     2251    6420    6001
	3     1513    7530    5165
	3     3887    6854    6289
	3     3475    6735    3989
	3      663    6432     662
	3      457    6433     456
	3     1514    7528    5183
	3     1515    7529    5174
	3     4337    6782    4338
	3     1332    6714     205
	3     5535    6883    4362
	3     4389    6496    4640
	3      595    6710    1586
	3      503    6711    1587
	3     3195    6700    3197
	3     5204    6749    3378
	3     5211    6750    3246
	3     6543    6577    5223
	3     1922    6710     596
	3     1941    6711     504
	3     5407    7432    5405
	3     4256    6434    4253
	3     1930    6712     586
	3     1929    6713     494
	3     6390    6950    2839
	3     4481    6722    4410
	3      585    6712    5818
	3      493    6713    5819
	3     4548    6819    4306
	3     6262    6637    2702
	3     2703    6638    6261
	3     5471    6722    6069
	3     2511    6732    2388
	3     5039    7182    1916
	3      560    6725      14
	3     6206    6482    3108
	3     3110    6483    6207
	3     2310    6678     774
	3      345    6679    2309
	3     5496    7525    5497
	3     6212    6865    4333
	3      156    6704    6099
	3     5144    7146    3025
	3     3049    7147    5145
	3     5127    6827    2428
	3     2429    6828    5128
	3     6039    6658    3006
	3     4789    6417    2728
	3     1697    6706    6058
	3      559    6725    2245
	3     3107    6717    2500
	3     2501    6718    3109
	3     4155    7118    4643
	3      549    6723    1589
	3     1622    6439    4818
	3     6007    6456    2046
	3      781    6589    6134
	3     6135    6591     338
	3     1926    6723     550
	3     6693    7032    3957
	3     1582    7257    6019
	3     6020    7258    1583
	3     4699    6451    4698
	3     6346    6806    4325
	3     5105    7109    5106
	3     4936    6633    6590
	3     6592    6632    4974
	3     5300    7398     581
	3     5307    7399     627
	3     5314    7397     535
	3     5133    7281    3065
	3     2260    7492    6266
	3     5253    6524    5857
	3     5464    6444    2461
	3     4406    7422    4408
	3     6432    6446     662
	3      457    6445    6433
	3     4713    7311    6332
	3      179    6437     180
	3     4907    6468    5050
	3      458    6445     457
	3      662    6446     661
	3     3431    6797    3430
	3     3167    6796    3166
	3     3299    6798    3298
	3     3718    6441    3720
	3     1362    6738    4247
	3     5533    6442    3907
	3     2693    6435    2695
	3     2689    6436    2687
	3     5560    6438    5561
	3     5651    6738    5650
	3     5564    6440    5563
	3      153    6443     154
	3     2058    6654    6090
	3     5644    6733    2249
	3     6660    6981    5187
	3     6661    6982    5178
	3     6662    6983    5169
	3     4414    6444    4415
	3     1928    6731     540
	3      539    6731    5817
	3     6276    6846    4839
	3     3922    6743    5630
	3      124    6737     125
	3     4551    6774    4817
	3     4935    6633    4936
	3     4974    6632    4973
	3      212    6447     213
	3     7004    7389    3366
	3     3308    6448    3306
	3     3176    6449    3174
	3      108    6740     109
	3      268    6741     269
	3     6135    6632    6592
	3     6590    6633    6134
	3     5753    6743    5752
	3     2881    6747    2877
	3     4316    6837    4317
	3     5549    6762    5550
	3     3950    6781    6099
	3     6397    6546    3630
	3     6419    6466    2250
	3     2251    6467    6420
	3     4765    7455    2154
	3     2416    6702    6031
	3     6032    6703    2417
	3     5225    6593    5226
	3     4511    6457    4523
	3     4522    6458    4512
	3      387    6418     386
	3     4575    6657    4574
	3     4576    6656    4577
	3     2963    7298    4890
	3      767    6417     766
	3     5045    6795    3791
	3     2059    6758     166
	3      167    6758    1308
	3      425    6452     424
	3      695    6453     694
	3      437    6454     436
	3     2142    6770     309
	3       68    6771    2143
	3      310    6770    1445
	3     1392    6771      67
	3     6203    6668    4555
	3     5085    7327    3105
	3      562    6759    1556
	3     1935    6759     563
	3     6403    7179     416
	3      703    7178    6402
	3     5244    6459    2827
	3     2897    6460    5248
	3      249    6766    6175
	3      805    6455     804
	3      162    6761     163
	3     4794    6671    6482
	3     6483    6672    4797
	3     1575    6766     248
	3     3005    7071    4762
	3     4789    7023    6417
	3     2727    6418    4791
	3     5773    7488    5274
	3     5771    7489    5286
	3      561    6776     560
	3     4835    7377    3530
	3     6418    7010    4791
	3     4998    6461    1756
	3     6648    7295    4602
	3     5223    6577    5222
	3     2921    6752    2923
	3     5371    7264    6368
	3     4360    6775    4476
	3     3912    6781    3950
	3     1449    6774     220
	3     4279    7232    5539
	3     4428    6626    4431
	3     6175    6766    5998
	3     6367    7265    5370
	3     2405    6803    2510
	3      647    6786     646
	3     6281    6499    4380
	3     4381    6500    6280
	3     3454    6773    3458
	3      100    6462     101
	3      276    6463     277
	3     1085    6464    2289
	3     1333    6465     173
	3     4323    6469    4321
	3     3424    6784    3426
	3     3483    6496    4169
	3     5558    7089    1308
	3     4222    6536    1370
	3     1743    6780     648
	3     5772    7498    5262
	3     5045    7497    6225
	3     4926    6616    5089
	3     3916    6721    3474
	3     6266    7492    4354
	3     5048    6870    3951
	3     5023    6827    5021
	3     5024    6828    5026
	3     6208    6838    1581
	3     4237    6820    4001
	3     4874    6911    2972
	3     2971    6912    4875
	3     7367    7516    4267
	3     4273    7515    7368
	3     4319    7517    7370
	3     1358    6847    5317
	3     2510    6818    2403
	3     1435    6682    5987
	3     5986    6683    1436
	3     5049    7195    2721
	3     2411    7010     389
	3     2400    6818    2401
	3      460    6471     459
	3     5262    7498    5261
	3      660    6472     659
	3     2250    6466    5892
	3     5893    6467    2251
	3      474    6810     473
	3     4990    6728    4989
	3     1472    6470    4455
	3     3899    6816    3897
	3     6190    6456    4945
	3     4964    6624    5225
	3      730    7023    2410
	3     6577    6625    5222
	3     5286    7489    5285
	3     5274    7488    5273
	3      472    6799    1933
	3     6375    7361    5676
	3     5293    6949    3542
	3     5225    6624    6593
	3     3435    6784    6053
	3     1769    6477     566
	3     6407    6874    1401
	3     2886    7448    2883
	3     2052    6889    5735
	3     5738    6890    2053
	3     3579    6756    6700
	3     1351    6832    4163
	3     3617    7201    6423
	3     5027    6585    5028
	3     4221    6822    5715
	3     6289    6854    4418
	3     5684    7105    1559
	3     4804    6477    3540
	3     5233    6484    2960
	3     6681    6939    4092
	3     2357    6655    2356
	3     4973    6579    6570
	3     6571    6580    4935
	3      279    6667     280
	3       97    6666      98
	3     6038    6751    2255
	3     1584    6953    6041
	3     3999    6478    4249
	3     3493    7208    1465
	3     5978    7288    2180
	3     5977    7289    2188
	3     5976    7290    2184
	3     6403    7282    5342
	3     5343    7281    6402
	3     2948    6829    2952
	3     3564    6873    3565
	3     5021    6827    2793
	3     2794    6828    5024
	3     7410    7459    4438
	3     5269    6486    5272
	3     5281    6487    5284
	3      460    6493    6471
	3     6472    6492     659
	3      644    6836     643
	3     5958    6794    4684
	3     5222    6625    4926
	3     1433    6844     292
	3       85    6845    1434
	3     4182    6847    4184
	3     2707    6815    2708
	3      659    6492     658
	3     2760    6479    4761
	3     4760    6480    2765
	3      461    6493     460
	3     1722    6824     645
	3     1318    6647    5981
	3     5982    6646    1315
	3     5857    6524    1802
	3     4403    6735    4542
	3     1038    6489    1037
	3     1046    6490    1045
	3     1009    6491    1008
	3     2041    6916    6637
	3     6638    6917    2040
	3     6115    6792    3088
	3     3086    6791    6116
	3     4682    6794    4695
	3     2731    6494    3095
	3     3089    6495    2729
	3     2759    6985    4535
	3     4536    6986    2764
	3     6369    7022    4238
	3     4338    6782    6506
	3     4989    6728    1413
	3     5088    6628    4964
	3     4500    7200    6583
	3     4499    7199    6582
	3     4431    6694    4430
	3     4899    7460    3160
	3     4900    7461    3292
	3       98    6842      99
	3      278    6843     279
	3     6580    6633    4935
	3     4973    6632    6579
	3     2887    6505    5321
	3     1514    6839     619
	3     1515    6840     527
	3     1513    6841     573
	3     3847    6870    3884
	3     1454    6863     307
	3       70    6864    1430
	3      308    6863    2142
	3     2143    6864      69
	3     3951    6870    3849
	3     3977    7240    3975
	3     4373    7456    4372
	3     1651    6793    5827
	3     4386    6502    4383
	3     5534    6883    5535
	3     2611    6497    2754
	3     2755    6498    2568
	3     1537    6856     105
	3      272    6857    1538
	3     6396    7156     383
	3      284    6503     285
	3       92    6504      93
	3     2049    6846    6276
	3      218    7077    6330
	3      601    6871     600
	3      509    6872     508
	3     1840    6651    4828
	3     3481    6909    2374
	3     4298    6795    5045
	3     4605    6883    1353
	3     4834    6509    3550
	3     2715    6482    6206
	3     6207    6483    2717
	3     4334    7316    4494
	3     2677    6579    6101
	3     6102    6580    2676
	3     5305    6878    5302
	3     5312    6879    5309
	3     5298    6880    5295
	3     2902    6508    2900
	3     2830    6507    2832
	3     4272    6611    6485
	3      498    6884     497
	3      590    6885     589
	3     3969    6888    3940
	3     2739    7429    5978
	3     2747    7430    5976
	3     2751    7431    5977
	3     6053    7522    6768
	3     2505    6935    2208
	3     2207    6934    2504
	3     4611    7315    3618
	3     5796    6772     243
	3     2065    7234    5612
	3     3368    6512    5412
	3     3236    6513    5410
	3     6334    7238     518
	3     6333    7237     610
	3      102    6889    2052
	3     2053    6890     275
	3     5129    7392    4576
	3     4574    7391    5130
	3     6248    6803    2678
	3      717    7356    6457
	3     6458    7357     402
	3     2106    6886    4838
	3     3031    6510    3035
	3     3059    6511    3055
	3     5599    6902    5639
	3     3979    6918    3981
	3      544    6906     543
	3     2883    7448    6275
	3     2712    6515    2795
	3     2796    6516    2713
	3     5195    6518    5194
	3     4925    6517    4927
	3     5274    6992    5773
	3     5286    6993    5771
	3     2460    7285    4831
	3     6768    7522    1713
	3     1301    7222    4822
	3     6522    7507    4444
	3     5257    6519    5260
	3     1588    6905     640
	3     5558    6929    5057
	3      582    6926     581
	3      628    6924     627
	3      536    6925     535
	3     5055    6929    5077
	3     4965    6520    4963
	3      479    6907    1585
	3     5291    7053    2976
	3     4893    7192    3072
	3     4894    7191    3078
	3     4210    6959    5490
	3     3530    7377    4852
	3      639    6936     638
	3     2766    7400    4892
	3     4891    7401    2767
	3      591    6940     590
	3      499    6941     498
	3      481    6942     480
	3     6467    6517    4925
	3     4720    6791    1536
	3     1535    6792    4723
	3     4690    6524    5253
	3     4710    7031    5217
	3     4524    6850    5911
	3     5912    6851    4525
	3     4963    6520    6466
	3     5354    7016    3531
	3     5200    6523    5201
	3     4306    6745    4304
	3     3914    6691    3903
	3     3122    7079    3123
	3     4639    7389    7004
	3     6259    7141      48
	3      329    7140    6258
	3     4964    6628    6624
	3     3300    6933    3388
	3     7267    7378    2783
	3     1331    7464    6452
	3     2784    7379    7268
	3     5199    7012    3010
	3      545    6948     544
	3     6453    7465    1390
	3     5075    6715    6380
	3     2046    6954      52
	3       53    6954    1324
	3     3160    6947    4899
	3     3292    6946    4900
	3     3969    7027    6888
	3      463    6525     462
	3     3555    7088    1577
	3      657    6528     656
	3      612    6931    1724
	3      520    6932    1723
	3     6413    7151    3625
	3     6414    7150    3622
	3     6080    6882    3522
	3     5297    7024    5300
	3     5311    7025    5314
	3     5304    7026    5307
	3     6056    6846    2049
	3     1715    7055    4803
	3     1549    6953     197
	3     2078    7363    6991
	3      364    6526     363
	3      751    6527     750
	3     4926    6625    6616
	3     2502    7352    6590
	3     6592    7353    2503
	3     3651    6530    3653
	3     4938    7011    1323
	3     5138    6812    6524
	3     2327    6522    6038
	3     3953    6694    5092
	3      160    6531    1478
	3     3798    7006    5466
	3     3127    6950    6390
	3     5197    6952    2967
	3     4971    6614    5088
	3     5092    6597    2047
	3       26    7197    5042
	3     2825    6985    2642
	3     2643    6986    2826
	3     5232    7100    5233
	3      482    6970    1511
	3     5320    7070    3122
	3     2465    7063    3481
	3     4621    6999    4622
	3     6719    7336    4670
	3     2992    6967    5625
	3      508    6987     507
	3      600    6988     599
	3     2965    6532    5838
	3     2976    7030    3007
	3     1268    6535    1267
	3     5624    6966    2985
	3     3007    7020    5193
	3     1547    6984     181
	3     6082    6920    3239
	3     6081    6921    3371
	3     5318    6577    6543
	3     1509    6979     637
	3     1793    7026    6798
	3     1795    7025    6796
	3     1794    7024    6797
	3     6041    7305    1584
	3     5262    7009    5772
	3      463    6539    6525
	3      484    7003     483
	3     1568    6981     622
	3     1566    6982     530
	3     1567    6983     576
	3     6589    6590    6134
	3     6135    6592    6591
	3     3855    7019    3856
	3     6003    6529    3529
	3     4482    7164    5148
	3     4483    7165    5149
	3     3519    6545    5414
	3      198    6953    1584
	3      464    6539     463
	3      325    7011    2045
	3     1323    7011     324
	3     2906    6544    2904
	3     2061    7002     202
	3      636    7008     635
	3     3101    7182    5039
	3     6541    6593    5319
	3     1595    6540     133
	3     5773    6992     593
	3     5771    6993     501
	3      592    6992    1507
	3      500    6993    1508
	3     1359    6542    5540
	3     4492    7202    5147
	3      333    6548    1842
	3     1843    6549      44
	3     1698    6541    5319
	3      386    2727     385
	3      768    2728     767
	3     5318    6543    1660
	3     4637    7465    5383
	3     4076    7211    6195
	3     3103    6550    2961
	3     5209    6833    5206
	3     5216    6834    5213
	3     4127    7066    5499
	3     6497    7441    4583
	3     4584    7442    6498
	3     4519    6547    4518
	3     2888    6552    3104
	3     2896    6956    5367
	3     6175    6968    1519
	3     3476    7255    4171
	3     5772    7009     547
	3      546    7009    1506
	3     5930    6958    2755
	3     2754    6957    5931
	3     4099    7064    4118
	3     3591    6564    4766
	3     5777    7033    4248
	3     3043    7000    3045
	3     3021    7001    3019
	3     4154    6551    2169
	3     4233    7028    1440
	3     6208    6773    3453
	3     4973    6570    4971
	3     4933    6571    4935
	3     5382    7464    4636
	3     7079    7094    3123
	3     6181    6965    5381
	3     5326    7204    5325
	3     4763    7091    3004
	3      485    7021    1569
	3      158    7027     159
	3      555    7046    5811
	3     4262    6823    6307
	3      556    7046     555
	3     3539    7204    4804
	3     3067    6499    6281
	3     6280    6500    3069
	3     6307    6823    4173
	3     4537    6585    5027
	3     3062    7076    5046
	3     6258    7140    4937
	3     4975    7141    6259
	3     6159    6944    2264
	3     4721    6730    4720
	3     2464    7261    5099
	3     1423    7098    5600
	3      113    7057    2135
	3     2134    7058     264
	3     4449    6755    6751
	3     1554    7039     603
	3     1553    7040     511
	3     5470    7099    5469
	3     2108    7014    1940
	3      602    7039    1931
	3      510    7040    1932
	3     5849    7015    2109
	3     5380    6955    6182
	3     2309    7479    7348
	3     3324    6560    3323
	3     3192    6561    3191
	3     5401    7424    5403
	3       83    6556      84
	3      293    6555     294
	3     4376    6977    4375
	3     7112    7126    6078
	3     2870    7051    2866
	3     6357    6793    4656
	3      655    6562     654
	3     6183    7088    3555
	3     6384    6902    1304
	3     6815    7477    2708
	3     1927    7059     632
	3     2856    7055    2854
	3     4728    6830    1772
	3     1773    6831    4727
	3     1792    7062     487
	3     2053    7341    5738
	3     2063    7361    6375
	3     2686    6655    2357
	3     5025    7179    6403
	3     6402    7178    5022
	3     1580    7113    6532
	3     1913    6577    5318
	3     5735    7342    2052
	3      913    6563     912
	3     2976    7053    7030
	3     1477    7077     217
	3     5360    6568    5350
	3     1454    7293    6671
	3     6672    7294    1430
	3     1755    6963    5915
	3     1753    6964    5913
	3     3007    7030    7020
	3     6670    6734    6669
	3     1422    7282    6403
	3     6402    7281    1421
	3     5529    7118    4116
	3     3592    7433    6546
	3     1486    6634    4993
	3     3530    7049    3528
	3     3106    7328    5083
	3     6004    6557    3247
	3     6005    6558    3379
	3     3942    7102    3969
	3     6195    7211    4477
	3     4131    7118    4155
	3     6330    7077    5673
	3     6078    7126    2054
	3     4268    7516    6489
	3     6490    7515    4274
	3     6491    7517    4320
	3     3129    7332    3128
	3     3393    7333    3392
	3     3261    7331    3260
	3     1308    7089     168
	3     4763    7017    5688
	3     5689    7018    4762
	3      169    7089    2063
	3     1307    7140     328
	3       49    7141    1306
	3     7070    7079    3122
	3     1941    7143    6711
	3     1922    7142    6710
	3     5796    7105    4242
	3     1541    7390    1252
	3     6199    6570    2677
	3     2676    6571    6198
	3      630    7082    1752
	3      572    6841    6304
	3      618    6839    6305
	3      526    6840    6306
	3      211    7103    2060
	3     3778    6572    5494
	3     1320    7103     210
	3     1672    6553    1674
	3     5319    6593    1412
	3     5756    7108    3888
	3     1754    6980    5914
	3     4125    7211    4078
	3      782    6589     781
	3      338    6591     337
	3     4735    7045    3581
	3     2229    6565    6037
	3     4754    6927    6729
	3     3845    7232    5527
	3     3249    7072    3245
	3     3381    7073    3377
	3     2391    7261    2363
	3     5233    7082    7059
	3     2040    6917    6065
	3     6063    6916    2041
	3     2304    6574    1130
	3     2293    7261    2464
	3     5355    6576    5357
	3     2048    6566    1455
	3     2381    7423    2384
	3     5089    6615    4933
	3     5741    7115    5742
	3     5744    7116    5743
	3     1280    6573    1279
	3     2663    7170    2662
	3     4856    7376    3249
	3     4857    7375    3381
	3     2664    7171    2665
	3      134    7132     135
	3      300    7520     301
	3       76    7519      77
	3      215    7130     216
	3     5697    7105    5684
	3     2460    7423    2379
	3     1493    7139     140
	3     6439    6720    4504
	3     1792    7070    7062
	3      240    6575     241
	3     6109    7121    7094
	3     4540    7439    3966
	3     5755    7120    5756
	3      714    7148     713
	3      406    7149     405
	3     3964    7246    5087
	3     6046    7169    3466
	3     3910    6578    3908
	3     3618    7315    2081
	3     1584    7305    1442
	3      728    7457     727
	3     1467    7276      75
	3      302    7277    1468
	3      466    6581     465
	3      323    7241    1323
	3     1324    7242      54
	3     3253    7180    7060
	3     3385    7181    7061
	3     1443    7500      94
	3      283    7501    1444
	3     7126    7131    2054
	3     1505    6666      97
	3      280    6667    1395
	3     5698    7400    2766
	3     2767    7401    5699
	3      383    7156       3
	3       25    7157     770
	3     2858    7136    2856
	3     4471    7256    4469
	3        3    7156     348
	3      771    7157      25
	3     2979    6994    6248
	3     2054    7131    6079
	3     5739    7172    5721
	3     5722    7207    3905
	3     3072    7192    2749
	3     3078    7191    2737
	3      237    7215    1491
	3     2184    7474    2114
	3     2180    7472    2110
	3     2188    7473    2116
	3     3171    6582    3172
	3     3303    6583    3304
	3     1489    7178     704
	3      415    7179    1490
	3     1684    7250    1686
	3     5622    7054    5620
	3     5557    7361    5558
	3      141    7205     142
	3     4754    7402    1570
	3     6137    7037    2103
	3      195    7218     196
	3      222    7228    1463
	3     5720    7269    3961
	3     5924    7477    6813
	3     1378    6913    6469
	3      183    7275    1806
	3     1322    7234     227
	3      228    7234    2065
	3     5686    7305    6041
	3     5219    7238    6334
	3     5221    7237    6333
	3      535    7397     534
	3      581    7398     580
	3      627    7399     626
	3     4751    7065    3582
	3      110    6595    1408
	3     1739    6596     267
	3     1135    6586    1134
	3      950    6587     949
	3     3836    6598    5537
	3     2330    6817    6434
	3     5337    6602    2962
	3        8    7225    1314
	3     1313    7226      20
	3     6225    7497    4398
	3     1560    7120    7112
	3     5041    7194       2
	3      107    7329    1529
	3     1528    7330     270
	3     5053    6594    5011
	3     4557    7385    3962
	3     5937    6666    1505
	3     1395    6667    5942
	3     3292    7461    3294
	3     3160    7460    3162
	3     1560    7112    6078
	3     7120    7132    5756
	3      609    7237    1746
	3      517    7238    1745
	3     6112    7174    7144
	3     6073    7152    5710
	3     4758    7468    4287
	3     2890    6607    2891
	3     1924    7463     522
	3     1920    7462     614
	3     2466    7038     347
	3     4858    6600    3376
	3     4860    6601    3244
	3      203    7386     204
	3      772    7041    2467
	3     6136    6653    3492
	3     4347    6962    6430
	3      653    6603     652
	3     2963    6779    5926
	3     6044    7142    4506
	3     6045    7143    4507
	3     3115    7170    2829
	3     1926    7169    6723
	3     2966    6875    5338
	3     2937    7346    2941
	3     6109    7094    5826
	3     7021    7062    5321
	3     2958    7214    4504
	3     2954    7485    2956
	3     4254    6604    4256
	3     2959    6599    2944
	3      439    6608     438
	3      681    6609     680
	3     6169    6834    5216
	3     6170    6833    5209
	3     4245    7373    5795
	3     1913    6625    6577
	3     2047    6597    6062
	3     4643    6939    4750
	3      414    6612     413
	3      706    6613     705
	3     3309    7452    3311
	3     3177    7451    3179
	3     5738    7341    5765
	3     4202    6610    4215
	3     3040    7209    3043
	3     3019    7210    3016
	3     5766    7342    5735
	3      797    6611     796
	3     1594    7287     709
	3     2919    6605    2921
	3      410    7297    1593
	3     2889    6618    5331
	3     5978    7429    7288
	3     5977    7431    7289
	3     5976    7430    7290
	3     2692    6674    6237
	3     3445    7362    3460
	3     2901    7298    2963
	3     6593    6624    1412
	3     1600    7356     718
	3      401    7357    1601
	3     6286    7002    2061
	3     5324    6619    2918
	3     4385    7343    4477
	3     6112    7144    3534
	3     2051    6788    6055
	3     1406    6616    6089
	3     6114    7417    3968
	3     4348    6787    2286
	3     5715    6849    4225
	3     4627    6945    2197
	3     5160    6877    2895
	3     3947    6651    3949
	3     4691    6812    5138
	3     4583    6922    1572
	3     1574    6923    4584
	3     3973    6617    3976
	3     6118    6857    5903
	3     6614    6628    5088
	3     3189    7088    6183
	3     6110    7180    3252
	3     6111    7181    3384
	3     5907    6856    6123
	3     4749    7007    2279
	3     1576    6620     130
	3     4588    7176    5898
	3     5899    7175    4586
	3     6096    7458    6095
	3     5242    6901    2966
	3     3492    6653    4664
	3     5089    6616    6615
	3     4384    6623    4463
	3     5140    7043    1808
	3     1807    7044    5141
	3     6237    6674    4721
	3      111    6621     112
	3      265    6622     266
	3     6101    6579    2067
	3     2066    6580    6102
	3     6111    7198    7181
	3     6616    6625    6089
	3     2895    6904    5243
	3     2768    7441    6012
	3     6013    7442    2769
	3     3487    7177    2458
	3     6199    6614    6570
	3     6571    6615    6198
	3     2137    6628    1727
	3      114    6627     115
	3     4434    6626    4429
	3     6060    7278    6061
	3     2171    6538    6307
	3     2328    7104    6057
	3     3249    7376    4864
	3     3381    7375    4865
	3     5666    7354    5599
	3     1374    6606    6083
	3     3536    7144    7035
	3     4246    7219    5904
	3     6624    6628    2137
	3     6086    6978    6653
	3     3066    7282    5136
	3     5316    6644    3199
	3     5315    6643    3331
	3     6457    7356    4523
	3     4522    7357    6458
	3      243    6772     244
	3     5904    7219    1597
	3     4477    7343    6195
	3     5497    7525    6778
	3     1412    6624    2137
	3     6089    6625    1913
	3     6399    6506    1354
	3     3584    7508    3583
	3     4539    6635    3868
	3     1408    7115    5824
	3     5825    7116    1739
	3     3365    7198    6111
	3     4724    6641    1741
	3     1327    6630    5952
	3     6075    6629    5950
	3     1325    6631    5948
	3     5535    6900    4153
	3     4267    7516    4268
	3     4274    7515    4273
	3     4320    7517    4319
	3     6615    6616    1406
	3     5555    7246    3964
	3     2894    6858    5160
	3     5708    7484    3632
	3     6526    7466    1465
	3     4467    7161    6829
	3     6278    7485    2954
	3     6315    7129    3008
	3     2702    6637    2973
	3     2974    6638    2703
	3     4876    6642    3527
	3     4353    7492    5047
	3     5552    7518    4207
	3     5449    6648    4188
	3     5329    6848    2894
	3     4514    7254    4515
	3     5338    6855    5336
	3     2968    6739    5356
	3     1631    7197      26
	3     1727    6628    6614
	3     6597    6694    4431
	3        2    7194    1670
	3     4339    6506    6399
	3     5955    6639    4661
	3     6055    7507    2327
	3     3171    7460    4872
	3     3303    7461    4873
	3     2431    6680    5354
	3     4133    6775    3488
	3     2893    6783    5240
	3     5330    6835    5329
	3     3159    6947    3160
	3     3291    6946    3292
	3      882    6649    2700
	3     5368    6767    2964
	3     5996    6850    1427
	3     1428    6851    5995
	3     2966    6901    6875
	3     1727    6614    6199
	3     6198    6615    1406
	3     4431    6790    6597
	3     6570    6614    4971
	3     4933    6615    6571
	3     5339    6769    2893
	3     2964    6753    2968
	3     5774    6859    6383
	3     2683    6647    5866
	3     5867    6646    2682
	3     5808    6860    6385
	3     5775    6861    6386
	3     1747    6684    5048
	3     2929    7351    2949
	3     6877    6904    2895
	3      131    7206     132
	3      246    6652     247
	3      708    7287    6264
	3     4772    6811    6709
	3     6270    7297     411
	3     5322    6814    5323
	3     4239    7247    4816
	3     6040    6650    1355
	3     3009    7135    6316
	3     5597    6654    5595
	3     4551    7228    6774
	3     2891    6754    5339
	3     5905    6720    2738
	3     2067    6632    6135
	3     6134    6633    2066
	3     3516    7174    6112
	3     4514    7309    7254
	3     6383    6859    3461
	3     6385    6860    3380
	3     6386    6861    3248
	3     6452    7464    4528
	3     1651    7153    6793
	3     4529    7465    6453
	3     2102    6653    6136
	3     1279    6658    1278
	3     4629    7526    4479
	3     4478    7527    4628
	3      621    6660     620
	3      529    6661     528
	3      575    6662     574
	3      404    6656    1725
	3     1726    6657     715
	3     5966    7236    6808
	3     6807    7235    5965
	3     6506    6782    1354
	3     2072    6670    6669
	3     5950    7133    3168
	3     5952    7134    3432
	3     6858    6877    5160
	3     2410    6663     729
	3     2226    6665    2228
	3     2249    6733    6607
	3     5968    7229    2936
	3     4345    6664    4346
	3     2968    6753    6739
	3      336    7304       1
	3        0    7303      41
	3     4285    6862    2735
	3     3327    7048    5146
	3     6579    6632    2067
	3     2066    6633    6580
	3     2072    6669    3629
	3     5727    6666    5937
	3     5942    6667    5732
	3     2356    6655    6501
	3     3972    6930    3974
	3     2743    7447    5975
	3     6848    6858    2894
	3     6521    6816    3899
	3     4737    6673    4811
	3     5916    7122    5711
	3     1805    7227     194
	3     5611    6902    6384
	3     6225    7481    4297
	3     4839    7459    7410
	3     5228    6746    6421
	3     3108    6671    3107
	3     3109    6672    3110
	3      774    6678     773
	3      346    6679     345
	3     5314    6925    5313
	3     5300    6926    5299
	3     5307    6924    5306
	3     7122    7160    5711
	3     5338    6875    6855
	3     2736    7191    6308
	3     2748    7192    6310
	3     2964    6767    6753
	3     4752    6676    4224
	3     1373    6677    1372
	3     5868    7309    4514
	3     2355    6674    2692
	3     1440    7028    6410
	3     6733    6754    2891
	3     6835    6848    5329
	3     4886    6721    3916
	3     2255    6755    6036
	3     6664    7299    5491
	3     6654    7098    6090
	3     4366    7219    6421
	3     2738    6720    4898
	3     3644    6686    3485
	3     1318    6938    6647
	3     6646    6937    1315
	3     6754    6769    5339
	3     4097    6681    4093
	3     4277    6685    4280
	3     4403    7033    6735
	3     6080    7292    6882
	3     4314    6687    4318
	3     2996    6682    4381
	3     4380    6683    2989
	3     5566    6801    2756
	3     2761    6800    5567
	3     2052    7342    6076
	3     6077    7341    2053
	3     6769    6783    2893
	3     1720    6680    5829
	3     5464    6909    6444
	3     2176    7121    6109
	3     6444    6909    4415
	3     6221    7239    2134
	3     3599    6734    3598
	3     6081    7323    6921
	3     6082    7322    6920
	3     6147    7080    3002
	3     4294    7468    4758
	3     2121    6695    5126
	3     5672    6668    6203
	3     1435    7383    6682
	3     6683    7382    1436
	3     4387    6691    1474
	3     6456    7212    4967
	3     5567    6800    5616
	3     6084    6675    1415
	3     5711    7160    2182
	3     1518    6692     127
	3     2126    7111    6059
	3     4502    7364    5868
	3     2448    7510    3619
	3     3624    7512    2446
	3     3627    7511    1904
	3     3621    7513    2445
	3     1906    7514    4255
	3     4302    6760    4308
	3      195    7227    5803
	3     4985    6931    4986
	3     4987    6932    4988
	3     6619    6780    1743
	3     5544    6693    3917
	3     1388    7032    6693
	3     5617    6801    5566
	3     3003    7084    6148
	3     7160    7196    2182
	3     3481    7063    6909
	3     5039    7123    2977
	3     2136    7129    6315
	3     6813    7477    4733
	3     1328    7080    6147
	3     2837    6950    4833
	3     3785    6869    3486
	3     4774    7239    6221
	3     3369    7251    4764
	3     5206    6833    5205
	3     5213    6834    5212
	3     4453    7095    1479
	3     1394    7096    4454
	3     3013    7043    5140
	3     5141    7044    3037
	3      244    6772    1596
	3     2125    7274    6494
	3     6495    7273    2124
	3     5146    7469    3327
	3      238    6696     239
	3     1933    6799    6618
	3     4764    7251    3593
	3     3233    6802    6110
	3     6462    6889     101
	3      276    6890    6463
	3     5924    6813    4689
	3     3548    6752    1836
	3      235    6697     236
	3     5868    7364    7309
	3     4398    6778    4397
	3     4368    7302    4369
	3     4394    7006    3477
	3     1769    6949    6477
	3     4502    7421    7364
	3     2309    7348    6084
	3     6602    6824    1722
	3     4278    6910    4275
	3     6273    6911    4874
	3     4875    6912    6274
	3     5107    7168    5106
	3     6148    7084    1326
	3     1109    6699    1108
	3     4393    7006    4394
	3     1545    6688    6216
	3     1546    6689    6217
	3     1544    6690    6218
	3     5233    7059    6484
	3        1    7304     782
	3      337    7303       0
	3     6550    6905    1588
	3     6389    6727    1409
	3     5276    7488    1586
	3     5288    7489    1587
	3     3325    7048    3327
	3     6054    6698    1357
	3     6316    7135    2138
	3     5923    6910    4278
	3     1585    6907    6552
	3     4504    7214    6439
	3     6518    6979    1509
	3     2182    7196    5905
	3     1511    6970    6523
	3     3993    6701    5740
	3     6477    6949    3540
	3     4491    6700    3195
	3     5491    7299    6389
	3      155    6704     156
	3     4872    7460    4899
	3     4873    7461    4900
	3     1569    7021    6505
	3     5583    6705    5580
	3     6484    7059    1927
	3     3460    7362    6450
	3     6116    6702    2416
	3     2417    6703    6115
	3     4669    6719    4670
	3     4867    6962    4215
	3     2449    7201    3617
	3     5421    7017    4763
	3     4762    7018    5423
	3     1688    6706    1697
	3     6430    6962    4867
	3     6480    7276    1467
	3     1468    7277    6479
	3     2072    7420    6670
	3     2026    6708    2132
	3     5747    7505    1919
	3     1915    7506    5750
	3     4191    6623    6470
	3      596    6710     595
	3      504    6711     503
	3      586    6712     585
	3      494    6713     493
	3     6854    7439    1485
	3      205    6714     206
	3     6722    7159    4410
	3     3329    6757    3332
	3     3197    6756    3200
	3     5926    6779    6290
	3     5076    6715    5072
	3     3965    7421    4502
	3     3959    7032    4882
	3     6556    6845      84
	3      293    6844    6555
	3     5323    6814    5324
	3     6505    7021    5321
	3     5577    6728    4990
	3     6457    7391    1726
	3     1725    7392    6458
	3      118    6716     119
	3     6524    6812    1802
	3     6408    7241     322
	3       55    7242    6409
	3     4261    6823    4262
	3     3969    7102    6531
	3     6597    6790    6062
	3     2259    6722    5471
	3     4280    7232    4279
	3     4929    7213    6468
	3     2500    6717    5972
	3     5973    6718    2501
	3      550    6723     549
	3     6389    7299    6727
	3     4750    6939    6681
	3     3598    6734    3601
	3     3327    7469    3329
	3     6540    7108    5756
	3     5470    7313    4401
	3     6600    6963    5504
	3     6601    6964    5505
	3     4185    6724    5547
	3     4322    6727    4323
	3       14    6725     559
	3     4437    7104    4441
	3     4001    6820    6478
	3     6547    7139    1493
	3     5013    7362    3443
	3     6196    6996    4489
	3     2428    6736    5151
	3     6649    7154    2700
	3     6430    7437    1522
	3     4641    6726    4370
	3     5195    6979    6518
	3     3074    7491    4853
	3     2459    6729    3494
	3     1439    7050     214
	3     6857    7330    5903
	3     5904    7247    4239
	3     5907    7329    6856
	3     5264    7498    1589
	3     5654    7486    3965
	3     5528    6962    4347
	3      128    7366     129
	3     5789    7106    1510
	3      540    6731     539
	3     5683    7067    6265
	3     6566    6849    1455
	3     4691    7078    6812
	3     1615    7248    5493
	3     2388    6732    2680
	3     5331    6835    5330
	3     3989    6735    5513
	3     5153    6742    2429
	3     4511    7391    6457
	3     6458    7392    4512
	3     4624    6869    3491
	3     1413    6728    2057
	3     5794    6733    5644
	3     5742    7115    6595
	3     6596    7116    5744
	3     2310    7478    6678
	3     6679    7479    2309
	3     1751    6737     124
	3     4842    7263    1380
	3     1379    7262    4846
	3     6523    6970    5201
	3     3965    7486    7421
	3     1529    6740     108
	3      269    6741    1528
	3     5650    6738    1362
	3     4447    6788    4446
	3     5106    7168    6239
	3     6151    7419    4694
	3     5645    6739    2246
	3     3389    7445    5818
	3     3257    7446    5819
	3     6031    6730    2354
	3     1754    7476    6980
	3     6620    7207    5722
	3     6434    7444    2330
	3     4304    6760    4302
	3     1882    6744     891
	3     6642    6980    5503
	3     6529    7334    3596
	3     6342    7302    4368
	3     5752    6743    3922
	3     3378    6749    5220
	3     3246    6750    5218
	3     4366    6746    1302
	3     2877    6747    2876
	3     4712    7266     349
	3     5794    6754    6733
	3     6290    6779    1628
	3     4271    6811    4772
	3     6739    6753    2246
	3     5031    7335    5030
	3     6380    6715    2062
	3     5811    7046    4710
	3      386    6418    2727
	3     2728    6417     767
	3     4537    7496    6585
	3     6585    7496    4226
	3     2975    7485    5032
	3     3491    6869    3785
	3      563    6759     562
	3     2246    6753    5799
	3     1753    7446    6964
	3     1755    7445    6963
	3      166    6758     167
	3     5678    7002    6286
	3     2284    6755    4449
	3     6558    7360    3595
	3     6557    7359    3594
	3     6064    7259    6063
	3     6065    7260    6066
	3     1398    6754    5794
	3     2502    6590    6589
	3     6591    6592    2503
	3     6692    7385    4557
	3      163    6761    1438
	3     3896    6762    5549
	3     6715    6899    2062
	3      834    6768    1713
	3     2611    7441    6497
	3     6498    7442    2568
	3     6223    7123    5039
	3     6494    7274    3095
	3     3089    7273    6495
	3     1586    7488    5773
	3     1587    7489    5771
	3     6643    6988    5362
	3     6644    6987    5364
	3     4329    7455    4765
	3     3103    6905    6550
	3      365    6764     364
	3      750    6765     749
	3     6659    7291    2200
	3     6647    6938    5866
	3     5867    6937    6646
	3     3546    7448    4878
	3      248    6766     249
	3     6753    6767    5799
	3     4633    7378    7267
	3     7268    7379    4634
	3     4397    6778    4400
	3     4092    6939    5529
	3     6552    6907    3104
	3     3067    7344    6499
	3     6500    7345    3069
	3     2783    7378    5290
	3     1398    6769    6754
	3     5292    7379    2784
	3      309    6770     310
	3       67    6771      68
	3     4999    7101    3578
	3     5936    6763    3321
	3     4391    7255    4390
	3     2229    6748    6565
	3     5799    6767    1743
	3     6228    7106    5789
	3     4307    6777    5202
	3     3778    7099    6572
	3     5809    6769    1398
	3     5795    6772    5796
	3     5442    7145    6405
	3     1589    7498    5772
	3     6092    7137    5579
	3     4372    7456    4379
	3     4185    6832    6724
	3     2978    7119    5036
	3     4863    6831    1773
	3     1772    6830    4862
	3     4605    7347    6883
	3     1628    6779    3552
	3     4416    7193    6211
	3      220    6774     221
	3     6421    6746    4366
	3     4466    6775    4360
	3     3453    6773    3454
	3     6464    6930    2289
	3     4519    7139    6547
	3     6053    6768    3544
	3     3166    6796    5310
	3     3430    6797    5296
	3     3298    6798    5303
	3     5336    6855    5337
	3     1595    7108    6540
	3     5499    7086    4101
	3     1556    6776     561
	3     6501    6655    4724
	3      621    6981    6660
	3      529    6982    6661
	3      575    6983    6662
	3     4335    7056    6348
	3      648    6780     647
	3     3573    6785    3574
	3     6621    7057     112
	3      265    7058    6622
	3     6007    7212    6456
	3     4275    6910    4274
	3     1354    6782    4605
	3     5809    6783    6769
	3     3938    6781    3912
	3     6639    7222    1301
	3     4321    6913    4320
	3     1312    6816    6521
	3     4268    6914    4816
	3     6512    6885    5413
	3     6513    6884    5411
	3     4300    6795    4298
	3     3426    6784    3435
	3      161    7471     162
	3     1933    6783    5809
	3     3609    7231    6659
	3     6917    7260    6065
	3     6063    7259    6916
	3     2425    7029    4706
	3      646    6786    1722
	3     4656    6793    5434
	3     4219    6789    4236
	3     6711    7143    5289
	3     6710    7142    5277
	3     6003    7334    6529
	3     1817    7000    4784
	3     4785    7001    1819
	3     6696    7067    2055
	3     4849    6960    4848
	3     4844    6961    4845
	3     2795    7505    6475
	3     6476    7506    2796
	3     6142    7255    4391
	3     6670    7101    6734
	3     4169    7047    3476
	3     3928    6996    6196
	3     6682    7383    4381
	3     4380    7382    6683
	3     6653    6978    4664
	3     3955    6886    5708
	3     2876    6747    6325
	3     4287    7468    4286
	3     6925    7473    5313
	3     6926    7474    5299
	3     6924    7472    5306
	3     5076    6899    6715
	3     3974    6930    6464
	3     6211    7193    1347
	3     6062    6790    2126
	3     3791    6795    5489
	3     3571    6804    5103
	3      473    6799     472
	3     6535    6897    4308
	3     6545    6906    5415
	3     2678    6803    2405
	3     4733    7477    6815
	3     4684    6794    4682
	3     2504    6800    5849
	3     1940    6801    2505
	3     1796    6978    6086
	3     6635    7110    3952
	3     6004    7359    6557
	3     6005    7360    6558
	3     4731    6813    4733
	3     6675    7029    4671
	3     6452    7327    2118
	3     2119    7328    6453
	3     3597    6805    2304
	3     6931    7462    4986
	3     6932    7463    4988
	3     5597    7098    6654
	3     4325    6806    4326
	3     2793    6827    5127
	3     5128    6828    2794
	3     4807    7308    2885
	3     5036    7119    6246
	3     6468    7213    6006
	3     6607    6733    2891
	3     1770    6810     474
	3     1315    6937    6027
	3     6028    6938    1318
	3     6833    7349    5205
	3     6834    7350    5212
	3     3543    7476    5817
	3     4791    6821    4790
	3     5337    6824    6602
	3      346    7038    6679
	3     6678    7041     773
	3     5032    7374    2975
	3     1802    6812    5828
	3     2949    6809    5968
	3     6723    7169    5265
	3     5955    7222    6639
	3     6684    7107    3886
	3     3897    6816    3951
	3     3532    6866    3423
	3     2403    6818    2400
	3     3382    6868    3291
	3     3250    6867    3159
	3     6729    6927    3494
	3     4269    6817    2330
	3     1919    7505    6515
	3     6516    7506    1915
	3     6308    7270    2739
	3     6309    7272    2747
	3     6310    7271    2751
	3     6637    6916    2973
	3     2974    6917    6638
	3     3077    7166    3078
	3     3071    7167    3072
	3     2401    6881    3487
	3     4173    6823    5511
	3     1374    7404    6606
	3     3087    6815    2707
	3     6274    6912    1458
	3     1459    6911    6273
	3     5803    6822    4221
	3     6675    7336    1415
	3     6441    7422    3797
	3     6293    6966    2043
	3     2044    6967    6294
	3      645    6824     644
	3     3610    6825    2199
	3     3611    6826    2198
	3     6150    7531    7153
	3     5324    6780    6619
	3     4862    6830    6287
	3     6288    6831    4863
	3     6618    6799    5331
	3     6469    6913    4321
	3     1593    7147    5885
	3     5883    7146    1594
	3     2947    6829    2948
	3     4163    6832    4185
	3     3938    6888    6781
	3     6898    7393    1499
	3        6    7355     387
	3      766    7358      22
	3     5441    7078    4691
	3     5317    6847    4182
	3     2304    7310    6574
	3     3620    7503    3622
	3     3623    7502    3625
	3     3626    7504    3628
	3     2941    7346    6887
	3     2248    6833    6170
	3     2247    6834    6169
	3      643    6836    1923
	3     6735    7033    5513
	3     6332    7157    2467
	3     4882    7252    3959
	3      349    7266       4
	3     4369    7302    6551
	3     6606    7434    6083
	3     6287    6830    3058
	3     3034    6831    6288
	3     6396    7266    4712
	3     6047    6922    2768
	3     2769    6923    6048
	3       99    6842    1582
	3     1583    6843     278
	3     1373    7496    6677
	3     3973    7482    6617
	3      619    6839     618
	3      527    6840     526
	3      573    6841     572
	3      292    6844     293
	3       84    6845      85
	3     3619    6971    4611
	3     3628    6973    3627
	3     3625    6974    3624
	3     3622    6972    3621
	3     3617    6975    4639
	3     6626    6790    4431
	3     4931    7306    4934
	3     4972    7307    4969
	3     4384    7483    6623
	3     6736    7081    5151
	3     6057    6846    6056
	3     1446    7424    6609
	3     6608    7432    1447
	3     5340    6997    1404
	3     1708    6998    5341
	3     3461    6859    5162
	3     3380    6860    5180
	3     3248    6861    5171
	3     5092    6694    6597
	3     5424    7018    1314
	3     1313    7017    5422
	3     2062    6899    2050
	3     3460    6838    5896
	3     5153    7083    6742
	3     6697    7215     236
	3     4342    6762    6567
	3     6567    6762    3896
	3     3479    7042    4413
	3     1770    6848    6835
	3     5823    6848    1770
	3     1455    6849    1805
	3     5818    7445    1755
	3     5819    7446    1753
	3     5548    6854    3887
	3     5165    7530    5166
	3     6469    7365    1378
	3     5183    7528    5184
	3     5174    7529    5175
	3     5577    7137    6728
	3     5911    6850    3068
	3     3070    6851    5912
	3      105    6856     106
	3      271    6857     272
	3     4800    7409    6853
	3     4438    7459    6057
	3     5032    7485    6278
	3     4831    7285    4548
	3     2977    7123    6367
	3     4444    6943    6522
	3     2949    7351    6804
	3     6368    7119    2978
	3     4800    6853    4788
	3     6277    7091    2100
	3      307    6863     308
	3       69    6864      70
	3     6796    7025    5310
	3     6797    7024    5296
	3     6798    7026    5303
	3     5823    6858    6848
	3     6663    7409    4744
	3     1836    6752    6605
	3     4788    6853    4789
	3     4625    6869    4624
	3     6478    6820    4419
	3     2865    7051    6393
	3     1590    6859    5774
	3     5083    7084    3003
	3     3849    6870    3847
	3     1592    6860    5808
	3     1591    6861    5775
	3     6533    6999    4407
	3     1925    6858    5823
	3     4439    6908    4440
	3     4707    6966    6293
	3     6294    6967    4708
	3     4317    6865    6212
	3     5466    6969    3930
	3     5599    7354    6902
	3     3948    6874    3946
	3     5423    7018    5424
	3     5422    7017    5421
	3     1931    6871     601
	3     1932    6872     509
	3     1939    7083    6270
	3     5302    6878    3280
	3     5309    6879    3148
	3     5295    6880    3412
	3     2752    7173    4513
	3     3254    7322    6082
	3     3386    7323    6081
	3     4461    6976    6748
	3     6323    7147    1593
	3     1594    7146    6322
	3     6855    6875    1923
	3     1353    6883    5534
	3     1925    6877    6858
	3     4318    6881    4316
	3     6728    7137    2057
	3     6264    7081    1937
	3     4153    6900    5477
	3     6275    7448    3546
	3     5477    6900    4476
	3     2259    7159    6722
	3     6748    6976    6565
	3     1923    6875    5806
	3        4    7266     384
	3     5817    7476    1754
	3     2836    6873    5983
	3     6888    7027    1448
	3     5776    6877    1925
	3      101    6889     102
	3      275    6890     276
	3     4456    6886    2106
	3     6794    7324    4695
	3     3957    7032    3959
	3     3940    6888    3938
	3     3537    7292    6080
	3      497    6884    1562
	3      589    6885    1565
	3     5142    7199    4499
	3     5143    7200    4500
	3       24    7311     765
	3     2967    6952    3103
	3     2101    7071    6267
	3     3522    6882    5992
	3     3037    7044    3049
	3     3025    7043    3013
	3     3104    6956    2896
	3     6150    7153    1651
	3     4476    6900    4359
	3     1492    7449    3963
	3     6473    7007    1750
	3     7025    7397    5314
	3     7024    7398    5300
	3     7026    7399    5307
	3     4279    6903    4278
	3     5639    6902    5611
	3     3107    7293    6717
	3     6718    7294    3109
	3     1576    7207    6620
	3      214    7050     215
	3     1796    7406    6978
	3     6875    6901    5806
	3      640    6905     639
	3     6531    7102    1478
	3     6451    7197    2104
	3     5776    6904    6877
	3      480    6907     479
	3     6949    7283    3542
	3     7348    7479    4706
	3     3797    7422    4836
	3     5806    6901    1588
	3     2374    6909    5464
	3     7033    7381    4248
	3     2972    6911    4815
	3     4814    6912    2971
	3      543    6906    1561
	3     3494    6927    2391
	3     1585    6904    5776
	3     5732    7258    5731
	3     5726    7257    5727
	3     6793    7153    5434
	3     6702    6791    4720
	3     4723    6792    6703
	3     3975    6930    3972
	3     3981    6918    3991
	3     5884    7043    3025
	3     3049    7044    5886
	3     3960    7313    5470
	3     4240    6928    4241
	3     6822    7227    1805
	3     5099    6927    4754
	3     4740    7158    4739
	3     2073    7503    3620
	3     2071    7502    3623
	3     2070    7504    3626
	3     5403    7135    3009
	3     5057    6929    5055
	3     1718    6924     628
	3     1719    6925     536
	3     1716    6926     582
	3     6937    7262    6027
	3     6028    7263    6938
	3     2370    6934    2207
	3     2208    6935    2371
	3     6847    7493    4184
	3      613    6931     612
	3      521    6932     520
	3     3239    6920    5991
	3     3371    6921    5990
	3     6522    6751    6038
	3     3583    7508    3585
	3     1510    7106    6318
	3     6812    7078    5828
	3     3540    6949    5293
	3     2885    7308    6256
	3     5133    7091    6277
	3     4894    7523    3605
	3     4893    7524    3607
	3      638    6936    1509
	3     5136    7071    3005
	3     5948    6933    3300
	3     1507    6940     591
	3     1508    6941     499
	3     1511    6942     481
	3     4390    7047    4389
	3     6846    7459    4839
	3     2464    7042    3479
	3     4215    6962    5528
	3     5866    6938    2824
	3     2823    6937    5867
	3     5712    6963    6600
	3     5714    6964    6601
	3     6774    7228     221
	3     7286    7434    6606
	3     6270    7083    5154
	3     5571    7203    2128
	3     1598    7036    6707
	3     6019    7257    5726
	3     5731    7258    6020
	3     4968    6955    5380
	3     1625    6989    2042
	3     6317    7168    5107
	3     5152    7081    6264
	3     3073    6945    3074
	3     5441    7419    7078
	3      197    6953     198
	3     1506    6948     545
	3     2839    6950    2837
	3       52    6954      53
	3     3554    7048    5861
	3     3601    7101    4999
	3     6675    7348    7029
	3     2999    7113    6130
	3     4364    7221    4363
	3     5490    6959    5491
	3     5861    7048    3325
	3     5931    6957    2598
	3     2555    6958    5930
	3     6768    7384    3544
	3     4705    7479    6679
	3     6678    7478    4702
	3     6267    7071    5136
	3     6859    7340    5162
	3     6860    7337    5180
	3     6861    7338    5171
	3     4664    6978    5369
	3      769    7311      24
	3     3062    6944    6159
	3     3930    6969    3472
	3     6676    7050    1439
	3     6605    6752    2921
	3     1590    7340    6859
	3     1592    7337    6860
	3     1591    7338    6861
	3     1519    6968    6096
	3     2767    7162    4891
	3     4892    7163    2766
	3     5381    6965    4930
	3      483    6970     482
	3     4337    7117    6782
	3     2985    6966    4707
	3     4708    6967    2992
	3     6090    7098    1423
	3     5915    6963    5712
	3     5913    6964    5714
	3     7028    7467    2064
	3     4528    7327    6452
	3     6453    7328    4529
	3     4313    7438    6687
	3     6669    6734    3599
	3     4276    7435    6685
	3     6139    6960    4849
	3     4845    6961    6138
	3     2129    7097    5573
	3     4375    6977    4378
	3     3012    7128    6476
	3     6475    7127    3011
	3     4460    6976    4461
	3     3002    7080    5085
	3      637    6979     636
	3     1551    7381    4403
	3      622    6981     621
	3      530    6982     529
	3      576    6983     575
	3     4352    6990    4354
	3     1916    7182    6428
	3     6429    7183    1914
	3     6256    7308    3602
	3      181    6984     182
	3     5201    7012    5199
	3     1810    7109    5105
	3     2248    7349    6833
	3     2247    7350    6834
	3     2981    6994    2979
	3     2982    6995    2984
	3     6410    7028    2064
	3     6496    7047    4169
	3     7153    7531    4653
	3      593    6992     592
	3      501    6993     500
	3     5914    6980    5713
	3     5746    7264    1915
	3     4489    6996    1197
	3     1919    7265    5745
	3     2708    7223    6137
	3     4408    7422    6441
	3      507    6987    1768
	3      599    6988    1767
	3     4622    6999    4625
	3      202    7002     203
	3     6479    7277    4761
	3     4760    7276    6480
	3     5204    7349    5798
	3     5211    7350    5797
	3     6348    6876    1882
	3     1418    7119    6368
	3      389    7010     388
	3     2050    7138    1441
	3     5193    7020    5195
	3     3000    6997    6435
	3     6436    6998    3001
	3     2502    7304     336
	3       41    7303    2503
	3     6367    7123    1334
	3     1569    7003     484
	3     1565    6885    6512
	3     1562    6884    6513
	3     7428    7504    2070
	3     7426    7503    2073
	3     7427    7502    2071
	3     6355    7306    4931
	3     4969    7307    6356
	3     6502    7217    4361
	3     3477    7006    3798
	3     5713    6980    6642
	3     2042    6989    2892
	3     2466    7156    6396
	3     5217    7031    3535
	3      731    7023     730
	3      324    7011     325
	3      547    7009     546
	3     6318    7106    1601
	3     4673    7208    3493
	3     2642    6985    6131
	3     6132    6986    2643
	3      635    7008    1564
	3     5296    7024    5297
	3     5310    7025    5311
	3     5303    7026    5304
	3     1600    7168    6317
	3     2952    7161    2954
	3     3954    7019    3855
	3     1750    7007    6071
	3     4936    7352    6355
	3     6356    7353    4974
	3      486    7021     485
	3     5548    7439    6854
	3     4389    7047    6496
	3     3531    7016    5811
	3     1448    7027     158
	3     3605    7523    4552
	3     3607    7524    4553
	3     5688    7017    1313
	3     1314    7018    5689
	3     6365    6899    5076
	3     5327    7335    1556
	3     6856    7329     106
	3      271    7330    6857
	3     6522    6943    6751
	3     4410    7159    4579
	3     6546    7433    2451
	3     5674    7028    4233
	3     1882    6876    6744
	3     6131    7014    2108
	3     2109    7015    6132
	3     5513    7033    5777
	3     6878    7331    3280
	3     6880    7333    3412
	3     6879    7332    3148
	3     3619    7510    6422
	3     6425    7511    3627
	3     6426    7512    3624
	3     6424    7513    3621
	3     4255    7514    6427
	3     5146    7048    3554
	3     3008    7129    5407
	3     6652    7054    1575
	3     6882    7292    1613
	3     5620    7054    5621
	3      912    7035     911
	3     2308    6760    6745
	3      603    7039     602
	3      511    7040     510
	3     6745    6760    4304
	3     4257    7300    4258
	3     4324    7301    4325
	3      347    7038     346
	3      773    7041     772
	3     4967    7212    6314
	3     6313    7213    4929
	3     7020    7030    1564
	3     1564    7030    5805
	3      486    7062    7021
	3     5015    7416    2750
	3     6435    6997    5340
	3     5341    6998    6436
	3     4694    7419    5441
	3     4887    7231    3609
	3     4878    7448    2886
	3     1744    7046     556
	3     7019    7499    3856
	3     3949    7253    4554
	3     5030    7335    5327
	3     3528    7049    4877
	3     1561    6906    6545
	3     6451    7404    5042
	3     2866    7051    2865
	3      112    7057     113
	3      264    7058     265
	3     1767    6988    6643
	3     1768    6987    6644
	3     1134    7060    1133
	3      949    7061     948
	3     7068    7321    3117
	3     4262    7450    5016
	3      632    7059     631
	3     7030    7053    5805
	3     4790    7380     381
	3     4101    7064    4099
	3      487    7062     486
	3     2124    7273    6408
	3     6409    7274    2125
	3     2103    7037    6087
	3     1808    7043    5884
	3     5886    7044    1807
	3     2823    7262    6937
	3     6938    7263    2824
	3     5324    6814    6786
	3     5547    7066    4127
	3     4879    7425    7411
	3     5805    7053    1927
	3     6671    7293    3107
	3     3109    7294    6672
	3     5321    7070    5320
	3     5261    7498    5264
	3     5113    7114    1812
	3     6921    7323    1614
	3     6920    7322    1611
	3     5285    7489    5288
	3     5273    7488    5276
	3     4839    7410    4838
	3     2854    7055    6039
	3     2766    7163    6253
	3     6252    7162    2767
	3     6393    7051    4801
	3     4274    6910    6490
	3     6328    7084    5083
	3     4320    6913    6491
	3     6489    6914    4268
	3     6806    7509    4326
	3     1465    7466    3493
	3     6776    7335    5031
	3     4853    7491    3606
	3     6391    6917    2974
	3     2973    6916    6392
	3     7094    7121    3123
	3      613    7462    6931
	3      521    7463    6932
	3     5205    7349    5204
	3     5212    7350    5211
	3     5154    7083    5153
	3     5151    7081    5152
	3     6322    7146    5144
	3     7059    7082     631
	3     3061    7076    3062
	3     2954    7161    6278
	3     5145    7147    6323
	3     4934    7306    6548
	3     6549    7307    4972
	3     4666    7406    6058
	3     4633    7267    4829
	3     4635    7268    4634
	3     7062    7070    5321
	3     6189    7045    3518
	3      217    7077     218
	3     6957    7400    2598
	3     2555    7401    6958
	3     1718    7472    6924
	3     1719    7473    6925
	3     1716    7474    6926
	3     2230    7480    6221
	3     3245    7072    4861
	3     3377    7073    4859
	3     4210    7407    6959
	3     6361    7159    2259
	3     3033    7109    6510
	3     6439    7214    4818
	3     6978    7406    5369
	3     6488    6990    1531
	3     6511    7114    3057
	3      631    7082     630
	3     5828    7078    1649
	3     3921    7087    5536
	3     6984    7275     182
	3     6352    7080    1328
	3     7138    7449    1441
	3     3580    7469    5146
	3     4505    7100    5232
	3     3004    7091    5133
	3      168    7089     169
	3     6565    6976    4440
	3     3168    7133    3256
	3     3432    7134    3541
	3     4435    7110    6635
	3     6181    7494    6965
	3     1326    7084    6328
	3     5810    7079    1792
	3     6514    7110    1414
	3     6059    7085    2127
	3     6187    7065    3237
	3     2742    7414    4896
	3     2746    7415    4897
	3     2750    7416    4895
	3     5469    7099    3778
	3     1792    7079    7070
	3     5600    7098    5597
	3     3078    7523    4894
	3     3072    7524    4893
	3     4895    7405    1623
	3     4258    7300    6345
	3     4325    7301    6346
	3     2411    7158    6821
	3     6348    7056    1351
	3     5579    7137    5577
	3      210    7103     211
	3     4469    7102    3942
	3     5810    7094    7079
	3     5935    7088    3189
	3     4896    7453    1621
	3     4897    7454    1624
	3     6307    7450    4262
	3     6221    7480    4774
	3     6955    7495    6182
	3     6027    7262    1379
	3     1380    7263    6028
	3     5826    7094    5810
	3     3123    7121    5442
	3     1752    7122    5916
	3     5967    7090    2878
	3     5148    7164    4464
	3     5149    7165    4465
	3     4242    7105    5697
	3     5042    7197    6451
	3     5434    7153    4653
	3     5606    7067    6696
	3     4458    7112    4457
	3     6116    6791    6702
	3     6703    6792    6115
	3     4116    7118    4131
	3     4739    7158    6339
	3     3888    7108    5739
	3     4699    7404    6451
	3     6810    6835    5331
	3     4625    6999    6533
	3     7112    7120    4457
	3      216    7130    1477
	3     4458    7126    7112
	3      135    7132    1560
	3     5824    7115    5741
	3     5743    7116    5825
	3     6454    7129    2136
	3     2878    7090    6785
	3     4776    7229    3589
	3     5085    7080    6352
	3     4505    7160    7122
	3     6314    7212    1306
	3     1307    7213    6313
	3     7144    7174    1501
	3     4457    7120    5755
	3     6422    6971    3619
	3     3627    6973    6425
	3     3624    6974    6426
	3     3621    6972    6424
	3     6423    6975    3617
	3     5674    7467    7028
	3     6609    7424    3125
	3     5888    7126    4458
	3     6246    7119    1418
	3     5147    7202    4480
	3      328    7140     329
	3       48    7141      49
	3      140    7139     141
	3     3124    7432    6608
	3     2138    7135    6431
	3     1334    7123    6223
	3     5710    7131    5888
	3     6563    7292    3537
	3     5759    7127    1391
	3     1432    7128    5749
	3     6265    7067    5606
	3     5097    7414    2742
	3     5098    7415    2746
	3     4503    7160    4505
	3     5888    7131    7126
	3     7085    7278    2127
	3     6450    7362    5013
	3     1518    7385    6692
	3     6586    7322    3254
	3     6587    7323    3386
	3     6085    7113    2999
	3     2878    7136    2858
	3     4738    7220    6673
	3     5325    7204    3539
	3     1560    7132    7120
	3      132    7206    1595
	3     3085    7466    6526
	3     5277    7142    6044
	3     5289    7143    6045
	3     1601    7106    6228
	3     4361    7217    4466
	3     6339    7158    2411
	3     2057    7137    6092
	3      194    7227     195
	3     3534    7144    3536
	3     1501    7174    1482
	3     4636    7182    3101
	3     3102    7183    4637
	3     5975    7145    2176
	3     4503    7196    7160
	3     6058    7406    1796
	3     6079    7152    1493
	3     1713    7522    5007
	3     5103    7351    2927
	3      713    7148    1808
	3     1807    7149     406
	3     1436    7382    5988
	3     5989    7383    1435
	3     5721    7172    5722
	3     6516    7264    5371
	3     5265    7169    6046
	3      704    7178     703
	3      416    7179     415
	3     2216    7220    5614
	3     2727    7245     385
	3      768    7244    2728
	3     2665    7171    2899
	3     2829    7170    2663
	3     6909    7063    4415
	3     3954    7372    6119
	3     2064    7467    6194
	3     1500    7198    1573
	3     3614    7249    6574
	3     5370    7265    6515
	3     3886    7509    5555
	3     4479    7175    5899
	3     5898    7176    4478
	3     4504    7196    4503
	3     3252    7180    3253
	3     3384    7181    3385
	3      129    7366    1576
	3     7037    7387    6087
	3     4582    7339    6275
	3      142    7205    1424
	3     1441    7449    1492
	3     2749    7192    2748
	3     2737    7191    2736
	3     1842    7306    6355
	3     6356    7307    1843
	3      348    7156    2466
	3     2467    7157     771
	3     6340    7253    3949
	3     4078    7211    4076
	3     7078    7419    1649
	3      236    7215     237
	3     4515    7254    4519
	3      196    7218    1549
	3     4877    7416    5015
	3     6734    7101    3601
	3     4545    7319    4610
	3     4543    7318    4609
	3     4544    7317    4608
	3     3175    7199    3177
	3     3307    7200    3309
	3     5493    7248    4237
	3     3905    7207    5720
	3     6186    7372    3954
	3     1670    7194    2105
	3     2104    7197    1631
	3     6428    7182    4636
	3     4637    7183    6429
	3      221    7228     222
	3     1306    7212    6007
	3     6006    7213    1307
	3     3902    7230    3901
	3     5539    7232    3845
	3     6239    7168    1600
	3     6553    7418    2205
	3     7181    7198    1500
	3      227    7234     228
	3     3039    7209    3040
	3     3016    7210    3015
	3     1478    7471     161
	3      322    7241     323
	3       54    7242      55
	3     4171    7255    6142
	3     2975    7214    2958
	3     1328    7225       8
	3       20    7226    1326
	3     6194    7467    4247
	3     4693    7223    5924
	3      610    7237     609
	3      518    7238     517
	3     2105    7194    6719
	3     4191    7295    4190
	3     4297    7481    1883
	3     1456    7483    4384
	3     2120    7482    3973
	3     2204    7487    4438
	3     3065    7281    5343
	3     5342    7282    3066
	3     4440    7490    2419
	3     6785    7136    2878
	3     6899    7138    2050
	3     6266    7371    2734
	3     7171    7298    2899
	3     3632    7484    1558
	3     2363    7261    2293
	3     4759    7256    4471
	3     4654    7222    5955
	3     6497    7095    2754
	3     2755    7096    6498
	3     4653    7531    6378
	3       75    7276      76
	3      301    7277     302
	3     1801    7250    1684
	3      182    7275     183
	3     4559    7429    4558
	3     4561    7430    4560
	3     4563    7431    4562
	3     6534    7389    2303
	3     3961    7269    4557
	3     5972    7235    2825
	3     2826    7236    5973
	3     4879    7411    1815
	3     4846    7262    2823
	3     2824    7263    4842
	3     4602    7295    6470
	3     6232    7252    1471
	3     4861    7414    5097
	3     4859    7415    5098
	3     6537    7388    2301
	3     5180    7337    5182
	3     5171    7338    5173
	3     5162    7340    5164
	3     6506    7195    4338
	3     3091    7273    3089
	3     3095    7274    3097
	3     2205    7531    6150
	3     2662    7267    2783
	3      709    7287     708
	3     2784    7268    2664
	3      755    7324    1303
	3     6474    7097    2129
	3     3105    7327    4528
	3     4529    7328    3106
	3     6488    7371    6990
	3      411    7297     410
	3     4371    7493    4868
	3     2081    7315    4735
	3     1415    7336    5041
	3     2127    7278    6060
	3     7254    7309    1424
	3     5685    7305    5686
	3     5980    7293    1454
	3     1430    7294    5979
	3     3901    7320    3894
	3     6784    7522    6053
	3     2927    7351    2929
	3     6569    7087    3921
	3     2215    7314    5613
	3     6980    7476    5503
	3     3280    7331    3261
	3     3148    7332    3129
	3     3412    7333    3393
	3     4619    7455    4329
	3      106    7329     107
	3      270    7330     271
	3     2899    7298    2901
	3     5822    7283    1769
	3     6253    7163    1316
	3     1387    7162    6252
	3     4463    7343    4385
	3     4528    7464    5382
	3     5694    7449    7138
	3     6572    7525    5496
	3     2128    7203    6554
	3     6373    7425    2743
	3     6431    7135    5403
	3     1434    7526    5956
	3     5957    7527    1433
	3     1424    7309    6091
	3     5130    7391    4511
	3     4512    7392    5129
	3     5765    7341    5562
	3     5565    7342    5766
	3      718    7356     717
	3      402    7357     401
	3     3125    7424    5401
	3     3615    7363    3613
	3     2883    7339    2881
	3     3068    7344    3067
	3     3069    7345    3070
	3     2936    7346    2937
	3     5383    7465    4529
	3     4343    7365    4345
	3     6349    7317    3429
	3     6350    7318    3165
	3     6351    7319    3297
	3     5042    7404    1374
	3     5798    7349    2248
	3     5797    7350    2247
	3     5337    6855    6836
	3     5676    7361    5557
	3     6306    7338    1591
	3     6305    7337    1592
	3     6304    7340    1590
	3     3589    7390    1541
	3      204    7386    1332
	3     1499    7393    1209
	3     5369    7406    4666
	3     1304    7354    6097
	3     4579    7159    6361
	3     6188    7251    3369
	3     3443    7362    3445
	3     6964    7446    5505
	3     6963    7445    5504
	3     5504    7445    3389
	3     5505    7446    3257
	3     3515    7334    6003
	3     5405    7432    3124
	3     6408    7273    3091
	3     3097    7274    6409
	3     7364    7421    2069
	3     5699    7401    2555
	3     2598    7400    5698
	3     1915    7264    6516
	3     4346    7407    4347
	3     1570    7402    1227
	3     4377    7456    4373
	3     6515    7265    1919
	3     2379    7423    2381
	3     5969    7373    4245
	3     1273    7420    2072
	3     5503    7476    3543
	3     4354    7492    4353
	3     6091    7364    2069
	3     3966    7439    5548
	3     4386    7217    6502
	3     2451    7433    1256
	3     3235    7359    6004
	3     3367    7360    6005
	3     3968    7417    4768
	3     4838    7410    4459
	3     1400    7435     996
	3     1409    7436    1107
	3     1522    7437    1005
	3      534    7397    1795
	3      580    7398    1794
	3      626    7399    1793
	3     1497    7438    1262
	3     3544    7384    5012
	3     6786    6814    1722
	3     1615    7440    1115
	3     6751    6943    4449
	3     6389    7521    4243
	3       77    7519    1480
	3     1481    7520     300
	3     4426    7443     783
	3      727    7457    2215
	3     6365    7138    6899
	3     2154    7518    5552
	3      614    7462     613
	3      522    7463     521
	3     5497    7497    5498
	3     3963    7449    5694
	3     6012    7441    2611
	3     2568    7442    6013
	3     4226    7496    1373
	3     3894    7320    6301
	3     4247    7467    5674
	3     3962    7385    6114
	3       94    7500      95
	3      282    7501     283
	3     4624    7499    4623
	3     6087    7387    1797
	3     2069    7421    6098
	3     3179    7451    3258
	3     3311    7452    3390
	3     6391    7260    6917
	3     6916    7259    6392
	3     3162    7460    3171
	3     3294    7461    3303
	3     2110    7472    1718
	3     2116    7473    1719
	3     2114    7474    1716
	3     6095    7458    6094
	3     7309    7364    6091
	3     2956    7485    2975
	3     6232    7313    3960
	3     6098    7486    1305
	3     6275    7339    2883
	3     6172    7396    3538
	3     6173    7394    3387
	3     6174    7395    3255
	3     6551    7302    2169
	3     1649    7419    6151
	3     5694    7138    6365
	3     5407    7129    6454
	3     3578    7101    6670
	3     6883    7347    4362
	3     7421    7486    6098
	3     1770    6835    6810
	3     3517    7388    6537
	3     4438    7487    7410
	3      385    7245       5
	3       23    7244     768
	3     6083    7434    2310
	3     4354    7371    6266
	3     4345    7365    6469
	3     2205    7418    6378
	3     6717    7293    5980
	3     5979    7294    6718
	3     3366    7389    6534
	3     6837    6881    2401
	3     6332    7311     769
	3     6990    7371    4354
	3     5164    7340    6304
	3     5182    7337    6305
	3     5173    7338    6306
	3     4610    7319    6351
	3     4609    7318    6350
	3     4608    7317    6349
	3     6685    7435    1400
	3     6687    7438    1497
	3     6626    7111    6790
	3     6378    7531    2205
	3     7368    7515    2497
	3     2498    7516    7367
	3     7370    7517    2495
	3     2169    7302    6342
	3     1460    7494    6282
	3     6283    7495    1461
	3     6836    6855    1923
	3      384    7266    6396
	3     1391    7127    6475
	3     6476    7128    1432
	3     6510    7109    1810
	3     7288    7429    4559
	3     7289    7431    4563
	3     7290    7430    4561
	3     6595    7115    1408
	3     1739    7116    6596
	3     1812    7114    6511
	3     1303    7324    6794
	3     5006    7260    6391
	3     6392    7259    5003
	3     5621    7054    6652
	3     3570    6947    6867
	3     3569    6946    6868
	3     6421    7219    4246
	3     4316    6881    6837
	3     3952    7110    6514
	3     3560    7425    6373
	3     3462    7125    6509
	3     6499    7382    4380
	3     4381    7383    6500
	3     2410    7409    6663
	3     6843    7258    5732
	3     5727    7257    6842
	3     6444    7216    2461
	3     7010    7355     388
	3     6590    7352    4936
	3     4974    7353    6592
	3     4752    7050    6676
	3     6405    7447    4879
	3      731    7358    7023
	3     3628    7124    6973
	3     3606    7491    6645
	3     5988    7382    6499
	3     6500    7383    5989
	3     6972    7150    2297
	3     6974    7151    2296
	3     2503    7303    6591
	3     6589    7304    2502
	3     6360    7480    2230
	3     6649    7224    4264
	3     6853    7409    2410
	3     6707    7036    4300
	3     6470    7295    4191
	3     6464    7284    3974
	3     3103    6952    6936
	3     4434    7111    6626
	3     2297    7150    7093
	3     2296    7151    7092
	3     6942    6956    3104
	3     1409    7521    6389
	3     2734    7371    6488
	3     6867    6947    3159
	3     6868    6946    3291
	3     4730    7320    7243
	3     7243    7320    3901
	3     6902    7354    1304
	3     1312    7470    6816
	3     6821    7158    4740
	3      387    7355    6418
	3     6417    7358     766
	3     4256    7444    6434
	3     2301    7388    6971
	3     2303    7389    6975
	3     4868    7493    6847
	3     3625    7502    6413
	3     3622    7503    6414
	3     3628    7504    6415
	3     6455    7444    4256
	3     6936    6952    1509
	3     6821    7380    4790
	3     1511    6956    6942
	3     6548    7306    1842
	3     1843    7307    6549
	3     1402    7347    7117
	3     7117    7347    4605
	3     6636    7314    2215
	3     6673    7220    2216
	3     4323    7299    6664
	3     6729    7221    4364
	3     2459    7221    6729
	3     6591    7303     337
	3      782    7304    6589
	3     6915    7217    4386
	3     4101    7086    7064
	3     3603    7321    6588
	3     6782    7117    4605
	3     6659    7231    4775
	3     4700    7286    6606
	3     6790    7111    2126
	3     6757    7469    3580
	3     7029    7348    4706
	3     6515    7505    2795
	3     2796    7506    6516
	3     7003    7012    5201
	3     4813    7418    6553
	3     2327    7507    6522
	3     4400    7525    6572
	3     6808    7236    2826
	3     2825    7235    6807
	3     6084    7348    6675
	3     1569    7012    7003
	3     4322    7436    6727
	3     6727    7436    1409
	3     5195    7020    7008
	3     7155    7369    4590
	3     3083    7369    7155
	3     4740    7380    6821
	3     7008    7020    1564
	3     1769    7283    6949
	3     3589    7229    6809
	3     4403    7381    7033
	3     1793    7399    7026
	3     1795    7397    7025
	3     1794    7398    7024
	3     6727    7299    4323
	3     6825    7166    2199
	3     6826    7167    2198
	3     7074    7300    4257
	3     7075    7301    4324
	3     1470    7296    7052
	3     6887    7346    4776
	3     3116    7186    6897
	3     6897    7186    1902
	3     6977    7086    4378
	3     6809    7229    5968
	3     7173    7403    4513
	3     5803    7227    6822
	3     6976    7490    4440
	3     7190    7510    2448
	3     1904    7511    7188
	3     2446    7512    7187
	3     2445    7513    7185
	3     7189    7514    1906
	3     1556    7335    6776
	3     2430    7403    7173
	3     6973    7124    2298
	3     6805    7310    2304
	3     4243    7521    6699
	3     6842    7257    1582
	3     1583    7258    6843
	3     6991    7363    3615
	3     3625    7151    6974
	3     3622    7150    6972
	3     6804    7351    5103
	3     3568    7393    6898
	3     3256    7133    7092
	3     3541    7134    7093
	3     4466    7217    6915
	3     3329    7469    6757
	3     7100    7122    1752
	3     4703    7434    7286
	3     6816    7470    3951
	3     7405    7416    4877
	3     7092    7151    3256
	3     7093    7150    3541
	3     4895    7416    7405
	3     4861    7453    7414
	3     4859    7454    7415
	3     7414    7453    4896
	3     7415    7454    4897
	3     4534    7243    7230
	3     7230    7243    3901
	3     4505    7122    7100
	3     7049    7405    4877
	3     7093    7134    1578
	3     7092    7133    3604
	3     5007    7522    6784
	3     7072    7453    4861
	3     7073    7454    4859
	3     6951    7493    4371
	3     6778    7525    4400
	3     6057    7459    6846
	3     7131    7152    6079
	3     1461    7495    6955
	3     6965    7494    1460
	3     5710    7152    7131
	3     7107    7509    3886
	3     6959    7407    4346
	3     1595    7206    7172
	3     4623    7499    7019
	3     4460    7490    6976
	3     6971    7388    4611
	3     6975    7389    4639
	3     7172    7206    5722
	3     2499    7300    7074
	3     2494    7301    7075
	3     4519    7254    7205
	3     1576    7366    7269
	3     7205    7254    1424
	3     7256    7471    1478
	3     7145    7447    6405
	3     4184    7493    6951
	3     7434    7478    2310
	3     7175    7526    1434
	3     1433    7527    7176
	3     4703    7478    7434
	3     4513    7403    7284
	3     7269    7366    4557
	3     5975    7447    7145
	3     7284    7403    3974
	3     7410    7487    4459
	3     4326    7509    7107
	3     7223    7477    5924
	3     2708    7477    7223
	3     4759    7471    7256
	3     3121    7510    7190
	3     7187    7512    4293
	3     7185    7513    4288
	3     7188    7511    4309
	3     3120    7514    7189
	3     4479    7526    7175
	3     7176    7527    4478
	3     7411    7425    3560
	3     7455    7518    2154
	3     4619    7518    7455

CELL_TYPES 13789
	5
	5
	5
	5
	5
	5
	5
	5
	5
	5
	5
	5
	5
	5
	5
	5
	5
	5
	5
	5
	5
	5
	5
	5
	5
	5
	5
	5
	5
	5
	5
	5
	5
	5
	5
	5
	5
	5
	5
	5
	5
	5
	5
	5
	5
	5
	5
	5
	5
	5
	5
	5
	5
	5
	5
	5
	5
	5
	5
	5
	5
	5
	5
	5
	5
	5
	5
	5
	5
	5
	5
	5
	5
	5
	5
	5
	5
	5
	5
	5
	5
	5
	5
	5
	5
	5
	5
	5
	5
	5
	5
	5
	5
	5
	5
	5
	5
	5
	5
	5
	5
	5
	5
	5
	5
	5
	5
	5
	5
	5
	5
	5
	5
	5
	5
	5
	5
	5
	5
	5
	5
	5
	5
	5
	5
	5
	5
	5
	5
	5
	5
	5
	5
	5
	5
	5
	5
	5
	5
	5
	5
	5
	5
	5
	5
	5
	5
	5
	5
	5
	5
	5
	5
	5
	5
	5
	5
	5
	5
	5
	5
	5
	5
	5
	5
	5
	5
	5
	5
	5
	5
	5
	5
	5
	5
	5
	5
	5
	5
	5
	5
	5
	5
	5
	5
	5
	5
	5
	5
	5
	5
	5
	5
	5
	5
	5
	5
	5
	5
	5
	5
	5
	5
	5
	5
	5
	5
	5
	5
	5
	5
	5
	5
	5
	5
	5
	5
	5
	5
	5
	5
	5
	5
	5
	5
	5
	5
	5
	5
	5
	5
	5
	5
	5
	5
	5
	5
	5
	5
	5
	5
	5
	5
	5
	5
	5
	5
	5
	5
	5
	5
	5
	5
	5
	5
	5
	5
	5
	5
	5
	5
	5
	5
	5
	5
	5
	5
	5
	5
	5
	5
	5
	5
	5
	5
	5
	5
	5
	5
	5
	5
	5
	5
	5
	5
	5
	5
	5
	5
	5
	5
	5
	5
	5
	5
	5
	5
	5
	5
	5
	5
	5
	5
	5
	5
	5
	5
	5
	5
	5
	5
	5
	5
	5
	5
	5
	5
	5
	5
	5
	5
	5
	5
	5
	5
	5
	5
	5
	5
	5
	5
	5
	5
	5
	5
	5
	5
	5
	5
	5
	5
	5
	5
	5
	5
	5
	5
	5
	5
	5
	5
	5
	5
	5
	5
	5
	5
	5
	5
	5
	5
	5
	5
	5
	5
	5
	5
	5
	5
	5
	5
	5
	5
	5
	5
	5
	5
	5
	5
	5
	5
	5
	5
	5
	5
	5
	5
	5
	5
	5
	5
	5
	5
	5
	5
	5
	5
	5
	5
	5
	5
	5
	5
	5
	5
	5
	5
	5
	5
	5
	5
	5
	5
	5
	5
	5
	5
	5
	5
	5
	5
	5
	5
	5
	5
	5
	5
	5
	5
	5
	5
	5
	5
	5
	5
	5
	5
	5
	5
	5
	5
	5
	5
	5
	5
	5
	5
	5
	5
	5
	5
	5
	5
	5
	5
	5
	5
	5
	5
	5
	5
	5
	5
	5
	5
	5
	5
	5
	5
	5
	5
	5
	5
	5
	5
	5
	5
	5
	5
	5
	5
	5
	5
	5
	5
	5
	5
	5
	5
	5
	5
	5
	5
	5
	5
	5
	5
	5
	5
	5
	5
	5
	5
	5
	5
	5
	5
	5
	5
	5
	5
	5
	5
	5
	5
	5
	5
	5
	5
	5
	5
	5
	5
	5
	5
	5
	5
	5
	5
	5
	5
	5
	5
	5
	5
	5
	5
	5
	5
	5
	5
	5
	5
	5
	5
	5
	5
	5
	5
	5
	5
	5
	5
	5
	5
	5
	5
	5
	5
	5
	5
	5
	5
	5
	5
	5
	5
	5
	5
	5
	5
	5
	5
	5
	5
	5
	5
	5
	5
	5
	5
	5
	5
	5
	5
	5
	5
	5
	5
	5
	5
	5
	5
	5
	5
	5
	5
	5
	5
	5
	5
	5
	5
	5
	5
	5
	5
	5
	5
	5
	5
	5
	5
	5
	5
	5
	5
	5
	5
	5
	5
	5
	5
	5
	5
	5
	5
	5
	5
	5
	5
	5
	5
	5
	5
	5
	5
	5
	5
	5
	5
	5
	5
	5
	5
	5
	5
	5
	5
	5
	5
	5
	5
	5
	5
	5
	5
	5
	5
	5
	5
	5
	5
	5
	5
	5
	5
	5
	5
	5
	5
	5
	5
	5
	5
	5
	5
	5
	5
	5
	5
	5
	5
	5
	5
	5
	5
	5
	5
	5
	5
	5
	5
	5
	5
	5
	5
	5
	5
	5
	5
	5
	5
	5
	5
	5
	5
	5
	5
	5
	5
	5
	5
	5
	5
	5
	5
	5
	5
	5
	5
	5
	5
	5
	5
	5
	5
	5
	5
	5
	5
	5
	5
	5
	5
	5
	5
	5
	5
	5
	5
	5
	5
	5
	5
	5
	5
	5
	5
	5
	5
	5
	5
	5
	5
	5
	5
	5
	5
	5
	5
	5
	5
	5
	5
	5
	5
	5
	5
	5
	5
	5
	5
	5
	5
	5
	5
	5
	5
	5
	5
	5
	5
	5
	5
	5
	5
	5
	5
	5
	5
	5
	5
	5
	5
	5
	5
	5
	5
	5
	5
	5
	5
	5
	5
	5
	5
	5
	5
	5
	5
	5
	5
	5
	5
	5
	5
	5
	5
	5
	5
	5
	5
	5
	5
	5
	5
	5
	5
	5
	5
	5
	5
	5
	5
	5
	5
	5
	5
	5
	5
	5
	5
	5
	5
	5
	5
	5
	5
	5
	5
	5
	5
	5
	5
	5
	5
	5
	5
	5
	5
	5
	5
	5
	5
	5
	5
	5
	5
	5
	5
	5
	5
	5
	5
	5
	5
	5
	5
	5
	5
	5
	5
	5
	5
	5
	5
	5
	5
	5
	5
	5
	5
	5
	5
	5
	5
	5
	5
	5
	5
	5
	5
	5
	5
	5
	5
	5
	5
	5
	5
	5
	5
	5
	5
	5
	5
	5
	5
	5
	5
	5
	5
	5
	5
	5
	5
	5
	5
	5
	5
	5
	5
	5
	5
	5
	5
	5
	5
	5
	5
	5
	5
	5
	5
	5
	5
	5
	5
	5
	5
	5
	5
	5
	5
	5
	5
	5
	5
	5
	5
	5
	5
	5
	5
	5
	5
	5
	5
	5
	5
	5
	5
	5
	5
	5
	5
	5
	5
	5
	5
	5
	5
	5
	5
	5
	5
	5
	5
	5
	5
	5
	5
	5
	5
	5
	5
	5
	5
	5
	5
	5
	5
	5
	5
	5
	5
	5
	5
	5
	5
	5
	5
	5
	5
	5
	5
	5
	5
	5
	5
	5
	5
	5
	5
	5
	5
	5
	5
	5
	5
	5
	5
	5
	5
	5
	5
	5
	5
	5
	5
	5
	5
	5
	5
	5
	5
	5
	5
	5
	5
	5
	5
	5
	5
	5
	5
	5
	5
	5
	5
	5
	5
	5
	5
	5
	5
	5
	5
	5
	5
	5
	5
	5
	5
	5
	5
	5
	5
	5
	5
	5
	5
	5
	5
	5
	5
	5
	5
	5
	5
	5
	5
	5
	5
	5
	5
	5
	5
	5
	5
	5
	5
	5
	5
	5
	5
	5
	5
	5
	5
	5
	5
	5
	5
	5
	5
	5
	5
	5
	5
	5
	5
	5
	5
	5
	5
	5
	5
	5
	5
	5
	5
	5
	5
	5
	5
	5
	5
	5
	5
	5
	5
	5
	5
	5
	5
	5
	5
	5
	5
	5
	5
	5
	5
	5
	5
	5
	5
	5
	5
	5
	5
	5
	5
	5
	5
	5
	5
	5
	5
	5
	5
	5
	5
	5
	5
	5
	5
	5
	5
	5
	5
	5
	5
	5
	5
	5
	5
	5
	5
	5
	5
	5
	5
	5
	5
	5
	5
	5
	5
	5
	5
	5
	5
	5
	5
	5
	5
	5
	5
	5
	5
	5
	5
	5
	5
	5
	5
	5
	5
	5
	5
	5
	5
	5
	5
	5
	5
	5
	5
	5
	5
	5
	5
	5
	5
	5
	5
	5
	5
	5
	5
	5
	5
	5
	5
	5
	5
	5
	5
	5
	5
	5
	5
	5
	5
	5
	5
	5
	5
	5
	5
	5
	5
	5
	5
	5
	5
	5
	5
	5
	5
	5
	5
	5
	5
	5
	5
	5
	5
	5
	5
	5
	5
	5
	5
	5
	5
	5
	5
	5
	5
	5
	5
	5
	5
	5
	5
	5
	5
	5
	5
	5
	5
	5
	5
	5
	5
	5
	5
	5
	5
	5
	5
	5
	5
	5
	5
	5
	5
	5
	5
	5
	5
	5
	5
	5
	5
	5
	5
	5
	5
	5
	5
	5
	5
	5
	5
	5
	5
	5
	5
	5
	5
	5
	5
	5
	5
	5
	5
	5
	5
	5
	5
	5
	5
	5
	5
	5
	5
	5
	5
	5
	5
	5
	5
	5
	5
	5
	5
	5
	5
	5
	5
	5
	5
	5
	5
	5
	5
	5
	5
	5
	5
	5
	5
	5
	5
	5
	5
	5
	5
	5
	5
	5
	5
	5
	5
	5
	5
	5
	5
	5
	5
	5
	5
	5
	5
	5
	5
	5
	5
	5
	5
	5
	5
	5
	5
	5
	5
	5
	5
	5
	5
	5
	5
	5
	5
	5
	5
	5
	5
	5
	5
	5
	5
	5
	5
	5
	5
	5
	5
	5
	5
	5
	5
	5
	5
	5
	5
	5
	5
	5
	5
	5
	5
	5
	5
	5
	5
	5
	5
	5
	5
	5
	5
	5
	5
	5
	5
	5
	5
	5
	5
	5
	5
	5
	5
	5
	5
	5
	5
	5
	5
	5
	5
	5
	5
	5
	5
	5
	5
	5
	5
	5
	5
	5
	5
	5
	5
	5
	5
	5
	5
	5
	5
	5
	5
	5
	5
	5
	5
	5
	5
	5
	5
	5
	5
	5
	5
	5
	5
	5
	5
	5
	5
	5
	5
	5
	5
	5
	5
	5
	5
	5
	5
	5
	5
	5
	5
	5
	5
	5
	5
	5
	5
	5
	5
	5
	5
	5
	5
	5
	5
	5
	5
	5
	5
	5
	5
	5
	5
	5
	5
	5
	5
	5
	5
	5
	5
	5
	5
	5
	5
	5
	5
	5
	5
	5
	5
	5
	5
	5
	5
	5
	5
	5
	5
	5
	5
	5
	5
	5
	5
	5
	5
	5
	5
	5
	5
	5
	5
	5
	5
	5
	5
	5
	5
	5
	5
	5
	5
	5
	5
	5
	5
	5
	5
	5
	5
	5
	5
	5
	5
	5
	5
	5
	5
	5
	5
	5
	5
	5
	5
	5
	5
	5
	5
	5
	5
	5
	5
	5
	5
	5
	5
	5
	5
	5
	5
	5
	5
	5
	5
	5
	5
	5
	5
	5
	5
	5
	5
	5
	5
	5
	5
	5
	5
	5
	5
	5
	5
	5
	5
	5
	5
	5
	5
	5
	5
	5
	5
	5
	5
	5
	5
	5
	5
	5
	5
	5
	5
	5
	5
	5
	5
	5
	5
	5
	5
	5
	5
	5
	5
	5
	5
	5
	5
	5
	5
	5
	5
	5
	5
	5
	5
	5
	5
	5
	5
	5
	5
	5
	5
	5
	5
	5
	5
	5
	5
	5
	5
	5
	5
	5
	5
	5
	5
	5
	5
	5
	5
	5
	5
	5
	5
	5
	5
	5
	5
	5
	5
	5
	5
	5
	5
	5
	5
	5
	5
	5
	5
	5
	5
	5
	5
	5
	5
	5
	5
	5
	5
	5
	5
	5
	5
	5
	5
	5
	5
	5
	5
	5
	5
	5
	5
	5
	5
	5
	5
	5
	5
	5
	5
	5
	5
	5
	5
	5
	5
	5
	5
	5
	5
	5
	5
	5
	5
	5
	5
	5
	5
	5
	5
	5
	5
	5
	5
	5
	5
	5
	5
	5
	5
	5
	5
	5
	5
	5
	5
	5
	5
	5
	5
	5
	5
	5
	5
	5
	5
	5
	5
	5
	5
	5
	5
	5
	5
	5
	5
	5
	5
	5
	5
	5
	5
	5
	5
	5
	5
	5
	5
	5
	5
	5
	5
	5
	5
	5
	5
	5
	5
	5
	5
	5
	5
	5
	5
	5
	5
	5
	5
	5
	5
	5
	5
	5
	5
	5
	5
	5
	5
	5
	5
	5
	5
	5
	5
	5
	5
	5
	5
	5
	5
	5
	5
	5
	5
	5
	5
	5
	5
	5
	5
	5
	5
	5
	5
	5
	5
	5
	5
	5
	5
	5
	5
	5
	5
	5
	5
	5
	5
	5
	5
	5
	5
	5
	5
	5
	5
	5
	5
	5
	5
	5
	5
	5
	5
	5
	5
	5
	5
	5
	5
	5
	5
	5
	5
	5
	5
	5
	5
	5
	5
	5
	5
	5
	5
	5
	5
	5
	5
	5
	5
	5
	5
	5
	5
	5
	5
	5
	5
	5
	5
	5
	5
	5
	5
	5
	5
	5
	5
	5
	5
	5
	5
	5
	5
	5
	5
	5
	5
	5
	5
	5
	5
	5
	5
	5
	5
	5
	5
	5
	5
	5
	5
	5
	5
	5
	5
	5
	5
	5
	5
	5
	5
	5
	5
	5
	5
	5
	5
	5
	5
	5
	5
	5
	5
	5
	5
	5
	5
	5
	5
	5
	5
	5
	5
	5
	5
	5
	5
	5
	5
	5
	5
	5
	5
	5
	5
	5
	5
	5
	5
	5
	5
	5
	5
	5
	5
	5
	5
	5
	5
	5
	5
	5
	5
	5
	5
	5
	5
	5
	5
	5
	5
	5
	5
	5
	5
	5
	5
	5
	5
	5
	5
	5
	5
	5
	5
	5
	5
	5
	5
	5
	5
	5
	5
	5
	5
	5
	5
	5
	5
	5
	5
	5
	5
	5
	5
	5
	5
	5
	5
	5
	5
	5
	5
	5
	5
	5
	5
	5
	5
	5
	5
	5
	5
	5
	5
	5
	5
	5
	5
	5
	5
	5
	5
	5
	5
	5
	5
	5
	5
	5
	5
	5
	5
	5
	5
	5
	5
	5
	5
	5
	5
	5
	5
	5
	5
	5
	5
	5
	5
	5
	5
	5
	5
	5
	5
	5
	5
	5
	5
	5
	5
	5
	5
	5
	5
	5
	5
	5
	5
	5
	5
	5
	5
	5
	5
	5
	5
	5
	5
	5
	5
	5
	5
	5
	5
	5
	5
	5
	5
	5
	5
	5
	5
	5
	5
	5
	5
	5
	5
	5
	5
	5
	5
	5
	5
	5
	5
	5
	5
	5
	5
	5
	5
	5
	5
	5
	5
	5
	5
	5
	5
	5
	5
	5
	5
	5
	5
	5
	5
	5
	5
	5
	5
	5
	5
	5
	5
	5
	5
	5
	5
	5
	5
	5
	5
	5
	5
	5
	5
	5
	5
	5
	5
	5
	5
	5
	5
	5
	5
	5
	5
	5
	5
	5
	5
	5
	5
	5
	5
	5
	5
	5
	5
	5
	5
	5
	5
	5
	5
	5
	5
	5
	5
	5
	5
	5
	5
	5
	5
	5
	5
	5
	5
	5
	5
	5
	5
	5
	5
	5
	5
	5
	5
	5
	5
	5
	5
	5
	5
	5
	5
	5
	5
	5
	5
	5
	5
	5
	5
	5
	5
	5
	5
	5
	5
	5
	5
	5
	5
	5
	5
	5
	5
	5
	5
	5
	5
	5
	5
	5
	5
	5
	5
	5
	5
	5
	5
	5
	5
	5
	5
	5
	5
	5
	5
	5
	5
	5
	5
	5
	5
	5
	5
	5
	5
	5
	5
	5
	5
	5
	5
	5
	5
	5
	5
	5
	5
	5
	5
	5
	5
	5
	5
	5
	5
	5
	5
	5
	5
	5
	5
	5
	5
	5
	5
	5
	5
	5
	5
	5
	5
	5
	5
	5
	5
	5
	5
	5
	5
	5
	5
	5
	5
	5
	5
	5
	5
	5
	5
	5
	5
	5
	5
	5
	5
	5
	5
	5
	5
	5
	5
	5
	5
	5
	5
	5
	5
	5
	5
	5
	5
	5
	5
	5
	5
	5
	5
	5
	5
	5
	5
	5
	5
	5
	5
	5
	5
	5
	5
	5
	5
	5
	5
	5
	5
	5
	5
	5
	5
	5
	5
	5
	5
	5
	5
	5
	5
	5
	5
	5
	5
	5
	5
	5
	5
	5
	5
	5
	5
	5
	5
	5
	5
	5
	5
	5
	5
	5
	5
	5
	5
	5
	5
	5
	5
	5
	5
	5
	5
	5
	5
	5
	5
	5
	5
	5
	5
	5
	5
	5
	5
	5
	5
	5
	5
	5
	5
	5
	5
	5
	5
	5
	5
	5
	5
	5
	5
	5
	5
	5
	5
	5
	5
	5
	5
	5
	5
	5
	5
	5
	5
	5
	5
	5
	5
	5
	5
	5
	5
	5
	5
	5
	5
	5
	5
	5
	5
	5
	5
	5
	5
	5
	5
	5
	5
	5
	5
	5
	5
	5
	5
	5
	5
	5
	5
	5
	5
	5
	5
	5
	5
	5
	5
	5
	5
	5
	5
	5
	5
	5
	5
	5
	5
	5
	5
	5
	5
	5
	5
	5
	5
	5
	5
	5
	5
	5
	5
	5
	5
	5
	5
	5
	5
	5
	5
	5
	5
	5
	5
	5
	5
	5
	5
	5
	5
	5
	5
	5
	5
	5
	5
	5
	5
	5
	5
	5
	5
	5
	5
	5
	5
	5
	5
	5
	5
	5
	5
	5
	5
	5
	5
	5
	5
	5
	5
	5
	5
	5
	5
	5
	5
	5
	5
	5
	5
	5
	5
	5
	5
	5
	5
	5
	5
	5
	5
	5
	5
	5
	5
	5
	5
	5
	5
	5
	5
	5
	5
	5
	5
	5
	5
	5
	5
	5
	5
	5
	5
	5
	5
	5
	5
	5
	5
	5
	5
	5
	5
	5
	5
	5
	5
	5
	5
	5
	5
	5
	5
	5
	5
	5
	5
	5
	5
	5
	5
	5
	5
	5
	5
	5
	5
	5
	5
	5
	5
	5
	5
	5
	5
	5
	5
	5
	5
	5
	5
	5
	5
	5
	5
	5
	5
	5
	5
	5
	5
	5
	5
	5
	5
	5
	5
	5
	5
	5
	5
	5
	5
	5
	5
	5
	5
	5
	5
	5
	5
	5
	5
	5
	5
	5
	5
	5
	5
	5
	5
	5
	5
	5
	5
	5
	5
	5
	5
	5
	5
	5
	5
	5
	5
	5
	5
	5
	5
	5
	5
	5
	5
	5
	5
	5
	5
	5
	5
	5
	5
	5
	5
	5
	5
	5
	5
	5
	5
	5
	5
	5
	5
	5
	5
	5
	5
	5
	5
	5
	5
	5
	5
	5
	5
	5
	5
	5
	5
	5
	5
	5
	5
	5
	5
	5
	5
	5
	5
	5
	5
	5
	5
	5
	5
	5
	5
	5
	5
	5
	5
	5
	5
	5
	5
	5
	5
	5
	5
	5
	5
	5
	5
	5
	5
	5
	5
	5
	5
	5
	5
	5
	5
	5
	5
	5
	5
	5
	5
	5
	5
	5
	5
	5
	5
	5
	5
	5
	5
	5
	5
	5
	5
	5
	5
	5
	5
	5
	5
	5
	5
	5
	5
	5
	5
	5
	5
	5
	5
	5
	5
	5
	5
	5
	5
	5
	5
	5
	5
	5
	5
	5
	5
	5
	5
	5
	5
	5
	5
	5
	5
	5
	5
	5
	5
	5
	5
	5
	5
	5
	5
	5
	5
	5
	5
	5
	5
	5
	5
	5
	5
	5
	5
	5
	5
	5
	5
	5
	5
	5
	5
	5
	5
	5
	5
	5
	5
	5
	5
	5
	5
	5
	5
	5
	5
	5
	5
	5
	5
	5
	5
	5
	5
	5
	5
	5
	5
	5
	5
	5
	5
	5
	5
	5
	5
	5
	5
	5
	5
	5
	5
	5
	5
	5
	5
	5
	5
	5
	5
	5
	5
	5
	5
	5
	5
	5
	5
	5
	5
	5
	5
	5
	5
	5
	5
	5
	5
	5
	5
	5
	5
	5
	5
	5
	5
	5
	5
	5
	5
	5
	5
	5
	5
	5
	5
	5
	5
	5
	5
	5
	5
	5
	5
	5
	5
	5
	5
	5
	5
	5
	5
	5
	5
	5
	5
	5
	5
	5
	5
	5
	5
	5
	5
	5
	5
	5
	5
	5
	5
	5
	5
	5
	5
	5
	5
	5
	5
	5
	5
	5
	5
	5
	5
	5
	5
	5
	5
	5
	5
	5
	5
	5
	5
	5
	5
	5
	5
	5
	5
	5
	5
	5
	5
	5
	5
	5
	5
	5
	5
	5
	5
	5
	5
	5
	5
	5
	5
	5
	5
	5
	5
	5
	5
	5
	5
	5
	5
	5
	5
	5
	5
	5
	5
	5
	5
	5
	5
	5
	5
	5
	5
	5
	5
	5
	5
	5
	5
	5
	5
	5
	5
	5
	5
	5
	5
	5
	5
	5
	5
	5
	5
	5
	5
	5
	5
	5
	5
	5
	5
	5
	5
	5
	5
	5
	5
	5
	5
	5
	5
	5
	5
	5
	5
	5
	5
	5
	5
	5
	5
	5
	5
	5
	5
	5
	5
	5
	5
	5
	5
	5
	5
	5
	5
	5
	5
	5
	5
	5
	5
	5
	5
	5
	5
	5
	5
	5
	5
	5
	5
	5
	5
	5
	5
	5
	5
	5
	5
	5
	5
	5
	5
	5
	5
	5
	5
	5
	5
	5
	5
	5
	5
	5
	5
	5
	5
	5
	5
	5
	5
	5
	5
	5
	5
	5
	5
	5
	5
	5
	5
	5
	5
	5
	5
	5
	5
	5
	5
	5
	5
	5
	5
	5
	5
	5
	5
	5
	5
	5
	5
	5
	5
	5
	5
	5
	5
	5
	5
	5
	5
	5
	5
	5
	5
	5
	5
	5
	5
	5
	5
	5
	5
	5
	5
	5
	5
	5
	5
	5
	5
	5
	5
	5
	5
	5
	5
	5
	5
	5
	5
	5
	5
	5
	5
	5
	5
	5
	5
	5
	5
	5
	5
	5
	5
	5
	5
	5
	5
	5
	5
	5
	5
	5
	5
	5
	5
	5
	5
	5
	5
	5
	5
	5
	5
	5
	5
	5
	5
	5
	5
	5
	5
	5
	5
	5
	5
	5
	5
	5
	5
	5
	5
	5
	5
	5
	5
	5
	5
	5
	5
	5
	5
	5
	5
	5
	5
	5
	5
	5
	5
	5
	5
	5
	5
	5
	5
	5
	5
	5
	5
	5
	5
	5
	5
	5
	5
	5
	5
	5
	5
	5
	5
	5
	5
	5
	5
	5
	5
	5
	5
	5
	5
	5
	5
	5
	5
	5
	5
	5
	5
	5
	5
	5
	5
	5
	5
	5
	5
	5
	5
	5
	5
	5
	5
	5
	5
	5
	5
	5
	5
	5
	5
	5
	5
	5
	5
	5
	5
	5
	5
	5
	5
	5
	5
	5
	5
	5
	5
	5
	5
	5
	5
	5
	5
	5
	5
	5
	5
	5
	5
	5
	5
	5
	5
	5
	5
	5
	5
	5
	5
	5
	5
	5
	5
	5
	5
	5
	5
	5
	5
	5
	5
	5
	5
	5
	5
	5
	5
	5
	5
	5
	5
	5
	5
	5
	5
	5
	5
	5
	5
	5
	5
	5
	5
	5
	5
	5
	5
	5
	5
	5
	5
	5
	5
	5
	5
	5
	5
	5
	5
	5
	5
	5
	5
	5
	5
	5
	5
	5
	5
	5
	5
	5
	5
	5
	5
	5
	5
	5
	5
	5
	5
	5
	5
	5
	5
	5
	5
	5
	5
	5
	5
	5
	5
	5
	5
	5
	5
	5
	5
	5
	5
	5
	5
	5
	5
	5
	5
	5
	5
	5
	5
	5
	5
	5
	5
	5
	5
	5
	5
	5
	5
	5
	5
	5
	5
	5
	5
	5
	5
	5
	5
	5
	5
	5
	5
	5
	5
	5
	5
	5
	5
	5
	5
	5
	5
	5
	5
	5
	5
	5
	5
	5
	5
	5
	5
	5
	5
	5
	5
	5
	5
	5
	5
	5
	5
	5
	5
	5
	5
	5
	5
	5
	5
	5
	5
	5
	5
	5
	5
	5
	5
	5
	5
	5
	5
	5
	5
	5
	5
	5
	5
	5
	5
	5
	5
	5
	5
	5
	5
	5
	5
	5
	5
	5
	5
	5
	5
	5
	5
	5
	5
	5
	5
	5
	5
	5
	5
	5
	5
	5
	5
	5
	5
	5
	5
	5
	5
	5
	5
	5
	5
	5
	5
	5
	5
	5
	5
	5
	5
	5
	5
	5
	5
	5
	5
	5
	5
	5
	5
	5
	5
	5
	5
	5
	5
	5
	5
	5
	5
	5
	5
	5
	5
	5
	5
	5
	5
	5
	5
	5
	5
	5
	5
	5
	5
	5
	5
	5
	5
	5
	5
	5
	5
	5
	5
	5
	5
	5
	5
	5
	5
	5
	5
	5
	5
	5
	5
	5
	5
	5
	5
	5
	5
	5
	5
	5
	5
	5
	5
	5
	5
	5
	5
	5
	5
	5
	5
	5
	5
	5
	5
	5
	5
	5
	5
	5
	5
	5
	5
	5
	5
	5
	5
	5
	5
	5
	5
	5
	5
	5
	5
	5
	5
	5
	5
	5
	5
	5
	5
	5
	5
	5
	5
	5
	5
	5
	5
	5
	5
	5
	5
	5
	5
	5
	5
	5
	5
	5
	5
	5
	5
	5
	5
	5
	5
	5
	5
	5
	5
	5
	5
	5
	5
	5
	5
	5
	5
	5
	5
	5
	5
	5
	5
	5
	5
	5
	5
	5
	5
	5
	5
	5
	5
	5
	5
	5
	5
	5
	5
	5
	5
	5
	5
	5
	5
	5
	5
	5
	5
	5
	5
	5
	5
	5
	5
	5
	5
	5
	5
	5
	5
	5
	5
	5
	5
	5
	5
	5
	5
	5
	5
	5
	5
	5
	5
	5
	5
	5
	5
	5
	5
	5
	5
	5
	5
	5
	5
	5
	5
	5
	5
	5
	5
	5
	5
	5
	5
	5
	5
	5
	5
	5
	5
	5
	5
	5
	5
	5
	5
	5
	5
	5
	5
	5
	5
	5
	5
	5
	5
	5
	5
	5
	5
	5
	5
	5
	5
	5
	5
	5
	5
	5
	5
	5
	5
	5
	5
	5
	5
	5
	5
	5
	5
	5
	5
	5
	5
	5
	5
	5
	5
	5
	5
	5
	5
	5
	5
	5
	5
	5
	5
	5
	5
	5
	5
	5
	5
	5
	5
	5
	5
	5
	5
	5
	5
	5
	5
	5
	5
	5
	5
	5
	5
	5
	5
	5
	5
	5
	5
	5
	5
	5
	5
	5
	5
	5
	5
	5
	5
	5
	5
	5
	5
	5
	5
	5
	5
	5
	5
	5
	5
	5
	5
	5
	5
	5
	5
	5
	5
	5
	5
	5
	5
	5
	5
	5
	5
	5
	5
	5
	5
	5
	5
	5
	5
	5
	5
	5
	5
	5
	5
	5
	5
	5
	5
	5
	5
	5
	5
	5
	5
	5
	5
	5
	5
	5
	5
	5
	5
	5
	5
	5
	5
	5
	5
	5
	5
	5
	5
	5
	5
	5
	5
	5
	5
	5
	5
	5
	5
	5
	5
	5
	5
	5
	5
	5
	5
	5
	5
	5
	5
	5
	5
	5
	5
	5
	5
	5
	5
	5
	5
	5
	5
	5
	5
	5
	5
	5
	5
	5
	5
	5
	5
	5
	5
	5
	5
	5
	5
	5
	5
	5
	5
	5
	5
	5
	5
	5
	5
	5
	5
	5
	5
	5
	5
	5
	5
	5
	5
	5
	5
	5
	5
	5
	5
	5
	5
	5
	5
	5
	5
	5
	5
	5
	5
	5
	5
	5
	5
	5
	5
	5
	5
	5
	5
	5
	5
	5
	5
	5
	5
	5
	5
	5
	5
	5
	5
	5
	5
	5
	5
	5
	5
	5
	5
	5
	5
	5
	5
	5
	5
	5
	5
	5
	5
	5
	5
	5
	5
	5
	5
	5
	5
	5
	5
	5
	5
	5
	5
	5
	5
	5
	5
	5
	5
	5
	5
	5
	5
	5
	5
	5
	5
	5
	5
	5
	5
	5
	5
	5
	5
	5
	5
	5
	5
	5
	5
	5
	5
	5
	5
	5
	5
	5
	5
	5
	5
	5
	5
	5
	5
	5
	5
	5
	5
	5
	5
	5
	5
	5
	5
	5
	5
	5
	5
	5
	5
	5
	5
	5
	5
	5
	5
	5
	5
	5
	5
	5
	5
	5
	5
	5
	5
	5
	5
	5
	5
	5
	5
	5
	5
	5
	5
	5
	5
	5
	5
	5
	5
	5
	5
	5
	5
	5
	5
	5
	5
	5
	5
	5
	5
	5
	5
	5
	5
	5
	5
	5
	5
	5
	5
	5
	5
	5
	5
	5
	5
	5
	5
	5
	5
	5
	5
	5
	5
	5
	5
	5
	5
	5
	5
	5
	5
	5
	5
	5
	5
	5
	5
	5
	5
	5
	5
	5
	5
	5
	5
	5
	5
	5
	5
	5
	5
	5
	5
	5
	5
	5
	5
	5
	5
	5
	5
	5
	5
	5
	5
	5
	5
	5
	5
	5
	5
	5
	5
	5
	5
	5
	5
	5
	5
	5
	5
	5
	5
	5
	5
	5
	5
	5
	5
	5
	5
	5
	5
	5
	5
	5
	5
	5
	5
	5
	5
	5
	5
	5
	5
	5
	5
	5
	5
	5
	5
	5
	5
	5
	5
	5
	5
	5
	5
	5
	5
	5
	5
	5
	5
	5
	5
	5
	5
	5
	5
	5
	5
	5
	5
	5
	5
	5
	5
	5
	5
	5
	5
	5
	5
	5
	5
	5
	5
	5
	5
	5
	5
	5
	5
	5
	5
	5
	5
	5
	5
	5
	5
	5
	5
	5
	5
	5
	5
	5
	5
	5
	5
	5
	5
	5
	5
	5
	5
	5
	5
	5
	5
	5
	5
	5
	5
	5
	5
	5
	5
	5
	5
	5
	5
	5
	5
	5
	5
	5
	5
	5
	5
	5
	5
	5
	5
	5
	5
	5
	5
	5
	5
	5
	5
	5
	5
	5
	5
	5
	5
	5
	5
	5
	5
	5
	5
	5
	5
	5
	5
	5
	5
	5
	5
	5
	5
	5
	5
	5
	5
	5
	5
	5
	5
	5
	5
	5
	5
	5
	5
	5
	5
	5
	5
	5
	5
	5
	5
	5
	5
	5
	5
	5
	5
	5
	5
	5
	5
	5
	5
	5
	5
	5
	5
	5
	5
	5
	5
	5
	5
	5
	5
	5
	5
	5
	5
	5
	5
	5
	5
	5
	5
	5
	5
	5
	5
	5
	5
	5
	5
	5
	5
	5
	5
	5
	5
	5
	5
	5
	5
	5
	5
	5
	5
	5
	5
	5
	5
	5
	5
	5
	5
	5
	5
	5
	5
	5
	5
	5
	5
	5
	5
	5
	5
	5
	5
	5
	5
	5
	5
	5
	5
	5
	5
	5
	5
	5
	5
	5
	5
	5
	5
	5
	5
	5
	5
	5
	5
	5
	5
	5
	5
	5
	5
	5
	5
	5
	5
	5
	5
	5
	5
	5
	5
	5
	5
	5
	5
	5
	5
	5
	5
	5
	5
	5
	5
	5
	5
	5
	5
	5
	5
	5
	5
	5
	5
	5
	5
	5
	5
	5
	5
	5
	5
	5
	5
	5
	5
	5
	5
	5
	5
	5
	5
	5
	5
	5
	5
	5
	5
	5
	5
	5
	5
	5
	5
	5
	5
	5
	5
	5
	5
	5
	5
	5
	5
	5
	5
	5
	5
	5
	5
	5
	5
	5
	5
	5
	5
	5
	5
	5
	5
	5
	5
	5
	5
	5
	5
	5
	5
	5
	5
	5
	5
	5
	5
	5
	5
	5
	5
	5
	5
	5
	5
	5
	5
	5
	5
	5
	5
	5
	5
	5
	5
	5
	5
	5
	5
	5
	5
	5
	5
	5
	5
	5
	5
	5
	5
	5
	5
	5
	5
	5
	5
	5
	5
	5
	5
	5
	5
	5
	5
	5
	5
	5
	5
	5
	5
	5
	5
	5
	5
	5
	5
	5
	5
	5
	5
	5
	5
	5
	5
	5
	5
	5
	5
	5
	5
	5
	5
	5
	5
	5
	5
	5
	5
	5
	5
	5
	5
	5
	5
	5
	5
	5
	5
	5
	5
	5
	5
	5
	5
	5
	5
	5
	5
	5
	5
	5
	5
	5
	5
	5
	5
	5
	5
	5
	5
	5
	5
	5
	5
	5
	5
	5
	5
	5
	5
	5
	5
	5
	5
	5
	5
	5
	5
	5
	5
	5
	5
	5
	5
	5
	5
	5
	5
	5
	5
	5
	5
	5
	5
	5
	5
	5
	5
	5
	5
	5
	5
	5
	5
	5
	5
	5
	5
	5
	5
	5
	5
	5
	5
	5
	5
	5
	5
	5
	5
	5
	5
	5
	5
	5
	5
	5
	5
	5
	5
	5
	5
	5
	5
	5
	5
	5
	5
	5
	5
	5
	5
	5
	5
	5
	5
	5
	5
	5
	5
	5
	5
	5
	5
	5
	5
	5
	5
	5
	5
	5
	5
	5
	5
	5
	5
	5
	5
	5
	5
	5
	5
	5
	5
	5
	5
	5
	5
	5
	5
	5
	5
	5
	5
	5
	5
	5
	5
	5
	5
	5
	5
	5
	5
	5
	5
	5
	5
	5
	5
	5
	5
	5
	5
	5
	5
	5
	5
	5
	5
	5
	5
	5
	5
	5
	5
	5
	5
	5
	5
	5
	5
	5
	5
	5
	5
	5
	5
	5
	5
	5
	5
	5
	5
	5
	5
	5
	5
	5
	5
	5
	5
	5
	5
	5
	5
	5
	5
	5
	5
	5
	5
	5
	5
	5
	5
	5
	5
	5
	5
	5
	5
	5
	5
	5
	5
	5
	5
	5
	5
	5
	5
	5
	5
	5
	5
	5
	5
	5
	5
	5
	5
	5
	5
	5
	5
	5
	5
	5
	5
	5
	5
	5
	5
	5
	5
	5
	5
	5
	5
	5
	5
	5
	5
	5
	5
	5
	5
	5
	5
	5
	5
	5
	5
	5
	5
	5
	5
	5
	5
	5
	5
	5
	5
	5
	5
	5
	5
	5
	5
	5
	5
	5
	5
	5
	5
	5
	5
	5
	5
	5
	5
	5
	5
	5
	5
	5
	5
	5
	5
	5
	5
	5
	5
	5
	5
	5
	5
	5
	5
	5
	5
	5
	5
	5
	5
	5
	5
	5
	5
	5
	5
	5
	5
	5
	5
	5
	5
	5
	5
	5
	5
	5
	5
	5
	5
	5
	5
	5
	5
	5
	5
	5
	5
	5
	5
	5
	5
	5
	5
	5
	5
	5
	5
	5
	5
	5
	5
	5
	5
	5
	5
	5
	5
	5
	5
	5
	5
	5
	5
	5
	5
	5
	5
	5
	5
	5
	5
	5
	5
	5
	5
	5
	5
	5
	5
	5
	5
	5
	5
	5
	5
	5
	5
	5
	5
	5
	5
	5
	5
	5
	5
	5
	5
	5
	5
	5
	5
	5
	5
	5
	5
	5
	5
	5
	5
	5
	5
	5
	5
	5
	5
	5
	5
	5
	5
	5
	5
	5
	5
	5
	5
	5
	5
	5
	5
	5
	5
	5
	5
	5
	5
	5
	5
	5
	5
	5
	5
	5
	5
	5
	5
	5
	5
	5
	5
	5
	5
	5
	5
	5
	5
	5
	5
	5
	5
	5
	5
	5
	5
	5
	5
	5
	5
	5
	5
	5
	5
	5
	5
	5
	5
	5
	5
	5
	5
	5
	5
	5
	5
	5
	5
	5
	5
	5
	5
	5
	5
	5
	5
	5
	5
	5
	5
	5
	5
	5
	5
	5
	5
	5
	5
	5
	5
	5
	5
	5
	5
	5
	5
	5
	5
	5
	5
	5
	5
	5
	5
	5
	5
	5
	5
	5
	5
	5
	5
	5
	5
	5
	5
	5
	5
	5
	5
	5
	5
	5
	5
	5
	5
	5
	5
	5
	5
	5
	5
	5
	5
	5
	5
	5
	5
	5
	5
	5
	5
	5
	5
	5
	5
	5
	5
	5
	5
	5
	5
	5
	5
	5
	5
	5
	5
	5
	5
	5
	5
	5
	5
	5
	5
	5
	5
	5
	5
	5
	5
	5
	5
	5
	5
	5
	5
	5
	5
	5
	5
	5
	5
	5
	5
	5
	5
	5
	5
	5
	5
	5
	5
	5
	5
	5
	5
	5
	5
	5
	5
	5
	5
	5
	5
	5
	5
	5
	5
	5
	5
	5
	5
	5
	5
	5
	5
	5
	5
	5
	5
	5
	5
	5
	5
	5
	5
	5
	5
	5
	5
	5
	5
	5
	5
	5
	5
	5
	5
	5
	5
	5
	5
	5
	5
	5
	5
	5
	5
	5
	5
	5
	5
	5
	5
	5
	5
	5
	5
	5
	5
	5
	5
	5
	5
	5
	5
	5
	5
	5
	5
	5
	5
	5
	5
	5
	5
	5
	5
	5
	5
	5
	5
	5
	5
	5
	5
	5
	5
	5
	5
	5
	5
	5
	5
	5
	5
	5
	5
	5
	5
	5
	5
	5
	5
	5
	5
	5
	5
	5
	5
	5
	5
	5
	5
	5
	5
	5
	5
	5
	5
	5
	5
	5
	5
	5
	5
	5
	5
	5
	5
	5
	5
	5
	5
	5
	5
	5
	5
	5
	5
	5
	5
	5
	5
	5
	5
	5
	5
	5
	5
	5
	5
	5
	5
	5
	5
	5
	5
	5
	5
	5
	5
	5
	5
	5
	5
	5
	5
	5
	5
	5
	5
	5
	5
	5
	5
	5
	5
	5
	5
	5
	5
	5
	5
	5
	5
	5
	5
	5
	5
	5
	5
	5
	5
	5
	5
	5
	5
	5
	5
	5
	5
	5
	5
	5
	5
	5
	5
	5
	5
	5
	5
	5
	5
	5
	5
	5
	5
	5
	5
	5
	5
	5
	5
	5
	5
	5
	5
	5
	5
	5
	5
	5
	5
	5
	5
	5
	5
	5
	5
	5
	5
	5
	5
	5
	5
	5
	5
	5
	5
	5
	5
	5
	5
	5
	5
	5
	5
	5
	5
	5
	5
	5
	5
	5
	5
	5
	5
	5
	5
	5
	5
	5
	5
	5
	5
	5
	5
	5
	5
	5
	5
	5
	5
	5
	5
	5
	5
	5
	5
	5
	5
	5
	5
	5
	5
	5
	5
	5
	5
	5
	5
	5
	5
	5
	5
	5
	5
	5
	5
	5
	5
	5
	5
	5
	5
	5
	5
	5
	5
	5
	5
	5
	5
	5
	5
	5
	5
	5
	5
	5
	5
	5
	5
	5
	5
	5
	5
	5
	5
	5
	5
	5
	5
	5
	5
	5
	5
	5
	5
	5
	5
	5
	5
	5
	5
	5
	5
	5
	5
	5
	5
	5
	5
	5
	5
	5
	5
	5
	5
	5
	5
	5
	5
	5
	5
	5
	5
	5
	5
	5
	5
	5
	5
	5
	5
	5
	5
	5
	5
	5
	5
	5
	5
	5
	5
	5
	5
	5
	5
	5
	5
	5
	5
	5
	5
	5
	5
	5
	5
	5
	5
	5
	5
	5
	5
	5
	5
	5
	5
	5
	5
	5
	5
	5
	5
	5
	5
	5
	5
	5
	5
	5
	5
	5
	5
	5
	5
	5
	5
	5
	5
	5
	5
	5
	5
	5
	5
	5
	5
	5
	5
	5
	5
	5
	5
	5
	5
	5
	5
	5
	5
	5
	5
	5
	5
	5
	5
	5
	5
	5
	5
	5
	5
	5
	5
	5
	5
	5
	5
	5
	5
	5
	5
	5
	5
	5
	5
	5
	5
	5
	5
	5
	5
	5
	5
	5
	5
	5
	5
	5
	5
	5
	5
	5
	5
	5
	5
	5
	5
	5
	5
	5
	5
	5
	5
	5
	5
	5
	5
	5
	5
	5
	5
	5
	5
	5
	5
	5
	5
	5
	5
	5
	5
	5
	5
	5
	5
	5
	5
	5
	5
	5
	5
	5
	5
	5
	5
	5
	5
	5
	5
	5
	5
	5
	5
	5
	5
	5
	5
	5
	5
	5
	5
	5
	5
	5
	5
	5
	5
	5
	5
	5
	5
	5
	5
	5
	5
	5
	5
	5
	5
	5
	5
	5
	5
	5
	5
	5
	5
	5
	5
	5
	5
	5
	5
	5
	5
	5
	5
	5
	5
	5
	5
	5
	5
	5
	5
	5
	5
	5
	5
	5
	5
	5
	5
	5
	5
	5
	5
	5
	5
	5
	5
	5
	5
	5
	5
	5
	5
	5
	5
	5
	5
	5
	5
	5
	5
	5
	5
	5
	5
	5
	5
	5
	5
	5
	5
	5
	5
	5
	5
	5
	5
	5
	5
	5
	5
	5
	5
	5
	5
	5
	5
	5
	5
	5
	5
	5
	5
	5
	5
	5
	5
	5
	5
	5
	5
	5
	5
	5
	5
	5
	5
	5
	5
	5
	5
	5
	5
	5
	5
	5
	5
	5
	5
	5
	5
	5
	5
	5
	5
	5
	5
	5
	5
	5
	5
	5
	5
	5
	5
	5
	5
	5
	5
	5
	5
	5
	5
	5
	5
	5
	5
	5
	5
	5
	5
	5
	5
	5
	5
	5
	5
	5
	5
	5
	5
	5
	5
	5
	5
	5
	5
	5
	5
	5
	5
	5
	5
	5
	5
	5
	5
	5
	5
	5
	5
	5
	5
	5
	5
	5
	5
	5
	5
	5
	5
	5
	5
	5
	5
	5
	5
	5
	5
	5
	5
	5
	5
	5
	5
	5
	5
	5
	5
	5
	5
	5
	5
	5
	5
	5
	5
	5
	5
	5
	5
	5
	5
	5
	5
	5
	5
	5
	5
	5
	5
	5
	5
	5
	5
	5
	5
	5
	5
	5
	5
	5
	5
	5
	5
	5
	5
	5
	5
	5
	5
	5
	5
	5
	5
	5
	5
	5
	5
	5
	5
	5
	5
	5
	5
	5
	5
	5
	5
	5
	5
	5
	5
	5
	5
	5
	5
	5
	5
	5
	5
	5
	5
	5
	5
	5
	5
	5
	5
	5
	5
	5
	5
	5
	5
	5
	5
	5
	5
	5
	5
	5
	5
	5
	5
	5
	5
	5
	5
	5
	5
	5
	5
	5
	5
	5
	5
	5
	5
	5
	5
	5
	5
	5
	5
	5
	5
	5
	5
	5
	5
	5
	5
	5
	5
	5
	5
	5
	5
	5
	5
	5
	5
	5
	5
	5
	5
	5
	5
	5
	5
	5
	5
	5
	5
	5
	5
	5
	5
	5
	5
	5
	5
	5
	5
	5
	5
	5
	5
	5
	5
	5
	5
	5
	5
	5
	5
	5
	5
	5
	5
	5
	5
	5
	5
	5
	5
	5
	5
	5
	5
	5
	5
	5
	5
	5
	5
	5
	5
	5
	5
	5
	5
	5
	5
	5
	5
	5
	5
	5
	5
	5
	5
	5
	5
	5
	5
	5
	5
	5
	5
	5
	5
	5
	5
	5
	5
	5
	5
	5
	5
	5
	5
	5
	5
	5
	5
	5
	5
	5
	5
	5
	5
	5
	5
	5
	5
	5
	5
	5
	5
	5
	5
	5
	5
	5
	5
	5
	5
	5
	5
	5
	5
	5
	5
	5
	5
	5
	5
	5
	5
	5
	5
	5
	5
	5
	5
	5
	5
	5
	5
	5
	5
	5
	5
	5
	5
	5
	5
	5
	5
	5
	5
	5
	5
	5
	5
	5
	5
	5
	5
	5
	5
	5
	5
	5
	5
	5
	5
	5
	5
	5
	5
	5
	5
	5
	5
	5
	5
	5
	5
	5
	5
	5
	5
	5
	5
	5
	5
	5
	5
	5
	5
	5
	5
	5
	5
	5
	5
	5
	5
	5
	5
	5
	5
	5
	5
	5
	5
	5
	5
	5
	5
	5
	5
	5
	5
	5
	5
	5
	5
	5
	5
	5
	5
	5
	5
	5
	5
	5
	5
	5
	5
	5
	5
	5
	5
	5
	5
	5
	5
	5
	5
	5
	5
	5
	5
	5
	5
	5
	5
	5
	5
	5
	5
	5
	5
	5
	5
	5
	5
	5
	5
	5
	5
	5
	5
	5
	5
	5
	5
	5
	5
	5
	5
	5
	5
	5
	5
	5
	5
	5
	5
	5
	5
	5
	5
	5
	5
	5
	5
	5
	5
	5
	5
	5
	5
	5
	5
	5
	5
	5
	5
	5
	5
	5
	5
	5
	5
	5
	5
	5
	5
	5
	5
	5
	5
	5
	5
	5
	5
	5
	5
	5
	5
	5
	5
	5
	5
	5
	5
	5
	5
	5
	5
	5
	5
	5
	5
	5
	5
	5
	5
	5
	5
	5
	5
	5
	5
	5
	5
	5
	5
	5
	5
	5
	5
	5
	5
	5
	5
	5
	5
	5
	5
	5
	5
	5
	5
	5
	5
	5
	5
	5
	5
	5
	5
	5
	5
	5
	5
	5
	5
	5
	5
	5
	5
	5
	5
	5
	5
	5
	5
	5
	5
	5
	5
	5
	5
	5
	5
	5
	5
	5
	5
	5
	5
	5
	5
	5
	5
	5
	5
	5
	5
	5
	5
	5
	5
	5
	5
	5
	5
	5
	5
	5
	5
	5
	5
	5
	5
	5
	5
	5
	5
	5
	5
	5
	5
	5
	5
	5
	5
	5
	5
	5
	5
	5
	5
	5
	5
	5
	5
	5
	5
	5
	5
	5
	5
	5
	5
	5
	5
	5
	5
	5
	5
	5
	5
	5
	5
	5
	5
	5
	5
	5
	5
	5
	5
	5
	5
	5
	5
	5
	5
	5
	5
	5
	5
	5
	5
	5
	5
	5
	5
	5
	5
	5
	5
	5
	5
	5
	5
	5
	5
	5
	5
	5
	5
	5
	5
	5
	5
	5
	5
	5
	5
	5
	5
	5
	5
	5
	5
	5
	5
	5
	5
	5
	5
	5
	5
	5
	5
	5
	5
	5
	5
	5
	5
	5
	5
	5
	5
	5
	5
	5
	5
	5
	5
	5
	5
	5
	5
	5
	5
	5
	5
	5
	5
	5
	5
	5
	5
	5
	5
	5
	5
	5
	5
	5
	5
	5
	5
	5
	5
	5
	5
	5
	5
	5
	5
	5
	5
	5
	5
	5
	5
	5
	5
	5
	5
	5
	5
	5
	5
	5
	5
	5
	5
	5
	5
	5
	5
	5
	5
	5
	5
	5
	5
	5
	5
	5
	5
	5
	5
	5
	5
	5
	5
	5
	5
	5
	5
	5
	5
	5
	5
	5
	5
	5
	5
	5
	5
	5
	5
	5
	5
	5
	5
	5
	5
	5
	5
	5
	5
	5
	5
	5
	5
	5
	5
	5
	5
	5
	5
	5
	5
	5
	5
	5
	5
	5
	5
	5
	5
	5
	5
	5
	5
	5
	5
	5
	5
	5
	5
	5
	5
	5
	5
	5
	5
	5
	5
	5
	5
	5
	5
	5
	5
	5
	5
	5
	5
	5
	5
	5
	5
	5
	5
	5
	5
	5
	5
	5
	5
	5
	5
	5
	5
	5
	5
	5
	5
	5
	5
	5
	5
	5
	5
	5
	5
	5
	5
	5
	5
	5
	5
	5
	5
	5
	5
	5
	5
	5
	5
	5
	5
	5
	5
	5
	5
	5
	5
	5
	5
	5
	5
	5
	5
	5
	5
	5
	5
	5
	5
	5
	5
	5
	5
	5
	5
	5
	5
	5
	5
	5
	5
	5
	5
	5
	5
	5
	5
	5
	5
	5
	5
	5
	5
	5
	5
	5
	5
	5
	5
	5
	5
	5
	5
	5
	5
	5
	5
	5
	5
	5
	5
	5
	5
	5
	5
	5
	5
	5
	5
	5
	5
	5
	5
	5
	5
	5
	5
	5
	5
	5
	5
	5
	5
	5
	5
	5
	5
	5
	5
	5
	5
	5
	5
	5
	5
	5
	5
	5
	5
	5
	5
	5
	5
	5
	5
	5
	5
	5
	5
	5
	5
	5
	5
	5
	5
	5
	5
	5
	5
	5
	5
	5
	5
	5
	5
	5
	5
	5
	5
	5
	5
	5
	5
	5
	5
	5
	5
	5
	5
	5
	5
	5
	5
	5
	5
	5
	5
	5
	5
	5
	5
	5
	5
	5
	5
	5
	5
	5
	5
	5
	5
	5
	5
	5
	5
	5
	5
	5
	5
	5
	5
	5
	5
	5
	5
	5
	5
	5
	5
	5
	5
	5
	5
	5
	5
	5
	5
	5
	5
	5
	5
	5
	5
	5
	5
	5
	5
	5
	5
	5
	5
	5
	5
	5
	5
	5
	5
	5
	5
	5
	5
	5
	5
	5
	5
	5
	5
	5
	5
	5
	5
	5
	5
	5
	5
	5
	5
	5
	5
	5
	5
	5
	5
	5
	5
	5
	5
	5
	5
	5
	5
	5
	5
	5
	5
	5
	5
	5
	5
	5
	5
	5
	5
	5
	5
	5
	5
	5
	5
	5
	5
	5
	5
	5
	5
	5
	5
	5
	5
	5
	5
	5
	5
	5
	5
	5
	5
	5
	5
	5
	5
	5
	5
	5
	5
	5
	5
	5
	5
	5
	5
	5
	5
	5
	5
	5
	5
	5
	5
	5
	5
	5
	5
	5
	5
	5
	5
	5
	5
	5
	5
	5
	5
	5
	5
	5
	5
	5
	5
	5
	5
	5
	5
	5
	5
	5
	5
	5
	5
	5
	5
	5
	5
	5
	5
	5
	5
	5
	5
	5
	5
	5
	5
	5
	5
	5
	5
	5
	5
	5
	5
	5
	5
	5
	5
	5
	5
	5
	5
	5
	5
	5
	5
	5
	5
	5
	5
	5
	5
	5
	5
	5
	5
	5
	5
	5
	5
	5
	5
	5
	5
	5
	5
	5
	5
	5
	5
	5
	5
	5
	5
	5
	5
	5
	5
	5
	5
	5
	5
	5
	5
	5
	5
	5
	5
	5
	5
	5
	5
	5
	5
	5
	5
	5
	5
	5
	5
	5
	5
	5
	5
	5
	5
	5
	5
	5
	5
	5
	5
	5
	5
	5
	5
	5
	5
	5
	5
	5
	5
	5
	5
	5
	5
	5
	5
	5
	5
	5
	5
	5
	5
	5
	5
	5
	5
	5
	5
	5
	5
	5
	5
	5
	5
	5
	5
	5
	5
	5
	5
	5
	5
	5
	5
	5
	5
	5
	5
	5
	5
	5
	5
	5
	5
	5
	5
	5
	5
	5
	5
	5
	5
	5
	5
	5
	5
	5
	5
	5
	5
	5
	5
	5
	5
	5
	5
	5
	5
	5
	5
	5
	5
	5
	5
	5
	5
	5
	5
	5
	5
	5
	5
	5
	5
	5
	5
	5
	5
	5
	5
	5
	5
	5
	5
	5
	5
	5
	5
	5
	5
	5
	5
	5
	5
	5
	5
	5
	5
	5
	5
	5
	5
	5
	5
	5
	5
	5
	5
	5
	5
	5
	5
	5
	5
	5
	5
	5
	5
	5
	5
	5
	5
	5
	5
	5
	5
	5
	5
	5
	5
	5
	5
	5
	5
	5
	5
	5
	5
	5
	5
	5
	5
	5
	5
	5
	5
	5
	5
	5
	5
	5
	5
	5
	5
	5
	5
	5
	5
	5
	5
	5
	5
	5
	5
	5
	5
	5
	5
	5
	5
	5
	5
	5
	5
	5
	5
	5
	5
	5
	5
	5
	5
	5
	5
	5
	5
	5
	5
	5
	5
	5
	5
	5
	5
	5
	5
	5
	5
	5
	5
	5
	5
	5
	5
	5
	5
	5
	5
	5
	5
	5
	5
	5
	5
	5
	5
	5
	5
	5
	5
	5
	5
	5
	5
	5
	5
	5
	5
	5
	5
	5
	5
	5
	5
	5
	5
	5
	5
	5
	5
	5
	5
	5
	5
	5
	5
	5
	5
	5
	5
	5
	5
	5
	5
	5
	5
	5
	5
	5
	5
	5
	5
	5
	5
	5
	5
	5
	5
	5
	5
	5
	5
	5
	5
	5
	5
	5
	5
	5
	5
	5
	5
	5
	5
	5
	5
	5
	5
	5
	5
	5
	5
	5
	5
	5
	5
	5
	5
	5
	5
	5
	5
	5
	5
	5
	5
	5
	5
	5
	5
	5
	5
	5
	5
	5
	5
	5
	5
	5
	5
	5
	5
	5
	5
	5
	5
	5
	5
	5
	5
	5
	5
	5
	5
	5
	5
	5
	5
	5
	5
	5
	5
	5
	5
	5
	5
	5
	5
	5
	5
	5
	5
	5
	5
	5
	5
	5
	5
	5
	5
	5
	5
	5
	5
	5
	5
	5
	5
	5
	5
	5
	5
	5
	5
	5
	5
	5
	5
	5
	5
	5
	5
	5
	5
	5
	5
	5
	5
	5
	5
	5
	5
	5
	5
	5
	5
	5
	5
	5
	5
	5
	5
	5
	5
	5
	5
	5
	5
	5
	5
	5
	5
	5
	5
	5
	5
	5
	5
	5
	5
	5
	5
	5
	5
	5
	5
	5
	5
	5
	5
	5
	5
	5
	5
	5
	5
	5
	5
	5
	5
	5
	5
	5
	5
	5
	5
	5
	5
	5
	5
	5
	5
	5
	5
	5
	5
	5
	5
	5
	5
	5
	5
	5
	5
	5
	5
	5
	5
	5
	5
	5
	5
	5
	5
	5
	5
	5
	5
	5
	5
	5
	5
	5
	5
	5
	5
	5
	5
	5
	5
	5
	5
	5
	5
	5
	5
	5
	5
	5
	5
	5
	5
	5
	5
	5
	5
	5
	5
	5
	5
	5
	5
	5
	5
	5
	5
	5
	5
	5
	5
	5
	5
	5
	5
	5
	5
	5
	5
	5
	5
	5
	5
	5
	5
	5
	5
	5
	5
	5
	5
	5
	5
	5
	5
	5
	5
	5
	5
	5
	5
	5
	5
	5
	5
	5
	5
	5
	5
	5
	5
	5
	5
	5
	5
	5
	5
	5
	5
	5
	5
	5
	5
	5
	5
	5
	5
	5
	5
	5
	5
	5
	5
	5
	5
	5
	5
	5
	5
	5
	5
	5
	5
	5
	5
	5
	5
	5
	5
	5
	5
	5
	5
	5
	5
	5
	5
	5
	5
	5
	5
	5
	5
	5
	5
	5
	5
	5
	5
	5
	5
	5
	5
	5
	5
	5
	5
	5
	5
	5
	5
	5
	5
	5
	5
	5
	5
	5
	5
	5
	5
	5
	5
	5
	5
	5
	5
	5
	5
	5
	5
	5
	5
	5
	5
	5
	5
	5
	5
	5
	5
	5
	5
	5
	5
	5
	5
	5
	5
	5
	5
	5
	5
	5
	5
	5
	5
	5
	5
	5
	5
	5
	5
	5
	5
	5
	5
	5
	5
	5
	5
	5
	5
	5
	5
	5
	5
	5
	5
	5
	5
	5
	5
	5
	5
	5
	5
	5
	5
	5
	5
	5
	5
	5
	5
	5
	5
	5
	5
	5
	5
	5
	5
	5
	5
	5
	5
	5
	5
	5
	5
	5
	5
	5
	5
	5
	5
	5
	5
	5
	5
	5
	5
	5
	5
	5
	5
	5
	5
	5
	5
	5
	5
	5
	5
	5
	5
	5
	5
	5
	5
	5
	5
	5
	5
	5
	5
	5
	5
	5
	5
	5
	5
	5
	5
	5
	5
	5
	5
	5
	5
	5
	5
	5
	5
	5
	5
	5
	5
	5
	5
	5
	5
	5
	5
	5
	5
	5
	5
	5
	5
	5
	5
	5
	5
	5
	5
	5
	5
	5
	5
	5
	5
	5
	5
	5
	5
	5
	5
	5
	5
	5
	5
	5
	5
	5
	5
	5
	5
	5
	5
	5
	5
	5
	5
	5
	5
	5
	5
	5
	5
	5
	5
	5
	5
	5
	5
	5
	5
	5
	5
	5
	5
	5
	5
	5
	5
	5
	5
	5
	5
	5
	5
	5
	5
	5
	5
	5
	5
	5
	5
	5
	5
	5
	5
	5
	5
	5
	5
	5
	5
	5
	5
	5
	5
	5
	5
	5
	5
	5
	5
	5
	5
	5
	5
	5
	5
	5
	5
	5
	5
	5
	5
	5
	5
	5
	5
	5
	5
	5
	5
	5
	5
	5
	5
	5
	5
	5
	5
	5
	5
	5
	5
	5
	5
	5
	5
	5
	5
	5
	5
	5
	5
	5
	5
	5
	5
	5
	5
	5
	5
	5
	5
	5
	5
	5
	5
	5
	5
	5
	5
	5
	5
	5
	5
	5
	5
	5
	5
	5
	5
	5
	5
	5
	5
	5
	5
	5
	5
	5
	5
	5
	5
	5
	5
	5
	5
	5
	5
	5
	5
	5
	5
	5
	5
	5
	5
	5
	5
	5
	5
	5
	5
	5
	5
	5
	5
	5
	5
	5
	5
	5
	5
	5
	5
	5
	5
	5
	5
	5
	5
	5
	5
	5
	5
	5
	5
	5
	5
	5
	5
	5
	5
	5
	5
	5
	5
	5
	5
	5
	5
	5
	5
	5
	5
	5
	5
	5
	5
	5
	5
	5
	5
	5
	5
	5
	5
	5
	5
	5
	5
	5
	5
	5
	5
	5
	5
	5
	5
	5
	5
	5
	5
	5
	5
	5
	5
	5
	5
	5
	5
	5
	5
	5
	5
	5
	5
	5
	5
	5
	5
	5
	5
	5
	5
	5
	5
	5
	5
	5
	5
	5
	5
	5
	5
	5
	5
	5
	5
	5
	5
	5
	5
	5
	5
	5
	5
	5
	5
	5
	5
	5
	5
	5
	5
	5
	5
	5
	5
	5
	5
	5
	5
	5
	5
	5
	5
	5
	5
	5
	5
	5
	5
	5
	5
	5
	5
	5
	5
	5
	5
	5
	5
	5
	5
	5
	5
	5
	5
	5
	5
	5
	5
	5
	5
	5
	5
	5
	5
	5
	5
	5
	5
	5
	5
	5
	5
	5
	5
	5
	5
	5
	5
	5
	5
	5
	5
	5
	5
	5
	5
	5
	5
	5
	5
	5
	5
	5
	5
	5
	5
	5
	5
	5
	5
	5
	5
	5
	5
	5
	5
	5
	5
	5
	5
	5
	5
	5
	5
	5
	5
	5
	5
	5
	5
	5
	5
	5
	5
	5
	5
	5
	5
	5
	5
	5
	5
	5
	5
	5
	5
	5
	5
	5
	5
	5
	5
	5
	5
	5
	5
	5
	5
	5
	5
	5
	5
	5
	5
	5
	5
	5
	5
	5
	5
	5
	5
	5
	5
	5
	5
	5
	5
	5
	5
	5
	5
	5
	5
	5
	5
	5
	5
	5
	5
	5
	5
	5
	5
	5
	5
	5
	5
	5
	5
	5
	5
	5
	5
	5
	5
	5
	5
	5
	5
	5
	5
	5
	5
	5
	5
	5
	5
	5
	5
	5
	5
	5
	5
	5
	5
	5
	5
	5
	5
	5
	5
	5
	5
	5
	5
	5
	5
	5
	5
	5
	5
	5
	5
	5
	5
	5
	5
	5
	5
	5
	5
	5
	5
	5
	5
	5
	5
	5
	5
	5
	5
	5
	5
	5
	5
	5
	5
	5
	5
	5
	5
	5
	5
	5
	5
	5
	5
	5
	5
	5
	5
	5
	5
	5
	5
	5
	5
	5
	5
	5
	5
	5
	5
	5
	5
	5
	5
	5
	5
	5
	5
	5
	5
	5
	5
	5
	5
	5
	5
	5
	5
	5
	5
	5
	5
	5
	5
	5
	5
	5
	5
	5
	5
	5
	5
	5
	5
	5
	5
	5
	5
	5
	5
	5
	5
	5
	5
	5
	5
	5
	5
	5
	5
	5
	5
	5
	5
	5
	5
	5
	5
	5
	5
	5
	5
	5
	5
	5
	5
	5
	5
	5
	5
	5
	5
	5
	5
	5
	5
	5
	5
	5
	5
	5
	5
	5
	5
	5
	5
	5
	5
	5
	5
	5
	5
	5
	5
	5
	5
	5
	5
	5
	5
	5
	5
	5
	5
	5
	5
	5
	5
	5
	5
	5
	5
	5
	5
	5
	5
	5
	5
	5
	5
	5
	5
	5
	5
	5
	5
	5
	5
	5
	5
	5
	5
	5
	5
	5
	5
	5
	5
	5
	5
	5
	5
	5
	5
	5
	5
	5
	5
	5
	5
	5
	5
	5
	5
	5
	5
	5
	5
	5
	5
	5
	5
	5
	5
	5
	5
	5
	5
	5
	5
	5
	5
	5
	5
	5
	5
	5
	5
	5
	5
	5
	5
	5
	5
	5
	5
	5
	5
	5
	5
	5
	5
	5
	5
	5
	5
	5
	5
	5
	5
	5
	5
	5
	5
	5
	5
	5
	5
	5
	5
	5
	5
	5
	5
	5
	5
	5
	5
	5
	5
	5
	5
	5
	5
	5
	5
	5
	5
	5
	5
	5
	5
	5
	5
	5
	5
	5
	5
	5
	5
	5
	5
	5
	5
	5
	5
	5
	5
	5
	5
	5
	5
	5
	5
	5
	5
	5
	5
	5
	5
	5
	5
	5
	5
	5
	5
	5
	5
	5
	5
	5
	5
	5
	5
	5
	5
	5
	5
	5
	5
	5
	5
	5
	5
	5
	5
	5
	5
	5
	5
	5
	5
	5
	5
	5
	5
	5
	5
	5
	5
	5
	5
	5
	5
	5
	5
	5
	5
	5
	5
	5
	5
	5
	5
	5
	5
	5
	5
	5
	5
	5
	5
	5
	5
	5
	5
	5
	5
	5
	5
	5
	5
	5
	5
	5
	5
	5
	5
	5
	5
	5
	5
	5
	5
	5
	5
	5
	5
	5
	5
	5
	5
	5
	5
	5
	5
	5
	5
	5
	5
	5
	5
	5
	5
	5
	5
	5
	5
	5
	5
	5
	5
	5
	5
	5
	5
	5
	5
	5
	5
	5
	5
	5
	5
	5
	5
	5
	5
	5
	5
	5
	5
	5
	5
	5
	5
	5
	5
	5
	5
	5
	5
	5
	5
	5
	5
	5
	5
	5
	5
	5
	5
	5
	5
	5
	5
	5
	5
	5
	5
	5
	5
	5
	5
	5
	5
	5
	5
	5
	5
	5
	5
	5
	5
	5
	5
	5
	5
	5
	5
	5
	5
	5
	5
	5
	5
	5
	5
	5
	5
	5
	5
	5
	5
	5
	5
	5
	5
	5
	5
	5
	5
	5
	5
	5
	5
	5
	5
	5
	5
	5
	5
	5
	5
	5
	5
	5
	5
	5
	5
	5
	5
	5
	5
	5
	5
	5
	5
	5
	5
	5
	5
	5
	5
	5
	5
	5
	5
	5
	5
	5
	5
	5
	5
	5
	5
	5
	5
	5
	5
	5
	5
	5
	5
	5
	5
	5
	5
	5
	5
	5
	5
	5
	5
	5
	5
	5
	5
	5
	5
	5
	5
	5
	5
	5
	5
	5
	5
	5
	5
	5
	5
	5
	5
	5
	5
	5
	5
	5
	5
	5
	5
	5
	5
	5
	5
	5
	5
	5
	5
	5
	5
	5
	5
	5
	5
	5
	5
	5
	5
	5
	5
	5
	5
	5
	5
	5
	5
	5
	5
	5
	5
	5
	5
	5
	5
	5
	5
	5
	5
	5
	5
	5
	5
	5
	5
	5
	5
	5
	5
	5
	5
	5
	5
	5
	5
	5
	5
	5
	5
	5
	5
	5
	5
	5
	5
	5
	5
	5
	5
	5
	5
	5
	5
	5
	5
	5
	5
	5
	5
	5
	5
	5
	5
	5
	5
	5
	5
	5
	5
	5
	5
	5
	5
	5
	5
	5
	5
	5
	5
	5
	5
	5
	5
	5
	5
	5
	5
	5
	5
	5
	5
	5
	5
	5
	5
	5
	5
	5
	5
	5
	5
	5
	5
	5
	5
	5
	5
	5
	5
	5
	5
	5
	5
	5
	5
	5
	5
	5
	5
	5
	5
	5
	5
	5
	5
	5
	5
	5
	5
	5
	5
	5
	5
	5
	5
	5
	5
	5
	5
	5
	5
	5
	5
	5
	5
	5
	5
	5
	5
	5
	5
	5
	5
	5
	5
	5
	5
	5
	5
	5
	5
	5
	5
	5
	5
	5
	5
	5
	5
	5
	5
	5
	5
	5
	5
	5
	5
	5
	5
	5
	5
	5
	5
	5
	5
	5
	5
	5
	5
	5
	5
	5
	5
	5
	5
	5
	5
	5
	5
	5
	5
	5
	5
	5
	5
	5
	5
	5
	5
	5
	5
	5
	5
	5
	5
	5
	5
	5
	5
	5
	5
	5
	5
	5
	5
	5
	5
	5
	5
	5
	5
	5
	5
	5
	5
	5
	5
	5
	5
	5
	5
	5
	5
	5
	5
	5
	5
	5
	5
	5
	5
	5
	5
	5
	5
	5
	5
	5
	5
	5
	5
	5
	5
	5
	5
	5
	5
	5
	5
	5
	5
	5
	5
	5
	5
	5
	5
	5
	5
	5
	5
	5
	5
	5
	5
	5
	5
	5
	5
	5
	5
	5
	5
	5
	5
	5
	5
	5
	5
	5
	5
	5
	5
	5
	5
	5
	5
	5
	5
	5
	5
	5
	5
	5
	5
	5
	5
	5
	5
	5
	5
	5
	5
	5
	5
	5
	5
	5
	5
	5
	5
	5
	5
	5
	5
	5
	5
	5
	5
	5
	5
	5
	5
	5
	5
	5
	5
	5
	5
	5
	5
	5
	5
	5
	5
	5
	5
	5
	5
	5
	5
	5
	5
	5
	5
	5
	5
	5
	5
	5
	5
	5
	5
	5
	5
	5
	5
	5
	5
	5
	5
	5
	5
	5
	5
	5
	5
	5
	5
	5
	5
	5
	5
	5
	5
	5
	5
	5
	5
	5
	5
	5
	5
	5
	5
	5
	5
	5
	5
	5
	5
	5
	5
	5
	5
	5
	5
	5
	5
	5
	5
	5
	5
	5
	5
	5
	5
	5
	5
	5
	5
	5
	5
	5
	5
	5
	5
	5
	5
	5
	5
	5
	5
	5
	5
	5
	5
	5
	5
	5
	5
	5
	5
	5
	5
	5
	5
	5
	5
	5
	5
	5
	5
	5
	5
	5
	5
	5
	5
	5
	5
	5
	5
	5
	5
	5
	5
	5
	5
	5
	5
	5
	5
	5
	5
	5
	5
	5
	5
	5
	5
	5
	5
	5
	5
	5
	5
	5
	5
	5
	5
	5
	5
	5
	5
	5
	5
	5
	5
	5
	5
	5
	5
	5
	5
	5
	5
	5
	5
	5
	5
	5
	5
	5
	5
	5
	5
	5
	5
	5
	5
	5
	5
	5
	5
	5
	5
	5
	5
	5
	5
	5
	5
	5
	5
	5
	5
	5
	5
	5
	5
	5
	5
	5
	5
	5
	5
	5
	5
	5
	5
	5
	5
	5
	5
	5
	5
	5
	5
	5
	5
	5
	5
	5
	5
	5
	5
	5
	5
	5
	5
	5
	5
	5
	5
	5
	5
	5
	5
	5
	5
	5
	5
	5
	5
	5
	5
	5
	5
	5
	5
	5
	5
	5
	5
	5
	5
	5
	5
	5
	5
	5
	5
	5
	5
	5
	5
	5
	5
	5
	5
	5
	5
	5
	5
	5
	5
	5
	5
	5
	5
	5
	5
	5
	5
	5
	5
	5
	5
	5
	5
	5
	5
	5
	5
	5
	5
	5
	5
	5
	5
	5
	5
	5
	5
	5
	5
	5
	5
	5
	5
	5
	5
	5
	5
	5
	5
	5
	5
	5
	5
	5
	5
	5
	5
	5
	5
	5
	5
	5
	5
	5
	5
	5
	5
	5
	5
	5
	5
	5
	5
	5
	5
	5
	5
	5
	5
	5
	5
	5
	5
	5
	5
	5
	5
	5
	5
	5
	5
	5
	5
	5
	5
	5
	5
	5
	5
	5
	5
	5
	5
	5
	5
	5
	5
	5
	5
	5
	5
	5
	5
	5
	5
	5
	5
	5
	5
	5
	5
	5
	5
	5
	5
	5
	5
	5
	5
	5
	5
	5
	5
	5
	5
	5
	5
	5
	5
	5
	5
	5
	5
	5
	5
	5
	5
	5
	5
	5
	5
	5
	5
	5
	5
	5
	5
	5
	5
	5
	5
	5
	5
	5
	5
	5
	5
	5
	5
	5
	5
	5
	5
	5
	5
	5
	5
	5
	5
	5
	5
	5
	5
	5
	5
	5
	5
	5
	5
	5
	5
	5
	5
	5
	5
	5
	5
	5
	5
	5
	5
	5
	5
	5
	5
	5
	5
	5
	5
	5
	5
	5
	5
	5
	5
	5
	5
	5
	5
	5
	5
	5
	5
	5
	5
	5
	5
	5
	5
	5
	5
	5
	5
	5
	5
	5
	5
	5
	5
	5
	5
	5
	5
	5
	5
	5
	5
	5
	5
	5
	5
	5
	5
	5
	5
	5
	5
	5
	5
	5
	5
	5
	5
	5
	5
	5
	5
	5
	5
	5
	5
	5
	5
	5
	5
	5
	5
	5
	5
	5
	5
	5
	5
	5
	5
	5
	5
	5
	5
	5
	5
	5
	5
	5
	5
	5
	5
	5
	5
	5
	5
	5
	5
	5
	5
	5
	5
	5
	5
	5
	5
	5
	5
	5
	5
	5
	5
	5
	5
	5
	5
	5
	5
	5
	5
	5
	5
	5
	5
	5
	5
	5
	5
	5
	5
	5
	5
	5
	5
	5
	5
	5
	5
	5
	5
	5
	5
	5
	5
	5
	5
	5
	5
	5
	5
	5
	5
	5
	5
	5
	5
	5
	5
	5
	5
	5
	5
	5
	5
	5
	5
	5
	5
	5
	5
	5
	5
	5
	5
	5
	5
	5
	5
	5
	5
	5
	5
	5
	5
	5
	5
	5
	5
	5
	5
	5
	5
	5
	5
	5
	5
	5
	5
	5
	5
	5
	5
	5
	5
	5
	5
	5
	5
	5
	5
	5
	5
	5
	5
	5
	5
	5
	5
	5
	5
	5
	5
	5
	5
	5
	5
	5
	5
	5
	5
	5
	5
	5
	5
	5
	5
	5
	5
	5
	5
	5
	5
	5
	5
	5
	5
	5
	5
	5
	5
	5
	5
	5
	5
	5
	5
	5
	5
	5
	5
	5
	5
	5
	5
	5
	5
	5
	5
	5
	5
	5
	5
	5
	5
	5
	5
	5
	5
	5
	5
	5
	5
	5
	5
	5
	5
	5
	5
	5
	5
	5
	5
	5
	5
	5
	5
	5
	5
	5
	5
	5
	5
	5
	5
	5
	5
	5
	5
	5
	5
	5
	5
	5
	5
	5
	5
	5
	5
	5
	5
	5
	5
	5
	5
	5
	5
	5
	5
	5
	5
	5
	5
	5
	5
	5
	5
	5
	5
	5
	5
	5
	5
	5
	5
	5
	5
	5
	5
	5
	5
	5
	5
	5
	5
	5
	5
	5
	5
	5
	5
	5
	5
	5
	5
	5
	5
	5
	5
	5
	5
	5
	5
	5
	5
	5
	5
	5
	5
	5
	5
	5
	5
	5
	5
	5
	5
	5
	5
	5
	5
	5
	5
	5
	5
	5
	5
	5
	5
	5
	5
	5
	5
	5
	5
	5
	5
	5
	5
	5
	5
	5
	5
	5
	5
	5
	5
	5
	5
	5
	5
	5
	5
	5
	5
	5
	5
	5
	5
	5
	5
	5
	5
	5
	5
	5
	5
	5
	5
	5
	5
	5
	5
	5
	5
	5
	5
	5
	5
	5
	5
	5
	5
	5
	5
	5
	5
	5
	5
	5
	5
	5
	5
	5
	5
	5
	5
	5
	5
	5
	5
	5
	5
	5
	5
	5
	5
	5
	5
	5
	5
	5
	5
	5
	5
	5
	5
	5
	5
	5
	5
	5
	5
	5
	5
	5
	5
	5
	5
	5
	5
	5
	5
	5
	5
	5
	5
	5
	5
	5
	5
	5
	5
	5
	5
	5
	5
	5
	5
	5
	5
	5
	5
	5
	5
	5
	5
	5
	5
	5
	5
	5
	5
	5
	5
	5
	5
	5
	5
	5
	5
	5
	5
	5
	5
	5
	5
	5
	5
	5
	5
	5
	5
	5
	5
	5
	5
	5
	5
	5
	5
	5
	5
	5
	5
	5
	5
	5
	5
	5
	5
	5
	5
	5
	5
	5
	5
	5
	5
	5
	5
	5
	5
	5
	5
	5
	5
	5
	5
	5
	5
	5
	5
	5
	5
	5
	5
	5
	5
	5
	5
	5
	5
	5
	5
	5
	5
	5
	5
	5
	5
	5
	5
	5
	5
	5
	5
	5
	5
	5
	5
	5
	5
	5
	5
	5
	5
	5
	5
	5
	5
	5
	5
	5
	5
	5
	5
	5
	5
	5
	5
	5
	5
	5
	5
	5
	5
	5
	5
	5
	5
	5
	5
	5
	5
	5
	5
	5
	5
	5
	5
	5
	5
	5
	5
	5
	5
	5
	5
	5
	5
	5
	5
	5
	5
	5
	5
	5
	5
	5
	5
	5
	5
	5
	5
	5
	5
	5
	5
	5
	5
	5
	5
	5
	5
	5
	5
	5
	5
	5
	5
	5
	5
	5
	5
	5
	5
	5
	5
	5
	5
	5
	5
	5
	5
	5
	5
	5
	5
	5
	5
	5
	5
	5
	5
	5
	5
	5
	5
	5
	5
	5
	5
	5
	5
	5
	5
	5
	5
	5
	5
	5
	5
	5
	5
	5
	5
	5
	5
	5
	5
	5
	5
	5
	5
	5
	5
	5
	5
	5
	5
	5
	5
	5
	5
	5
	5
	5
	5
	5
	5
	5
	5
	5
	5
	5
	5
	5
	5
	5
	5
	5
	5
	5
	5
	5
	5
	5
	5
	5
	5
	5
	5
	5
	5
	5
	5
	5
	5
	5
	5
	5
	5
	5
	5
	5
	5
	5
	5
	5
	5
	5
	5
	5
	5
	5
	5
	5
	5
	5
	5
	5
	5
	5
	5
	5
	5
	5
	5
	5
	5
	5
	5
	5
	5
	5
	5
	5
	5
	5
	5
	5
	5
	5
	5
	5
	5
	5
	5
	5
	5
	5
	5
	5
	5
	5
	5
	5
	5
	5
	5
	5
	5
	5
	5
	5
	5
	5
	5
	5
	5
	5
	5
	5
	5
	5
	5
	5
	5
	5
	5
	5
	5
	5
	5
	5
	5
	5
	5
	5
	5
	5
	5
	5
	5
	5
	5
	5
	5
	5
	5
	5
	5
	5
	5
	5
	5
	5
	5
	5
	5
	5
	5
	5
	5
	5
	5
	5
	5
	5
	5
	5
	5
	5
	5
	5
	5
	5
	5
	5
	5
	5
	5
	5
	5
	5
	5
	5
	5
	5
	5
	5
	5
	5
	5
	5
	5
	5
	5
	5
	5
	5
	5
	5
	5
	5
	5
	5
	5
	5
	5
	5
	5
	5
	5
	5
	5
	5
	5
	5
	5
	5
	5
	5
	5
	5
	5
	5
	5
	5
	5
	5
	5
	5
	5
	5
	5
	5
	5
	5
	5
	5
	5
	5
	5
	5
	5
	5
	5
	5
	5
	5
	5
	5
	5
	5
	5
	5
	5
	5
	5
	5
	5
	5
	5
	5
	5
	5
	5
	5
	5
	5
	5
	5
	5
	5
	5
	5
	5
	5
	5
	5
	5
	5
	5
	5
	5
	5
	5
	5
	5
	5
	5
	5
	5
	5
	5
	5
	5
	5
	5
	5
	5
	5
	5
	5
	5
	5
	5
	5
	5
	5
	5
	5
	5
	5
	5
	5
	5
	5
	5
	5
	5
	5
	5
	5
	5
	5
	5
	5
	5
	5
	5
	5
	5
	5
	5
	5
	5
	5
	5
	5
	5
	5
	5
	5
	5
	5
	5
	5
	5
	5
	5
	5
	5
	5
	5
	5
	5
	5
	5
	5
	5
	5
	5
	5
	5
	5
	5
	5
	5
	5
	5
	5
	5
	5
	5
	5
	5
	5
	5
	5
	5
	5
	5
	5
	5
	5
	5
	5
	5
	5
	5
	5
	5
	5
	5
	5
	5
	5
	5
	5
	5
	5
	5
	5
	5
	5
	5
	5
	5
	5
	5
	5
	5
	5
	5
	5
	5
	5
	5
	5
	5
	5
	5
	5
	5
	5
	5
	5
	5
	5
	5
	5
	5
	5
	5
	5
	5
	5
	5
	5
	5
	5
	5
	5
	5
	5
	5
	5
	5
	5
	5
	5
	5
	5
	5
	5
	5
	5
	5
	5
	5
	5
	5
	5
	5
	5
	5
	5
	5
	5
	5
	5
	5
	5
	5
	5
	5
	5
	5
	5
	5
	5
	5
	5
	5
	5
	5
	5
	5
	5
	5
	5
	5
	5
	5
	5
	5
	5
	5
	5
	5
	5
	5
	5
	5
	5
	5
	5
	5
	5
	5
	5
	5
	5
	5
	5
	5
	5
	5
	5
	5
	5
	5
	5
	5
	5
	5
	5
	5
	5
	5
	5
	5
	5
	5
	5
	5
	5
	5
	5
	5
	5
	5
	5
	5
	5
	5
	5
	5
	5
	5
	5
	5
	5
	5
	5
	5
	5
	5
	5
	5
	5
	5
	5
	5
	5
	5
	5
	5
	5
	5
	5
	5
	5
	5
	5
	5
	5
	5
	5
	5
	5
	5
	5
	5
	5
	5
	5
	5
	5
	5
	5
	5
	5
	5
	5
	5
	5
	5
	5
	5
	5
	5
	5
	5
	5
	5
	5
	5
	5
	5
	5
	5
	5
	5
	5
	5
	5
	5
	5
	5
	5
	5
	5
	5
	5
	5
	5
	5
	5
	5
	5
	5
	5
	5
	5
	5
	5
	5
	5
	5
	5
	5
	5
	5
	5
	5
	5
	5
	5
	5
	5
	5
	5
	5
	5
	5
	5
	5
	5
	5
	5
	5
	5
	5
	5
	5
	5
	5
	5
	5
	5
	5
	5
	5
	5
	5
	5
	5
	5
	5
	5
	5
	5
	5
	5
	5
	5
	5
	5
	5
	5
	5
	5
	5
	5
	5
	5
	5
	5
	5
	5
	5
	5
	5
	5
	5
	5
	5
	5
	5
	5
	5
	5
	5
	5
	5
	5
	5
	5
	5
	5
	5
	5
	5
	5
	5
	5
	5
	5
	5
	5
	5
	5
	5
	5
	5
	5
	5
	5
	5
	5
	5
	5
	5
	5
	5
	5
	5
	5
	5
	5
	5
	5
	5
	5
	5
	5
	5
	5
	5
	5
	5
	5
	5
	5
	5
	5
	5
	5
	5
	5
	5
	5
	5
	5
	5
	5
	5
	5
	5
	5
	5
	5
	5
	5
	5
	5
	5
	5
	5
	5
	5
	5
	5
	5
	5
	5
	5
	5
	5
	5
	5
	5
	5
	5
	5
	5
	5
	5
	5
	5
	5
	5
	5
	5
	5
	5
	5
	5
	5
	5
	5
	5
	5
	5
	5
	5
	5
	5
	5
	5
	5
	5
	5
	5
	5
	5
	5
	5
	5
	5
	5
	5
	5
	5
	5
	5
	5
	5
	5
	5
	5
	5
	5
	5
	5
	5
	5
	5
	5
	5
	5
	5
	5
	5
	5
	5
	5
	5
	5
	5
	5
	5
	5
	5
	5
	5
	5
	5
	5
	5
	5
	5
	5
	5
	5
	5
	5
	5
	5
	5
	5
	5
	5
	5
	5
	5
	5
	5
	5
	5
	5
	5
	5
	5
	5
	5
	5
	5
	5
	5
	5
	5
	5
	5
	5
	5
	5
	5
	5
	5
	5
	5
	5
	5
	5
	5
	5
	5
	5
	5
	5
	5
	5
	5
	5
	5
	5
	5
	5
	5
	5
	5
	5
	5
	5
	5
	5
	5
	5
	5
	5
	5
	5
	5
	5
	5
	5
	5
	5
	5
	5
	5
	5
	5
	5
	5
	5
	5
	5
	5
	5
	5
	5
	5
	5
	5
	5
	5
	5
	5
	5
	5
	5
	5
	5
	5
	5
	5
	5
	5
	5
	5
	5
	5
	5
	5
	5
	5
	5
	5
	5
	5
	5
	5
	5
	5
	5
	5
	5
	5
	5
	5
	5
	5
	5
	5
	5
	5
	5
	5
	5
	5
	5
	5
	5
	5
	5
	5
	5
	5
	5
	5
	5
	5
	5
	5
	5
	5
	5
	5
	5
	5
	5
	5
	5
	5
	5
	5
	5
	5
	5
	5
	5
	5
	5
	5
	5
	5
	5
	5
	5
	5
	5
	5
	5
	5
	5
	5
	5
	5
	5
	5
	5
	5
	5
	5
	5
	5
	5
	5
	5
	5
	5
	5
	5
	5
	5
	5
	5
	5
	5
	5
	5
	5
	5
	5
	5
	5
	5
	5
	5
	5
	5
	5
	5
	5
	5
	5
	5
	5
	5
	5
	5
	5
	5
	5
	5
	5
	5
	5
	5
	5
	5
	5
	5
	5
	5
	5
	5
	5
	5
	5
	5
	5
	5
	5
	5
	5
	5
	5
	5
	5
	5
	5
	5
	5
	5
	5
	5
	5
	5
	5
	5
	5
	5
	5
	5
	5
	5
	5
	5
	5
	5
	5
	5
	5
	5
	5
	5
	5
	5
	5
	5
	5
	5
	5
	5
	5
	5
	5
	5
	5
	5
	5
	5
	5
	5
	5
	5
	5
	5
	5
	5
	5
	5
	5
	5
	5
	5
	5
	5
	5
	5
	5
	5
	5
	5
	5
	5
	5
	5
	5
	5
	5
	5
	5
	5
	5
	5
	5
	5
	5
	5
	5
	5
	5
	5
	5
	5
	5
	5
	5
	5
	5
	5
	5
	5
	5
	5
	5
	5
	5
	5
	5
	5
	5
	5
	5
	5
	5
	5
	5
	5
	5
	5
	5
	5
	5
	5
	5
	5
	5
	5
	5
	5
	5
	5
	5
	5
	5
	5
	5
	5
	5
	5
	5
	5
	5
	5
	5
	5
	5
	5
	5
	5
	5
	5
	5
	5
	5
	5
	5
	5
	5
	5
	5
	5
	5
	5
	5
	5
	5
	5
	5
	5
	5
	5
	5
	5
	5
	5
	5
	5
	5
	5
	5
	5
	5
	5
	5
	5
	5
	5
	5
	5
	5
	5
	5
	5
	5
	5
	5
	5
	5
	5
	5
	5
	5
	5
	5
	5
	5
	5
	5
	5
	5
	5
	5
	5
	5
	5
	5
	5
	5
	5
	5
	5
	5
	5
	5
	5
	5
	5
	5
	5
	5
	5
	5
	5
	5
	5
	5
	5
	5
	5
	5
	5
	5
	5
	5
	5
	5
	5
	5
	5
	5
	5
	5
	5
	5
	5
	5
	5
	5
	5
	5
	5
	5
	5
	5
	5
	5
	5
	5
	5
	5
	5
	5
	5
	5
	5
	5
	5
	5
	5
	5
	5
	5
	5
	5
	5
	5
	5
	5
	5
	5
	5
	5
	5
	5
	5
	5
	5
	5
	5
	5
	5
	5
	5
	5
	5
	5
	5
	5
	5
	5
	5
	5
	5
	5
	5
	5
	5
	5
	5
	5
	5
	5
	5
	5
	5
	5
	5
	5
	5
	5
	5
	5
	5
	5
	5
	5
	5
	5
	5
	5
	5
	5
	5
	5
	5
	5
	5
	5
	5
	5
	5
	5
	5
	5
	5
	5
	5
	5
	5
	5
	5
	5
	5
	5
	5
	5
	5
	5
	5
	5
	5
	5
	5
	5
	5
	5
	5
	5
	5
	5
	5
	5
	5
	5
	5
	5
	5
	5
	5
	5
	5
	5
	5
	5
	5
	5
	5
	5
	5
	5
	5
	5
	5
	5
	5
	5
	5
	5
	5
	5
	5
	5
	5
	5
	5
	5
	5
	5
	5
	5
	5
	5
	5
	5
	5
	5
	5
	5
	5
	5
	5
	5
	5
	5
	5
	5
	5
	5
	5
	5
	5
	5
	5
	5
	5
	5
	5
	5
	5
	5
	5
	5
	5
	5
	5
	5
	5
	5
	5
	5
	5
	5
	5
	5
	5
	5
	5
	5
	5
	5
	5
	5
	5
	5
	5
	5
	5
	5
	5
	5
	5
	5
	5
	5
	5
	5
	5
	5
	5
	5
	5
	5
	5
	5
	5
	5
	5
	5
	5
	5
	5
	5
	5
	5
	5
	5
	5
	5
	5
	5
	5
	5
	5
	5
	5
	5
	5
	5
	5
	5
	5
	5
	5
	5
	5
	5
	5
	5
	5
	5
	5
	5
	5
	5
	5
	5
	5
	5
	5
	5
	5
	5
	5
	5
	5
	5
	5
	5
	5
	5
	5
	5
	5
	5
	5
	5
	5
	5
	5
	5
	5
	5
	5
	5
	5
	5
	5
	5
	5
	5
	5
	5
	5
	5
	5
	5
	5
	5
	5
	5
	5
	5
	5
	5
	5
	5
	5
	5
	5
	5
	5
	5
	5
	5
	5
	5
	5
	5
	5
	5
	5
	5
	5
	5
	5
	5
	5
	5
	5
	5
	5
	5
	5
	5
	5
	5
	5
	5
	5
	5
	5
	5
	5
	5
	5
	5
	5
	5
	5
	5
	5
	5
	5
	5
	5
	5
	5
	5
	5
	5
	5
	5
	5
	5
	5
	5
	5
	5
	5
	5
	5
	5
	5
	5
	5
	5
	5
	5
	5
	5
	5
	5
	5
	5
	5
	5
	5
	5
	5
	5
	5
	5
	5
	5
	5
	5
	5
	5
	5
	5
	5
	5
	5
	5
	5
	5
	5
	5
	5
	5
	5
	5
	5
	5
	5
	5
	5
	5
	5
	5
	5
	5
	5
	5
	5
	5
	5
	5
	5
	5
	5
	5
	5
	5
	5
	5
	5
	5
	5
	5
	5
	5
	5
	5
	5
	5
	5
	5
	5
	5
	5
	5
	5
	5
	5
	5
	5
	5
	5
	5
	5
	5
	5
	5
	5
	5
	5
	5
	5
	5
	5
	5
	5
	5
	5
	5
	5
	5
	5
	5
	5
	5
	5
	5
	5
	5
	5
	5
	5
	5
	5
	5
	5
	5
	5
	5
	5
	5
	5
	5
	5
	5
	5
	5
	5
	5
	5
	5
	5
	5
	5
	5
	5
	5
	5
	5
	5
	5
	5
	5
	5
	5
	5
	5
	5
	5
	5
	5
	5
	5
	5
	5
	5
	5
	5
	5
	5
	5
	5
	5
	5
	5
	5
	5
	5
	5
	5
	5
	5
	5
	5
	5
	5
	5
	5
	5
	5
	5
	5
	5
	5
	5
	5
	5
	5
	5
	5
	5
	5
	5
	5
	5
	5
	5
	5
	5
	5
	5
	5
	5
	5
	5
	5
	5
	5
	5
	5
	5
	5
	5
	5
	5
	5
	5
	5
	5
	5
	5
	5
	5
	5
	5
	5
	5
	5
	5
	5
	5
	5
	5
	5
	5
	5
	5
	5
	5
	5
	5
	5
	5
	5
	5
	5
	5
	5
	5
	5
	5
	5
	5
	5
	5
	5
	5
	5
	5
	5
	5
	5
	5
	5
	5
	5
	5
	5
	5
	5
	5
	5
	5
	5
	5
	5
	5
	5
	5
	5
	5
	5
	5
	5
	5
	5
	5
	5
	5
	5
	5
	5
	5
	5
	5
	5
	5
	5
	5
	5
	5
	5
	5
	5
	5
	5
	5
	5
	5
	5
	5
	5
	5
	5
	5
	5
	5
	5
	5
	5
	5
	5
	5
	5
	5
	5
	5
	5
	5
	5
	5
	5
	5
	5
	5
	5
	5
	5
	5
	5
	5
	5
	5
	5
	5
	5
	5
	5
	5
	5
	5
	5
	5
	5
	5
	5
	5
	5
	5
	5
	5
	5
	5
	5
	5
	5
	5
	5
	5
	5
	5
	5
	5
	5
	5
	5
	5
	5
	5
	5
	5
	5
	5
	5
	5
	5
	5
	5
	5
	5
	5
	5
	5
	5
	5
	5
	5
	5
	5
	5
	5
	5
	5
	5
	5
	5
	5
	5
	5
	5
	5
	5
	5
	5
	5
	5
	5
	5
	5
	5
	5
	5
	5
	5
	5
	5
	5
	5
	5
	5
	5
	5
	5
	5
	5
	5
	5
	5
	5
	5
	5
	5
	5
	5
	5
	5
	5
	5
	5
	5
	5
	5
	5
	5
	5
	5
	5
	5
	5
	5
	5
	5
	5
	5
	5
	5
	5
	5
	5
	5
	5
	5
	5
	5
	5
	5
	5
	5
	5
	5
	5
	5
	5
	5
	5
	5
	5
	5
	5
	5
	5
	5
	5
	5
	5
	5
	5
	5
	5
	5
	5
	5
	5
	5
	5
	5
	5
	5
	5
	5
	5
	5
	5
	5
	5
	5
	5
	5
	5
	5
	5
	5
	5
	5
	5
	5
	5
	5
	5
	5
	5
	5
	5
	5
	5
	5
	5
	5
	5
	5
	5
	5
	5
	5
	5
	5
	5
	5
	5
	5
	5
	5
	5
	5
	5
	5
	5
	5
	5
	5
	5
	5
	5
	5
	5
	5
	5
	5
	5
	5
	5
	5
	5
	5
	5
	5
	5
	5
	5
	5
	5
	5
	5
	5
	5
	5
	5
	5
	5
	5
	5
	5
	5
	5
	5
	5
	5
	5
	5
	5
	5
	5
	5
	5
	5
	5
	5
	5
	5
	5
	5
	5
	5
	5
	5
	5
	5
	5
	5
	5
	5
	5
	5
	5
	5
	5
	5
	5
	5
	5
	5
	5
	5
	5
	5
	5
	5
	5
	5
	5
	5
	5
	5
	5
	5
	5
	5
	5
	5
	5
	5
	5
	5
	5
	5
	5
	5
	5
	5
	5
	5
	5
	5
	5
	5
	5
	5
	5
	5
	5
	5
	5
	5
	5
	5
	5
	5
	5
	5
	5
	5
	5
	5
	5
	5
	5
	5
	5
	5
	5
	5
	5
	5
	5
	5
	5
	5
	5
	5
	5
	5
	5
	5
	5
	5
	5
	5
	5
	5
	5
	5
	5
	5
	5
	5
	5
	5
	5
	5
	5
	5
	5
	5
	5
	5
	5
	5
	5
	5
	5
	5
	5
	5
	5
	5
	5
	5
	5
	5
	5
	5
	5
	5
	5
	5
	5
	5
	5
	5
	5
	5
	5

POINT_DATA 7532
VECTORS 1_1.0_DISP double
	 0.00000000E+00	 0.00000000E+00	 0.00000000E+00
	 0.00000000E+00	 0.00000000E+00	 0.00000000E+00
	 0.00000000E+00	 0.00000000E+00	 0.00000000E+00
	 0.00000000E+00	 0.00000000E+00	 0.00000000E+00
	 0.00000000E+00	 0.00000000E+00	 0.00000000E+00
	 0.00000000E+00	 0.00000000E+00	 0.00000000E+00
	 0.00000000E+00	 0.00000000E+00	 0.00000000E+00
	 0.00000000E+00	 0.00000000E+00	 0.00000000E+00
	 0.00000000E+00	 0.00000000E+00	 0.00000000E+00
	 0.00000000E+00	 0.00000000E+00	 0.00000000E+00
	 0.00000000E+00	 0.00000000E+00	 0.00000000E+00
	 0.00000000E+00	 0.00000000E+00	 0.00000000E+00
	 0.00000000E+00	 0.00000000E+00	 0.00000000E+00
	 0.00000000E+00	 0.00000000E+00	 0.00000000E+00
	 0.00000000E+00	 0.00000000E+00	 0.00000000E+00
	 0.00000000E+00	 0.00000000E+00	 0.00000000E+00
	 0.00000000E+00	 0.00000000E+00	 0.00000000E+00
	 0.00000000E+00	 0.00000000E+00	 0.00000000E+00
	 0.00000000E+00	 0.00000000E+00	 0.00000000E+00
	 0.00000000E+00	 0.00000000E+00	 0.00000000E+00
	 0.00000000E+00	 0.00000000E+00	 0.00000000E+00
	 0.00000000E+00	 0.00000000E+00	 0.00000000E+00
	 0.00000000E+00	 0.00000000E+00	 0.00000000E+00
	 0.00000000E+00	 0.00000000E+00	 0.00000000E+00
	 0.00000000E+00	 0.00000000E+00	 0.00000000E+00
	 0.00000000E+00	 0.00000000E+00	 0.00000000E+00
	 0.00000000E+00	 0.00000000E+00	 0.00000000E+00
	 0.00000000E+00	 0.00000000E+00	 0.00000000E+00
	 0.00000000E+00	 0.00000000E+00	 0.00000000E+00
	 0.00000000E+00	 0.00000000E+00	 0.00000000E+00
	 0.00000000E+00	 0.00000000E+00	 0.00000000E+00
	 0.00000000E+00	 0.00000000E+00	 0.00000000E+00
	 0.00000000E+00	 0.00000000E+00	 0.00000000E+00
	 0.00000000E+00	 0.00000000E+00	 0.00000000E+00
	 0.00000000E+00	 0.00000000E+00	 0.00000000E+00
	 0.00000000E+00	 0.00000000E+00	 0.00000000E+00
	 0.00000000E+00	 0.00000000E+00	 0.00000000E+00
	 0.00000000E+00	 0.00000000E+00	 0.00000000E+00
	 0.00000000E+00	 0.00000000E+00	 0.00000000E+00
	 0.00000000E+00	 0.00000000E+00	 0.00000000E+00
	 0.00000000E+00	 0.00000000E+00	 0.00000000E+00
	 0.00000000E+00	 0.00000000E+00	 0.00000000E+00
	 0.00000000E+00	 0.00000000E+00	 0.00000000E+00
	 0.00000000E+00	 0.00000000E+00	 0.00000000E+00
	 0.00000000E+00	 0.00000000E+00	 0.00000000E+00
	 0.00000000E+00	 0.00000000E+00	 0.00000000E+00
	 0.00000000E+00	 0.00000000E+00	 0.00000000E+00
	 0.00000000E+00	 0.00000000E+00	 0.00000000E+00
	 0.00000000E+00	 0.00000000E+00	 0.00000000E+00
	 0.00000000E+00	 0.00000000E+00	 0.00000000E+00
	 0.00000000E+00	 0.00000000E+00	 0.00000000E+00
	 0.00000000E+00	 0.00000000E+00	 0.00000000E+00
	 0.00000000E+00	 0.00000000E+00	 0.00000000E+00
	 0.00000000E+00	 0.00000000E+00	 0.00000000E+00
	 0.00000000E+00	 0.00000000E+00	 0.00000000E+00
	 0.00000000E+00	 0.00000000E+00	 0.00000000E+00
	 0.00000000E+00	 0.00000000E+00	 0.00000000E+00
	 0.00000000E+00	 0.00000000E+00	 0.00000000E+00
	 0.00000000E+00	 0.00000000E+00	 0.00000000E+00
	 0.00000000E+00	 0.00000000E+00	 0.00000000E+00
	 0.00000000E+00	 0.00000000E+00	 0.00000000E+00
	 0.00000000E+00	 0.00000000E+00	 0.00000000E+00
	 0.00000000E+00	 0.00000000E+00	 0.00000000E+00
	 0.00000000E+00	 0.00000000E+00	 0.00000000E+00
	 0.00000000E+00	 0.00000000E+00	 0.00000000E+00
	 0.00000000E+00	 0.00000000E+00	 0.00000000E+00
	 0.00000000E+00	 0.00000000E+00	 0.00000000E+00
	 0.00000000E+00	 0.00000000E+00	 0.00000000E+00
	 0.00000000E+00	 0.00000000E+00	 0.00000000E+00
	 0.00000000E+00	 0.00000000E+00	 0.00000000E+00
	 0.00000000E+00	 0.00000000E+00	 0.00000000E+00
	 0.00000000E+00	 0.00000000E+00	 0.00000000E+00
	 0.00000000E+00	 0.00000000E+00	 0.00000000E+00
	 0.00000000E+00	 0.00000000E+00	 0.00000000E+00
	 0.00000000E+00	 0.00000000E+00	 0.00000000E+00
	 0.00000000E+00	 0.00000000E+00	 0.00000000E+00
	 0.00000000E+00	 0.00000000E+00	 0.00000000E+00
	 0.00000000E+00	 0.00000000E+00	 0.00000000E+00
	 0.00000000E+00	 0.00000000E+00	 0.00000000E+00
	 0.00000000E+00	 0.00000000E+00	 0.00000000E+00
	 0.00000000E+00	 0.00000000E+00	 0.00000000E+00
	 0.00000000E+00	 0.00000000E+00	 0.00000000E+00
	 0.00000000E+00	 0.00000000E+00	 0.00000000E+00
	 0.00000000E+00	 0.00000000E+00	 0.00000000E+00
	 0.00000000E+00	 0.00000000E+00	 0.00000000E+00
	 0.00000000E+00	 0.00000000E+00	 0.00000000E+00
	 0.00000000E+00	 0.00000000E+00	 0.00000000E+00
	 0.00000000E+00	 0.00000000E+00	 0.00000000E+00
	 0.00000000E+00	 0.00000000E+00	 0.00000000E+00
	 0.00000000E+00	 0.00000000E+00	 0.00000000E+00
	 0.00000000E+00	 0.00000000E+00	 0.00000000E+00
	 0.00000000E+00	 0.00000000E+00	 0.00000000E+00
	 0.00000000E+00	 0.00000000E+00	 0.00000000E+00
	 0.00000000E+00	 0.00000000E+00	 0.00000000E+00
	 0.00000000E+00	 0.00000000E+00	 0.00000000E+00
	 0.00000000E+00	 0.00000000E+00	 0.00000000E+00
	 0.00000000E+00	 0.00000000E+00	 0.00000000E+00
	 0.00000000E+00	 0.00000000E+00	 0.00000000E+00
	 0.00000000E+00	 0.00000000E+00	 0.00000000E+00
	 0.00000000E+00	 0.00000000E+00	 0.00000000E+00
	 0.00000000E+00	 0.00000000E+00	 0.00000000E+00
	 0.00000000E+00	 0.00000000E+00	 0.00000000E+00
	 0.00000000E+00	 0.00000000E+00	 0.00000000E+00
	 0.00000000E+00	 0.00000000E+00	 0.00000000E+00
	 0.00000000E+00	 0.00000000E+00	 0.00000000E+00
	 0.00000000E+00	 0.00000000E+00	 0.00000000E+00
	 0.00000000E+00	 0.00000000E+00	 0.00000000E+00
	 0.00000000E+00	 0.00000000E+00	 0.00000000E+00
	 0.00000000E+00	 0.00000000E+00	 0.00000000E+00
	 0.00000000E+00	 0.00000000E+00	 0.00000000E+00
	 0.00000000E+00	 0.00000000E+00	 0.00000000E+00
	 0.00000000E+00	 0.00000000E+00	 0.00000000E+00
	 0.00000000E+00	 0.00000000E+00	 0.00000000E+00
	 0.00000000E+00	 0.00000000E+00	 0.00000000E+00
	 0.00000000E+00	 0.00000000E+00	 0.00000000E+00
	 0.00000000E+00	 0.00000000E+00	 0.00000000E+00
	 0.00000000E+00	 0.00000000E+00	 0.00000000E+00
	 0.00000000E+00	 0.00000000E+00	 0.00000000E+00
	 0.00000000E+00	 0.00000000E+00	 0.00000000E+00
	 0.00000000E+00	 0.00000000E+00	 0.00000000E+00
	 0.00000000E+00	 0.00000000E+00	 0.00000000E+00
	 0.00000000E+00	 0.00000000E+00	 0.00000000E+00
	 0.00000000E+00	 0.00000000E+00	 0.00000000E+00
	 0.00000000E+00	 0.00000000E+00	 0.00000000E+00
	 0.00000000E+00	 0.00000000E+00	 0.00000000E+00
	 0.00000000E+00	 0.00000000E+00	 0.00000000E+00
	 0.00000000E+00	 0.00000000E+00	 0.00000000E+00
	 0.00000000E+00	 0.00000000E+00	 0.00000000E+00
	 0.00000000E+00	 0.00000000E+00	 0.00000000E+00
	 0.00000000E+00	 0.00000000E+00	 0.00000000E+00
	 0.00000000E+00	 0.00000000E+00	 0.00000000E+00
	 0.00000000E+00	 0.00000000E+00	 0.00000000E+00
	 0.00000000E+00	 0.00000000E+00	 0.00000000E+00
	 0.00000000E+00	 0.00000000E+00	 0.00000000E+00
	 0.00000000E+00	 0.00000000E+00	 0.00000000E+00
	 0.00000000E+00	 0.00000000E+00	 0.00000000E+00
	 0.00000000E+00	 0.00000000E+00	 0.00000000E+00
	 0.00000000E+00	 0.00000000E+00	 0.00000000E+00
	 0.00000000E+00	 0.00000000E+00	 0.00000000E+00
	 0.00000000E+00	 0.00000000E+00	 0.00000000E+00
	 0.00000000E+00	 0.00000000E+00	 0.00000000E+00
	 0.00000000E+00	 0.00000000E+00	 0.00000000E+00
	 0.00000000E+00	 0.00000000E+00	 0.00000000E+00
	 0.00000000E+00	 0.00000000E+00	 0.00000000E+00
	 0.00000000E+00	 0.00000000E+00	 0.00000000E+00
	 0.00000000E+00	 0.00000000E+00	 0.00000000E+00
	 0.00000000E+00	 0.00000000E+00	 0.00000000E+00
	 0.00000000E+00	 0.00000000E+00	 0.00000000E+00
	 0.00000000E+00	 0.00000000E+00	 0.00000000E+00
	 0.00000000E+00	 0.00000000E+00	 0.00000000E+00
	 0.00000000E+00	 0.00000000E+00	 0.00000000E+00
	 0.00000000E+00	 0.00000000E+00	 0.00000000E+00
	 0.00000000E+00	 0.00000000E+00	 0.00000000E+00
	 0.00000000E+00	 0.00000000E+00	 0.00000000E+00
	 0.00000000E+00	 0.00000000E+00	 0.00000000E+00
	 0.00000000E+00	 0.00000000E+00	 0.00000000E+00
	 0.00000000E+00	 0.00000000E+00	 0.00000000E+00
	 0.00000000E+00	 0.00000000E+00	 0.00000000E+00
	 0.00000000E+00	 0.00000000E+00	 0.00000000E+00
	 0.00000000E+00	 0.00000000E+00	 0.00000000E+00
	 0.00000000E+00	 0.00000000E+00	 0.00000000E+00
	 0.00000000E+00	 0.00000000E+00	 0.00000000E+00
	 0.00000000E+00	 0.00000000E+00	 0.00000000E+00
	 0.00000000E+00	 0.00000000E+00	 0.00000000E+00
	 0.00000000E+00	 0.00000000E+00	 0.00000000E+00
	 0.00000000E+00	 0.00000000E+00	 0.00000000E+00
	 0.00000000E+00	 0.00000000E+00	 0.00000000E+00
	 0.00000000E+00	 0.00000000E+00	 0.00000000E+00
	 0.00000000E+00	 0.00000000E+00	 0.00000000E+00
	 0.00000000E+00	 0.00000000E+00	 0.00000000E+00
	 0.00000000E+00	 0.00000000E+00	 0.00000000E+00
	 0.00000000E+00	 0.00000000E+00	 0.00000000E+00
	 0.00000000E+00	 0.00000000E+00	 0.00000000E+00
	 0.00000000E+00	 0.00000000E+00	 0.00000000E+00
	 0.00000000E+00	 0.00000000E+00	 0.00000000E+00
	 0.00000000E+00	 0.00000000E+00	 0.00000000E+00
	 0.00000000E+00	 0.00000000E+00	 0.00000000E+00
	 0.00000000E+00	 0.00000000E+00	 0.00000000E+00
	 0.00000000E+00	 0.00000000E+00	 0.00000000E+00
	 0.00000000E+00	 0.00000000E+00	 0.00000000E+00
	 0.00000000E+00	 0.00000000E+00	 0.00000000E+00
	 0.00000000E+00	 0.00000000E+00	 0.00000000E+00
	 0.00000000E+00	 0.00000000E+00	 0.00000000E+00
	 0.00000000E+00	 0.00000000E+00	 0.00000000E+00
	 0.00000000E+00	 0.00000000E+00	 0.00000000E+00
	 0.00000000E+00	 0.00000000E+00	 0.00000000E+00
	 0.00000000E+00	 0.00000000E+00	 0.00000000E+00
	 0.00000000E+00	 0.00000000E+00	 0.00000000E+00
	 0.00000000E+00	 0.00000000E+00	 0.00000000E+00
	 0.00000000E+00	 0.00000000E+00	 0.00000000E+00
	 0.00000000E+00	 0.00000000E+00	 0.00000000E+00
	 0.00000000E+00	 0.00000000E+00	 0.00000000E+00
	 0.00000000E+00	 0.00000000E+00	 0.00000000E+00
	 0.00000000E+00	 0.00000000E+00	 0.00000000E+00
	 0.00000000E+00	 0.00000000E+00	 0.00000000E+00
	 0.00000000E+00	 0.00000000E+00	 0.00000000E+00
	 0.00000000E+00	 0.00000000E+00	 0.00000000E+00
	 0.00000000E+00	 0.00000000E+00	 0.00000000E+00
	 0.00000000E+00	 0.00000000E+00	 0.00000000E+00
	 0.00000000E+00	 0.00000000E+00	 0.00000000E+00
	 0.00000000E+00	 0.00000000E+00	 0.00000000E+00
	 0.00000000E+00	 0.00000000E+00	 0.00000000E+00
	 0.00000000E+00	 0.00000000E+00	 0.00000000E+00
	 0.00000000E+00	 0.00000000E+00	 0.00000000E+00
	 0.00000000E+00	 0.00000000E+00	 0.00000000E+00
	 0.00000000E+00	 0.00000000E+00	 0.00000000E+00
	 0.00000000E+00	 0.00000000E+00	 0.00000000E+00
	 0.00000000E+00	 0.00000000E+00	 0.00000000E+00
	 0.00000000E+00	 0.00000000E+00	 0.00000000E+00
	 0.00000000E+00	 0.00000000E+00	 0.00000000E+00
	 0.00000000E+00	 0.00000000E+00	 0.00000000E+00
	 0.00000000E+00	 0.00000000E+00	 0.00000000E+00
	 0.00000000E+00	 0.00000000E+00	 0.00000000E+00
	 0.00000000E+00	 0.00000000E+00	 0.00000000E+00
	 0.00000000E+00	 0.00000000E+00	 0.00000000E+00
	 0.00000000E+00	 0.00000000E+00	 0.00000000E+00
	 0.00000000E+00	 0.00000000E+00	 0.00000000E+00
	 0.00000000E+00	 0.00000000E+00	 0.00000000E+00
	 0.00000000E+00	 0.00000000E+00	 0.00000000E+00
	 0.00000000E+00	 0.00000000E+00	 0.00000000E+00
	 0.00000000E+00	 0.00000000E+00	 0.00000000E+00
	 0.00000000E+00	 0.00000000E+00	 0.00000000E+00
	 0.00000000E+00	 0.00000000E+00	 0.00000000E+00
	 0.00000000E+00	 0.00000000E+00	 0.00000000E+00
	 0.00000000E+00	 0.00000000E+00	 0.00000000E+00
	 0.00000000E+00	 0.00000000E+00	 0.00000000E+00
	 0.00000000E+00	 0.00000000E+00	 0.00000000E+00
	 0.00000000E+00	 0.00000000E+00	 0.00000000E+00
	 0.00000000E+00	 0.00000000E+00	 0.00000000E+00
	 0.00000000E+00	 0.00000000E+00	 0.00000000E+00
	 0.00000000E+00	 0.00000000E+00	 0.00000000E+00
	 0.00000000E+00	 0.00000000E+00	 0.00000000E+00
	 0.00000000E+00	 0.00000000E+00	 0.00000000E+00
	 0.00000000E+00	 0.00000000E+00	 0.00000000E+00
	 0.00000000E+00	 0.00000000E+00	 0.00000000E+00
	 0.00000000E+00	 0.00000000E+00	 0.00000000E+00
	 0.00000000E+00	 0.00000000E+00	 0.00000000E+00
	 0.00000000E+00	 0.00000000E+00	 0.00000000E+00
	 0.00000000E+00	 0.00000000E+00	 0.00000000E+00
	 0.00000000E+00	 0.00000000E+00	 0.00000000E+00
	 0.00000000E+00	 0.00000000E+00	 0.00000000E+00
	 0.00000000E+00	 0.00000000E+00	 0.00000000E+00
	 0.00000000E+00	 0.00000000E+00	 0.00000000E+00
	 0.00000000E+00	 0.00000000E+00	 0.00000000E+00
	 0.00000000E+00	 0.00000000E+00	 0.00000000E+00
	 0.00000000E+00	 0.00000000E+00	 0.00000000E+00
	 0.00000000E+00	 0.00000000E+00	 0.00000000E+00
	 0.00000000E+00	 0.00000000E+00	 0.00000000E+00
	 0.00000000E+00	 0.00000000E+00	 0.00000000E+00
	 0.00000000E+00	 0.00000000E+00	 0.00000000E+00
	 0.00000000E+00	 0.00000000E+00	 0.00000000E+00
	 0.00000000E+00	 0.00000000E+00	 0.00000000E+00
	 0.00000000E+00	 0.00000000E+00	 0.00000000E+00
	 0.00000000E+00	 0.00000000E+00	 0.00000000E+00
	 0.00000000E+00	 0.00000000E+00	 0.00000000E+00
	 0.00000000E+00	 0.00000000E+00	 0.00000000E+00
	 0.00000000E+00	 0.00000000E+00	 0.00000000E+00
	 0.00000000E+00	 0.00000000E+00	 0.00000000E+00
	 0.00000000E+00	 0.00000000E+00	 0.00000000E+00
	 0.00000000E+00	 0.00000000E+00	 0.00000000E+00
	 0.00000000E+00	 0.00000000E+00	 0.00000000E+00
	 0.00000000E+00	 0.00000000E+00	 0.00000000E+00
	 0.00000000E+00	 0.00000000E+00	 0.00000000E+00
	 0.00000000E+00	 0.00000000E+00	 0.00000000E+00
	 0.00000000E+00	 0.00000000E+00	 0.00000000E+00
	 0.00000000E+00	 0.00000000E+00	 0.00000000E+00
	 0.00000000E+00	 0.00000000E+00	 0.00000000E+00
	 0.00000000E+00	 0.00000000E+00	 0.00000000E+00
	 0.00000000E+00	 0.00000000E+00	 0.00000000E+00
	 0.00000000E+00	 0.00000000E+00	 0.00000000E+00
	 0.00000000E+00	 0.00000000E+00	 0.00000000E+00
	 0.00000000E+00	 0.00000000E+00	 0.00000000E+00
	 0.00000000E+00	 0.00000000E+00	 0.00000000E+00
	 0.00000000E+00	 0.00000000E+00	 0.00000000E+00
	 0.00000000E+00	 0.00000000E+00	 0.00000000E+00
	 0.00000000E+00	 0.00000000E+00	 0.00000000E+00
	 0.00000000E+00	 0.00000000E+00	 0.00000000E+00
	 0.00000000E+00	 0.00000000E+00	 0.00000000E+00
	 0.00000000E+00	 0.00000000E+00	 0.00000000E+00
	 0.00000000E+00	 0.00000000E+00	 0.00000000E+00
	 0.00000000E+00	 0.00000000E+00	 0.00000000E+00
	 0.00000000E+00	 0.00000000E+00	 0.00000000E+00
	 0.00000000E+00	 0.00000000E+00	 0.00000000E+00
	 0.00000000E+00	 0.00000000E+00	 0.00000000E+00
	 0.00000000E+00	 0.00000000E+00	 0.00000000E+00
	 0.00000000E+00	 0.00000000E+00	 0.00000000E+00
	 0.00000000E+00	 0.00000000E+00	 0.00000000E+00
	 0.00000000E+00	 0.00000000E+00	 0.00000000E+00
	 0.00000000E+00	 0.00000000E+00	 0.00000000E+00
	 0.00000000E+00	 0.00000000E+00	 0.00000000E+00
	 0.00000000E+00	 0.00000000E+00	 0.00000000E+00
	 0.00000000E+00	 0.00000000E+00	 0.00000000E+00
	 0.00000000E+00	 0.00000000E+00	 0.00000000E+00
	 0.00000000E+00	 0.00000000E+00	 0.00000000E+00
	 0.00000000E+00	 0.00000000E+00	 0.00000000E+00
	 0.00000000E+00	 0.00000000E+00	 0.00000000E+00
	 0.00000000E+00	 0.00000000E+00	 0.00000000E+00
	 0.00000000E+00	 0.00000000E+00	 0.00000000E+00
	 0.00000000E+00	 0.00000000E+00	 0.00000000E+00
	 0.00000000E+00	 0.00000000E+00	 0.00000000E+00
	 0.00000000E+00	 0.00000000E+00	 0.00000000E+00
	 0.00000000E+00	 0.00000000E+00	 0.00000000E+00
	 0.00000000E+00	 0.00000000E+00	 0.00000000E+00
	 0.00000000E+00	 0.00000000E+00	 0.00000000E+00
	 0.00000000E+00	 0.00000000E+00	 0.00000000E+00
	 0.00000000E+00	 0.00000000E+00	 0.00000000E+00
	 0.00000000E+00	 0.00000000E+00	 0.00000000E+00
	 0.00000000E+00	 0.00000000E+00	 0.00000000E+00
	 0.00000000E+00	 0.00000000E+00	 0.00000000E+00
	 0.00000000E+00	 0.00000000E+00	 0.00000000E+00
	 0.00000000E+00	 0.00000000E+00	 0.00000000E+00
	 0.00000000E+00	 0.00000000E+00	 0.00000000E+00
	 0.00000000E+00	 0.00000000E+00	 0.00000000E+00
	 0.00000000E+00	 0.00000000E+00	 0.00000000E+00
	 0.00000000E+00	 0.00000000E+00	 0.00000000E+00
	 0.00000000E+00	 0.00000000E+00	 0.00000000E+00
	 0.00000000E+00	 0.00000000E+00	 0.00000000E+00
	 0.00000000E+00	 0.00000000E+00	 0.00000000E+00
	 0.00000000E+00	 0.00000000E+00	 0.00000000E+00
	 0.00000000E+00	 0.00000000E+00	 0.00000000E+00
	 0.00000000E+00	 0.00000000E+00	 0.00000000E+00
	 0.00000000E+00	 0.00000000E+00	 0.00000000E+00
	 0.00000000E+00	 0.00000000E+00	 0.00000000E+00
	 0.00000000E+00	 0.00000000E+00	 0.00000000E+00
	 0.00000000E+00	 0.00000000E+00	 0.00000000E+00
	 0.00000000E+00	 0.00000000E+00	 0.00000000E+00
	 0.00000000E+00	 0.00000000E+00	 0.00000000E+00
	 0.00000000E+00	 0.00000000E+00	 0.00000000E+00
	 0.00000000E+00	 0.00000000E+00	 0.00000000E+00
	 0.00000000E+00	 0.00000000E+00	 0.00000000E+00
	 0.00000000E+00	 0.00000000E+00	 0.00000000E+00
	 0.00000000E+00	 0.00000000E+00	 0.00000000E+00
	 0.00000000E+00	 0.00000000E+00	 0.00000000E+00
	 0.00000000E+00	 0.00000000E+00	 0.00000000E+00
	 0.00000000E+00	 0.00000000E+00	 0.00000000E+00
	 0.00000000E+00	 0.00000000E+00	 0.00000000E+00
	 0.00000000E+00	 0.00000000E+00	 0.00000000E+00
	 0.00000000E+00	 0.00000000E+00	 0.00000000E+00
	 0.00000000E+00	 0.00000000E+00	 0.00000000E+00
	 0.00000000E+00	 0.00000000E+00	 0.00000000E+00
	 0.00000000E+00	 0.00000000E+00	 0.00000000E+00
	 0.00000000E+00	 0.00000000E+00	 0.00000000E+00
	 0.00000000E+00	 0.00000000E+00	 0.00000000E+00
	 0.00000000E+00	 0.00000000E+00	 0.00000000E+00
	 0.00000000E+00	 0.00000000E+00	 0.00000000E+00
	 0.00000000E+00	 0.00000000E+00	 0.00000000E+00
	 0.00000000E+00	 0.00000000E+00	 0.00000000E+00
	 0.00000000E+00	 0.00000000E+00	 0.00000000E+00
	 0.00000000E+00	 0.00000000E+00	 0.00000000E+00
	 0.00000000E+00	 0.00000000E+00	 0.00000000E+00
	 0.00000000E+00	 0.00000000E+00	 0.00000000E+00
	 0.00000000E+00	 0.00000000E+00	 0.00000000E+00
	 0.00000000E+00	 0.00000000E+00	 0.00000000E+00
	 0.00000000E+00	 0.00000000E+00	 0.00000000E+00
	 0.00000000E+00	 0.00000000E+00	 0.00000000E+00
	 0.00000000E+00	 0.00000000E+00	 0.00000000E+00
	 0.00000000E+00	 0.00000000E+00	 0.00000000E+00
	 0.00000000E+00	 0.00000000E+00	 0.00000000E+00
	 0.00000000E+00	 0.00000000E+00	 0.00000000E+00
	 0.00000000E+00	 0.00000000E+00	 0.00000000E+00
	 0.00000000E+00	 0.00000000E+00	 0.00000000E+00
	 0.00000000E+00	 0.00000000E+00	 0.00000000E+00
	 0.00000000E+00	 0.00000000E+00	 0.00000000E+00
	 0.00000000E+00	 0.00000000E+00	 0.00000000E+00
	 0.00000000E+00	 0.00000000E+00	 0.00000000E+00
	 0.00000000E+00	 0.00000000E+00	 0.00000000E+00
	 0.00000000E+00	 0.00000000E+00	 0.00000000E+00
	 0.00000000E+00	 0.00000000E+00	 0.00000000E+00
	 0.00000000E+00	 0.00000000E+00	 0.00000000E+00
	 0.00000000E+00	 0.00000000E+00	 0.00000000E+00
	 0.00000000E+00	 0.00000000E+00	 0.00000000E+00
	 0.00000000E+00	 0.00000000E+00	 0.00000000E+00
	 0.00000000E+00	 0.00000000E+00	 0.00000000E+00
	 0.00000000E+00	 0.00000000E+00	 0.00000000E+00
	 0.00000000E+00	 0.00000000E+00	 0.00000000E+00
	 0.00000000E+00	 0.00000000E+00	 0.00000000E+00
	 0.00000000E+00	 0.00000000E+00	 0.00000000E+00
	 0.00000000E+00	 0.00000000E+00	 0.00000000E+00
	 0.00000000E+00	 0.00000000E+00	 0.00000000E+00
	 0.00000000E+00	 0.00000000E+00	 0.00000000E+00
	 0.00000000E+00	 0.00000000E+00	 0.00000000E+00
	 0.00000000E+00	 0.00000000E+00	 0.00000000E+00
	 0.00000000E+00	 0.00000000E+00	 0.00000000E+00
	 0.00000000E+00	 0.00000000E+00	 0.00000000E+00
	 0.00000000E+00	 0.00000000E+00	 0.00000000E+00
	 0.00000000E+00	 0.00000000E+00	 0.00000000E+00
	 0.00000000E+00	 0.00000000E+00	 0.00000000E+00
	 0.00000000E+00	 0.00000000E+00	 0.00000000E+00
	 0.00000000E+00	 0.00000000E+00	 0.00000000E+00
	 0.00000000E+00	 0.00000000E+00	 0.00000000E+00
	 0.00000000E+00	 0.00000000E+00	 0.00000000E+00
	 0.00000000E+00	 0.00000000E+00	 0.00000000E+00
	 0.00000000E+00	 0.00000000E+00	 0.00000000E+00
	 0.00000000E+00	 0.00000000E+00	 0.00000000E+00
	 0.00000000E+00	 0.00000000E+00	 0.00000000E+00
	 0.00000000E+00	 0.00000000E+00	 0.00000000E+00
	 0.00000000E+00	 0.00000000E+00	 0.00000000E+00
	 0.00000000E+00	 0.00000000E+00	 0.00000000E+00
	 0.00000000E+00	 0.00000000E+00	 0.00000000E+00
	 0.00000000E+00	 0.00000000E+00	 0.00000000E+00
	 0.00000000E+00	 0.00000000E+00	 0.00000000E+00
	 0.00000000E+00	 0.00000000E+00	 0.00000000E+00
	 0.00000000E+00	 0.00000000E+00	 0.00000000E+00
	 0.00000000E+00	 0.00000000E+00	 0.00000000E+00
	 0.00000000E+00	 0.00000000E+00	 0.00000000E+00
	 0.00000000E+00	 0.00000000E+00	 0.00000000E+00
	 0.00000000E+00	 0.00000000E+00	 0.00000000E+00
	 0.00000000E+00	 0.00000000E+00	 0.00000000E+00
	 0.00000000E+00	 0.00000000E+00	 0.00000000E+00
	 0.00000000E+00	 0.00000000E+00	 0.00000000E+00
	 0.00000000E+00	 0.00000000E+00	 0.00000000E+00
	 0.00000000E+00	 0.00000000E+00	 0.00000000E+00
	 0.00000000E+00	 0.00000000E+00	 0.00000000E+00
	 0.00000000E+00	 0.00000000E+00	 0.00000000E+00
	 0.00000000E+00	 0.00000000E+00	 0.00000000E+00
	 0.00000000E+00	 0.00000000E+00	 0.00000000E+00
	 0.00000000E+00	 0.00000000E+00	 0.00000000E+00
	 0.00000000E+00	 0.00000000E+00	 0.00000000E+00
	 0.00000000E+00	 0.00000000E+00	 0.00000000E+00
	 0.00000000E+00	 0.00000000E+00	 0.00000000E+00
	 0.00000000E+00	 0.00000000E+00	 0.00000000E+00
	 0.00000000E+00	 0.00000000E+00	 0.00000000E+00
	 0.00000000E+00	 0.00000000E+00	 0.00000000E+00
	 0.00000000E+00	 0.00000000E+00	 0.00000000E+00
	 0.00000000E+00	 0.00000000E+00	 0.00000000E+00
	 0.00000000E+00	 0.00000000E+00	 0.00000000E+00
	 0.00000000E+00	 0.00000000E+00	 0.00000000E+00
	 0.00000000E+00	 0.00000000E+00	 0.00000000E+00
	 0.00000000E+00	 0.00000000E+00	 0.00000000E+00
	 0.00000000E+00	 0.00000000E+00	 0.00000000E+00
	 0.00000000E+00	 0.00000000E+00	 0.00000000E+00
	 0.00000000E+00	 0.00000000E+00	 0.00000000E+00
	 0.00000000E+00	 0.00000000E+00	 0.00000000E+00
	 0.00000000E+00	 0.00000000E+00	 0.00000000E+00
	 0.00000000E+00	 0.00000000E+00	 0.00000000E+00
	 0.00000000E+00	 0.00000000E+00	 0.00000000E+00
	 0.00000000E+00	 0.00000000E+00	 0.00000000E+00
	 0.00000000E+00	 0.00000000E+00	 0.00000000E+00
	 0.00000000E+00	 0.00000000E+00	 0.00000000E+00
	 0.00000000E+00	 0.00000000E+00	 0.00000000E+00
	 0.00000000E+00	 0.00000000E+00	 0.00000000E+00
	 0.00000000E+00	 0.00000000E+00	 0.00000000E+00
	 0.00000000E+00	 0.00000000E+00	 0.00000000E+00
	 0.00000000E+00	 0.00000000E+00	 0.00000000E+00
	 0.00000000E+00	 0.00000000E+00	 0.00000000E+00
	 0.00000000E+00	 0.00000000E+00	 0.00000000E+00
	 0.00000000E+00	 0.00000000E+00	 0.00000000E+00
	 0.00000000E+00	 0.00000000E+00	 0.00000000E+00
	 0.00000000E+00	 0.00000000E+00	 0.00000000E+00
	 0.00000000E+00	 0.00000000E+00	 0.00000000E+00
	 0.00000000E+00	 0.00000000E+00	 0.00000000E+00
	 0.00000000E+00	 0.00000000E+00	 0.00000000E+00
	 0.00000000E+00	 0.00000000E+00	 0.00000000E+00
	 0.00000000E+00	 0.00000000E+00	 0.00000000E+00
	 0.00000000E+00	 0.00000000E+00	 0.00000000E+00
	 0.00000000E+00	 0.00000000E+00	 0.00000000E+00
	 0.00000000E+00	 0.00000000E+00	 0.00000000E+00
	 0.00000000E+00	 0.00000000E+00	 0.00000000E+00
	 0.00000000E+00	 0.00000000E+00	 0.00000000E+00
	 0.00000000E+00	 0.00000000E+00	 0.00000000E+00
	 0.00000000E+00	 0.00000000E+00	 0.00000000E+00
	 0.00000000E+00	 0.00000000E+00	 0.00000000E+00
	 0.00000000E+00	 0.00000000E+00	 0.00000000E+00
	 0.00000000E+00	 0.00000000E+00	 0.00000000E+00
	 0.00000000E+00	 0.00000000E+00	 0.00000000E+00
	 0.00000000E+00	 0.00000000E+00	 0.00000000E+00
	 0.00000000E+00	 0.00000000E+00	 0.00000000E+00
	 0.00000000E+00	 0.00000000E+00	 0.00000000E+00
	 0.00000000E+00	 0.00000000E+00	 0.00000000E+00
	 0.00000000E+00	 0.00000000E+00	 0.00000000E+00
	 0.00000000E+00	 0.00000000E+00	 0.00000000E+00
	 0.00000000E+00	 0.00000000E+00	 0.00000000E+00
	 0.00000000E+00	 0.00000000E+00	 0.00000000E+00
	 0.00000000E+00	 0.00000000E+00	 0.00000000E+00
	 0.00000000E+00	 0.00000000E+00	 0.00000000E+00
	 0.00000000E+00	 0.00000000E+00	 0.00000000E+00
	 0.00000000E+00	 0.00000000E+00	 0.00000000E+00
	 0.00000000E+00	 0.00000000E+00	 0.00000000E+00
	 0.00000000E+00	 0.00000000E+00	 0.00000000E+00
	 0.00000000E+00	 0.00000000E+00	 0.00000000E+00
	 0.00000000E+00	 0.00000000E+00	 0.00000000E+00
	 0.00000000E+00	 0.00000000E+00	 0.00000000E+00
	 0.00000000E+00	 0.00000000E+00	 0.00000000E+00
	 0.00000000E+00	 0.00000000E+00	 0.00000000E+00
	 0.00000000E+00	 0.00000000E+00	 0.00000000E+00
	 0.00000000E+00	 0.00000000E+00	 0.00000000E+00
	 0.00000000E+00	 0.00000000E+00	 0.00000000E+00
	 0.00000000E+00	 0.00000000E+00	 0.00000000E+00
	 0.00000000E+00	 0.00000000E+00	 0.00000000E+00
	 0.00000000E+00	 0.00000000E+00	 0.00000000E+00
	 0.00000000E+00	 0.00000000E+00	 0.00000000E+00
	 0.00000000E+00	 0.00000000E+00	 0.00000000E+00
	 0.00000000E+00	 0.00000000E+00	 0.00000000E+00
	 0.00000000E+00	 0.00000000E+00	 0.00000000E+00
	 0.00000000E+00	 0.00000000E+00	 0.00000000E+00
	 0.00000000E+00	 0.00000000E+00	 0.00000000E+00
	 0.00000000E+00	 0.00000000E+00	 0.00000000E+00
	 0.00000000E+00	 0.00000000E+00	 0.00000000E+00
	 0.00000000E+00	 0.00000000E+00	 0.00000000E+00
	 0.00000000E+00	 0.00000000E+00	 0.00000000E+00
	 0.00000000E+00	 0.00000000E+00	 0.00000000E+00
	 0.00000000E+00	 0.00000000E+00	 0.00000000E+00
	 0.00000000E+00	 0.00000000E+00	 0.00000000E+00
	 0.00000000E+00	 0.00000000E+00	 0.00000000E+00
	 0.00000000E+00	 0.00000000E+00	 0.00000000E+00
	 0.00000000E+00	 0.00000000E+00	 0.00000000E+00
	 0.00000000E+00	 0.00000000E+00	 0.00000000E+00
	 0.00000000E+00	 0.00000000E+00	 0.00000000E+00
	 0.00000000E+00	 0.00000000E+00	 0.00000000E+00
	 0.00000000E+00	 0.00000000E+00	 0.00000000E+00
	 0.00000000E+00	 0.00000000E+00	 0.00000000E+00
	 0.00000000E+00	 0.00000000E+00	 0.00000000E+00
	 0.00000000E+00	 0.00000000E+00	 0.00000000E+00
	 0.00000000E+00	 0.00000000E+00	 0.00000000E+00
	 0.00000000E+00	 0.00000000E+00	 0.00000000E+00
	 0.00000000E+00	 0.00000000E+00	 0.00000000E+00
	 0.00000000E+00	 0.00000000E+00	 0.00000000E+00
	 0.00000000E+00	 0.00000000E+00	 0.00000000E+00
	 0.00000000E+00	 0.00000000E+00	 0.00000000E+00
	 0.00000000E+00	 0.00000000E+00	 0.00000000E+00
	 0.00000000E+00	 0.00000000E+00	 0.00000000E+00
	 0.00000000E+00	 0.00000000E+00	 0.00000000E+00
	 0.00000000E+00	 0.00000000E+00	 0.00000000E+00
	 0.00000000E+00	 0.00000000E+00	 0.00000000E+00
	 0.00000000E+00	 0.00000000E+00	 0.00000000E+00
	 0.00000000E+00	 0.00000000E+00	 0.00000000E+00
	 0.00000000E+00	 0.00000000E+00	 0.00000000E+00
	 0.00000000E+00	 0.00000000E+00	 0.00000000E+00
	 0.00000000E+00	 0.00000000E+00	 0.00000000E+00
	 0.00000000E+00	 0.00000000E+00	 0.00000000E+00
	 0.00000000E+00	 0.00000000E+00	 0.00000000E+00
	 0.00000000E+00	 0.00000000E+00	 0.00000000E+00
	 0.00000000E+00	 0.00000000E+00	 0.00000000E+00
	 0.00000000E+00	 0.00000000E+00	 0.00000000E+00
	 0.00000000E+00	 0.00000000E+00	 0.00000000E+00
	 0.00000000E+00	 0.00000000E+00	 0.00000000E+00
	 0.00000000E+00	 0.00000000E+00	 0.00000000E+00
	 0.00000000E+00	 0.00000000E+00	 0.00000000E+00
	 0.00000000E+00	 0.00000000E+00	 0.00000000E+00
	 0.00000000E+00	 0.00000000E+00	 0.00000000E+00
	 0.00000000E+00	 0.00000000E+00	 0.00000000E+00
	 0.00000000E+00	 0.00000000E+00	 0.00000000E+00
	 0.00000000E+00	 0.00000000E+00	 0.00000000E+00
	 0.00000000E+00	 0.00000000E+00	 0.00000000E+00
	 0.00000000E+00	 0.00000000E+00	 0.00000000E+00
	 0.00000000E+00	 0.00000000E+00	 0.00000000E+00
	 0.00000000E+00	 0.00000000E+00	 0.00000000E+00
	 0.00000000E+00	 0.00000000E+00	 0.00000000E+00
	 0.00000000E+00	 0.00000000E+00	 0.00000000E+00
	 0.00000000E+00	 0.00000000E+00	 0.00000000E+00
	 0.00000000E+00	 0.00000000E+00	 0.00000000E+00
	 0.00000000E+00	 0.00000000E+00	 0.00000000E+00
	 0.00000000E+00	 0.00000000E+00	 0.00000000E+00
	 0.00000000E+00	 0.00000000E+00	 0.00000000E+00
	 0.00000000E+00	 0.00000000E+00	 0.00000000E+00
	 0.00000000E+00	 0.00000000E+00	 0.00000000E+00
	 0.00000000E+00	 0.00000000E+00	 0.00000000E+00
	 0.00000000E+00	 0.00000000E+00	 0.00000000E+00
	 0.00000000E+00	 0.00000000E+00	 0.00000000E+00
	 0.00000000E+00	 0.00000000E+00	 0.00000000E+00
	 0.00000000E+00	 0.00000000E+00	 0.00000000E+00
	 0.00000000E+00	 0.00000000E+00	 0.00000000E+00
	 0.00000000E+00	 0.00000000E+00	 0.00000000E+00
	 0.00000000E+00	 0.00000000E+00	 0.00000000E+00
	 0.00000000E+00	 0.00000000E+00	 0.00000000E+00
	 0.00000000E+00	 0.00000000E+00	 0.00000000E+00
	 0.00000000E+00	 0.00000000E+00	 0.00000000E+00
	 0.00000000E+00	 0.00000000E+00	 0.00000000E+00
	 0.00000000E+00	 0.00000000E+00	 0.00000000E+00
	 0.00000000E+00	 0.00000000E+00	 0.00000000E+00
	 0.00000000E+00	 0.00000000E+00	 0.00000000E+00
	 0.00000000E+00	 0.00000000E+00	 0.00000000E+00
	 0.00000000E+00	 0.00000000E+00	 0.00000000E+00
	 0.00000000E+00	 0.00000000E+00	 0.00000000E+00
	 0.00000000E+00	 0.00000000E+00	 0.00000000E+00
	 0.00000000E+00	 0.00000000E+00	 0.00000000E+00
	 0.00000000E+00	 0.00000000E+00	 0.00000000E+00
	 0.00000000E+00	 0.00000000E+00	 0.00000000E+00
	 0.00000000E+00	 0.00000000E+00	 0.00000000E+00
	 0.00000000E+00	 0.00000000E+00	 0.00000000E+00
	 0.00000000E+00	 0.00000000E+00	 0.00000000E+00
	 0.00000000E+00	 0.00000000E+00	 0.00000000E+00
	 0.00000000E+00	 0.00000000E+00	 0.00000000E+00
	 0.00000000E+00	 0.00000000E+00	 0.00000000E+00
	 0.00000000E+00	 0.00000000E+00	 0.00000000E+00
	 0.00000000E+00	 0.00000000E+00	 0.00000000E+00
	 0.00000000E+00	 0.00000000E+00	 0.00000000E+00
	 0.00000000E+00	 0.00000000E+00	 0.00000000E+00
	 0.00000000E+00	 0.00000000E+00	 0.00000000E+00
	 0.00000000E+00	 0.00000000E+00	 0.00000000E+00
	 0.00000000E+00	 0.00000000E+00	 0.00000000E+00
	 0.00000000E+00	 0.00000000E+00	 0.00000000E+00
	 0.00000000E+00	 0.00000000E+00	 0.00000000E+00
	 0.00000000E+00	 0.00000000E+00	 0.00000000E+00
	 0.00000000E+00	 0.00000000E+00	 0.00000000E+00
	 0.00000000E+00	 0.00000000E+00	 0.00000000E+00
	 0.00000000E+00	 0.00000000E+00	 0.00000000E+00
	 0.00000000E+00	 0.00000000E+00	 0.00000000E+00
	 0.00000000E+00	 0.00000000E+00	 0.00000000E+00
	 0.00000000E+00	 0.00000000E+00	 0.00000000E+00
	 0.00000000E+00	 0.00000000E+00	 0.00000000E+00
	 0.00000000E+00	 0.00000000E+00	 0.00000000E+00
	 0.00000000E+00	 0.00000000E+00	 0.00000000E+00
	 0.00000000E+00	 0.00000000E+00	 0.00000000E+00
	 0.00000000E+00	 0.00000000E+00	 0.00000000E+00
	 0.00000000E+00	 0.00000000E+00	 0.00000000E+00
	 0.00000000E+00	 0.00000000E+00	 0.00000000E+00
	 0.00000000E+00	 0.00000000E+00	 0.00000000E+00
	 0.00000000E+00	 0.00000000E+00	 0.00000000E+00
	 0.00000000E+00	 0.00000000E+00	 0.00000000E+00
	 0.00000000E+00	 0.00000000E+00	 0.00000000E+00
	 0.00000000E+00	 0.00000000E+00	 0.00000000E+00
	 0.00000000E+00	 0.00000000E+00	 0.00000000E+00
	 0.00000000E+00	 0.00000000E+00	 0.00000000E+00
	 0.00000000E+00	 0.00000000E+00	 0.00000000E+00
	 0.00000000E+00	 0.00000000E+00	 0.00000000E+00
	 0.00000000E+00	 0.00000000E+00	 0.00000000E+00
	 0.00000000E+00	 0.00000000E+00	 0.00000000E+00
	 0.00000000E+00	 0.00000000E+00	 0.00000000E+00
	 0.00000000E+00	 0.00000000E+00	 0.00000000E+00
	 0.00000000E+00	 0.00000000E+00	 0.00000000E+00
	 0.00000000E+00	 0.00000000E+00	 0.00000000E+00
	 0.00000000E+00	 0.00000000E+00	 0.00000000E+00
	 0.00000000E+00	 0.00000000E+00	 0.00000000E+00
	 0.00000000E+00	 0.00000000E+00	 0.00000000E+00
	 0.00000000E+00	 0.00000000E+00	 0.00000000E+00
	 0.00000000E+00	 0.00000000E+00	 0.00000000E+00
	 0.00000000E+00	 0.00000000E+00	 0.00000000E+00
	 0.00000000E+00	 0.00000000E+00	 0.00000000E+00
	 0.00000000E+00	 0.00000000E+00	 0.00000000E+00
	 0.00000000E+00	 0.00000000E+00	 0.00000000E+00
	 0.00000000E+00	 0.00000000E+00	 0.00000000E+00
	 0.00000000E+00	 0.00000000E+00	 0.00000000E+00
	 0.00000000E+00	 0.00000000E+00	 0.00000000E+00
	 0.00000000E+00	 0.00000000E+00	 0.00000000E+00
	 0.00000000E+00	 0.00000000E+00	 0.00000000E+00
	 0.00000000E+00	 0.00000000E+00	 0.00000000E+00
	 0.00000000E+00	 0.00000000E+00	 0.00000000E+00
	 0.00000000E+00	 0.00000000E+00	 0.00000000E+00
	 0.00000000E+00	 0.00000000E+00	 0.00000000E+00
	 0.00000000E+00	 0.00000000E+00	 0.00000000E+00
	 0.00000000E+00	 0.00000000E+00	 0.00000000E+00
	 0.00000000E+00	 0.00000000E+00	 0.00000000E+00
	 0.00000000E+00	 0.00000000E+00	 0.00000000E+00
	 0.00000000E+00	 0.00000000E+00	 0.00000000E+00
	 0.00000000E+00	 0.00000000E+00	 0.00000000E+00
	 0.00000000E+00	 0.00000000E+00	 0.00000000E+00
	 0.00000000E+00	 0.00000000E+00	 0.00000000E+00
	 0.00000000E+00	 0.00000000E+00	 0.00000000E+00
	 0.00000000E+00	 0.00000000E+00	 0.00000000E+00
	 0.00000000E+00	 0.00000000E+00	 0.00000000E+00
	 0.00000000E+00	 0.00000000E+00	 0.00000000E+00
	 0.00000000E+00	 0.00000000E+00	 0.00000000E+00
	 0.00000000E+00	 0.00000000E+00	 0.00000000E+00
	 0.00000000E+00	 0.00000000E+00	 0.00000000E+00
	 0.00000000E+00	 0.00000000E+00	 0.00000000E+00
	 0.00000000E+00	 0.00000000E+00	 0.00000000E+00
	 0.00000000E+00	 0.00000000E+00	 0.00000000E+00
	 0.00000000E+00	 0.00000000E+00	 0.00000000E+00
	 0.00000000E+00	 0.00000000E+00	 0.00000000E+00
	 0.00000000E+00	 0.00000000E+00	 0.00000000E+00
	 0.00000000E+00	 0.00000000E+00	 0.00000000E+00
	 0.00000000E+00	 0.00000000E+00	 0.00000000E+00
	 0.00000000E+00	 0.00000000E+00	 0.00000000E+00
	 0.00000000E+00	 0.00000000E+00	 0.00000000E+00
	 0.00000000E+00	 0.00000000E+00	 0.00000000E+00
	 0.00000000E+00	 0.00000000E+00	 0.00000000E+00
	 0.00000000E+00	 0.00000000E+00	 0.00000000E+00
	 0.00000000E+00	 0.00000000E+00	 0.00000000E+00
	 0.00000000E+00	 0.00000000E+00	 0.00000000E+00
	 0.00000000E+00	 0.00000000E+00	 0.00000000E+00
	 0.00000000E+00	 0.00000000E+00	 0.00000000E+00
	 0.00000000E+00	 0.00000000E+00	 0.00000000E+00
	 0.00000000E+00	 0.00000000E+00	 0.00000000E+00
	 0.00000000E+00	 0.00000000E+00	 0.00000000E+00
	 0.00000000E+00	 0.00000000E+00	 0.00000000E+00
	 0.00000000E+00	 0.00000000E+00	 0.00000000E+00
	 0.00000000E+00	 0.00000000E+00	 0.00000000E+00
	 0.00000000E+00	 0.00000000E+00	 0.00000000E+00
	 0.00000000E+00	 0.00000000E+00	 0.00000000E+00
	 0.00000000E+00	 0.00000000E+00	 0.00000000E+00
	 0.00000000E+00	 0.00000000E+00	 0.00000000E+00
	 0.00000000E+00	 0.00000000E+00	 0.00000000E+00
	 0.00000000E+00	 0.00000000E+00	 0.00000000E+00
	 0.00000000E+00	 0.00000000E+00	 0.00000000E+00
	 0.00000000E+00	 0.00000000E+00	 0.00000000E+00
	 0.00000000E+00	 0.00000000E+00	 0.00000000E+00
	 0.00000000E+00	 0.00000000E+00	 0.00000000E+00
	 0.00000000E+00	 0.00000000E+00	 0.00000000E+00
	 0.00000000E+00	 0.00000000E+00	 0.00000000E+00
	 0.00000000E+00	 0.00000000E+00	 0.00000000E+00
	 0.00000000E+00	 0.00000000E+00	 0.00000000E+00
	 0.00000000E+00	 0.00000000E+00	 0.00000000E+00
	 0.00000000E+00	 0.00000000E+00	 0.00000000E+00
	 0.00000000E+00	 0.00000000E+00	 0.00000000E+00
	 0.00000000E+00	 0.00000000E+00	 0.00000000E+00
	 0.00000000E+00	 0.00000000E+00	 0.00000000E+00
	 0.00000000E+00	 0.00000000E+00	 0.00000000E+00
	 0.00000000E+00	 0.00000000E+00	 0.00000000E+00
	 0.00000000E+00	 0.00000000E+00	 0.00000000E+00
	 0.00000000E+00	 0.00000000E+00	 0.00000000E+00
	 0.00000000E+00	 0.00000000E+00	 0.00000000E+00
	 0.00000000E+00	 0.00000000E+00	 0.00000000E+00
	 0.00000000E+00	 0.00000000E+00	 0.00000000E+00
	 0.00000000E+00	 0.00000000E+00	 0.00000000E+00
	 0.00000000E+00	 0.00000000E+00	 0.00000000E+00
	 0.00000000E+00	 0.00000000E+00	 0.00000000E+00
	 0.00000000E+00	 0.00000000E+00	 0.00000000E+00
	 0.00000000E+00	 0.00000000E+00	 0.00000000E+00
	 0.00000000E+00	 0.00000000E+00	 0.00000000E+00
	 0.00000000E+00	 0.00000000E+00	 0.00000000E+00
	 0.00000000E+00	 0.00000000E+00	 0.00000000E+00
	 0.00000000E+00	 0.00000000E+00	 0.00000000E+00
	 0.00000000E+00	 0.00000000E+00	 0.00000000E+00
	 0.00000000E+00	 0.00000000E+00	 0.00000000E+00
	 0.00000000E+00	 0.00000000E+00	 0.00000000E+00
	 0.00000000E+00	 0.00000000E+00	 0.00000000E+00
	 0.00000000E+00	 0.00000000E+00	 0.00000000E+00
	 0.00000000E+00	 0.00000000E+00	 0.00000000E+00
	 0.00000000E+00	 0.00000000E+00	 0.00000000E+00
	 0.00000000E+00	 0.00000000E+00	 0.00000000E+00
	 0.00000000E+00	 0.00000000E+00	 0.00000000E+00
	 0.00000000E+00	 0.00000000E+00	 0.00000000E+00
	 0.00000000E+00	 0.00000000E+00	 0.00000000E+00
	 0.00000000E+00	 0.00000000E+00	 0.00000000E+00
	 0.00000000E+00	 0.00000000E+00	 0.00000000E+00
	 0.00000000E+00	 0.00000000E+00	 0.00000000E+00
	 0.00000000E+00	 0.00000000E+00	 0.00000000E+00
	 0.00000000E+00	 0.00000000E+00	 0.00000000E+00
	 0.00000000E+00	 0.00000000E+00	 0.00000000E+00
	 0.00000000E+00	 0.00000000E+00	 0.00000000E+00
	 0.00000000E+00	 0.00000000E+00	 0.00000000E+00
	 0.00000000E+00	 0.00000000E+00	 0.00000000E+00
	 0.00000000E+00	 0.00000000E+00	 0.00000000E+00
	 0.00000000E+00	 0.00000000E+00	 0.00000000E+00
	 0.00000000E+00	 0.00000000E+00	 0.00000000E+00
	 0.00000000E+00	 0.00000000E+00	 0.00000000E+00
	 0.00000000E+00	 0.00000000E+00	 0.00000000E+00
	 0.00000000E+00	 0.00000000E+00	 0.00000000E+00
	 0.00000000E+00	 0.00000000E+00	 0.00000000E+00
	 0.00000000E+00	 0.00000000E+00	 0.00000000E+00
	 0.00000000E+00	 0.00000000E+00	 0.00000000E+00
	 0.00000000E+00	 0.00000000E+00	 0.00000000E+00
	 0.00000000E+00	 0.00000000E+00	 0.00000000E+00
	 0.00000000E+00	 0.00000000E+00	 0.00000000E+00
	 0.00000000E+00	 0.00000000E+00	 0.00000000E+00
	 0.00000000E+00	 0.00000000E+00	 0.00000000E+00
	 0.00000000E+00	 0.00000000E+00	 0.00000000E+00
	 0.00000000E+00	 0.00000000E+00	 0.00000000E+00
	 0.00000000E+00	 0.00000000E+00	 0.00000000E+00
	 0.00000000E+00	 0.00000000E+00	 0.00000000E+00
	 0.00000000E+00	 0.00000000E+00	 0.00000000E+00
	 0.00000000E+00	 0.00000000E+00	 0.00000000E+00
	 0.00000000E+00	 0.00000000E+00	 0.00000000E+00
	 0.00000000E+00	 0.00000000E+00	 0.00000000E+00
	 0.00000000E+00	 0.00000000E+00	 0.00000000E+00
	 0.00000000E+00	 0.00000000E+00	 0.00000000E+00
	 0.00000000E+00	 0.00000000E+00	 0.00000000E+00
	 0.00000000E+00	 0.00000000E+00	 0.00000000E+00
	 0.00000000E+00	 0.00000000E+00	 0.00000000E+00
	 0.00000000E+00	 0.00000000E+00	 0.00000000E+00
	 0.00000000E+00	 0.00000000E+00	 0.00000000E+00
	 0.00000000E+00	 0.00000000E+00	 0.00000000E+00
	 0.00000000E+00	 0.00000000E+00	 0.00000000E+00
	 0.00000000E+00	 0.00000000E+00	 0.00000000E+00
	 0.00000000E+00	 0.00000000E+00	 0.00000000E+00
	 0.00000000E+00	 0.00000000E+00	 0.00000000E+00
	 0.00000000E+00	 0.00000000E+00	 0.00000000E+00
	 0.00000000E+00	 0.00000000E+00	 0.00000000E+00
	 0.00000000E+00	 0.00000000E+00	 0.00000000E+00
	 0.00000000E+00	 0.00000000E+00	 0.00000000E+00
	 0.00000000E+00	 0.00000000E+00	 0.00000000E+00
	 0.00000000E+00	 0.00000000E+00	 0.00000000E+00
	 0.00000000E+00	 0.00000000E+00	 0.00000000E+00
	 0.00000000E+00	 0.00000000E+00	 0.00000000E+00
	 0.00000000E+00	 0.00000000E+00	 0.00000000E+00
	 0.00000000E+00	 0.00000000E+00	 0.00000000E+00
	 0.00000000E+00	 0.00000000E+00	 0.00000000E+00
	 0.00000000E+00	 0.00000000E+00	 0.00000000E+00
	 0.00000000E+00	 0.00000000E+00	 0.00000000E+00
	 0.00000000E+00	 0.00000000E+00	 0.00000000E+00
	 0.00000000E+00	 0.00000000E+00	 0.00000000E+00
	 0.00000000E+00	 0.00000000E+00	 0.00000000E+00
	 0.00000000E+00	 0.00000000E+00	 0.00000000E+00
	 0.00000000E+00	 0.00000000E+00	 0.00000000E+00
	 0.00000000E+00	 0.00000000E+00	 0.00000000E+00
	 0.00000000E+00	 0.00000000E+00	 0.00000000E+00
	 0.00000000E+00	 0.00000000E+00	 0.00000000E+00
	 0.00000000E+00	 0.00000000E+00	 0.00000000E+00
	 0.00000000E+00	 0.00000000E+00	 0.00000000E+00
	 0.00000000E+00	 0.00000000E+00	 0.00000000E+00
	 0.00000000E+00	 0.00000000E+00	 0.00000000E+00
	 0.00000000E+00	 0.00000000E+00	 0.00000000E+00
	 0.00000000E+00	 0.00000000E+00	 0.00000000E+00
	 0.00000000E+00	 0.00000000E+00	 0.00000000E+00
	 0.00000000E+00	 0.00000000E+00	 0.00000000E+00
	 0.00000000E+00	 0.00000000E+00	 0.00000000E+00
	 0.00000000E+00	 0.00000000E+00	 0.00000000E+00
	 0.00000000E+00	 0.00000000E+00	 0.00000000E+00
	 0.00000000E+00	 0.00000000E+00	 0.00000000E+00
	 0.00000000E+00	 0.00000000E+00	 0.00000000E+00
	 0.00000000E+00	 0.00000000E+00	 0.00000000E+00
	 0.00000000E+00	 0.00000000E+00	 0.00000000E+00
	 0.00000000E+00	 0.00000000E+00	 0.00000000E+00
	 0.00000000E+00	 0.00000000E+00	 0.00000000E+00
	 0.00000000E+00	 0.00000000E+00	 0.00000000E+00
	 0.00000000E+00	 0.00000000E+00	 0.00000000E+00
	 0.00000000E+00	 0.00000000E+00	 0.00000000E+00
	 0.00000000E+00	 0.00000000E+00	 0.00000000E+00
	 0.00000000E+00	 0.00000000E+00	 0.00000000E+00
	 0.00000000E+00	 0.00000000E+00	 0.00000000E+00
	 0.00000000E+00	 0.00000000E+00	 0.00000000E+00
	 0.00000000E+00	 0.00000000E+00	 0.00000000E+00
	 0.00000000E+00	 0.00000000E+00	 0.00000000E+00
	 0.00000000E+00	 0.00000000E+00	 0.00000000E+00
	 0.00000000E+00	 0.00000000E+00	 0.00000000E+00
	 0.00000000E+00	 0.00000000E+00	 0.00000000E+00
	 0.00000000E+00	 0.00000000E+00	 0.00000000E+00
	 0.00000000E+00	 0.00000000E+00	 0.00000000E+00
	 0.00000000E+00	 0.00000000E+00	 0.00000000E+00
	 0.00000000E+00	 0.00000000E+00	 0.00000000E+00
	 0.00000000E+00	 0.00000000E+00	 0.00000000E+00
	 0.00000000E+00	 0.00000000E+00	 0.00000000E+00
	 0.00000000E+00	 0.00000000E+00	 0.00000000E+00
	 0.00000000E+00	 0.00000000E+00	 0.00000000E+00
	 0.00000000E+00	 0.00000000E+00	 0.00000000E+00
	 0.00000000E+00	 0.00000000E+00	 0.00000000E+00
	 0.00000000E+00	 0.00000000E+00	 0.00000000E+00
	 0.00000000E+00	 0.00000000E+00	 0.00000000E+00
	 0.00000000E+00	 0.00000000E+00	 0.00000000E+00
	 0.00000000E+00	 0.00000000E+00	 0.00000000E+00
	 0.00000000E+00	 0.00000000E+00	 0.00000000E+00
	 0.00000000E+00	 0.00000000E+00	 0.00000000E+00
	 0.00000000E+00	 0.00000000E+00	 0.00000000E+00
	 0.00000000E+00	 0.00000000E+00	 0.00000000E+00
	 0.00000000E+00	 0.00000000E+00	 0.00000000E+00
	 0.00000000E+00	 0.00000000E+00	 0.00000000E+00
	 0.00000000E+00	 0.00000000E+00	 0.00000000E+00
	 0.00000000E+00	 0.00000000E+00	 0.00000000E+00
	 0.00000000E+00	 0.00000000E+00	 0.00000000E+00
	 0.00000000E+00	 0.00000000E+00	 0.00000000E+00
	 0.00000000E+00	 0.00000000E+00	 0.00000000E+00
	 0.00000000E+00	 0.00000000E+00	 0.00000000E+00
	 0.00000000E+00	 0.00000000E+00	 0.00000000E+00
	 0.00000000E+00	 0.00000000E+00	 0.00000000E+00
	 0.00000000E+00	 0.00000000E+00	 0.00000000E+00
	 0.00000000E+00	 0.00000000E+00	 0.00000000E+00
	 0.00000000E+00	 0.00000000E+00	 0.00000000E+00
	 0.00000000E+00	 0.00000000E+00	 0.00000000E+00
	 0.00000000E+00	 0.00000000E+00	 0.00000000E+00
	 0.00000000E+00	 0.00000000E+00	 0.00000000E+00
	 0.00000000E+00	 0.00000000E+00	 0.00000000E+00
	 0.00000000E+00	 0.00000000E+00	 0.00000000E+00
	 0.00000000E+00	 0.00000000E+00	 0.00000000E+00
	 0.00000000E+00	 0.00000000E+00	 0.00000000E+00
	 0.00000000E+00	 0.00000000E+00	 0.00000000E+00
	 0.00000000E+00	 0.00000000E+00	 0.00000000E+00
	 0.00000000E+00	 0.00000000E+00	 0.00000000E+00
	 0.00000000E+00	 0.00000000E+00	 0.00000000E+00
	 0.00000000E+00	 0.00000000E+00	 0.00000000E+00
	 0.00000000E+00	 0.00000000E+00	 0.00000000E+00
	 0.00000000E+00	 0.00000000E+00	 0.00000000E+00
	 0.00000000E+00	 0.00000000E+00	 0.00000000E+00
	 0.00000000E+00	 0.00000000E+00	 0.00000000E+00
	 0.00000000E+00	 0.00000000E+00	 0.00000000E+00
	 0.00000000E+00	 0.00000000E+00	 0.00000000E+00
	 0.00000000E+00	 0.00000000E+00	 0.00000000E+00
	 0.00000000E+00	 0.00000000E+00	 0.00000000E+00
	 0.00000000E+00	 0.00000000E+00	 0.00000000E+00
	 0.00000000E+00	 0.00000000E+00	 0.00000000E+00
	 0.00000000E+00	 0.00000000E+00	 0.00000000E+00
	 0.00000000E+00	 0.00000000E+00	 0.00000000E+00
	 0.00000000E+00	 0.00000000E+00	 0.00000000E+00
	 0.00000000E+00	 0.00000000E+00	 0.00000000E+00
	 0.00000000E+00	 0.00000000E+00	 0.00000000E+00
	 0.00000000E+00	 0.00000000E+00	 0.00000000E+00
	 0.00000000E+00	 0.00000000E+00	 0.00000000E+00
	 0.00000000E+00	 0.00000000E+00	 0.00000000E+00
	 0.00000000E+00	 0.00000000E+00	 0.00000000E+00
	 0.00000000E+00	 0.00000000E+00	 0.00000000E+00
	 0.00000000E+00	 0.00000000E+00	 0.00000000E+00
	 0.00000000E+00	 0.00000000E+00	 0.00000000E+00
	 0.00000000E+00	 0.00000000E+00	 0.00000000E+00
	 0.00000000E+00	 0.00000000E+00	 0.00000000E+00
	 0.00000000E+00	 0.00000000E+00	 0.00000000E+00
	 0.00000000E+00	 0.00000000E+00	 0.00000000E+00
	 0.00000000E+00	 0.00000000E+00	 0.00000000E+00
	 0.00000000E+00	 0.00000000E+00	 0.00000000E+00
	 0.00000000E+00	 0.00000000E+00	 0.00000000E+00
	 0.00000000E+00	 0.00000000E+00	 0.00000000E+00
	 0.00000000E+00	 0.00000000E+00	 0.00000000E+00
	 0.00000000E+00	 0.00000000E+00	 0.00000000E+00
	 0.00000000E+00	 0.00000000E+00	 0.00000000E+00
	 0.00000000E+00	 0.00000000E+00	 0.00000000E+00
	 0.00000000E+00	 0.00000000E+00	 0.00000000E+00
	 0.00000000E+00	 0.00000000E+00	 0.00000000E+00
	 0.00000000E+00	 0.00000000E+00	 0.00000000E+00
	 0.00000000E+00	 0.00000000E+00	 0.00000000E+00
	 0.00000000E+00	 0.00000000E+00	 0.00000000E+00
	 0.00000000E+00	 0.00000000E+00	 0.00000000E+00
	 0.00000000E+00	 0.00000000E+00	 0.00000000E+00
	 0.00000000E+00	 0.00000000E+00	 0.00000000E+00
	 0.00000000E+00	 0.00000000E+00	 0.00000000E+00
	 0.00000000E+00	 0.00000000E+00	 0.00000000E+00
	 0.00000000E+00	 0.00000000E+00	 0.00000000E+00
	 0.00000000E+00	 0.00000000E+00	 0.00000000E+00
	 0.00000000E+00	 0.00000000E+00	 0.00000000E+00
	 0.00000000E+00	 0.00000000E+00	 0.00000000E+00
	 0.00000000E+00	 0.00000000E+00	 0.00000000E+00
	 0.00000000E+00	 0.00000000E+00	 0.00000000E+00
	 0.00000000E+00	 0.00000000E+00	 0.00000000E+00
	 0.00000000E+00	 0.00000000E+00	 0.00000000E+00
	 0.00000000E+00	 0.00000000E+00	 0.00000000E+00
	 0.00000000E+00	 0.00000000E+00	 0.00000000E+00
	 0.00000000E+00	 0.00000000E+00	 0.00000000E+00
	 0.00000000E+00	 0.00000000E+00	 0.00000000E+00
	 0.00000000E+00	 0.00000000E+00	 0.00000000E+00
	 0.00000000E+00	 0.00000000E+00	 0.00000000E+00
	 0.00000000E+00	 0.00000000E+00	 0.00000000E+00
	 0.00000000E+00	 0.00000000E+00	 0.00000000E+00
	 0.00000000E+00	 0.00000000E+00	 0.00000000E+00
	 0.00000000E+00	 0.00000000E+00	 0.00000000E+00
	 0.00000000E+00	 0.00000000E+00	 0.00000000E+00
	 0.00000000E+00	 0.00000000E+00	 0.00000000E+00
	 0.00000000E+00	 0.00000000E+00	 0.00000000E+00
	 0.00000000E+00	 0.00000000E+00	 0.00000000E+00
	 0.00000000E+00	 0.00000000E+00	 0.00000000E+00
	 0.00000000E+00	 0.00000000E+00	 0.00000000E+00
	 0.00000000E+00	 0.00000000E+00	 0.00000000E+00
	 0.00000000E+00	 0.00000000E+00	 0.00000000E+00
	 0.00000000E+00	 0.00000000E+00	 0.00000000E+00
	 0.00000000E+00	 0.00000000E+00	 0.00000000E+00
	 0.00000000E+00	 0.00000000E+00	 0.00000000E+00
	 0.00000000E+00	 0.00000000E+00	 0.00000000E+00
	 0.00000000E+00	 0.00000000E+00	 0.00000000E+00
	 0.00000000E+00	 0.00000000E+00	 0.00000000E+00
	 0.00000000E+00	 0.00000000E+00	 0.00000000E+00
	 0.00000000E+00	 0.00000000E+00	 0.00000000E+00
	 0.00000000E+00	 0.00000000E+00	 0.00000000E+00
	 0.00000000E+00	 0.00000000E+00	 0.00000000E+00
	 0.00000000E+00	 0.00000000E+00	 0.00000000E+00
	 0.00000000E+00	 0.00000000E+00	 0.00000000E+00
	 0.00000000E+00	 0.00000000E+00	 0.00000000E+00
	 0.00000000E+00	 0.00000000E+00	 0.00000000E+00
	 0.00000000E+00	 0.00000000E+00	 0.00000000E+00
	 0.00000000E+00	 0.00000000E+00	 0.00000000E+00
	 0.00000000E+00	 0.00000000E+00	 0.00000000E+00
	 0.00000000E+00	 0.00000000E+00	 0.00000000E+00
	 0.00000000E+00	 0.00000000E+00	 0.00000000E+00
	 0.00000000E+00	 0.00000000E+00	 0.00000000E+00
	 0.00000000E+00	 0.00000000E+00	 0.00000000E+00
	 0.00000000E+00	 0.00000000E+00	 0.00000000E+00
	 0.00000000E+00	 0.00000000E+00	 0.00000000E+00
	 0.00000000E+00	 0.00000000E+00	 0.00000000E+00
	 0.00000000E+00	 0.00000000E+00	 0.00000000E+00
	 0.00000000E+00	 0.00000000E+00	 0.00000000E+00
	 0.00000000E+00	 0.00000000E+00	 0.00000000E+00
	 0.00000000E+00	 0.00000000E+00	 0.00000000E+00
	 0.00000000E+00	 0.00000000E+00	 0.00000000E+00
	 0.00000000E+00	 0.00000000E+00	 0.00000000E+00
	 0.00000000E+00	 0.00000000E+00	 0.00000000E+00
	 0.00000000E+00	 0.00000000E+00	 0.00000000E+00
	 0.00000000E+00	 0.00000000E+00	 0.00000000E+00
	 0.00000000E+00	 0.00000000E+00	 0.00000000E+00
	 0.00000000E+00	 0.00000000E+00	 0.00000000E+00
	 0.00000000E+00	 0.00000000E+00	 0.00000000E+00
	 0.00000000E+00	 0.00000000E+00	 0.00000000E+00
	 0.00000000E+00	 0.00000000E+00	 0.00000000E+00
	 0.00000000E+00	 0.00000000E+00	 0.00000000E+00
	 0.00000000E+00	 0.00000000E+00	 0.00000000E+00
	 0.00000000E+00	 0.00000000E+00	 0.00000000E+00
	 0.00000000E+00	 0.00000000E+00	 0.00000000E+00
	 0.00000000E+00	 0.00000000E+00	 0.00000000E+00
	 0.00000000E+00	 0.00000000E+00	 0.00000000E+00
	 0.00000000E+00	 0.00000000E+00	 0.00000000E+00
	 0.00000000E+00	 0.00000000E+00	 0.00000000E+00
	 0.00000000E+00	 0.00000000E+00	 0.00000000E+00
	 0.00000000E+00	 0.00000000E+00	 0.00000000E+00
	 0.00000000E+00	 0.00000000E+00	 0.00000000E+00
	 0.00000000E+00	 0.00000000E+00	 0.00000000E+00
	 0.00000000E+00	 0.00000000E+00	 0.00000000E+00
	 0.00000000E+00	 0.00000000E+00	 0.00000000E+00
	 0.00000000E+00	 0.00000000E+00	 0.00000000E+00
	 0.00000000E+00	 0.00000000E+00	 0.00000000E+00
	 0.00000000E+00	 0.00000000E+00	 0.00000000E+00
	 0.00000000E+00	 0.00000000E+00	 0.00000000E+00
	 0.00000000E+00	 0.00000000E+00	 0.00000000E+00
	 0.00000000E+00	 0.00000000E+00	 0.00000000E+00
	 0.00000000E+00	 0.00000000E+00	 0.00000000E+00
	 0.00000000E+00	 0.00000000E+00	 0.00000000E+00
	 0.00000000E+00	 0.00000000E+00	 0.00000000E+00
	 0.00000000E+00	 0.00000000E+00	 0.00000000E+00
	 0.00000000E+00	 0.00000000E+00	 0.00000000E+00
	 0.00000000E+00	 0.00000000E+00	 0.00000000E+00
	 0.00000000E+00	 0.00000000E+00	 0.00000000E+00
	 0.00000000E+00	 0.00000000E+00	 0.00000000E+00
	 0.00000000E+00	 0.00000000E+00	 0.00000000E+00
	 0.00000000E+00	 0.00000000E+00	 0.00000000E+00
	 0.00000000E+00	 0.00000000E+00	 0.00000000E+00
	 0.00000000E+00	 0.00000000E+00	 0.00000000E+00
	 0.00000000E+00	 0.00000000E+00	 0.00000000E+00
	 0.00000000E+00	 0.00000000E+00	 0.00000000E+00
	 0.00000000E+00	 0.00000000E+00	 0.00000000E+00
	 0.00000000E+00	 0.00000000E+00	 0.00000000E+00
	 0.00000000E+00	 0.00000000E+00	 0.00000000E+00
	 0.00000000E+00	 0.00000000E+00	 0.00000000E+00
	 0.00000000E+00	 0.00000000E+00	 0.00000000E+00
	 0.00000000E+00	 0.00000000E+00	 0.00000000E+00
	 0.00000000E+00	 0.00000000E+00	 0.00000000E+00
	 0.00000000E+00	 0.00000000E+00	 0.00000000E+00
	 0.00000000E+00	 0.00000000E+00	 0.00000000E+00
	 0.00000000E+00	 0.00000000E+00	 0.00000000E+00
	 0.00000000E+00	 0.00000000E+00	 0.00000000E+00
	 0.00000000E+00	 0.00000000E+00	 0.00000000E+00
	 0.00000000E+00	 0.00000000E+00	 0.00000000E+00
	 0.00000000E+00	 0.00000000E+00	 0.00000000E+00
	 0.00000000E+00	 0.00000000E+00	 0.00000000E+00
	 0.00000000E+00	 0.00000000E+00	 0.00000000E+00
	 0.00000000E+00	 0.00000000E+00	 0.00000000E+00
	 0.00000000E+00	 0.00000000E+00	 0.00000000E+00
	 0.00000000E+00	 0.00000000E+00	 0.00000000E+00
	 0.00000000E+00	 0.00000000E+00	 0.00000000E+00
	 0.00000000E+00	 0.00000000E+00	 0.00000000E+00
	 0.00000000E+00	 0.00000000E+00	 0.00000000E+00
	 0.00000000E+00	 0.00000000E+00	 0.00000000E+00
	 0.00000000E+00	 0.00000000E+00	 0.00000000E+00
	 0.00000000E+00	 0.00000000E+00	 0.00000000E+00
	 0.00000000E+00	 0.00000000E+00	 0.00000000E+00
	 0.00000000E+00	 0.00000000E+00	 0.00000000E+00
	 0.00000000E+00	 0.00000000E+00	 0.00000000E+00
	 0.00000000E+00	 0.00000000E+00	 0.00000000E+00
	 0.00000000E+00	 0.00000000E+00	 0.00000000E+00
	 0.00000000E+00	 0.00000000E+00	 0.00000000E+00
	 0.00000000E+00	 0.00000000E+00	 0.00000000E+00
	 0.00000000E+00	 0.00000000E+00	 0.00000000E+00
	 0.00000000E+00	 0.00000000E+00	 0.00000000E+00
	 0.00000000E+00	 0.00000000E+00	 0.00000000E+00
	 0.00000000E+00	 0.00000000E+00	 0.00000000E+00
	 0.00000000E+00	 0.00000000E+00	 0.00000000E+00
	 0.00000000E+00	 0.00000000E+00	 0.00000000E+00
	 0.00000000E+00	 0.00000000E+00	 0.00000000E+00
	 0.00000000E+00	 0.00000000E+00	 0.00000000E+00
	 0.00000000E+00	 0.00000000E+00	 0.00000000E+00
	 0.00000000E+00	 0.00000000E+00	 0.00000000E+00
	 0.00000000E+00	 0.00000000E+00	 0.00000000E+00
	 0.00000000E+00	 0.00000000E+00	 0.00000000E+00
	 0.00000000E+00	 0.00000000E+00	 0.00000000E+00
	 0.00000000E+00	 0.00000000E+00	 0.00000000E+00
	 0.00000000E+00	 0.00000000E+00	 0.00000000E+00
	 0.00000000E+00	 0.00000000E+00	 0.00000000E+00
	 0.00000000E+00	 0.00000000E+00	 0.00000000E+00
	 0.00000000E+00	 0.00000000E+00	 0.00000000E+00
	 0.00000000E+00	 0.00000000E+00	 0.00000000E+00
	 0.00000000E+00	 0.00000000E+00	 0.00000000E+00
	 0.00000000E+00	 0.00000000E+00	 0.00000000E+00
	 0.00000000E+00	 0.00000000E+00	 0.00000000E+00
	 0.00000000E+00	 0.00000000E+00	 0.00000000E+00
	 0.00000000E+00	 0.00000000E+00	 0.00000000E+00
	 0.00000000E+00	 0.00000000E+00	 0.00000000E+00
	 0.00000000E+00	 0.00000000E+00	 0.00000000E+00
	 0.00000000E+00	 0.00000000E+00	 0.00000000E+00
	 0.00000000E+00	 0.00000000E+00	 0.00000000E+00
	 0.00000000E+00	 0.00000000E+00	 0.00000000E+00
	 0.00000000E+00	 0.00000000E+00	 0.00000000E+00
	 0.00000000E+00	 0.00000000E+00	 0.00000000E+00
	 0.00000000E+00	 0.00000000E+00	 0.00000000E+00
	 0.00000000E+00	 0.00000000E+00	 0.00000000E+00
	 0.00000000E+00	 0.00000000E+00	 0.00000000E+00
	 0.00000000E+00	 0.00000000E+00	 0.00000000E+00
	 0.00000000E+00	 0.00000000E+00	 0.00000000E+00
	 0.00000000E+00	 0.00000000E+00	 0.00000000E+00
	 0.00000000E+00	 0.00000000E+00	 0.00000000E+00
	 0.00000000E+00	 0.00000000E+00	 0.00000000E+00
	 0.00000000E+00	 0.00000000E+00	 0.00000000E+00
	 0.00000000E+00	 0.00000000E+00	 0.00000000E+00
	 0.00000000E+00	 0.00000000E+00	 0.00000000E+00
	 0.00000000E+00	 0.00000000E+00	 0.00000000E+00
	 0.00000000E+00	 0.00000000E+00	 0.00000000E+00
	 0.00000000E+00	 0.00000000E+00	 0.00000000E+00
	 0.00000000E+00	 0.00000000E+00	 0.00000000E+00
	 0.00000000E+00	 0.00000000E+00	 0.00000000E+00
	 0.00000000E+00	 0.00000000E+00	 0.00000000E+00
	 0.00000000E+00	 0.00000000E+00	 0.00000000E+00
	 0.00000000E+00	 0.00000000E+00	 0.00000000E+00
	 0.00000000E+00	 0.00000000E+00	 0.00000000E+00
	 0.00000000E+00	 0.00000000E+00	 0.00000000E+00
	 0.00000000E+00	 0.00000000E+00	 0.00000000E+00
	 0.00000000E+00	 0.00000000E+00	 0.00000000E+00
	 0.00000000E+00	 0.00000000E+00	 0.00000000E+00
	 0.00000000E+00	 0.00000000E+00	 0.00000000E+00
	 0.00000000E+00	 0.00000000E+00	 0.00000000E+00
	 0.00000000E+00	 0.00000000E+00	 0.00000000E+00
	 0.00000000E+00	 0.00000000E+00	 0.00000000E+00
	 0.00000000E+00	 0.00000000E+00	 0.00000000E+00
	 0.00000000E+00	 0.00000000E+00	 0.00000000E+00
	 0.00000000E+00	 0.00000000E+00	 0.00000000E+00
	 0.00000000E+00	 0.00000000E+00	 0.00000000E+00
	 0.00000000E+00	 0.00000000E+00	 0.00000000E+00
	 0.00000000E+00	 0.00000000E+00	 0.00000000E+00
	 0.00000000E+00	 0.00000000E+00	 0.00000000E+00
	 0.00000000E+00	 0.00000000E+00	 0.00000000E+00
	 0.00000000E+00	 0.00000000E+00	 0.00000000E+00
	 0.00000000E+00	 0.00000000E+00	 0.00000000E+00
	 0.00000000E+00	 0.00000000E+00	 0.00000000E+00
	 0.00000000E+00	 0.00000000E+00	 0.00000000E+00
	 0.00000000E+00	 0.00000000E+00	 0.00000000E+00
	 0.00000000E+00	 0.00000000E+00	 0.00000000E+00
	 0.00000000E+00	 0.00000000E+00	 0.00000000E+00
	 0.00000000E+00	 0.00000000E+00	 0.00000000E+00
	 0.00000000E+00	 0.00000000E+00	 0.00000000E+00
	 0.00000000E+00	 0.00000000E+00	 0.00000000E+00
	 0.00000000E+00	 0.00000000E+00	 0.00000000E+00
	 0.00000000E+00	 0.00000000E+00	 0.00000000E+00
	 0.00000000E+00	 0.00000000E+00	 0.00000000E+00
	 0.00000000E+00	 0.00000000E+00	 0.00000000E+00
	 0.00000000E+00	 0.00000000E+00	 0.00000000E+00
	 0.00000000E+00	 0.00000000E+00	 0.00000000E+00
	 0.00000000E+00	 0.00000000E+00	 0.00000000E+00
	 0.00000000E+00	 0.00000000E+00	 0.00000000E+00
	 0.00000000E+00	 0.00000000E+00	 0.00000000E+00
	 0.00000000E+00	 0.00000000E+00	 0.00000000E+00
	 0.00000000E+00	 0.00000000E+00	 0.00000000E+00
	 0.00000000E+00	 0.00000000E+00	 0.00000000E+00
	 0.00000000E+00	 0.00000000E+00	 0.00000000E+00
	 0.00000000E+00	 0.00000000E+00	 0.00000000E+00
	 0.00000000E+00	 0.00000000E+00	 0.00000000E+00
	 0.00000000E+00	 0.00000000E+00	 0.00000000E+00
	 0.00000000E+00	 0.00000000E+00	 0.00000000E+00
	 0.00000000E+00	 0.00000000E+00	 0.00000000E+00
	 0.00000000E+00	 0.00000000E+00	 0.00000000E+00
	 0.00000000E+00	 0.00000000E+00	 0.00000000E+00
	 0.00000000E+00	 0.00000000E+00	 0.00000000E+00
	 0.00000000E+00	 0.00000000E+00	 0.00000000E+00
	 0.00000000E+00	 0.00000000E+00	 0.00000000E+00
	 0.00000000E+00	 0.00000000E+00	 0.00000000E+00
	 0.00000000E+00	 0.00000000E+00	 0.00000000E+00
	 0.00000000E+00	 0.00000000E+00	 0.00000000E+00
	 0.00000000E+00	 0.00000000E+00	 0.00000000E+00
	 0.00000000E+00	 0.00000000E+00	 0.00000000E+00
	 0.00000000E+00	 0.00000000E+00	 0.00000000E+00
	 0.00000000E+00	 0.00000000E+00	 0.00000000E+00
	 0.00000000E+00	 0.00000000E+00	 0.00000000E+00
	 0.00000000E+00	 0.00000000E+00	 0.00000000E+00
	 0.00000000E+00	 0.00000000E+00	 0.00000000E+00
	 0.00000000E+00	 0.00000000E+00	 0.00000000E+00
	 0.00000000E+00	 0.00000000E+00	 0.00000000E+00
	 0.00000000E+00	 0.00000000E+00	 0.00000000E+00
	 0.00000000E+00	 0.00000000E+00	 0.00000000E+00
	 0.00000000E+00	 0.00000000E+00	 0.00000000E+00
	 0.00000000E+00	 0.00000000E+00	 0.00000000E+00
	 0.00000000E+00	 0.00000000E+00	 0.00000000E+00
	 0.00000000E+00	 0.00000000E+00	 0.00000000E+00
	 0.00000000E+00	 0.00000000E+00	 0.00000000E+00
	 0.00000000E+00	 0.00000000E+00	 0.00000000E+00
	 0.00000000E+00	 0.00000000E+00	 0.00000000E+00
	 0.00000000E+00	 0.00000000E+00	 0.00000000E+00
	 0.00000000E+00	 0.00000000E+00	 0.00000000E+00
	 0.00000000E+00	 0.00000000E+00	 0.00000000E+00
	 0.00000000E+00	 0.00000000E+00	 0.00000000E+00
	 0.00000000E+00	 0.00000000E+00	 0.00000000E+00
	 0.00000000E+00	 0.00000000E+00	 0.00000000E+00
	 0.00000000E+00	 0.00000000E+00	 0.00000000E+00
	 0.00000000E+00	 0.00000000E+00	 0.00000000E+00
	 0.00000000E+00	 0.00000000E+00	 0.00000000E+00
	 0.00000000E+00	 0.00000000E+00	 0.00000000E+00
	 0.00000000E+00	 0.00000000E+00	 0.00000000E+00
	 0.00000000E+00	 0.00000000E+00	 0.00000000E+00
	 0.00000000E+00	 0.00000000E+00	 0.00000000E+00
	 0.00000000E+00	 0.00000000E+00	 0.00000000E+00
	 0.00000000E+00	 0.00000000E+00	 0.00000000E+00
	 0.00000000E+00	 0.00000000E+00	 0.00000000E+00
	 0.00000000E+00	 0.00000000E+00	 0.00000000E+00
	 0.00000000E+00	 0.00000000E+00	 0.00000000E+00
	 0.00000000E+00	 0.00000000E+00	 0.00000000E+00
	 0.00000000E+00	 0.00000000E+00	 0.00000000E+00
	 0.00000000E+00	 0.00000000E+00	 0.00000000E+00
	 0.00000000E+00	 0.00000000E+00	 0.00000000E+00
	 0.00000000E+00	 0.00000000E+00	 0.00000000E+00
	 0.00000000E+00	 0.00000000E+00	 0.00000000E+00
	 0.00000000E+00	 0.00000000E+00	 0.00000000E+00
	 0.00000000E+00	 0.00000000E+00	 0.00000000E+00
	 0.00000000E+00	 0.00000000E+00	 0.00000000E+00
	 0.00000000E+00	 0.00000000E+00	 0.00000000E+00
	 0.00000000E+00	 0.00000000E+00	 0.00000000E+00
	 0.00000000E+00	 0.00000000E+00	 0.00000000E+00
	 0.00000000E+00	 0.00000000E+00	 0.00000000E+00
	 0.00000000E+00	 0.00000000E+00	 0.00000000E+00
	 0.00000000E+00	 0.00000000E+00	 0.00000000E+00
	 0.00000000E+00	 0.00000000E+00	 0.00000000E+00
	 0.00000000E+00	 0.00000000E+00	 0.00000000E+00
	 0.00000000E+00	 0.00000000E+00	 0.00000000E+00
	 0.00000000E+00	 0.00000000E+00	 0.00000000E+00
	 0.00000000E+00	 0.00000000E+00	 0.00000000E+00
	 0.00000000E+00	 0.00000000E+00	 0.00000000E+00
	 0.00000000E+00	 0.00000000E+00	 0.00000000E+00
	 0.00000000E+00	 0.00000000E+00	 0.00000000E+00
	 0.00000000E+00	 0.00000000E+00	 0.00000000E+00
	 0.00000000E+00	 0.00000000E+00	 0.00000000E+00
	 0.00000000E+00	 0.00000000E+00	 0.00000000E+00
	 0.00000000E+00	 0.00000000E+00	 0.00000000E+00
	 0.00000000E+00	 0.00000000E+00	 0.00000000E+00
	 0.00000000E+00	 0.00000000E+00	 0.00000000E+00
	 0.00000000E+00	 0.00000000E+00	 0.00000000E+00
	 0.00000000E+00	 0.00000000E+00	 0.00000000E+00
	 0.00000000E+00	 0.00000000E+00	 0.00000000E+00
	 0.00000000E+00	 0.00000000E+00	 0.00000000E+00
	 0.00000000E+00	 0.00000000E+00	 0.00000000E+00
	 0.00000000E+00	 0.00000000E+00	 0.00000000E+00
	 0.00000000E+00	 0.00000000E+00	 0.00000000E+00
	 0.00000000E+00	 0.00000000E+00	 0.00000000E+00
	 0.00000000E+00	 0.00000000E+00	 0.00000000E+00
	 0.00000000E+00	 0.00000000E+00	 0.00000000E+00
	 0.00000000E+00	 0.00000000E+00	 0.00000000E+00
	 0.00000000E+00	 0.00000000E+00	 0.00000000E+00
	 0.00000000E+00	 0.00000000E+00	 0.00000000E+00
	 0.00000000E+00	 0.00000000E+00	 0.00000000E+00
	 0.00000000E+00	 0.00000000E+00	 0.00000000E+00
	 0.00000000E+00	 0.00000000E+00	 0.00000000E+00
	 0.00000000E+00	 0.00000000E+00	 0.00000000E+00
	 0.00000000E+00	 0.00000000E+00	 0.00000000E+00
	 0.00000000E+00	 0.00000000E+00	 0.00000000E+00
	 0.00000000E+00	 0.00000000E+00	 0.00000000E+00
	 0.00000000E+00	 0.00000000E+00	 0.00000000E+00
	 0.00000000E+00	 0.00000000E+00	 0.00000000E+00
	 0.00000000E+00	 0.00000000E+00	 0.00000000E+00
	 0.00000000E+00	 0.00000000E+00	 0.00000000E+00
	 0.00000000E+00	 0.00000000E+00	 0.00000000E+00
	 0.00000000E+00	 0.00000000E+00	 0.00000000E+00
	 0.00000000E+00	 0.00000000E+00	 0.00000000E+00
	 0.00000000E+00	 0.00000000E+00	 0.00000000E+00
	 0.00000000E+00	 0.00000000E+00	 0.00000000E+00
	 0.00000000E+00	 0.00000000E+00	 0.00000000E+00
	 0.00000000E+00	 0.00000000E+00	 0.00000000E+00
	 0.00000000E+00	 0.00000000E+00	 0.00000000E+00
	 0.00000000E+00	 0.00000000E+00	 0.00000000E+00
	 0.00000000E+00	 0.00000000E+00	 0.00000000E+00
	 0.00000000E+00	 0.00000000E+00	 0.00000000E+00
	 0.00000000E+00	 0.00000000E+00	 0.00000000E+00
	 0.00000000E+00	 0.00000000E+00	 0.00000000E+00
	 0.00000000E+00	 0.00000000E+00	 0.00000000E+00
	 0.00000000E+00	 0.00000000E+00	 0.00000000E+00
	 0.00000000E+00	 0.00000000E+00	 0.00000000E+00
	 0.00000000E+00	 0.00000000E+00	 0.00000000E+00
	 0.00000000E+00	 0.00000000E+00	 0.00000000E+00
	 0.00000000E+00	 0.00000000E+00	 0.00000000E+00
	 0.00000000E+00	 0.00000000E+00	 0.00000000E+00
	 0.00000000E+00	 0.00000000E+00	 0.00000000E+00
	 0.00000000E+00	 0.00000000E+00	 0.00000000E+00
	 0.00000000E+00	 0.00000000E+00	 0.00000000E+00
	 0.00000000E+00	 0.00000000E+00	 0.00000000E+00
	 0.00000000E+00	 0.00000000E+00	 0.00000000E+00
	 0.00000000E+00	 0.00000000E+00	 0.00000000E+00
	 0.00000000E+00	 0.00000000E+00	 0.00000000E+00
	 0.00000000E+00	 0.00000000E+00	 0.00000000E+00
	 0.00000000E+00	 0.00000000E+00	 0.00000000E+00
	 0.00000000E+00	 0.00000000E+00	 0.00000000E+00
	 0.00000000E+00	 0.00000000E+00	 0.00000000E+00
	 0.00000000E+00	 0.00000000E+00	 0.00000000E+00
	 0.00000000E+00	 0.00000000E+00	 0.00000000E+00
	 0.00000000E+00	 0.00000000E+00	 0.00000000E+00
	 0.00000000E+00	 0.00000000E+00	 0.00000000E+00
	 0.00000000E+00	 0.00000000E+00	 0.00000000E+00
	 0.00000000E+00	 0.00000000E+00	 0.00000000E+00
	 0.00000000E+00	 0.00000000E+00	 0.00000000E+00
	 0.00000000E+00	 0.00000000E+00	 0.00000000E+00
	 0.00000000E+00	 0.00000000E+00	 0.00000000E+00
	 0.00000000E+00	 0.00000000E+00	 0.00000000E+00
	 0.00000000E+00	 0.00000000E+00	 0.00000000E+00
	 0.00000000E+00	 0.00000000E+00	 0.00000000E+00
	 0.00000000E+00	 0.00000000E+00	 0.00000000E+00
	 0.00000000E+00	 0.00000000E+00	 0.00000000E+00
	 0.00000000E+00	 0.00000000E+00	 0.00000000E+00
	 0.00000000E+00	 0.00000000E+00	 0.00000000E+00
	 0.00000000E+00	 0.00000000E+00	 0.00000000E+00
	 0.00000000E+00	 0.00000000E+00	 0.00000000E+00
	 0.00000000E+00	 0.00000000E+00	 0.00000000E+00
	 0.00000000E+00	 0.00000000E+00	 0.00000000E+00
	 0.00000000E+00	 0.00000000E+00	 0.00000000E+00
	 0.00000000E+00	 0.00000000E+00	 0.00000000E+00
	 0.00000000E+00	 0.00000000E+00	 0.00000000E+00
	 0.00000000E+00	 0.00000000E+00	 0.00000000E+00
	 0.00000000E+00	 0.00000000E+00	 0.00000000E+00
	 0.00000000E+00	 0.00000000E+00	 0.00000000E+00
	 0.00000000E+00	 0.00000000E+00	 0.00000000E+00
	 0.00000000E+00	 0.00000000E+00	 0.00000000E+00
	 0.00000000E+00	 0.00000000E+00	 0.00000000E+00
	 0.00000000E+00	 0.00000000E+00	 0.00000000E+00
	 0.00000000E+00	 0.00000000E+00	 0.00000000E+00
	 0.00000000E+00	 0.00000000E+00	 0.00000000E+00
	 0.00000000E+00	 0.00000000E+00	 0.00000000E+00
	 0.00000000E+00	 0.00000000E+00	 0.00000000E+00
	 0.00000000E+00	 0.00000000E+00	 0.00000000E+00
	 0.00000000E+00	 0.00000000E+00	 0.00000000E+00
	 0.00000000E+00	 0.00000000E+00	 0.00000000E+00
	 0.00000000E+00	 0.00000000E+00	 0.00000000E+00
	 0.00000000E+00	 0.00000000E+00	 0.00000000E+00
	 0.00000000E+00	 0.00000000E+00	 0.00000000E+00
	 0.00000000E+00	 0.00000000E+00	 0.00000000E+00
	 0.00000000E+00	 0.00000000E+00	 0.00000000E+00
	 0.00000000E+00	 0.00000000E+00	 0.00000000E+00
	 0.00000000E+00	 0.00000000E+00	 0.00000000E+00
	 0.00000000E+00	 0.00000000E+00	 0.00000000E+00
	 0.00000000E+00	 0.00000000E+00	 0.00000000E+00
	 0.00000000E+00	 0.00000000E+00	 0.00000000E+00
	 0.00000000E+00	 0.00000000E+00	 0.00000000E+00
	 0.00000000E+00	 0.00000000E+00	 0.00000000E+00
	 0.00000000E+00	 0.00000000E+00	 0.00000000E+00
	 0.00000000E+00	 0.00000000E+00	 0.00000000E+00
	 0.00000000E+00	 0.00000000E+00	 0.00000000E+00
	 0.00000000E+00	 0.00000000E+00	 0.00000000E+00
	 0.00000000E+00	 0.00000000E+00	 0.00000000E+00
	 0.00000000E+00	 0.00000000E+00	 0.00000000E+00
	 0.00000000E+00	 0.00000000E+00	 0.00000000E+00
	 0.00000000E+00	 0.00000000E+00	 0.00000000E+00
	 0.00000000E+00	 0.00000000E+00	 0.00000000E+00
	 0.00000000E+00	 0.00000000E+00	 0.00000000E+00
	 0.00000000E+00	 0.00000000E+00	 0.00000000E+00
	 0.00000000E+00	 0.00000000E+00	 0.00000000E+00
	 0.00000000E+00	 0.00000000E+00	 0.00000000E+00
	 0.00000000E+00	 0.00000000E+00	 0.00000000E+00
	 0.00000000E+00	 0.00000000E+00	 0.00000000E+00
	 0.00000000E+00	 0.00000000E+00	 0.00000000E+00
	 0.00000000E+00	 0.00000000E+00	 0.00000000E+00
	 0.00000000E+00	 0.00000000E+00	 0.00000000E+00
	 0.00000000E+00	 0.00000000E+00	 0.00000000E+00
	 0.00000000E+00	 0.00000000E+00	 0.00000000E+00
	 0.00000000E+00	 0.00000000E+00	 0.00000000E+00
	 0.00000000E+00	 0.00000000E+00	 0.00000000E+00
	 0.00000000E+00	 0.00000000E+00	 0.00000000E+00
	 0.00000000E+00	 0.00000000E+00	 0.00000000E+00
	 0.00000000E+00	 0.00000000E+00	 0.00000000E+00
	 0.00000000E+00	 0.00000000E+00	 0.00000000E+00
	 0.00000000E+00	 0.00000000E+00	 0.00000000E+00
	 0.00000000E+00	 0.00000000E+00	 0.00000000E+00
	 0.00000000E+00	 0.00000000E+00	 0.00000000E+00
	 0.00000000E+00	 0.00000000E+00	 0.00000000E+00
	 0.00000000E+00	 0.00000000E+00	 0.00000000E+00
	 0.00000000E+00	 0.00000000E+00	 0.00000000E+00
	 0.00000000E+00	 0.00000000E+00	 0.00000000E+00
	 0.00000000E+00	 0.00000000E+00	 0.00000000E+00
	 0.00000000E+00	 0.00000000E+00	 0.00000000E+00
	 0.00000000E+00	 0.00000000E+00	 0.00000000E+00
	 0.00000000E+00	 0.00000000E+00	 0.00000000E+00
	 0.00000000E+00	 0.00000000E+00	 0.00000000E+00
	 0.00000000E+00	 0.00000000E+00	 0.00000000E+00
	 0.00000000E+00	 0.00000000E+00	 0.00000000E+00
	 0.00000000E+00	 0.00000000E+00	 0.00000000E+00
	 0.00000000E+00	 0.00000000E+00	 0.00000000E+00
	 0.00000000E+00	 0.00000000E+00	 0.00000000E+00
	 0.00000000E+00	 0.00000000E+00	 0.00000000E+00
	 0.00000000E+00	 0.00000000E+00	 0.00000000E+00
	 0.00000000E+00	 0.00000000E+00	 0.00000000E+00
	 0.00000000E+00	 0.00000000E+00	 0.00000000E+00
	 0.00000000E+00	 0.00000000E+00	 0.00000000E+00
	 0.00000000E+00	 0.00000000E+00	 0.00000000E+00
	 0.00000000E+00	 0.00000000E+00	 0.00000000E+00
	 0.00000000E+00	 0.00000000E+00	 0.00000000E+00
	 0.00000000E+00	 0.00000000E+00	 0.00000000E+00
	 0.00000000E+00	 0.00000000E+00	 0.00000000E+00
	 0.00000000E+00	 0.00000000E+00	 0.00000000E+00
	 0.00000000E+00	 0.00000000E+00	 0.00000000E+00
	 0.00000000E+00	 0.00000000E+00	 0.00000000E+00
	 0.00000000E+00	 0.00000000E+00	 0.00000000E+00
	 0.00000000E+00	 0.00000000E+00	 0.00000000E+00
	 0.00000000E+00	 0.00000000E+00	 0.00000000E+00
	 0.00000000E+00	 0.00000000E+00	 0.00000000E+00
	 0.00000000E+00	 0.00000000E+00	 0.00000000E+00
	 0.00000000E+00	 0.00000000E+00	 0.00000000E+00
	 0.00000000E+00	 0.00000000E+00	 0.00000000E+00
	 0.00000000E+00	 0.00000000E+00	 0.00000000E+00
	 0.00000000E+00	 0.00000000E+00	 0.00000000E+00
	 0.00000000E+00	 0.00000000E+00	 0.00000000E+00
	 0.00000000E+00	 0.00000000E+00	 0.00000000E+00
	 0.00000000E+00	 0.00000000E+00	 0.00000000E+00
	 0.00000000E+00	 0.00000000E+00	 0.00000000E+00
	 0.00000000E+00	 0.00000000E+00	 0.00000000E+00
	 0.00000000E+00	 0.00000000E+00	 0.00000000E+00
	 0.00000000E+00	 0.00000000E+00	 0.00000000E+00
	 0.00000000E+00	 0.00000000E+00	 0.00000000E+00
	 0.00000000E+00	 0.00000000E+00	 0.00000000E+00
	 0.00000000E+00	 0.00000000E+00	 0.00000000E+00
	 0.00000000E+00	 0.00000000E+00	 0.00000000E+00
	 0.00000000E+00	 0.00000000E+00	 0.00000000E+00
	 0.00000000E+00	 0.00000000E+00	 0.00000000E+00
	 0.00000000E+00	 0.00000000E+00	 0.00000000E+00
	 0.00000000E+00	 0.00000000E+00	 0.00000000E+00
	 0.00000000E+00	 0.00000000E+00	 0.00000000E+00
	 0.00000000E+00	 0.00000000E+00	 0.00000000E+00
	 0.00000000E+00	 0.00000000E+00	 0.00000000E+00
	 0.00000000E+00	 0.00000000E+00	 0.00000000E+00
	 0.00000000E+00	 0.00000000E+00	 0.00000000E+00
	 0.00000000E+00	 0.00000000E+00	 0.00000000E+00
	 0.00000000E+00	 0.00000000E+00	 0.00000000E+00
	 0.00000000E+00	 0.00000000E+00	 0.00000000E+00
	 0.00000000E+00	 0.00000000E+00	 0.00000000E+00
	 0.00000000E+00	 0.00000000E+00	 0.00000000E+00
	 0.00000000E+00	 0.00000000E+00	 0.00000000E+00
	 0.00000000E+00	 0.00000000E+00	 0.00000000E+00
	 0.00000000E+00	 0.00000000E+00	 0.00000000E+00
	 0.00000000E+00	 0.00000000E+00	 0.00000000E+00
	 0.00000000E+00	 0.00000000E+00	 0.00000000E+00
	 0.00000000E+00	 0.00000000E+00	 0.00000000E+00
	 0.00000000E+00	 0.00000000E+00	 0.00000000E+00
	 0.00000000E+00	 0.00000000E+00	 0.00000000E+00
	 0.00000000E+00	 0.00000000E+00	 0.00000000E+00
	 0.00000000E+00	 0.00000000E+00	 0.00000000E+00
	 0.00000000E+00	 0.00000000E+00	 0.00000000E+00
	 0.00000000E+00	 0.00000000E+00	 0.00000000E+00
	 0.00000000E+00	 0.00000000E+00	 0.00000000E+00
	 0.00000000E+00	 0.00000000E+00	 0.00000000E+00
	 0.00000000E+00	 0.00000000E+00	 0.00000000E+00
	 0.00000000E+00	 0.00000000E+00	 0.00000000E+00
	 0.00000000E+00	 0.00000000E+00	 0.00000000E+00
	 0.00000000E+00	 0.00000000E+00	 0.00000000E+00
	 0.00000000E+00	 0.00000000E+00	 0.00000000E+00
	 0.00000000E+00	 0.00000000E+00	 0.00000000E+00
	 0.00000000E+00	 0.00000000E+00	 0.00000000E+00
	 0.00000000E+00	 0.00000000E+00	 0.00000000E+00
	 0.00000000E+00	 0.00000000E+00	 0.00000000E+00
	 0.00000000E+00	 0.00000000E+00	 0.00000000E+00
	 0.00000000E+00	 0.00000000E+00	 0.00000000E+00
	 0.00000000E+00	 0.00000000E+00	 0.00000000E+00
	 0.00000000E+00	 0.00000000E+00	 0.00000000E+00
	 0.00000000E+00	 0.00000000E+00	 0.00000000E+00
	 0.00000000E+00	 0.00000000E+00	 0.00000000E+00
	 0.00000000E+00	 0.00000000E+00	 0.00000000E+00
	 0.00000000E+00	 0.00000000E+00	 0.00000000E+00
	 0.00000000E+00	 0.00000000E+00	 0.00000000E+00
	 0.00000000E+00	 0.00000000E+00	 0.00000000E+00
	 0.00000000E+00	 0.00000000E+00	 0.00000000E+00
	 0.00000000E+00	 0.00000000E+00	 0.00000000E+00
	 0.00000000E+00	 0.00000000E+00	 0.00000000E+00
	 0.00000000E+00	 0.00000000E+00	 0.00000000E+00
	 0.00000000E+00	 0.00000000E+00	 0.00000000E+00
	 0.00000000E+00	 0.00000000E+00	 0.00000000E+00
	 0.00000000E+00	 0.00000000E+00	 0.00000000E+00
	 0.00000000E+00	 0.00000000E+00	 0.00000000E+00
	 0.00000000E+00	 0.00000000E+00	 0.00000000E+00
	 0.00000000E+00	 0.00000000E+00	 0.00000000E+00
	 0.00000000E+00	 0.00000000E+00	 0.00000000E+00
	 0.00000000E+00	 0.00000000E+00	 0.00000000E+00
	 0.00000000E+00	 0.00000000E+00	 0.00000000E+00
	 0.00000000E+00	 0.00000000E+00	 0.00000000E+00
	 0.00000000E+00	 0.00000000E+00	 0.00000000E+00
	 0.00000000E+00	 0.00000000E+00	 0.00000000E+00
	 0.00000000E+00	 0.00000000E+00	 0.00000000E+00
	 0.00000000E+00	 0.00000000E+00	 0.00000000E+00
	 0.00000000E+00	 0.00000000E+00	 0.00000000E+00
	 0.00000000E+00	 0.00000000E+00	 0.00000000E+00
	 0.00000000E+00	 0.00000000E+00	 0.00000000E+00
	 0.00000000E+00	 0.00000000E+00	 0.00000000E+00
	 0.00000000E+00	 0.00000000E+00	 0.00000000E+00
	 0.00000000E+00	 0.00000000E+00	 0.00000000E+00
	 0.00000000E+00	 0.00000000E+00	 0.00000000E+00
	 0.00000000E+00	 0.00000000E+00	 0.00000000E+00
	 0.00000000E+00	 0.00000000E+00	 0.00000000E+00
	 0.00000000E+00	 0.00000000E+00	 0.00000000E+00
	 0.00000000E+00	 0.00000000E+00	 0.00000000E+00
	 0.00000000E+00	 0.00000000E+00	 0.00000000E+00
	 0.00000000E+00	 0.00000000E+00	 0.00000000E+00
	 0.00000000E+00	 0.00000000E+00	 0.00000000E+00
	 0.00000000E+00	 0.00000000E+00	 0.00000000E+00
	 0.00000000E+00	 0.00000000E+00	 0.00000000E+00
	 0.00000000E+00	 0.00000000E+00	 0.00000000E+00
	 0.00000000E+00	 0.00000000E+00	 0.00000000E+00
	 0.00000000E+00	 0.00000000E+00	 0.00000000E+00
	 0.00000000E+00	 0.00000000E+00	 0.00000000E+00
	 0.00000000E+00	 0.00000000E+00	 0.00000000E+00
	 0.00000000E+00	 0.00000000E+00	 0.00000000E+00
	 0.00000000E+00	 0.00000000E+00	 0.00000000E+00
	 0.00000000E+00	 0.00000000E+00	 0.00000000E+00
	 0.00000000E+00	 0.00000000E+00	 0.00000000E+00
	 0.00000000E+00	 0.00000000E+00	 0.00000000E+00
	 0.00000000E+00	 0.00000000E+00	 0.00000000E+00
	 0.00000000E+00	 0.00000000E+00	 0.00000000E+00
	 0.00000000E+00	 0.00000000E+00	 0.00000000E+00
	 0.00000000E+00	 0.00000000E+00	 0.00000000E+00
	 0.00000000E+00	 0.00000000E+00	 0.00000000E+00
	 0.00000000E+00	 0.00000000E+00	 0.00000000E+00
	 0.00000000E+00	 0.00000000E+00	 0.00000000E+00
	 0.00000000E+00	 0.00000000E+00	 0.00000000E+00
	 0.00000000E+00	 0.00000000E+00	 0.00000000E+00
	 0.00000000E+00	 0.00000000E+00	 0.00000000E+00
	 0.00000000E+00	 0.00000000E+00	 0.00000000E+00
	 0.00000000E+00	 0.00000000E+00	 0.00000000E+00
	 0.00000000E+00	 0.00000000E+00	 0.00000000E+00
	 0.00000000E+00	 0.00000000E+00	 0.00000000E+00
	 0.00000000E+00	 0.00000000E+00	 0.00000000E+00
	 0.00000000E+00	 0.00000000E+00	 0.00000000E+00
	 0.00000000E+00	 0.00000000E+00	 0.00000000E+00
	 0.00000000E+00	 0.00000000E+00	 0.00000000E+00
	 0.00000000E+00	 0.00000000E+00	 0.00000000E+00
	 0.00000000E+00	 0.00000000E+00	 0.00000000E+00
	 0.00000000E+00	 0.00000000E+00	 0.00000000E+00
	 0.00000000E+00	 0.00000000E+00	 0.00000000E+00
	 0.00000000E+00	 0.00000000E+00	 0.00000000E+00
	 0.00000000E+00	 0.00000000E+00	 0.00000000E+00
	 0.00000000E+00	 0.00000000E+00	 0.00000000E+00
	 0.00000000E+00	 0.00000000E+00	 0.00000000E+00
	 0.00000000E+00	 0.00000000E+00	 0.00000000E+00
	 0.00000000E+00	 0.00000000E+00	 0.00000000E+00
	 0.00000000E+00	 0.00000000E+00	 0.00000000E+00
	 0.00000000E+00	 0.00000000E+00	 0.00000000E+00
	 0.00000000E+00	 0.00000000E+00	 0.00000000E+00
	 0.00000000E+00	 0.00000000E+00	 0.00000000E+00
	 0.00000000E+00	 0.00000000E+00	 0.00000000E+00
	 0.00000000E+00	 0.00000000E+00	 0.00000000E+00
	 0.00000000E+00	 0.00000000E+00	 0.00000000E+00
	 0.00000000E+00	 0.00000000E+00	 0.00000000E+00
	 0.00000000E+00	 0.00000000E+00	 0.00000000E+00
	 0.00000000E+00	 0.00000000E+00	 0.00000000E+00
	 0.00000000E+00	 0.00000000E+00	 0.00000000E+00
	 0.00000000E+00	 0.00000000E+00	 0.00000000E+00
	 0.00000000E+00	 0.00000000E+00	 0.00000000E+00
	 0.00000000E+00	 0.00000000E+00	 0.00000000E+00
	 0.00000000E+00	 0.00000000E+00	 0.00000000E+00
	 0.00000000E+00	 0.00000000E+00	 0.00000000E+00
	 0.00000000E+00	 0.00000000E+00	 0.00000000E+00
	 0.00000000E+00	 0.00000000E+00	 0.00000000E+00
	 0.00000000E+00	 0.00000000E+00	 0.00000000E+00
	 0.00000000E+00	 0.00000000E+00	 0.00000000E+00
	 0.00000000E+00	 0.00000000E+00	 0.00000000E+00
	 0.00000000E+00	 0.00000000E+00	 0.00000000E+00
	 0.00000000E+00	 0.00000000E+00	 0.00000000E+00
	 0.00000000E+00	 0.00000000E+00	 0.00000000E+00
	 0.00000000E+00	 0.00000000E+00	 0.00000000E+00
	 0.00000000E+00	 0.00000000E+00	 0.00000000E+00
	 0.00000000E+00	 0.00000000E+00	 0.00000000E+00
	 0.00000000E+00	 0.00000000E+00	 0.00000000E+00
	 0.00000000E+00	 0.00000000E+00	 0.00000000E+00
	 0.00000000E+00	 0.00000000E+00	 0.00000000E+00
	 0.00000000E+00	 0.00000000E+00	 0.00000000E+00
	 0.00000000E+00	 0.00000000E+00	 0.00000000E+00
	 0.00000000E+00	 0.00000000E+00	 0.00000000E+00
	 0.00000000E+00	 0.00000000E+00	 0.00000000E+00
	 0.00000000E+00	 0.00000000E+00	 0.00000000E+00
	 0.00000000E+00	 0.00000000E+00	 0.00000000E+00
	 0.00000000E+00	 0.00000000E+00	 0.00000000E+00
	 0.00000000E+00	 0.00000000E+00	 0.00000000E+00
	 0.00000000E+00	 0.00000000E+00	 0.00000000E+00
	 0.00000000E+00	 0.00000000E+00	 0.00000000E+00
	 0.00000000E+00	 0.00000000E+00	 0.00000000E+00
	 0.00000000E+00	 0.00000000E+00	 0.00000000E+00
	 0.00000000E+00	 0.00000000E+00	 0.00000000E+00
	 0.00000000E+00	 0.00000000E+00	 0.00000000E+00
	 0.00000000E+00	 0.00000000E+00	 0.00000000E+00
	 0.00000000E+00	 0.00000000E+00	 0.00000000E+00
	 0.00000000E+00	 0.00000000E+00	 0.00000000E+00
	 0.00000000E+00	 0.00000000E+00	 0.00000000E+00
	 0.00000000E+00	 0.00000000E+00	 0.00000000E+00
	 0.00000000E+00	 0.00000000E+00	 0.00000000E+00
	 0.00000000E+00	 0.00000000E+00	 0.00000000E+00
	 0.00000000E+00	 0.00000000E+00	 0.00000000E+00
	 0.00000000E+00	 0.00000000E+00	 0.00000000E+00
	 0.00000000E+00	 0.00000000E+00	 0.00000000E+00
	 0.00000000E+00	 0.00000000E+00	 0.00000000E+00
	 0.00000000E+00	 0.00000000E+00	 0.00000000E+00
	 0.00000000E+00	 0.00000000E+00	 0.00000000E+00
	 0.00000000E+00	 0.00000000E+00	 0.00000000E+00
	 0.00000000E+00	 0.00000000E+00	 0.00000000E+00
	 0.00000000E+00	 0.00000000E+00	 0.00000000E+00
	 0.00000000E+00	 0.00000000E+00	 0.00000000E+00
	 0.00000000E+00	 0.00000000E+00	 0.00000000E+00
	 0.00000000E+00	 0.00000000E+00	 0.00000000E+00
	 0.00000000E+00	 0.00000000E+00	 0.00000000E+00
	 0.00000000E+00	 0.00000000E+00	 0.00000000E+00
	 0.00000000E+00	 0.00000000E+00	 0.00000000E+00
	 0.00000000E+00	 0.00000000E+00	 0.00000000E+00
	 0.00000000E+00	 0.00000000E+00	 0.00000000E+00
	 0.00000000E+00	 0.00000000E+00	 0.00000000E+00
	 0.00000000E+00	 0.00000000E+00	 0.00000000E+00
	 0.00000000E+00	 0.00000000E+00	 0.00000000E+00
	 0.00000000E+00	 0.00000000E+00	 0.00000000E+00
	 0.00000000E+00	 0.00000000E+00	 0.00000000E+00
	 0.00000000E+00	 0.00000000E+00	 0.00000000E+00
	 0.00000000E+00	 0.00000000E+00	 0.00000000E+00
	 0.00000000E+00	 0.00000000E+00	 0.00000000E+00
	 0.00000000E+00	 0.00000000E+00	 0.00000000E+00
	 0.00000000E+00	 0.00000000E+00	 0.00000000E+00
	 0.00000000E+00	 0.00000000E+00	 0.00000000E+00
	 0.00000000E+00	 0.00000000E+00	 0.00000000E+00
	 0.00000000E+00	 0.00000000E+00	 0.00000000E+00
	 0.00000000E+00	 0.00000000E+00	 0.00000000E+00
	 0.00000000E+00	 0.00000000E+00	 0.00000000E+00
	 0.00000000E+00	 0.00000000E+00	 0.00000000E+00
	 0.00000000E+00	 0.00000000E+00	 0.00000000E+00
	 0.00000000E+00	 0.00000000E+00	 0.00000000E+00
	 0.00000000E+00	 0.00000000E+00	 0.00000000E+00
	 0.00000000E+00	 0.00000000E+00	 0.00000000E+00
	 0.00000000E+00	 0.00000000E+00	 0.00000000E+00
	 0.00000000E+00	 0.00000000E+00	 0.00000000E+00
	 0.00000000E+00	 0.00000000E+00	 0.00000000E+00
	 0.00000000E+00	 0.00000000E+00	 0.00000000E+00
	 0.00000000E+00	 0.00000000E+00	 0.00000000E+00
	 0.00000000E+00	 0.00000000E+00	 0.00000000E+00
	 0.00000000E+00	 0.00000000E+00	 0.00000000E+00
	 0.00000000E+00	 0.00000000E+00	 0.00000000E+00
	 0.00000000E+00	 0.00000000E+00	 0.00000000E+00
	 0.00000000E+00	 0.00000000E+00	 0.00000000E+00
	 0.00000000E+00	 0.00000000E+00	 0.00000000E+00
	 0.00000000E+00	 0.00000000E+00	 0.00000000E+00
	 0.00000000E+00	 0.00000000E+00	 0.00000000E+00
	 0.00000000E+00	 0.00000000E+00	 0.00000000E+00
	 0.00000000E+00	 0.00000000E+00	 0.00000000E+00
	 0.00000000E+00	 0.00000000E+00	 0.00000000E+00
	 0.00000000E+00	 0.00000000E+00	 0.00000000E+00
	 0.00000000E+00	 0.00000000E+00	 0.00000000E+00
	 0.00000000E+00	 0.00000000E+00	 0.00000000E+00
	 0.00000000E+00	 0.00000000E+00	 0.00000000E+00
	 0.00000000E+00	 0.00000000E+00	 0.00000000E+00
	 0.00000000E+00	 0.00000000E+00	 0.00000000E+00
	 0.00000000E+00	 0.00000000E+00	 0.00000000E+00
	 0.00000000E+00	 0.00000000E+00	 0.00000000E+00
	 0.00000000E+00	 0.00000000E+00	 0.00000000E+00
	 0.00000000E+00	 0.00000000E+00	 0.00000000E+00
	 0.00000000E+00	 0.00000000E+00	 0.00000000E+00
	 0.00000000E+00	 0.00000000E+00	 0.00000000E+00
	 0.00000000E+00	 0.00000000E+00	 0.00000000E+00
	 0.00000000E+00	 0.00000000E+00	 0.00000000E+00
	 0.00000000E+00	 0.00000000E+00	 0.00000000E+00
	 0.00000000E+00	 0.00000000E+00	 0.00000000E+00
	 0.00000000E+00	 0.00000000E+00	 0.00000000E+00
	 0.00000000E+00	 0.00000000E+00	 0.00000000E+00
	 0.00000000E+00	 0.00000000E+00	 0.00000000E+00
	 0.00000000E+00	 0.00000000E+00	 0.00000000E+00
	 0.00000000E+00	 0.00000000E+00	 0.00000000E+00
	 0.00000000E+00	 0.00000000E+00	 0.00000000E+00
	 0.00000000E+00	 0.00000000E+00	 0.00000000E+00
	 0.00000000E+00	 0.00000000E+00	 0.00000000E+00
	 0.00000000E+00	 0.00000000E+00	 0.00000000E+00
	 0.00000000E+00	 0.00000000E+00	 0.00000000E+00
	 0.00000000E+00	 0.00000000E+00	 0.00000000E+00
	 0.00000000E+00	 0.00000000E+00	 0.00000000E+00
	 0.00000000E+00	 0.00000000E+00	 0.00000000E+00
	 0.00000000E+00	 0.00000000E+00	 0.00000000E+00
	 0.00000000E+00	 0.00000000E+00	 0.00000000E+00
	 0.00000000E+00	 0.00000000E+00	 0.00000000E+00
	 0.00000000E+00	 0.00000000E+00	 0.00000000E+00
	 0.00000000E+00	 0.00000000E+00	 0.00000000E+00
	 0.00000000E+00	 0.00000000E+00	 0.00000000E+00
	 0.00000000E+00	 0.00000000E+00	 0.00000000E+00
	 0.00000000E+00	 0.00000000E+00	 0.00000000E+00
	 0.00000000E+00	 0.00000000E+00	 0.00000000E+00
	 0.00000000E+00	 0.00000000E+00	 0.00000000E+00
	 0.00000000E+00	 0.00000000E+00	 0.00000000E+00
	 0.00000000E+00	 0.00000000E+00	 0.00000000E+00
	 0.00000000E+00	 0.00000000E+00	 0.00000000E+00
	 0.00000000E+00	 0.00000000E+00	 0.00000000E+00
	 0.00000000E+00	 0.00000000E+00	 0.00000000E+00
	 0.00000000E+00	 0.00000000E+00	 0.00000000E+00
	 0.00000000E+00	 0.00000000E+00	 0.00000000E+00
	 0.00000000E+00	 0.00000000E+00	 0.00000000E+00
	 0.00000000E+00	 0.00000000E+00	 0.00000000E+00
	 0.00000000E+00	 0.00000000E+00	 0.00000000E+00
	 0.00000000E+00	 0.00000000E+00	 0.00000000E+00
	 0.00000000E+00	 0.00000000E+00	 0.00000000E+00
	 0.00000000E+00	 0.00000000E+00	 0.00000000E+00
	 0.00000000E+00	 0.00000000E+00	 0.00000000E+00
	 0.00000000E+00	 0.00000000E+00	 0.00000000E+00
	 0.00000000E+00	 0.00000000E+00	 0.00000000E+00
	 0.00000000E+00	 0.00000000E+00	 0.00000000E+00
	 0.00000000E+00	 0.00000000E+00	 0.00000000E+00
	 0.00000000E+00	 0.00000000E+00	 0.00000000E+00
	 0.00000000E+00	 0.00000000E+00	 0.00000000E+00
	 0.00000000E+00	 0.00000000E+00	 0.00000000E+00
	 0.00000000E+00	 0.00000000E+00	 0.00000000E+00
	 0.00000000E+00	 0.00000000E+00	 0.00000000E+00
	 0.00000000E+00	 0.00000000E+00	 0.00000000E+00
	 0.00000000E+00	 0.00000000E+00	 0.00000000E+00
	 0.00000000E+00	 0.00000000E+00	 0.00000000E+00
	 0.00000000E+00	 0.00000000E+00	 0.00000000E+00
	 0.00000000E+00	 0.00000000E+00	 0.00000000E+00
	 0.00000000E+00	 0.00000000E+00	 0.00000000E+00
	 0.00000000E+00	 0.00000000E+00	 0.00000000E+00
	 0.00000000E+00	 0.00000000E+00	 0.00000000E+00
	 0.00000000E+00	 0.00000000E+00	 0.00000000E+00
	 0.00000000E+00	 0.00000000E+00	 0.00000000E+00
	 0.00000000E+00	 0.00000000E+00	 0.00000000E+00
	 0.00000000E+00	 0.00000000E+00	 0.00000000E+00
	 0.00000000E+00	 0.00000000E+00	 0.00000000E+00
	 0.00000000E+00	 0.00000000E+00	 0.00000000E+00
	 0.00000000E+00	 0.00000000E+00	 0.00000000E+00
	 0.00000000E+00	 0.00000000E+00	 0.00000000E+00
	 0.00000000E+00	 0.00000000E+00	 0.00000000E+00
	 0.00000000E+00	 0.00000000E+00	 0.00000000E+00
	 0.00000000E+00	 0.00000000E+00	 0.00000000E+00
	 0.00000000E+00	 0.00000000E+00	 0.00000000E+00
	 0.00000000E+00	 0.00000000E+00	 0.00000000E+00
	 0.00000000E+00	 0.00000000E+00	 0.00000000E+00
	 0.00000000E+00	 0.00000000E+00	 0.00000000E+00
	 0.00000000E+00	 0.00000000E+00	 0.00000000E+00
	 0.00000000E+00	 0.00000000E+00	 0.00000000E+00
	 0.00000000E+00	 0.00000000E+00	 0.00000000E+00
	 0.00000000E+00	 0.00000000E+00	 0.00000000E+00
	 0.00000000E+00	 0.00000000E+00	 0.00000000E+00
	 0.00000000E+00	 0.00000000E+00	 0.00000000E+00
	 0.00000000E+00	 0.00000000E+00	 0.00000000E+00
	 0.00000000E+00	 0.00000000E+00	 0.00000000E+00
	 0.00000000E+00	 0.00000000E+00	 0.00000000E+00
	 0.00000000E+00	 0.00000000E+00	 0.00000000E+00
	 0.00000000E+00	 0.00000000E+00	 0.00000000E+00
	 0.00000000E+00	 0.00000000E+00	 0.00000000E+00
	 0.00000000E+00	 0.00000000E+00	 0.00000000E+00
	 0.00000000E+00	 0.00000000E+00	 0.00000000E+00
	 0.00000000E+00	 0.00000000E+00	 0.00000000E+00
	 0.00000000E+00	 0.00000000E+00	 0.00000000E+00
	 0.00000000E+00	 0.00000000E+00	 0.00000000E+00
	 0.00000000E+00	 0.00000000E+00	 0.00000000E+00
	 0.00000000E+00	 0.00000000E+00	 0.00000000E+00
	 0.00000000E+00	 0.00000000E+00	 0.00000000E+00
	 0.00000000E+00	 0.00000000E+00	 0.00000000E+00
	 0.00000000E+00	 0.00000000E+00	 0.00000000E+00
	 0.00000000E+00	 0.00000000E+00	 0.00000000E+00
	 0.00000000E+00	 0.00000000E+00	 0.00000000E+00
	 0.00000000E+00	 0.00000000E+00	 0.00000000E+00
	 0.00000000E+00	 0.00000000E+00	 0.00000000E+00
	 0.00000000E+00	 0.00000000E+00	 0.00000000E+00
	 0.00000000E+00	 0.00000000E+00	 0.00000000E+00
	 0.00000000E+00	 0.00000000E+00	 0.00000000E+00
	 0.00000000E+00	 0.00000000E+00	 0.00000000E+00
	 0.00000000E+00	 0.00000000E+00	 0.00000000E+00
	 0.00000000E+00	 0.00000000E+00	 0.00000000E+00
	 0.00000000E+00	 0.00000000E+00	 0.00000000E+00
	 0.00000000E+00	 0.00000000E+00	 0.00000000E+00
	 0.00000000E+00	 0.00000000E+00	 0.00000000E+00
	 0.00000000E+00	 0.00000000E+00	 0.00000000E+00
	 0.00000000E+00	 0.00000000E+00	 0.00000000E+00
	 0.00000000E+00	 0.00000000E+00	 0.00000000E+00
	 0.00000000E+00	 0.00000000E+00	 0.00000000E+00
	 0.00000000E+00	 0.00000000E+00	 0.00000000E+00
	 0.00000000E+00	 0.00000000E+00	 0.00000000E+00
	 0.00000000E+00	 0.00000000E+00	 0.00000000E+00
	 0.00000000E+00	 0.00000000E+00	 0.00000000E+00
	 0.00000000E+00	 0.00000000E+00	 0.00000000E+00
	 0.00000000E+00	 0.00000000E+00	 0.00000000E+00
	 0.00000000E+00	 0.00000000E+00	 0.00000000E+00
	 0.00000000E+00	 0.00000000E+00	 0.00000000E+00
	 0.00000000E+00	 0.00000000E+00	 0.00000000E+00
	 0.00000000E+00	 0.00000000E+00	 0.00000000E+00
	 0.00000000E+00	 0.00000000E+00	 0.00000000E+00
	 0.00000000E+00	 0.00000000E+00	 0.00000000E+00
	 0.00000000E+00	 0.00000000E+00	 0.00000000E+00
	 0.00000000E+00	 0.00000000E+00	 0.00000000E+00
	 0.00000000E+00	 0.00000000E+00	 0.00000000E+00
	 0.00000000E+00	 0.00000000E+00	 0.00000000E+00
	 0.00000000E+00	 0.00000000E+00	 0.00000000E+00
	 0.00000000E+00	 0.00000000E+00	 0.00000000E+00
	 0.00000000E+00	 0.00000000E+00	 0.00000000E+00
	 0.00000000E+00	 0.00000000E+00	 0.00000000E+00
	 0.00000000E+00	 0.00000000E+00	 0.00000000E+00
	 0.00000000E+00	 0.00000000E+00	 0.00000000E+00
	 0.00000000E+00	 0.00000000E+00	 0.00000000E+00
	 0.00000000E+00	 0.00000000E+00	 0.00000000E+00
	 0.00000000E+00	 0.00000000E+00	 0.00000000E+00
	 0.00000000E+00	 0.00000000E+00	 0.00000000E+00
	 0.00000000E+00	 0.00000000E+00	 0.00000000E+00
	 0.00000000E+00	 0.00000000E+00	 0.00000000E+00
	 0.00000000E+00	 0.00000000E+00	 0.00000000E+00
	 0.00000000E+00	 0.00000000E+00	 0.00000000E+00
	 0.00000000E+00	 0.00000000E+00	 0.00000000E+00
	 0.00000000E+00	 0.00000000E+00	 0.00000000E+00
	 0.00000000E+00	 0.00000000E+00	 0.00000000E+00
	 0.00000000E+00	 0.00000000E+00	 0.00000000E+00
	 0.00000000E+00	 0.00000000E+00	 0.00000000E+00
	 0.00000000E+00	 0.00000000E+00	 0.00000000E+00
	 0.00000000E+00	 0.00000000E+00	 0.00000000E+00
	 0.00000000E+00	 0.00000000E+00	 0.00000000E+00
	 0.00000000E+00	 0.00000000E+00	 0.00000000E+00
	 0.00000000E+00	 0.00000000E+00	 0.00000000E+00
	 0.00000000E+00	 0.00000000E+00	 0.00000000E+00
	 0.00000000E+00	 0.00000000E+00	 0.00000000E+00
	 0.00000000E+00	 0.00000000E+00	 0.00000000E+00
	 0.00000000E+00	 0.00000000E+00	 0.00000000E+00
	 0.00000000E+00	 0.00000000E+00	 0.00000000E+00
	 0.00000000E+00	 0.00000000E+00	 0.00000000E+00
	 0.00000000E+00	 0.00000000E+00	 0.00000000E+00
	 0.00000000E+00	 0.00000000E+00	 0.00000000E+00
	 0.00000000E+00	 0.00000000E+00	 0.00000000E+00
	 0.00000000E+00	 0.00000000E+00	 0.00000000E+00
	 0.00000000E+00	 0.00000000E+00	 0.00000000E+00
	 0.00000000E+00	 0.00000000E+00	 0.00000000E+00
	 0.00000000E+00	 0.00000000E+00	 0.00000000E+00
	 0.00000000E+00	 0.00000000E+00	 0.00000000E+00
	 0.00000000E+00	 0.00000000E+00	 0.00000000E+00
	 0.00000000E+00	 0.00000000E+00	 0.00000000E+00
	 0.00000000E+00	 0.00000000E+00	 0.00000000E+00
	 0.00000000E+00	 0.00000000E+00	 0.00000000E+00
	 0.00000000E+00	 0.00000000E+00	 0.00000000E+00
	 0.00000000E+00	 0.00000000E+00	 0.00000000E+00
	 0.00000000E+00	 0.00000000E+00	 0.00000000E+00
	 0.00000000E+00	 0.00000000E+00	 0.00000000E+00
	 0.00000000E+00	 0.00000000E+00	 0.00000000E+00
	 0.00000000E+00	 0.00000000E+00	 0.00000000E+00
	 0.00000000E+00	 0.00000000E+00	 0.00000000E+00
	 0.00000000E+00	 0.00000000E+00	 0.00000000E+00
	 0.00000000E+00	 0.00000000E+00	 0.00000000E+00
	 0.00000000E+00	 0.00000000E+00	 0.00000000E+00
	 0.00000000E+00	 0.00000000E+00	 0.00000000E+00
	 0.00000000E+00	 0.00000000E+00	 0.00000000E+00
	 0.00000000E+00	 0.00000000E+00	 0.00000000E+00
	 0.00000000E+00	 0.00000000E+00	 0.00000000E+00
	 0.00000000E+00	 0.00000000E+00	 0.00000000E+00
	 0.00000000E+00	 0.00000000E+00	 0.00000000E+00
	 0.00000000E+00	 0.00000000E+00	 0.00000000E+00
	 0.00000000E+00	 0.00000000E+00	 0.00000000E+00
	 0.00000000E+00	 0.00000000E+00	 0.00000000E+00
	 0.00000000E+00	 0.00000000E+00	 0.00000000E+00
	 0.00000000E+00	 0.00000000E+00	 0.00000000E+00
	 0.00000000E+00	 0.00000000E+00	 0.00000000E+00
	 0.00000000E+00	 0.00000000E+00	 0.00000000E+00
	 0.00000000E+00	 0.00000000E+00	 0.00000000E+00
	 0.00000000E+00	 0.00000000E+00	 0.00000000E+00
	 0.00000000E+00	 0.00000000E+00	 0.00000000E+00
	 0.00000000E+00	 0.00000000E+00	 0.00000000E+00
	 0.00000000E+00	 0.00000000E+00	 0.00000000E+00
	 0.00000000E+00	 0.00000000E+00	 0.00000000E+00
	 0.00000000E+00	 0.00000000E+00	 0.00000000E+00
	 0.00000000E+00	 0.00000000E+00	 0.00000000E+00
	 0.00000000E+00	 0.00000000E+00	 0.00000000E+00
	 0.00000000E+00	 0.00000000E+00	 0.00000000E+00
	 0.00000000E+00	 0.00000000E+00	 0.00000000E+00
	 0.00000000E+00	 0.00000000E+00	 0.00000000E+00
	 0.00000000E+00	 0.00000000E+00	 0.00000000E+00
	 0.00000000E+00	 0.00000000E+00	 0.00000000E+00
	 0.00000000E+00	 0.00000000E+00	 0.00000000E+00
	 0.00000000E+00	 0.00000000E+00	 0.00000000E+00
	 0.00000000E+00	 0.00000000E+00	 0.00000000E+00
	 0.00000000E+00	 0.00000000E+00	 0.00000000E+00
	 0.00000000E+00	 0.00000000E+00	 0.00000000E+00
	 0.00000000E+00	 0.00000000E+00	 0.00000000E+00
	 0.00000000E+00	 0.00000000E+00	 0.00000000E+00
	 0.00000000E+00	 0.00000000E+00	 0.00000000E+00
	 0.00000000E+00	 0.00000000E+00	 0.00000000E+00
	 0.00000000E+00	 0.00000000E+00	 0.00000000E+00
	 0.00000000E+00	 0.00000000E+00	 0.00000000E+00
	 0.00000000E+00	 0.00000000E+00	 0.00000000E+00
	 0.00000000E+00	 0.00000000E+00	 0.00000000E+00
	 0.00000000E+00	 0.00000000E+00	 0.00000000E+00
	 0.00000000E+00	 0.00000000E+00	 0.00000000E+00
	 0.00000000E+00	 0.00000000E+00	 0.00000000E+00
	 0.00000000E+00	 0.00000000E+00	 0.00000000E+00
	 0.00000000E+00	 0.00000000E+00	 0.00000000E+00
	 0.00000000E+00	 0.00000000E+00	 0.00000000E+00
	 0.00000000E+00	 0.00000000E+00	 0.00000000E+00
	 0.00000000E+00	 0.00000000E+00	 0.00000000E+00
	 0.00000000E+00	 0.00000000E+00	 0.00000000E+00
	 0.00000000E+00	 0.00000000E+00	 0.00000000E+00
	 0.00000000E+00	 0.00000000E+00	 0.00000000E+00
	 0.00000000E+00	 0.00000000E+00	 0.00000000E+00
	 0.00000000E+00	 0.00000000E+00	 0.00000000E+00
	 0.00000000E+00	 0.00000000E+00	 0.00000000E+00
	 0.00000000E+00	 0.00000000E+00	 0.00000000E+00
	 0.00000000E+00	 0.00000000E+00	 0.00000000E+00
	 0.00000000E+00	 0.00000000E+00	 0.00000000E+00
	 0.00000000E+00	 0.00000000E+00	 0.00000000E+00
	 0.00000000E+00	 0.00000000E+00	 0.00000000E+00
	 0.00000000E+00	 0.00000000E+00	 0.00000000E+00
	 0.00000000E+00	 0.00000000E+00	 0.00000000E+00
	 0.00000000E+00	 0.00000000E+00	 0.00000000E+00
	 0.00000000E+00	 0.00000000E+00	 0.00000000E+00
	 0.00000000E+00	 0.00000000E+00	 0.00000000E+00
	 0.00000000E+00	 0.00000000E+00	 0.00000000E+00
	 0.00000000E+00	 0.00000000E+00	 0.00000000E+00
	 0.00000000E+00	 0.00000000E+00	 0.00000000E+00
	 0.00000000E+00	 0.00000000E+00	 0.00000000E+00
	 0.00000000E+00	 0.00000000E+00	 0.00000000E+00
	 0.00000000E+00	 0.00000000E+00	 0.00000000E+00
	 0.00000000E+00	 0.00000000E+00	 0.00000000E+00
	 0.00000000E+00	 0.00000000E+00	 0.00000000E+00
	 0.00000000E+00	 0.00000000E+00	 0.00000000E+00
	 0.00000000E+00	 0.00000000E+00	 0.00000000E+00
	 0.00000000E+00	 0.00000000E+00	 0.00000000E+00
	 0.00000000E+00	 0.00000000E+00	 0.00000000E+00
	 0.00000000E+00	 0.00000000E+00	 0.00000000E+00
	 0.00000000E+00	 0.00000000E+00	 0.00000000E+00
	 0.00000000E+00	 0.00000000E+00	 0.00000000E+00
	 0.00000000E+00	 0.00000000E+00	 0.00000000E+00
	 0.00000000E+00	 0.00000000E+00	 0.00000000E+00
	 0.00000000E+00	 0.00000000E+00	 0.00000000E+00
	 0.00000000E+00	 0.00000000E+00	 0.00000000E+00
	 0.00000000E+00	 0.00000000E+00	 0.00000000E+00
	 0.00000000E+00	 0.00000000E+00	 0.00000000E+00
	 0.00000000E+00	 0.00000000E+00	 0.00000000E+00
	 0.00000000E+00	 0.00000000E+00	 0.00000000E+00
	 0.00000000E+00	 0.00000000E+00	 0.00000000E+00
	 0.00000000E+00	 0.00000000E+00	 0.00000000E+00
	 0.00000000E+00	 0.00000000E+00	 0.00000000E+00
	 0.00000000E+00	 0.00000000E+00	 0.00000000E+00
	 0.00000000E+00	 0.00000000E+00	 0.00000000E+00
	 0.00000000E+00	 0.00000000E+00	 0.00000000E+00
	 0.00000000E+00	 0.00000000E+00	 0.00000000E+00
	 0.00000000E+00	 0.00000000E+00	 0.00000000E+00
	 0.00000000E+00	 0.00000000E+00	 0.00000000E+00
	 0.00000000E+00	 0.00000000E+00	 0.00000000E+00
	 0.00000000E+00	 0.00000000E+00	 0.00000000E+00
	 0.00000000E+00	 0.00000000E+00	 0.00000000E+00
	 0.00000000E+00	 0.00000000E+00	 0.00000000E+00
	 0.00000000E+00	 0.00000000E+00	 0.00000000E+00
	 0.00000000E+00	 0.00000000E+00	 0.00000000E+00
	 0.00000000E+00	 0.00000000E+00	 0.00000000E+00
	 0.00000000E+00	 0.00000000E+00	 0.00000000E+00
	 0.00000000E+00	 0.00000000E+00	 0.00000000E+00
	 0.00000000E+00	 0.00000000E+00	 0.00000000E+00
	 0.00000000E+00	 0.00000000E+00	 0.00000000E+00
	 0.00000000E+00	 0.00000000E+00	 0.00000000E+00
	 0.00000000E+00	 0.00000000E+00	 0.00000000E+00
	 0.00000000E+00	 0.00000000E+00	 0.00000000E+00
	 0.00000000E+00	 0.00000000E+00	 0.00000000E+00
	 0.00000000E+00	 0.00000000E+00	 0.00000000E+00
	 0.00000000E+00	 0.00000000E+00	 0.00000000E+00
	 0.00000000E+00	 0.00000000E+00	 0.00000000E+00
	 0.00000000E+00	 0.00000000E+00	 0.00000000E+00
	 0.00000000E+00	 0.00000000E+00	 0.00000000E+00
	 0.00000000E+00	 0.00000000E+00	 0.00000000E+00
	 0.00000000E+00	 0.00000000E+00	 0.00000000E+00
	 0.00000000E+00	 0.00000000E+00	 0.00000000E+00
	 0.00000000E+00	 0.00000000E+00	 0.00000000E+00
	 0.00000000E+00	 0.00000000E+00	 0.00000000E+00
	 0.00000000E+00	 0.00000000E+00	 0.00000000E+00
	 0.00000000E+00	 0.00000000E+00	 0.00000000E+00
	 0.00000000E+00	 0.00000000E+00	 0.00000000E+00
	 0.00000000E+00	 0.00000000E+00	 0.00000000E+00
	 0.00000000E+00	 0.00000000E+00	 0.00000000E+00
	 0.00000000E+00	 0.00000000E+00	 0.00000000E+00
	 0.00000000E+00	 0.00000000E+00	 0.00000000E+00
	 0.00000000E+00	 0.00000000E+00	 0.00000000E+00
	 0.00000000E+00	 0.00000000E+00	 0.00000000E+00
	 0.00000000E+00	 0.00000000E+00	 0.00000000E+00
	 0.00000000E+00	 0.00000000E+00	 0.00000000E+00
	 0.00000000E+00	 0.00000000E+00	 0.00000000E+00
	 0.00000000E+00	 0.00000000E+00	 0.00000000E+00
	 0.00000000E+00	 0.00000000E+00	 0.00000000E+00
	 0.00000000E+00	 0.00000000E+00	 0.00000000E+00
	 0.00000000E+00	 0.00000000E+00	 0.00000000E+00
	 0.00000000E+00	 0.00000000E+00	 0.00000000E+00
	 0.00000000E+00	 0.00000000E+00	 0.00000000E+00
	 0.00000000E+00	 0.00000000E+00	 0.00000000E+00
	 0.00000000E+00	 0.00000000E+00	 0.00000000E+00
	 0.00000000E+00	 0.00000000E+00	 0.00000000E+00
	 0.00000000E+00	 0.00000000E+00	 0.00000000E+00
	 0.00000000E+00	 0.00000000E+00	 0.00000000E+00
	 0.00000000E+00	 0.00000000E+00	 0.00000000E+00
	 0.00000000E+00	 0.00000000E+00	 0.00000000E+00
	 0.00000000E+00	 0.00000000E+00	 0.00000000E+00
	 0.00000000E+00	 0.00000000E+00	 0.00000000E+00
	 0.00000000E+00	 0.00000000E+00	 0.00000000E+00
	 0.00000000E+00	 0.00000000E+00	 0.00000000E+00
	 0.00000000E+00	 0.00000000E+00	 0.00000000E+00
	 0.00000000E+00	 0.00000000E+00	 0.00000000E+00
	 0.00000000E+00	 0.00000000E+00	 0.00000000E+00
	 0.00000000E+00	 0.00000000E+00	 0.00000000E+00
	 0.00000000E+00	 0.00000000E+00	 0.00000000E+00
	 0.00000000E+00	 0.00000000E+00	 0.00000000E+00
	 0.00000000E+00	 0.00000000E+00	 0.00000000E+00
	 0.00000000E+00	 0.00000000E+00	 0.00000000E+00
	 0.00000000E+00	 0.00000000E+00	 0.00000000E+00
	 0.00000000E+00	 0.00000000E+00	 0.00000000E+00
	 0.00000000E+00	 0.00000000E+00	 0.00000000E+00
	 0.00000000E+00	 0.00000000E+00	 0.00000000E+00
	 0.00000000E+00	 0.00000000E+00	 0.00000000E+00
	 0.00000000E+00	 0.00000000E+00	 0.00000000E+00
	 0.00000000E+00	 0.00000000E+00	 0.00000000E+00
	 0.00000000E+00	 0.00000000E+00	 0.00000000E+00
	 0.00000000E+00	 0.00000000E+00	 0.00000000E+00
	 0.00000000E+00	 0.00000000E+00	 0.00000000E+00
	 0.00000000E+00	 0.00000000E+00	 0.00000000E+00
	 0.00000000E+00	 0.00000000E+00	 0.00000000E+00
	 0.00000000E+00	 0.00000000E+00	 0.00000000E+00
	 0.00000000E+00	 0.00000000E+00	 0.00000000E+00
	 0.00000000E+00	 0.00000000E+00	 0.00000000E+00
	 0.00000000E+00	 0.00000000E+00	 0.00000000E+00
	 0.00000000E+00	 0.00000000E+00	 0.00000000E+00
	 0.00000000E+00	 0.00000000E+00	 0.00000000E+00
	 0.00000000E+00	 0.00000000E+00	 0.00000000E+00
	 0.00000000E+00	 0.00000000E+00	 0.00000000E+00
	 0.00000000E+00	 0.00000000E+00	 0.00000000E+00
	 0.00000000E+00	 0.00000000E+00	 0.00000000E+00
	 0.00000000E+00	 0.00000000E+00	 0.00000000E+00
	 0.00000000E+00	 0.00000000E+00	 0.00000000E+00
	 0.00000000E+00	 0.00000000E+00	 0.00000000E+00
	 0.00000000E+00	 0.00000000E+00	 0.00000000E+00
	 0.00000000E+00	 0.00000000E+00	 0.00000000E+00
	 0.00000000E+00	 0.00000000E+00	 0.00000000E+00
	 0.00000000E+00	 0.00000000E+00	 0.00000000E+00
	 0.00000000E+00	 0.00000000E+00	 0.00000000E+00
	 0.00000000E+00	 0.00000000E+00	 0.00000000E+00
	 0.00000000E+00	 0.00000000E+00	 0.00000000E+00
	 0.00000000E+00	 0.00000000E+00	 0.00000000E+00
	 0.00000000E+00	 0.00000000E+00	 0.00000000E+00
	 0.00000000E+00	 0.00000000E+00	 0.00000000E+00
	 0.00000000E+00	 0.00000000E+00	 0.00000000E+00
	 0.00000000E+00	 0.00000000E+00	 0.00000000E+00
	 0.00000000E+00	 0.00000000E+00	 0.00000000E+00
	 0.00000000E+00	 0.00000000E+00	 0.00000000E+00
	 0.00000000E+00	 0.00000000E+00	 0.00000000E+00
	 0.00000000E+00	 0.00000000E+00	 0.00000000E+00
	 0.00000000E+00	 0.00000000E+00	 0.00000000E+00
	 0.00000000E+00	 0.00000000E+00	 0.00000000E+00
	 0.00000000E+00	 0.00000000E+00	 0.00000000E+00
	 0.00000000E+00	 0.00000000E+00	 0.00000000E+00
	 0.00000000E+00	 0.00000000E+00	 0.00000000E+00
	 0.00000000E+00	 0.00000000E+00	 0.00000000E+00
	 0.00000000E+00	 0.00000000E+00	 0.00000000E+00
	 0.00000000E+00	 0.00000000E+00	 0.00000000E+00
	 0.00000000E+00	 0.00000000E+00	 0.00000000E+00
	 0.00000000E+00	 0.00000000E+00	 0.00000000E+00
	 0.00000000E+00	 0.00000000E+00	 0.00000000E+00
	 0.00000000E+00	 0.00000000E+00	 0.00000000E+00
	 0.00000000E+00	 0.00000000E+00	 0.00000000E+00
	 0.00000000E+00	 0.00000000E+00	 0.00000000E+00
	 0.00000000E+00	 0.00000000E+00	 0.00000000E+00
	 0.00000000E+00	 0.00000000E+00	 0.00000000E+00
	 0.00000000E+00	 0.00000000E+00	 0.00000000E+00
	 0.00000000E+00	 0.00000000E+00	 0.00000000E+00
	 0.00000000E+00	 0.00000000E+00	 0.00000000E+00
	 0.00000000E+00	 0.00000000E+00	 0.00000000E+00
	 0.00000000E+00	 0.00000000E+00	 0.00000000E+00
	 0.00000000E+00	 0.00000000E+00	 0.00000000E+00
	 0.00000000E+00	 0.00000000E+00	 0.00000000E+00
	 0.00000000E+00	 0.00000000E+00	 0.00000000E+00
	 0.00000000E+00	 0.00000000E+00	 0.00000000E+00
	 0.00000000E+00	 0.00000000E+00	 0.00000000E+00
	 0.00000000E+00	 0.00000000E+00	 0.00000000E+00
	 0.00000000E+00	 0.00000000E+00	 0.00000000E+00
	 0.00000000E+00	 0.00000000E+00	 0.00000000E+00
	 0.00000000E+00	 0.00000000E+00	 0.00000000E+00
	 0.00000000E+00	 0.00000000E+00	 0.00000000E+00
	 0.00000000E+00	 0.00000000E+00	 0.00000000E+00
	 0.00000000E+00	 0.00000000E+00	 0.00000000E+00
	 0.00000000E+00	 0.00000000E+00	 0.00000000E+00
	 0.00000000E+00	 0.00000000E+00	 0.00000000E+00
	 0.00000000E+00	 0.00000000E+00	 0.00000000E+00
	 0.00000000E+00	 0.00000000E+00	 0.00000000E+00
	 0.00000000E+00	 0.00000000E+00	 0.00000000E+00
	 0.00000000E+00	 0.00000000E+00	 0.00000000E+00
	 0.00000000E+00	 0.00000000E+00	 0.00000000E+00
	 0.00000000E+00	 0.00000000E+00	 0.00000000E+00
	 0.00000000E+00	 0.00000000E+00	 0.00000000E+00
	 0.00000000E+00	 0.00000000E+00	 0.00000000E+00
	 0.00000000E+00	 0.00000000E+00	 0.00000000E+00
	 0.00000000E+00	 0.00000000E+00	 0.00000000E+00
	 0.00000000E+00	 0.00000000E+00	 0.00000000E+00
	 0.00000000E+00	 0.00000000E+00	 0.00000000E+00
	 0.00000000E+00	 0.00000000E+00	 0.00000000E+00
	 0.00000000E+00	 0.00000000E+00	 0.00000000E+00
	 0.00000000E+00	 0.00000000E+00	 0.00000000E+00
	 0.00000000E+00	 0.00000000E+00	 0.00000000E+00
	 0.00000000E+00	 0.00000000E+00	 0.00000000E+00
	 0.00000000E+00	 0.00000000E+00	 0.00000000E+00
	 0.00000000E+00	 0.00000000E+00	 0.00000000E+00
	 0.00000000E+00	 0.00000000E+00	 0.00000000E+00
	 0.00000000E+00	 0.00000000E+00	 0.00000000E+00
	 0.00000000E+00	 0.00000000E+00	 0.00000000E+00
	 0.00000000E+00	 0.00000000E+00	 0.00000000E+00
	 0.00000000E+00	 0.00000000E+00	 0.00000000E+00
	 0.00000000E+00	 0.00000000E+00	 0.00000000E+00
	 0.00000000E+00	 0.00000000E+00	 0.00000000E+00
	 0.00000000E+00	 0.00000000E+00	 0.00000000E+00
	 0.00000000E+00	 0.00000000E+00	 0.00000000E+00
	 0.00000000E+00	 0.00000000E+00	 0.00000000E+00
	 0.00000000E+00	 0.00000000E+00	 0.00000000E+00
	 0.00000000E+00	 0.00000000E+00	 0.00000000E+00
	 0.00000000E+00	 0.00000000E+00	 0.00000000E+00
	 0.00000000E+00	 0.00000000E+00	 0.00000000E+00
	 0.00000000E+00	 0.00000000E+00	 0.00000000E+00
	 0.00000000E+00	 0.00000000E+00	 0.00000000E+00
	 0.00000000E+00	 0.00000000E+00	 0.00000000E+00
	 0.00000000E+00	 0.00000000E+00	 0.00000000E+00
	 0.00000000E+00	 0.00000000E+00	 0.00000000E+00
	 0.00000000E+00	 0.00000000E+00	 0.00000000E+00
	 0.00000000E+00	 0.00000000E+00	 0.00000000E+00
	 0.00000000E+00	 0.00000000E+00	 0.00000000E+00
	 0.00000000E+00	 0.00000000E+00	 0.00000000E+00
	 0.00000000E+00	 0.00000000E+00	 0.00000000E+00
	 0.00000000E+00	 0.00000000E+00	 0.00000000E+00
	 0.00000000E+00	 0.00000000E+00	 0.00000000E+00
	 0.00000000E+00	 0.00000000E+00	 0.00000000E+00
	 0.00000000E+00	 0.00000000E+00	 0.00000000E+00
	 0.00000000E+00	 0.00000000E+00	 0.00000000E+00
	 0.00000000E+00	 0.00000000E+00	 0.00000000E+00
	 0.00000000E+00	 0.00000000E+00	 0.00000000E+00
	 0.00000000E+00	 0.00000000E+00	 0.00000000E+00
	 0.00000000E+00	 0.00000000E+00	 0.00000000E+00
	 0.00000000E+00	 0.00000000E+00	 0.00000000E+00
	 0.00000000E+00	 0.00000000E+00	 0.00000000E+00
	 0.00000000E+00	 0.00000000E+00	 0.00000000E+00
	 0.00000000E+00	 0.00000000E+00	 0.00000000E+00
	 0.00000000E+00	 0.00000000E+00	 0.00000000E+00
	 0.00000000E+00	 0.00000000E+00	 0.00000000E+00
	 0.00000000E+00	 0.00000000E+00	 0.00000000E+00
	 0.00000000E+00	 0.00000000E+00	 0.00000000E+00
	 0.00000000E+00	 0.00000000E+00	 0.00000000E+00
	 0.00000000E+00	 0.00000000E+00	 0.00000000E+00
	 0.00000000E+00	 0.00000000E+00	 0.00000000E+00
	 0.00000000E+00	 0.00000000E+00	 0.00000000E+00
	 0.00000000E+00	 0.00000000E+00	 0.00000000E+00
	 0.00000000E+00	 0.00000000E+00	 0.00000000E+00
	 0.00000000E+00	 0.00000000E+00	 0.00000000E+00
	 0.00000000E+00	 0.00000000E+00	 0.00000000E+00
	 0.00000000E+00	 0.00000000E+00	 0.00000000E+00
	 0.00000000E+00	 0.00000000E+00	 0.00000000E+00
	 0.00000000E+00	 0.00000000E+00	 0.00000000E+00
	 0.00000000E+00	 0.00000000E+00	 0.00000000E+00
	 0.00000000E+00	 0.00000000E+00	 0.00000000E+00
	 0.00000000E+00	 0.00000000E+00	 0.00000000E+00
	 0.00000000E+00	 0.00000000E+00	 0.00000000E+00
	 0.00000000E+00	 0.00000000E+00	 0.00000000E+00
	 0.00000000E+00	 0.00000000E+00	 0.00000000E+00
	 0.00000000E+00	 0.00000000E+00	 0.00000000E+00
	 0.00000000E+00	 0.00000000E+00	 0.00000000E+00
	 0.00000000E+00	 0.00000000E+00	 0.00000000E+00
	 0.00000000E+00	 0.00000000E+00	 0.00000000E+00
	 0.00000000E+00	 0.00000000E+00	 0.00000000E+00
	 0.00000000E+00	 0.00000000E+00	 0.00000000E+00
	 0.00000000E+00	 0.00000000E+00	 0.00000000E+00
	 0.00000000E+00	 0.00000000E+00	 0.00000000E+00
	 0.00000000E+00	 0.00000000E+00	 0.00000000E+00
	 0.00000000E+00	 0.00000000E+00	 0.00000000E+00
	 0.00000000E+00	 0.00000000E+00	 0.00000000E+00
	 0.00000000E+00	 0.00000000E+00	 0.00000000E+00
	 0.00000000E+00	 0.00000000E+00	 0.00000000E+00
	 0.00000000E+00	 0.00000000E+00	 0.00000000E+00
	 0.00000000E+00	 0.00000000E+00	 0.00000000E+00
	 0.00000000E+00	 0.00000000E+00	 0.00000000E+00
	 0.00000000E+00	 0.00000000E+00	 0.00000000E+00
	 0.00000000E+00	 0.00000000E+00	 0.00000000E+00
	 0.00000000E+00	 0.00000000E+00	 0.00000000E+00
	 0.00000000E+00	 0.00000000E+00	 0.00000000E+00
	 0.00000000E+00	 0.00000000E+00	 0.00000000E+00
	 0.00000000E+00	 0.00000000E+00	 0.00000000E+00
	 0.00000000E+00	 0.00000000E+00	 0.00000000E+00
	 0.00000000E+00	 0.00000000E+00	 0.00000000E+00
	 0.00000000E+00	 0.00000000E+00	 0.00000000E+00
	 0.00000000E+00	 0.00000000E+00	 0.00000000E+00
	 0.00000000E+00	 0.00000000E+00	 0.00000000E+00
	 0.00000000E+00	 0.00000000E+00	 0.00000000E+00
	 0.00000000E+00	 0.00000000E+00	 0.00000000E+00
	 0.00000000E+00	 0.00000000E+00	 0.00000000E+00
	 0.00000000E+00	 0.00000000E+00	 0.00000000E+00
	 0.00000000E+00	 0.00000000E+00	 0.00000000E+00
	 0.00000000E+00	 0.00000000E+00	 0.00000000E+00
	 0.00000000E+00	 0.00000000E+00	 0.00000000E+00
	 0.00000000E+00	 0.00000000E+00	 0.00000000E+00
	 0.00000000E+00	 0.00000000E+00	 0.00000000E+00
	 0.00000000E+00	 0.00000000E+00	 0.00000000E+00
	 0.00000000E+00	 0.00000000E+00	 0.00000000E+00
	 0.00000000E+00	 0.00000000E+00	 0.00000000E+00
	 0.00000000E+00	 0.00000000E+00	 0.00000000E+00
	 0.00000000E+00	 0.00000000E+00	 0.00000000E+00
	 0.00000000E+00	 0.00000000E+00	 0.00000000E+00
	 0.00000000E+00	 0.00000000E+00	 0.00000000E+00
	 0.00000000E+00	 0.00000000E+00	 0.00000000E+00
	 0.00000000E+00	 0.00000000E+00	 0.00000000E+00
	 0.00000000E+00	 0.00000000E+00	 0.00000000E+00
	 0.00000000E+00	 0.00000000E+00	 0.00000000E+00
	 0.00000000E+00	 0.00000000E+00	 0.00000000E+00
	 0.00000000E+00	 0.00000000E+00	 0.00000000E+00
	 0.00000000E+00	 0.00000000E+00	 0.00000000E+00
	 0.00000000E+00	 0.00000000E+00	 0.00000000E+00
	 0.00000000E+00	 0.00000000E+00	 0.00000000E+00
	 0.00000000E+00	 0.00000000E+00	 0.00000000E+00
	 0.00000000E+00	 0.00000000E+00	 0.00000000E+00
	 0.00000000E+00	 0.00000000E+00	 0.00000000E+00
	 0.00000000E+00	 0.00000000E+00	 0.00000000E+00
	 0.00000000E+00	 0.00000000E+00	 0.00000000E+00
	 0.00000000E+00	 0.00000000E+00	 0.00000000E+00
	 0.00000000E+00	 0.00000000E+00	 0.00000000E+00
	 0.00000000E+00	 0.00000000E+00	 0.00000000E+00
	 0.00000000E+00	 0.00000000E+00	 0.00000000E+00
	 0.00000000E+00	 0.00000000E+00	 0.00000000E+00
	 0.00000000E+00	 0.00000000E+00	 0.00000000E+00
	 0.00000000E+00	 0.00000000E+00	 0.00000000E+00
	 0.00000000E+00	 0.00000000E+00	 0.00000000E+00
	 0.00000000E+00	 0.00000000E+00	 0.00000000E+00
	 0.00000000E+00	 0.00000000E+00	 0.00000000E+00
	 0.00000000E+00	 0.00000000E+00	 0.00000000E+00
	 0.00000000E+00	 0.00000000E+00	 0.00000000E+00
	 0.00000000E+00	 0.00000000E+00	 0.00000000E+00
	 0.00000000E+00	 0.00000000E+00	 0.00000000E+00
	 0.00000000E+00	 0.00000000E+00	 0.00000000E+00
	 0.00000000E+00	 0.00000000E+00	 0.00000000E+00
	 0.00000000E+00	 0.00000000E+00	 0.00000000E+00
	 0.00000000E+00	 0.00000000E+00	 0.00000000E+00
	 0.00000000E+00	 0.00000000E+00	 0.00000000E+00
	 0.00000000E+00	 0.00000000E+00	 0.00000000E+00
	 0.00000000E+00	 0.00000000E+00	 0.00000000E+00
	 0.00000000E+00	 0.00000000E+00	 0.00000000E+00
	 0.00000000E+00	 0.00000000E+00	 0.00000000E+00
	 0.00000000E+00	 0.00000000E+00	 0.00000000E+00
	 0.00000000E+00	 0.00000000E+00	 0.00000000E+00
	 0.00000000E+00	 0.00000000E+00	 0.00000000E+00
	 0.00000000E+00	 0.00000000E+00	 0.00000000E+00
	 0.00000000E+00	 0.00000000E+00	 0.00000000E+00
	 0.00000000E+00	 0.00000000E+00	 0.00000000E+00
	 0.00000000E+00	 0.00000000E+00	 0.00000000E+00
	 0.00000000E+00	 0.00000000E+00	 0.00000000E+00
	 0.00000000E+00	 0.00000000E+00	 0.00000000E+00
	 0.00000000E+00	 0.00000000E+00	 0.00000000E+00
	 0.00000000E+00	 0.00000000E+00	 0.00000000E+00
	 0.00000000E+00	 0.00000000E+00	 0.00000000E+00
	 0.00000000E+00	 0.00000000E+00	 0.00000000E+00
	 0.00000000E+00	 0.00000000E+00	 0.00000000E+00
	 0.00000000E+00	 0.00000000E+00	 0.00000000E+00
	 0.00000000E+00	 0.00000000E+00	 0.00000000E+00
	 0.00000000E+00	 0.00000000E+00	 0.00000000E+00
	 0.00000000E+00	 0.00000000E+00	 0.00000000E+00
	 0.00000000E+00	 0.00000000E+00	 0.00000000E+00
	 0.00000000E+00	 0.00000000E+00	 0.00000000E+00
	 0.00000000E+00	 0.00000000E+00	 0.00000000E+00
	 0.00000000E+00	 0.00000000E+00	 0.00000000E+00
	 0.00000000E+00	 0.00000000E+00	 0.00000000E+00
	 0.00000000E+00	 0.00000000E+00	 0.00000000E+00
	 0.00000000E+00	 0.00000000E+00	 0.00000000E+00
	 0.00000000E+00	 0.00000000E+00	 0.00000000E+00
	 0.00000000E+00	 0.00000000E+00	 0.00000000E+00
	 0.00000000E+00	 0.00000000E+00	 0.00000000E+00
	 0.00000000E+00	 0.00000000E+00	 0.00000000E+00
	 0.00000000E+00	 0.00000000E+00	 0.00000000E+00
	 0.00000000E+00	 0.00000000E+00	 0.00000000E+00
	 0.00000000E+00	 0.00000000E+00	 0.00000000E+00
	 0.00000000E+00	 0.00000000E+00	 0.00000000E+00
	 0.00000000E+00	 0.00000000E+00	 0.00000000E+00
	 0.00000000E+00	 0.00000000E+00	 0.00000000E+00
	 0.00000000E+00	 0.00000000E+00	 0.00000000E+00
	 0.00000000E+00	 0.00000000E+00	 0.00000000E+00
	 0.00000000E+00	 0.00000000E+00	 0.00000000E+00
	 0.00000000E+00	 0.00000000E+00	 0.00000000E+00
	 0.00000000E+00	 0.00000000E+00	 0.00000000E+00
	 0.00000000E+00	 0.00000000E+00	 0.00000000E+00
	 0.00000000E+00	 0.00000000E+00	 0.00000000E+00
	 0.00000000E+00	 0.00000000E+00	 0.00000000E+00
	 0.00000000E+00	 0.00000000E+00	 0.00000000E+00
	 0.00000000E+00	 0.00000000E+00	 0.00000000E+00
	 0.00000000E+00	 0.00000000E+00	 0.00000000E+00
	 0.00000000E+00	 0.00000000E+00	 0.00000000E+00
	 0.00000000E+00	 0.00000000E+00	 0.00000000E+00
	 0.00000000E+00	 0.00000000E+00	 0.00000000E+00
	 0.00000000E+00	 0.00000000E+00	 0.00000000E+00
	 0.00000000E+00	 0.00000000E+00	 0.00000000E+00
	 0.00000000E+00	 0.00000000E+00	 0.00000000E+00
	 0.00000000E+00	 0.00000000E+00	 0.00000000E+00
	 0.00000000E+00	 0.00000000E+00	 0.00000000E+00
	 0.00000000E+00	 0.00000000E+00	 0.00000000E+00
	 0.00000000E+00	 0.00000000E+00	 0.00000000E+00
	 0.00000000E+00	 0.00000000E+00	 0.00000000E+00
	 0.00000000E+00	 0.00000000E+00	 0.00000000E+00
	 0.00000000E+00	 0.00000000E+00	 0.00000000E+00
	 0.00000000E+00	 0.00000000E+00	 0.00000000E+00
	 0.00000000E+00	 0.00000000E+00	 0.00000000E+00
	 0.00000000E+00	 0.00000000E+00	 0.00000000E+00
	 0.00000000E+00	 0.00000000E+00	 0.00000000E+00
	 0.00000000E+00	 0.00000000E+00	 0.00000000E+00
	 0.00000000E+00	 0.00000000E+00	 0.00000000E+00
	 0.00000000E+00	 0.00000000E+00	 0.00000000E+00
	 0.00000000E+00	 0.00000000E+00	 0.00000000E+00
	 0.00000000E+00	 0.00000000E+00	 0.00000000E+00
	 0.00000000E+00	 0.00000000E+00	 0.00000000E+00
	 0.00000000E+00	 0.00000000E+00	 0.00000000E+00
	 0.00000000E+00	 0.00000000E+00	 0.00000000E+00
	 0.00000000E+00	 0.00000000E+00	 0.00000000E+00
	 0.00000000E+00	 0.00000000E+00	 0.00000000E+00
	 0.00000000E+00	 0.00000000E+00	 0.00000000E+00
	 0.00000000E+00	 0.00000000E+00	 0.00000000E+00
	 0.00000000E+00	 0.00000000E+00	 0.00000000E+00
	 0.00000000E+00	 0.00000000E+00	 0.00000000E+00
	 0.00000000E+00	 0.00000000E+00	 0.00000000E+00
	 0.00000000E+00	 0.00000000E+00	 0.00000000E+00
	 0.00000000E+00	 0.00000000E+00	 0.00000000E+00
	 0.00000000E+00	 0.00000000E+00	 0.00000000E+00
	 0.00000000E+00	 0.00000000E+00	 0.00000000E+00
	 0.00000000E+00	 0.00000000E+00	 0.00000000E+00
	 0.00000000E+00	 0.00000000E+00	 0.00000000E+00
	 0.00000000E+00	 0.00000000E+00	 0.00000000E+00
	 0.00000000E+00	 0.00000000E+00	 0.00000000E+00
	 0.00000000E+00	 0.00000000E+00	 0.00000000E+00
	 0.00000000E+00	 0.00000000E+00	 0.00000000E+00
	 0.00000000E+00	 0.00000000E+00	 0.00000000E+00
	 0.00000000E+00	 0.00000000E+00	 0.00000000E+00
	 0.00000000E+00	 0.00000000E+00	 0.00000000E+00
	 0.00000000E+00	 0.00000000E+00	 0.00000000E+00
	 0.00000000E+00	 0.00000000E+00	 0.00000000E+00
	 0.00000000E+00	 0.00000000E+00	 0.00000000E+00
	 0.00000000E+00	 0.00000000E+00	 0.00000000E+00
	 0.00000000E+00	 0.00000000E+00	 0.00000000E+00
	 0.00000000E+00	 0.00000000E+00	 0.00000000E+00
	 0.00000000E+00	 0.00000000E+00	 0.00000000E+00
	 0.00000000E+00	 0.00000000E+00	 0.00000000E+00
	 0.00000000E+00	 0.00000000E+00	 0.00000000E+00
	 0.00000000E+00	 0.00000000E+00	 0.00000000E+00
	 0.00000000E+00	 0.00000000E+00	 0.00000000E+00
	 0.00000000E+00	 0.00000000E+00	 0.00000000E+00
	 0.00000000E+00	 0.00000000E+00	 0.00000000E+00
	 0.00000000E+00	 0.00000000E+00	 0.00000000E+00
	 0.00000000E+00	 0.00000000E+00	 0.00000000E+00
	 0.00000000E+00	 0.00000000E+00	 0.00000000E+00
	 0.00000000E+00	 0.00000000E+00	 0.00000000E+00
	 0.00000000E+00	 0.00000000E+00	 0.00000000E+00
	 0.00000000E+00	 0.00000000E+00	 0.00000000E+00
	 0.00000000E+00	 0.00000000E+00	 0.00000000E+00
	 0.00000000E+00	 0.00000000E+00	 0.00000000E+00
	 0.00000000E+00	 0.00000000E+00	 0.00000000E+00
	 0.00000000E+00	 0.00000000E+00	 0.00000000E+00
	 0.00000000E+00	 0.00000000E+00	 0.00000000E+00
	 0.00000000E+00	 0.00000000E+00	 0.00000000E+00
	 0.00000000E+00	 0.00000000E+00	 0.00000000E+00
	 0.00000000E+00	 0.00000000E+00	 0.00000000E+00
	 0.00000000E+00	 0.00000000E+00	 0.00000000E+00
	 0.00000000E+00	 0.00000000E+00	 0.00000000E+00
	 0.00000000E+00	 0.00000000E+00	 0.00000000E+00
	 0.00000000E+00	 0.00000000E+00	 0.00000000E+00
	 0.00000000E+00	 0.00000000E+00	 0.00000000E+00
	 0.00000000E+00	 0.00000000E+00	 0.00000000E+00
	 0.00000000E+00	 0.00000000E+00	 0.00000000E+00
	 0.00000000E+00	 0.00000000E+00	 0.00000000E+00
	 0.00000000E+00	 0.00000000E+00	 0.00000000E+00
	 0.00000000E+00	 0.00000000E+00	 0.00000000E+00
	 0.00000000E+00	 0.00000000E+00	 0.00000000E+00
	 0.00000000E+00	 0.00000000E+00	 0.00000000E+00
	 0.00000000E+00	 0.00000000E+00	 0.00000000E+00
	 0.00000000E+00	 0.00000000E+00	 0.00000000E+00
	 0.00000000E+00	 0.00000000E+00	 0.00000000E+00
	 0.00000000E+00	 0.00000000E+00	 0.00000000E+00
	 0.00000000E+00	 0.00000000E+00	 0.00000000E+00
	 0.00000000E+00	 0.00000000E+00	 0.00000000E+00
	 0.00000000E+00	 0.00000000E+00	 0.00000000E+00
	 0.00000000E+00	 0.00000000E+00	 0.00000000E+00
	 0.00000000E+00	 0.00000000E+00	 0.00000000E+00
	 0.00000000E+00	 0.00000000E+00	 0.00000000E+00
	 0.00000000E+00	 0.00000000E+00	 0.00000000E+00
	 0.00000000E+00	 0.00000000E+00	 0.00000000E+00
	 0.00000000E+00	 0.00000000E+00	 0.00000000E+00
	 0.00000000E+00	 0.00000000E+00	 0.00000000E+00
	 0.00000000E+00	 0.00000000E+00	 0.00000000E+00
	 0.00000000E+00	 0.00000000E+00	 0.00000000E+00
	 0.00000000E+00	 0.00000000E+00	 0.00000000E+00
	 0.00000000E+00	 0.00000000E+00	 0.00000000E+00
	 0.00000000E+00	 0.00000000E+00	 0.00000000E+00
	 0.00000000E+00	 0.00000000E+00	 0.00000000E+00
	 0.00000000E+00	 0.00000000E+00	 0.00000000E+00
	 0.00000000E+00	 0.00000000E+00	 0.00000000E+00
	 0.00000000E+00	 0.00000000E+00	 0.00000000E+00
	 0.00000000E+00	 0.00000000E+00	 0.00000000E+00
	 0.00000000E+00	 0.00000000E+00	 0.00000000E+00
	 0.00000000E+00	 0.00000000E+00	 0.00000000E+00
	 0.00000000E+00	 0.00000000E+00	 0.00000000E+00
	 0.00000000E+00	 0.00000000E+00	 0.00000000E+00
	 0.00000000E+00	 0.00000000E+00	 0.00000000E+00
	 0.00000000E+00	 0.00000000E+00	 0.00000000E+00
	 0.00000000E+00	 0.00000000E+00	 0.00000000E+00
	 0.00000000E+00	 0.00000000E+00	 0.00000000E+00
	 0.00000000E+00	 0.00000000E+00	 0.00000000E+00
	 0.00000000E+00	 0.00000000E+00	 0.00000000E+00
	 0.00000000E+00	 0.00000000E+00	 0.00000000E+00
	 0.00000000E+00	 0.00000000E+00	 0.00000000E+00
	 0.00000000E+00	 0.00000000E+00	 0.00000000E+00
	 0.00000000E+00	 0.00000000E+00	 0.00000000E+00
	 0.00000000E+00	 0.00000000E+00	 0.00000000E+00
	 0.00000000E+00	 0.00000000E+00	 0.00000000E+00
	 0.00000000E+00	 0.00000000E+00	 0.00000000E+00
	 0.00000000E+00	 0.00000000E+00	 0.00000000E+00
	 0.00000000E+00	 0.00000000E+00	 0.00000000E+00
	 0.00000000E+00	 0.00000000E+00	 0.00000000E+00
	 0.00000000E+00	 0.00000000E+00	 0.00000000E+00
	 0.00000000E+00	 0.00000000E+00	 0.00000000E+00
	 0.00000000E+00	 0.00000000E+00	 0.00000000E+00
	 0.00000000E+00	 0.00000000E+00	 0.00000000E+00
	 0.00000000E+00	 0.00000000E+00	 0.00000000E+00
	 0.00000000E+00	 0.00000000E+00	 0.00000000E+00
	 0.00000000E+00	 0.00000000E+00	 0.00000000E+00
	 0.00000000E+00	 0.00000000E+00	 0.00000000E+00
	 0.00000000E+00	 0.00000000E+00	 0.00000000E+00
	 0.00000000E+00	 0.00000000E+00	 0.00000000E+00
	 0.00000000E+00	 0.00000000E+00	 0.00000000E+00
	 0.00000000E+00	 0.00000000E+00	 0.00000000E+00
	 0.00000000E+00	 0.00000000E+00	 0.00000000E+00
	 0.00000000E+00	 0.00000000E+00	 0.00000000E+00
	 0.00000000E+00	 0.00000000E+00	 0.00000000E+00
	 0.00000000E+00	 0.00000000E+00	 0.00000000E+00
	 0.00000000E+00	 0.00000000E+00	 0.00000000E+00
	 0.00000000E+00	 0.00000000E+00	 0.00000000E+00
	 0.00000000E+00	 0.00000000E+00	 0.00000000E+00
	 0.00000000E+00	 0.00000000E+00	 0.00000000E+00
	 0.00000000E+00	 0.00000000E+00	 0.00000000E+00
	 0.00000000E+00	 0.00000000E+00	 0.00000000E+00
	 0.00000000E+00	 0.00000000E+00	 0.00000000E+00
	 0.00000000E+00	 0.00000000E+00	 0.00000000E+00
	 0.00000000E+00	 0.00000000E+00	 0.00000000E+00
	 0.00000000E+00	 0.00000000E+00	 0.00000000E+00
	 0.00000000E+00	 0.00000000E+00	 0.00000000E+00
	 0.00000000E+00	 0.00000000E+00	 0.00000000E+00
	 0.00000000E+00	 0.00000000E+00	 0.00000000E+00
	 0.00000000E+00	 0.00000000E+00	 0.00000000E+00
	 0.00000000E+00	 0.00000000E+00	 0.00000000E+00
	 0.00000000E+00	 0.00000000E+00	 0.00000000E+00
	 0.00000000E+00	 0.00000000E+00	 0.00000000E+00
	 0.00000000E+00	 0.00000000E+00	 0.00000000E+00
	 0.00000000E+00	 0.00000000E+00	 0.00000000E+00
	 0.00000000E+00	 0.00000000E+00	 0.00000000E+00
	 0.00000000E+00	 0.00000000E+00	 0.00000000E+00
	 0.00000000E+00	 0.00000000E+00	 0.00000000E+00
	 0.00000000E+00	 0.00000000E+00	 0.00000000E+00
	 0.00000000E+00	 0.00000000E+00	 0.00000000E+00
	 0.00000000E+00	 0.00000000E+00	 0.00000000E+00
	 0.00000000E+00	 0.00000000E+00	 0.00000000E+00
	 0.00000000E+00	 0.00000000E+00	 0.00000000E+00
	 0.00000000E+00	 0.00000000E+00	 0.00000000E+00
	 0.00000000E+00	 0.00000000E+00	 0.00000000E+00
	 0.00000000E+00	 0.00000000E+00	 0.00000000E+00
	 0.00000000E+00	 0.00000000E+00	 0.00000000E+00
	 0.00000000E+00	 0.00000000E+00	 0.00000000E+00
	 0.00000000E+00	 0.00000000E+00	 0.00000000E+00
	 0.00000000E+00	 0.00000000E+00	 0.00000000E+00
	 0.00000000E+00	 0.00000000E+00	 0.00000000E+00
	 0.00000000E+00	 0.00000000E+00	 0.00000000E+00
	 0.00000000E+00	 0.00000000E+00	 0.00000000E+00
	 0.00000000E+00	 0.00000000E+00	 0.00000000E+00
	 0.00000000E+00	 0.00000000E+00	 0.00000000E+00
	 0.00000000E+00	 0.00000000E+00	 0.00000000E+00
	 0.00000000E+00	 0.00000000E+00	 0.00000000E+00
	 0.00000000E+00	 0.00000000E+00	 0.00000000E+00
	 0.00000000E+00	 0.00000000E+00	 0.00000000E+00
	 0.00000000E+00	 0.00000000E+00	 0.00000000E+00
	 0.00000000E+00	 0.00000000E+00	 0.00000000E+00
	 0.00000000E+00	 0.00000000E+00	 0.00000000E+00
	 0.00000000E+00	 0.00000000E+00	 0.00000000E+00
	 0.00000000E+00	 0.00000000E+00	 0.00000000E+00
	 0.00000000E+00	 0.00000000E+00	 0.00000000E+00
	 0.00000000E+00	 0.00000000E+00	 0.00000000E+00
	 0.00000000E+00	 0.00000000E+00	 0.00000000E+00
	 0.00000000E+00	 0.00000000E+00	 0.00000000E+00
	 0.00000000E+00	 0.00000000E+00	 0.00000000E+00
	 0.00000000E+00	 0.00000000E+00	 0.00000000E+00
	 0.00000000E+00	 0.00000000E+00	 0.00000000E+00
	 0.00000000E+00	 0.00000000E+00	 0.00000000E+00
	 0.00000000E+00	 0.00000000E+00	 0.00000000E+00
	 0.00000000E+00	 0.00000000E+00	 0.00000000E+00
	 0.00000000E+00	 0.00000000E+00	 0.00000000E+00
	 0.00000000E+00	 0.00000000E+00	 0.00000000E+00
	 0.00000000E+00	 0.00000000E+00	 0.00000000E+00
	 0.00000000E+00	 0.00000000E+00	 0.00000000E+00
	 0.00000000E+00	 0.00000000E+00	 0.00000000E+00
	 0.00000000E+00	 0.00000000E+00	 0.00000000E+00
	 0.00000000E+00	 0.00000000E+00	 0.00000000E+00
	 0.00000000E+00	 0.00000000E+00	 0.00000000E+00
	 0.00000000E+00	 0.00000000E+00	 0.00000000E+00
	 0.00000000E+00	 0.00000000E+00	 0.00000000E+00
	 0.00000000E+00	 0.00000000E+00	 0.00000000E+00
	 0.00000000E+00	 0.00000000E+00	 0.00000000E+00
	 0.00000000E+00	 0.00000000E+00	 0.00000000E+00
	 0.00000000E+00	 0.00000000E+00	 0.00000000E+00
	 0.00000000E+00	 0.00000000E+00	 0.00000000E+00
	 0.00000000E+00	 0.00000000E+00	 0.00000000E+00
	 0.00000000E+00	 0.00000000E+00	 0.00000000E+00
	 0.00000000E+00	 0.00000000E+00	 0.00000000E+00
	 0.00000000E+00	 0.00000000E+00	 0.00000000E+00
	 0.00000000E+00	 0.00000000E+00	 0.00000000E+00
	 0.00000000E+00	 0.00000000E+00	 0.00000000E+00
	 0.00000000E+00	 0.00000000E+00	 0.00000000E+00
	 0.00000000E+00	 0.00000000E+00	 0.00000000E+00
	 0.00000000E+00	 0.00000000E+00	 0.00000000E+00
	 0.00000000E+00	 0.00000000E+00	 0.00000000E+00
	 0.00000000E+00	 0.00000000E+00	 0.00000000E+00
	 0.00000000E+00	 0.00000000E+00	 0.00000000E+00
	 0.00000000E+00	 0.00000000E+00	 0.00000000E+00
	 0.00000000E+00	 0.00000000E+00	 0.00000000E+00
	 0.00000000E+00	 0.00000000E+00	 0.00000000E+00
	 0.00000000E+00	 0.00000000E+00	 0.00000000E+00
	 0.00000000E+00	 0.00000000E+00	 0.00000000E+00
	 0.00000000E+00	 0.00000000E+00	 0.00000000E+00
	 0.00000000E+00	 0.00000000E+00	 0.00000000E+00
	 0.00000000E+00	 0.00000000E+00	 0.00000000E+00
	 0.00000000E+00	 0.00000000E+00	 0.00000000E+00
	 0.00000000E+00	 0.00000000E+00	 0.00000000E+00
	 0.00000000E+00	 0.00000000E+00	 0.00000000E+00
	 0.00000000E+00	 0.00000000E+00	 0.00000000E+00
	 0.00000000E+00	 0.00000000E+00	 0.00000000E+00
	 0.00000000E+00	 0.00000000E+00	 0.00000000E+00
	 0.00000000E+00	 0.00000000E+00	 0.00000000E+00
	 0.00000000E+00	 0.00000000E+00	 0.00000000E+00
	 0.00000000E+00	 0.00000000E+00	 0.00000000E+00
	 0.00000000E+00	 0.00000000E+00	 0.00000000E+00
	 0.00000000E+00	 0.00000000E+00	 0.00000000E+00
	 0.00000000E+00	 0.00000000E+00	 0.00000000E+00
	 0.00000000E+00	 0.00000000E+00	 0.00000000E+00
	 0.00000000E+00	 0.00000000E+00	 0.00000000E+00
	 0.00000000E+00	 0.00000000E+00	 0.00000000E+00
	 0.00000000E+00	 0.00000000E+00	 0.00000000E+00
	 0.00000000E+00	 0.00000000E+00	 0.00000000E+00
	 0.00000000E+00	 0.00000000E+00	 0.00000000E+00
	 0.00000000E+00	 0.00000000E+00	 0.00000000E+00
	 0.00000000E+00	 0.00000000E+00	 0.00000000E+00
	 0.00000000E+00	 0.00000000E+00	 0.00000000E+00
	 0.00000000E+00	 0.00000000E+00	 0.00000000E+00
	 0.00000000E+00	 0.00000000E+00	 0.00000000E+00
	 0.00000000E+00	 0.00000000E+00	 0.00000000E+00
	 0.00000000E+00	 0.00000000E+00	 0.00000000E+00
	 0.00000000E+00	 0.00000000E+00	 0.00000000E+00
	 0.00000000E+00	 0.00000000E+00	 0.00000000E+00
	 0.00000000E+00	 0.00000000E+00	 0.00000000E+00
	 0.00000000E+00	 0.00000000E+00	 0.00000000E+00
	 0.00000000E+00	 0.00000000E+00	 0.00000000E+00
	 0.00000000E+00	 0.00000000E+00	 0.00000000E+00
	 0.00000000E+00	 0.00000000E+00	 0.00000000E+00
	 0.00000000E+00	 0.00000000E+00	 0.00000000E+00
	 0.00000000E+00	 0.00000000E+00	 0.00000000E+00
	 0.00000000E+00	 0.00000000E+00	 0.00000000E+00
	 0.00000000E+00	 0.00000000E+00	 0.00000000E+00
	 0.00000000E+00	 0.00000000E+00	 0.00000000E+00
	 0.00000000E+00	 0.00000000E+00	 0.00000000E+00
	 0.00000000E+00	 0.00000000E+00	 0.00000000E+00
	 0.00000000E+00	 0.00000000E+00	 0.00000000E+00
	 0.00000000E+00	 0.00000000E+00	 0.00000000E+00
	 0.00000000E+00	 0.00000000E+00	 0.00000000E+00
	 0.00000000E+00	 0.00000000E+00	 0.00000000E+00
	 0.00000000E+00	 0.00000000E+00	 0.00000000E+00
	 0.00000000E+00	 0.00000000E+00	 0.00000000E+00
	 0.00000000E+00	 0.00000000E+00	 0.00000000E+00
	 0.00000000E+00	 0.00000000E+00	 0.00000000E+00
	 0.00000000E+00	 0.00000000E+00	 0.00000000E+00
	 0.00000000E+00	 0.00000000E+00	 0.00000000E+00
	 0.00000000E+00	 0.00000000E+00	 0.00000000E+00
	 0.00000000E+00	 0.00000000E+00	 0.00000000E+00
	 0.00000000E+00	 0.00000000E+00	 0.00000000E+00
	 0.00000000E+00	 0.00000000E+00	 0.00000000E+00
	 0.00000000E+00	 0.00000000E+00	 0.00000000E+00
	 0.00000000E+00	 0.00000000E+00	 0.00000000E+00
	 0.00000000E+00	 0.00000000E+00	 0.00000000E+00
	 0.00000000E+00	 0.00000000E+00	 0.00000000E+00
	 0.00000000E+00	 0.00000000E+00	 0.00000000E+00
	 0.00000000E+00	 0.00000000E+00	 0.00000000E+00
	 0.00000000E+00	 0.00000000E+00	 0.00000000E+00
	 0.00000000E+00	 0.00000000E+00	 0.00000000E+00
	 0.00000000E+00	 0.00000000E+00	 0.00000000E+00
	 0.00000000E+00	 0.00000000E+00	 0.00000000E+00
	 0.00000000E+00	 0.00000000E+00	 0.00000000E+00
	 0.00000000E+00	 0.00000000E+00	 0.00000000E+00
	 0.00000000E+00	 0.00000000E+00	 0.00000000E+00
	 0.00000000E+00	 0.00000000E+00	 0.00000000E+00
	 0.00000000E+00	 0.00000000E+00	 0.00000000E+00
	 0.00000000E+00	 0.00000000E+00	 0.00000000E+00
	 0.00000000E+00	 0.00000000E+00	 0.00000000E+00
	 0.00000000E+00	 0.00000000E+00	 0.00000000E+00
	 0.00000000E+00	 0.00000000E+00	 0.00000000E+00
	 0.00000000E+00	 0.00000000E+00	 0.00000000E+00
	 0.00000000E+00	 0.00000000E+00	 0.00000000E+00
	 0.00000000E+00	 0.00000000E+00	 0.00000000E+00
	 0.00000000E+00	 0.00000000E+00	 0.00000000E+00
	 0.00000000E+00	 0.00000000E+00	 0.00000000E+00
	 0.00000000E+00	 0.00000000E+00	 0.00000000E+00
	 0.00000000E+00	 0.00000000E+00	 0.00000000E+00
	 0.00000000E+00	 0.00000000E+00	 0.00000000E+00
	 0.00000000E+00	 0.00000000E+00	 0.00000000E+00
	 0.00000000E+00	 0.00000000E+00	 0.00000000E+00
	 0.00000000E+00	 0.00000000E+00	 0.00000000E+00
	 0.00000000E+00	 0.00000000E+00	 0.00000000E+00
	 0.00000000E+00	 0.00000000E+00	 0.00000000E+00
	 0.00000000E+00	 0.00000000E+00	 0.00000000E+00
	 0.00000000E+00	 0.00000000E+00	 0.00000000E+00
	 0.00000000E+00	 0.00000000E+00	 0.00000000E+00
	 0.00000000E+00	 0.00000000E+00	 0.00000000E+00
	 0.00000000E+00	 0.00000000E+00	 0.00000000E+00
	 0.00000000E+00	 0.00000000E+00	 0.00000000E+00
	 0.00000000E+00	 0.00000000E+00	 0.00000000E+00
	 0.00000000E+00	 0.00000000E+00	 0.00000000E+00
	 0.00000000E+00	 0.00000000E+00	 0.00000000E+00
	 0.00000000E+00	 0.00000000E+00	 0.00000000E+00
	 0.00000000E+00	 0.00000000E+00	 0.00000000E+00
	 0.00000000E+00	 0.00000000E+00	 0.00000000E+00
	 0.00000000E+00	 0.00000000E+00	 0.00000000E+00
	 0.00000000E+00	 0.00000000E+00	 0.00000000E+00
	 0.00000000E+00	 0.00000000E+00	 0.00000000E+00
	 0.00000000E+00	 0.00000000E+00	 0.00000000E+00
	 0.00000000E+00	 0.00000000E+00	 0.00000000E+00
	 0.00000000E+00	 0.00000000E+00	 0.00000000E+00
	 0.00000000E+00	 0.00000000E+00	 0.00000000E+00
	 0.00000000E+00	 0.00000000E+00	 0.00000000E+00
	 0.00000000E+00	 0.00000000E+00	 0.00000000E+00
	 0.00000000E+00	 0.00000000E+00	 0.00000000E+00
	 0.00000000E+00	 0.00000000E+00	 0.00000000E+00
	 0.00000000E+00	 0.00000000E+00	 0.00000000E+00
	 0.00000000E+00	 0.00000000E+00	 0.00000000E+00
	 0.00000000E+00	 0.00000000E+00	 0.00000000E+00
	 0.00000000E+00	 0.00000000E+00	 0.00000000E+00
	 0.00000000E+00	 0.00000000E+00	 0.00000000E+00
	 0.00000000E+00	 0.00000000E+00	 0.00000000E+00
	 0.00000000E+00	 0.00000000E+00	 0.00000000E+00
	 0.00000000E+00	 0.00000000E+00	 0.00000000E+00
	 0.00000000E+00	 0.00000000E+00	 0.00000000E+00
	 0.00000000E+00	 0.00000000E+00	 0.00000000E+00
	 0.00000000E+00	 0.00000000E+00	 0.00000000E+00
	 0.00000000E+00	 0.00000000E+00	 0.00000000E+00
	 0.00000000E+00	 0.00000000E+00	 0.00000000E+00
	 0.00000000E+00	 0.00000000E+00	 0.00000000E+00
	 0.00000000E+00	 0.00000000E+00	 0.00000000E+00
	 0.00000000E+00	 0.00000000E+00	 0.00000000E+00
	 0.00000000E+00	 0.00000000E+00	 0.00000000E+00
	 0.00000000E+00	 0.00000000E+00	 0.00000000E+00
	 0.00000000E+00	 0.00000000E+00	 0.00000000E+00
	 0.00000000E+00	 0.00000000E+00	 0.00000000E+00
	 0.00000000E+00	 0.00000000E+00	 0.00000000E+00
	 0.00000000E+00	 0.00000000E+00	 0.00000000E+00
	 0.00000000E+00	 0.00000000E+00	 0.00000000E+00
	 0.00000000E+00	 0.00000000E+00	 0.00000000E+00
	 0.00000000E+00	 0.00000000E+00	 0.00000000E+00
	 0.00000000E+00	 0.00000000E+00	 0.00000000E+00
	 0.00000000E+00	 0.00000000E+00	 0.00000000E+00
	 0.00000000E+00	 0.00000000E+00	 0.00000000E+00
	 0.00000000E+00	 0.00000000E+00	 0.00000000E+00
	 0.00000000E+00	 0.00000000E+00	 0.00000000E+00
	 0.00000000E+00	 0.00000000E+00	 0.00000000E+00
	 0.00000000E+00	 0.00000000E+00	 0.00000000E+00
	 0.00000000E+00	 0.00000000E+00	 0.00000000E+00
	 0.00000000E+00	 0.00000000E+00	 0.00000000E+00
	 0.00000000E+00	 0.00000000E+00	 0.00000000E+00
	 0.00000000E+00	 0.00000000E+00	 0.00000000E+00
	 0.00000000E+00	 0.00000000E+00	 0.00000000E+00
	 0.00000000E+00	 0.00000000E+00	 0.00000000E+00
	 0.00000000E+00	 0.00000000E+00	 0.00000000E+00
	 0.00000000E+00	 0.00000000E+00	 0.00000000E+00
	 0.00000000E+00	 0.00000000E+00	 0.00000000E+00
	 0.00000000E+00	 0.00000000E+00	 0.00000000E+00
	 0.00000000E+00	 0.00000000E+00	 0.00000000E+00
	 0.00000000E+00	 0.00000000E+00	 0.00000000E+00
	 0.00000000E+00	 0.00000000E+00	 0.00000000E+00
	 0.00000000E+00	 0.00000000E+00	 0.00000000E+00
	 0.00000000E+00	 0.00000000E+00	 0.00000000E+00
	 0.00000000E+00	 0.00000000E+00	 0.00000000E+00
	 0.00000000E+00	 0.00000000E+00	 0.00000000E+00
	 0.00000000E+00	 0.00000000E+00	 0.00000000E+00
	 0.00000000E+00	 0.00000000E+00	 0.00000000E+00
	 0.00000000E+00	 0.00000000E+00	 0.00000000E+00
	 0.00000000E+00	 0.00000000E+00	 0.00000000E+00
	 0.00000000E+00	 0.00000000E+00	 0.00000000E+00
	 0.00000000E+00	 0.00000000E+00	 0.00000000E+00
	 0.00000000E+00	 0.00000000E+00	 0.00000000E+00
	 0.00000000E+00	 0.00000000E+00	 0.00000000E+00
	 0.00000000E+00	 0.00000000E+00	 0.00000000E+00
	 0.00000000E+00	 0.00000000E+00	 0.00000000E+00
	 0.00000000E+00	 0.00000000E+00	 0.00000000E+00
	 0.00000000E+00	 0.00000000E+00	 0.00000000E+00
	 0.00000000E+00	 0.00000000E+00	 0.00000000E+00
	 0.00000000E+00	 0.00000000E+00	 0.00000000E+00
	 0.00000000E+00	 0.00000000E+00	 0.00000000E+00
	 0.00000000E+00	 0.00000000E+00	 0.00000000E+00
	 0.00000000E+00	 0.00000000E+00	 0.00000000E+00
	 0.00000000E+00	 0.00000000E+00	 0.00000000E+00
	 0.00000000E+00	 0.00000000E+00	 0.00000000E+00
	 0.00000000E+00	 0.00000000E+00	 0.00000000E+00
	 0.00000000E+00	 0.00000000E+00	 0.00000000E+00
	 0.00000000E+00	 0.00000000E+00	 0.00000000E+00
	 0.00000000E+00	 0.00000000E+00	 0.00000000E+00
	 0.00000000E+00	 0.00000000E+00	 0.00000000E+00
	 0.00000000E+00	 0.00000000E+00	 0.00000000E+00
	 0.00000000E+00	 0.00000000E+00	 0.00000000E+00
	 0.00000000E+00	 0.00000000E+00	 0.00000000E+00
	 0.00000000E+00	 0.00000000E+00	 0.00000000E+00
	 0.00000000E+00	 0.00000000E+00	 0.00000000E+00
	 0.00000000E+00	 0.00000000E+00	 0.00000000E+00
	 0.00000000E+00	 0.00000000E+00	 0.00000000E+00
	 0.00000000E+00	 0.00000000E+00	 0.00000000E+00
	 0.00000000E+00	 0.00000000E+00	 0.00000000E+00
	 0.00000000E+00	 0.00000000E+00	 0.00000000E+00
	 0.00000000E+00	 0.00000000E+00	 0.00000000E+00
	 0.00000000E+00	 0.00000000E+00	 0.00000000E+00
	 0.00000000E+00	 0.00000000E+00	 0.00000000E+00
	 0.00000000E+00	 0.00000000E+00	 0.00000000E+00
	 0.00000000E+00	 0.00000000E+00	 0.00000000E+00
	 0.00000000E+00	 0.00000000E+00	 0.00000000E+00
	 0.00000000E+00	 0.00000000E+00	 0.00000000E+00
	 0.00000000E+00	 0.00000000E+00	 0.00000000E+00
	 0.00000000E+00	 0.00000000E+00	 0.00000000E+00
	 0.00000000E+00	 0.00000000E+00	 0.00000000E+00
	 0.00000000E+00	 0.00000000E+00	 0.00000000E+00
	 0.00000000E+00	 0.00000000E+00	 0.00000000E+00
	 0.00000000E+00	 0.00000000E+00	 0.00000000E+00
	 0.00000000E+00	 0.00000000E+00	 0.00000000E+00
	 0.00000000E+00	 0.00000000E+00	 0.00000000E+00
	 0.00000000E+00	 0.00000000E+00	 0.00000000E+00
	 0.00000000E+00	 0.00000000E+00	 0.00000000E+00
	 0.00000000E+00	 0.00000000E+00	 0.00000000E+00
	 0.00000000E+00	 0.00000000E+00	 0.00000000E+00
	 0.00000000E+00	 0.00000000E+00	 0.00000000E+00
	 0.00000000E+00	 0.00000000E+00	 0.00000000E+00
	 0.00000000E+00	 0.00000000E+00	 0.00000000E+00
	 0.00000000E+00	 0.00000000E+00	 0.00000000E+00
	 0.00000000E+00	 0.00000000E+00	 0.00000000E+00
	 0.00000000E+00	 0.00000000E+00	 0.00000000E+00
	 0.00000000E+00	 0.00000000E+00	 0.00000000E+00
	 0.00000000E+00	 0.00000000E+00	 0.00000000E+00
	 0.00000000E+00	 0.00000000E+00	 0.00000000E+00
	 0.00000000E+00	 0.00000000E+00	 0.00000000E+00
	 0.00000000E+00	 0.00000000E+00	 0.00000000E+00
	 0.00000000E+00	 0.00000000E+00	 0.00000000E+00
	 0.00000000E+00	 0.00000000E+00	 0.00000000E+00
	 0.00000000E+00	 0.00000000E+00	 0.00000000E+00
	 0.00000000E+00	 0.00000000E+00	 0.00000000E+00
	 0.00000000E+00	 0.00000000E+00	 0.00000000E+00
	 0.00000000E+00	 0.00000000E+00	 0.00000000E+00
	 0.00000000E+00	 0.00000000E+00	 0.00000000E+00
	 0.00000000E+00	 0.00000000E+00	 0.00000000E+00
	 0.00000000E+00	 0.00000000E+00	 0.00000000E+00
	 0.00000000E+00	 0.00000000E+00	 0.00000000E+00
	 0.00000000E+00	 0.00000000E+00	 0.00000000E+00
	 0.00000000E+00	 0.00000000E+00	 0.00000000E+00
	 0.00000000E+00	 0.00000000E+00	 0.00000000E+00
	 0.00000000E+00	 0.00000000E+00	 0.00000000E+00
	 0.00000000E+00	 0.00000000E+00	 0.00000000E+00
	 0.00000000E+00	 0.00000000E+00	 0.00000000E+00
	 0.00000000E+00	 0.00000000E+00	 0.00000000E+00
	 0.00000000E+00	 0.00000000E+00	 0.00000000E+00
	 0.00000000E+00	 0.00000000E+00	 0.00000000E+00
	 0.00000000E+00	 0.00000000E+00	 0.00000000E+00
	 0.00000000E+00	 0.00000000E+00	 0.00000000E+00
	 0.00000000E+00	 0.00000000E+00	 0.00000000E+00
	 0.00000000E+00	 0.00000000E+00	 0.00000000E+00
	 0.00000000E+00	 0.00000000E+00	 0.00000000E+00
	 0.00000000E+00	 0.00000000E+00	 0.00000000E+00
	 0.00000000E+00	 0.00000000E+00	 0.00000000E+00
	 0.00000000E+00	 0.00000000E+00	 0.00000000E+00
	 0.00000000E+00	 0.00000000E+00	 0.00000000E+00
	 0.00000000E+00	 0.00000000E+00	 0.00000000E+00
	 0.00000000E+00	 0.00000000E+00	 0.00000000E+00
	 0.00000000E+00	 0.00000000E+00	 0.00000000E+00
	 0.00000000E+00	 0.00000000E+00	 0.00000000E+00
	 0.00000000E+00	 0.00000000E+00	 0.00000000E+00
	 0.00000000E+00	 0.00000000E+00	 0.00000000E+00
	 0.00000000E+00	 0.00000000E+00	 0.00000000E+00
	 0.00000000E+00	 0.00000000E+00	 0.00000000E+00
	 0.00000000E+00	 0.00000000E+00	 0.00000000E+00
	 0.00000000E+00	 0.00000000E+00	 0.00000000E+00
	 0.00000000E+00	 0.00000000E+00	 0.00000000E+00
	 0.00000000E+00	 0.00000000E+00	 0.00000000E+00
	 0.00000000E+00	 0.00000000E+00	 0.00000000E+00
	 0.00000000E+00	 0.00000000E+00	 0.00000000E+00
	 0.00000000E+00	 0.00000000E+00	 0.00000000E+00
	 0.00000000E+00	 0.00000000E+00	 0.00000000E+00
	 0.00000000E+00	 0.00000000E+00	 0.00000000E+00
	 0.00000000E+00	 0.00000000E+00	 0.00000000E+00
	 0.00000000E+00	 0.00000000E+00	 0.00000000E+00
	 0.00000000E+00	 0.00000000E+00	 0.00000000E+00
	 0.00000000E+00	 0.00000000E+00	 0.00000000E+00
	 0.00000000E+00	 0.00000000E+00	 0.00000000E+00
	 0.00000000E+00	 0.00000000E+00	 0.00000000E+00
	 0.00000000E+00	 0.00000000E+00	 0.00000000E+00
	 0.00000000E+00	 0.00000000E+00	 0.00000000E+00
	 0.00000000E+00	 0.00000000E+00	 0.00000000E+00
	 0.00000000E+00	 0.00000000E+00	 0.00000000E+00
	 0.00000000E+00	 0.00000000E+00	 0.00000000E+00
	 0.00000000E+00	 0.00000000E+00	 0.00000000E+00
	 0.00000000E+00	 0.00000000E+00	 0.00000000E+00
	 0.00000000E+00	 0.00000000E+00	 0.00000000E+00
	 0.00000000E+00	 0.00000000E+00	 0.00000000E+00
	 0.00000000E+00	 0.00000000E+00	 0.00000000E+00
	 0.00000000E+00	 0.00000000E+00	 0.00000000E+00
	 0.00000000E+00	 0.00000000E+00	 0.00000000E+00
	 0.00000000E+00	 0.00000000E+00	 0.00000000E+00
	 0.00000000E+00	 0.00000000E+00	 0.00000000E+00
	 0.00000000E+00	 0.00000000E+00	 0.00000000E+00
	 0.00000000E+00	 0.00000000E+00	 0.00000000E+00
	 0.00000000E+00	 0.00000000E+00	 0.00000000E+00
	 0.00000000E+00	 0.00000000E+00	 0.00000000E+00
	 0.00000000E+00	 0.00000000E+00	 0.00000000E+00
	 0.00000000E+00	 0.00000000E+00	 0.00000000E+00
	 0.00000000E+00	 0.00000000E+00	 0.00000000E+00
	 0.00000000E+00	 0.00000000E+00	 0.00000000E+00
	 0.00000000E+00	 0.00000000E+00	 0.00000000E+00
	 0.00000000E+00	 0.00000000E+00	 0.00000000E+00
	 0.00000000E+00	 0.00000000E+00	 0.00000000E+00
	 0.00000000E+00	 0.00000000E+00	 0.00000000E+00
	 0.00000000E+00	 0.00000000E+00	 0.00000000E+00
	 0.00000000E+00	 0.00000000E+00	 0.00000000E+00
	 0.00000000E+00	 0.00000000E+00	 0.00000000E+00
	 0.00000000E+00	 0.00000000E+00	 0.00000000E+00
	 0.00000000E+00	 0.00000000E+00	 0.00000000E+00
	 0.00000000E+00	 0.00000000E+00	 0.00000000E+00
	 0.00000000E+00	 0.00000000E+00	 0.00000000E+00
	 0.00000000E+00	 0.00000000E+00	 0.00000000E+00
	 0.00000000E+00	 0.00000000E+00	 0.00000000E+00
	 0.00000000E+00	 0.00000000E+00	 0.00000000E+00
	 0.00000000E+00	 0.00000000E+00	 0.00000000E+00
	 0.00000000E+00	 0.00000000E+00	 0.00000000E+00
	 0.00000000E+00	 0.00000000E+00	 0.00000000E+00
	 0.00000000E+00	 0.00000000E+00	 0.00000000E+00
	 0.00000000E+00	 0.00000000E+00	 0.00000000E+00
	 0.00000000E+00	 0.00000000E+00	 0.00000000E+00
	 0.00000000E+00	 0.00000000E+00	 0.00000000E+00
	 0.00000000E+00	 0.00000000E+00	 0.00000000E+00
	 0.00000000E+00	 0.00000000E+00	 0.00000000E+00
	 0.00000000E+00	 0.00000000E+00	 0.00000000E+00
	 0.00000000E+00	 0.00000000E+00	 0.00000000E+00
	 0.00000000E+00	 0.00000000E+00	 0.00000000E+00
	 0.00000000E+00	 0.00000000E+00	 0.00000000E+00
	 0.00000000E+00	 0.00000000E+00	 0.00000000E+00
	 0.00000000E+00	 0.00000000E+00	 0.00000000E+00
	 0.00000000E+00	 0.00000000E+00	 0.00000000E+00
	 0.00000000E+00	 0.00000000E+00	 0.00000000E+00
	 0.00000000E+00	 0.00000000E+00	 0.00000000E+00
	 0.00000000E+00	 0.00000000E+00	 0.00000000E+00
	 0.00000000E+00	 0.00000000E+00	 0.00000000E+00
	 0.00000000E+00	 0.00000000E+00	 0.00000000E+00
	 0.00000000E+00	 0.00000000E+00	 0.00000000E+00
	 0.00000000E+00	 0.00000000E+00	 0.00000000E+00
	 0.00000000E+00	 0.00000000E+00	 0.00000000E+00
	 0.00000000E+00	 0.00000000E+00	 0.00000000E+00
	 0.00000000E+00	 0.00000000E+00	 0.00000000E+00
	 0.00000000E+00	 0.00000000E+00	 0.00000000E+00
	 0.00000000E+00	 0.00000000E+00	 0.00000000E+00
	 0.00000000E+00	 0.00000000E+00	 0.00000000E+00
	 0.00000000E+00	 0.00000000E+00	 0.00000000E+00
	 0.00000000E+00	 0.00000000E+00	 0.00000000E+00
	 0.00000000E+00	 0.00000000E+00	 0.00000000E+00
	 0.00000000E+00	 0.00000000E+00	 0.00000000E+00
	 0.00000000E+00	 0.00000000E+00	 0.00000000E+00
	 0.00000000E+00	 0.00000000E+00	 0.00000000E+00
	 0.00000000E+00	 0.00000000E+00	 0.00000000E+00
	 0.00000000E+00	 0.00000000E+00	 0.00000000E+00
	 0.00000000E+00	 0.00000000E+00	 0.00000000E+00
	 0.00000000E+00	 0.00000000E+00	 0.00000000E+00
	 0.00000000E+00	 0.00000000E+00	 0.00000000E+00
	 0.00000000E+00	 0.00000000E+00	 0.00000000E+00
	 0.00000000E+00	 0.00000000E+00	 0.00000000E+00
	 0.00000000E+00	 0.00000000E+00	 0.00000000E+00
	 0.00000000E+00	 0.00000000E+00	 0.00000000E+00
	 0.00000000E+00	 0.00000000E+00	 0.00000000E+00
	 0.00000000E+00	 0.00000000E+00	 0.00000000E+00
	 0.00000000E+00	 0.00000000E+00	 0.00000000E+00
	 0.00000000E+00	 0.00000000E+00	 0.00000000E+00
	 0.00000000E+00	 0.00000000E+00	 0.00000000E+00
	 0.00000000E+00	 0.00000000E+00	 0.00000000E+00
	 0.00000000E+00	 0.00000000E+00	 0.00000000E+00
	 0.00000000E+00	 0.00000000E+00	 0.00000000E+00
	 0.00000000E+00	 0.00000000E+00	 0.00000000E+00
	 0.00000000E+00	 0.00000000E+00	 0.00000000E+00
	 0.00000000E+00	 0.00000000E+00	 0.00000000E+00
	 0.00000000E+00	 0.00000000E+00	 0.00000000E+00
	 0.00000000E+00	 0.00000000E+00	 0.00000000E+00
	 0.00000000E+00	 0.00000000E+00	 0.00000000E+00
	 0.00000000E+00	 0.00000000E+00	 0.00000000E+00
	 0.00000000E+00	 0.00000000E+00	 0.00000000E+00
	 0.00000000E+00	 0.00000000E+00	 0.00000000E+00
	 0.00000000E+00	 0.00000000E+00	 0.00000000E+00
	 0.00000000E+00	 0.00000000E+00	 0.00000000E+00
	 0.00000000E+00	 0.00000000E+00	 0.00000000E+00
	 0.00000000E+00	 0.00000000E+00	 0.00000000E+00
	 0.00000000E+00	 0.00000000E+00	 0.00000000E+00
	 0.00000000E+00	 0.00000000E+00	 0.00000000E+00
	 0.00000000E+00	 0.00000000E+00	 0.00000000E+00
	 0.00000000E+00	 0.00000000E+00	 0.00000000E+00
	 0.00000000E+00	 0.00000000E+00	 0.00000000E+00
	 0.00000000E+00	 0.00000000E+00	 0.00000000E+00
	 0.00000000E+00	 0.00000000E+00	 0.00000000E+00
	 0.00000000E+00	 0.00000000E+00	 0.00000000E+00
	 0.00000000E+00	 0.00000000E+00	 0.00000000E+00
	 0.00000000E+00	 0.00000000E+00	 0.00000000E+00
	 0.00000000E+00	 0.00000000E+00	 0.00000000E+00
	 0.00000000E+00	 0.00000000E+00	 0.00000000E+00
	 0.00000000E+00	 0.00000000E+00	 0.00000000E+00
	 0.00000000E+00	 0.00000000E+00	 0.00000000E+00
	 0.00000000E+00	 0.00000000E+00	 0.00000000E+00
	 0.00000000E+00	 0.00000000E+00	 0.00000000E+00
	 0.00000000E+00	 0.00000000E+00	 0.00000000E+00
	 0.00000000E+00	 0.00000000E+00	 0.00000000E+00
	 0.00000000E+00	 0.00000000E+00	 0.00000000E+00
	 0.00000000E+00	 0.00000000E+00	 0.00000000E+00
	 0.00000000E+00	 0.00000000E+00	 0.00000000E+00
	 0.00000000E+00	 0.00000000E+00	 0.00000000E+00
	 0.00000000E+00	 0.00000000E+00	 0.00000000E+00
	 0.00000000E+00	 0.00000000E+00	 0.00000000E+00
	 0.00000000E+00	 0.00000000E+00	 0.00000000E+00
	 0.00000000E+00	 0.00000000E+00	 0.00000000E+00
	 0.00000000E+00	 0.00000000E+00	 0.00000000E+00
	 0.00000000E+00	 0.00000000E+00	 0.00000000E+00
	 0.00000000E+00	 0.00000000E+00	 0.00000000E+00
	 0.00000000E+00	 0.00000000E+00	 0.00000000E+00
	 0.00000000E+00	 0.00000000E+00	 0.00000000E+00
	 0.00000000E+00	 0.00000000E+00	 0.00000000E+00
	 0.00000000E+00	 0.00000000E+00	 0.00000000E+00
	 0.00000000E+00	 0.00000000E+00	 0.00000000E+00
	 0.00000000E+00	 0.00000000E+00	 0.00000000E+00
	 0.00000000E+00	 0.00000000E+00	 0.00000000E+00
	 0.00000000E+00	 0.00000000E+00	 0.00000000E+00
	 0.00000000E+00	 0.00000000E+00	 0.00000000E+00
	 0.00000000E+00	 0.00000000E+00	 0.00000000E+00
	 0.00000000E+00	 0.00000000E+00	 0.00000000E+00
	 0.00000000E+00	 0.00000000E+00	 0.00000000E+00
	 0.00000000E+00	 0.00000000E+00	 0.00000000E+00
	 0.00000000E+00	 0.00000000E+00	 0.00000000E+00
	 0.00000000E+00	 0.00000000E+00	 0.00000000E+00
	 0.00000000E+00	 0.00000000E+00	 0.00000000E+00
	 0.00000000E+00	 0.00000000E+00	 0.00000000E+00
	 0.00000000E+00	 0.00000000E+00	 0.00000000E+00
	 0.00000000E+00	 0.00000000E+00	 0.00000000E+00
	 0.00000000E+00	 0.00000000E+00	 0.00000000E+00
	 0.00000000E+00	 0.00000000E+00	 0.00000000E+00
	 0.00000000E+00	 0.00000000E+00	 0.00000000E+00
	 0.00000000E+00	 0.00000000E+00	 0.00000000E+00
	 0.00000000E+00	 0.00000000E+00	 0.00000000E+00
	 0.00000000E+00	 0.00000000E+00	 0.00000000E+00
	 0.00000000E+00	 0.00000000E+00	 0.00000000E+00
	 0.00000000E+00	 0.00000000E+00	 0.00000000E+00
	 0.00000000E+00	 0.00000000E+00	 0.00000000E+00
	 0.00000000E+00	 0.00000000E+00	 0.00000000E+00
	 0.00000000E+00	 0.00000000E+00	 0.00000000E+00
	 0.00000000E+00	 0.00000000E+00	 0.00000000E+00
	 0.00000000E+00	 0.00000000E+00	 0.00000000E+00
	 0.00000000E+00	 0.00000000E+00	 0.00000000E+00
	 0.00000000E+00	 0.00000000E+00	 0.00000000E+00
	 0.00000000E+00	 0.00000000E+00	 0.00000000E+00
	 0.00000000E+00	 0.00000000E+00	 0.00000000E+00
	 0.00000000E+00	 0.00000000E+00	 0.00000000E+00
	 0.00000000E+00	 0.00000000E+00	 0.00000000E+00
	 0.00000000E+00	 0.00000000E+00	 0.00000000E+00
	 0.00000000E+00	 0.00000000E+00	 0.00000000E+00
	 0.00000000E+00	 0.00000000E+00	 0.00000000E+00
	 0.00000000E+00	 0.00000000E+00	 0.00000000E+00
	 0.00000000E+00	 0.00000000E+00	 0.00000000E+00
	 0.00000000E+00	 0.00000000E+00	 0.00000000E+00
	 0.00000000E+00	 0.00000000E+00	 0.00000000E+00
	 0.00000000E+00	 0.00000000E+00	 0.00000000E+00
	 0.00000000E+00	 0.00000000E+00	 0.00000000E+00
	 0.00000000E+00	 0.00000000E+00	 0.00000000E+00
	 0.00000000E+00	 0.00000000E+00	 0.00000000E+00
	 0.00000000E+00	 0.00000000E+00	 0.00000000E+00
	 0.00000000E+00	 0.00000000E+00	 0.00000000E+00
	 0.00000000E+00	 0.00000000E+00	 0.00000000E+00
	 0.00000000E+00	 0.00000000E+00	 0.00000000E+00
	 0.00000000E+00	 0.00000000E+00	 0.00000000E+00
	 0.00000000E+00	 0.00000000E+00	 0.00000000E+00
	 0.00000000E+00	 0.00000000E+00	 0.00000000E+00
	 0.00000000E+00	 0.00000000E+00	 0.00000000E+00
	 0.00000000E+00	 0.00000000E+00	 0.00000000E+00
	 0.00000000E+00	 0.00000000E+00	 0.00000000E+00
	 0.00000000E+00	 0.00000000E+00	 0.00000000E+00
	 0.00000000E+00	 0.00000000E+00	 0.00000000E+00
	 0.00000000E+00	 0.00000000E+00	 0.00000000E+00
	 0.00000000E+00	 0.00000000E+00	 0.00000000E+00
	 0.00000000E+00	 0.00000000E+00	 0.00000000E+00
	 0.00000000E+00	 0.00000000E+00	 0.00000000E+00
	 0.00000000E+00	 0.00000000E+00	 0.00000000E+00
	 0.00000000E+00	 0.00000000E+00	 0.00000000E+00
	 0.00000000E+00	 0.00000000E+00	 0.00000000E+00
	 0.00000000E+00	 0.00000000E+00	 0.00000000E+00
	 0.00000000E+00	 0.00000000E+00	 0.00000000E+00
	 0.00000000E+00	 0.00000000E+00	 0.00000000E+00
	 0.00000000E+00	 0.00000000E+00	 0.00000000E+00
	 0.00000000E+00	 0.00000000E+00	 0.00000000E+00
	 0.00000000E+00	 0.00000000E+00	 0.00000000E+00
	 0.00000000E+00	 0.00000000E+00	 0.00000000E+00
	 0.00000000E+00	 0.00000000E+00	 0.00000000E+00
	 0.00000000E+00	 0.00000000E+00	 0.00000000E+00
	 0.00000000E+00	 0.00000000E+00	 0.00000000E+00
	 0.00000000E+00	 0.00000000E+00	 0.00000000E+00
	 0.00000000E+00	 0.00000000E+00	 0.00000000E+00
	 0.00000000E+00	 0.00000000E+00	 0.00000000E+00
	 0.00000000E+00	 0.00000000E+00	 0.00000000E+00
	 0.00000000E+00	 0.00000000E+00	 0.00000000E+00
	 0.00000000E+00	 0.00000000E+00	 0.00000000E+00
	 0.00000000E+00	 0.00000000E+00	 0.00000000E+00
	 0.00000000E+00	 0.00000000E+00	 0.00000000E+00
	 0.00000000E+00	 0.00000000E+00	 0.00000000E+00
	 0.00000000E+00	 0.00000000E+00	 0.00000000E+00
	 0.00000000E+00	 0.00000000E+00	 0.00000000E+00
	 0.00000000E+00	 0.00000000E+00	 0.00000000E+00
	 0.00000000E+00	 0.00000000E+00	 0.00000000E+00
	 0.00000000E+00	 0.00000000E+00	 0.00000000E+00
	 0.00000000E+00	 0.00000000E+00	 0.00000000E+00
	 0.00000000E+00	 0.00000000E+00	 0.00000000E+00
	 0.00000000E+00	 0.00000000E+00	 0.00000000E+00
	 0.00000000E+00	 0.00000000E+00	 0.00000000E+00
	 0.00000000E+00	 0.00000000E+00	 0.00000000E+00
	 0.00000000E+00	 0.00000000E+00	 0.00000000E+00
	 0.00000000E+00	 0.00000000E+00	 0.00000000E+00
	 0.00000000E+00	 0.00000000E+00	 0.00000000E+00
	 0.00000000E+00	 0.00000000E+00	 0.00000000E+00
	 0.00000000E+00	 0.00000000E+00	 0.00000000E+00
	 0.00000000E+00	 0.00000000E+00	 0.00000000E+00
	 0.00000000E+00	 0.00000000E+00	 0.00000000E+00
	 0.00000000E+00	 0.00000000E+00	 0.00000000E+00
	 0.00000000E+00	 0.00000000E+00	 0.00000000E+00
	 0.00000000E+00	 0.00000000E+00	 0.00000000E+00
	 0.00000000E+00	 0.00000000E+00	 0.00000000E+00
	 0.00000000E+00	 0.00000000E+00	 0.00000000E+00
	 0.00000000E+00	 0.00000000E+00	 0.00000000E+00
	 0.00000000E+00	 0.00000000E+00	 0.00000000E+00
	 0.00000000E+00	 0.00000000E+00	 0.00000000E+00
	 0.00000000E+00	 0.00000000E+00	 0.00000000E+00
	 0.00000000E+00	 0.00000000E+00	 0.00000000E+00
	 0.00000000E+00	 0.00000000E+00	 0.00000000E+00
	 0.00000000E+00	 0.00000000E+00	 0.00000000E+00
	 0.00000000E+00	 0.00000000E+00	 0.00000000E+00
	 0.00000000E+00	 0.00000000E+00	 0.00000000E+00
	 0.00000000E+00	 0.00000000E+00	 0.00000000E+00
	 0.00000000E+00	 0.00000000E+00	 0.00000000E+00
	 0.00000000E+00	 0.00000000E+00	 0.00000000E+00
	 0.00000000E+00	 0.00000000E+00	 0.00000000E+00
	 0.00000000E+00	 0.00000000E+00	 0.00000000E+00
	 0.00000000E+00	 0.00000000E+00	 0.00000000E+00
	 0.00000000E+00	 0.00000000E+00	 0.00000000E+00
	 0.00000000E+00	 0.00000000E+00	 0.00000000E+00
	 0.00000000E+00	 0.00000000E+00	 0.00000000E+00
	 0.00000000E+00	 0.00000000E+00	 0.00000000E+00
	 0.00000000E+00	 0.00000000E+00	 0.00000000E+00
	 0.00000000E+00	 0.00000000E+00	 0.00000000E+00
	 0.00000000E+00	 0.00000000E+00	 0.00000000E+00
	 0.00000000E+00	 0.00000000E+00	 0.00000000E+00
	 0.00000000E+00	 0.00000000E+00	 0.00000000E+00
	 0.00000000E+00	 0.00000000E+00	 0.00000000E+00
	 0.00000000E+00	 0.00000000E+00	 0.00000000E+00
	 0.00000000E+00	 0.00000000E+00	 0.00000000E+00
	 0.00000000E+00	 0.00000000E+00	 0.00000000E+00
	 0.00000000E+00	 0.00000000E+00	 0.00000000E+00
	 0.00000000E+00	 0.00000000E+00	 0.00000000E+00
	 0.00000000E+00	 0.00000000E+00	 0.00000000E+00
	 0.00000000E+00	 0.00000000E+00	 0.00000000E+00
	 0.00000000E+00	 0.00000000E+00	 0.00000000E+00
	 0.00000000E+00	 0.00000000E+00	 0.00000000E+00
	 0.00000000E+00	 0.00000000E+00	 0.00000000E+00
	 0.00000000E+00	 0.00000000E+00	 0.00000000E+00
	 0.00000000E+00	 0.00000000E+00	 0.00000000E+00
	 0.00000000E+00	 0.00000000E+00	 0.00000000E+00
	 0.00000000E+00	 0.00000000E+00	 0.00000000E+00
	 0.00000000E+00	 0.00000000E+00	 0.00000000E+00
	 0.00000000E+00	 0.00000000E+00	 0.00000000E+00
	 0.00000000E+00	 0.00000000E+00	 0.00000000E+00
	 0.00000000E+00	 0.00000000E+00	 0.00000000E+00
	 0.00000000E+00	 0.00000000E+00	 0.00000000E+00
	 0.00000000E+00	 0.00000000E+00	 0.00000000E+00
	 0.00000000E+00	 0.00000000E+00	 0.00000000E+00
	 0.00000000E+00	 0.00000000E+00	 0.00000000E+00
	 0.00000000E+00	 0.00000000E+00	 0.00000000E+00
	 0.00000000E+00	 0.00000000E+00	 0.00000000E+00
	 0.00000000E+00	 0.00000000E+00	 0.00000000E+00
	 0.00000000E+00	 0.00000000E+00	 0.00000000E+00
	 0.00000000E+00	 0.00000000E+00	 0.00000000E+00
	 0.00000000E+00	 0.00000000E+00	 0.00000000E+00
	 0.00000000E+00	 0.00000000E+00	 0.00000000E+00
	 0.00000000E+00	 0.00000000E+00	 0.00000000E+00
	 0.00000000E+00	 0.00000000E+00	 0.00000000E+00
	 0.00000000E+00	 0.00000000E+00	 0.00000000E+00
	 0.00000000E+00	 0.00000000E+00	 0.00000000E+00
	 0.00000000E+00	 0.00000000E+00	 0.00000000E+00
	 0.00000000E+00	 0.00000000E+00	 0.00000000E+00
	 0.00000000E+00	 0.00000000E+00	 0.00000000E+00
	 0.00000000E+00	 0.00000000E+00	 0.00000000E+00
	 0.00000000E+00	 0.00000000E+00	 0.00000000E+00
	 0.00000000E+00	 0.00000000E+00	 0.00000000E+00
	 0.00000000E+00	 0.00000000E+00	 0.00000000E+00
	 0.00000000E+00	 0.00000000E+00	 0.00000000E+00
	 0.00000000E+00	 0.00000000E+00	 0.00000000E+00
	 0.00000000E+00	 0.00000000E+00	 0.00000000E+00
	 0.00000000E+00	 0.00000000E+00	 0.00000000E+00
	 0.00000000E+00	 0.00000000E+00	 0.00000000E+00
	 0.00000000E+00	 0.00000000E+00	 0.00000000E+00
	 0.00000000E+00	 0.00000000E+00	 0.00000000E+00
	 0.00000000E+00	 0.00000000E+00	 0.00000000E+00
	 0.00000000E+00	 0.00000000E+00	 0.00000000E+00
	 0.00000000E+00	 0.00000000E+00	 0.00000000E+00
	 0.00000000E+00	 0.00000000E+00	 0.00000000E+00
	 0.00000000E+00	 0.00000000E+00	 0.00000000E+00
	 0.00000000E+00	 0.00000000E+00	 0.00000000E+00
	 0.00000000E+00	 0.00000000E+00	 0.00000000E+00
	 0.00000000E+00	 0.00000000E+00	 0.00000000E+00
	 0.00000000E+00	 0.00000000E+00	 0.00000000E+00
	 0.00000000E+00	 0.00000000E+00	 0.00000000E+00
	 0.00000000E+00	 0.00000000E+00	 0.00000000E+00
	 0.00000000E+00	 0.00000000E+00	 0.00000000E+00
	 0.00000000E+00	 0.00000000E+00	 0.00000000E+00
	 0.00000000E+00	 0.00000000E+00	 0.00000000E+00
	 0.00000000E+00	 0.00000000E+00	 0.00000000E+00
	 0.00000000E+00	 0.00000000E+00	 0.00000000E+00
	 0.00000000E+00	 0.00000000E+00	 0.00000000E+00
	 0.00000000E+00	 0.00000000E+00	 0.00000000E+00
	 0.00000000E+00	 0.00000000E+00	 0.00000000E+00
	 0.00000000E+00	 0.00000000E+00	 0.00000000E+00
	 0.00000000E+00	 0.00000000E+00	 0.00000000E+00
	 0.00000000E+00	 0.00000000E+00	 0.00000000E+00
	 0.00000000E+00	 0.00000000E+00	 0.00000000E+00
	 0.00000000E+00	 0.00000000E+00	 0.00000000E+00
	 0.00000000E+00	 0.00000000E+00	 0.00000000E+00
	 0.00000000E+00	 0.00000000E+00	 0.00000000E+00
	 0.00000000E+00	 0.00000000E+00	 0.00000000E+00
	 0.00000000E+00	 0.00000000E+00	 0.00000000E+00
	 0.00000000E+00	 0.00000000E+00	 0.00000000E+00
	 0.00000000E+00	 0.00000000E+00	 0.00000000E+00
	 0.00000000E+00	 0.00000000E+00	 0.00000000E+00
	 0.00000000E+00	 0.00000000E+00	 0.00000000E+00
	 0.00000000E+00	 0.00000000E+00	 0.00000000E+00
	 0.00000000E+00	 0.00000000E+00	 0.00000000E+00
	 0.00000000E+00	 0.00000000E+00	 0.00000000E+00
	 0.00000000E+00	 0.00000000E+00	 0.00000000E+00
	 0.00000000E+00	 0.00000000E+00	 0.00000000E+00
	 0.00000000E+00	 0.00000000E+00	 0.00000000E+00
	 0.00000000E+00	 0.00000000E+00	 0.00000000E+00
	 0.00000000E+00	 0.00000000E+00	 0.00000000E+00
	 0.00000000E+00	 0.00000000E+00	 0.00000000E+00
	 0.00000000E+00	 0.00000000E+00	 0.00000000E+00
	 0.00000000E+00	 0.00000000E+00	 0.00000000E+00
	 0.00000000E+00	 0.00000000E+00	 0.00000000E+00
	 0.00000000E+00	 0.00000000E+00	 0.00000000E+00
	 0.00000000E+00	 0.00000000E+00	 0.00000000E+00
	 0.00000000E+00	 0.00000000E+00	 0.00000000E+00
	 0.00000000E+00	 0.00000000E+00	 0.00000000E+00
	 0.00000000E+00	 0.00000000E+00	 0.00000000E+00
	 0.00000000E+00	 0.00000000E+00	 0.00000000E+00
	 0.00000000E+00	 0.00000000E+00	 0.00000000E+00
	 0.00000000E+00	 0.00000000E+00	 0.00000000E+00
	 0.00000000E+00	 0.00000000E+00	 0.00000000E+00
	 0.00000000E+00	 0.00000000E+00	 0.00000000E+00
	 0.00000000E+00	 0.00000000E+00	 0.00000000E+00
	 0.00000000E+00	 0.00000000E+00	 0.00000000E+00
	 0.00000000E+00	 0.00000000E+00	 0.00000000E+00
	 0.00000000E+00	 0.00000000E+00	 0.00000000E+00
	 0.00000000E+00	 0.00000000E+00	 0.00000000E+00
	 0.00000000E+00	 0.00000000E+00	 0.00000000E+00
	 0.00000000E+00	 0.00000000E+00	 0.00000000E+00
	 0.00000000E+00	 0.00000000E+00	 0.00000000E+00
	 0.00000000E+00	 0.00000000E+00	 0.00000000E+00
	 0.00000000E+00	 0.00000000E+00	 0.00000000E+00
	 0.00000000E+00	 0.00000000E+00	 0.00000000E+00
	 0.00000000E+00	 0.00000000E+00	 0.00000000E+00
	 0.00000000E+00	 0.00000000E+00	 0.00000000E+00
	 0.00000000E+00	 0.00000000E+00	 0.00000000E+00
	 0.00000000E+00	 0.00000000E+00	 0.00000000E+00
	 0.00000000E+00	 0.00000000E+00	 0.00000000E+00
	 0.00000000E+00	 0.00000000E+00	 0.00000000E+00
	 0.00000000E+00	 0.00000000E+00	 0.00000000E+00
	 0.00000000E+00	 0.00000000E+00	 0.00000000E+00
	 0.00000000E+00	 0.00000000E+00	 0.00000000E+00
	 0.00000000E+00	 0.00000000E+00	 0.00000000E+00
	 0.00000000E+00	 0.00000000E+00	 0.00000000E+00
	 0.00000000E+00	 0.00000000E+00	 0.00000000E+00
	 0.00000000E+00	 0.00000000E+00	 0.00000000E+00
	 0.00000000E+00	 0.00000000E+00	 0.00000000E+00
	 0.00000000E+00	 0.00000000E+00	 0.00000000E+00
	 0.00000000E+00	 0.00000000E+00	 0.00000000E+00
	 0.00000000E+00	 0.00000000E+00	 0.00000000E+00
	 0.00000000E+00	 0.00000000E+00	 0.00000000E+00
	 0.00000000E+00	 0.00000000E+00	 0.00000000E+00
	 0.00000000E+00	 0.00000000E+00	 0.00000000E+00
	 0.00000000E+00	 0.00000000E+00	 0.00000000E+00
	 0.00000000E+00	 0.00000000E+00	 0.00000000E+00
	 0.00000000E+00	 0.00000000E+00	 0.00000000E+00
	 0.00000000E+00	 0.00000000E+00	 0.00000000E+00
	 0.00000000E+00	 0.00000000E+00	 0.00000000E+00
	 0.00000000E+00	 0.00000000E+00	 0.00000000E+00
	 0.00000000E+00	 0.00000000E+00	 0.00000000E+00
	 0.00000000E+00	 0.00000000E+00	 0.00000000E+00
	 0.00000000E+00	 0.00000000E+00	 0.00000000E+00
	 0.00000000E+00	 0.00000000E+00	 0.00000000E+00
	 0.00000000E+00	 0.00000000E+00	 0.00000000E+00
	 0.00000000E+00	 0.00000000E+00	 0.00000000E+00
	 0.00000000E+00	 0.00000000E+00	 0.00000000E+00
	 0.00000000E+00	 0.00000000E+00	 0.00000000E+00
	 0.00000000E+00	 0.00000000E+00	 0.00000000E+00
	 0.00000000E+00	 0.00000000E+00	 0.00000000E+00
	 0.00000000E+00	 0.00000000E+00	 0.00000000E+00
	 0.00000000E+00	 0.00000000E+00	 0.00000000E+00
	 0.00000000E+00	 0.00000000E+00	 0.00000000E+00
	 0.00000000E+00	 0.00000000E+00	 0.00000000E+00
	 0.00000000E+00	 0.00000000E+00	 0.00000000E+00
	 0.00000000E+00	 0.00000000E+00	 0.00000000E+00
	 0.00000000E+00	 0.00000000E+00	 0.00000000E+00
	 0.00000000E+00	 0.00000000E+00	 0.00000000E+00
	 0.00000000E+00	 0.00000000E+00	 0.00000000E+00
	 0.00000000E+00	 0.00000000E+00	 0.00000000E+00
	 0.00000000E+00	 0.00000000E+00	 0.00000000E+00
	 0.00000000E+00	 0.00000000E+00	 0.00000000E+00
	 0.00000000E+00	 0.00000000E+00	 0.00000000E+00
	 0.00000000E+00	 0.00000000E+00	 0.00000000E+00
	 0.00000000E+00	 0.00000000E+00	 0.00000000E+00
	 0.00000000E+00	 0.00000000E+00	 0.00000000E+00
	 0.00000000E+00	 0.00000000E+00	 0.00000000E+00
	 0.00000000E+00	 0.00000000E+00	 0.00000000E+00
	 0.00000000E+00	 0.00000000E+00	 0.00000000E+00
	 0.00000000E+00	 0.00000000E+00	 0.00000000E+00
	 0.00000000E+00	 0.00000000E+00	 0.00000000E+00
	 0.00000000E+00	 0.00000000E+00	 0.00000000E+00
	 0.00000000E+00	 0.00000000E+00	 0.00000000E+00
	 0.00000000E+00	 0.00000000E+00	 0.00000000E+00
	 0.00000000E+00	 0.00000000E+00	 0.00000000E+00
	 0.00000000E+00	 0.00000000E+00	 0.00000000E+00
	 0.00000000E+00	 0.00000000E+00	 0.00000000E+00
	 0.00000000E+00	 0.00000000E+00	 0.00000000E+00
	 0.00000000E+00	 0.00000000E+00	 0.00000000E+00
	 0.00000000E+00	 0.00000000E+00	 0.00000000E+00
	 0.00000000E+00	 0.00000000E+00	 0.00000000E+00
	 0.00000000E+00	 0.00000000E+00	 0.00000000E+00
	 0.00000000E+00	 0.00000000E+00	 0.00000000E+00
	 0.00000000E+00	 0.00000000E+00	 0.00000000E+00
	 0.00000000E+00	 0.00000000E+00	 0.00000000E+00
	 0.00000000E+00	 0.00000000E+00	 0.00000000E+00
	 0.00000000E+00	 0.00000000E+00	 0.00000000E+00
	 0.00000000E+00	 0.00000000E+00	 0.00000000E+00
	 0.00000000E+00	 0.00000000E+00	 0.00000000E+00
	 0.00000000E+00	 0.00000000E+00	 0.00000000E+00
	 0.00000000E+00	 0.00000000E+00	 0.00000000E+00
	 0.00000000E+00	 0.00000000E+00	 0.00000000E+00
	 0.00000000E+00	 0.00000000E+00	 0.00000000E+00
	 0.00000000E+00	 0.00000000E+00	 0.00000000E+00
	 0.00000000E+00	 0.00000000E+00	 0.00000000E+00
	 0.00000000E+00	 0.00000000E+00	 0.00000000E+00
	 0.00000000E+00	 0.00000000E+00	 0.00000000E+00
	 0.00000000E+00	 0.00000000E+00	 0.00000000E+00
	 0.00000000E+00	 0.00000000E+00	 0.00000000E+00
	 0.00000000E+00	 0.00000000E+00	 0.00000000E+00
	 0.00000000E+00	 0.00000000E+00	 0.00000000E+00
	 0.00000000E+00	 0.00000000E+00	 0.00000000E+00
	 0.00000000E+00	 0.00000000E+00	 0.00000000E+00
	 0.00000000E+00	 0.00000000E+00	 0.00000000E+00
	 0.00000000E+00	 0.00000000E+00	 0.00000000E+00
	 0.00000000E+00	 0.00000000E+00	 0.00000000E+00
	 0.00000000E+00	 0.00000000E+00	 0.00000000E+00
	 0.00000000E+00	 0.00000000E+00	 0.00000000E+00
	 0.00000000E+00	 0.00000000E+00	 0.00000000E+00
	 0.00000000E+00	 0.00000000E+00	 0.00000000E+00
	 0.00000000E+00	 0.00000000E+00	 0.00000000E+00
	 0.00000000E+00	 0.00000000E+00	 0.00000000E+00
	 0.00000000E+00	 0.00000000E+00	 0.00000000E+00
	 0.00000000E+00	 0.00000000E+00	 0.00000000E+00
	 0.00000000E+00	 0.00000000E+00	 0.00000000E+00
	 0.00000000E+00	 0.00000000E+00	 0.00000000E+00
	 0.00000000E+00	 0.00000000E+00	 0.00000000E+00
	 0.00000000E+00	 0.00000000E+00	 0.00000000E+00
	 0.00000000E+00	 0.00000000E+00	 0.00000000E+00
	 0.00000000E+00	 0.00000000E+00	 0.00000000E+00
	 0.00000000E+00	 0.00000000E+00	 0.00000000E+00
	 0.00000000E+00	 0.00000000E+00	 0.00000000E+00
	 0.00000000E+00	 0.00000000E+00	 0.00000000E+00
	 0.00000000E+00	 0.00000000E+00	 0.00000000E+00
	 0.00000000E+00	 0.00000000E+00	 0.00000000E+00
	 0.00000000E+00	 0.00000000E+00	 0.00000000E+00
	 0.00000000E+00	 0.00000000E+00	 0.00000000E+00
	 0.00000000E+00	 0.00000000E+00	 0.00000000E+00
	 0.00000000E+00	 0.00000000E+00	 0.00000000E+00
	 0.00000000E+00	 0.00000000E+00	 0.00000000E+00
	 0.00000000E+00	 0.00000000E+00	 0.00000000E+00
	 0.00000000E+00	 0.00000000E+00	 0.00000000E+00
	 0.00000000E+00	 0.00000000E+00	 0.00000000E+00
	 0.00000000E+00	 0.00000000E+00	 0.00000000E+00
	 0.00000000E+00	 0.00000000E+00	 0.00000000E+00
	 0.00000000E+00	 0.00000000E+00	 0.00000000E+00
	 0.00000000E+00	 0.00000000E+00	 0.00000000E+00
	 0.00000000E+00	 0.00000000E+00	 0.00000000E+00
	 0.00000000E+00	 0.00000000E+00	 0.00000000E+00
	 0.00000000E+00	 0.00000000E+00	 0.00000000E+00
	 0.00000000E+00	 0.00000000E+00	 0.00000000E+00
	 0.00000000E+00	 0.00000000E+00	 0.00000000E+00
	 0.00000000E+00	 0.00000000E+00	 0.00000000E+00
	 0.00000000E+00	 0.00000000E+00	 0.00000000E+00
	 0.00000000E+00	 0.00000000E+00	 0.00000000E+00
	 0.00000000E+00	 0.00000000E+00	 0.00000000E+00
	 0.00000000E+00	 0.00000000E+00	 0.00000000E+00
	 0.00000000E+00	 0.00000000E+00	 0.00000000E+00
	 0.00000000E+00	 0.00000000E+00	 0.00000000E+00
	 0.00000000E+00	 0.00000000E+00	 0.00000000E+00
	 0.00000000E+00	 0.00000000E+00	 0.00000000E+00
	 0.00000000E+00	 0.00000000E+00	 0.00000000E+00
	 0.00000000E+00	 0.00000000E+00	 0.00000000E+00
	 0.00000000E+00	 0.00000000E+00	 0.00000000E+00
	 0.00000000E+00	 0.00000000E+00	 0.00000000E+00
	 0.00000000E+00	 0.00000000E+00	 0.00000000E+00
	 0.00000000E+00	 0.00000000E+00	 0.00000000E+00
	 0.00000000E+00	 0.00000000E+00	 0.00000000E+00
	 0.00000000E+00	 0.00000000E+00	 0.00000000E+00
	 0.00000000E+00	 0.00000000E+00	 0.00000000E+00
	 0.00000000E+00	 0.00000000E+00	 0.00000000E+00
	 0.00000000E+00	 0.00000000E+00	 0.00000000E+00
	 0.00000000E+00	 0.00000000E+00	 0.00000000E+00
	 0.00000000E+00	 0.00000000E+00	 0.00000000E+00
	 0.00000000E+00	 0.00000000E+00	 0.00000000E+00
	 0.00000000E+00	 0.00000000E+00	 0.00000000E+00
	 0.00000000E+00	 0.00000000E+00	 0.00000000E+00
	 0.00000000E+00	 0.00000000E+00	 0.00000000E+00
	 0.00000000E+00	 0.00000000E+00	 0.00000000E+00
	 0.00000000E+00	 0.00000000E+00	 0.00000000E+00
	 0.00000000E+00	 0.00000000E+00	 0.00000000E+00
	 0.00000000E+00	 0.00000000E+00	 0.00000000E+00
	 0.00000000E+00	 0.00000000E+00	 0.00000000E+00
	 0.00000000E+00	 0.00000000E+00	 0.00000000E+00
	 0.00000000E+00	 0.00000000E+00	 0.00000000E+00
	 0.00000000E+00	 0.00000000E+00	 0.00000000E+00
	 0.00000000E+00	 0.00000000E+00	 0.00000000E+00
	 0.00000000E+00	 0.00000000E+00	 0.00000000E+00
	 0.00000000E+00	 0.00000000E+00	 0.00000000E+00
	 0.00000000E+00	 0.00000000E+00	 0.00000000E+00
	 0.00000000E+00	 0.00000000E+00	 0.00000000E+00
	 0.00000000E+00	 0.00000000E+00	 0.00000000E+00
	 0.00000000E+00	 0.00000000E+00	 0.00000000E+00
	 0.00000000E+00	 0.00000000E+00	 0.00000000E+00
	 0.00000000E+00	 0.00000000E+00	 0.00000000E+00
	 0.00000000E+00	 0.00000000E+00	 0.00000000E+00
	 0.00000000E+00	 0.00000000E+00	 0.00000000E+00
	 0.00000000E+00	 0.00000000E+00	 0.00000000E+00
	 0.00000000E+00	 0.00000000E+00	 0.00000000E+00
	 0.00000000E+00	 0.00000000E+00	 0.00000000E+00
	 0.00000000E+00	 0.00000000E+00	 0.00000000E+00
	 0.00000000E+00	 0.00000000E+00	 0.00000000E+00
	 0.00000000E+00	 0.00000000E+00	 0.00000000E+00
	 0.00000000E+00	 0.00000000E+00	 0.00000000E+00
	 0.00000000E+00	 0.00000000E+00	 0.00000000E+00
	 0.00000000E+00	 0.00000000E+00	 0.00000000E+00
	 0.00000000E+00	 0.00000000E+00	 0.00000000E+00
	 0.00000000E+00	 0.00000000E+00	 0.00000000E+00
	 0.00000000E+00	 0.00000000E+00	 0.00000000E+00
	 0.00000000E+00	 0.00000000E+00	 0.00000000E+00
	 0.00000000E+00	 0.00000000E+00	 0.00000000E+00
	 0.00000000E+00	 0.00000000E+00	 0.00000000E+00
	 0.00000000E+00	 0.00000000E+00	 0.00000000E+00
	 0.00000000E+00	 0.00000000E+00	 0.00000000E+00
	 0.00000000E+00	 0.00000000E+00	 0.00000000E+00
	 0.00000000E+00	 0.00000000E+00	 0.00000000E+00
	 0.00000000E+00	 0.00000000E+00	 0.00000000E+00
	 0.00000000E+00	 0.00000000E+00	 0.00000000E+00
	 0.00000000E+00	 0.00000000E+00	 0.00000000E+00
	 0.00000000E+00	 0.00000000E+00	 0.00000000E+00
	 0.00000000E+00	 0.00000000E+00	 0.00000000E+00
	 0.00000000E+00	 0.00000000E+00	 0.00000000E+00
	 0.00000000E+00	 0.00000000E+00	 0.00000000E+00
	 0.00000000E+00	 0.00000000E+00	 0.00000000E+00
	 0.00000000E+00	 0.00000000E+00	 0.00000000E+00
	 0.00000000E+00	 0.00000000E+00	 0.00000000E+00
	 0.00000000E+00	 0.00000000E+00	 0.00000000E+00
	 0.00000000E+00	 0.00000000E+00	 0.00000000E+00
	 0.00000000E+00	 0.00000000E+00	 0.00000000E+00
	 0.00000000E+00	 0.00000000E+00	 0.00000000E+00
	 0.00000000E+00	 0.00000000E+00	 0.00000000E+00
	 0.00000000E+00	 0.00000000E+00	 0.00000000E+00
	 0.00000000E+00	 0.00000000E+00	 0.00000000E+00
	 0.00000000E+00	 0.00000000E+00	 0.00000000E+00
	 0.00000000E+00	 0.00000000E+00	 0.00000000E+00
	 0.00000000E+00	 0.00000000E+00	 0.00000000E+00
	 0.00000000E+00	 0.00000000E+00	 0.00000000E+00
	 0.00000000E+00	 0.00000000E+00	 0.00000000E+00
	 0.00000000E+00	 0.00000000E+00	 0.00000000E+00
	 0.00000000E+00	 0.00000000E+00	 0.00000000E+00
	 0.00000000E+00	 0.00000000E+00	 0.00000000E+00
	 0.00000000E+00	 0.00000000E+00	 0.00000000E+00
	 0.00000000E+00	 0.00000000E+00	 0.00000000E+00
	 0.00000000E+00	 0.00000000E+00	 0.00000000E+00
	 0.00000000E+00	 0.00000000E+00	 0.00000000E+00
	 0.00000000E+00	 0.00000000E+00	 0.00000000E+00
	 0.00000000E+00	 0.00000000E+00	 0.00000000E+00
	 0.00000000E+00	 0.00000000E+00	 0.00000000E+00
	 0.00000000E+00	 0.00000000E+00	 0.00000000E+00
	 0.00000000E+00	 0.00000000E+00	 0.00000000E+00
	 0.00000000E+00	 0.00000000E+00	 0.00000000E+00
	 0.00000000E+00	 0.00000000E+00	 0.00000000E+00
	 0.00000000E+00	 0.00000000E+00	 0.00000000E+00
	 0.00000000E+00	 0.00000000E+00	 0.00000000E+00
	 0.00000000E+00	 0.00000000E+00	 0.00000000E+00
	 0.00000000E+00	 0.00000000E+00	 0.00000000E+00
	 0.00000000E+00	 0.00000000E+00	 0.00000000E+00
	 0.00000000E+00	 0.00000000E+00	 0.00000000E+00
	 0.00000000E+00	 0.00000000E+00	 0.00000000E+00
	 0.00000000E+00	 0.00000000E+00	 0.00000000E+00
	 0.00000000E+00	 0.00000000E+00	 0.00000000E+00
	 0.00000000E+00	 0.00000000E+00	 0.00000000E+00
	 0.00000000E+00	 0.00000000E+00	 0.00000000E+00
	 0.00000000E+00	 0.00000000E+00	 0.00000000E+00
	 0.00000000E+00	 0.00000000E+00	 0.00000000E+00
	 0.00000000E+00	 0.00000000E+00	 0.00000000E+00
	 0.00000000E+00	 0.00000000E+00	 0.00000000E+00
	 0.00000000E+00	 0.00000000E+00	 0.00000000E+00
	 0.00000000E+00	 0.00000000E+00	 0.00000000E+00
	 0.00000000E+00	 0.00000000E+00	 0.00000000E+00
	 0.00000000E+00	 0.00000000E+00	 0.00000000E+00
	 0.00000000E+00	 0.00000000E+00	 0.00000000E+00
	 0.00000000E+00	 0.00000000E+00	 0.00000000E+00
	 0.00000000E+00	 0.00000000E+00	 0.00000000E+00
	 0.00000000E+00	 0.00000000E+00	 0.00000000E+00
	 0.00000000E+00	 0.00000000E+00	 0.00000000E+00
	 0.00000000E+00	 0.00000000E+00	 0.00000000E+00
	 0.00000000E+00	 0.00000000E+00	 0.00000000E+00
	 0.00000000E+00	 0.00000000E+00	 0.00000000E+00
	 0.00000000E+00	 0.00000000E+00	 0.00000000E+00
	 0.00000000E+00	 0.00000000E+00	 0.00000000E+00
	 0.00000000E+00	 0.00000000E+00	 0.00000000E+00
	 0.00000000E+00	 0.00000000E+00	 0.00000000E+00
	 0.00000000E+00	 0.00000000E+00	 0.00000000E+00
	 0.00000000E+00	 0.00000000E+00	 0.00000000E+00
	 0.00000000E+00	 0.00000000E+00	 0.00000000E+00
	 0.00000000E+00	 0.00000000E+00	 0.00000000E+00
	 0.00000000E+00	 0.00000000E+00	 0.00000000E+00
	 0.00000000E+00	 0.00000000E+00	 0.00000000E+00
	 0.00000000E+00	 0.00000000E+00	 0.00000000E+00
	 0.00000000E+00	 0.00000000E+00	 0.00000000E+00
	 0.00000000E+00	 0.00000000E+00	 0.00000000E+00
	 0.00000000E+00	 0.00000000E+00	 0.00000000E+00
	 0.00000000E+00	 0.00000000E+00	 0.00000000E+00
	 0.00000000E+00	 0.00000000E+00	 0.00000000E+00
	 0.00000000E+00	 0.00000000E+00	 0.00000000E+00
	 0.00000000E+00	 0.00000000E+00	 0.00000000E+00
	 0.00000000E+00	 0.00000000E+00	 0.00000000E+00
	 0.00000000E+00	 0.00000000E+00	 0.00000000E+00
	 0.00000000E+00	 0.00000000E+00	 0.00000000E+00
	 0.00000000E+00	 0.00000000E+00	 0.00000000E+00
	 0.00000000E+00	 0.00000000E+00	 0.00000000E+00
	 0.00000000E+00	 0.00000000E+00	 0.00000000E+00
	 0.00000000E+00	 0.00000000E+00	 0.00000000E+00
	 0.00000000E+00	 0.00000000E+00	 0.00000000E+00
	 0.00000000E+00	 0.00000000E+00	 0.00000000E+00
	 0.00000000E+00	 0.00000000E+00	 0.00000000E+00
	 0.00000000E+00	 0.00000000E+00	 0.00000000E+00
	 0.00000000E+00	 0.00000000E+00	 0.00000000E+00
	 0.00000000E+00	 0.00000000E+00	 0.00000000E+00
	 0.00000000E+00	 0.00000000E+00	 0.00000000E+00
	 0.00000000E+00	 0.00000000E+00	 0.00000000E+00
	 0.00000000E+00	 0.00000000E+00	 0.00000000E+00
	 0.00000000E+00	 0.00000000E+00	 0.00000000E+00
	 0.00000000E+00	 0.00000000E+00	 0.00000000E+00
	 0.00000000E+00	 0.00000000E+00	 0.00000000E+00
	 0.00000000E+00	 0.00000000E+00	 0.00000000E+00
	 0.00000000E+00	 0.00000000E+00	 0.00000000E+00
	 0.00000000E+00	 0.00000000E+00	 0.00000000E+00
	 0.00000000E+00	 0.00000000E+00	 0.00000000E+00
	 0.00000000E+00	 0.00000000E+00	 0.00000000E+00
	 0.00000000E+00	 0.00000000E+00	 0.00000000E+00
	 0.00000000E+00	 0.00000000E+00	 0.00000000E+00
	 0.00000000E+00	 0.00000000E+00	 0.00000000E+00
	 0.00000000E+00	 0.00000000E+00	 0.00000000E+00
	 0.00000000E+00	 0.00000000E+00	 0.00000000E+00
	 0.00000000E+00	 0.00000000E+00	 0.00000000E+00
	 0.00000000E+00	 0.00000000E+00	 0.00000000E+00
	 0.00000000E+00	 0.00000000E+00	 0.00000000E+00
	 0.00000000E+00	 0.00000000E+00	 0.00000000E+00
	 0.00000000E+00	 0.00000000E+00	 0.00000000E+00
	 0.00000000E+00	 0.00000000E+00	 0.00000000E+00
	 0.00000000E+00	 0.00000000E+00	 0.00000000E+00
	 0.00000000E+00	 0.00000000E+00	 0.00000000E+00
	 0.00000000E+00	 0.00000000E+00	 0.00000000E+00
	 0.00000000E+00	 0.00000000E+00	 0.00000000E+00
	 0.00000000E+00	 0.00000000E+00	 0.00000000E+00
	 0.00000000E+00	 0.00000000E+00	 0.00000000E+00
	 0.00000000E+00	 0.00000000E+00	 0.00000000E+00
	 0.00000000E+00	 0.00000000E+00	 0.00000000E+00
	 0.00000000E+00	 0.00000000E+00	 0.00000000E+00
	 0.00000000E+00	 0.00000000E+00	 0.00000000E+00
	 0.00000000E+00	 0.00000000E+00	 0.00000000E+00
	 0.00000000E+00	 0.00000000E+00	 0.00000000E+00
	 0.00000000E+00	 0.00000000E+00	 0.00000000E+00
	 0.00000000E+00	 0.00000000E+00	 0.00000000E+00
	 0.00000000E+00	 0.00000000E+00	 0.00000000E+00
	 0.00000000E+00	 0.00000000E+00	 0.00000000E+00
	 0.00000000E+00	 0.00000000E+00	 0.00000000E+00
	 0.00000000E+00	 0.00000000E+00	 0.00000000E+00
	 0.00000000E+00	 0.00000000E+00	 0.00000000E+00
	 0.00000000E+00	 0.00000000E+00	 0.00000000E+00
	 0.00000000E+00	 0.00000000E+00	 0.00000000E+00
	 0.00000000E+00	 0.00000000E+00	 0.00000000E+00
	 0.00000000E+00	 0.00000000E+00	 0.00000000E+00
	 0.00000000E+00	 0.00000000E+00	 0.00000000E+00
	 0.00000000E+00	 0.00000000E+00	 0.00000000E+00
	 0.00000000E+00	 0.00000000E+00	 0.00000000E+00
	 0.00000000E+00	 0.00000000E+00	 0.00000000E+00
	 0.00000000E+00	 0.00000000E+00	 0.00000000E+00
	 0.00000000E+00	 0.00000000E+00	 0.00000000E+00
	 0.00000000E+00	 0.00000000E+00	 0.00000000E+00
	 0.00000000E+00	 0.00000000E+00	 0.00000000E+00
	 0.00000000E+00	 0.00000000E+00	 0.00000000E+00
	 0.00000000E+00	 0.00000000E+00	 0.00000000E+00
	 0.00000000E+00	 0.00000000E+00	 0.00000000E+00
	 0.00000000E+00	 0.00000000E+00	 0.00000000E+00
	 0.00000000E+00	 0.00000000E+00	 0.00000000E+00
	 0.00000000E+00	 0.00000000E+00	 0.00000000E+00
	 0.00000000E+00	 0.00000000E+00	 0.00000000E+00
	 0.00000000E+00	 0.00000000E+00	 0.00000000E+00
	 0.00000000E+00	 0.00000000E+00	 0.00000000E+00
	 0.00000000E+00	 0.00000000E+00	 0.00000000E+00
	 0.00000000E+00	 0.00000000E+00	 0.00000000E+00
	 0.00000000E+00	 0.00000000E+00	 0.00000000E+00
	 0.00000000E+00	 0.00000000E+00	 0.00000000E+00
	 0.00000000E+00	 0.00000000E+00	 0.00000000E+00
	 0.00000000E+00	 0.00000000E+00	 0.00000000E+00
	 0.00000000E+00	 0.00000000E+00	 0.00000000E+00
	 0.00000000E+00	 0.00000000E+00	 0.00000000E+00
	 0.00000000E+00	 0.00000000E+00	 0.00000000E+00
	 0.00000000E+00	 0.00000000E+00	 0.00000000E+00
	 0.00000000E+00	 0.00000000E+00	 0.00000000E+00
	 0.00000000E+00	 0.00000000E+00	 0.00000000E+00
	 0.00000000E+00	 0.00000000E+00	 0.00000000E+00
	 0.00000000E+00	 0.00000000E+00	 0.00000000E+00
	 0.00000000E+00	 0.00000000E+00	 0.00000000E+00
	 0.00000000E+00	 0.00000000E+00	 0.00000000E+00
	 0.00000000E+00	 0.00000000E+00	 0.00000000E+00
	 0.00000000E+00	 0.00000000E+00	 0.00000000E+00
	 0.00000000E+00	 0.00000000E+00	 0.00000000E+00
	 0.00000000E+00	 0.00000000E+00	 0.00000000E+00
	 0.00000000E+00	 0.00000000E+00	 0.00000000E+00
	 0.00000000E+00	 0.00000000E+00	 0.00000000E+00
	 0.00000000E+00	 0.00000000E+00	 0.00000000E+00
	 0.00000000E+00	 0.00000000E+00	 0.00000000E+00
	 0.00000000E+00	 0.00000000E+00	 0.00000000E+00
	 0.00000000E+00	 0.00000000E+00	 0.00000000E+00
	 0.00000000E+00	 0.00000000E+00	 0.00000000E+00
	 0.00000000E+00	 0.00000000E+00	 0.00000000E+00
	 0.00000000E+00	 0.00000000E+00	 0.00000000E+00
	 0.00000000E+00	 0.00000000E+00	 0.00000000E+00
	 0.00000000E+00	 0.00000000E+00	 0.00000000E+00
	 0.00000000E+00	 0.00000000E+00	 0.00000000E+00
	 0.00000000E+00	 0.00000000E+00	 0.00000000E+00
	 0.00000000E+00	 0.00000000E+00	 0.00000000E+00
	 0.00000000E+00	 0.00000000E+00	 0.00000000E+00
	 0.00000000E+00	 0.00000000E+00	 0.00000000E+00
	 0.00000000E+00	 0.00000000E+00	 0.00000000E+00
	 0.00000000E+00	 0.00000000E+00	 0.00000000E+00
	 0.00000000E+00	 0.00000000E+00	 0.00000000E+00
	 0.00000000E+00	 0.00000000E+00	 0.00000000E+00
	 0.00000000E+00	 0.00000000E+00	 0.00000000E+00
	 0.00000000E+00	 0.00000000E+00	 0.00000000E+00
	 0.00000000E+00	 0.00000000E+00	 0.00000000E+00
	 0.00000000E+00	 0.00000000E+00	 0.00000000E+00
	 0.00000000E+00	 0.00000000E+00	 0.00000000E+00
	 0.00000000E+00	 0.00000000E+00	 0.00000000E+00
	 0.00000000E+00	 0.00000000E+00	 0.00000000E+00
	 0.00000000E+00	 0.00000000E+00	 0.00000000E+00
	 0.00000000E+00	 0.00000000E+00	 0.00000000E+00
	 0.00000000E+00	 0.00000000E+00	 0.00000000E+00
	 0.00000000E+00	 0.00000000E+00	 0.00000000E+00
	 0.00000000E+00	 0.00000000E+00	 0.00000000E+00
	 0.00000000E+00	 0.00000000E+00	 0.00000000E+00
	 0.00000000E+00	 0.00000000E+00	 0.00000000E+00
	 0.00000000E+00	 0.00000000E+00	 0.00000000E+00
	 0.00000000E+00	 0.00000000E+00	 0.00000000E+00
	 0.00000000E+00	 0.00000000E+00	 0.00000000E+00
	 0.00000000E+00	 0.00000000E+00	 0.00000000E+00
	 0.00000000E+00	 0.00000000E+00	 0.00000000E+00
	 0.00000000E+00	 0.00000000E+00	 0.00000000E+00
	 0.00000000E+00	 0.00000000E+00	 0.00000000E+00
	 0.00000000E+00	 0.00000000E+00	 0.00000000E+00
	 0.00000000E+00	 0.00000000E+00	 0.00000000E+00
	 0.00000000E+00	 0.00000000E+00	 0.00000000E+00
	 0.00000000E+00	 0.00000000E+00	 0.00000000E+00
	 0.00000000E+00	 0.00000000E+00	 0.00000000E+00
	 0.00000000E+00	 0.00000000E+00	 0.00000000E+00
	 0.00000000E+00	 0.00000000E+00	 0.00000000E+00
	 0.00000000E+00	 0.00000000E+00	 0.00000000E+00
	 0.00000000E+00	 0.00000000E+00	 0.00000000E+00
	 0.00000000E+00	 0.00000000E+00	 0.00000000E+00
	 0.00000000E+00	 0.00000000E+00	 0.00000000E+00
	 0.00000000E+00	 0.00000000E+00	 0.00000000E+00
	 0.00000000E+00	 0.00000000E+00	 0.00000000E+00
	 0.00000000E+00	 0.00000000E+00	 0.00000000E+00
	 0.00000000E+00	 0.00000000E+00	 0.00000000E+00
	 0.00000000E+00	 0.00000000E+00	 0.00000000E+00
	 0.00000000E+00	 0.00000000E+00	 0.00000000E+00
	 0.00000000E+00	 0.00000000E+00	 0.00000000E+00
	 0.00000000E+00	 0.00000000E+00	 0.00000000E+00
	 0.00000000E+00	 0.00000000E+00	 0.00000000E+00
	 0.00000000E+00	 0.00000000E+00	 0.00000000E+00
	 0.00000000E+00	 0.00000000E+00	 0.00000000E+00
	 0.00000000E+00	 0.00000000E+00	 0.00000000E+00
	 0.00000000E+00	 0.00000000E+00	 0.00000000E+00
	 0.00000000E+00	 0.00000000E+00	 0.00000000E+00
	 0.00000000E+00	 0.00000000E+00	 0.00000000E+00
	 0.00000000E+00	 0.00000000E+00	 0.00000000E+00
	 0.00000000E+00	 0.00000000E+00	 0.00000000E+00
	 0.00000000E+00	 0.00000000E+00	 0.00000000E+00
	 0.00000000E+00	 0.00000000E+00	 0.00000000E+00
	 0.00000000E+00	 0.00000000E+00	 0.00000000E+00
	 0.00000000E+00	 0.00000000E+00	 0.00000000E+00
	 0.00000000E+00	 0.00000000E+00	 0.00000000E+00
	 0.00000000E+00	 0.00000000E+00	 0.00000000E+00
	 0.00000000E+00	 0.00000000E+00	 0.00000000E+00
	 0.00000000E+00	 0.00000000E+00	 0.00000000E+00
	 0.00000000E+00	 0.00000000E+00	 0.00000000E+00
	 0.00000000E+00	 0.00000000E+00	 0.00000000E+00
	 0.00000000E+00	 0.00000000E+00	 0.00000000E+00
	 0.00000000E+00	 0.00000000E+00	 0.00000000E+00
	 0.00000000E+00	 0.00000000E+00	 0.00000000E+00
	 0.00000000E+00	 0.00000000E+00	 0.00000000E+00
	 0.00000000E+00	 0.00000000E+00	 0.00000000E+00
	 0.00000000E+00	 0.00000000E+00	 0.00000000E+00
	 0.00000000E+00	 0.00000000E+00	 0.00000000E+00
	 0.00000000E+00	 0.00000000E+00	 0.00000000E+00
	 0.00000000E+00	 0.00000000E+00	 0.00000000E+00
	 0.00000000E+00	 0.00000000E+00	 0.00000000E+00
	 0.00000000E+00	 0.00000000E+00	 0.00000000E+00
	 0.00000000E+00	 0.00000000E+00	 0.00000000E+00
	 0.00000000E+00	 0.00000000E+00	 0.00000000E+00
	 0.00000000E+00	 0.00000000E+00	 0.00000000E+00
	 0.00000000E+00	 0.00000000E+00	 0.00000000E+00
	 0.00000000E+00	 0.00000000E+00	 0.00000000E+00
	 0.00000000E+00	 0.00000000E+00	 0.00000000E+00
	 0.00000000E+00	 0.00000000E+00	 0.00000000E+00
	 0.00000000E+00	 0.00000000E+00	 0.00000000E+00
	 0.00000000E+00	 0.00000000E+00	 0.00000000E+00
	 0.00000000E+00	 0.00000000E+00	 0.00000000E+00
	 0.00000000E+00	 0.00000000E+00	 0.00000000E+00
	 0.00000000E+00	 0.00000000E+00	 0.00000000E+00
	 0.00000000E+00	 0.00000000E+00	 0.00000000E+00
	 0.00000000E+00	 0.00000000E+00	 0.00000000E+00
	 0.00000000E+00	 0.00000000E+00	 0.00000000E+00
	 0.00000000E+00	 0.00000000E+00	 0.00000000E+00
	 0.00000000E+00	 0.00000000E+00	 0.00000000E+00
	 0.00000000E+00	 0.00000000E+00	 0.00000000E+00
	 0.00000000E+00	 0.00000000E+00	 0.00000000E+00
	 0.00000000E+00	 0.00000000E+00	 0.00000000E+00
	 0.00000000E+00	 0.00000000E+00	 0.00000000E+00
	 0.00000000E+00	 0.00000000E+00	 0.00000000E+00
	 0.00000000E+00	 0.00000000E+00	 0.00000000E+00
	 0.00000000E+00	 0.00000000E+00	 0.00000000E+00
	 0.00000000E+00	 0.00000000E+00	 0.00000000E+00
	 0.00000000E+00	 0.00000000E+00	 0.00000000E+00
	 0.00000000E+00	 0.00000000E+00	 0.00000000E+00
	 0.00000000E+00	 0.00000000E+00	 0.00000000E+00
	 0.00000000E+00	 0.00000000E+00	 0.00000000E+00
	 0.00000000E+00	 0.00000000E+00	 0.00000000E+00
	 0.00000000E+00	 0.00000000E+00	 0.00000000E+00
	 0.00000000E+00	 0.00000000E+00	 0.00000000E+00
	 0.00000000E+00	 0.00000000E+00	 0.00000000E+00
	 0.00000000E+00	 0.00000000E+00	 0.00000000E+00
	 0.00000000E+00	 0.00000000E+00	 0.00000000E+00
	 0.00000000E+00	 0.00000000E+00	 0.00000000E+00
	 0.00000000E+00	 0.00000000E+00	 0.00000000E+00
	 0.00000000E+00	 0.00000000E+00	 0.00000000E+00
	 0.00000000E+00	 0.00000000E+00	 0.00000000E+00
	 0.00000000E+00	 0.00000000E+00	 0.00000000E+00
	 0.00000000E+00	 0.00000000E+00	 0.00000000E+00
	 0.00000000E+00	 0.00000000E+00	 0.00000000E+00
	 0.00000000E+00	 0.00000000E+00	 0.00000000E+00
	 0.00000000E+00	 0.00000000E+00	 0.00000000E+00
	 0.00000000E+00	 0.00000000E+00	 0.00000000E+00
	 0.00000000E+00	 0.00000000E+00	 0.00000000E+00
	 0.00000000E+00	 0.00000000E+00	 0.00000000E+00
	 0.00000000E+00	 0.00000000E+00	 0.00000000E+00
	 0.00000000E+00	 0.00000000E+00	 0.00000000E+00
	 0.00000000E+00	 0.00000000E+00	 0.00000000E+00
	 0.00000000E+00	 0.00000000E+00	 0.00000000E+00
	 0.00000000E+00	 0.00000000E+00	 0.00000000E+00
	 0.00000000E+00	 0.00000000E+00	 0.00000000E+00
	 0.00000000E+00	 0.00000000E+00	 0.00000000E+00
	 0.00000000E+00	 0.00000000E+00	 0.00000000E+00
	 0.00000000E+00	 0.00000000E+00	 0.00000000E+00
	 0.00000000E+00	 0.00000000E+00	 0.00000000E+00
	 0.00000000E+00	 0.00000000E+00	 0.00000000E+00
	 0.00000000E+00	 0.00000000E+00	 0.00000000E+00
	 0.00000000E+00	 0.00000000E+00	 0.00000000E+00
	 0.00000000E+00	 0.00000000E+00	 0.00000000E+00
	 0.00000000E+00	 0.00000000E+00	 0.00000000E+00
	 0.00000000E+00	 0.00000000E+00	 0.00000000E+00
	 0.00000000E+00	 0.00000000E+00	 0.00000000E+00
	 0.00000000E+00	 0.00000000E+00	 0.00000000E+00
	 0.00000000E+00	 0.00000000E+00	 0.00000000E+00
	 0.00000000E+00	 0.00000000E+00	 0.00000000E+00
	 0.00000000E+00	 0.00000000E+00	 0.00000000E+00
	 0.00000000E+00	 0.00000000E+00	 0.00000000E+00
	 0.00000000E+00	 0.00000000E+00	 0.00000000E+00
	 0.00000000E+00	 0.00000000E+00	 0.00000000E+00
	 0.00000000E+00	 0.00000000E+00	 0.00000000E+00
	 0.00000000E+00	 0.00000000E+00	 0.00000000E+00
	 0.00000000E+00	 0.00000000E+00	 0.00000000E+00
	 0.00000000E+00	 0.00000000E+00	 0.00000000E+00
	 0.00000000E+00	 0.00000000E+00	 0.00000000E+00
	 0.00000000E+00	 0.00000000E+00	 0.00000000E+00
	 0.00000000E+00	 0.00000000E+00	 0.00000000E+00
	 0.00000000E+00	 0.00000000E+00	 0.00000000E+00
	 0.00000000E+00	 0.00000000E+00	 0.00000000E+00
	 0.00000000E+00	 0.00000000E+00	 0.00000000E+00
	 0.00000000E+00	 0.00000000E+00	 0.00000000E+00
	 0.00000000E+00	 0.00000000E+00	 0.00000000E+00
	 0.00000000E+00	 0.00000000E+00	 0.00000000E+00
	 0.00000000E+00	 0.00000000E+00	 0.00000000E+00
	 0.00000000E+00	 0.00000000E+00	 0.00000000E+00
	 0.00000000E+00	 0.00000000E+00	 0.00000000E+00
	 0.00000000E+00	 0.00000000E+00	 0.00000000E+00
	 0.00000000E+00	 0.00000000E+00	 0.00000000E+00
	 0.00000000E+00	 0.00000000E+00	 0.00000000E+00
	 0.00000000E+00	 0.00000000E+00	 0.00000000E+00
	 0.00000000E+00	 0.00000000E+00	 0.00000000E+00
	 0.00000000E+00	 0.00000000E+00	 0.00000000E+00
	 0.00000000E+00	 0.00000000E+00	 0.00000000E+00
	 0.00000000E+00	 0.00000000E+00	 0.00000000E+00
	 0.00000000E+00	 0.00000000E+00	 0.00000000E+00
	 0.00000000E+00	 0.00000000E+00	 0.00000000E+00
	 0.00000000E+00	 0.00000000E+00	 0.00000000E+00
	 0.00000000E+00	 0.00000000E+00	 0.00000000E+00
	 0.00000000E+00	 0.00000000E+00	 0.00000000E+00
	 0.00000000E+00	 0.00000000E+00	 0.00000000E+00
	 0.00000000E+00	 0.00000000E+00	 0.00000000E+00
	 0.00000000E+00	 0.00000000E+00	 0.00000000E+00
	 0.00000000E+00	 0.00000000E+00	 0.00000000E+00
	 0.00000000E+00	 0.00000000E+00	 0.00000000E+00
	 0.00000000E+00	 0.00000000E+00	 0.00000000E+00
	 0.00000000E+00	 0.00000000E+00	 0.00000000E+00
	 0.00000000E+00	 0.00000000E+00	 0.00000000E+00
	 0.00000000E+00	 0.00000000E+00	 0.00000000E+00
	 0.00000000E+00	 0.00000000E+00	 0.00000000E+00
	 0.00000000E+00	 0.00000000E+00	 0.00000000E+00
	 0.00000000E+00	 0.00000000E+00	 0.00000000E+00
	 0.00000000E+00	 0.00000000E+00	 0.00000000E+00
	 0.00000000E+00	 0.00000000E+00	 0.00000000E+00
	 0.00000000E+00	 0.00000000E+00	 0.00000000E+00
	 0.00000000E+00	 0.00000000E+00	 0.00000000E+00
	 0.00000000E+00	 0.00000000E+00	 0.00000000E+00
	 0.00000000E+00	 0.00000000E+00	 0.00000000E+00
	 0.00000000E+00	 0.00000000E+00	 0.00000000E+00
	 0.00000000E+00	 0.00000000E+00	 0.00000000E+00
	 0.00000000E+00	 0.00000000E+00	 0.00000000E+00
	 0.00000000E+00	 0.00000000E+00	 0.00000000E+00
	 0.00000000E+00	 0.00000000E+00	 0.00000000E+00
	 0.00000000E+00	 0.00000000E+00	 0.00000000E+00
	 0.00000000E+00	 0.00000000E+00	 0.00000000E+00
	 0.00000000E+00	 0.00000000E+00	 0.00000000E+00
	 0.00000000E+00	 0.00000000E+00	 0.00000000E+00
	 0.00000000E+00	 0.00000000E+00	 0.00000000E+00
	 0.00000000E+00	 0.00000000E+00	 0.00000000E+00
	 0.00000000E+00	 0.00000000E+00	 0.00000000E+00
	 0.00000000E+00	 0.00000000E+00	 0.00000000E+00
	 0.00000000E+00	 0.00000000E+00	 0.00000000E+00
	 0.00000000E+00	 0.00000000E+00	 0.00000000E+00
	 0.00000000E+00	 0.00000000E+00	 0.00000000E+00
	 0.00000000E+00	 0.00000000E+00	 0.00000000E+00
	 0.00000000E+00	 0.00000000E+00	 0.00000000E+00
	 0.00000000E+00	 0.00000000E+00	 0.00000000E+00
	 0.00000000E+00	 0.00000000E+00	 0.00000000E+00
	 0.00000000E+00	 0.00000000E+00	 0.00000000E+00
	 0.00000000E+00	 0.00000000E+00	 0.00000000E+00
	 0.00000000E+00	 0.00000000E+00	 0.00000000E+00
	 0.00000000E+00	 0.00000000E+00	 0.00000000E+00
	 0.00000000E+00	 0.00000000E+00	 0.00000000E+00
	 0.00000000E+00	 0.00000000E+00	 0.00000000E+00
	 0.00000000E+00	 0.00000000E+00	 0.00000000E+00
	 0.00000000E+00	 0.00000000E+00	 0.00000000E+00
	 0.00000000E+00	 0.00000000E+00	 0.00000000E+00
	 0.00000000E+00	 0.00000000E+00	 0.00000000E+00
	 0.00000000E+00	 0.00000000E+00	 0.00000000E+00
	 0.00000000E+00	 0.00000000E+00	 0.00000000E+00
	 0.00000000E+00	 0.00000000E+00	 0.00000000E+00
	 0.00000000E+00	 0.00000000E+00	 0.00000000E+00
	 0.00000000E+00	 0.00000000E+00	 0.00000000E+00
	 0.00000000E+00	 0.00000000E+00	 0.00000000E+00
	 0.00000000E+00	 0.00000000E+00	 0.00000000E+00
	 0.00000000E+00	 0.00000000E+00	 0.00000000E+00
	 0.00000000E+00	 0.00000000E+00	 0.00000000E+00
	 0.00000000E+00	 0.00000000E+00	 0.00000000E+00
	 0.00000000E+00	 0.00000000E+00	 0.00000000E+00
	 0.00000000E+00	 0.00000000E+00	 0.00000000E+00
	 0.00000000E+00	 0.00000000E+00	 0.00000000E+00
	 0.00000000E+00	 0.00000000E+00	 0.00000000E+00
	 0.00000000E+00	 0.00000000E+00	 0.00000000E+00
	 0.00000000E+00	 0.00000000E+00	 0.00000000E+00
	 0.00000000E+00	 0.00000000E+00	 0.00000000E+00
	 0.00000000E+00	 0.00000000E+00	 0.00000000E+00
	 0.00000000E+00	 0.00000000E+00	 0.00000000E+00
	 0.00000000E+00	 0.00000000E+00	 0.00000000E+00
	 0.00000000E+00	 0.00000000E+00	 0.00000000E+00
	 0.00000000E+00	 0.00000000E+00	 0.00000000E+00
	 0.00000000E+00	 0.00000000E+00	 0.00000000E+00
	 0.00000000E+00	 0.00000000E+00	 0.00000000E+00
	 0.00000000E+00	 0.00000000E+00	 0.00000000E+00
	 0.00000000E+00	 0.00000000E+00	 0.00000000E+00
	 0.00000000E+00	 0.00000000E+00	 0.00000000E+00
	 0.00000000E+00	 0.00000000E+00	 0.00000000E+00
	 0.00000000E+00	 0.00000000E+00	 0.00000000E+00
	 0.00000000E+00	 0.00000000E+00	 0.00000000E+00
	 0.00000000E+00	 0.00000000E+00	 0.00000000E+00
	 0.00000000E+00	 0.00000000E+00	 0.00000000E+00
	 0.00000000E+00	 0.00000000E+00	 0.00000000E+00
	 0.00000000E+00	 0.00000000E+00	 0.00000000E+00
	 0.00000000E+00	 0.00000000E+00	 0.00000000E+00
	 0.00000000E+00	 0.00000000E+00	 0.00000000E+00
	 0.00000000E+00	 0.00000000E+00	 0.00000000E+00
	 0.00000000E+00	 0.00000000E+00	 0.00000000E+00
	 0.00000000E+00	 0.00000000E+00	 0.00000000E+00
	 0.00000000E+00	 0.00000000E+00	 0.00000000E+00
	 0.00000000E+00	 0.00000000E+00	 0.00000000E+00
	 0.00000000E+00	 0.00000000E+00	 0.00000000E+00
	 0.00000000E+00	 0.00000000E+00	 0.00000000E+00
	 0.00000000E+00	 0.00000000E+00	 0.00000000E+00
	 0.00000000E+00	 0.00000000E+00	 0.00000000E+00
	 0.00000000E+00	 0.00000000E+00	 0.00000000E+00
	 0.00000000E+00	 0.00000000E+00	 0.00000000E+00
	 0.00000000E+00	 0.00000000E+00	 0.00000000E+00
	 0.00000000E+00	 0.00000000E+00	 0.00000000E+00
	 0.00000000E+00	 0.00000000E+00	 0.00000000E+00
	 0.00000000E+00	 0.00000000E+00	 0.00000000E+00
	 0.00000000E+00	 0.00000000E+00	 0.00000000E+00
	 0.00000000E+00	 0.00000000E+00	 0.00000000E+00
	 0.00000000E+00	 0.00000000E+00	 0.00000000E+00
	 0.00000000E+00	 0.00000000E+00	 0.00000000E+00
	 0.00000000E+00	 0.00000000E+00	 0.00000000E+00
	 0.00000000E+00	 0.00000000E+00	 0.00000000E+00
	 0.00000000E+00	 0.00000000E+00	 0.00000000E+00
	 0.00000000E+00	 0.00000000E+00	 0.00000000E+00
	 0.00000000E+00	 0.00000000E+00	 0.00000000E+00
	 0.00000000E+00	 0.00000000E+00	 0.00000000E+00
	 0.00000000E+00	 0.00000000E+00	 0.00000000E+00
	 0.00000000E+00	 0.00000000E+00	 0.00000000E+00
	 0.00000000E+00	 0.00000000E+00	 0.00000000E+00
	 0.00000000E+00	 0.00000000E+00	 0.00000000E+00
	 0.00000000E+00	 0.00000000E+00	 0.00000000E+00
	 0.00000000E+00	 0.00000000E+00	 0.00000000E+00
	 0.00000000E+00	 0.00000000E+00	 0.00000000E+00
	 0.00000000E+00	 0.00000000E+00	 0.00000000E+00
	 0.00000000E+00	 0.00000000E+00	 0.00000000E+00
	 0.00000000E+00	 0.00000000E+00	 0.00000000E+00
	 0.00000000E+00	 0.00000000E+00	 0.00000000E+00
	 0.00000000E+00	 0.00000000E+00	 0.00000000E+00
	 0.00000000E+00	 0.00000000E+00	 0.00000000E+00
	 0.00000000E+00	 0.00000000E+00	 0.00000000E+00
	 0.00000000E+00	 0.00000000E+00	 0.00000000E+00
	 0.00000000E+00	 0.00000000E+00	 0.00000000E+00
	 0.00000000E+00	 0.00000000E+00	 0.00000000E+00
	 0.00000000E+00	 0.00000000E+00	 0.00000000E+00
	 0.00000000E+00	 0.00000000E+00	 0.00000000E+00
	 0.00000000E+00	 0.00000000E+00	 0.00000000E+00
	 0.00000000E+00	 0.00000000E+00	 0.00000000E+00
	 0.00000000E+00	 0.00000000E+00	 0.00000000E+00
	 0.00000000E+00	 0.00000000E+00	 0.00000000E+00
	 0.00000000E+00	 0.00000000E+00	 0.00000000E+00
	 0.00000000E+00	 0.00000000E+00	 0.00000000E+00
	 0.00000000E+00	 0.00000000E+00	 0.00000000E+00
	 0.00000000E+00	 0.00000000E+00	 0.00000000E+00
	 0.00000000E+00	 0.00000000E+00	 0.00000000E+00
	 0.00000000E+00	 0.00000000E+00	 0.00000000E+00
	 0.00000000E+00	 0.00000000E+00	 0.00000000E+00
	 0.00000000E+00	 0.00000000E+00	 0.00000000E+00
	 0.00000000E+00	 0.00000000E+00	 0.00000000E+00
	 0.00000000E+00	 0.00000000E+00	 0.00000000E+00
	 0.00000000E+00	 0.00000000E+00	 0.00000000E+00
	 0.00000000E+00	 0.00000000E+00	 0.00000000E+00
	 0.00000000E+00	 0.00000000E+00	 0.00000000E+00
	 0.00000000E+00	 0.00000000E+00	 0.00000000E+00
	 0.00000000E+00	 0.00000000E+00	 0.00000000E+00
	 0.00000000E+00	 0.00000000E+00	 0.00000000E+00
	 0.00000000E+00	 0.00000000E+00	 0.00000000E+00
	 0.00000000E+00	 0.00000000E+00	 0.00000000E+00
	 0.00000000E+00	 0.00000000E+00	 0.00000000E+00
	 0.00000000E+00	 0.00000000E+00	 0.00000000E+00
	 0.00000000E+00	 0.00000000E+00	 0.00000000E+00
	 0.00000000E+00	 0.00000000E+00	 0.00000000E+00
	 0.00000000E+00	 0.00000000E+00	 0.00000000E+00
	 0.00000000E+00	 0.00000000E+00	 0.00000000E+00
	 0.00000000E+00	 0.00000000E+00	 0.00000000E+00
	 0.00000000E+00	 0.00000000E+00	 0.00000000E+00
	 0.00000000E+00	 0.00000000E+00	 0.00000000E+00
	 0.00000000E+00	 0.00000000E+00	 0.00000000E+00
	 0.00000000E+00	 0.00000000E+00	 0.00000000E+00
	 0.00000000E+00	 0.00000000E+00	 0.00000000E+00
	 0.00000000E+00	 0.00000000E+00	 0.00000000E+00
	 0.00000000E+00	 0.00000000E+00	 0.00000000E+00
	 0.00000000E+00	 0.00000000E+00	 0.00000000E+00
	 0.00000000E+00	 0.00000000E+00	 0.00000000E+00
	 0.00000000E+00	 0.00000000E+00	 0.00000000E+00
	 0.00000000E+00	 0.00000000E+00	 0.00000000E+00
	 0.00000000E+00	 0.00000000E+00	 0.00000000E+00
	 0.00000000E+00	 0.00000000E+00	 0.00000000E+00
	 0.00000000E+00	 0.00000000E+00	 0.00000000E+00
	 0.00000000E+00	 0.00000000E+00	 0.00000000E+00
	 0.00000000E+00	 0.00000000E+00	 0.00000000E+00
	 0.00000000E+00	 0.00000000E+00	 0.00000000E+00
	 0.00000000E+00	 0.00000000E+00	 0.00000000E+00
	 0.00000000E+00	 0.00000000E+00	 0.00000000E+00
	 0.00000000E+00	 0.00000000E+00	 0.00000000E+00
	 0.00000000E+00	 0.00000000E+00	 0.00000000E+00
	 0.00000000E+00	 0.00000000E+00	 0.00000000E+00
	 0.00000000E+00	 0.00000000E+00	 0.00000000E+00
	 0.00000000E+00	 0.00000000E+00	 0.00000000E+00
	 0.00000000E+00	 0.00000000E+00	 0.00000000E+00
	 0.00000000E+00	 0.00000000E+00	 0.00000000E+00
	 0.00000000E+00	 0.00000000E+00	 0.00000000E+00
	 0.00000000E+00	 0.00000000E+00	 0.00000000E+00
	 0.00000000E+00	 0.00000000E+00	 0.00000000E+00
	 0.00000000E+00	 0.00000000E+00	 0.00000000E+00
	 0.00000000E+00	 0.00000000E+00	 0.00000000E+00
	 0.00000000E+00	 0.00000000E+00	 0.00000000E+00
	 0.00000000E+00	 0.00000000E+00	 0.00000000E+00
	 0.00000000E+00	 0.00000000E+00	 0.00000000E+00
	 0.00000000E+00	 0.00000000E+00	 0.00000000E+00
	 0.00000000E+00	 0.00000000E+00	 0.00000000E+00
	 0.00000000E+00	 0.00000000E+00	 0.00000000E+00
	 0.00000000E+00	 0.00000000E+00	 0.00000000E+00
	 0.00000000E+00	 0.00000000E+00	 0.00000000E+00
	 0.00000000E+00	 0.00000000E+00	 0.00000000E+00
	 0.00000000E+00	 0.00000000E+00	 0.00000000E+00
	 0.00000000E+00	 0.00000000E+00	 0.00000000E+00
	 0.00000000E+00	 0.00000000E+00	 0.00000000E+00
	 0.00000000E+00	 0.00000000E+00	 0.00000000E+00
	 0.00000000E+00	 0.00000000E+00	 0.00000000E+00
	 0.00000000E+00	 0.00000000E+00	 0.00000000E+00
	 0.00000000E+00	 0.00000000E+00	 0.00000000E+00
	 0.00000000E+00	 0.00000000E+00	 0.00000000E+00
	 0.00000000E+00	 0.00000000E+00	 0.00000000E+00
	 0.00000000E+00	 0.00000000E+00	 0.00000000E+00
	 0.00000000E+00	 0.00000000E+00	 0.00000000E+00
	 0.00000000E+00	 0.00000000E+00	 0.00000000E+00
	 0.00000000E+00	 0.00000000E+00	 0.00000000E+00
	 0.00000000E+00	 0.00000000E+00	 0.00000000E+00
	 0.00000000E+00	 0.00000000E+00	 0.00000000E+00
	 0.00000000E+00	 0.00000000E+00	 0.00000000E+00
	 0.00000000E+00	 0.00000000E+00	 0.00000000E+00
	 0.00000000E+00	 0.00000000E+00	 0.00000000E+00
	 0.00000000E+00	 0.00000000E+00	 0.00000000E+00
	 0.00000000E+00	 0.00000000E+00	 0.00000000E+00
	 0.00000000E+00	 0.00000000E+00	 0.00000000E+00
	 0.00000000E+00	 0.00000000E+00	 0.00000000E+00
	 0.00000000E+00	 0.00000000E+00	 0.00000000E+00
	 0.00000000E+00	 0.00000000E+00	 0.00000000E+00
	 0.00000000E+00	 0.00000000E+00	 0.00000000E+00
	 0.00000000E+00	 0.00000000E+00	 0.00000000E+00
	 0.00000000E+00	 0.00000000E+00	 0.00000000E+00
	 0.00000000E+00	 0.00000000E+00	 0.00000000E+00
	 0.00000000E+00	 0.00000000E+00	 0.00000000E+00
	 0.00000000E+00	 0.00000000E+00	 0.00000000E+00
	 0.00000000E+00	 0.00000000E+00	 0.00000000E+00
	 0.00000000E+00	 0.00000000E+00	 0.00000000E+00
	 0.00000000E+00	 0.00000000E+00	 0.00000000E+00
	 0.00000000E+00	 0.00000000E+00	 0.00000000E+00
	 0.00000000E+00	 0.00000000E+00	 0.00000000E+00
	 0.00000000E+00	 0.00000000E+00	 0.00000000E+00
	 0.00000000E+00	 0.00000000E+00	 0.00000000E+00
	 0.00000000E+00	 0.00000000E+00	 0.00000000E+00
	 0.00000000E+00	 0.00000000E+00	 0.00000000E+00
	 0.00000000E+00	 0.00000000E+00	 0.00000000E+00
	 0.00000000E+00	 0.00000000E+00	 0.00000000E+00
	 0.00000000E+00	 0.00000000E+00	 0.00000000E+00
	 0.00000000E+00	 0.00000000E+00	 0.00000000E+00
	 0.00000000E+00	 0.00000000E+00	 0.00000000E+00
	 0.00000000E+00	 0.00000000E+00	 0.00000000E+00
	 0.00000000E+00	 0.00000000E+00	 0.00000000E+00
	 0.00000000E+00	 0.00000000E+00	 0.00000000E+00
	 0.00000000E+00	 0.00000000E+00	 0.00000000E+00
	 0.00000000E+00	 0.00000000E+00	 0.00000000E+00
	 0.00000000E+00	 0.00000000E+00	 0.00000000E+00
	 0.00000000E+00	 0.00000000E+00	 0.00000000E+00
	 0.00000000E+00	 0.00000000E+00	 0.00000000E+00
	 0.00000000E+00	 0.00000000E+00	 0.00000000E+00
	 0.00000000E+00	 0.00000000E+00	 0.00000000E+00
	 0.00000000E+00	 0.00000000E+00	 0.00000000E+00
	 0.00000000E+00	 0.00000000E+00	 0.00000000E+00
	 0.00000000E+00	 0.00000000E+00	 0.00000000E+00
	 0.00000000E+00	 0.00000000E+00	 0.00000000E+00
	 0.00000000E+00	 0.00000000E+00	 0.00000000E+00
	 0.00000000E+00	 0.00000000E+00	 0.00000000E+00
	 0.00000000E+00	 0.00000000E+00	 0.00000000E+00
	 0.00000000E+00	 0.00000000E+00	 0.00000000E+00
	 0.00000000E+00	 0.00000000E+00	 0.00000000E+00
	 0.00000000E+00	 0.00000000E+00	 0.00000000E+00
	 0.00000000E+00	 0.00000000E+00	 0.00000000E+00
	 0.00000000E+00	 0.00000000E+00	 0.00000000E+00
	 0.00000000E+00	 0.00000000E+00	 0.00000000E+00
	 0.00000000E+00	 0.00000000E+00	 0.00000000E+00
	 0.00000000E+00	 0.00000000E+00	 0.00000000E+00
	 0.00000000E+00	 0.00000000E+00	 0.00000000E+00
	 0.00000000E+00	 0.00000000E+00	 0.00000000E+00
	 0.00000000E+00	 0.00000000E+00	 0.00000000E+00
	 0.00000000E+00	 0.00000000E+00	 0.00000000E+00
	 0.00000000E+00	 0.00000000E+00	 0.00000000E+00
	 0.00000000E+00	 0.00000000E+00	 0.00000000E+00
	 0.00000000E+00	 0.00000000E+00	 0.00000000E+00
	 0.00000000E+00	 0.00000000E+00	 0.00000000E+00
	 0.00000000E+00	 0.00000000E+00	 0.00000000E+00
	 0.00000000E+00	 0.00000000E+00	 0.00000000E+00
	 0.00000000E+00	 0.00000000E+00	 0.00000000E+00
	 0.00000000E+00	 0.00000000E+00	 0.00000000E+00
	 0.00000000E+00	 0.00000000E+00	 0.00000000E+00
	 0.00000000E+00	 0.00000000E+00	 0.00000000E+00
	 0.00000000E+00	 0.00000000E+00	 0.00000000E+00
	 0.00000000E+00	 0.00000000E+00	 0.00000000E+00
	 0.00000000E+00	 0.00000000E+00	 0.00000000E+00
	 0.00000000E+00	 0.00000000E+00	 0.00000000E+00
	 0.00000000E+00	 0.00000000E+00	 0.00000000E+00
	 0.00000000E+00	 0.00000000E+00	 0.00000000E+00
	 0.00000000E+00	 0.00000000E+00	 0.00000000E+00
	 0.00000000E+00	 0.00000000E+00	 0.00000000E+00
	 0.00000000E+00	 0.00000000E+00	 0.00000000E+00
	 0.00000000E+00	 0.00000000E+00	 0.00000000E+00
	 0.00000000E+00	 0.00000000E+00	 0.00000000E+00
	 0.00000000E+00	 0.00000000E+00	 0.00000000E+00
	 0.00000000E+00	 0.00000000E+00	 0.00000000E+00
	 0.00000000E+00	 0.00000000E+00	 0.00000000E+00
	 0.00000000E+00	 0.00000000E+00	 0.00000000E+00
	 0.00000000E+00	 0.00000000E+00	 0.00000000E+00
	 0.00000000E+00	 0.00000000E+00	 0.00000000E+00
	 0.00000000E+00	 0.00000000E+00	 0.00000000E+00
	 0.00000000E+00	 0.00000000E+00	 0.00000000E+00
	 0.00000000E+00	 0.00000000E+00	 0.00000000E+00
	 0.00000000E+00	 0.00000000E+00	 0.00000000E+00
	 0.00000000E+00	 0.00000000E+00	 0.00000000E+00
	 0.00000000E+00	 0.00000000E+00	 0.00000000E+00
	 0.00000000E+00	 0.00000000E+00	 0.00000000E+00
	 0.00000000E+00	 0.00000000E+00	 0.00000000E+00
	 0.00000000E+00	 0.00000000E+00	 0.00000000E+00
	 0.00000000E+00	 0.00000000E+00	 0.00000000E+00
	 0.00000000E+00	 0.00000000E+00	 0.00000000E+00
	 0.00000000E+00	 0.00000000E+00	 0.00000000E+00
	 0.00000000E+00	 0.00000000E+00	 0.00000000E+00
	 0.00000000E+00	 0.00000000E+00	 0.00000000E+00
	 0.00000000E+00	 0.00000000E+00	 0.00000000E+00
	 0.00000000E+00	 0.00000000E+00	 0.00000000E+00
	 0.00000000E+00	 0.00000000E+00	 0.00000000E+00
	 0.00000000E+00	 0.00000000E+00	 0.00000000E+00
	 0.00000000E+00	 0.00000000E+00	 0.00000000E+00
	 0.00000000E+00	 0.00000000E+00	 0.00000000E+00
	 0.00000000E+00	 0.00000000E+00	 0.00000000E+00
	 0.00000000E+00	 0.00000000E+00	 0.00000000E+00
	 0.00000000E+00	 0.00000000E+00	 0.00000000E+00
	 0.00000000E+00	 0.00000000E+00	 0.00000000E+00
	 0.00000000E+00	 0.00000000E+00	 0.00000000E+00
	 0.00000000E+00	 0.00000000E+00	 0.00000000E+00
	 0.00000000E+00	 0.00000000E+00	 0.00000000E+00
	 0.00000000E+00	 0.00000000E+00	 0.00000000E+00
	 0.00000000E+00	 0.00000000E+00	 0.00000000E+00
	 0.00000000E+00	 0.00000000E+00	 0.00000000E+00
	 0.00000000E+00	 0.00000000E+00	 0.00000000E+00
	 0.00000000E+00	 0.00000000E+00	 0.00000000E+00
	 0.00000000E+00	 0.00000000E+00	 0.00000000E+00
	 0.00000000E+00	 0.00000000E+00	 0.00000000E+00
	 0.00000000E+00	 0.00000000E+00	 0.00000000E+00
	 0.00000000E+00	 0.00000000E+00	 0.00000000E+00
	 0.00000000E+00	 0.00000000E+00	 0.00000000E+00
	 0.00000000E+00	 0.00000000E+00	 0.00000000E+00
	 0.00000000E+00	 0.00000000E+00	 0.00000000E+00
	 0.00000000E+00	 0.00000000E+00	 0.00000000E+00
	 0.00000000E+00	 0.00000000E+00	 0.00000000E+00
	 0.00000000E+00	 0.00000000E+00	 0.00000000E+00
	 0.00000000E+00	 0.00000000E+00	 0.00000000E+00
	 0.00000000E+00	 0.00000000E+00	 0.00000000E+00
	 0.00000000E+00	 0.00000000E+00	 0.00000000E+00
	 0.00000000E+00	 0.00000000E+00	 0.00000000E+00
	 0.00000000E+00	 0.00000000E+00	 0.00000000E+00
	 0.00000000E+00	 0.00000000E+00	 0.00000000E+00
	 0.00000000E+00	 0.00000000E+00	 0.00000000E+00
	 0.00000000E+00	 0.00000000E+00	 0.00000000E+00
	 0.00000000E+00	 0.00000000E+00	 0.00000000E+00
	 0.00000000E+00	 0.00000000E+00	 0.00000000E+00
	 0.00000000E+00	 0.00000000E+00	 0.00000000E+00
	 0.00000000E+00	 0.00000000E+00	 0.00000000E+00
	 0.00000000E+00	 0.00000000E+00	 0.00000000E+00
	 0.00000000E+00	 0.00000000E+00	 0.00000000E+00
	 0.00000000E+00	 0.00000000E+00	 0.00000000E+00
	 0.00000000E+00	 0.00000000E+00	 0.00000000E+00
	 0.00000000E+00	 0.00000000E+00	 0.00000000E+00
	 0.00000000E+00	 0.00000000E+00	 0.00000000E+00
	 0.00000000E+00	 0.00000000E+00	 0.00000000E+00
	 0.00000000E+00	 0.00000000E+00	 0.00000000E+00
	 0.00000000E+00	 0.00000000E+00	 0.00000000E+00
	 0.00000000E+00	 0.00000000E+00	 0.00000000E+00
	 0.00000000E+00	 0.00000000E+00	 0.00000000E+00
	 0.00000000E+00	 0.00000000E+00	 0.00000000E+00
	 0.00000000E+00	 0.00000000E+00	 0.00000000E+00
	 0.00000000E+00	 0.00000000E+00	 0.00000000E+00
	 0.00000000E+00	 0.00000000E+00	 0.00000000E+00
	 0.00000000E+00	 0.00000000E+00	 0.00000000E+00
	 0.00000000E+00	 0.00000000E+00	 0.00000000E+00
	 0.00000000E+00	 0.00000000E+00	 0.00000000E+00
	 0.00000000E+00	 0.00000000E+00	 0.00000000E+00
	 0.00000000E+00	 0.00000000E+00	 0.00000000E+00
	 0.00000000E+00	 0.00000000E+00	 0.00000000E+00
	 0.00000000E+00	 0.00000000E+00	 0.00000000E+00
	 0.00000000E+00	 0.00000000E+00	 0.00000000E+00
	 0.00000000E+00	 0.00000000E+00	 0.00000000E+00
	 0.00000000E+00	 0.00000000E+00	 0.00000000E+00
	 0.00000000E+00	 0.00000000E+00	 0.00000000E+00
	 0.00000000E+00	 0.00000000E+00	 0.00000000E+00
	 0.00000000E+00	 0.00000000E+00	 0.00000000E+00
	 0.00000000E+00	 0.00000000E+00	 0.00000000E+00
	 0.00000000E+00	 0.00000000E+00	 0.00000000E+00
	 0.00000000E+00	 0.00000000E+00	 0.00000000E+00
	 0.00000000E+00	 0.00000000E+00	 0.00000000E+00
	 0.00000000E+00	 0.00000000E+00	 0.00000000E+00
	 0.00000000E+00	 0.00000000E+00	 0.00000000E+00
	 0.00000000E+00	 0.00000000E+00	 0.00000000E+00
	 0.00000000E+00	 0.00000000E+00	 0.00000000E+00
	 0.00000000E+00	 0.00000000E+00	 0.00000000E+00
	 0.00000000E+00	 0.00000000E+00	 0.00000000E+00
	 0.00000000E+00	 0.00000000E+00	 0.00000000E+00
	 0.00000000E+00	 0.00000000E+00	 0.00000000E+00
	 0.00000000E+00	 0.00000000E+00	 0.00000000E+00
	 0.00000000E+00	 0.00000000E+00	 0.00000000E+00
	 0.00000000E+00	 0.00000000E+00	 0.00000000E+00
	 0.00000000E+00	 0.00000000E+00	 0.00000000E+00
	 0.00000000E+00	 0.00000000E+00	 0.00000000E+00
	 0.00000000E+00	 0.00000000E+00	 0.00000000E+00
	 0.00000000E+00	 0.00000000E+00	 0.00000000E+00
	 0.00000000E+00	 0.00000000E+00	 0.00000000E+00
	 0.00000000E+00	 0.00000000E+00	 0.00000000E+00
	 0.00000000E+00	 0.00000000E+00	 0.00000000E+00
	 0.00000000E+00	 0.00000000E+00	 0.00000000E+00
	 0.00000000E+00	 0.00000000E+00	 0.00000000E+00
	 0.00000000E+00	 0.00000000E+00	 0.00000000E+00
	 0.00000000E+00	 0.00000000E+00	 0.00000000E+00
	 0.00000000E+00	 0.00000000E+00	 0.00000000E+00
	 0.00000000E+00	 0.00000000E+00	 0.00000000E+00
	 0.00000000E+00	 0.00000000E+00	 0.00000000E+00
	 0.00000000E+00	 0.00000000E+00	 0.00000000E+00
	 0.00000000E+00	 0.00000000E+00	 0.00000000E+00
	 0.00000000E+00	 0.00000000E+00	 0.00000000E+00
	 0.00000000E+00	 0.00000000E+00	 0.00000000E+00
	 0.00000000E+00	 0.00000000E+00	 0.00000000E+00
	 0.00000000E+00	 0.00000000E+00	 0.00000000E+00
	 0.00000000E+00	 0.00000000E+00	 0.00000000E+00
	 0.00000000E+00	 0.00000000E+00	 0.00000000E+00
	 0.00000000E+00	 0.00000000E+00	 0.00000000E+00
	 0.00000000E+00	 0.00000000E+00	 0.00000000E+00
	 0.00000000E+00	 0.00000000E+00	 0.00000000E+00
	 0.00000000E+00	 0.00000000E+00	 0.00000000E+00
	 0.00000000E+00	 0.00000000E+00	 0.00000000E+00
	 0.00000000E+00	 0.00000000E+00	 0.00000000E+00
	 0.00000000E+00	 0.00000000E+00	 0.00000000E+00
	 0.00000000E+00	 0.00000000E+00	 0.00000000E+00
	 0.00000000E+00	 0.00000000E+00	 0.00000000E+00
	 0.00000000E+00	 0.00000000E+00	 0.00000000E+00
	 0.00000000E+00	 0.00000000E+00	 0.00000000E+00
	 0.00000000E+00	 0.00000000E+00	 0.00000000E+00
	 0.00000000E+00	 0.00000000E+00	 0.00000000E+00
	 0.00000000E+00	 0.00000000E+00	 0.00000000E+00
	 0.00000000E+00	 0.00000000E+00	 0.00000000E+00
	 0.00000000E+00	 0.00000000E+00	 0.00000000E+00
	 0.00000000E+00	 0.00000000E+00	 0.00000000E+00
	 0.00000000E+00	 0.00000000E+00	 0.00000000E+00
	 0.00000000E+00	 0.00000000E+00	 0.00000000E+00
	 0.00000000E+00	 0.00000000E+00	 0.00000000E+00
	 0.00000000E+00	 0.00000000E+00	 0.00000000E+00
	 0.00000000E+00	 0.00000000E+00	 0.00000000E+00
	 0.00000000E+00	 0.00000000E+00	 0.00000000E+00
	 0.00000000E+00	 0.00000000E+00	 0.00000000E+00
	 0.00000000E+00	 0.00000000E+00	 0.00000000E+00
	 0.00000000E+00	 0.00000000E+00	 0.00000000E+00
	 0.00000000E+00	 0.00000000E+00	 0.00000000E+00
	 0.00000000E+00	 0.00000000E+00	 0.00000000E+00
	 0.00000000E+00	 0.00000000E+00	 0.00000000E+00
	 0.00000000E+00	 0.00000000E+00	 0.00000000E+00
	 0.00000000E+00	 0.00000000E+00	 0.00000000E+00
	 0.00000000E+00	 0.00000000E+00	 0.00000000E+00
	 0.00000000E+00	 0.00000000E+00	 0.00000000E+00
	 0.00000000E+00	 0.00000000E+00	 0.00000000E+00
	 0.00000000E+00	 0.00000000E+00	 0.00000000E+00
	 0.00000000E+00	 0.00000000E+00	 0.00000000E+00
	 0.00000000E+00	 0.00000000E+00	 0.00000000E+00
	 0.00000000E+00	 0.00000000E+00	 0.00000000E+00
	 0.00000000E+00	 0.00000000E+00	 0.00000000E+00
	 0.00000000E+00	 0.00000000E+00	 0.00000000E+00
	 0.00000000E+00	 0.00000000E+00	 0.00000000E+00
	 0.00000000E+00	 0.00000000E+00	 0.00000000E+00
	 0.00000000E+00	 0.00000000E+00	 0.00000000E+00
	 0.00000000E+00	 0.00000000E+00	 0.00000000E+00
	 0.00000000E+00	 0.00000000E+00	 0.00000000E+00
	 0.00000000E+00	 0.00000000E+00	 0.00000000E+00
	 0.00000000E+00	 0.00000000E+00	 0.00000000E+00
	 0.00000000E+00	 0.00000000E+00	 0.00000000E+00
	 0.00000000E+00	 0.00000000E+00	 0.00000000E+00
	 0.00000000E+00	 0.00000000E+00	 0.00000000E+00
	 0.00000000E+00	 0.00000000E+00	 0.00000000E+00
	 0.00000000E+00	 0.00000000E+00	 0.00000000E+00
	 0.00000000E+00	 0.00000000E+00	 0.00000000E+00
	 0.00000000E+00	 0.00000000E+00	 0.00000000E+00
	 0.00000000E+00	 0.00000000E+00	 0.00000000E+00
	 0.00000000E+00	 0.00000000E+00	 0.00000000E+00
	 0.00000000E+00	 0.00000000E+00	 0.00000000E+00
	 0.00000000E+00	 0.00000000E+00	 0.00000000E+00
	 0.00000000E+00	 0.00000000E+00	 0.00000000E+00
	 0.00000000E+00	 0.00000000E+00	 0.00000000E+00
	 0.00000000E+00	 0.00000000E+00	 0.00000000E+00
	 0.00000000E+00	 0.00000000E+00	 0.00000000E+00
	 0.00000000E+00	 0.00000000E+00	 0.00000000E+00
	 0.00000000E+00	 0.00000000E+00	 0.00000000E+00
	 0.00000000E+00	 0.00000000E+00	 0.00000000E+00
	 0.00000000E+00	 0.00000000E+00	 0.00000000E+00
	 0.00000000E+00	 0.00000000E+00	 0.00000000E+00
	 0.00000000E+00	 0.00000000E+00	 0.00000000E+00
	 0.00000000E+00	 0.00000000E+00	 0.00000000E+00
	 0.00000000E+00	 0.00000000E+00	 0.00000000E+00
	 0.00000000E+00	 0.00000000E+00	 0.00000000E+00
	 0.00000000E+00	 0.00000000E+00	 0.00000000E+00
	 0.00000000E+00	 0.00000000E+00	 0.00000000E+00
	 0.00000000E+00	 0.00000000E+00	 0.00000000E+00
	 0.00000000E+00	 0.00000000E+00	 0.00000000E+00
	 0.00000000E+00	 0.00000000E+00	 0.00000000E+00
	 0.00000000E+00	 0.00000000E+00	 0.00000000E+00
	 0.00000000E+00	 0.00000000E+00	 0.00000000E+00
	 0.00000000E+00	 0.00000000E+00	 0.00000000E+00
	 0.00000000E+00	 0.00000000E+00	 0.00000000E+00
	 0.00000000E+00	 0.00000000E+00	 0.00000000E+00
	 0.00000000E+00	 0.00000000E+00	 0.00000000E+00
	 0.00000000E+00	 0.00000000E+00	 0.00000000E+00
	 0.00000000E+00	 0.00000000E+00	 0.00000000E+00
	 0.00000000E+00	 0.00000000E+00	 0.00000000E+00
	 0.00000000E+00	 0.00000000E+00	 0.00000000E+00
	 0.00000000E+00	 0.00000000E+00	 0.00000000E+00
	 0.00000000E+00	 0.00000000E+00	 0.00000000E+00
	 0.00000000E+00	 0.00000000E+00	 0.00000000E+00
	 0.00000000E+00	 0.00000000E+00	 0.00000000E+00
	 0.00000000E+00	 0.00000000E+00	 0.00000000E+00
	 0.00000000E+00	 0.00000000E+00	 0.00000000E+00
	 0.00000000E+00	 0.00000000E+00	 0.00000000E+00
	 0.00000000E+00	 0.00000000E+00	 0.00000000E+00
	 0.00000000E+00	 0.00000000E+00	 0.00000000E+00
	 0.00000000E+00	 0.00000000E+00	 0.00000000E+00
	 0.00000000E+00	 0.00000000E+00	 0.00000000E+00
	 0.00000000E+00	 0.00000000E+00	 0.00000000E+00
	 0.00000000E+00	 0.00000000E+00	 0.00000000E+00
	 0.00000000E+00	 0.00000000E+00	 0.00000000E+00
	 0.00000000E+00	 0.00000000E+00	 0.00000000E+00
	 0.00000000E+00	 0.00000000E+00	 0.00000000E+00
	 0.00000000E+00	 0.00000000E+00	 0.00000000E+00
	 0.00000000E+00	 0.00000000E+00	 0.00000000E+00
	 0.00000000E+00	 0.00000000E+00	 0.00000000E+00
	 0.00000000E+00	 0.00000000E+00	 0.00000000E+00
	 0.00000000E+00	 0.00000000E+00	 0.00000000E+00
	 0.00000000E+00	 0.00000000E+00	 0.00000000E+00
	 0.00000000E+00	 0.00000000E+00	 0.00000000E+00
	 0.00000000E+00	 0.00000000E+00	 0.00000000E+00
	 0.00000000E+00	 0.00000000E+00	 0.00000000E+00
	 0.00000000E+00	 0.00000000E+00	 0.00000000E+00
	 0.00000000E+00	 0.00000000E+00	 0.00000000E+00
	 0.00000000E+00	 0.00000000E+00	 0.00000000E+00
	 0.00000000E+00	 0.00000000E+00	 0.00000000E+00
	 0.00000000E+00	 0.00000000E+00	 0.00000000E+00
	 0.00000000E+00	 0.00000000E+00	 0.00000000E+00
	 0.00000000E+00	 0.00000000E+00	 0.00000000E+00
	 0.00000000E+00	 0.00000000E+00	 0.00000000E+00
	 0.00000000E+00	 0.00000000E+00	 0.00000000E+00
	 0.00000000E+00	 0.00000000E+00	 0.00000000E+00
	 0.00000000E+00	 0.00000000E+00	 0.00000000E+00
	 0.00000000E+00	 0.00000000E+00	 0.00000000E+00
	 0.00000000E+00	 0.00000000E+00	 0.00000000E+00
	 0.00000000E+00	 0.00000000E+00	 0.00000000E+00
	 0.00000000E+00	 0.00000000E+00	 0.00000000E+00
	 0.00000000E+00	 0.00000000E+00	 0.00000000E+00
	 0.00000000E+00	 0.00000000E+00	 0.00000000E+00
	 0.00000000E+00	 0.00000000E+00	 0.00000000E+00
	 0.00000000E+00	 0.00000000E+00	 0.00000000E+00
	 0.00000000E+00	 0.00000000E+00	 0.00000000E+00
	 0.00000000E+00	 0.00000000E+00	 0.00000000E+00
	 0.00000000E+00	 0.00000000E+00	 0.00000000E+00
	 0.00000000E+00	 0.00000000E+00	 0.00000000E+00
	 0.00000000E+00	 0.00000000E+00	 0.00000000E+00
	 0.00000000E+00	 0.00000000E+00	 0.00000000E+00
	 0.00000000E+00	 0.00000000E+00	 0.00000000E+00
	 0.00000000E+00	 0.00000000E+00	 0.00000000E+00
	 0.00000000E+00	 0.00000000E+00	 0.00000000E+00
	 0.00000000E+00	 0.00000000E+00	 0.00000000E+00
	 0.00000000E+00	 0.00000000E+00	 0.00000000E+00
	 0.00000000E+00	 0.00000000E+00	 0.00000000E+00
	 0.00000000E+00	 0.00000000E+00	 0.00000000E+00
	 0.00000000E+00	 0.00000000E+00	 0.00000000E+00
	 0.00000000E+00	 0.00000000E+00	 0.00000000E+00
	 0.00000000E+00	 0.00000000E+00	 0.00000000E+00
	 0.00000000E+00	 0.00000000E+00	 0.00000000E+00
	 0.00000000E+00	 0.00000000E+00	 0.00000000E+00
	 0.00000000E+00	 0.00000000E+00	 0.00000000E+00
	 0.00000000E+00	 0.00000000E+00	 0.00000000E+00
	 0.00000000E+00	 0.00000000E+00	 0.00000000E+00
	 0.00000000E+00	 0.00000000E+00	 0.00000000E+00
	 0.00000000E+00	 0.00000000E+00	 0.00000000E+00
	 0.00000000E+00	 0.00000000E+00	 0.00000000E+00
	 0.00000000E+00	 0.00000000E+00	 0.00000000E+00
	 0.00000000E+00	 0.00000000E+00	 0.00000000E+00
	 0.00000000E+00	 0.00000000E+00	 0.00000000E+00
	 0.00000000E+00	 0.00000000E+00	 0.00000000E+00
	 0.00000000E+00	 0.00000000E+00	 0.00000000E+00
	 0.00000000E+00	 0.00000000E+00	 0.00000000E+00
	 0.00000000E+00	 0.00000000E+00	 0.00000000E+00
	 0.00000000E+00	 0.00000000E+00	 0.00000000E+00
	 0.00000000E+00	 0.00000000E+00	 0.00000000E+00
	 0.00000000E+00	 0.00000000E+00	 0.00000000E+00
	 0.00000000E+00	 0.00000000E+00	 0.00000000E+00
	 0.00000000E+00	 0.00000000E+00	 0.00000000E+00
	 0.00000000E+00	 0.00000000E+00	 0.00000000E+00
	 0.00000000E+00	 0.00000000E+00	 0.00000000E+00
	 0.00000000E+00	 0.00000000E+00	 0.00000000E+00
	 0.00000000E+00	 0.00000000E+00	 0.00000000E+00
	 0.00000000E+00	 0.00000000E+00	 0.00000000E+00
	 0.00000000E+00	 0.00000000E+00	 0.00000000E+00
	 0.00000000E+00	 0.00000000E+00	 0.00000000E+00
	 0.00000000E+00	 0.00000000E+00	 0.00000000E+00
	 0.00000000E+00	 0.00000000E+00	 0.00000000E+00
	 0.00000000E+00	 0.00000000E+00	 0.00000000E+00
	 0.00000000E+00	 0.00000000E+00	 0.00000000E+00
	 0.00000000E+00	 0.00000000E+00	 0.00000000E+00
	 0.00000000E+00	 0.00000000E+00	 0.00000000E+00
	 0.00000000E+00	 0.00000000E+00	 0.00000000E+00
	 0.00000000E+00	 0.00000000E+00	 0.00000000E+00
	 0.00000000E+00	 0.00000000E+00	 0.00000000E+00
	 0.00000000E+00	 0.00000000E+00	 0.00000000E+00
	 0.00000000E+00	 0.00000000E+00	 0.00000000E+00
	 0.00000000E+00	 0.00000000E+00	 0.00000000E+00
	 0.00000000E+00	 0.00000000E+00	 0.00000000E+00
	 0.00000000E+00	 0.00000000E+00	 0.00000000E+00
	 0.00000000E+00	 0.00000000E+00	 0.00000000E+00
	 0.00000000E+00	 0.00000000E+00	 0.00000000E+00
	 0.00000000E+00	 0.00000000E+00	 0.00000000E+00
	 0.00000000E+00	 0.00000000E+00	 0.00000000E+00
	 0.00000000E+00	 0.00000000E+00	 0.00000000E+00
	 0.00000000E+00	 0.00000000E+00	 0.00000000E+00
	 0.00000000E+00	 0.00000000E+00	 0.00000000E+00
	 0.00000000E+00	 0.00000000E+00	 0.00000000E+00
	 0.00000000E+00	 0.00000000E+00	 0.00000000E+00
	 0.00000000E+00	 0.00000000E+00	 0.00000000E+00
	 0.00000000E+00	 0.00000000E+00	 0.00000000E+00
	 0.00000000E+00	 0.00000000E+00	 0.00000000E+00
	 0.00000000E+00	 0.00000000E+00	 0.00000000E+00
	 0.00000000E+00	 0.00000000E+00	 0.00000000E+00
	 0.00000000E+00	 0.00000000E+00	 0.00000000E+00
	 0.00000000E+00	 0.00000000E+00	 0.00000000E+00
	 0.00000000E+00	 0.00000000E+00	 0.00000000E+00
	 0.00000000E+00	 0.00000000E+00	 0.00000000E+00
	 0.00000000E+00	 0.00000000E+00	 0.00000000E+00
	 0.00000000E+00	 0.00000000E+00	 0.00000000E+00
	 0.00000000E+00	 0.00000000E+00	 0.00000000E+00
	 0.00000000E+00	 0.00000000E+00	 0.00000000E+00
	 0.00000000E+00	 0.00000000E+00	 0.00000000E+00
	 0.00000000E+00	 0.00000000E+00	 0.00000000E+00
	 0.00000000E+00	 0.00000000E+00	 0.00000000E+00
	 0.00000000E+00	 0.00000000E+00	 0.00000000E+00
	 0.00000000E+00	 0.00000000E+00	 0.00000000E+00
	 0.00000000E+00	 0.00000000E+00	 0.00000000E+00
	 0.00000000E+00	 0.00000000E+00	 0.00000000E+00
	 0.00000000E+00	 0.00000000E+00	 0.00000000E+00
	 0.00000000E+00	 0.00000000E+00	 0.00000000E+00
	 0.00000000E+00	 0.00000000E+00	 0.00000000E+00
	 0.00000000E+00	 0.00000000E+00	 0.00000000E+00
	 0.00000000E+00	 0.00000000E+00	 0.00000000E+00
	 0.00000000E+00	 0.00000000E+00	 0.00000000E+00
	 0.00000000E+00	 0.00000000E+00	 0.00000000E+00
	 0.00000000E+00	 0.00000000E+00	 0.00000000E+00
	 0.00000000E+00	 0.00000000E+00	 0.00000000E+00
	 0.00000000E+00	 0.00000000E+00	 0.00000000E+00
	 0.00000000E+00	 0.00000000E+00	 0.00000000E+00
	 0.00000000E+00	 0.00000000E+00	 0.00000000E+00
	 0.00000000E+00	 0.00000000E+00	 0.00000000E+00
	 0.00000000E+00	 0.00000000E+00	 0.00000000E+00
	 0.00000000E+00	 0.00000000E+00	 0.00000000E+00
	 0.00000000E+00	 0.00000000E+00	 0.00000000E+00
	 0.00000000E+00	 0.00000000E+00	 0.00000000E+00
	 0.00000000E+00	 0.00000000E+00	 0.00000000E+00
	 0.00000000E+00	 0.00000000E+00	 0.00000000E+00
	 0.00000000E+00	 0.00000000E+00	 0.00000000E+00
	 0.00000000E+00	 0.00000000E+00	 0.00000000E+00
	 0.00000000E+00	 0.00000000E+00	 0.00000000E+00
	 0.00000000E+00	 0.00000000E+00	 0.00000000E+00
	 0.00000000E+00	 0.00000000E+00	 0.00000000E+00
	 0.00000000E+00	 0.00000000E+00	 0.00000000E+00
	 0.00000000E+00	 0.00000000E+00	 0.00000000E+00
	 0.00000000E+00	 0.00000000E+00	 0.00000000E+00
	 0.00000000E+00	 0.00000000E+00	 0.00000000E+00
	 0.00000000E+00	 0.00000000E+00	 0.00000000E+00
	 0.00000000E+00	 0.00000000E+00	 0.00000000E+00
	 0.00000000E+00	 0.00000000E+00	 0.00000000E+00
	 0.00000000E+00	 0.00000000E+00	 0.00000000E+00
	 0.00000000E+00	 0.00000000E+00	 0.00000000E+00
	 0.00000000E+00	 0.00000000E+00	 0.00000000E+00
	 0.00000000E+00	 0.00000000E+00	 0.00000000E+00
	 0.00000000E+00	 0.00000000E+00	 0.00000000E+00
	 0.00000000E+00	 0.00000000E+00	 0.00000000E+00
	 0.00000000E+00	 0.00000000E+00	 0.00000000E+00
	 0.00000000E+00	 0.00000000E+00	 0.00000000E+00
	 0.00000000E+00	 0.00000000E+00	 0.00000000E+00
	 0.00000000E+00	 0.00000000E+00	 0.00000000E+00
	 0.00000000E+00	 0.00000000E+00	 0.00000000E+00
	 0.00000000E+00	 0.00000000E+00	 0.00000000E+00
	 0.00000000E+00	 0.00000000E+00	 0.00000000E+00
	 0.00000000E+00	 0.00000000E+00	 0.00000000E+00
	 0.00000000E+00	 0.00000000E+00	 0.00000000E+00
	 0.00000000E+00	 0.00000000E+00	 0.00000000E+00
	 0.00000000E+00	 0.00000000E+00	 0.00000000E+00
	 0.00000000E+00	 0.00000000E+00	 0.00000000E+00
	 0.00000000E+00	 0.00000000E+00	 0.00000000E+00
	 0.00000000E+00	 0.00000000E+00	 0.00000000E+00
	 0.00000000E+00	 0.00000000E+00	 0.00000000E+00
	 0.00000000E+00	 0.00000000E+00	 0.00000000E+00
	 0.00000000E+00	 0.00000000E+00	 0.00000000E+00
	 0.00000000E+00	 0.00000000E+00	 0.00000000E+00
	 0.00000000E+00	 0.00000000E+00	 0.00000000E+00
	 0.00000000E+00	 0.00000000E+00	 0.00000000E+00
	 0.00000000E+00	 0.00000000E+00	 0.00000000E+00
	 0.00000000E+00	 0.00000000E+00	 0.00000000E+00
	 0.00000000E+00	 0.00000000E+00	 0.00000000E+00
	 0.00000000E+00	 0.00000000E+00	 0.00000000E+00
	 0.00000000E+00	 0.00000000E+00	 0.00000000E+00
	 0.00000000E+00	 0.00000000E+00	 0.00000000E+00
	 0.00000000E+00	 0.00000000E+00	 0.00000000E+00
	 0.00000000E+00	 0.00000000E+00	 0.00000000E+00
	 0.00000000E+00	 0.00000000E+00	 0.00000000E+00
	 0.00000000E+00	 0.00000000E+00	 0.00000000E+00
	 0.00000000E+00	 0.00000000E+00	 0.00000000E+00
	 0.00000000E+00	 0.00000000E+00	 0.00000000E+00
	 0.00000000E+00	 0.00000000E+00	 0.00000000E+00
	 0.00000000E+00	 0.00000000E+00	 0.00000000E+00
	 0.00000000E+00	 0.00000000E+00	 0.00000000E+00
	 0.00000000E+00	 0.00000000E+00	 0.00000000E+00
	 0.00000000E+00	 0.00000000E+00	 0.00000000E+00
	 0.00000000E+00	 0.00000000E+00	 0.00000000E+00
	 0.00000000E+00	 0.00000000E+00	 0.00000000E+00
	 0.00000000E+00	 0.00000000E+00	 0.00000000E+00
	 0.00000000E+00	 0.00000000E+00	 0.00000000E+00
	 0.00000000E+00	 0.00000000E+00	 0.00000000E+00
	 0.00000000E+00	 0.00000000E+00	 0.00000000E+00
	 0.00000000E+00	 0.00000000E+00	 0.00000000E+00
	 0.00000000E+00	 0.00000000E+00	 0.00000000E+00
	 0.00000000E+00	 0.00000000E+00	 0.00000000E+00
	 0.00000000E+00	 0.00000000E+00	 0.00000000E+00
	 0.00000000E+00	 0.00000000E+00	 0.00000000E+00
	 0.00000000E+00	 0.00000000E+00	 0.00000000E+00
	 0.00000000E+00	 0.00000000E+00	 0.00000000E+00
	 0.00000000E+00	 0.00000000E+00	 0.00000000E+00
	 0.00000000E+00	 0.00000000E+00	 0.00000000E+00
	 0.00000000E+00	 0.00000000E+00	 0.00000000E+00
	 0.00000000E+00	 0.00000000E+00	 0.00000000E+00
	 0.00000000E+00	 0.00000000E+00	 0.00000000E+00
	 0.00000000E+00	 0.00000000E+00	 0.00000000E+00
	 0.00000000E+00	 0.00000000E+00	 0.00000000E+00
	 0.00000000E+00	 0.00000000E+00	 0.00000000E+00
	 0.00000000E+00	 0.00000000E+00	 0.00000000E+00
	 0.00000000E+00	 0.00000000E+00	 0.00000000E+00
	 0.00000000E+00	 0.00000000E+00	 0.00000000E+00
	 0.00000000E+00	 0.00000000E+00	 0.00000000E+00
	 0.00000000E+00	 0.00000000E+00	 0.00000000E+00
	 0.00000000E+00	 0.00000000E+00	 0.00000000E+00
	 0.00000000E+00	 0.00000000E+00	 0.00000000E+00
	 0.00000000E+00	 0.00000000E+00	 0.00000000E+00
	 0.00000000E+00	 0.00000000E+00	 0.00000000E+00
	 0.00000000E+00	 0.00000000E+00	 0.00000000E+00
	 0.00000000E+00	 0.00000000E+00	 0.00000000E+00
	 0.00000000E+00	 0.00000000E+00	 0.00000000E+00
	 0.00000000E+00	 0.00000000E+00	 0.00000000E+00
	 0.00000000E+00	 0.00000000E+00	 0.00000000E+00
	 0.00000000E+00	 0.00000000E+00	 0.00000000E+00
	 0.00000000E+00	 0.00000000E+00	 0.00000000E+00
	 0.00000000E+00	 0.00000000E+00	 0.00000000E+00
	 0.00000000E+00	 0.00000000E+00	 0.00000000E+00
	 0.00000000E+00	 0.00000000E+00	 0.00000000E+00
	 0.00000000E+00	 0.00000000E+00	 0.00000000E+00
	 0.00000000E+00	 0.00000000E+00	 0.00000000E+00
	 0.00000000E+00	 0.00000000E+00	 0.00000000E+00
	 0.00000000E+00	 0.00000000E+00	 0.00000000E+00
	 0.00000000E+00	 0.00000000E+00	 0.00000000E+00
	 0.00000000E+00	 0.00000000E+00	 0.00000000E+00
	 0.00000000E+00	 0.00000000E+00	 0.00000000E+00
	 0.00000000E+00	 0.00000000E+00	 0.00000000E+00
	 0.00000000E+00	 0.00000000E+00	 0.00000000E+00
	 0.00000000E+00	 0.00000000E+00	 0.00000000E+00
	 0.00000000E+00	 0.00000000E+00	 0.00000000E+00
	 0.00000000E+00	 0.00000000E+00	 0.00000000E+00
	 0.00000000E+00	 0.00000000E+00	 0.00000000E+00
	 0.00000000E+00	 0.00000000E+00	 0.00000000E+00
	 0.00000000E+00	 0.00000000E+00	 0.00000000E+00
	 0.00000000E+00	 0.00000000E+00	 0.00000000E+00
	 0.00000000E+00	 0.00000000E+00	 0.00000000E+00
	 0.00000000E+00	 0.00000000E+00	 0.00000000E+00
	 0.00000000E+00	 0.00000000E+00	 0.00000000E+00
	 0.00000000E+00	 0.00000000E+00	 0.00000000E+00
	 0.00000000E+00	 0.00000000E+00	 0.00000000E+00
	 0.00000000E+00	 0.00000000E+00	 0.00000000E+00
	 0.00000000E+00	 0.00000000E+00	 0.00000000E+00
	 0.00000000E+00	 0.00000000E+00	 0.00000000E+00
	 0.00000000E+00	 0.00000000E+00	 0.00000000E+00
	 0.00000000E+00	 0.00000000E+00	 0.00000000E+00
	 0.00000000E+00	 0.00000000E+00	 0.00000000E+00
	 0.00000000E+00	 0.00000000E+00	 0.00000000E+00
	 0.00000000E+00	 0.00000000E+00	 0.00000000E+00
	 0.00000000E+00	 0.00000000E+00	 0.00000000E+00
	 0.00000000E+00	 0.00000000E+00	 0.00000000E+00
	 0.00000000E+00	 0.00000000E+00	 0.00000000E+00
	 0.00000000E+00	 0.00000000E+00	 0.00000000E+00
	 0.00000000E+00	 0.00000000E+00	 0.00000000E+00
	 0.00000000E+00	 0.00000000E+00	 0.00000000E+00
	 0.00000000E+00	 0.00000000E+00	 0.00000000E+00
	 0.00000000E+00	 0.00000000E+00	 0.00000000E+00
	 0.00000000E+00	 0.00000000E+00	 0.00000000E+00
	 0.00000000E+00	 0.00000000E+00	 0.00000000E+00
	 0.00000000E+00	 0.00000000E+00	 0.00000000E+00
	 0.00000000E+00	 0.00000000E+00	 0.00000000E+00
	 0.00000000E+00	 0.00000000E+00	 0.00000000E+00
	 0.00000000E+00	 0.00000000E+00	 0.00000000E+00
	 0.00000000E+00	 0.00000000E+00	 0.00000000E+00
	 0.00000000E+00	 0.00000000E+00	 0.00000000E+00
	 0.00000000E+00	 0.00000000E+00	 0.00000000E+00
	 0.00000000E+00	 0.00000000E+00	 0.00000000E+00
	 0.00000000E+00	 0.00000000E+00	 0.00000000E+00
	 0.00000000E+00	 0.00000000E+00	 0.00000000E+00
	 0.00000000E+00	 0.00000000E+00	 0.00000000E+00
	 0.00000000E+00	 0.00000000E+00	 0.00000000E+00
	 0.00000000E+00	 0.00000000E+00	 0.00000000E+00
	 0.00000000E+00	 0.00000000E+00	 0.00000000E+00
	 0.00000000E+00	 0.00000000E+00	 0.00000000E+00
	 0.00000000E+00	 0.00000000E+00	 0.00000000E+00
	 0.00000000E+00	 0.00000000E+00	 0.00000000E+00
	 0.00000000E+00	 0.00000000E+00	 0.00000000E+00
	 0.00000000E+00	 0.00000000E+00	 0.00000000E+00
	 0.00000000E+00	 0.00000000E+00	 0.00000000E+00
	 0.00000000E+00	 0.00000000E+00	 0.00000000E+00
	 0.00000000E+00	 0.00000000E+00	 0.00000000E+00
	 0.00000000E+00	 0.00000000E+00	 0.00000000E+00
	 0.00000000E+00	 0.00000000E+00	 0.00000000E+00
	 0.00000000E+00	 0.00000000E+00	 0.00000000E+00
	 0.00000000E+00	 0.00000000E+00	 0.00000000E+00
	 0.00000000E+00	 0.00000000E+00	 0.00000000E+00
	 0.00000000E+00	 0.00000000E+00	 0.00000000E+00
	 0.00000000E+00	 0.00000000E+00	 0.00000000E+00
	 0.00000000E+00	 0.00000000E+00	 0.00000000E+00
	 0.00000000E+00	 0.00000000E+00	 0.00000000E+00
	 0.00000000E+00	 0.00000000E+00	 0.00000000E+00
	 0.00000000E+00	 0.00000000E+00	 0.00000000E+00
	 0.00000000E+00	 0.00000000E+00	 0.00000000E+00
	 0.00000000E+00	 0.00000000E+00	 0.00000000E+00
	 0.00000000E+00	 0.00000000E+00	 0.00000000E+00
	 0.00000000E+00	 0.00000000E+00	 0.00000000E+00
	 0.00000000E+00	 0.00000000E+00	 0.00000000E+00
	 0.00000000E+00	 0.00000000E+00	 0.00000000E+00
	 0.00000000E+00	 0.00000000E+00	 0.00000000E+00
	 0.00000000E+00	 0.00000000E+00	 0.00000000E+00
	 0.00000000E+00	 0.00000000E+00	 0.00000000E+00
	 0.00000000E+00	 0.00000000E+00	 0.00000000E+00
	 0.00000000E+00	 0.00000000E+00	 0.00000000E+00
	 0.00000000E+00	 0.00000000E+00	 0.00000000E+00
	 0.00000000E+00	 0.00000000E+00	 0.00000000E+00
	 0.00000000E+00	 0.00000000E+00	 0.00000000E+00
	 0.00000000E+00	 0.00000000E+00	 0.00000000E+00
	 0.00000000E+00	 0.00000000E+00	 0.00000000E+00
	 0.00000000E+00	 0.00000000E+00	 0.00000000E+00
	 0.00000000E+00	 0.00000000E+00	 0.00000000E+00
	 0.00000000E+00	 0.00000000E+00	 0.00000000E+00
	 0.00000000E+00	 0.00000000E+00	 0.00000000E+00
	 0.00000000E+00	 0.00000000E+00	 0.00000000E+00
	 0.00000000E+00	 0.00000000E+00	 0.00000000E+00
	 0.00000000E+00	 0.00000000E+00	 0.00000000E+00
	 0.00000000E+00	 0.00000000E+00	 0.00000000E+00
	 0.00000000E+00	 0.00000000E+00	 0.00000000E+00
	 0.00000000E+00	 0.00000000E+00	 0.00000000E+00
	 0.00000000E+00	 0.00000000E+00	 0.00000000E+00
	 0.00000000E+00	 0.00000000E+00	 0.00000000E+00
	 0.00000000E+00	 0.00000000E+00	 0.00000000E+00
	 0.00000000E+00	 0.00000000E+00	 0.00000000E+00
	 0.00000000E+00	 0.00000000E+00	 0.00000000E+00
	 0.00000000E+00	 0.00000000E+00	 0.00000000E+00
	 0.00000000E+00	 0.00000000E+00	 0.00000000E+00
	 0.00000000E+00	 0.00000000E+00	 0.00000000E+00
	 0.00000000E+00	 0.00000000E+00	 0.00000000E+00
	 0.00000000E+00	 0.00000000E+00	 0.00000000E+00
	 0.00000000E+00	 0.00000000E+00	 0.00000000E+00
	 0.00000000E+00	 0.00000000E+00	 0.00000000E+00
	 0.00000000E+00	 0.00000000E+00	 0.00000000E+00
	 0.00000000E+00	 0.00000000E+00	 0.00000000E+00
	 0.00000000E+00	 0.00000000E+00	 0.00000000E+00
	 0.00000000E+00	 0.00000000E+00	 0.00000000E+00
	 0.00000000E+00	 0.00000000E+00	 0.00000000E+00
	 0.00000000E+00	 0.00000000E+00	 0.00000000E+00
	 0.00000000E+00	 0.00000000E+00	 0.00000000E+00
	 0.00000000E+00	 0.00000000E+00	 0.00000000E+00
	 0.00000000E+00	 0.00000000E+00	 0.00000000E+00
	 0.00000000E+00	 0.00000000E+00	 0.00000000E+00
	 0.00000000E+00	 0.00000000E+00	 0.00000000E+00
	 0.00000000E+00	 0.00000000E+00	 0.00000000E+00
	 0.00000000E+00	 0.00000000E+00	 0.00000000E+00
	 0.00000000E+00	 0.00000000E+00	 0.00000000E+00
	 0.00000000E+00	 0.00000000E+00	 0.00000000E+00
	 0.00000000E+00	 0.00000000E+00	 0.00000000E+00
	 0.00000000E+00	 0.00000000E+00	 0.00000000E+00
	 0.00000000E+00	 0.00000000E+00	 0.00000000E+00
	 0.00000000E+00	 0.00000000E+00	 0.00000000E+00
	 0.00000000E+00	 0.00000000E+00	 0.00000000E+00
	 0.00000000E+00	 0.00000000E+00	 0.00000000E+00
	 0.00000000E+00	 0.00000000E+00	 0.00000000E+00
	 0.00000000E+00	 0.00000000E+00	 0.00000000E+00
	 0.00000000E+00	 0.00000000E+00	 0.00000000E+00
	 0.00000000E+00	 0.00000000E+00	 0.00000000E+00
	 0.00000000E+00	 0.00000000E+00	 0.00000000E+00
	 0.00000000E+00	 0.00000000E+00	 0.00000000E+00
	 0.00000000E+00	 0.00000000E+00	 0.00000000E+00
	 0.00000000E+00	 0.00000000E+00	 0.00000000E+00
	 0.00000000E+00	 0.00000000E+00	 0.00000000E+00
	 0.00000000E+00	 0.00000000E+00	 0.00000000E+00
	 0.00000000E+00	 0.00000000E+00	 0.00000000E+00
	 0.00000000E+00	 0.00000000E+00	 0.00000000E+00
	 0.00000000E+00	 0.00000000E+00	 0.00000000E+00
	 0.00000000E+00	 0.00000000E+00	 0.00000000E+00
	 0.00000000E+00	 0.00000000E+00	 0.00000000E+00
	 0.00000000E+00	 0.00000000E+00	 0.00000000E+00
	 0.00000000E+00	 0.00000000E+00	 0.00000000E+00
	 0.00000000E+00	 0.00000000E+00	 0.00000000E+00
	 0.00000000E+00	 0.00000000E+00	 0.00000000E+00
	 0.00000000E+00	 0.00000000E+00	 0.00000000E+00
	 0.00000000E+00	 0.00000000E+00	 0.00000000E+00
	 0.00000000E+00	 0.00000000E+00	 0.00000000E+00
	 0.00000000E+00	 0.00000000E+00	 0.00000000E+00
	 0.00000000E+00	 0.00000000E+00	 0.00000000E+00
	 0.00000000E+00	 0.00000000E+00	 0.00000000E+00
	 0.00000000E+00	 0.00000000E+00	 0.00000000E+00
	 0.00000000E+00	 0.00000000E+00	 0.00000000E+00
	 0.00000000E+00	 0.00000000E+00	 0.00000000E+00
	 0.00000000E+00	 0.00000000E+00	 0.00000000E+00
	 0.00000000E+00	 0.00000000E+00	 0.00000000E+00
	 0.00000000E+00	 0.00000000E+00	 0.00000000E+00
	 0.00000000E+00	 0.00000000E+00	 0.00000000E+00
	 0.00000000E+00	 0.00000000E+00	 0.00000000E+00
	 0.00000000E+00	 0.00000000E+00	 0.00000000E+00
	 0.00000000E+00	 0.00000000E+00	 0.00000000E+00
	 0.00000000E+00	 0.00000000E+00	 0.00000000E+00
	 0.00000000E+00	 0.00000000E+00	 0.00000000E+00
	 0.00000000E+00	 0.00000000E+00	 0.00000000E+00
	 0.00000000E+00	 0.00000000E+00	 0.00000000E+00
	 0.00000000E+00	 0.00000000E+00	 0.00000000E+00
	 0.00000000E+00	 0.00000000E+00	 0.00000000E+00
	 0.00000000E+00	 0.00000000E+00	 0.00000000E+00
	 0.00000000E+00	 0.00000000E+00	 0.00000000E+00
	 0.00000000E+00	 0.00000000E+00	 0.00000000E+00
	 0.00000000E+00	 0.00000000E+00	 0.00000000E+00
	 0.00000000E+00	 0.00000000E+00	 0.00000000E+00
	 0.00000000E+00	 0.00000000E+00	 0.00000000E+00
	 0.00000000E+00	 0.00000000E+00	 0.00000000E+00
	 0.00000000E+00	 0.00000000E+00	 0.00000000E+00
	 0.00000000E+00	 0.00000000E+00	 0.00000000E+00
	 0.00000000E+00	 0.00000000E+00	 0.00000000E+00
	 0.00000000E+00	 0.00000000E+00	 0.00000000E+00
	 0.00000000E+00	 0.00000000E+00	 0.00000000E+00
	 0.00000000E+00	 0.00000000E+00	 0.00000000E+00
	 0.00000000E+00	 0.00000000E+00	 0.00000000E+00
	 0.00000000E+00	 0.00000000E+00	 0.00000000E+00
	 0.00000000E+00	 0.00000000E+00	 0.00000000E+00
	 0.00000000E+00	 0.00000000E+00	 0.00000000E+00
	 0.00000000E+00	 0.00000000E+00	 0.00000000E+00
	 0.00000000E+00	 0.00000000E+00	 0.00000000E+00
	 0.00000000E+00	 0.00000000E+00	 0.00000000E+00
	 0.00000000E+00	 0.00000000E+00	 0.00000000E+00
	 0.00000000E+00	 0.00000000E+00	 0.00000000E+00
	 0.00000000E+00	 0.00000000E+00	 0.00000000E+00
	 0.00000000E+00	 0.00000000E+00	 0.00000000E+00
	 0.00000000E+00	 0.00000000E+00	 0.00000000E+00
	 0.00000000E+00	 0.00000000E+00	 0.00000000E+00
	 0.00000000E+00	 0.00000000E+00	 0.00000000E+00
	 0.00000000E+00	 0.00000000E+00	 0.00000000E+00
	 0.00000000E+00	 0.00000000E+00	 0.00000000E+00
	 0.00000000E+00	 0.00000000E+00	 0.00000000E+00
	 0.00000000E+00	 0.00000000E+00	 0.00000000E+00
	 0.00000000E+00	 0.00000000E+00	 0.00000000E+00
	 0.00000000E+00	 0.00000000E+00	 0.00000000E+00
	 0.00000000E+00	 0.00000000E+00	 0.00000000E+00
	 0.00000000E+00	 0.00000000E+00	 0.00000000E+00
	 0.00000000E+00	 0.00000000E+00	 0.00000000E+00
	 0.00000000E+00	 0.00000000E+00	 0.00000000E+00
	 0.00000000E+00	 0.00000000E+00	 0.00000000E+00
	 0.00000000E+00	 0.00000000E+00	 0.00000000E+00
	 0.00000000E+00	 0.00000000E+00	 0.00000000E+00
	 0.00000000E+00	 0.00000000E+00	 0.00000000E+00
	 0.00000000E+00	 0.00000000E+00	 0.00000000E+00
	 0.00000000E+00	 0.00000000E+00	 0.00000000E+00
	 0.00000000E+00	 0.00000000E+00	 0.00000000E+00
	 0.00000000E+00	 0.00000000E+00	 0.00000000E+00
	 0.00000000E+00	 0.00000000E+00	 0.00000000E+00
	 0.00000000E+00	 0.00000000E+00	 0.00000000E+00
	 0.00000000E+00	 0.00000000E+00	 0.00000000E+00
	 0.00000000E+00	 0.00000000E+00	 0.00000000E+00
	 0.00000000E+00	 0.00000000E+00	 0.00000000E+00
	 0.00000000E+00	 0.00000000E+00	 0.00000000E+00
	 0.00000000E+00	 0.00000000E+00	 0.00000000E+00
	 0.00000000E+00	 0.00000000E+00	 0.00000000E+00
	 0.00000000E+00	 0.00000000E+00	 0.00000000E+00
	 0.00000000E+00	 0.00000000E+00	 0.00000000E+00
	 0.00000000E+00	 0.00000000E+00	 0.00000000E+00
	 0.00000000E+00	 0.00000000E+00	 0.00000000E+00
	 0.00000000E+00	 0.00000000E+00	 0.00000000E+00
	 0.00000000E+00	 0.00000000E+00	 0.00000000E+00
	 0.00000000E+00	 0.00000000E+00	 0.00000000E+00
	 0.00000000E+00	 0.00000000E+00	 0.00000000E+00
	 0.00000000E+00	 0.00000000E+00	 0.00000000E+00
	 0.00000000E+00	 0.00000000E+00	 0.00000000E+00
	 0.00000000E+00	 0.00000000E+00	 0.00000000E+00
	 0.00000000E+00	 0.00000000E+00	 0.00000000E+00
	 0.00000000E+00	 0.00000000E+00	 0.00000000E+00
	 0.00000000E+00	 0.00000000E+00	 0.00000000E+00
	 0.00000000E+00	 0.00000000E+00	 0.00000000E+00
	 0.00000000E+00	 0.00000000E+00	 0.00000000E+00
	 0.00000000E+00	 0.00000000E+00	 0.00000000E+00
	 0.00000000E+00	 0.00000000E+00	 0.00000000E+00
	 0.00000000E+00	 0.00000000E+00	 0.00000000E+00
	 0.00000000E+00	 0.00000000E+00	 0.00000000E+00
	 0.00000000E+00	 0.00000000E+00	 0.00000000E+00
	 0.00000000E+00	 0.00000000E+00	 0.00000000E+00
	 0.00000000E+00	 0.00000000E+00	 0.00000000E+00
	 0.00000000E+00	 0.00000000E+00	 0.00000000E+00
	 0.00000000E+00	 0.00000000E+00	 0.00000000E+00
	 0.00000000E+00	 0.00000000E+00	 0.00000000E+00
	 0.00000000E+00	 0.00000000E+00	 0.00000000E+00
	 0.00000000E+00	 0.00000000E+00	 0.00000000E+00
	 0.00000000E+00	 0.00000000E+00	 0.00000000E+00
	 0.00000000E+00	 0.00000000E+00	 0.00000000E+00
	 0.00000000E+00	 0.00000000E+00	 0.00000000E+00
	 0.00000000E+00	 0.00000000E+00	 0.00000000E+00
	 0.00000000E+00	 0.00000000E+00	 0.00000000E+00
	 0.00000000E+00	 0.00000000E+00	 0.00000000E+00
	 0.00000000E+00	 0.00000000E+00	 0.00000000E+00
	 0.00000000E+00	 0.00000000E+00	 0.00000000E+00
	 0.00000000E+00	 0.00000000E+00	 0.00000000E+00
	 0.00000000E+00	 0.00000000E+00	 0.00000000E+00
	 0.00000000E+00	 0.00000000E+00	 0.00000000E+00
	 0.00000000E+00	 0.00000000E+00	 0.00000000E+00
	 0.00000000E+00	 0.00000000E+00	 0.00000000E+00
	 0.00000000E+00	 0.00000000E+00	 0.00000000E+00
	 0.00000000E+00	 0.00000000E+00	 0.00000000E+00
	 0.00000000E+00	 0.00000000E+00	 0.00000000E+00
	 0.00000000E+00	 0.00000000E+00	 0.00000000E+00
	 0.00000000E+00	 0.00000000E+00	 0.00000000E+00
	 0.00000000E+00	 0.00000000E+00	 0.00000000E+00
	 0.00000000E+00	 0.00000000E+00	 0.00000000E+00
	 0.00000000E+00	 0.00000000E+00	 0.00000000E+00
	 0.00000000E+00	 0.00000000E+00	 0.00000000E+00
	 0.00000000E+00	 0.00000000E+00	 0.00000000E+00
	 0.00000000E+00	 0.00000000E+00	 0.00000000E+00
	 0.00000000E+00	 0.00000000E+00	 0.00000000E+00
	 0.00000000E+00	 0.00000000E+00	 0.00000000E+00
	 0.00000000E+00	 0.00000000E+00	 0.00000000E+00
	 0.00000000E+00	 0.00000000E+00	 0.00000000E+00
	 0.00000000E+00	 0.00000000E+00	 0.00000000E+00
	 0.00000000E+00	 0.00000000E+00	 0.00000000E+00
	 0.00000000E+00	 0.00000000E+00	 0.00000000E+00
	 0.00000000E+00	 0.00000000E+00	 0.00000000E+00
	 0.00000000E+00	 0.00000000E+00	 0.00000000E+00
	 0.00000000E+00	 0.00000000E+00	 0.00000000E+00
	 0.00000000E+00	 0.00000000E+00	 0.00000000E+00
	 0.00000000E+00	 0.00000000E+00	 0.00000000E+00
	 0.00000000E+00	 0.00000000E+00	 0.00000000E+00
	 0.00000000E+00	 0.00000000E+00	 0.00000000E+00
	 0.00000000E+00	 0.00000000E+00	 0.00000000E+00
	 0.00000000E+00	 0.00000000E+00	 0.00000000E+00
	 0.00000000E+00	 0.00000000E+00	 0.00000000E+00
	 0.00000000E+00	 0.00000000E+00	 0.00000000E+00
	 0.00000000E+00	 0.00000000E+00	 0.00000000E+00
	 0.00000000E+00	 0.00000000E+00	 0.00000000E+00
	 0.00000000E+00	 0.00000000E+00	 0.00000000E+00
	 0.00000000E+00	 0.00000000E+00	 0.00000000E+00
	 0.00000000E+00	 0.00000000E+00	 0.00000000E+00
	 0.00000000E+00	 0.00000000E+00	 0.00000000E+00
	 0.00000000E+00	 0.00000000E+00	 0.00000000E+00
	 0.00000000E+00	 0.00000000E+00	 0.00000000E+00
	 0.00000000E+00	 0.00000000E+00	 0.00000000E+00
	 0.00000000E+00	 0.00000000E+00	 0.00000000E+00
	 0.00000000E+00	 0.00000000E+00	 0.00000000E+00
	 0.00000000E+00	 0.00000000E+00	 0.00000000E+00
	 0.00000000E+00	 0.00000000E+00	 0.00000000E+00
	 0.00000000E+00	 0.00000000E+00	 0.00000000E+00
	 0.00000000E+00	 0.00000000E+00	 0.00000000E+00
	 0.00000000E+00	 0.00000000E+00	 0.00000000E+00
	 0.00000000E+00	 0.00000000E+00	 0.00000000E+00
	 0.00000000E+00	 0.00000000E+00	 0.00000000E+00
	 0.00000000E+00	 0.00000000E+00	 0.00000000E+00
	 0.00000000E+00	 0.00000000E+00	 0.00000000E+00
	 0.00000000E+00	 0.00000000E+00	 0.00000000E+00
	 0.00000000E+00	 0.00000000E+00	 0.00000000E+00
	 0.00000000E+00	 0.00000000E+00	 0.00000000E+00
	 0.00000000E+00	 0.00000000E+00	 0.00000000E+00
	 0.00000000E+00	 0.00000000E+00	 0.00000000E+00
	 0.00000000E+00	 0.00000000E+00	 0.00000000E+00
	 0.00000000E+00	 0.00000000E+00	 0.00000000E+00
	 0.00000000E+00	 0.00000000E+00	 0.00000000E+00
	 0.00000000E+00	 0.00000000E+00	 0.00000000E+00
	 0.00000000E+00	 0.00000000E+00	 0.00000000E+00
	 0.00000000E+00	 0.00000000E+00	 0.00000000E+00
	 0.00000000E+00	 0.00000000E+00	 0.00000000E+00
	 0.00000000E+00	 0.00000000E+00	 0.00000000E+00
	 0.00000000E+00	 0.00000000E+00	 0.00000000E+00
	 0.00000000E+00	 0.00000000E+00	 0.00000000E+00
	 0.00000000E+00	 0.00000000E+00	 0.00000000E+00
	 0.00000000E+00	 0.00000000E+00	 0.00000000E+00
	 0.00000000E+00	 0.00000000E+00	 0.00000000E+00
	 0.00000000E+00	 0.00000000E+00	 0.00000000E+00
	 0.00000000E+00	 0.00000000E+00	 0.00000000E+00
	 0.00000000E+00	 0.00000000E+00	 0.00000000E+00
	 0.00000000E+00	 0.00000000E+00	 0.00000000E+00
	 0.00000000E+00	 0.00000000E+00	 0.00000000E+00
	 0.00000000E+00	 0.00000000E+00	 0.00000000E+00
	 0.00000000E+00	 0.00000000E+00	 0.00000000E+00
	 0.00000000E+00	 0.00000000E+00	 0.00000000E+00
	 0.00000000E+00	 0.00000000E+00	 0.00000000E+00
	 0.00000000E+00	 0.00000000E+00	 0.00000000E+00
	 0.00000000E+00	 0.00000000E+00	 0.00000000E+00
	 0.00000000E+00	 0.00000000E+00	 0.00000000E+00
	 0.00000000E+00	 0.00000000E+00	 0.00000000E+00
	 0.00000000E+00	 0.00000000E+00	 0.00000000E+00
	 0.00000000E+00	 0.00000000E+00	 0.00000000E+00
	 0.00000000E+00	 0.00000000E+00	 0.00000000E+00
	 0.00000000E+00	 0.00000000E+00	 0.00000000E+00
	 0.00000000E+00	 0.00000000E+00	 0.00000000E+00
	 0.00000000E+00	 0.00000000E+00	 0.00000000E+00
	 0.00000000E+00	 0.00000000E+00	 0.00000000E+00
	 0.00000000E+00	 0.00000000E+00	 0.00000000E+00
	 0.00000000E+00	 0.00000000E+00	 0.00000000E+00
	 0.00000000E+00	 0.00000000E+00	 0.00000000E+00
	 0.00000000E+00	 0.00000000E+00	 0.00000000E+00
	 0.00000000E+00	 0.00000000E+00	 0.00000000E+00
	 0.00000000E+00	 0.00000000E+00	 0.00000000E+00
	 0.00000000E+00	 0.00000000E+00	 0.00000000E+00
	 0.00000000E+00	 0.00000000E+00	 0.00000000E+00
	 0.00000000E+00	 0.00000000E+00	 0.00000000E+00
	 0.00000000E+00	 0.00000000E+00	 0.00000000E+00
	 0.00000000E+00	 0.00000000E+00	 0.00000000E+00
	 0.00000000E+00	 0.00000000E+00	 0.00000000E+00
	 0.00000000E+00	 0.00000000E+00	 0.00000000E+00
	 0.00000000E+00	 0.00000000E+00	 0.00000000E+00
	 0.00000000E+00	 0.00000000E+00	 0.00000000E+00
	 0.00000000E+00	 0.00000000E+00	 0.00000000E+00
	 0.00000000E+00	 0.00000000E+00	 0.00000000E+00
	 0.00000000E+00	 0.00000000E+00	 0.00000000E+00
	 0.00000000E+00	 0.00000000E+00	 0.00000000E+00
	 0.00000000E+00	 0.00000000E+00	 0.00000000E+00
	 0.00000000E+00	 0.00000000E+00	 0.00000000E+00
	 0.00000000E+00	 0.00000000E+00	 0.00000000E+00
	 0.00000000E+00	 0.00000000E+00	 0.00000000E+00
	 0.00000000E+00	 0.00000000E+00	 0.00000000E+00
	 0.00000000E+00	 0.00000000E+00	 0.00000000E+00
	 0.00000000E+00	 0.00000000E+00	 0.00000000E+00
	 0.00000000E+00	 0.00000000E+00	 0.00000000E+00
	 0.00000000E+00	 0.00000000E+00	 0.00000000E+00
	 0.00000000E+00	 0.00000000E+00	 0.00000000E+00
	 0.00000000E+00	 0.00000000E+00	 0.00000000E+00
	 0.00000000E+00	 0.00000000E+00	 0.00000000E+00
	 0.00000000E+00	 0.00000000E+00	 0.00000000E+00
	 0.00000000E+00	 0.00000000E+00	 0.00000000E+00
	 0.00000000E+00	 0.00000000E+00	 0.00000000E+00
	 0.00000000E+00	 0.00000000E+00	 0.00000000E+00
	 0.00000000E+00	 0.00000000E+00	 0.00000000E+00
	 0.00000000E+00	 0.00000000E+00	 0.00000000E+00
	 0.00000000E+00	 0.00000000E+00	 0.00000000E+00
	 0.00000000E+00	 0.00000000E+00	 0.00000000E+00
	 0.00000000E+00	 0.00000000E+00	 0.00000000E+00
	 0.00000000E+00	 0.00000000E+00	 0.00000000E+00
	 0.00000000E+00	 0.00000000E+00	 0.00000000E+00
	 0.00000000E+00	 0.00000000E+00	 0.00000000E+00
	 0.00000000E+00	 0.00000000E+00	 0.00000000E+00
	 0.00000000E+00	 0.00000000E+00	 0.00000000E+00
	 0.00000000E+00	 0.00000000E+00	 0.00000000E+00
	 0.00000000E+00	 0.00000000E+00	 0.00000000E+00
	 0.00000000E+00	 0.00000000E+00	 0.00000000E+00
	 0.00000000E+00	 0.00000000E+00	 0.00000000E+00
	 0.00000000E+00	 0.00000000E+00	 0.00000000E+00
	 0.00000000E+00	 0.00000000E+00	 0.00000000E+00
	 0.00000000E+00	 0.00000000E+00	 0.00000000E+00
	 0.00000000E+00	 0.00000000E+00	 0.00000000E+00
	 0.00000000E+00	 0.00000000E+00	 0.00000000E+00
	 0.00000000E+00	 0.00000000E+00	 0.00000000E+00
	 0.00000000E+00	 0.00000000E+00	 0.00000000E+00
	 0.00000000E+00	 0.00000000E+00	 0.00000000E+00
	 0.00000000E+00	 0.00000000E+00	 0.00000000E+00
	 0.00000000E+00	 0.00000000E+00	 0.00000000E+00
	 0.00000000E+00	 0.00000000E+00	 0.00000000E+00
	 0.00000000E+00	 0.00000000E+00	 0.00000000E+00
	 0.00000000E+00	 0.00000000E+00	 0.00000000E+00
	 0.00000000E+00	 0.00000000E+00	 0.00000000E+00
	 0.00000000E+00	 0.00000000E+00	 0.00000000E+00
	 0.00000000E+00	 0.00000000E+00	 0.00000000E+00
	 0.00000000E+00	 0.00000000E+00	 0.00000000E+00
	 0.00000000E+00	 0.00000000E+00	 0.00000000E+00
	 0.00000000E+00	 0.00000000E+00	 0.00000000E+00
	 0.00000000E+00	 0.00000000E+00	 0.00000000E+00
	 0.00000000E+00	 0.00000000E+00	 0.00000000E+00
	 0.00000000E+00	 0.00000000E+00	 0.00000000E+00
	 0.00000000E+00	 0.00000000E+00	 0.00000000E+00
	 0.00000000E+00	 0.00000000E+00	 0.00000000E+00
	 0.00000000E+00	 0.00000000E+00	 0.00000000E+00
	 0.00000000E+00	 0.00000000E+00	 0.00000000E+00
	 0.00000000E+00	 0.00000000E+00	 0.00000000E+00
	 0.00000000E+00	 0.00000000E+00	 0.00000000E+00
	 0.00000000E+00	 0.00000000E+00	 0.00000000E+00
	 0.00000000E+00	 0.00000000E+00	 0.00000000E+00
	 0.00000000E+00	 0.00000000E+00	 0.00000000E+00
	 0.00000000E+00	 0.00000000E+00	 0.00000000E+00
	 0.00000000E+00	 0.00000000E+00	 0.00000000E+00
	 0.00000000E+00	 0.00000000E+00	 0.00000000E+00
	 0.00000000E+00	 0.00000000E+00	 0.00000000E+00
	 0.00000000E+00	 0.00000000E+00	 0.00000000E+00
	 0.00000000E+00	 0.00000000E+00	 0.00000000E+00
	 0.00000000E+00	 0.00000000E+00	 0.00000000E+00
	 0.00000000E+00	 0.00000000E+00	 0.00000000E+00
	 0.00000000E+00	 0.00000000E+00	 0.00000000E+00
	 0.00000000E+00	 0.00000000E+00	 0.00000000E+00
	 0.00000000E+00	 0.00000000E+00	 0.00000000E+00
	 0.00000000E+00	 0.00000000E+00	 0.00000000E+00
	 0.00000000E+00	 0.00000000E+00	 0.00000000E+00
	 0.00000000E+00	 0.00000000E+00	 0.00000000E+00
	 0.00000000E+00	 0.00000000E+00	 0.00000000E+00
	 0.00000000E+00	 0.00000000E+00	 0.00000000E+00
	 0.00000000E+00	 0.00000000E+00	 0.00000000E+00
	 0.00000000E+00	 0.00000000E+00	 0.00000000E+00
	 0.00000000E+00	 0.00000000E+00	 0.00000000E+00
	 0.00000000E+00	 0.00000000E+00	 0.00000000E+00
	 0.00000000E+00	 0.00000000E+00	 0.00000000E+00
	 0.00000000E+00	 0.00000000E+00	 0.00000000E+00
	 0.00000000E+00	 0.00000000E+00	 0.00000000E+00
	 0.00000000E+00	 0.00000000E+00	 0.00000000E+00
	 0.00000000E+00	 0.00000000E+00	 0.00000000E+00
	 0.00000000E+00	 0.00000000E+00	 0.00000000E+00
	 0.00000000E+00	 0.00000000E+00	 0.00000000E+00
	 0.00000000E+00	 0.00000000E+00	 0.00000000E+00
	 0.00000000E+00	 0.00000000E+00	 0.00000000E+00
	 0.00000000E+00	 0.00000000E+00	 0.00000000E+00
	 0.00000000E+00	 0.00000000E+00	 0.00000000E+00
	 0.00000000E+00	 0.00000000E+00	 0.00000000E+00
	 0.00000000E+00	 0.00000000E+00	 0.00000000E+00
	 0.00000000E+00	 0.00000000E+00	 0.00000000E+00
	 0.00000000E+00	 0.00000000E+00	 0.00000000E+00
	 0.00000000E+00	 0.00000000E+00	 0.00000000E+00
	 0.00000000E+00	 0.00000000E+00	 0.00000000E+00
	 0.00000000E+00	 0.00000000E+00	 0.00000000E+00
	 0.00000000E+00	 0.00000000E+00	 0.00000000E+00
	 0.00000000E+00	 0.00000000E+00	 0.00000000E+00
	 0.00000000E+00	 0.00000000E+00	 0.00000000E+00
	 0.00000000E+00	 0.00000000E+00	 0.00000000E+00
	 0.00000000E+00	 0.00000000E+00	 0.00000000E+00
	 0.00000000E+00	 0.00000000E+00	 0.00000000E+00
	 0.00000000E+00	 0.00000000E+00	 0.00000000E+00
	 0.00000000E+00	 0.00000000E+00	 0.00000000E+00
	 0.00000000E+00	 0.00000000E+00	 0.00000000E+00
	 0.00000000E+00	 0.00000000E+00	 0.00000000E+00
	 0.00000000E+00	 0.00000000E+00	 0.00000000E+00
	 0.00000000E+00	 0.00000000E+00	 0.00000000E+00
	 0.00000000E+00	 0.00000000E+00	 0.00000000E+00
	 0.00000000E+00	 0.00000000E+00	 0.00000000E+00
	 0.00000000E+00	 0.00000000E+00	 0.00000000E+00
	 0.00000000E+00	 0.00000000E+00	 0.00000000E+00
	 0.00000000E+00	 0.00000000E+00	 0.00000000E+00
	 0.00000000E+00	 0.00000000E+00	 0.00000000E+00
	 0.00000000E+00	 0.00000000E+00	 0.00000000E+00
	 0.00000000E+00	 0.00000000E+00	 0.00000000E+00
	 0.00000000E+00	 0.00000000E+00	 0.00000000E+00
	 0.00000000E+00	 0.00000000E+00	 0.00000000E+00
	 0.00000000E+00	 0.00000000E+00	 0.00000000E+00
	 0.00000000E+00	 0.00000000E+00	 0.00000000E+00
	 0.00000000E+00	 0.00000000E+00	 0.00000000E+00
	 0.00000000E+00	 0.00000000E+00	 0.00000000E+00
	 0.00000000E+00	 0.00000000E+00	 0.00000000E+00
	 0.00000000E+00	 0.00000000E+00	 0.00000000E+00
	 0.00000000E+00	 0.00000000E+00	 0.00000000E+00
	 0.00000000E+00	 0.00000000E+00	 0.00000000E+00
	 0.00000000E+00	 0.00000000E+00	 0.00000000E+00
	 0.00000000E+00	 0.00000000E+00	 0.00000000E+00
	 0.00000000E+00	 0.00000000E+00	 0.00000000E+00
	 0.00000000E+00	 0.00000000E+00	 0.00000000E+00
	 0.00000000E+00	 0.00000000E+00	 0.00000000E+00
	 0.00000000E+00	 0.00000000E+00	 0.00000000E+00
	 0.00000000E+00	 0.00000000E+00	 0.00000000E+00
	 0.00000000E+00	 0.00000000E+00	 0.00000000E+00
	 0.00000000E+00	 0.00000000E+00	 0.00000000E+00
	 0.00000000E+00	 0.00000000E+00	 0.00000000E+00
	 0.00000000E+00	 0.00000000E+00	 0.00000000E+00
	 0.00000000E+00	 0.00000000E+00	 0.00000000E+00
	 0.00000000E+00	 0.00000000E+00	 0.00000000E+00
	 0.00000000E+00	 0.00000000E+00	 0.00000000E+00
	 0.00000000E+00	 0.00000000E+00	 0.00000000E+00
	 0.00000000E+00	 0.00000000E+00	 0.00000000E+00
	 0.00000000E+00	 0.00000000E+00	 0.00000000E+00
	 0.00000000E+00	 0.00000000E+00	 0.00000000E+00
	 0.00000000E+00	 0.00000000E+00	 0.00000000E+00
	 0.00000000E+00	 0.00000000E+00	 0.00000000E+00
	 0.00000000E+00	 0.00000000E+00	 0.00000000E+00
	 0.00000000E+00	 0.00000000E+00	 0.00000000E+00
	 0.00000000E+00	 0.00000000E+00	 0.00000000E+00
	 0.00000000E+00	 0.00000000E+00	 0.00000000E+00
	 0.00000000E+00	 0.00000000E+00	 0.00000000E+00
	 0.00000000E+00	 0.00000000E+00	 0.00000000E+00
	 0.00000000E+00	 0.00000000E+00	 0.00000000E+00
	 0.00000000E+00	 0.00000000E+00	 0.00000000E+00
	 0.00000000E+00	 0.00000000E+00	 0.00000000E+00
	 0.00000000E+00	 0.00000000E+00	 0.00000000E+00
	 0.00000000E+00	 0.00000000E+00	 0.00000000E+00
	 0.00000000E+00	 0.00000000E+00	 0.00000000E+00
	 0.00000000E+00	 0.00000000E+00	 0.00000000E+00
	 0.00000000E+00	 0.00000000E+00	 0.00000000E+00
	 0.00000000E+00	 0.00000000E+00	 0.00000000E+00
	 0.00000000E+00	 0.00000000E+00	 0.00000000E+00
	 0.00000000E+00	 0.00000000E+00	 0.00000000E+00
	 0.00000000E+00	 0.00000000E+00	 0.00000000E+00
	 0.00000000E+00	 0.00000000E+00	 0.00000000E+00
	 0.00000000E+00	 0.00000000E+00	 0.00000000E+00
	 0.00000000E+00	 0.00000000E+00	 0.00000000E+00
	 0.00000000E+00	 0.00000000E+00	 0.00000000E+00
	 0.00000000E+00	 0.00000000E+00	 0.00000000E+00
	 0.00000000E+00	 0.00000000E+00	 0.00000000E+00
	 0.00000000E+00	 0.00000000E+00	 0.00000000E+00
	 0.00000000E+00	 0.00000000E+00	 0.00000000E+00
	 0.00000000E+00	 0.00000000E+00	 0.00000000E+00
	 0.00000000E+00	 0.00000000E+00	 0.00000000E+00
	 0.00000000E+00	 0.00000000E+00	 0.00000000E+00
	 0.00000000E+00	 0.00000000E+00	 0.00000000E+00
	 0.00000000E+00	 0.00000000E+00	 0.00000000E+00
	 0.00000000E+00	 0.00000000E+00	 0.00000000E+00
	 0.00000000E+00	 0.00000000E+00	 0.00000000E+00
	 0.00000000E+00	 0.00000000E+00	 0.00000000E+00
	 0.00000000E+00	 0.00000000E+00	 0.00000000E+00
	 0.00000000E+00	 0.00000000E+00	 0.00000000E+00
	 0.00000000E+00	 0.00000000E+00	 0.00000000E+00
	 0.00000000E+00	 0.00000000E+00	 0.00000000E+00
	 0.00000000E+00	 0.00000000E+00	 0.00000000E+00
	 0.00000000E+00	 0.00000000E+00	 0.00000000E+00
	 0.00000000E+00	 0.00000000E+00	 0.00000000E+00
	 0.00000000E+00	 0.00000000E+00	 0.00000000E+00
	 0.00000000E+00	 0.00000000E+00	 0.00000000E+00
	 0.00000000E+00	 0.00000000E+00	 0.00000000E+00
	 0.00000000E+00	 0.00000000E+00	 0.00000000E+00
	 0.00000000E+00	 0.00000000E+00	 0.00000000E+00
	 0.00000000E+00	 0.00000000E+00	 0.00000000E+00
	 0.00000000E+00	 0.00000000E+00	 0.00000000E+00
	 0.00000000E+00	 0.00000000E+00	 0.00000000E+00
	 0.00000000E+00	 0.00000000E+00	 0.00000000E+00
	 0.00000000E+00	 0.00000000E+00	 0.00000000E+00
	 0.00000000E+00	 0.00000000E+00	 0.00000000E+00
	 0.00000000E+00	 0.00000000E+00	 0.00000000E+00
	 0.00000000E+00	 0.00000000E+00	 0.00000000E+00
	 0.00000000E+00	 0.00000000E+00	 0.00000000E+00
	 0.00000000E+00	 0.00000000E+00	 0.00000000E+00
	 0.00000000E+00	 0.00000000E+00	 0.00000000E+00
	 0.00000000E+00	 0.00000000E+00	 0.00000000E+00
	 0.00000000E+00	 0.00000000E+00	 0.00000000E+00
	 0.00000000E+00	 0.00000000E+00	 0.00000000E+00
	 0.00000000E+00	 0.00000000E+00	 0.00000000E+00
	 0.00000000E+00	 0.00000000E+00	 0.00000000E+00
	 0.00000000E+00	 0.00000000E+00	 0.00000000E+00
	 0.00000000E+00	 0.00000000E+00	 0.00000000E+00
	 0.00000000E+00	 0.00000000E+00	 0.00000000E+00
	 0.00000000E+00	 0.00000000E+00	 0.00000000E+00
	 0.00000000E+00	 0.00000000E+00	 0.00000000E+00
	 0.00000000E+00	 0.00000000E+00	 0.00000000E+00
	 0.00000000E+00	 0.00000000E+00	 0.00000000E+00
	 0.00000000E+00	 0.00000000E+00	 0.00000000E+00
	 0.00000000E+00	 0.00000000E+00	 0.00000000E+00
	 0.00000000E+00	 0.00000000E+00	 0.00000000E+00
	 0.00000000E+00	 0.00000000E+00	 0.00000000E+00
	 0.00000000E+00	 0.00000000E+00	 0.00000000E+00
	 0.00000000E+00	 0.00000000E+00	 0.00000000E+00
	 0.00000000E+00	 0.00000000E+00	 0.00000000E+00
	 0.00000000E+00	 0.00000000E+00	 0.00000000E+00
	 0.00000000E+00	 0.00000000E+00	 0.00000000E+00
	 0.00000000E+00	 0.00000000E+00	 0.00000000E+00
	 0.00000000E+00	 0.00000000E+00	 0.00000000E+00
	 0.00000000E+00	 0.00000000E+00	 0.00000000E+00
	 0.00000000E+00	 0.00000000E+00	 0.00000000E+00
	 0.00000000E+00	 0.00000000E+00	 0.00000000E+00
	 0.00000000E+00	 0.00000000E+00	 0.00000000E+00
	 0.00000000E+00	 0.00000000E+00	 0.00000000E+00
	 0.00000000E+00	 0.00000000E+00	 0.00000000E+00
	 0.00000000E+00	 0.00000000E+00	 0.00000000E+00
	 0.00000000E+00	 0.00000000E+00	 0.00000000E+00
	 0.00000000E+00	 0.00000000E+00	 0.00000000E+00
	 0.00000000E+00	 0.00000000E+00	 0.00000000E+00
	 0.00000000E+00	 0.00000000E+00	 0.00000000E+00
	 0.00000000E+00	 0.00000000E+00	 0.00000000E+00
	 0.00000000E+00	 0.00000000E+00	 0.00000000E+00
	 0.00000000E+00	 0.00000000E+00	 0.00000000E+00
	 0.00000000E+00	 0.00000000E+00	 0.00000000E+00
	 0.00000000E+00	 0.00000000E+00	 0.00000000E+00
	 0.00000000E+00	 0.00000000E+00	 0.00000000E+00
	 0.00000000E+00	 0.00000000E+00	 0.00000000E+00
	 0.00000000E+00	 0.00000000E+00	 0.00000000E+00
	 0.00000000E+00	 0.00000000E+00	 0.00000000E+00
	 0.00000000E+00	 0.00000000E+00	 0.00000000E+00
	 0.00000000E+00	 0.00000000E+00	 0.00000000E+00
	 0.00000000E+00	 0.00000000E+00	 0.00000000E+00
	 0.00000000E+00	 0.00000000E+00	 0.00000000E+00
	 0.00000000E+00	 0.00000000E+00	 0.00000000E+00
	 0.00000000E+00	 0.00000000E+00	 0.00000000E+00
	 0.00000000E+00	 0.00000000E+00	 0.00000000E+00
	 0.00000000E+00	 0.00000000E+00	 0.00000000E+00
	 0.00000000E+00	 0.00000000E+00	 0.00000000E+00
	 0.00000000E+00	 0.00000000E+00	 0.00000000E+00
	 0.00000000E+00	 0.00000000E+00	 0.00000000E+00
	 0.00000000E+00	 0.00000000E+00	 0.00000000E+00
	 0.00000000E+00	 0.00000000E+00	 0.00000000E+00
	 0.00000000E+00	 0.00000000E+00	 0.00000000E+00
	 0.00000000E+00	 0.00000000E+00	 0.00000000E+00
	 0.00000000E+00	 0.00000000E+00	 0.00000000E+00
	 0.00000000E+00	 0.00000000E+00	 0.00000000E+00
	 0.00000000E+00	 0.00000000E+00	 0.00000000E+00
	 0.00000000E+00	 0.00000000E+00	 0.00000000E+00
	 0.00000000E+00	 0.00000000E+00	 0.00000000E+00
	 0.00000000E+00	 0.00000000E+00	 0.00000000E+00
	 0.00000000E+00	 0.00000000E+00	 0.00000000E+00
	 0.00000000E+00	 0.00000000E+00	 0.00000000E+00
	 0.00000000E+00	 0.00000000E+00	 0.00000000E+00
	 0.00000000E+00	 0.00000000E+00	 0.00000000E+00
	 0.00000000E+00	 0.00000000E+00	 0.00000000E+00
	 0.00000000E+00	 0.00000000E+00	 0.00000000E+00
	 0.00000000E+00	 0.00000000E+00	 0.00000000E+00
	 0.00000000E+00	 0.00000000E+00	 0.00000000E+00
	 0.00000000E+00	 0.00000000E+00	 0.00000000E+00
	 0.00000000E+00	 0.00000000E+00	 0.00000000E+00
	 0.00000000E+00	 0.00000000E+00	 0.00000000E+00
	 0.00000000E+00	 0.00000000E+00	 0.00000000E+00
	 0.00000000E+00	 0.00000000E+00	 0.00000000E+00
	 0.00000000E+00	 0.00000000E+00	 0.00000000E+00
	 0.00000000E+00	 0.00000000E+00	 0.00000000E+00
	 0.00000000E+00	 0.00000000E+00	 0.00000000E+00
	 0.00000000E+00	 0.00000000E+00	 0.00000000E+00
	 0.00000000E+00	 0.00000000E+00	 0.00000000E+00
	 0.00000000E+00	 0.00000000E+00	 0.00000000E+00
	 0.00000000E+00	 0.00000000E+00	 0.00000000E+00
	 0.00000000E+00	 0.00000000E+00	 0.00000000E+00
	 0.00000000E+00	 0.00000000E+00	 0.00000000E+00
	 0.00000000E+00	 0.00000000E+00	 0.00000000E+00
	 0.00000000E+00	 0.00000000E+00	 0.00000000E+00
	 0.00000000E+00	 0.00000000E+00	 0.00000000E+00
	 0.00000000E+00	 0.00000000E+00	 0.00000000E+00
	 0.00000000E+00	 0.00000000E+00	 0.00000000E+00
	 0.00000000E+00	 0.00000000E+00	 0.00000000E+00
	 0.00000000E+00	 0.00000000E+00	 0.00000000E+00
	 0.00000000E+00	 0.00000000E+00	 0.00000000E+00
	 0.00000000E+00	 0.00000000E+00	 0.00000000E+00
	 0.00000000E+00	 0.00000000E+00	 0.00000000E+00
	 0.00000000E+00	 0.00000000E+00	 0.00000000E+00
	 0.00000000E+00	 0.00000000E+00	 0.00000000E+00
	 0.00000000E+00	 0.00000000E+00	 0.00000000E+00
	 0.00000000E+00	 0.00000000E+00	 0.00000000E+00
	 0.00000000E+00	 0.00000000E+00	 0.00000000E+00
	 0.00000000E+00	 0.00000000E+00	 0.00000000E+00
	 0.00000000E+00	 0.00000000E+00	 0.00000000E+00
	 0.00000000E+00	 0.00000000E+00	 0.00000000E+00
	 0.00000000E+00	 0.00000000E+00	 0.00000000E+00
	 0.00000000E+00	 0.00000000E+00	 0.00000000E+00
	 0.00000000E+00	 0.00000000E+00	 0.00000000E+00
	 0.00000000E+00	 0.00000000E+00	 0.00000000E+00
	 0.00000000E+00	 0.00000000E+00	 0.00000000E+00
	 0.00000000E+00	 0.00000000E+00	 0.00000000E+00
	 0.00000000E+00	 0.00000000E+00	 0.00000000E+00
	 0.00000000E+00	 0.00000000E+00	 0.00000000E+00
	 0.00000000E+00	 0.00000000E+00	 0.00000000E+00
	 0.00000000E+00	 0.00000000E+00	 0.00000000E+00
	 0.00000000E+00	 0.00000000E+00	 0.00000000E+00
	 0.00000000E+00	 0.00000000E+00	 0.00000000E+00
	 0.00000000E+00	 0.00000000E+00	 0.00000000E+00
	 0.00000000E+00	 0.00000000E+00	 0.00000000E+00
	 0.00000000E+00	 0.00000000E+00	 0.00000000E+00
	 0.00000000E+00	 0.00000000E+00	 0.00000000E+00
	 0.00000000E+00	 0.00000000E+00	 0.00000000E+00
	 0.00000000E+00	 0.00000000E+00	 0.00000000E+00
	 0.00000000E+00	 0.00000000E+00	 0.00000000E+00
	 0.00000000E+00	 0.00000000E+00	 0.00000000E+00
	 0.00000000E+00	 0.00000000E+00	 0.00000000E+00
	 0.00000000E+00	 0.00000000E+00	 0.00000000E+00
	 0.00000000E+00	 0.00000000E+00	 0.00000000E+00
	 0.00000000E+00	 0.00000000E+00	 0.00000000E+00
	 0.00000000E+00	 0.00000000E+00	 0.00000000E+00
	 0.00000000E+00	 0.00000000E+00	 0.00000000E+00
	 0.00000000E+00	 0.00000000E+00	 0.00000000E+00
	 0.00000000E+00	 0.00000000E+00	 0.00000000E+00
	 0.00000000E+00	 0.00000000E+00	 0.00000000E+00
	 0.00000000E+00	 0.00000000E+00	 0.00000000E+00
	 0.00000000E+00	 0.00000000E+00	 0.00000000E+00
	 0.00000000E+00	 0.00000000E+00	 0.00000000E+00
	 0.00000000E+00	 0.00000000E+00	 0.00000000E+00
	 0.00000000E+00	 0.00000000E+00	 0.00000000E+00
	 0.00000000E+00	 0.00000000E+00	 0.00000000E+00
	 0.00000000E+00	 0.00000000E+00	 0.00000000E+00
	 0.00000000E+00	 0.00000000E+00	 0.00000000E+00
	 0.00000000E+00	 0.00000000E+00	 0.00000000E+00
	 0.00000000E+00	 0.00000000E+00	 0.00000000E+00
	 0.00000000E+00	 0.00000000E+00	 0.00000000E+00
	 0.00000000E+00	 0.00000000E+00	 0.00000000E+00
	 0.00000000E+00	 0.00000000E+00	 0.00000000E+00
	 0.00000000E+00	 0.00000000E+00	 0.00000000E+00
	 0.00000000E+00	 0.00000000E+00	 0.00000000E+00
	 0.00000000E+00	 0.00000000E+00	 0.00000000E+00
	 0.00000000E+00	 0.00000000E+00	 0.00000000E+00
	 0.00000000E+00	 0.00000000E+00	 0.00000000E+00
	 0.00000000E+00	 0.00000000E+00	 0.00000000E+00
	 0.00000000E+00	 0.00000000E+00	 0.00000000E+00
	 0.00000000E+00	 0.00000000E+00	 0.00000000E+00
	 0.00000000E+00	 0.00000000E+00	 0.00000000E+00
	 0.00000000E+00	 0.00000000E+00	 0.00000000E+00
	 0.00000000E+00	 0.00000000E+00	 0.00000000E+00
	 0.00000000E+00	 0.00000000E+00	 0.00000000E+00
	 0.00000000E+00	 0.00000000E+00	 0.00000000E+00
	 0.00000000E+00	 0.00000000E+00	 0.00000000E+00
	 0.00000000E+00	 0.00000000E+00	 0.00000000E+00
	 0.00000000E+00	 0.00000000E+00	 0.00000000E+00
	 0.00000000E+00	 0.00000000E+00	 0.00000000E+00
	 0.00000000E+00	 0.00000000E+00	 0.00000000E+00
	 0.00000000E+00	 0.00000000E+00	 0.00000000E+00
	 0.00000000E+00	 0.00000000E+00	 0.00000000E+00
	 0.00000000E+00	 0.00000000E+00	 0.00000000E+00
	 0.00000000E+00	 0.00000000E+00	 0.00000000E+00
	 0.00000000E+00	 0.00000000E+00	 0.00000000E+00
	 0.00000000E+00	 0.00000000E+00	 0.00000000E+00
	 0.00000000E+00	 0.00000000E+00	 0.00000000E+00
	 0.00000000E+00	 0.00000000E+00	 0.00000000E+00
	 0.00000000E+00	 0.00000000E+00	 0.00000000E+00
	 0.00000000E+00	 0.00000000E+00	 0.00000000E+00
	 0.00000000E+00	 0.00000000E+00	 0.00000000E+00
	 0.00000000E+00	 0.00000000E+00	 0.00000000E+00
	 0.00000000E+00	 0.00000000E+00	 0.00000000E+00
	 0.00000000E+00	 0.00000000E+00	 0.00000000E+00
	 0.00000000E+00	 0.00000000E+00	 0.00000000E+00
	 0.00000000E+00	 0.00000000E+00	 0.00000000E+00
	 0.00000000E+00	 0.00000000E+00	 0.00000000E+00
	 0.00000000E+00	 0.00000000E+00	 0.00000000E+00
	 0.00000000E+00	 0.00000000E+00	 0.00000000E+00
	 0.00000000E+00	 0.00000000E+00	 0.00000000E+00
	 0.00000000E+00	 0.00000000E+00	 0.00000000E+00
	 0.00000000E+00	 0.00000000E+00	 0.00000000E+00
	 0.00000000E+00	 0.00000000E+00	 0.00000000E+00
	 0.00000000E+00	 0.00000000E+00	 0.00000000E+00
	 0.00000000E+00	 0.00000000E+00	 0.00000000E+00
	 0.00000000E+00	 0.00000000E+00	 0.00000000E+00
	 0.00000000E+00	 0.00000000E+00	 0.00000000E+00
	 0.00000000E+00	 0.00000000E+00	 0.00000000E+00
	 0.00000000E+00	 0.00000000E+00	 0.00000000E+00
	 0.00000000E+00	 0.00000000E+00	 0.00000000E+00
	 0.00000000E+00	 0.00000000E+00	 0.00000000E+00
	 0.00000000E+00	 0.00000000E+00	 0.00000000E+00
	 0.00000000E+00	 0.00000000E+00	 0.00000000E+00
	 0.00000000E+00	 0.00000000E+00	 0.00000000E+00
	 0.00000000E+00	 0.00000000E+00	 0.00000000E+00
	 0.00000000E+00	 0.00000000E+00	 0.00000000E+00
	 0.00000000E+00	 0.00000000E+00	 0.00000000E+00
	 0.00000000E+00	 0.00000000E+00	 0.00000000E+00
	 0.00000000E+00	 0.00000000E+00	 0.00000000E+00
	 0.00000000E+00	 0.00000000E+00	 0.00000000E+00
	 0.00000000E+00	 0.00000000E+00	 0.00000000E+00
	 0.00000000E+00	 0.00000000E+00	 0.00000000E+00
	 0.00000000E+00	 0.00000000E+00	 0.00000000E+00
	 0.00000000E+00	 0.00000000E+00	 0.00000000E+00
	 0.00000000E+00	 0.00000000E+00	 0.00000000E+00
	 0.00000000E+00	 0.00000000E+00	 0.00000000E+00
	 0.00000000E+00	 0.00000000E+00	 0.00000000E+00
	 0.00000000E+00	 0.00000000E+00	 0.00000000E+00
	 0.00000000E+00	 0.00000000E+00	 0.00000000E+00
	 0.00000000E+00	 0.00000000E+00	 0.00000000E+00
	 0.00000000E+00	 0.00000000E+00	 0.00000000E+00
	 0.00000000E+00	 0.00000000E+00	 0.00000000E+00
	 0.00000000E+00	 0.00000000E+00	 0.00000000E+00
	 0.00000000E+00	 0.00000000E+00	 0.00000000E+00
	 0.00000000E+00	 0.00000000E+00	 0.00000000E+00
	 0.00000000E+00	 0.00000000E+00	 0.00000000E+00
	 0.00000000E+00	 0.00000000E+00	 0.00000000E+00
	 0.00000000E+00	 0.00000000E+00	 0.00000000E+00
	 0.00000000E+00	 0.00000000E+00	 0.00000000E+00
	 0.00000000E+00	 0.00000000E+00	 0.00000000E+00
	 0.00000000E+00	 0.00000000E+00	 0.00000000E+00
	 0.00000000E+00	 0.00000000E+00	 0.00000000E+00
	 0.00000000E+00	 0.00000000E+00	 0.00000000E+00
	 0.00000000E+00	 0.00000000E+00	 0.00000000E+00
	 0.00000000E+00	 0.00000000E+00	 0.00000000E+00
	 0.00000000E+00	 0.00000000E+00	 0.00000000E+00
	 0.00000000E+00	 0.00000000E+00	 0.00000000E+00
	 0.00000000E+00	 0.00000000E+00	 0.00000000E+00
	 0.00000000E+00	 0.00000000E+00	 0.00000000E+00
	 0.00000000E+00	 0.00000000E+00	 0.00000000E+00
	 0.00000000E+00	 0.00000000E+00	 0.00000000E+00
	 0.00000000E+00	 0.00000000E+00	 0.00000000E+00
	 0.00000000E+00	 0.00000000E+00	 0.00000000E+00
	 0.00000000E+00	 0.00000000E+00	 0.00000000E+00
	 0.00000000E+00	 0.00000000E+00	 0.00000000E+00
	 0.00000000E+00	 0.00000000E+00	 0.00000000E+00
	 0.00000000E+00	 0.00000000E+00	 0.00000000E+00
	 0.00000000E+00	 0.00000000E+00	 0.00000000E+00
	 0.00000000E+00	 0.00000000E+00	 0.00000000E+00
	 0.00000000E+00	 0.00000000E+00	 0.00000000E+00
	 0.00000000E+00	 0.00000000E+00	 0.00000000E+00
	 0.00000000E+00	 0.00000000E+00	 0.00000000E+00
	 0.00000000E+00	 0.00000000E+00	 0.00000000E+00
	 0.00000000E+00	 0.00000000E+00	 0.00000000E+00
	 0.00000000E+00	 0.00000000E+00	 0.00000000E+00
	 0.00000000E+00	 0.00000000E+00	 0.00000000E+00
	 0.00000000E+00	 0.00000000E+00	 0.00000000E+00
	 0.00000000E+00	 0.00000000E+00	 0.00000000E+00
	 0.00000000E+00	 0.00000000E+00	 0.00000000E+00
	 0.00000000E+00	 0.00000000E+00	 0.00000000E+00
	 0.00000000E+00	 0.00000000E+00	 0.00000000E+00
	 0.00000000E+00	 0.00000000E+00	 0.00000000E+00
	 0.00000000E+00	 0.00000000E+00	 0.00000000E+00
	 0.00000000E+00	 0.00000000E+00	 0.00000000E+00
	 0.00000000E+00	 0.00000000E+00	 0.00000000E+00
	 0.00000000E+00	 0.00000000E+00	 0.00000000E+00
	 0.00000000E+00	 0.00000000E+00	 0.00000000E+00
	 0.00000000E+00	 0.00000000E+00	 0.00000000E+00
	 0.00000000E+00	 0.00000000E+00	 0.00000000E+00
	 0.00000000E+00	 0.00000000E+00	 0.00000000E+00
	 0.00000000E+00	 0.00000000E+00	 0.00000000E+00
	 0.00000000E+00	 0.00000000E+00	 0.00000000E+00
	 0.00000000E+00	 0.00000000E+00	 0.00000000E+00
	 0.00000000E+00	 0.00000000E+00	 0.00000000E+00
	 0.00000000E+00	 0.00000000E+00	 0.00000000E+00
	 0.00000000E+00	 0.00000000E+00	 0.00000000E+00
	 0.00000000E+00	 0.00000000E+00	 0.00000000E+00
	 0.00000000E+00	 0.00000000E+00	 0.00000000E+00
	 0.00000000E+00	 0.00000000E+00	 0.00000000E+00
	 0.00000000E+00	 0.00000000E+00	 0.00000000E+00
	 0.00000000E+00	 0.00000000E+00	 0.00000000E+00
	 0.00000000E+00	 0.00000000E+00	 0.00000000E+00
	 0.00000000E+00	 0.00000000E+00	 0.00000000E+00
	 0.00000000E+00	 0.00000000E+00	 0.00000000E+00
	 0.00000000E+00	 0.00000000E+00	 0.00000000E+00
	 0.00000000E+00	 0.00000000E+00	 0.00000000E+00
	 0.00000000E+00	 0.00000000E+00	 0.00000000E+00
	 0.00000000E+00	 0.00000000E+00	 0.00000000E+00
	 0.00000000E+00	 0.00000000E+00	 0.00000000E+00
	 0.00000000E+00	 0.00000000E+00	 0.00000000E+00
	 0.00000000E+00	 0.00000000E+00	 0.00000000E+00
	 0.00000000E+00	 0.00000000E+00	 0.00000000E+00
	 0.00000000E+00	 0.00000000E+00	 0.00000000E+00
	 0.00000000E+00	 0.00000000E+00	 0.00000000E+00
	 0.00000000E+00	 0.00000000E+00	 0.00000000E+00
	 0.00000000E+00	 0.00000000E+00	 0.00000000E+00
	 0.00000000E+00	 0.00000000E+00	 0.00000000E+00
	 0.00000000E+00	 0.00000000E+00	 0.00000000E+00
	 0.00000000E+00	 0.00000000E+00	 0.00000000E+00
	 0.00000000E+00	 0.00000000E+00	 0.00000000E+00
	 0.00000000E+00	 0.00000000E+00	 0.00000000E+00
	 0.00000000E+00	 0.00000000E+00	 0.00000000E+00
	 0.00000000E+00	 0.00000000E+00	 0.00000000E+00
	 0.00000000E+00	 0.00000000E+00	 0.00000000E+00
	 0.00000000E+00	 0.00000000E+00	 0.00000000E+00
	 0.00000000E+00	 0.00000000E+00	 0.00000000E+00
	 0.00000000E+00	 0.00000000E+00	 0.00000000E+00
	 0.00000000E+00	 0.00000000E+00	 0.00000000E+00
	 0.00000000E+00	 0.00000000E+00	 0.00000000E+00
	 0.00000000E+00	 0.00000000E+00	 0.00000000E+00
	 0.00000000E+00	 0.00000000E+00	 0.00000000E+00
	 0.00000000E+00	 0.00000000E+00	 0.00000000E+00
	 0.00000000E+00	 0.00000000E+00	 0.00000000E+00
	 0.00000000E+00	 0.00000000E+00	 0.00000000E+00
	 0.00000000E+00	 0.00000000E+00	 0.00000000E+00
	 0.00000000E+00	 0.00000000E+00	 0.00000000E+00
	 0.00000000E+00	 0.00000000E+00	 0.00000000E+00
	 0.00000000E+00	 0.00000000E+00	 0.00000000E+00
	 0.00000000E+00	 0.00000000E+00	 0.00000000E+00
	 0.00000000E+00	 0.00000000E+00	 0.00000000E+00
	 0.00000000E+00	 0.00000000E+00	 0.00000000E+00
	 0.00000000E+00	 0.00000000E+00	 0.00000000E+00
	 0.00000000E+00	 0.00000000E+00	 0.00000000E+00
	 0.00000000E+00	 0.00000000E+00	 0.00000000E+00
	 0.00000000E+00	 0.00000000E+00	 0.00000000E+00
	 0.00000000E+00	 0.00000000E+00	 0.00000000E+00
	 0.00000000E+00	 0.00000000E+00	 0.00000000E+00
	 0.00000000E+00	 0.00000000E+00	 0.00000000E+00
	 0.00000000E+00	 0.00000000E+00	 0.00000000E+00
	 0.00000000E+00	 0.00000000E+00	 0.00000000E+00
	 0.00000000E+00	 0.00000000E+00	 0.00000000E+00
	 0.00000000E+00	 0.00000000E+00	 0.00000000E+00
	 0.00000000E+00	 0.00000000E+00	 0.00000000E+00
	 0.00000000E+00	 0.00000000E+00	 0.00000000E+00
	 0.00000000E+00	 0.00000000E+00	 0.00000000E+00
	 0.00000000E+00	 0.00000000E+00	 0.00000000E+00
	 0.00000000E+00	 0.00000000E+00	 0.00000000E+00
	 0.00000000E+00	 0.00000000E+00	 0.00000000E+00
	 0.00000000E+00	 0.00000000E+00	 0.00000000E+00
	 0.00000000E+00	 0.00000000E+00	 0.00000000E+00
	 0.00000000E+00	 0.00000000E+00	 0.00000000E+00
	 0.00000000E+00	 0.00000000E+00	 0.00000000E+00
	 0.00000000E+00	 0.00000000E+00	 0.00000000E+00
	 0.00000000E+00	 0.00000000E+00	 0.00000000E+00
	 0.00000000E+00	 0.00000000E+00	 0.00000000E+00
	 0.00000000E+00	 0.00000000E+00	 0.00000000E+00
	 0.00000000E+00	 0.00000000E+00	 0.00000000E+00
	 0.00000000E+00	 0.00000000E+00	 0.00000000E+00
	 0.00000000E+00	 0.00000000E+00	 0.00000000E+00
	 0.00000000E+00	 0.00000000E+00	 0.00000000E+00
	 0.00000000E+00	 0.00000000E+00	 0.00000000E+00
	 0.00000000E+00	 0.00000000E+00	 0.00000000E+00
	 0.00000000E+00	 0.00000000E+00	 0.00000000E+00
	 0.00000000E+00	 0.00000000E+00	 0.00000000E+00
	 0.00000000E+00	 0.00000000E+00	 0.00000000E+00
	 0.00000000E+00	 0.00000000E+00	 0.00000000E+00
	 0.00000000E+00	 0.00000000E+00	 0.00000000E+00
	 0.00000000E+00	 0.00000000E+00	 0.00000000E+00
	 0.00000000E+00	 0.00000000E+00	 0.00000000E+00
	 0.00000000E+00	 0.00000000E+00	 0.00000000E+00
	 0.00000000E+00	 0.00000000E+00	 0.00000000E+00
	 0.00000000E+00	 0.00000000E+00	 0.00000000E+00
	 0.00000000E+00	 0.00000000E+00	 0.00000000E+00
	 0.00000000E+00	 0.00000000E+00	 0.00000000E+00
	 0.00000000E+00	 0.00000000E+00	 0.00000000E+00
	 0.00000000E+00	 0.00000000E+00	 0.00000000E+00
	 0.00000000E+00	 0.00000000E+00	 0.00000000E+00
	 0.00000000E+00	 0.00000000E+00	 0.00000000E+00
	 0.00000000E+00	 0.00000000E+00	 0.00000000E+00
	 0.00000000E+00	 0.00000000E+00	 0.00000000E+00
	 0.00000000E+00	 0.00000000E+00	 0.00000000E+00
	 0.00000000E+00	 0.00000000E+00	 0.00000000E+00
	 0.00000000E+00	 0.00000000E+00	 0.00000000E+00
	 0.00000000E+00	 0.00000000E+00	 0.00000000E+00
	 0.00000000E+00	 0.00000000E+00	 0.00000000E+00
	 0.00000000E+00	 0.00000000E+00	 0.00000000E+00
	 0.00000000E+00	 0.00000000E+00	 0.00000000E+00
	 0.00000000E+00	 0.00000000E+00	 0.00000000E+00
	 0.00000000E+00	 0.00000000E+00	 0.00000000E+00
	 0.00000000E+00	 0.00000000E+00	 0.00000000E+00
	 0.00000000E+00	 0.00000000E+00	 0.00000000E+00
	 0.00000000E+00	 0.00000000E+00	 0.00000000E+00
	 0.00000000E+00	 0.00000000E+00	 0.00000000E+00
	 0.00000000E+00	 0.00000000E+00	 0.00000000E+00
	 0.00000000E+00	 0.00000000E+00	 0.00000000E+00
	 0.00000000E+00	 0.00000000E+00	 0.00000000E+00
	 0.00000000E+00	 0.00000000E+00	 0.00000000E+00
	 0.00000000E+00	 0.00000000E+00	 0.00000000E+00
	 0.00000000E+00	 0.00000000E+00	 0.00000000E+00
	 0.00000000E+00	 0.00000000E+00	 0.00000000E+00
	 0.00000000E+00	 0.00000000E+00	 0.00000000E+00
	 0.00000000E+00	 0.00000000E+00	 0.00000000E+00
	 0.00000000E+00	 0.00000000E+00	 0.00000000E+00
	 0.00000000E+00	 0.00000000E+00	 0.00000000E+00
	 0.00000000E+00	 0.00000000E+00	 0.00000000E+00
	 0.00000000E+00	 0.00000000E+00	 0.00000000E+00
	 0.00000000E+00	 0.00000000E+00	 0.00000000E+00
	 0.00000000E+00	 0.00000000E+00	 0.00000000E+00
	 0.00000000E+00	 0.00000000E+00	 0.00000000E+00
	 0.00000000E+00	 0.00000000E+00	 0.00000000E+00
	 0.00000000E+00	 0.00000000E+00	 0.00000000E+00
	 0.00000000E+00	 0.00000000E+00	 0.00000000E+00
	 0.00000000E+00	 0.00000000E+00	 0.00000000E+00
	 0.00000000E+00	 0.00000000E+00	 0.00000000E+00
	 0.00000000E+00	 0.00000000E+00	 0.00000000E+00
	 0.00000000E+00	 0.00000000E+00	 0.00000000E+00
	 0.00000000E+00	 0.00000000E+00	 0.00000000E+00
	 0.00000000E+00	 0.00000000E+00	 0.00000000E+00
	 0.00000000E+00	 0.00000000E+00	 0.00000000E+00
	 0.00000000E+00	 0.00000000E+00	 0.00000000E+00
	 0.00000000E+00	 0.00000000E+00	 0.00000000E+00
	 0.00000000E+00	 0.00000000E+00	 0.00000000E+00
	 0.00000000E+00	 0.00000000E+00	 0.00000000E+00
	 0.00000000E+00	 0.00000000E+00	 0.00000000E+00
	 0.00000000E+00	 0.00000000E+00	 0.00000000E+00
	 0.00000000E+00	 0.00000000E+00	 0.00000000E+00
	 0.00000000E+00	 0.00000000E+00	 0.00000000E+00
	 0.00000000E+00	 0.00000000E+00	 0.00000000E+00
	 0.00000000E+00	 0.00000000E+00	 0.00000000E+00
	 0.00000000E+00	 0.00000000E+00	 0.00000000E+00
	 0.00000000E+00	 0.00000000E+00	 0.00000000E+00
	 0.00000000E+00	 0.00000000E+00	 0.00000000E+00
	 0.00000000E+00	 0.00000000E+00	 0.00000000E+00
	 0.00000000E+00	 0.00000000E+00	 0.00000000E+00
	 0.00000000E+00	 0.00000000E+00	 0.00000000E+00
	 0.00000000E+00	 0.00000000E+00	 0.00000000E+00
	 0.00000000E+00	 0.00000000E+00	 0.00000000E+00
	 0.00000000E+00	 0.00000000E+00	 0.00000000E+00
	 0.00000000E+00	 0.00000000E+00	 0.00000000E+00
	 0.00000000E+00	 0.00000000E+00	 0.00000000E+00
	 0.00000000E+00	 0.00000000E+00	 0.00000000E+00
	 0.00000000E+00	 0.00000000E+00	 0.00000000E+00
	 0.00000000E+00	 0.00000000E+00	 0.00000000E+00
	 0.00000000E+00	 0.00000000E+00	 0.00000000E+00
	 0.00000000E+00	 0.00000000E+00	 0.00000000E+00
	 0.00000000E+00	 0.00000000E+00	 0.00000000E+00
	 0.00000000E+00	 0.00000000E+00	 0.00000000E+00
	 0.00000000E+00	 0.00000000E+00	 0.00000000E+00
	 0.00000000E+00	 0.00000000E+00	 0.00000000E+00
	 0.00000000E+00	 0.00000000E+00	 0.00000000E+00
	 0.00000000E+00	 0.00000000E+00	 0.00000000E+00
	 0.00000000E+00	 0.00000000E+00	 0.00000000E+00
	 0.00000000E+00	 0.00000000E+00	 0.00000000E+00
	 0.00000000E+00	 0.00000000E+00	 0.00000000E+00
	 0.00000000E+00	 0.00000000E+00	 0.00000000E+00
	 0.00000000E+00	 0.00000000E+00	 0.00000000E+00
	 0.00000000E+00	 0.00000000E+00	 0.00000000E+00
	 0.00000000E+00	 0.00000000E+00	 0.00000000E+00
	 0.00000000E+00	 0.00000000E+00	 0.00000000E+00
	 0.00000000E+00	 0.00000000E+00	 0.00000000E+00
	 0.00000000E+00	 0.00000000E+00	 0.00000000E+00
	 0.00000000E+00	 0.00000000E+00	 0.00000000E+00
	 0.00000000E+00	 0.00000000E+00	 0.00000000E+00
	 0.00000000E+00	 0.00000000E+00	 0.00000000E+00
	 0.00000000E+00	 0.00000000E+00	 0.00000000E+00
	 0.00000000E+00	 0.00000000E+00	 0.00000000E+00
	 0.00000000E+00	 0.00000000E+00	 0.00000000E+00
	 0.00000000E+00	 0.00000000E+00	 0.00000000E+00
	 0.00000000E+00	 0.00000000E+00	 0.00000000E+00
	 0.00000000E+00	 0.00000000E+00	 0.00000000E+00
	 0.00000000E+00	 0.00000000E+00	 0.00000000E+00
	 0.00000000E+00	 0.00000000E+00	 0.00000000E+00
	 0.00000000E+00	 0.00000000E+00	 0.00000000E+00
	 0.00000000E+00	 0.00000000E+00	 0.00000000E+00
	 0.00000000E+00	 0.00000000E+00	 0.00000000E+00
	 0.00000000E+00	 0.00000000E+00	 0.00000000E+00
	 0.00000000E+00	 0.00000000E+00	 0.00000000E+00
	 0.00000000E+00	 0.00000000E+00	 0.00000000E+00
	 0.00000000E+00	 0.00000000E+00	 0.00000000E+00
	 0.00000000E+00	 0.00000000E+00	 0.00000000E+00
	 0.00000000E+00	 0.00000000E+00	 0.00000000E+00
	 0.00000000E+00	 0.00000000E+00	 0.00000000E+00
	 0.00000000E+00	 0.00000000E+00	 0.00000000E+00
	 0.00000000E+00	 0.00000000E+00	 0.00000000E+00
	 0.00000000E+00	 0.00000000E+00	 0.00000000E+00
	 0.00000000E+00	 0.00000000E+00	 0.00000000E+00
	 0.00000000E+00	 0.00000000E+00	 0.00000000E+00
	 0.00000000E+00	 0.00000000E+00	 0.00000000E+00
	 0.00000000E+00	 0.00000000E+00	 0.00000000E+00
	 0.00000000E+00	 0.00000000E+00	 0.00000000E+00
	 0.00000000E+00	 0.00000000E+00	 0.00000000E+00
	 0.00000000E+00	 0.00000000E+00	 0.00000000E+00
	 0.00000000E+00	 0.00000000E+00	 0.00000000E+00
	 0.00000000E+00	 0.00000000E+00	 0.00000000E+00
	 0.00000000E+00	 0.00000000E+00	 0.00000000E+00
	 0.00000000E+00	 0.00000000E+00	 0.00000000E+00
	 0.00000000E+00	 0.00000000E+00	 0.00000000E+00
	 0.00000000E+00	 0.00000000E+00	 0.00000000E+00
	 0.00000000E+00	 0.00000000E+00	 0.00000000E+00
	 0.00000000E+00	 0.00000000E+00	 0.00000000E+00
	 0.00000000E+00	 0.00000000E+00	 0.00000000E+00
	 0.00000000E+00	 0.00000000E+00	 0.00000000E+00
	 0.00000000E+00	 0.00000000E+00	 0.00000000E+00
	 0.00000000E+00	 0.00000000E+00	 0.00000000E+00
	 0.00000000E+00	 0.00000000E+00	 0.00000000E+00
	 0.00000000E+00	 0.00000000E+00	 0.00000000E+00
	 0.00000000E+00	 0.00000000E+00	 0.00000000E+00
	 0.00000000E+00	 0.00000000E+00	 0.00000000E+00
	 0.00000000E+00	 0.00000000E+00	 0.00000000E+00
	 0.00000000E+00	 0.00000000E+00	 0.00000000E+00
	 0.00000000E+00	 0.00000000E+00	 0.00000000E+00
	 0.00000000E+00	 0.00000000E+00	 0.00000000E+00
	 0.00000000E+00	 0.00000000E+00	 0.00000000E+00
	 0.00000000E+00	 0.00000000E+00	 0.00000000E+00
	 0.00000000E+00	 0.00000000E+00	 0.00000000E+00
	 0.00000000E+00	 0.00000000E+00	 0.00000000E+00
	 0.00000000E+00	 0.00000000E+00	 0.00000000E+00
	 0.00000000E+00	 0.00000000E+00	 0.00000000E+00
	 0.00000000E+00	 0.00000000E+00	 0.00000000E+00
	 0.00000000E+00	 0.00000000E+00	 0.00000000E+00
	 0.00000000E+00	 0.00000000E+00	 0.00000000E+00
	 0.00000000E+00	 0.00000000E+00	 0.00000000E+00
	 0.00000000E+00	 0.00000000E+00	 0.00000000E+00
	 0.00000000E+00	 0.00000000E+00	 0.00000000E+00
	 0.00000000E+00	 0.00000000E+00	 0.00000000E+00
	 0.00000000E+00	 0.00000000E+00	 0.00000000E+00
	 0.00000000E+00	 0.00000000E+00	 0.00000000E+00
	 0.00000000E+00	 0.00000000E+00	 0.00000000E+00
	 0.00000000E+00	 0.00000000E+00	 0.00000000E+00
	 0.00000000E+00	 0.00000000E+00	 0.00000000E+00
	 0.00000000E+00	 0.00000000E+00	 0.00000000E+00
	 0.00000000E+00	 0.00000000E+00	 0.00000000E+00
	 0.00000000E+00	 0.00000000E+00	 0.00000000E+00
	 0.00000000E+00	 0.00000000E+00	 0.00000000E+00
	 0.00000000E+00	 0.00000000E+00	 0.00000000E+00
	 0.00000000E+00	 0.00000000E+00	 0.00000000E+00
	 0.00000000E+00	 0.00000000E+00	 0.00000000E+00
	 0.00000000E+00	 0.00000000E+00	 0.00000000E+00
	 0.00000000E+00	 0.00000000E+00	 0.00000000E+00
	 0.00000000E+00	 0.00000000E+00	 0.00000000E+00
	 0.00000000E+00	 0.00000000E+00	 0.00000000E+00
	 0.00000000E+00	 0.00000000E+00	 0.00000000E+00
	 0.00000000E+00	 0.00000000E+00	 0.00000000E+00
	 0.00000000E+00	 0.00000000E+00	 0.00000000E+00
	 0.00000000E+00	 0.00000000E+00	 0.00000000E+00
	 0.00000000E+00	 0.00000000E+00	 0.00000000E+00
	 0.00000000E+00	 0.00000000E+00	 0.00000000E+00
	 0.00000000E+00	 0.00000000E+00	 0.00000000E+00
	 0.00000000E+00	 0.00000000E+00	 0.00000000E+00
	 0.00000000E+00	 0.00000000E+00	 0.00000000E+00
	 0.00000000E+00	 0.00000000E+00	 0.00000000E+00
	 0.00000000E+00	 0.00000000E+00	 0.00000000E+00
	 0.00000000E+00	 0.00000000E+00	 0.00000000E+00
	 0.00000000E+00	 0.00000000E+00	 0.00000000E+00
	 0.00000000E+00	 0.00000000E+00	 0.00000000E+00
	 0.00000000E+00	 0.00000000E+00	 0.00000000E+00
	 0.00000000E+00	 0.00000000E+00	 0.00000000E+00
	 0.00000000E+00	 0.00000000E+00	 0.00000000E+00
	 0.00000000E+00	 0.00000000E+00	 0.00000000E+00
	 0.00000000E+00	 0.00000000E+00	 0.00000000E+00
	 0.00000000E+00	 0.00000000E+00	 0.00000000E+00
	 0.00000000E+00	 0.00000000E+00	 0.00000000E+00
	 0.00000000E+00	 0.00000000E+00	 0.00000000E+00
	 0.00000000E+00	 0.00000000E+00	 0.00000000E+00
	 0.00000000E+00	 0.00000000E+00	 0.00000000E+00
	 0.00000000E+00	 0.00000000E+00	 0.00000000E+00
	 0.00000000E+00	 0.00000000E+00	 0.00000000E+00
	 0.00000000E+00	 0.00000000E+00	 0.00000000E+00
	 0.00000000E+00	 0.00000000E+00	 0.00000000E+00
	 0.00000000E+00	 0.00000000E+00	 0.00000000E+00
	 0.00000000E+00	 0.00000000E+00	 0.00000000E+00
	 0.00000000E+00	 0.00000000E+00	 0.00000000E+00
	 0.00000000E+00	 0.00000000E+00	 0.00000000E+00
	 0.00000000E+00	 0.00000000E+00	 0.00000000E+00
	 0.00000000E+00	 0.00000000E+00	 0.00000000E+00
	 0.00000000E+00	 0.00000000E+00	 0.00000000E+00
	 0.00000000E+00	 0.00000000E+00	 0.00000000E+00
	 0.00000000E+00	 0.00000000E+00	 0.00000000E+00
	 0.00000000E+00	 0.00000000E+00	 0.00000000E+00
	 0.00000000E+00	 0.00000000E+00	 0.00000000E+00
	 0.00000000E+00	 0.00000000E+00	 0.00000000E+00
	 0.00000000E+00	 0.00000000E+00	 0.00000000E+00
	 0.00000000E+00	 0.00000000E+00	 0.00000000E+00
	 0.00000000E+00	 0.00000000E+00	 0.00000000E+00
	 0.00000000E+00	 0.00000000E+00	 0.00000000E+00
	 0.00000000E+00	 0.00000000E+00	 0.00000000E+00
	 0.00000000E+00	 0.00000000E+00	 0.00000000E+00
	 0.00000000E+00	 0.00000000E+00	 0.00000000E+00
	 0.00000000E+00	 0.00000000E+00	 0.00000000E+00
	 0.00000000E+00	 0.00000000E+00	 0.00000000E+00
	 0.00000000E+00	 0.00000000E+00	 0.00000000E+00
	 0.00000000E+00	 0.00000000E+00	 0.00000000E+00
	 0.00000000E+00	 0.00000000E+00	 0.00000000E+00
	 0.00000000E+00	 0.00000000E+00	 0.00000000E+00
	 0.00000000E+00	 0.00000000E+00	 0.00000000E+00
	 0.00000000E+00	 0.00000000E+00	 0.00000000E+00
	 0.00000000E+00	 0.00000000E+00	 0.00000000E+00
	 0.00000000E+00	 0.00000000E+00	 0.00000000E+00
	 0.00000000E+00	 0.00000000E+00	 0.00000000E+00
	 0.00000000E+00	 0.00000000E+00	 0.00000000E+00
	 0.00000000E+00	 0.00000000E+00	 0.00000000E+00
	 0.00000000E+00	 0.00000000E+00	 0.00000000E+00
	 0.00000000E+00	 0.00000000E+00	 0.00000000E+00
	 0.00000000E+00	 0.00000000E+00	 0.00000000E+00
	 0.00000000E+00	 0.00000000E+00	 0.00000000E+00
	 0.00000000E+00	 0.00000000E+00	 0.00000000E+00
	 0.00000000E+00	 0.00000000E+00	 0.00000000E+00
	 0.00000000E+00	 0.00000000E+00	 0.00000000E+00
	 0.00000000E+00	 0.00000000E+00	 0.00000000E+00
	 0.00000000E+00	 0.00000000E+00	 0.00000000E+00
	 0.00000000E+00	 0.00000000E+00	 0.00000000E+00
	 0.00000000E+00	 0.00000000E+00	 0.00000000E+00
	 0.00000000E+00	 0.00000000E+00	 0.00000000E+00
	 0.00000000E+00	 0.00000000E+00	 0.00000000E+00
	 0.00000000E+00	 0.00000000E+00	 0.00000000E+00
	 0.00000000E+00	 0.00000000E+00	 0.00000000E+00
	 0.00000000E+00	 0.00000000E+00	 0.00000000E+00
	 0.00000000E+00	 0.00000000E+00	 0.00000000E+00
	 0.00000000E+00	 0.00000000E+00	 0.00000000E+00
	 0.00000000E+00	 0.00000000E+00	 0.00000000E+00
	 0.00000000E+00	 0.00000000E+00	 0.00000000E+00
	 0.00000000E+00	 0.00000000E+00	 0.00000000E+00
	 0.00000000E+00	 0.00000000E+00	 0.00000000E+00
	 0.00000000E+00	 0.00000000E+00	 0.00000000E+00
	 0.00000000E+00	 0.00000000E+00	 0.00000000E+00
	 0.00000000E+00	 0.00000000E+00	 0.00000000E+00
	 0.00000000E+00	 0.00000000E+00	 0.00000000E+00
	 0.00000000E+00	 0.00000000E+00	 0.00000000E+00
	 0.00000000E+00	 0.00000000E+00	 0.00000000E+00
	 0.00000000E+00	 0.00000000E+00	 0.00000000E+00
	 0.00000000E+00	 0.00000000E+00	 0.00000000E+00
	 0.00000000E+00	 0.00000000E+00	 0.00000000E+00
	 0.00000000E+00	 0.00000000E+00	 0.00000000E+00
	 0.00000000E+00	 0.00000000E+00	 0.00000000E+00
	 0.00000000E+00	 0.00000000E+00	 0.00000000E+00
	 0.00000000E+00	 0.00000000E+00	 0.00000000E+00
	 0.00000000E+00	 0.00000000E+00	 0.00000000E+00
	 0.00000000E+00	 0.00000000E+00	 0.00000000E+00
	 0.00000000E+00	 0.00000000E+00	 0.00000000E+00
	 0.00000000E+00	 0.00000000E+00	 0.00000000E+00
	 0.00000000E+00	 0.00000000E+00	 0.00000000E+00
	 0.00000000E+00	 0.00000000E+00	 0.00000000E+00
	 0.00000000E+00	 0.00000000E+00	 0.00000000E+00
	 0.00000000E+00	 0.00000000E+00	 0.00000000E+00
	 0.00000000E+00	 0.00000000E+00	 0.00000000E+00
	 0.00000000E+00	 0.00000000E+00	 0.00000000E+00
	 0.00000000E+00	 0.00000000E+00	 0.00000000E+00
	 0.00000000E+00	 0.00000000E+00	 0.00000000E+00
	 0.00000000E+00	 0.00000000E+00	 0.00000000E+00
	 0.00000000E+00	 0.00000000E+00	 0.00000000E+00
	 0.00000000E+00	 0.00000000E+00	 0.00000000E+00
	 0.00000000E+00	 0.00000000E+00	 0.00000000E+00
	 0.00000000E+00	 0.00000000E+00	 0.00000000E+00
	 0.00000000E+00	 0.00000000E+00	 0.00000000E+00
	 0.00000000E+00	 0.00000000E+00	 0.00000000E+00
	 0.00000000E+00	 0.00000000E+00	 0.00000000E+00
	 0.00000000E+00	 0.00000000E+00	 0.00000000E+00
	 0.00000000E+00	 0.00000000E+00	 0.00000000E+00
	 0.00000000E+00	 0.00000000E+00	 0.00000000E+00
	 0.00000000E+00	 0.00000000E+00	 0.00000000E+00
	 0.00000000E+00	 0.00000000E+00	 0.00000000E+00
	 0.00000000E+00	 0.00000000E+00	 0.00000000E+00
	 0.00000000E+00	 0.00000000E+00	 0.00000000E+00
	 0.00000000E+00	 0.00000000E+00	 0.00000000E+00
	 0.00000000E+00	 0.00000000E+00	 0.00000000E+00
	 0.00000000E+00	 0.00000000E+00	 0.00000000E+00
	 0.00000000E+00	 0.00000000E+00	 0.00000000E+00
	 0.00000000E+00	 0.00000000E+00	 0.00000000E+00
	 0.00000000E+00	 0.00000000E+00	 0.00000000E+00
	 0.00000000E+00	 0.00000000E+00	 0.00000000E+00
	 0.00000000E+00	 0.00000000E+00	 0.00000000E+00
	 0.00000000E+00	 0.00000000E+00	 0.00000000E+00
	 0.00000000E+00	 0.00000000E+00	 0.00000000E+00
	 0.00000000E+00	 0.00000000E+00	 0.00000000E+00
	 0.00000000E+00	 0.00000000E+00	 0.00000000E+00
	 0.00000000E+00	 0.00000000E+00	 0.00000000E+00
	 0.00000000E+00	 0.00000000E+00	 0.00000000E+00
	 0.00000000E+00	 0.00000000E+00	 0.00000000E+00
	 0.00000000E+00	 0.00000000E+00	 0.00000000E+00
	 0.00000000E+00	 0.00000000E+00	 0.00000000E+00
	 0.00000000E+00	 0.00000000E+00	 0.00000000E+00
	 0.00000000E+00	 0.00000000E+00	 0.00000000E+00
	 0.00000000E+00	 0.00000000E+00	 0.00000000E+00
	 0.00000000E+00	 0.00000000E+00	 0.00000000E+00
	 0.00000000E+00	 0.00000000E+00	 0.00000000E+00
	 0.00000000E+00	 0.00000000E+00	 0.00000000E+00
	 0.00000000E+00	 0.00000000E+00	 0.00000000E+00
	 0.00000000E+00	 0.00000000E+00	 0.00000000E+00
	 0.00000000E+00	 0.00000000E+00	 0.00000000E+00
	 0.00000000E+00	 0.00000000E+00	 0.00000000E+00
	 0.00000000E+00	 0.00000000E+00	 0.00000000E+00
	 0.00000000E+00	 0.00000000E+00	 0.00000000E+00
	 0.00000000E+00	 0.00000000E+00	 0.00000000E+00
	 0.00000000E+00	 0.00000000E+00	 0.00000000E+00
	 0.00000000E+00	 0.00000000E+00	 0.00000000E+00
	 0.00000000E+00	 0.00000000E+00	 0.00000000E+00
	 0.00000000E+00	 0.00000000E+00	 0.00000000E+00
	 0.00000000E+00	 0.00000000E+00	 0.00000000E+00
	 0.00000000E+00	 0.00000000E+00	 0.00000000E+00
	 0.00000000E+00	 0.00000000E+00	 0.00000000E+00
	 0.00000000E+00	 0.00000000E+00	 0.00000000E+00
	 0.00000000E+00	 0.00000000E+00	 0.00000000E+00
	 0.00000000E+00	 0.00000000E+00	 0.00000000E+00
	 0.00000000E+00	 0.00000000E+00	 0.00000000E+00
	 0.00000000E+00	 0.00000000E+00	 0.00000000E+00
	 0.00000000E+00	 0.00000000E+00	 0.00000000E+00
	 0.00000000E+00	 0.00000000E+00	 0.00000000E+00
	 0.00000000E+00	 0.00000000E+00	 0.00000000E+00
	 0.00000000E+00	 0.00000000E+00	 0.00000000E+00
	 0.00000000E+00	 0.00000000E+00	 0.00000000E+00
	 0.00000000E+00	 0.00000000E+00	 0.00000000E+00
	 0.00000000E+00	 0.00000000E+00	 0.00000000E+00
	 0.00000000E+00	 0.00000000E+00	 0.00000000E+00
	 0.00000000E+00	 0.00000000E+00	 0.00000000E+00
	 0.00000000E+00	 0.00000000E+00	 0.00000000E+00
	 0.00000000E+00	 0.00000000E+00	 0.00000000E+00
	 0.00000000E+00	 0.00000000E+00	 0.00000000E+00
	 0.00000000E+00	 0.00000000E+00	 0.00000000E+00
	 0.00000000E+00	 0.00000000E+00	 0.00000000E+00
	 0.00000000E+00	 0.00000000E+00	 0.00000000E+00
	 0.00000000E+00	 0.00000000E+00	 0.00000000E+00
	 0.00000000E+00	 0.00000000E+00	 0.00000000E+00
	 0.00000000E+00	 0.00000000E+00	 0.00000000E+00
	 0.00000000E+00	 0.00000000E+00	 0.00000000E+00
	 0.00000000E+00	 0.00000000E+00	 0.00000000E+00
	 0.00000000E+00	 0.00000000E+00	 0.00000000E+00
	 0.00000000E+00	 0.00000000E+00	 0.00000000E+00
	 0.00000000E+00	 0.00000000E+00	 0.00000000E+00
	 0.00000000E+00	 0.00000000E+00	 0.00000000E+00
	 0.00000000E+00	 0.00000000E+00	 0.00000000E+00
	 0.00000000E+00	 0.00000000E+00	 0.00000000E+00
	 0.00000000E+00	 0.00000000E+00	 0.00000000E+00
	 0.00000000E+00	 0.00000000E+00	 0.00000000E+00
	 0.00000000E+00	 0.00000000E+00	 0.00000000E+00
	 0.00000000E+00	 0.00000000E+00	 0.00000000E+00
	 0.00000000E+00	 0.00000000E+00	 0.00000000E+00
	 0.00000000E+00	 0.00000000E+00	 0.00000000E+00
	 0.00000000E+00	 0.00000000E+00	 0.00000000E+00
	 0.00000000E+00	 0.00000000E+00	 0.00000000E+00
	 0.00000000E+00	 0.00000000E+00	 0.00000000E+00
	 0.00000000E+00	 0.00000000E+00	 0.00000000E+00
	 0.00000000E+00	 0.00000000E+00	 0.00000000E+00
	 0.00000000E+00	 0.00000000E+00	 0.00000000E+00
	 0.00000000E+00	 0.00000000E+00	 0.00000000E+00
	 0.00000000E+00	 0.00000000E+00	 0.00000000E+00
	 0.00000000E+00	 0.00000000E+00	 0.00000000E+00
	 0.00000000E+00	 0.00000000E+00	 0.00000000E+00
	 0.00000000E+00	 0.00000000E+00	 0.00000000E+00
	 0.00000000E+00	 0.00000000E+00	 0.00000000E+00
	 0.00000000E+00	 0.00000000E+00	 0.00000000E+00
	 0.00000000E+00	 0.00000000E+00	 0.00000000E+00
	 0.00000000E+00	 0.00000000E+00	 0.00000000E+00
	 0.00000000E+00	 0.00000000E+00	 0.00000000E+00
	 0.00000000E+00	 0.00000000E+00	 0.00000000E+00
	 0.00000000E+00	 0.00000000E+00	 0.00000000E+00
	 0.00000000E+00	 0.00000000E+00	 0.00000000E+00
	 0.00000000E+00	 0.00000000E+00	 0.00000000E+00
	 0.00000000E+00	 0.00000000E+00	 0.00000000E+00
	 0.00000000E+00	 0.00000000E+00	 0.00000000E+00
	 0.00000000E+00	 0.00000000E+00	 0.00000000E+00
	 0.00000000E+00	 0.00000000E+00	 0.00000000E+00
	 0.00000000E+00	 0.00000000E+00	 0.00000000E+00
	 0.00000000E+00	 0.00000000E+00	 0.00000000E+00
	 0.00000000E+00	 0.00000000E+00	 0.00000000E+00
	 0.00000000E+00	 0.00000000E+00	 0.00000000E+00
	 0.00000000E+00	 0.00000000E+00	 0.00000000E+00
	 0.00000000E+00	 0.00000000E+00	 0.00000000E+00
	 0.00000000E+00	 0.00000000E+00	 0.00000000E+00
	 0.00000000E+00	 0.00000000E+00	 0.00000000E+00
	 0.00000000E+00	 0.00000000E+00	 0.00000000E+00
	 0.00000000E+00	 0.00000000E+00	 0.00000000E+00
	 0.00000000E+00	 0.00000000E+00	 0.00000000E+00
	 0.00000000E+00	 0.00000000E+00	 0.00000000E+00
	 0.00000000E+00	 0.00000000E+00	 0.00000000E+00
	 0.00000000E+00	 0.00000000E+00	 0.00000000E+00
	 0.00000000E+00	 0.00000000E+00	 0.00000000E+00
	 0.00000000E+00	 0.00000000E+00	 0.00000000E+00
	 0.00000000E+00	 0.00000000E+00	 0.00000000E+00
	 0.00000000E+00	 0.00000000E+00	 0.00000000E+00
	 0.00000000E+00	 0.00000000E+00	 0.00000000E+00
	 0.00000000E+00	 0.00000000E+00	 0.00000000E+00
	 0.00000000E+00	 0.00000000E+00	 0.00000000E+00
	 0.00000000E+00	 0.00000000E+00	 0.00000000E+00
	 0.00000000E+00	 0.00000000E+00	 0.00000000E+00
	 0.00000000E+00	 0.00000000E+00	 0.00000000E+00
	 0.00000000E+00	 0.00000000E+00	 0.00000000E+00
	 0.00000000E+00	 0.00000000E+00	 0.00000000E+00
	 0.00000000E+00	 0.00000000E+00	 0.00000000E+00
	 0.00000000E+00	 0.00000000E+00	 0.00000000E+00
	 0.00000000E+00	 0.00000000E+00	 0.00000000E+00
	 0.00000000E+00	 0.00000000E+00	 0.00000000E+00
	 0.00000000E+00	 0.00000000E+00	 0.00000000E+00
	 0.00000000E+00	 0.00000000E+00	 0.00000000E+00
	 0.00000000E+00	 0.00000000E+00	 0.00000000E+00
	 0.00000000E+00	 0.00000000E+00	 0.00000000E+00
	 0.00000000E+00	 0.00000000E+00	 0.00000000E+00
	 0.00000000E+00	 0.00000000E+00	 0.00000000E+00
	 0.00000000E+00	 0.00000000E+00	 0.00000000E+00
	 0.00000000E+00	 0.00000000E+00	 0.00000000E+00
	 0.00000000E+00	 0.00000000E+00	 0.00000000E+00
	 0.00000000E+00	 0.00000000E+00	 0.00000000E+00
	 0.00000000E+00	 0.00000000E+00	 0.00000000E+00
	 0.00000000E+00	 0.00000000E+00	 0.00000000E+00
	 0.00000000E+00	 0.00000000E+00	 0.00000000E+00
	 0.00000000E+00	 0.00000000E+00	 0.00000000E+00
	 0.00000000E+00	 0.00000000E+00	 0.00000000E+00
	 0.00000000E+00	 0.00000000E+00	 0.00000000E+00
	 0.00000000E+00	 0.00000000E+00	 0.00000000E+00
	 0.00000000E+00	 0.00000000E+00	 0.00000000E+00
	 0.00000000E+00	 0.00000000E+00	 0.00000000E+00
	 0.00000000E+00	 0.00000000E+00	 0.00000000E+00
	 0.00000000E+00	 0.00000000E+00	 0.00000000E+00
	 0.00000000E+00	 0.00000000E+00	 0.00000000E+00
	 0.00000000E+00	 0.00000000E+00	 0.00000000E+00
	 0.00000000E+00	 0.00000000E+00	 0.00000000E+00
	 0.00000000E+00	 0.00000000E+00	 0.00000000E+00
	 0.00000000E+00	 0.00000000E+00	 0.00000000E+00
	 0.00000000E+00	 0.00000000E+00	 0.00000000E+00
	 0.00000000E+00	 0.00000000E+00	 0.00000000E+00
	 0.00000000E+00	 0.00000000E+00	 0.00000000E+00
	 0.00000000E+00	 0.00000000E+00	 0.00000000E+00
	 0.00000000E+00	 0.00000000E+00	 0.00000000E+00
	 0.00000000E+00	 0.00000000E+00	 0.00000000E+00
	 0.00000000E+00	 0.00000000E+00	 0.00000000E+00
	 0.00000000E+00	 0.00000000E+00	 0.00000000E+00
	 0.00000000E+00	 0.00000000E+00	 0.00000000E+00
	 0.00000000E+00	 0.00000000E+00	 0.00000000E+00
	 0.00000000E+00	 0.00000000E+00	 0.00000000E+00
	 0.00000000E+00	 0.00000000E+00	 0.00000000E+00
	 0.00000000E+00	 0.00000000E+00	 0.00000000E+00
	 0.00000000E+00	 0.00000000E+00	 0.00000000E+00
	 0.00000000E+00	 0.00000000E+00	 0.00000000E+00
	 0.00000000E+00	 0.00000000E+00	 0.00000000E+00
	 0.00000000E+00	 0.00000000E+00	 0.00000000E+00
	 0.00000000E+00	 0.00000000E+00	 0.00000000E+00
	 0.00000000E+00	 0.00000000E+00	 0.00000000E+00
	 0.00000000E+00	 0.00000000E+00	 0.00000000E+00
	 0.00000000E+00	 0.00000000E+00	 0.00000000E+00
	 0.00000000E+00	 0.00000000E+00	 0.00000000E+00
	 0.00000000E+00	 0.00000000E+00	 0.00000000E+00
	 0.00000000E+00	 0.00000000E+00	 0.00000000E+00
	 0.00000000E+00	 0.00000000E+00	 0.00000000E+00
	 0.00000000E+00	 0.00000000E+00	 0.00000000E+00
	 0.00000000E+00	 0.00000000E+00	 0.00000000E+00
	 0.00000000E+00	 0.00000000E+00	 0.00000000E+00
	 0.00000000E+00	 0.00000000E+00	 0.00000000E+00
	 0.00000000E+00	 0.00000000E+00	 0.00000000E+00
	 0.00000000E+00	 0.00000000E+00	 0.00000000E+00
	 0.00000000E+00	 0.00000000E+00	 0.00000000E+00
	 0.00000000E+00	 0.00000000E+00	 0.00000000E+00
	 0.00000000E+00	 0.00000000E+00	 0.00000000E+00
	 0.00000000E+00	 0.00000000E+00	 0.00000000E+00
	 0.00000000E+00	 0.00000000E+00	 0.00000000E+00
	 0.00000000E+00	 0.00000000E+00	 0.00000000E+00
	 0.00000000E+00	 0.00000000E+00	 0.00000000E+00
	 0.00000000E+00	 0.00000000E+00	 0.00000000E+00
	 0.00000000E+00	 0.00000000E+00	 0.00000000E+00
	 0.00000000E+00	 0.00000000E+00	 0.00000000E+00
	 0.00000000E+00	 0.00000000E+00	 0.00000000E+00
	 0.00000000E+00	 0.00000000E+00	 0.00000000E+00
	 0.00000000E+00	 0.00000000E+00	 0.00000000E+00
	 0.00000000E+00	 0.00000000E+00	 0.00000000E+00
	 0.00000000E+00	 0.00000000E+00	 0.00000000E+00
	 0.00000000E+00	 0.00000000E+00	 0.00000000E+00
	 0.00000000E+00	 0.00000000E+00	 0.00000000E+00
	 0.00000000E+00	 0.00000000E+00	 0.00000000E+00
	 0.00000000E+00	 0.00000000E+00	 0.00000000E+00
	 0.00000000E+00	 0.00000000E+00	 0.00000000E+00
	 0.00000000E+00	 0.00000000E+00	 0.00000000E+00
	 0.00000000E+00	 0.00000000E+00	 0.00000000E+00
	 0.00000000E+00	 0.00000000E+00	 0.00000000E+00
	 0.00000000E+00	 0.00000000E+00	 0.00000000E+00
	 0.00000000E+00	 0.00000000E+00	 0.00000000E+00
	 0.00000000E+00	 0.00000000E+00	 0.00000000E+00
	 0.00000000E+00	 0.00000000E+00	 0.00000000E+00
	 0.00000000E+00	 0.00000000E+00	 0.00000000E+00
	 0.00000000E+00	 0.00000000E+00	 0.00000000E+00
	 0.00000000E+00	 0.00000000E+00	 0.00000000E+00
	 0.00000000E+00	 0.00000000E+00	 0.00000000E+00
	 0.00000000E+00	 0.00000000E+00	 0.00000000E+00
	 0.00000000E+00	 0.00000000E+00	 0.00000000E+00
	 0.00000000E+00	 0.00000000E+00	 0.00000000E+00
	 0.00000000E+00	 0.00000000E+00	 0.00000000E+00
	 0.00000000E+00	 0.00000000E+00	 0.00000000E+00
	 0.00000000E+00	 0.00000000E+00	 0.00000000E+00
	 0.00000000E+00	 0.00000000E+00	 0.00000000E+00
	 0.00000000E+00	 0.00000000E+00	 0.00000000E+00
	 0.00000000E+00	 0.00000000E+00	 0.00000000E+00
	 0.00000000E+00	 0.00000000E+00	 0.00000000E+00
	 0.00000000E+00	 0.00000000E+00	 0.00000000E+00
	 0.00000000E+00	 0.00000000E+00	 0.00000000E+00
	 0.00000000E+00	 0.00000000E+00	 0.00000000E+00
	 0.00000000E+00	 0.00000000E+00	 0.00000000E+00
	 0.00000000E+00	 0.00000000E+00	 0.00000000E+00
	 0.00000000E+00	 0.00000000E+00	 0.00000000E+00
	 0.00000000E+00	 0.00000000E+00	 0.00000000E+00
	 0.00000000E+00	 0.00000000E+00	 0.00000000E+00
	 0.00000000E+00	 0.00000000E+00	 0.00000000E+00
	 0.00000000E+00	 0.00000000E+00	 0.00000000E+00
	 0.00000000E+00	 0.00000000E+00	 0.00000000E+00
	 0.00000000E+00	 0.00000000E+00	 0.00000000E+00
	 0.00000000E+00	 0.00000000E+00	 0.00000000E+00
	 0.00000000E+00	 0.00000000E+00	 0.00000000E+00
	 0.00000000E+00	 0.00000000E+00	 0.00000000E+00
	 0.00000000E+00	 0.00000000E+00	 0.00000000E+00
	 0.00000000E+00	 0.00000000E+00	 0.00000000E+00
	 0.00000000E+00	 0.00000000E+00	 0.00000000E+00
	 0.00000000E+00	 0.00000000E+00	 0.00000000E+00
	 0.00000000E+00	 0.00000000E+00	 0.00000000E+00
	 0.00000000E+00	 0.00000000E+00	 0.00000000E+00
	 0.00000000E+00	 0.00000000E+00	 0.00000000E+00
	 0.00000000E+00	 0.00000000E+00	 0.00000000E+00
	 0.00000000E+00	 0.00000000E+00	 0.00000000E+00
	 0.00000000E+00	 0.00000000E+00	 0.00000000E+00
	 0.00000000E+00	 0.00000000E+00	 0.00000000E+00
	 0.00000000E+00	 0.00000000E+00	 0.00000000E+00
	 0.00000000E+00	 0.00000000E+00	 0.00000000E+00
	 0.00000000E+00	 0.00000000E+00	 0.00000000E+00
	 0.00000000E+00	 0.00000000E+00	 0.00000000E+00
	 0.00000000E+00	 0.00000000E+00	 0.00000000E+00
	 0.00000000E+00	 0.00000000E+00	 0.00000000E+00
	 0.00000000E+00	 0.00000000E+00	 0.00000000E+00
	 0.00000000E+00	 0.00000000E+00	 0.00000000E+00
	 0.00000000E+00	 0.00000000E+00	 0.00000000E+00
	 0.00000000E+00	 0.00000000E+00	 0.00000000E+00
	 0.00000000E+00	 0.00000000E+00	 0.00000000E+00
	 0.00000000E+00	 0.00000000E+00	 0.00000000E+00
	 0.00000000E+00	 0.00000000E+00	 0.00000000E+00
	 0.00000000E+00	 0.00000000E+00	 0.00000000E+00
	 0.00000000E+00	 0.00000000E+00	 0.00000000E+00
	 0.00000000E+00	 0.00000000E+00	 0.00000000E+00
	 0.00000000E+00	 0.00000000E+00	 0.00000000E+00
	 0.00000000E+00	 0.00000000E+00	 0.00000000E+00
	 0.00000000E+00	 0.00000000E+00	 0.00000000E+00
	 0.00000000E+00	 0.00000000E+00	 0.00000000E+00
	 0.00000000E+00	 0.00000000E+00	 0.00000000E+00
	 0.00000000E+00	 0.00000000E+00	 0.00000000E+00
	 0.00000000E+00	 0.00000000E+00	 0.00000000E+00
	 0.00000000E+00	 0.00000000E+00	 0.00000000E+00
	 0.00000000E+00	 0.00000000E+00	 0.00000000E+00
	 0.00000000E+00	 0.00000000E+00	 0.00000000E+00
	 0.00000000E+00	 0.00000000E+00	 0.00000000E+00
	 0.00000000E+00	 0.00000000E+00	 0.00000000E+00
	 0.00000000E+00	 0.00000000E+00	 0.00000000E+00
	 0.00000000E+00	 0.00000000E+00	 0.00000000E+00
	 0.00000000E+00	 0.00000000E+00	 0.00000000E+00
	 0.00000000E+00	 0.00000000E+00	 0.00000000E+00
	 0.00000000E+00	 0.00000000E+00	 0.00000000E+00
	 0.00000000E+00	 0.00000000E+00	 0.00000000E+00
	 0.00000000E+00	 0.00000000E+00	 0.00000000E+00
	 0.00000000E+00	 0.00000000E+00	 0.00000000E+00
	 0.00000000E+00	 0.00000000E+00	 0.00000000E+00
	 0.00000000E+00	 0.00000000E+00	 0.00000000E+00
	 0.00000000E+00	 0.00000000E+00	 0.00000000E+00
	 0.00000000E+00	 0.00000000E+00	 0.00000000E+00
	 0.00000000E+00	 0.00000000E+00	 0.00000000E+00
	 0.00000000E+00	 0.00000000E+00	 0.00000000E+00
	 0.00000000E+00	 0.00000000E+00	 0.00000000E+00
	 0.00000000E+00	 0.00000000E+00	 0.00000000E+00
	 0.00000000E+00	 0.00000000E+00	 0.00000000E+00
	 0.00000000E+00	 0.00000000E+00	 0.00000000E+00
	 0.00000000E+00	 0.00000000E+00	 0.00000000E+00
	 0.00000000E+00	 0.00000000E+00	 0.00000000E+00
	 0.00000000E+00	 0.00000000E+00	 0.00000000E+00
	 0.00000000E+00	 0.00000000E+00	 0.00000000E+00
	 0.00000000E+00	 0.00000000E+00	 0.00000000E+00
	 0.00000000E+00	 0.00000000E+00	 0.00000000E+00
	 0.00000000E+00	 0.00000000E+00	 0.00000000E+00
	 0.00000000E+00	 0.00000000E+00	 0.00000000E+00
	 0.00000000E+00	 0.00000000E+00	 0.00000000E+00
	 0.00000000E+00	 0.00000000E+00	 0.00000000E+00
	 0.00000000E+00	 0.00000000E+00	 0.00000000E+00
	 0.00000000E+00	 0.00000000E+00	 0.00000000E+00
	 0.00000000E+00	 0.00000000E+00	 0.00000000E+00
	 0.00000000E+00	 0.00000000E+00	 0.00000000E+00
	 0.00000000E+00	 0.00000000E+00	 0.00000000E+00
	 0.00000000E+00	 0.00000000E+00	 0.00000000E+00
	 0.00000000E+00	 0.00000000E+00	 0.00000000E+00
	 0.00000000E+00	 0.00000000E+00	 0.00000000E+00
	 0.00000000E+00	 0.00000000E+00	 0.00000000E+00
	 0.00000000E+00	 0.00000000E+00	 0.00000000E+00
	 0.00000000E+00	 0.00000000E+00	 0.00000000E+00
	 0.00000000E+00	 0.00000000E+00	 0.00000000E+00
	 0.00000000E+00	 0.00000000E+00	 0.00000000E+00
	 0.00000000E+00	 0.00000000E+00	 0.00000000E+00
	 0.00000000E+00	 0.00000000E+00	 0.00000000E+00
	 0.00000000E+00	 0.00000000E+00	 0.00000000E+00
	 0.00000000E+00	 0.00000000E+00	 0.00000000E+00
	 0.00000000E+00	 0.00000000E+00	 0.00000000E+00
	 0.00000000E+00	 0.00000000E+00	 0.00000000E+00
	 0.00000000E+00	 0.00000000E+00	 0.00000000E+00
	 0.00000000E+00	 0.00000000E+00	 0.00000000E+00
	 0.00000000E+00	 0.00000000E+00	 0.00000000E+00
	 0.00000000E+00	 0.00000000E+00	 0.00000000E+00
	 0.00000000E+00	 0.00000000E+00	 0.00000000E+00
	 0.00000000E+00	 0.00000000E+00	 0.00000000E+00
	 0.00000000E+00	 0.00000000E+00	 0.00000000E+00
	 0.00000000E+00	 0.00000000E+00	 0.00000000E+00
	 0.00000000E+00	 0.00000000E+00	 0.00000000E+00
	 0.00000000E+00	 0.00000000E+00	 0.00000000E+00
	 0.00000000E+00	 0.00000000E+00	 0.00000000E+00
	 0.00000000E+00	 0.00000000E+00	 0.00000000E+00
	 0.00000000E+00	 0.00000000E+00	 0.00000000E+00
	 0.00000000E+00	 0.00000000E+00	 0.00000000E+00
	 0.00000000E+00	 0.00000000E+00	 0.00000000E+00
	 0.00000000E+00	 0.00000000E+00	 0.00000000E+00
	 0.00000000E+00	 0.00000000E+00	 0.00000000E+00
	 0.00000000E+00	 0.00000000E+00	 0.00000000E+00
	 0.00000000E+00	 0.00000000E+00	 0.00000000E+00
	 0.00000000E+00	 0.00000000E+00	 0.00000000E+00
	 0.00000000E+00	 0.00000000E+00	 0.00000000E+00
	 0.00000000E+00	 0.00000000E+00	 0.00000000E+00
	 0.00000000E+00	 0.00000000E+00	 0.00000000E+00
	 0.00000000E+00	 0.00000000E+00	 0.00000000E+00
	 0.00000000E+00	 0.00000000E+00	 0.00000000E+00
	 0.00000000E+00	 0.00000000E+00	 0.00000000E+00
	 0.00000000E+00	 0.00000000E+00	 0.00000000E+00
	 0.00000000E+00	 0.00000000E+00	 0.00000000E+00
	 0.00000000E+00	 0.00000000E+00	 0.00000000E+00
	 0.00000000E+00	 0.00000000E+00	 0.00000000E+00
	 0.00000000E+00	 0.00000000E+00	 0.00000000E+00
	 0.00000000E+00	 0.00000000E+00	 0.00000000E+00
	 0.00000000E+00	 0.00000000E+00	 0.00000000E+00
	 0.00000000E+00	 0.00000000E+00	 0.00000000E+00
	 0.00000000E+00	 0.00000000E+00	 0.00000000E+00
	 0.00000000E+00	 0.00000000E+00	 0.00000000E+00
	 0.00000000E+00	 0.00000000E+00	 0.00000000E+00
	 0.00000000E+00	 0.00000000E+00	 0.00000000E+00
	 0.00000000E+00	 0.00000000E+00	 0.00000000E+00
	 0.00000000E+00	 0.00000000E+00	 0.00000000E+00
	 0.00000000E+00	 0.00000000E+00	 0.00000000E+00
	 0.00000000E+00	 0.00000000E+00	 0.00000000E+00
	 0.00000000E+00	 0.00000000E+00	 0.00000000E+00
	 0.00000000E+00	 0.00000000E+00	 0.00000000E+00
	 0.00000000E+00	 0.00000000E+00	 0.00000000E+00
	 0.00000000E+00	 0.00000000E+00	 0.00000000E+00
	 0.00000000E+00	 0.00000000E+00	 0.00000000E+00
	 0.00000000E+00	 0.00000000E+00	 0.00000000E+00
	 0.00000000E+00	 0.00000000E+00	 0.00000000E+00
	 0.00000000E+00	 0.00000000E+00	 0.00000000E+00
	 0.00000000E+00	 0.00000000E+00	 0.00000000E+00
	 0.00000000E+00	 0.00000000E+00	 0.00000000E+00
	 0.00000000E+00	 0.00000000E+00	 0.00000000E+00
	 0.00000000E+00	 0.00000000E+00	 0.00000000E+00
	 0.00000000E+00	 0.00000000E+00	 0.00000000E+00
	 0.00000000E+00	 0.00000000E+00	 0.00000000E+00
	 0.00000000E+00	 0.00000000E+00	 0.00000000E+00
	 0.00000000E+00	 0.00000000E+00	 0.00000000E+00
	 0.00000000E+00	 0.00000000E+00	 0.00000000E+00
	 0.00000000E+00	 0.00000000E+00	 0.00000000E+00
	 0.00000000E+00	 0.00000000E+00	 0.00000000E+00
	 0.00000000E+00	 0.00000000E+00	 0.00000000E+00
	 0.00000000E+00	 0.00000000E+00	 0.00000000E+00
	 0.00000000E+00	 0.00000000E+00	 0.00000000E+00
	 0.00000000E+00	 0.00000000E+00	 0.00000000E+00
	 0.00000000E+00	 0.00000000E+00	 0.00000000E+00
	 0.00000000E+00	 0.00000000E+00	 0.00000000E+00
	 0.00000000E+00	 0.00000000E+00	 0.00000000E+00
	 0.00000000E+00	 0.00000000E+00	 0.00000000E+00
	 0.00000000E+00	 0.00000000E+00	 0.00000000E+00
	 0.00000000E+00	 0.00000000E+00	 0.00000000E+00
	 0.00000000E+00	 0.00000000E+00	 0.00000000E+00
	 0.00000000E+00	 0.00000000E+00	 0.00000000E+00
	 0.00000000E+00	 0.00000000E+00	 0.00000000E+00
	 0.00000000E+00	 0.00000000E+00	 0.00000000E+00
	 0.00000000E+00	 0.00000000E+00	 0.00000000E+00
	 0.00000000E+00	 0.00000000E+00	 0.00000000E+00
	 0.00000000E+00	 0.00000000E+00	 0.00000000E+00
	 0.00000000E+00	 0.00000000E+00	 0.00000000E+00
	 0.00000000E+00	 0.00000000E+00	 0.00000000E+00
	 0.00000000E+00	 0.00000000E+00	 0.00000000E+00
	 0.00000000E+00	 0.00000000E+00	 0.00000000E+00
	 0.00000000E+00	 0.00000000E+00	 0.00000000E+00
	 0.00000000E+00	 0.00000000E+00	 0.00000000E+00
	 0.00000000E+00	 0.00000000E+00	 0.00000000E+00
	 0.00000000E+00	 0.00000000E+00	 0.00000000E+00
	 0.00000000E+00	 0.00000000E+00	 0.00000000E+00
	 0.00000000E+00	 0.00000000E+00	 0.00000000E+00
	 0.00000000E+00	 0.00000000E+00	 0.00000000E+00
	 0.00000000E+00	 0.00000000E+00	 0.00000000E+00
	 0.00000000E+00	 0.00000000E+00	 0.00000000E+00
	 0.00000000E+00	 0.00000000E+00	 0.00000000E+00
	 0.00000000E+00	 0.00000000E+00	 0.00000000E+00
	 0.00000000E+00	 0.00000000E+00	 0.00000000E+00
	 0.00000000E+00	 0.00000000E+00	 0.00000000E+00
	 0.00000000E+00	 0.00000000E+00	 0.00000000E+00
	 0.00000000E+00	 0.00000000E+00	 0.00000000E+00
	 0.00000000E+00	 0.00000000E+00	 0.00000000E+00
	 0.00000000E+00	 0.00000000E+00	 0.00000000E+00
	 0.00000000E+00	 0.00000000E+00	 0.00000000E+00
	 0.00000000E+00	 0.00000000E+00	 0.00000000E+00
	 0.00000000E+00	 0.00000000E+00	 0.00000000E+00
	 0.00000000E+00	 0.00000000E+00	 0.00000000E+00
	 0.00000000E+00	 0.00000000E+00	 0.00000000E+00
	 0.00000000E+00	 0.00000000E+00	 0.00000000E+00
	 0.00000000E+00	 0.00000000E+00	 0.00000000E+00
	 0.00000000E+00	 0.00000000E+00	 0.00000000E+00
	 0.00000000E+00	 0.00000000E+00	 0.00000000E+00
	 0.00000000E+00	 0.00000000E+00	 0.00000000E+00
	 0.00000000E+00	 0.00000000E+00	 0.00000000E+00
	 0.00000000E+00	 0.00000000E+00	 0.00000000E+00
	 0.00000000E+00	 0.00000000E+00	 0.00000000E+00
	 0.00000000E+00	 0.00000000E+00	 0.00000000E+00
	 0.00000000E+00	 0.00000000E+00	 0.00000000E+00
	 0.00000000E+00	 0.00000000E+00	 0.00000000E+00
	 0.00000000E+00	 0.00000000E+00	 0.00000000E+00
	 0.00000000E+00	 0.00000000E+00	 0.00000000E+00
	 0.00000000E+00	 0.00000000E+00	 0.00000000E+00
	 0.00000000E+00	 0.00000000E+00	 0.00000000E+00
	 0.00000000E+00	 0.00000000E+00	 0.00000000E+00
	 0.00000000E+00	 0.00000000E+00	 0.00000000E+00
	 0.00000000E+00	 0.00000000E+00	 0.00000000E+00
	 0.00000000E+00	 0.00000000E+00	 0.00000000E+00
	 0.00000000E+00	 0.00000000E+00	 0.00000000E+00
	 0.00000000E+00	 0.00000000E+00	 0.00000000E+00
	 0.00000000E+00	 0.00000000E+00	 0.00000000E+00
	 0.00000000E+00	 0.00000000E+00	 0.00000000E+00
	 0.00000000E+00	 0.00000000E+00	 0.00000000E+00
	 0.00000000E+00	 0.00000000E+00	 0.00000000E+00
	 0.00000000E+00	 0.00000000E+00	 0.00000000E+00
	 0.00000000E+00	 0.00000000E+00	 0.00000000E+00
	 0.00000000E+00	 0.00000000E+00	 0.00000000E+00
	 0.00000000E+00	 0.00000000E+00	 0.00000000E+00
	 0.00000000E+00	 0.00000000E+00	 0.00000000E+00
	 0.00000000E+00	 0.00000000E+00	 0.00000000E+00
	 0.00000000E+00	 0.00000000E+00	 0.00000000E+00
	 0.00000000E+00	 0.00000000E+00	 0.00000000E+00
	 0.00000000E+00	 0.00000000E+00	 0.00000000E+00
	 0.00000000E+00	 0.00000000E+00	 0.00000000E+00
	 0.00000000E+00	 0.00000000E+00	 0.00000000E+00
	 0.00000000E+00	 0.00000000E+00	 0.00000000E+00
	 0.00000000E+00	 0.00000000E+00	 0.00000000E+00
	 0.00000000E+00	 0.00000000E+00	 0.00000000E+00
	 0.00000000E+00	 0.00000000E+00	 0.00000000E+00
	 0.00000000E+00	 0.00000000E+00	 0.00000000E+00
	 0.00000000E+00	 0.00000000E+00	 0.00000000E+00
	 0.00000000E+00	 0.00000000E+00	 0.00000000E+00
	 0.00000000E+00	 0.00000000E+00	 0.00000000E+00
	 0.00000000E+00	 0.00000000E+00	 0.00000000E+00
	 0.00000000E+00	 0.00000000E+00	 0.00000000E+00
	 0.00000000E+00	 0.00000000E+00	 0.00000000E+00
	 0.00000000E+00	 0.00000000E+00	 0.00000000E+00
	 0.00000000E+00	 0.00000000E+00	 0.00000000E+00
	 0.00000000E+00	 0.00000000E+00	 0.00000000E+00
	 0.00000000E+00	 0.00000000E+00	 0.00000000E+00
	 0.00000000E+00	 0.00000000E+00	 0.00000000E+00
	 0.00000000E+00	 0.00000000E+00	 0.00000000E+00
	 0.00000000E+00	 0.00000000E+00	 0.00000000E+00
	 0.00000000E+00	 0.00000000E+00	 0.00000000E+00
	 0.00000000E+00	 0.00000000E+00	 0.00000000E+00
	 0.00000000E+00	 0.00000000E+00	 0.00000000E+00
	 0.00000000E+00	 0.00000000E+00	 0.00000000E+00
	 0.00000000E+00	 0.00000000E+00	 0.00000000E+00
	 0.00000000E+00	 0.00000000E+00	 0.00000000E+00
	 0.00000000E+00	 0.00000000E+00	 0.00000000E+00
	 0.00000000E+00	 0.00000000E+00	 0.00000000E+00
	 0.00000000E+00	 0.00000000E+00	 0.00000000E+00
	 0.00000000E+00	 0.00000000E+00	 0.00000000E+00
	 0.00000000E+00	 0.00000000E+00	 0.00000000E+00
	 0.00000000E+00	 0.00000000E+00	 0.00000000E+00
	 0.00000000E+00	 0.00000000E+00	 0.00000000E+00
	 0.00000000E+00	 0.00000000E+00	 0.00000000E+00
	 0.00000000E+00	 0.00000000E+00	 0.00000000E+00
	 0.00000000E+00	 0.00000000E+00	 0.00000000E+00
	 0.00000000E+00	 0.00000000E+00	 0.00000000E+00
	 0.00000000E+00	 0.00000000E+00	 0.00000000E+00
	 0.00000000E+00	 0.00000000E+00	 0.00000000E+00
	 0.00000000E+00	 0.00000000E+00	 0.00000000E+00
	 0.00000000E+00	 0.00000000E+00	 0.00000000E+00
	 0.00000000E+00	 0.00000000E+00	 0.00000000E+00
	 0.00000000E+00	 0.00000000E+00	 0.00000000E+00
	 0.00000000E+00	 0.00000000E+00	 0.00000000E+00
	 0.00000000E+00	 0.00000000E+00	 0.00000000E+00
	 0.00000000E+00	 0.00000000E+00	 0.00000000E+00
	 0.00000000E+00	 0.00000000E+00	 0.00000000E+00
	 0.00000000E+00	 0.00000000E+00	 0.00000000E+00
	 0.00000000E+00	 0.00000000E+00	 0.00000000E+00
	 0.00000000E+00	 0.00000000E+00	 0.00000000E+00
	 0.00000000E+00	 0.00000000E+00	 0.00000000E+00
	 0.00000000E+00	 0.00000000E+00	 0.00000000E+00
	 0.00000000E+00	 0.00000000E+00	 0.00000000E+00
	 0.00000000E+00	 0.00000000E+00	 0.00000000E+00
	 0.00000000E+00	 0.00000000E+00	 0.00000000E+00
	 0.00000000E+00	 0.00000000E+00	 0.00000000E+00
	 0.00000000E+00	 0.00000000E+00	 0.00000000E+00
	 0.00000000E+00	 0.00000000E+00	 0.00000000E+00
	 0.00000000E+00	 0.00000000E+00	 0.00000000E+00
	 0.00000000E+00	 0.00000000E+00	 0.00000000E+00
	 0.00000000E+00	 0.00000000E+00	 0.00000000E+00
	 0.00000000E+00	 0.00000000E+00	 0.00000000E+00
	 0.00000000E+00	 0.00000000E+00	 0.00000000E+00
	 0.00000000E+00	 0.00000000E+00	 0.00000000E+00
	 0.00000000E+00	 0.00000000E+00	 0.00000000E+00
	 0.00000000E+00	 0.00000000E+00	 0.00000000E+00
	 0.00000000E+00	 0.00000000E+00	 0.00000000E+00
	 0.00000000E+00	 0.00000000E+00	 0.00000000E+00
	 0.00000000E+00	 0.00000000E+00	 0.00000000E+00
	 0.00000000E+00	 0.00000000E+00	 0.00000000E+00
	 0.00000000E+00	 0.00000000E+00	 0.00000000E+00
	 0.00000000E+00	 0.00000000E+00	 0.00000000E+00
	 0.00000000E+00	 0.00000000E+00	 0.00000000E+00
	 0.00000000E+00	 0.00000000E+00	 0.00000000E+00
	 0.00000000E+00	 0.00000000E+00	 0.00000000E+00
	 0.00000000E+00	 0.00000000E+00	 0.00000000E+00
	 0.00000000E+00	 0.00000000E+00	 0.00000000E+00
	 0.00000000E+00	 0.00000000E+00	 0.00000000E+00
	 0.00000000E+00	 0.00000000E+00	 0.00000000E+00
	 0.00000000E+00	 0.00000000E+00	 0.00000000E+00
	 0.00000000E+00	 0.00000000E+00	 0.00000000E+00
	 0.00000000E+00	 0.00000000E+00	 0.00000000E+00
	 0.00000000E+00	 0.00000000E+00	 0.00000000E+00
	 0.00000000E+00	 0.00000000E+00	 0.00000000E+00
	 0.00000000E+00	 0.00000000E+00	 0.00000000E+00
	 0.00000000E+00	 0.00000000E+00	 0.00000000E+00
	 0.00000000E+00	 0.00000000E+00	 0.00000000E+00
	 0.00000000E+00	 0.00000000E+00	 0.00000000E+00
	 0.00000000E+00	 0.00000000E+00	 0.00000000E+00
	 0.00000000E+00	 0.00000000E+00	 0.00000000E+00
	 0.00000000E+00	 0.00000000E+00	 0.00000000E+00
	 0.00000000E+00	 0.00000000E+00	 0.00000000E+00
	 0.00000000E+00	 0.00000000E+00	 0.00000000E+00
	 0.00000000E+00	 0.00000000E+00	 0.00000000E+00
	 0.00000000E+00	 0.00000000E+00	 0.00000000E+00
	 0.00000000E+00	 0.00000000E+00	 0.00000000E+00
	 0.00000000E+00	 0.00000000E+00	 0.00000000E+00
	 0.00000000E+00	 0.00000000E+00	 0.00000000E+00
	 0.00000000E+00	 0.00000000E+00	 0.00000000E+00
	 0.00000000E+00	 0.00000000E+00	 0.00000000E+00
	 0.00000000E+00	 0.00000000E+00	 0.00000000E+00
	 0.00000000E+00	 0.00000000E+00	 0.00000000E+00
	 0.00000000E+00	 0.00000000E+00	 0.00000000E+00
	 0.00000000E+00	 0.00000000E+00	 0.00000000E+00
	 0.00000000E+00	 0.00000000E+00	 0.00000000E+00
	 0.00000000E+00	 0.00000000E+00	 0.00000000E+00
	 0.00000000E+00	 0.00000000E+00	 0.00000000E+00
	 0.00000000E+00	 0.00000000E+00	 0.00000000E+00
	 0.00000000E+00	 0.00000000E+00	 0.00000000E+00
	 0.00000000E+00	 0.00000000E+00	 0.00000000E+00
	 0.00000000E+00	 0.00000000E+00	 0.00000000E+00
	 0.00000000E+00	 0.00000000E+00	 0.00000000E+00
	 0.00000000E+00	 0.00000000E+00	 0.00000000E+00
	 0.00000000E+00	 0.00000000E+00	 0.00000000E+00
	 0.00000000E+00	 0.00000000E+00	 0.00000000E+00
	 0.00000000E+00	 0.00000000E+00	 0.00000000E+00
	 0.00000000E+00	 0.00000000E+00	 0.00000000E+00
	 0.00000000E+00	 0.00000000E+00	 0.00000000E+00
	 0.00000000E+00	 0.00000000E+00	 0.00000000E+00
	 0.00000000E+00	 0.00000000E+00	 0.00000000E+00
	 0.00000000E+00	 0.00000000E+00	 0.00000000E+00
	 0.00000000E+00	 0.00000000E+00	 0.00000000E+00
	 0.00000000E+00	 0.00000000E+00	 0.00000000E+00
	 0.00000000E+00	 0.00000000E+00	 0.00000000E+00
	 0.00000000E+00	 0.00000000E+00	 0.00000000E+00
	 0.00000000E+00	 0.00000000E+00	 0.00000000E+00
	 0.00000000E+00	 0.00000000E+00	 0.00000000E+00
	 0.00000000E+00	 0.00000000E+00	 0.00000000E+00
	 0.00000000E+00	 0.00000000E+00	 0.00000000E+00
	 0.00000000E+00	 0.00000000E+00	 0.00000000E+00
	 0.00000000E+00	 0.00000000E+00	 0.00000000E+00
	 0.00000000E+00	 0.00000000E+00	 0.00000000E+00
	 0.00000000E+00	 0.00000000E+00	 0.00000000E+00
	 0.00000000E+00	 0.00000000E+00	 0.00000000E+00
	 0.00000000E+00	 0.00000000E+00	 0.00000000E+00
	 0.00000000E+00	 0.00000000E+00	 0.00000000E+00
	 0.00000000E+00	 0.00000000E+00	 0.00000000E+00
	 0.00000000E+00	 0.00000000E+00	 0.00000000E+00
	 0.00000000E+00	 0.00000000E+00	 0.00000000E+00
	 0.00000000E+00	 0.00000000E+00	 0.00000000E+00
	 0.00000000E+00	 0.00000000E+00	 0.00000000E+00
	 0.00000000E+00	 0.00000000E+00	 0.00000000E+00
	 0.00000000E+00	 0.00000000E+00	 0.00000000E+00
	 0.00000000E+00	 0.00000000E+00	 0.00000000E+00
	 0.00000000E+00	 0.00000000E+00	 0.00000000E+00
	 0.00000000E+00	 0.00000000E+00	 0.00000000E+00
	 0.00000000E+00	 0.00000000E+00	 0.00000000E+00
	 0.00000000E+00	 0.00000000E+00	 0.00000000E+00
	 0.00000000E+00	 0.00000000E+00	 0.00000000E+00
	 0.00000000E+00	 0.00000000E+00	 0.00000000E+00
	 0.00000000E+00	 0.00000000E+00	 0.00000000E+00
	 0.00000000E+00	 0.00000000E+00	 0.00000000E+00
	 0.00000000E+00	 0.00000000E+00	 0.00000000E+00
	 0.00000000E+00	 0.00000000E+00	 0.00000000E+00
	 0.00000000E+00	 0.00000000E+00	 0.00000000E+00
	 0.00000000E+00	 0.00000000E+00	 0.00000000E+00
	 0.00000000E+00	 0.00000000E+00	 0.00000000E+00
	 0.00000000E+00	 0.00000000E+00	 0.00000000E+00
	 0.00000000E+00	 0.00000000E+00	 0.00000000E+00
	 0.00000000E+00	 0.00000000E+00	 0.00000000E+00
	 0.00000000E+00	 0.00000000E+00	 0.00000000E+00
	 0.00000000E+00	 0.00000000E+00	 0.00000000E+00
	 0.00000000E+00	 0.00000000E+00	 0.00000000E+00
	 0.00000000E+00	 0.00000000E+00	 0.00000000E+00
	 0.00000000E+00	 0.00000000E+00	 0.00000000E+00
	 0.00000000E+00	 0.00000000E+00	 0.00000000E+00
	 0.00000000E+00	 0.00000000E+00	 0.00000000E+00
	 0.00000000E+00	 0.00000000E+00	 0.00000000E+00
	 0.00000000E+00	 0.00000000E+00	 0.00000000E+00
	 0.00000000E+00	 0.00000000E+00	 0.00000000E+00
	 0.00000000E+00	 0.00000000E+00	 0.00000000E+00
	 0.00000000E+00	 0.00000000E+00	 0.00000000E+00
	 0.00000000E+00	 0.00000000E+00	 0.00000000E+00
	 0.00000000E+00	 0.00000000E+00	 0.00000000E+00
	 0.00000000E+00	 0.00000000E+00	 0.00000000E+00
	 0.00000000E+00	 0.00000000E+00	 0.00000000E+00
	 0.00000000E+00	 0.00000000E+00	 0.00000000E+00
	 0.00000000E+00	 0.00000000E+00	 0.00000000E+00
	 0.00000000E+00	 0.00000000E+00	 0.00000000E+00
	 0.00000000E+00	 0.00000000E+00	 0.00000000E+00
	 0.00000000E+00	 0.00000000E+00	 0.00000000E+00
	 0.00000000E+00	 0.00000000E+00	 0.00000000E+00
	 0.00000000E+00	 0.00000000E+00	 0.00000000E+00
	 0.00000000E+00	 0.00000000E+00	 0.00000000E+00
	 0.00000000E+00	 0.00000000E+00	 0.00000000E+00
	 0.00000000E+00	 0.00000000E+00	 0.00000000E+00
	 0.00000000E+00	 0.00000000E+00	 0.00000000E+00
	 0.00000000E+00	 0.00000000E+00	 0.00000000E+00
	 0.00000000E+00	 0.00000000E+00	 0.00000000E+00
	 0.00000000E+00	 0.00000000E+00	 0.00000000E+00
	 0.00000000E+00	 0.00000000E+00	 0.00000000E+00
	 0.00000000E+00	 0.00000000E+00	 0.00000000E+00
	 0.00000000E+00	 0.00000000E+00	 0.00000000E+00
	 0.00000000E+00	 0.00000000E+00	 0.00000000E+00
	 0.00000000E+00	 0.00000000E+00	 0.00000000E+00
	 0.00000000E+00	 0.00000000E+00	 0.00000000E+00
	 0.00000000E+00	 0.00000000E+00	 0.00000000E+00
	 0.00000000E+00	 0.00000000E+00	 0.00000000E+00
	 0.00000000E+00	 0.00000000E+00	 0.00000000E+00
	 0.00000000E+00	 0.00000000E+00	 0.00000000E+00
	 0.00000000E+00	 0.00000000E+00	 0.00000000E+00
	 0.00000000E+00	 0.00000000E+00	 0.00000000E+00
	 0.00000000E+00	 0.00000000E+00	 0.00000000E+00
	 0.00000000E+00	 0.00000000E+00	 0.00000000E+00
	 0.00000000E+00	 0.00000000E+00	 0.00000000E+00
	 0.00000000E+00	 0.00000000E+00	 0.00000000E+00
	 0.00000000E+00	 0.00000000E+00	 0.00000000E+00
	 0.00000000E+00	 0.00000000E+00	 0.00000000E+00
	 0.00000000E+00	 0.00000000E+00	 0.00000000E+00
	 0.00000000E+00	 0.00000000E+00	 0.00000000E+00
	 0.00000000E+00	 0.00000000E+00	 0.00000000E+00
	 0.00000000E+00	 0.00000000E+00	 0.00000000E+00
	 0.00000000E+00	 0.00000000E+00	 0.00000000E+00
	 0.00000000E+00	 0.00000000E+00	 0.00000000E+00
	 0.00000000E+00	 0.00000000E+00	 0.00000000E+00
	 0.00000000E+00	 0.00000000E+00	 0.00000000E+00
	 0.00000000E+00	 0.00000000E+00	 0.00000000E+00
	 0.00000000E+00	 0.00000000E+00	 0.00000000E+00
	 0.00000000E+00	 0.00000000E+00	 0.00000000E+00
	 0.00000000E+00	 0.00000000E+00	 0.00000000E+00
	 0.00000000E+00	 0.00000000E+00	 0.00000000E+00
	 0.00000000E+00	 0.00000000E+00	 0.00000000E+00
	 0.00000000E+00	 0.00000000E+00	 0.00000000E+00
	 0.00000000E+00	 0.00000000E+00	 0.00000000E+00
	 0.00000000E+00	 0.00000000E+00	 0.00000000E+00
	 0.00000000E+00	 0.00000000E+00	 0.00000000E+00
	 0.00000000E+00	 0.00000000E+00	 0.00000000E+00
	 0.00000000E+00	 0.00000000E+00	 0.00000000E+00
	 0.00000000E+00	 0.00000000E+00	 0.00000000E+00
	 0.00000000E+00	 0.00000000E+00	 0.00000000E+00
	 0.00000000E+00	 0.00000000E+00	 0.00000000E+00
	 0.00000000E+00	 0.00000000E+00	 0.00000000E+00
	 0.00000000E+00	 0.00000000E+00	 0.00000000E+00
	 0.00000000E+00	 0.00000000E+00	 0.00000000E+00
	 0.00000000E+00	 0.00000000E+00	 0.00000000E+00
	 0.00000000E+00	 0.00000000E+00	 0.00000000E+00
	 0.00000000E+00	 0.00000000E+00	 0.00000000E+00
	 0.00000000E+00	 0.00000000E+00	 0.00000000E+00
	 0.00000000E+00	 0.00000000E+00	 0.00000000E+00
	 0.00000000E+00	 0.00000000E+00	 0.00000000E+00
	 0.00000000E+00	 0.00000000E+00	 0.00000000E+00
	 0.00000000E+00	 0.00000000E+00	 0.00000000E+00
	 0.00000000E+00	 0.00000000E+00	 0.00000000E+00
	 0.00000000E+00	 0.00000000E+00	 0.00000000E+00
	 0.00000000E+00	 0.00000000E+00	 0.00000000E+00
	 0.00000000E+00	 0.00000000E+00	 0.00000000E+00
	 0.00000000E+00	 0.00000000E+00	 0.00000000E+00
	 0.00000000E+00	 0.00000000E+00	 0.00000000E+00
	 0.00000000E+00	 0.00000000E+00	 0.00000000E+00
	 0.00000000E+00	 0.00000000E+00	 0.00000000E+00
	 0.00000000E+00	 0.00000000E+00	 0.00000000E+00
	 0.00000000E+00	 0.00000000E+00	 0.00000000E+00
	 0.00000000E+00	 0.00000000E+00	 0.00000000E+00
	 0.00000000E+00	 0.00000000E+00	 0.00000000E+00
	 0.00000000E+00	 0.00000000E+00	 0.00000000E+00
	 0.00000000E+00	 0.00000000E+00	 0.00000000E+00
	 0.00000000E+00	 0.00000000E+00	 0.00000000E+00
	 0.00000000E+00	 0.00000000E+00	 0.00000000E+00
	 0.00000000E+00	 0.00000000E+00	 0.00000000E+00
	 0.00000000E+00	 0.00000000E+00	 0.00000000E+00
	 0.00000000E+00	 0.00000000E+00	 0.00000000E+00
	 0.00000000E+00	 0.00000000E+00	 0.00000000E+00
	 0.00000000E+00	 0.00000000E+00	 0.00000000E+00
	 0.00000000E+00	 0.00000000E+00	 0.00000000E+00
	 0.00000000E+00	 0.00000000E+00	 0.00000000E+00
	 0.00000000E+00	 0.00000000E+00	 0.00000000E+00
	 0.00000000E+00	 0.00000000E+00	 0.00000000E+00
	 0.00000000E+00	 0.00000000E+00	 0.00000000E+00
	 0.00000000E+00	 0.00000000E+00	 0.00000000E+00
	 0.00000000E+00	 0.00000000E+00	 0.00000000E+00
	 0.00000000E+00	 0.00000000E+00	 0.00000000E+00
	 0.00000000E+00	 0.00000000E+00	 0.00000000E+00
	 0.00000000E+00	 0.00000000E+00	 0.00000000E+00
	 0.00000000E+00	 0.00000000E+00	 0.00000000E+00
	 0.00000000E+00	 0.00000000E+00	 0.00000000E+00
	 0.00000000E+00	 0.00000000E+00	 0.00000000E+00
	 0.00000000E+00	 0.00000000E+00	 0.00000000E+00
	 0.00000000E+00	 0.00000000E+00	 0.00000000E+00
	 0.00000000E+00	 0.00000000E+00	 0.00000000E+00
	 0.00000000E+00	 0.00000000E+00	 0.00000000E+00
	 0.00000000E+00	 0.00000000E+00	 0.00000000E+00
	 0.00000000E+00	 0.00000000E+00	 0.00000000E+00
	 0.00000000E+00	 0.00000000E+00	 0.00000000E+00
	 0.00000000E+00	 0.00000000E+00	 0.00000000E+00
	 0.00000000E+00	 0.00000000E+00	 0.00000000E+00
	 0.00000000E+00	 0.00000000E+00	 0.00000000E+00
	 0.00000000E+00	 0.00000000E+00	 0.00000000E+00
	 0.00000000E+00	 0.00000000E+00	 0.00000000E+00
	 0.00000000E+00	 0.00000000E+00	 0.00000000E+00
	 0.00000000E+00	 0.00000000E+00	 0.00000000E+00
	 0.00000000E+00	 0.00000000E+00	 0.00000000E+00
	 0.00000000E+00	 0.00000000E+00	 0.00000000E+00
	 0.00000000E+00	 0.00000000E+00	 0.00000000E+00
	 0.00000000E+00	 0.00000000E+00	 0.00000000E+00
	 0.00000000E+00	 0.00000000E+00	 0.00000000E+00
	 0.00000000E+00	 0.00000000E+00	 0.00000000E+00
	 0.00000000E+00	 0.00000000E+00	 0.00000000E+00
	 0.00000000E+00	 0.00000000E+00	 0.00000000E+00
	 0.00000000E+00	 0.00000000E+00	 0.00000000E+00
	 0.00000000E+00	 0.00000000E+00	 0.00000000E+00
	 0.00000000E+00	 0.00000000E+00	 0.00000000E+00
	 0.00000000E+00	 0.00000000E+00	 0.00000000E+00
	 0.00000000E+00	 0.00000000E+00	 0.00000000E+00
	 0.00000000E+00	 0.00000000E+00	 0.00000000E+00
	 0.00000000E+00	 0.00000000E+00	 0.00000000E+00
	 0.00000000E+00	 0.00000000E+00	 0.00000000E+00
	 0.00000000E+00	 0.00000000E+00	 0.00000000E+00
	 0.00000000E+00	 0.00000000E+00	 0.00000000E+00
	 0.00000000E+00	 0.00000000E+00	 0.00000000E+00
	 0.00000000E+00	 0.00000000E+00	 0.00000000E+00
	 0.00000000E+00	 0.00000000E+00	 0.00000000E+00
	 0.00000000E+00	 0.00000000E+00	 0.00000000E+00
	 0.00000000E+00	 0.00000000E+00	 0.00000000E+00
	 0.00000000E+00	 0.00000000E+00	 0.00000000E+00
	 0.00000000E+00	 0.00000000E+00	 0.00000000E+00
	 0.00000000E+00	 0.00000000E+00	 0.00000000E+00
	 0.00000000E+00	 0.00000000E+00	 0.00000000E+00
	 0.00000000E+00	 0.00000000E+00	 0.00000000E+00
	 0.00000000E+00	 0.00000000E+00	 0.00000000E+00
	 0.00000000E+00	 0.00000000E+00	 0.00000000E+00
	 0.00000000E+00	 0.00000000E+00	 0.00000000E+00
	 0.00000000E+00	 0.00000000E+00	 0.00000000E+00
	 0.00000000E+00	 0.00000000E+00	 0.00000000E+00
	 0.00000000E+00	 0.00000000E+00	 0.00000000E+00
	 0.00000000E+00	 0.00000000E+00	 0.00000000E+00
	 0.00000000E+00	 0.00000000E+00	 0.00000000E+00
	 0.00000000E+00	 0.00000000E+00	 0.00000000E+00
	 0.00000000E+00	 0.00000000E+00	 0.00000000E+00
	 0.00000000E+00	 0.00000000E+00	 0.00000000E+00
	 0.00000000E+00	 0.00000000E+00	 0.00000000E+00
	 0.00000000E+00	 0.00000000E+00	 0.00000000E+00
	 0.00000000E+00	 0.00000000E+00	 0.00000000E+00
	 0.00000000E+00	 0.00000000E+00	 0.00000000E+00
	 0.00000000E+00	 0.00000000E+00	 0.00000000E+00
	 0.00000000E+00	 0.00000000E+00	 0.00000000E+00
	 0.00000000E+00	 0.00000000E+00	 0.00000000E+00
	 0.00000000E+00	 0.00000000E+00	 0.00000000E+00
	 0.00000000E+00	 0.00000000E+00	 0.00000000E+00
	 0.00000000E+00	 0.00000000E+00	 0.00000000E+00
	 0.00000000E+00	 0.00000000E+00	 0.00000000E+00
	 0.00000000E+00	 0.00000000E+00	 0.00000000E+00
	 0.00000000E+00	 0.00000000E+00	 0.00000000E+00
	 0.00000000E+00	 0.00000000E+00	 0.00000000E+00
	 0.00000000E+00	 0.00000000E+00	 0.00000000E+00
	 0.00000000E+00	 0.00000000E+00	 0.00000000E+00
	 0.00000000E+00	 0.00000000E+00	 0.00000000E+00
	 0.00000000E+00	 0.00000000E+00	 0.00000000E+00
	 0.00000000E+00	 0.00000000E+00	 0.00000000E+00
	 0.00000000E+00	 0.00000000E+00	 0.00000000E+00
	 0.00000000E+00	 0.00000000E+00	 0.00000000E+00
	 0.00000000E+00	 0.00000000E+00	 0.00000000E+00
	 0.00000000E+00	 0.00000000E+00	 0.00000000E+00
	 0.00000000E+00	 0.00000000E+00	 0.00000000E+00
	 0.00000000E+00	 0.00000000E+00	 0.00000000E+00
	 0.00000000E+00	 0.00000000E+00	 0.00000000E+00
	 0.00000000E+00	 0.00000000E+00	 0.00000000E+00
	 0.00000000E+00	 0.00000000E+00	 0.00000000E+00
	 0.00000000E+00	 0.00000000E+00	 0.00000000E+00
	 0.00000000E+00	 0.00000000E+00	 0.00000000E+00
	 0.00000000E+00	 0.00000000E+00	 0.00000000E+00
	 0.00000000E+00	 0.00000000E+00	 0.00000000E+00
	 0.00000000E+00	 0.00000000E+00	 0.00000000E+00
	 0.00000000E+00	 0.00000000E+00	 0.00000000E+00
	 0.00000000E+00	 0.00000000E+00	 0.00000000E+00
	 0.00000000E+00	 0.00000000E+00	 0.00000000E+00
	 0.00000000E+00	 0.00000000E+00	 0.00000000E+00
	 0.00000000E+00	 0.00000000E+00	 0.00000000E+00
	 0.00000000E+00	 0.00000000E+00	 0.00000000E+00
	 0.00000000E+00	 0.00000000E+00	 0.00000000E+00
	 0.00000000E+00	 0.00000000E+00	 0.00000000E+00
	 0.00000000E+00	 0.00000000E+00	 0.00000000E+00
	 0.00000000E+00	 0.00000000E+00	 0.00000000E+00
	 0.00000000E+00	 0.00000000E+00	 0.00000000E+00
	 0.00000000E+00	 0.00000000E+00	 0.00000000E+00
	 0.00000000E+00	 0.00000000E+00	 0.00000000E+00
	 0.00000000E+00	 0.00000000E+00	 0.00000000E+00
	 0.00000000E+00	 0.00000000E+00	 0.00000000E+00
	 0.00000000E+00	 0.00000000E+00	 0.00000000E+00
	 0.00000000E+00	 0.00000000E+00	 0.00000000E+00
	 0.00000000E+00	 0.00000000E+00	 0.00000000E+00
	 0.00000000E+00	 0.00000000E+00	 0.00000000E+00
	 0.00000000E+00	 0.00000000E+00	 0.00000000E+00
	 0.00000000E+00	 0.00000000E+00	 0.00000000E+00
	 0.00000000E+00	 0.00000000E+00	 0.00000000E+00
	 0.00000000E+00	 0.00000000E+00	 0.00000000E+00
	 0.00000000E+00	 0.00000000E+00	 0.00000000E+00
	 0.00000000E+00	 0.00000000E+00	 0.00000000E+00
	 0.00000000E+00	 0.00000000E+00	 0.00000000E+00
	 0.00000000E+00	 0.00000000E+00	 0.00000000E+00
	 0.00000000E+00	 0.00000000E+00	 0.00000000E+00
	 0.00000000E+00	 0.00000000E+00	 0.00000000E+00
	 0.00000000E+00	 0.00000000E+00	 0.00000000E+00
	 0.00000000E+00	 0.00000000E+00	 0.00000000E+00
	 0.00000000E+00	 0.00000000E+00	 0.00000000E+00
	 0.00000000E+00	 0.00000000E+00	 0.00000000E+00
	 0.00000000E+00	 0.00000000E+00	 0.00000000E+00
	 0.00000000E+00	 0.00000000E+00	 0.00000000E+00
	 0.00000000E+00	 0.00000000E+00	 0.00000000E+00
	 0.00000000E+00	 0.00000000E+00	 0.00000000E+00
	 0.00000000E+00	 0.00000000E+00	 0.00000000E+00
	 0.00000000E+00	 0.00000000E+00	 0.00000000E+00
	 0.00000000E+00	 0.00000000E+00	 0.00000000E+00
	 0.00000000E+00	 0.00000000E+00	 0.00000000E+00
	 0.00000000E+00	 0.00000000E+00	 0.00000000E+00
	 0.00000000E+00	 0.00000000E+00	 0.00000000E+00
	 0.00000000E+00	 0.00000000E+00	 0.00000000E+00
	 0.00000000E+00	 0.00000000E+00	 0.00000000E+00
	 0.00000000E+00	 0.00000000E+00	 0.00000000E+00
	 0.00000000E+00	 0.00000000E+00	 0.00000000E+00
	 0.00000000E+00	 0.00000000E+00	 0.00000000E+00
	 0.00000000E+00	 0.00000000E+00	 0.00000000E+00
	 0.00000000E+00	 0.00000000E+00	 0.00000000E+00
	 0.00000000E+00	 0.00000000E+00	 0.00000000E+00
	 0.00000000E+00	 0.00000000E+00	 0.00000000E+00
	 0.00000000E+00	 0.00000000E+00	 0.00000000E+00
	 0.00000000E+00	 0.00000000E+00	 0.00000000E+00
	 0.00000000E+00	 0.00000000E+00	 0.00000000E+00
	 0.00000000E+00	 0.00000000E+00	 0.00000000E+00
	 0.00000000E+00	 0.00000000E+00	 0.00000000E+00
	 0.00000000E+00	 0.00000000E+00	 0.00000000E+00
	 0.00000000E+00	 0.00000000E+00	 0.00000000E+00
	 0.00000000E+00	 0.00000000E+00	 0.00000000E+00
	 0.00000000E+00	 0.00000000E+00	 0.00000000E+00
	 0.00000000E+00	 0.00000000E+00	 0.00000000E+00
	 0.00000000E+00	 0.00000000E+00	 0.00000000E+00
	 0.00000000E+00	 0.00000000E+00	 0.00000000E+00
	 0.00000000E+00	 0.00000000E+00	 0.00000000E+00
	 0.00000000E+00	 0.00000000E+00	 0.00000000E+00
	 0.00000000E+00	 0.00000000E+00	 0.00000000E+00
	 0.00000000E+00	 0.00000000E+00	 0.00000000E+00
	 0.00000000E+00	 0.00000000E+00	 0.00000000E+00
	 0.00000000E+00	 0.00000000E+00	 0.00000000E+00
	 0.00000000E+00	 0.00000000E+00	 0.00000000E+00
	 0.00000000E+00	 0.00000000E+00	 0.00000000E+00
	 0.00000000E+00	 0.00000000E+00	 0.00000000E+00
	 0.00000000E+00	 0.00000000E+00	 0.00000000E+00
	 0.00000000E+00	 0.00000000E+00	 0.00000000E+00
	 0.00000000E+00	 0.00000000E+00	 0.00000000E+00
	 0.00000000E+00	 0.00000000E+00	 0.00000000E+00
	 0.00000000E+00	 0.00000000E+00	 0.00000000E+00
	 0.00000000E+00	 0.00000000E+00	 0.00000000E+00
	 0.00000000E+00	 0.00000000E+00	 0.00000000E+00
	 0.00000000E+00	 0.00000000E+00	 0.00000000E+00
	 0.00000000E+00	 0.00000000E+00	 0.00000000E+00
	 0.00000000E+00	 0.00000000E+00	 0.00000000E+00
	 0.00000000E+00	 0.00000000E+00	 0.00000000E+00
	 0.00000000E+00	 0.00000000E+00	 0.00000000E+00
	 0.00000000E+00	 0.00000000E+00	 0.00000000E+00
	 0.00000000E+00	 0.00000000E+00	 0.00000000E+00
	 0.00000000E+00	 0.00000000E+00	 0.00000000E+00
	 0.00000000E+00	 0.00000000E+00	 0.00000000E+00
	 0.00000000E+00	 0.00000000E+00	 0.00000000E+00
	 0.00000000E+00	 0.00000000E+00	 0.00000000E+00
	 0.00000000E+00	 0.00000000E+00	 0.00000000E+00
	 0.00000000E+00	 0.00000000E+00	 0.00000000E+00
	 0.00000000E+00	 0.00000000E+00	 0.00000000E+00
	 0.00000000E+00	 0.00000000E+00	 0.00000000E+00
	 0.00000000E+00	 0.00000000E+00	 0.00000000E+00
	 0.00000000E+00	 0.00000000E+00	 0.00000000E+00
	 0.00000000E+00	 0.00000000E+00	 0.00000000E+00
	 0.00000000E+00	 0.00000000E+00	 0.00000000E+00
	 0.00000000E+00	 0.00000000E+00	 0.00000000E+00
	 0.00000000E+00	 0.00000000E+00	 0.00000000E+00
	 0.00000000E+00	 0.00000000E+00	 0.00000000E+00
	 0.00000000E+00	 0.00000000E+00	 0.00000000E+00
	 0.00000000E+00	 0.00000000E+00	 0.00000000E+00
	 0.00000000E+00	 0.00000000E+00	 0.00000000E+00
	 0.00000000E+00	 0.00000000E+00	 0.00000000E+00
	 0.00000000E+00	 0.00000000E+00	 0.00000000E+00
	 0.00000000E+00	 0.00000000E+00	 0.00000000E+00
	 0.00000000E+00	 0.00000000E+00	 0.00000000E+00
	 0.00000000E+00	 0.00000000E+00	 0.00000000E+00
	 0.00000000E+00	 0.00000000E+00	 0.00000000E+00
	 0.00000000E+00	 0.00000000E+00	 0.00000000E+00
	 0.00000000E+00	 0.00000000E+00	 0.00000000E+00
	 0.00000000E+00	 0.00000000E+00	 0.00000000E+00
	 0.00000000E+00	 0.00000000E+00	 0.00000000E+00
	 0.00000000E+00	 0.00000000E+00	 0.00000000E+00
	 0.00000000E+00	 0.00000000E+00	 0.00000000E+00
	 0.00000000E+00	 0.00000000E+00	 0.00000000E+00
	 0.00000000E+00	 0.00000000E+00	 0.00000000E+00
	 0.00000000E+00	 0.00000000E+00	 0.00000000E+00
	 0.00000000E+00	 0.00000000E+00	 0.00000000E+00
	 0.00000000E+00	 0.00000000E+00	 0.00000000E+00
	 0.00000000E+00	 0.00000000E+00	 0.00000000E+00
	 0.00000000E+00	 0.00000000E+00	 0.00000000E+00
	 0.00000000E+00	 0.00000000E+00	 0.00000000E+00
	 0.00000000E+00	 0.00000000E+00	 0.00000000E+00
	 0.00000000E+00	 0.00000000E+00	 0.00000000E+00
	 0.00000000E+00	 0.00000000E+00	 0.00000000E+00
	 0.00000000E+00	 0.00000000E+00	 0.00000000E+00
	 0.00000000E+00	 0.00000000E+00	 0.00000000E+00
	 0.00000000E+00	 0.00000000E+00	 0.00000000E+00
	 0.00000000E+00	 0.00000000E+00	 0.00000000E+00
	 0.00000000E+00	 0.00000000E+00	 0.00000000E+00
	 0.00000000E+00	 0.00000000E+00	 0.00000000E+00
	 0.00000000E+00	 0.00000000E+00	 0.00000000E+00
	 0.00000000E+00	 0.00000000E+00	 0.00000000E+00
	 0.00000000E+00	 0.00000000E+00	 0.00000000E+00
	 0.00000000E+00	 0.00000000E+00	 0.00000000E+00
	 0.00000000E+00	 0.00000000E+00	 0.00000000E+00
	 0.00000000E+00	 0.00000000E+00	 0.00000000E+00
	 0.00000000E+00	 0.00000000E+00	 0.00000000E+00
	 0.00000000E+00	 0.00000000E+00	 0.00000000E+00
	 0.00000000E+00	 0.00000000E+00	 0.00000000E+00
	 0.00000000E+00	 0.00000000E+00	 0.00000000E+00
	 0.00000000E+00	 0.00000000E+00	 0.00000000E+00
	 0.00000000E+00	 0.00000000E+00	 0.00000000E+00
	 0.00000000E+00	 0.00000000E+00	 0.00000000E+00
	 0.00000000E+00	 0.00000000E+00	 0.00000000E+00
	 0.00000000E+00	 0.00000000E+00	 0.00000000E+00
	 0.00000000E+00	 0.00000000E+00	 0.00000000E+00
	 0.00000000E+00	 0.00000000E+00	 0.00000000E+00
	 0.00000000E+00	 0.00000000E+00	 0.00000000E+00
	 0.00000000E+00	 0.00000000E+00	 0.00000000E+00
	 0.00000000E+00	 0.00000000E+00	 0.00000000E+00
	 0.00000000E+00	 0.00000000E+00	 0.00000000E+00
	 0.00000000E+00	 0.00000000E+00	 0.00000000E+00
	 0.00000000E+00	 0.00000000E+00	 0.00000000E+00
	 0.00000000E+00	 0.00000000E+00	 0.00000000E+00
	 0.00000000E+00	 0.00000000E+00	 0.00000000E+00
	 0.00000000E+00	 0.00000000E+00	 0.00000000E+00
	 0.00000000E+00	 0.00000000E+00	 0.00000000E+00
	 0.00000000E+00	 0.00000000E+00	 0.00000000E+00
	 0.00000000E+00	 0.00000000E+00	 0.00000000E+00
	 0.00000000E+00	 0.00000000E+00	 0.00000000E+00
	 0.00000000E+00	 0.00000000E+00	 0.00000000E+00
	 0.00000000E+00	 0.00000000E+00	 0.00000000E+00
	 0.00000000E+00	 0.00000000E+00	 0.00000000E+00
	 0.00000000E+00	 0.00000000E+00	 0.00000000E+00
	 0.00000000E+00	 0.00000000E+00	 0.00000000E+00
	 0.00000000E+00	 0.00000000E+00	 0.00000000E+00
	 0.00000000E+00	 0.00000000E+00	 0.00000000E+00
	 0.00000000E+00	 0.00000000E+00	 0.00000000E+00
	 0.00000000E+00	 0.00000000E+00	 0.00000000E+00
	 0.00000000E+00	 0.00000000E+00	 0.00000000E+00
	 0.00000000E+00	 0.00000000E+00	 0.00000000E+00
	 0.00000000E+00	 0.00000000E+00	 0.00000000E+00
	 0.00000000E+00	 0.00000000E+00	 0.00000000E+00
	 0.00000000E+00	 0.00000000E+00	 0.00000000E+00
	 0.00000000E+00	 0.00000000E+00	 0.00000000E+00
	 0.00000000E+00	 0.00000000E+00	 0.00000000E+00
	 0.00000000E+00	 0.00000000E+00	 0.00000000E+00
	 0.00000000E+00	 0.00000000E+00	 0.00000000E+00
	 0.00000000E+00	 0.00000000E+00	 0.00000000E+00
	 0.00000000E+00	 0.00000000E+00	 0.00000000E+00
	 0.00000000E+00	 0.00000000E+00	 0.00000000E+00
	 0.00000000E+00	 0.00000000E+00	 0.00000000E+00
	 0.00000000E+00	 0.00000000E+00	 0.00000000E+00
	 0.00000000E+00	 0.00000000E+00	 0.00000000E+00
	 0.00000000E+00	 0.00000000E+00	 0.00000000E+00
	 0.00000000E+00	 0.00000000E+00	 0.00000000E+00
	 0.00000000E+00	 0.00000000E+00	 0.00000000E+00
	 0.00000000E+00	 0.00000000E+00	 0.00000000E+00
	 0.00000000E+00	 0.00000000E+00	 0.00000000E+00
	 0.00000000E+00	 0.00000000E+00	 0.00000000E+00
	 0.00000000E+00	 0.00000000E+00	 0.00000000E+00
	 0.00000000E+00	 0.00000000E+00	 0.00000000E+00
	 0.00000000E+00	 0.00000000E+00	 0.00000000E+00
	 0.00000000E+00	 0.00000000E+00	 0.00000000E+00
	 0.00000000E+00	 0.00000000E+00	 0.00000000E+00
	 0.00000000E+00	 0.00000000E+00	 0.00000000E+00
	 0.00000000E+00	 0.00000000E+00	 0.00000000E+00
	 0.00000000E+00	 0.00000000E+00	 0.00000000E+00
	 0.00000000E+00	 0.00000000E+00	 0.00000000E+00
	 0.00000000E+00	 0.00000000E+00	 0.00000000E+00
	 0.00000000E+00	 0.00000000E+00	 0.00000000E+00
	 0.00000000E+00	 0.00000000E+00	 0.00000000E+00
	 0.00000000E+00	 0.00000000E+00	 0.00000000E+00
	 0.00000000E+00	 0.00000000E+00	 0.00000000E+00
	 0.00000000E+00	 0.00000000E+00	 0.00000000E+00
	 0.00000000E+00	 0.00000000E+00	 0.00000000E+00
	 0.00000000E+00	 0.00000000E+00	 0.00000000E+00
	 0.00000000E+00	 0.00000000E+00	 0.00000000E+00
	 0.00000000E+00	 0.00000000E+00	 0.00000000E+00
	 0.00000000E+00	 0.00000000E+00	 0.00000000E+00
	 0.00000000E+00	 0.00000000E+00	 0.00000000E+00
	 0.00000000E+00	 0.00000000E+00	 0.00000000E+00
	 0.00000000E+00	 0.00000000E+00	 0.00000000E+00
	 0.00000000E+00	 0.00000000E+00	 0.00000000E+00
	 0.00000000E+00	 0.00000000E+00	 0.00000000E+00
	 0.00000000E+00	 0.00000000E+00	 0.00000000E+00
	 0.00000000E+00	 0.00000000E+00	 0.00000000E+00
	 0.00000000E+00	 0.00000000E+00	 0.00000000E+00
	 0.00000000E+00	 0.00000000E+00	 0.00000000E+00
	 0.00000000E+00	 0.00000000E+00	 0.00000000E+00
	 0.00000000E+00	 0.00000000E+00	 0.00000000E+00
	 0.00000000E+00	 0.00000000E+00	 0.00000000E+00
	 0.00000000E+00	 0.00000000E+00	 0.00000000E+00
	 0.00000000E+00	 0.00000000E+00	 0.00000000E+00
	 0.00000000E+00	 0.00000000E+00	 0.00000000E+00
	 0.00000000E+00	 0.00000000E+00	 0.00000000E+00
	 0.00000000E+00	 0.00000000E+00	 0.00000000E+00
	 0.00000000E+00	 0.00000000E+00	 0.00000000E+00
	 0.00000000E+00	 0.00000000E+00	 0.00000000E+00
	 0.00000000E+00	 0.00000000E+00	 0.00000000E+00
	 0.00000000E+00	 0.00000000E+00	 0.00000000E+00
	 0.00000000E+00	 0.00000000E+00	 0.00000000E+00
	 0.00000000E+00	 0.00000000E+00	 0.00000000E+00
	 0.00000000E+00	 0.00000000E+00	 0.00000000E+00
	 0.00000000E+00	 0.00000000E+00	 0.00000000E+00
	 0.00000000E+00	 0.00000000E+00	 0.00000000E+00
	 0.00000000E+00	 0.00000000E+00	 0.00000000E+00
	 0.00000000E+00	 0.00000000E+00	 0.00000000E+00
	 0.00000000E+00	 0.00000000E+00	 0.00000000E+00
	 0.00000000E+00	 0.00000000E+00	 0.00000000E+00
	 0.00000000E+00	 0.00000000E+00	 0.00000000E+00
	 0.00000000E+00	 0.00000000E+00	 0.00000000E+00
	 0.00000000E+00	 0.00000000E+00	 0.00000000E+00
	 0.00000000E+00	 0.00000000E+00	 0.00000000E+00
	 0.00000000E+00	 0.00000000E+00	 0.00000000E+00
	 0.00000000E+00	 0.00000000E+00	 0.00000000E+00
	 0.00000000E+00	 0.00000000E+00	 0.00000000E+00
	 0.00000000E+00	 0.00000000E+00	 0.00000000E+00
	 0.00000000E+00	 0.00000000E+00	 0.00000000E+00
	 0.00000000E+00	 0.00000000E+00	 0.00000000E+00
	 0.00000000E+00	 0.00000000E+00	 0.00000000E+00
	 0.00000000E+00	 0.00000000E+00	 0.00000000E+00
	 0.00000000E+00	 0.00000000E+00	 0.00000000E+00
	 0.00000000E+00	 0.00000000E+00	 0.00000000E+00
	 0.00000000E+00	 0.00000000E+00	 0.00000000E+00
	 0.00000000E+00	 0.00000000E+00	 0.00000000E+00
	 0.00000000E+00	 0.00000000E+00	 0.00000000E+00
	 0.00000000E+00	 0.00000000E+00	 0.00000000E+00
	 0.00000000E+00	 0.00000000E+00	 0.00000000E+00
	 0.00000000E+00	 0.00000000E+00	 0.00000000E+00
	 0.00000000E+00	 0.00000000E+00	 0.00000000E+00
	 0.00000000E+00	 0.00000000E+00	 0.00000000E+00
	 0.00000000E+00	 0.00000000E+00	 0.00000000E+00
	 0.00000000E+00	 0.00000000E+00	 0.00000000E+00
	 0.00000000E+00	 0.00000000E+00	 0.00000000E+00
	 0.00000000E+00	 0.00000000E+00	 0.00000000E+00
	 0.00000000E+00	 0.00000000E+00	 0.00000000E+00
	 0.00000000E+00	 0.00000000E+00	 0.00000000E+00
	 0.00000000E+00	 0.00000000E+00	 0.00000000E+00
	 0.00000000E+00	 0.00000000E+00	 0.00000000E+00
	 0.00000000E+00	 0.00000000E+00	 0.00000000E+00
	 0.00000000E+00	 0.00000000E+00	 0.00000000E+00
	 0.00000000E+00	 0.00000000E+00	 0.00000000E+00
	 0.00000000E+00	 0.00000000E+00	 0.00000000E+00
	 0.00000000E+00	 0.00000000E+00	 0.00000000E+00
	 0.00000000E+00	 0.00000000E+00	 0.00000000E+00
	 0.00000000E+00	 0.00000000E+00	 0.00000000E+00
	 0.00000000E+00	 0.00000000E+00	 0.00000000E+00
	 0.00000000E+00	 0.00000000E+00	 0.00000000E+00
	 0.00000000E+00	 0.00000000E+00	 0.00000000E+00
	 0.00000000E+00	 0.00000000E+00	 0.00000000E+00
	 0.00000000E+00	 0.00000000E+00	 0.00000000E+00
	 0.00000000E+00	 0.00000000E+00	 0.00000000E+00
	 0.00000000E+00	 0.00000000E+00	 0.00000000E+00
	 0.00000000E+00	 0.00000000E+00	 0.00000000E+00
	 0.00000000E+00	 0.00000000E+00	 0.00000000E+00
	 0.00000000E+00	 0.00000000E+00	 0.00000000E+00
	 0.00000000E+00	 0.00000000E+00	 0.00000000E+00
	 0.00000000E+00	 0.00000000E+00	 0.00000000E+00
	 0.00000000E+00	 0.00000000E+00	 0.00000000E+00
	 0.00000000E+00	 0.00000000E+00	 0.00000000E+00
	 0.00000000E+00	 0.00000000E+00	 0.00000000E+00
	 0.00000000E+00	 0.00000000E+00	 0.00000000E+00
	 0.00000000E+00	 0.00000000E+00	 0.00000000E+00
	 0.00000000E+00	 0.00000000E+00	 0.00000000E+00
	 0.00000000E+00	 0.00000000E+00	 0.00000000E+00
	 0.00000000E+00	 0.00000000E+00	 0.00000000E+00
	 0.00000000E+00	 0.00000000E+00	 0.00000000E+00
	 0.00000000E+00	 0.00000000E+00	 0.00000000E+00
	 0.00000000E+00	 0.00000000E+00	 0.00000000E+00
	 0.00000000E+00	 0.00000000E+00	 0.00000000E+00
	 0.00000000E+00	 0.00000000E+00	 0.00000000E+00
	 0.00000000E+00	 0.00000000E+00	 0.00000000E+00
	 0.00000000E+00	 0.00000000E+00	 0.00000000E+00
	 0.00000000E+00	 0.00000000E+00	 0.00000000E+00
	 0.00000000E+00	 0.00000000E+00	 0.00000000E+00
	 0.00000000E+00	 0.00000000E+00	 0.00000000E+00
	 0.00000000E+00	 0.00000000E+00	 0.00000000E+00
	 0.00000000E+00	 0.00000000E+00	 0.00000000E+00
	 0.00000000E+00	 0.00000000E+00	 0.00000000E+00
	 0.00000000E+00	 0.00000000E+00	 0.00000000E+00
	 0.00000000E+00	 0.00000000E+00	 0.00000000E+00
	 0.00000000E+00	 0.00000000E+00	 0.00000000E+00
	 0.00000000E+00	 0.00000000E+00	 0.00000000E+00
	 0.00000000E+00	 0.00000000E+00	 0.00000000E+00
	 0.00000000E+00	 0.00000000E+00	 0.00000000E+00
	 0.00000000E+00	 0.00000000E+00	 0.00000000E+00
	 0.00000000E+00	 0.00000000E+00	 0.00000000E+00
	 0.00000000E+00	 0.00000000E+00	 0.00000000E+00
	 0.00000000E+00	 0.00000000E+00	 0.00000000E+00
	 0.00000000E+00	 0.00000000E+00	 0.00000000E+00
	 0.00000000E+00	 0.00000000E+00	 0.00000000E+00
	 0.00000000E+00	 0.00000000E+00	 0.00000000E+00
	 0.00000000E+00	 0.00000000E+00	 0.00000000E+00
	 0.00000000E+00	 0.00000000E+00	 0.00000000E+00
	 0.00000000E+00	 0.00000000E+00	 0.00000000E+00
	 0.00000000E+00	 0.00000000E+00	 0.00000000E+00
	 0.00000000E+00	 0.00000000E+00	 0.00000000E+00
	 0.00000000E+00	 0.00000000E+00	 0.00000000E+00
	 0.00000000E+00	 0.00000000E+00	 0.00000000E+00
	 0.00000000E+00	 0.00000000E+00	 0.00000000E+00
	 0.00000000E+00	 0.00000000E+00	 0.00000000E+00
	 0.00000000E+00	 0.00000000E+00	 0.00000000E+00
	 0.00000000E+00	 0.00000000E+00	 0.00000000E+00
	 0.00000000E+00	 0.00000000E+00	 0.00000000E+00
	 0.00000000E+00	 0.00000000E+00	 0.00000000E+00
	 0.00000000E+00	 0.00000000E+00	 0.00000000E+00
	 0.00000000E+00	 0.00000000E+00	 0.00000000E+00
	 0.00000000E+00	 0.00000000E+00	 0.00000000E+00
	 0.00000000E+00	 0.00000000E+00	 0.00000000E+00
	 0.00000000E+00	 0.00000000E+00	 0.00000000E+00
	 0.00000000E+00	 0.00000000E+00	 0.00000000E+00
	 0.00000000E+00	 0.00000000E+00	 0.00000000E+00
	 0.00000000E+00	 0.00000000E+00	 0.00000000E+00
	 0.00000000E+00	 0.00000000E+00	 0.00000000E+00
	 0.00000000E+00	 0.00000000E+00	 0.00000000E+00
	 0.00000000E+00	 0.00000000E+00	 0.00000000E+00
	 0.00000000E+00	 0.00000000E+00	 0.00000000E+00
	 0.00000000E+00	 0.00000000E+00	 0.00000000E+00
	 0.00000000E+00	 0.00000000E+00	 0.00000000E+00
	 0.00000000E+00	 0.00000000E+00	 0.00000000E+00
	 0.00000000E+00	 0.00000000E+00	 0.00000000E+00
	 0.00000000E+00	 0.00000000E+00	 0.00000000E+00
	 0.00000000E+00	 0.00000000E+00	 0.00000000E+00
	 0.00000000E+00	 0.00000000E+00	 0.00000000E+00
	 0.00000000E+00	 0.00000000E+00	 0.00000000E+00
	 0.00000000E+00	 0.00000000E+00	 0.00000000E+00
	 0.00000000E+00	 0.00000000E+00	 0.00000000E+00
	 0.00000000E+00	 0.00000000E+00	 0.00000000E+00
	 0.00000000E+00	 0.00000000E+00	 0.00000000E+00
	 0.00000000E+00	 0.00000000E+00	 0.00000000E+00
	 0.00000000E+00	 0.00000000E+00	 0.00000000E+00
	 0.00000000E+00	 0.00000000E+00	 0.00000000E+00
	 0.00000000E+00	 0.00000000E+00	 0.00000000E+00
	 0.00000000E+00	 0.00000000E+00	 0.00000000E+00
	 0.00000000E+00	 0.00000000E+00	 0.00000000E+00
	 0.00000000E+00	 0.00000000E+00	 0.00000000E+00
	 0.00000000E+00	 0.00000000E+00	 0.00000000E+00
	 0.00000000E+00	 0.00000000E+00	 0.00000000E+00
	 0.00000000E+00	 0.00000000E+00	 0.00000000E+00
	 0.00000000E+00	 0.00000000E+00	 0.00000000E+00
	 0.00000000E+00	 0.00000000E+00	 0.00000000E+00
	 0.00000000E+00	 0.00000000E+00	 0.00000000E+00
	 0.00000000E+00	 0.00000000E+00	 0.00000000E+00
	 0.00000000E+00	 0.00000000E+00	 0.00000000E+00
	 0.00000000E+00	 0.00000000E+00	 0.00000000E+00
	 0.00000000E+00	 0.00000000E+00	 0.00000000E+00
	 0.00000000E+00	 0.00000000E+00	 0.00000000E+00
	 0.00000000E+00	 0.00000000E+00	 0.00000000E+00
	 0.00000000E+00	 0.00000000E+00	 0.00000000E+00
	 0.00000000E+00	 0.00000000E+00	 0.00000000E+00
	 0.00000000E+00	 0.00000000E+00	 0.00000000E+00
	 0.00000000E+00	 0.00000000E+00	 0.00000000E+00
	 0.00000000E+00	 0.00000000E+00	 0.00000000E+00
	 0.00000000E+00	 0.00000000E+00	 0.00000000E+00
	 0.00000000E+00	 0.00000000E+00	 0.00000000E+00
	 0.00000000E+00	 0.00000000E+00	 0.00000000E+00
	 0.00000000E+00	 0.00000000E+00	 0.00000000E+00
	 0.00000000E+00	 0.00000000E+00	 0.00000000E+00
	 0.00000000E+00	 0.00000000E+00	 0.00000000E+00
	 0.00000000E+00	 0.00000000E+00	 0.00000000E+00
	 0.00000000E+00	 0.00000000E+00	 0.00000000E+00
	 0.00000000E+00	 0.00000000E+00	 0.00000000E+00
	 0.00000000E+00	 0.00000000E+00	 0.00000000E+00
	 0.00000000E+00	 0.00000000E+00	 0.00000000E+00
	 0.00000000E+00	 0.00000000E+00	 0.00000000E+00
	 0.00000000E+00	 0.00000000E+00	 0.00000000E+00
	 0.00000000E+00	 0.00000000E+00	 0.00000000E+00
	 0.00000000E+00	 0.00000000E+00	 0.00000000E+00
	 0.00000000E+00	 0.00000000E+00	 0.00000000E+00
	 0.00000000E+00	 0.00000000E+00	 0.00000000E+00
	 0.00000000E+00	 0.00000000E+00	 0.00000000E+00
	 0.00000000E+00	 0.00000000E+00	 0.00000000E+00
	 0.00000000E+00	 0.00000000E+00	 0.00000000E+00
	 0.00000000E+00	 0.00000000E+00	 0.00000000E+00
	 0.00000000E+00	 0.00000000E+00	 0.00000000E+00
	 0.00000000E+00	 0.00000000E+00	 0.00000000E+00
	 0.00000000E+00	 0.00000000E+00	 0.00000000E+00
	 0.00000000E+00	 0.00000000E+00	 0.00000000E+00
	 0.00000000E+00	 0.00000000E+00	 0.00000000E+00
	 0.00000000E+00	 0.00000000E+00	 0.00000000E+00
	 0.00000000E+00	 0.00000000E+00	 0.00000000E+00
	 0.00000000E+00	 0.00000000E+00	 0.00000000E+00
	 0.00000000E+00	 0.00000000E+00	 0.00000000E+00
	 0.00000000E+00	 0.00000000E+00	 0.00000000E+00
	 0.00000000E+00	 0.00000000E+00	 0.00000000E+00
	 0.00000000E+00	 0.00000000E+00	 0.00000000E+00
	 0.00000000E+00	 0.00000000E+00	 0.00000000E+00
	 0.00000000E+00	 0.00000000E+00	 0.00000000E+00
	 0.00000000E+00	 0.00000000E+00	 0.00000000E+00
	 0.00000000E+00	 0.00000000E+00	 0.00000000E+00
	 0.00000000E+00	 0.00000000E+00	 0.00000000E+00
	 0.00000000E+00	 0.00000000E+00	 0.00000000E+00
	 0.00000000E+00	 0.00000000E+00	 0.00000000E+00
	 0.00000000E+00	 0.00000000E+00	 0.00000000E+00
	 0.00000000E+00	 0.00000000E+00	 0.00000000E+00
	 0.00000000E+00	 0.00000000E+00	 0.00000000E+00
	 0.00000000E+00	 0.00000000E+00	 0.00000000E+00
	 0.00000000E+00	 0.00000000E+00	 0.00000000E+00
	 0.00000000E+00	 0.00000000E+00	 0.00000000E+00
	 0.00000000E+00	 0.00000000E+00	 0.00000000E+00
	 0.00000000E+00	 0.00000000E+00	 0.00000000E+00
	 0.00000000E+00	 0.00000000E+00	 0.00000000E+00
	 0.00000000E+00	 0.00000000E+00	 0.00000000E+00
	 0.00000000E+00	 0.00000000E+00	 0.00000000E+00
	 0.00000000E+00	 0.00000000E+00	 0.00000000E+00
	 0.00000000E+00	 0.00000000E+00	 0.00000000E+00
	 0.00000000E+00	 0.00000000E+00	 0.00000000E+00
	 0.00000000E+00	 0.00000000E+00	 0.00000000E+00
	 0.00000000E+00	 0.00000000E+00	 0.00000000E+00
	 0.00000000E+00	 0.00000000E+00	 0.00000000E+00
	 0.00000000E+00	 0.00000000E+00	 0.00000000E+00
	 0.00000000E+00	 0.00000000E+00	 0.00000000E+00
	 0.00000000E+00	 0.00000000E+00	 0.00000000E+00
	 0.00000000E+00	 0.00000000E+00	 0.00000000E+00
	 0.00000000E+00	 0.00000000E+00	 0.00000000E+00
	 0.00000000E+00	 0.00000000E+00	 0.00000000E+00
	 0.00000000E+00	 0.00000000E+00	 0.00000000E+00
	 0.00000000E+00	 0.00000000E+00	 0.00000000E+00
	 0.00000000E+00	 0.00000000E+00	 0.00000000E+00
	 0.00000000E+00	 0.00000000E+00	 0.00000000E+00
	 0.00000000E+00	 0.00000000E+00	 0.00000000E+00
	 0.00000000E+00	 0.00000000E+00	 0.00000000E+00
	 0.00000000E+00	 0.00000000E+00	 0.00000000E+00
	 0.00000000E+00	 0.00000000E+00	 0.00000000E+00
	 0.00000000E+00	 0.00000000E+00	 0.00000000E+00
	 0.00000000E+00	 0.00000000E+00	 0.00000000E+00
	 0.00000000E+00	 0.00000000E+00	 0.00000000E+00
	 0.00000000E+00	 0.00000000E+00	 0.00000000E+00
	 0.00000000E+00	 0.00000000E+00	 0.00000000E+00
	 0.00000000E+00	 0.00000000E+00	 0.00000000E+00
	 0.00000000E+00	 0.00000000E+00	 0.00000000E+00
	 0.00000000E+00	 0.00000000E+00	 0.00000000E+00
	 0.00000000E+00	 0.00000000E+00	 0.00000000E+00
	 0.00000000E+00	 0.00000000E+00	 0.00000000E+00
	 0.00000000E+00	 0.00000000E+00	 0.00000000E+00
	 0.00000000E+00	 0.00000000E+00	 0.00000000E+00
	 0.00000000E+00	 0.00000000E+00	 0.00000000E+00
	 0.00000000E+00	 0.00000000E+00	 0.00000000E+00
	 0.00000000E+00	 0.00000000E+00	 0.00000000E+00
	 0.00000000E+00	 0.00000000E+00	 0.00000000E+00
	 0.00000000E+00	 0.00000000E+00	 0.00000000E+00
	 0.00000000E+00	 0.00000000E+00	 0.00000000E+00
	 0.00000000E+00	 0.00000000E+00	 0.00000000E+00
	 0.00000000E+00	 0.00000000E+00	 0.00000000E+00
	 0.00000000E+00	 0.00000000E+00	 0.00000000E+00
	 0.00000000E+00	 0.00000000E+00	 0.00000000E+00
	 0.00000000E+00	 0.00000000E+00	 0.00000000E+00
	 0.00000000E+00	 0.00000000E+00	 0.00000000E+00
	 0.00000000E+00	 0.00000000E+00	 0.00000000E+00
	 0.00000000E+00	 0.00000000E+00	 0.00000000E+00
	 0.00000000E+00	 0.00000000E+00	 0.00000000E+00
	 0.00000000E+00	 0.00000000E+00	 0.00000000E+00
	 0.00000000E+00	 0.00000000E+00	 0.00000000E+00
	 0.00000000E+00	 0.00000000E+00	 0.00000000E+00
	 0.00000000E+00	 0.00000000E+00	 0.00000000E+00
	 0.00000000E+00	 0.00000000E+00	 0.00000000E+00
	 0.00000000E+00	 0.00000000E+00	 0.00000000E+00
	 0.00000000E+00	 0.00000000E+00	 0.00000000E+00
	 0.00000000E+00	 0.00000000E+00	 0.00000000E+00
	 0.00000000E+00	 0.00000000E+00	 0.00000000E+00
	 0.00000000E+00	 0.00000000E+00	 0.00000000E+00
	 0.00000000E+00	 0.00000000E+00	 0.00000000E+00
	 0.00000000E+00	 0.00000000E+00	 0.00000000E+00
	 0.00000000E+00	 0.00000000E+00	 0.00000000E+00
	 0.00000000E+00	 0.00000000E+00	 0.00000000E+00
	 0.00000000E+00	 0.00000000E+00	 0.00000000E+00
	 0.00000000E+00	 0.00000000E+00	 0.00000000E+00
	 0.00000000E+00	 0.00000000E+00	 0.00000000E+00
	 0.00000000E+00	 0.00000000E+00	 0.00000000E+00
	 0.00000000E+00	 0.00000000E+00	 0.00000000E+00
	 0.00000000E+00	 0.00000000E+00	 0.00000000E+00
	 0.00000000E+00	 0.00000000E+00	 0.00000000E+00
	 0.00000000E+00	 0.00000000E+00	 0.00000000E+00
	 0.00000000E+00	 0.00000000E+00	 0.00000000E+00
	 0.00000000E+00	 0.00000000E+00	 0.00000000E+00
	 0.00000000E+00	 0.00000000E+00	 0.00000000E+00
	 0.00000000E+00	 0.00000000E+00	 0.00000000E+00
	 0.00000000E+00	 0.00000000E+00	 0.00000000E+00
	 0.00000000E+00	 0.00000000E+00	 0.00000000E+00
	 0.00000000E+00	 0.00000000E+00	 0.00000000E+00
	 0.00000000E+00	 0.00000000E+00	 0.00000000E+00
	 0.00000000E+00	 0.00000000E+00	 0.00000000E+00
	 0.00000000E+00	 0.00000000E+00	 0.00000000E+00
	 0.00000000E+00	 0.00000000E+00	 0.00000000E+00
	 0.00000000E+00	 0.00000000E+00	 0.00000000E+00
	 0.00000000E+00	 0.00000000E+00	 0.00000000E+00
	 0.00000000E+00	 0.00000000E+00	 0.00000000E+00
	 0.00000000E+00	 0.00000000E+00	 0.00000000E+00
	 0.00000000E+00	 0.00000000E+00	 0.00000000E+00
	 0.00000000E+00	 0.00000000E+00	 0.00000000E+00
	 0.00000000E+00	 0.00000000E+00	 0.00000000E+00
	 0.00000000E+00	 0.00000000E+00	 0.00000000E+00
	 0.00000000E+00	 0.00000000E+00	 0.00000000E+00
	 0.00000000E+00	 0.00000000E+00	 0.00000000E+00
	 0.00000000E+00	 0.00000000E+00	 0.00000000E+00
	 0.00000000E+00	 0.00000000E+00	 0.00000000E+00
	 0.00000000E+00	 0.00000000E+00	 0.00000000E+00
	 0.00000000E+00	 0.00000000E+00	 0.00000000E+00
	 0.00000000E+00	 0.00000000E+00	 0.00000000E+00
	 0.00000000E+00	 0.00000000E+00	 0.00000000E+00
	 0.00000000E+00	 0.00000000E+00	 0.00000000E+00
	 0.00000000E+00	 0.00000000E+00	 0.00000000E+00
	 0.00000000E+00	 0.00000000E+00	 0.00000000E+00
	 0.00000000E+00	 0.00000000E+00	 0.00000000E+00
	 0.00000000E+00	 0.00000000E+00	 0.00000000E+00
	 0.00000000E+00	 0.00000000E+00	 0.00000000E+00
	 0.00000000E+00	 0.00000000E+00	 0.00000000E+00
	 0.00000000E+00	 0.00000000E+00	 0.00000000E+00
	 0.00000000E+00	 0.00000000E+00	 0.00000000E+00
	 0.00000000E+00	 0.00000000E+00	 0.00000000E+00
	 0.00000000E+00	 0.00000000E+00	 0.00000000E+00
	 0.00000000E+00	 0.00000000E+00	 0.00000000E+00
	 0.00000000E+00	 0.00000000E+00	 0.00000000E+00
	 0.00000000E+00	 0.00000000E+00	 0.00000000E+00
	 0.00000000E+00	 0.00000000E+00	 0.00000000E+00
	 0.00000000E+00	 0.00000000E+00	 0.00000000E+00
	 0.00000000E+00	 0.00000000E+00	 0.00000000E+00
	 0.00000000E+00	 0.00000000E+00	 0.00000000E+00
	 0.00000000E+00	 0.00000000E+00	 0.00000000E+00
	 0.00000000E+00	 0.00000000E+00	 0.00000000E+00
	 0.00000000E+00	 0.00000000E+00	 0.00000000E+00
	 0.00000000E+00	 0.00000000E+00	 0.00000000E+00
	 0.00000000E+00	 0.00000000E+00	 0.00000000E+00
	 0.00000000E+00	 0.00000000E+00	 0.00000000E+00
	 0.00000000E+00	 0.00000000E+00	 0.00000000E+00
	 0.00000000E+00	 0.00000000E+00	 0.00000000E+00
	 0.00000000E+00	 0.00000000E+00	 0.00000000E+00
	 0.00000000E+00	 0.00000000E+00	 0.00000000E+00
	 0.00000000E+00	 0.00000000E+00	 0.00000000E+00
	 0.00000000E+00	 0.00000000E+00	 0.00000000E+00
	 0.00000000E+00	 0.00000000E+00	 0.00000000E+00
	 0.00000000E+00	 0.00000000E+00	 0.00000000E+00
	 0.00000000E+00	 0.00000000E+00	 0.00000000E+00
	 0.00000000E+00	 0.00000000E+00	 0.00000000E+00
	 0.00000000E+00	 0.00000000E+00	 0.00000000E+00
	 0.00000000E+00	 0.00000000E+00	 0.00000000E+00
	 0.00000000E+00	 0.00000000E+00	 0.00000000E+00
	 0.00000000E+00	 0.00000000E+00	 0.00000000E+00
	 0.00000000E+00	 0.00000000E+00	 0.00000000E+00
	 0.00000000E+00	 0.00000000E+00	 0.00000000E+00
	 0.00000000E+00	 0.00000000E+00	 0.00000000E+00
	 0.00000000E+00	 0.00000000E+00	 0.00000000E+00
	 0.00000000E+00	 0.00000000E+00	 0.00000000E+00
	 0.00000000E+00	 0.00000000E+00	 0.00000000E+00
	 0.00000000E+00	 0.00000000E+00	 0.00000000E+00
	 0.00000000E+00	 0.00000000E+00	 0.00000000E+00
	 0.00000000E+00	 0.00000000E+00	 0.00000000E+00
	 0.00000000E+00	 0.00000000E+00	 0.00000000E+00
	 0.00000000E+00	 0.00000000E+00	 0.00000000E+00
	 0.00000000E+00	 0.00000000E+00	 0.00000000E+00
	 0.00000000E+00	 0.00000000E+00	 0.00000000E+00
	 0.00000000E+00	 0.00000000E+00	 0.00000000E+00
	 0.00000000E+00	 0.00000000E+00	 0.00000000E+00
	 0.00000000E+00	 0.00000000E+00	 0.00000000E+00
	 0.00000000E+00	 0.00000000E+00	 0.00000000E+00
	 0.00000000E+00	 0.00000000E+00	 0.00000000E+00
	 0.00000000E+00	 0.00000000E+00	 0.00000000E+00
	 0.00000000E+00	 0.00000000E+00	 0.00000000E+00
	 0.00000000E+00	 0.00000000E+00	 0.00000000E+00
	 0.00000000E+00	 0.00000000E+00	 0.00000000E+00
	 0.00000000E+00	 0.00000000E+00	 0.00000000E+00
	 0.00000000E+00	 0.00000000E+00	 0.00000000E+00
	 0.00000000E+00	 0.00000000E+00	 0.00000000E+00
	 0.00000000E+00	 0.00000000E+00	 0.00000000E+00
	 0.00000000E+00	 0.00000000E+00	 0.00000000E+00
	 0.00000000E+00	 0.00000000E+00	 0.00000000E+00
	 0.00000000E+00	 0.00000000E+00	 0.00000000E+00
	 0.00000000E+00	 0.00000000E+00	 0.00000000E+00
	 0.00000000E+00	 0.00000000E+00	 0.00000000E+00
	 0.00000000E+00	 0.00000000E+00	 0.00000000E+00
	 0.00000000E+00	 0.00000000E+00	 0.00000000E+00
	 0.00000000E+00	 0.00000000E+00	 0.00000000E+00
	 0.00000000E+00	 0.00000000E+00	 0.00000000E+00
	 0.00000000E+00	 0.00000000E+00	 0.00000000E+00
	 0.00000000E+00	 0.00000000E+00	 0.00000000E+00
	 0.00000000E+00	 0.00000000E+00	 0.00000000E+00
	 0.00000000E+00	 0.00000000E+00	 0.00000000E+00
	 0.00000000E+00	 0.00000000E+00	 0.00000000E+00
	 0.00000000E+00	 0.00000000E+00	 0.00000000E+00
	 0.00000000E+00	 0.00000000E+00	 0.00000000E+00
	 0.00000000E+00	 0.00000000E+00	 0.00000000E+00
	 0.00000000E+00	 0.00000000E+00	 0.00000000E+00
	 0.00000000E+00	 0.00000000E+00	 0.00000000E+00
	 0.00000000E+00	 0.00000000E+00	 0.00000000E+00
	 0.00000000E+00	 0.00000000E+00	 0.00000000E+00
	 0.00000000E+00	 0.00000000E+00	 0.00000000E+00
	 0.00000000E+00	 0.00000000E+00	 0.00000000E+00
	 0.00000000E+00	 0.00000000E+00	 0.00000000E+00
	 0.00000000E+00	 0.00000000E+00	 0.00000000E+00
	 0.00000000E+00	 0.00000000E+00	 0.00000000E+00
	 0.00000000E+00	 0.00000000E+00	 0.00000000E+00
	 0.00000000E+00	 0.00000000E+00	 0.00000000E+00
	 0.00000000E+00	 0.00000000E+00	 0.00000000E+00
	 0.00000000E+00	 0.00000000E+00	 0.00000000E+00
	 0.00000000E+00	 0.00000000E+00	 0.00000000E+00
	 0.00000000E+00	 0.00000000E+00	 0.00000000E+00
	 0.00000000E+00	 0.00000000E+00	 0.00000000E+00
	 0.00000000E+00	 0.00000000E+00	 0.00000000E+00
	 0.00000000E+00	 0.00000000E+00	 0.00000000E+00
	 0.00000000E+00	 0.00000000E+00	 0.00000000E+00
	 0.00000000E+00	 0.00000000E+00	 0.00000000E+00
	 0.00000000E+00	 0.00000000E+00	 0.00000000E+00
	 0.00000000E+00	 0.00000000E+00	 0.00000000E+00
	 0.00000000E+00	 0.00000000E+00	 0.00000000E+00
	 0.00000000E+00	 0.00000000E+00	 0.00000000E+00
	 0.00000000E+00	 0.00000000E+00	 0.00000000E+00
	 0.00000000E+00	 0.00000000E+00	 0.00000000E+00
	 0.00000000E+00	 0.00000000E+00	 0.00000000E+00
	 0.00000000E+00	 0.00000000E+00	 0.00000000E+00
	 0.00000000E+00	 0.00000000E+00	 0.00000000E+00
	 0.00000000E+00	 0.00000000E+00	 0.00000000E+00
	 0.00000000E+00	 0.00000000E+00	 0.00000000E+00
	 0.00000000E+00	 0.00000000E+00	 0.00000000E+00
	 0.00000000E+00	 0.00000000E+00	 0.00000000E+00
	 0.00000000E+00	 0.00000000E+00	 0.00000000E+00
	 0.00000000E+00	 0.00000000E+00	 0.00000000E+00
	 0.00000000E+00	 0.00000000E+00	 0.00000000E+00
	 0.00000000E+00	 0.00000000E+00	 0.00000000E+00
	 0.00000000E+00	 0.00000000E+00	 0.00000000E+00
	 0.00000000E+00	 0.00000000E+00	 0.00000000E+00
	 0.00000000E+00	 0.00000000E+00	 0.00000000E+00
	 0.00000000E+00	 0.00000000E+00	 0.00000000E+00
	 0.00000000E+00	 0.00000000E+00	 0.00000000E+00
	 0.00000000E+00	 0.00000000E+00	 0.00000000E+00
	 0.00000000E+00	 0.00000000E+00	 0.00000000E+00
	 0.00000000E+00	 0.00000000E+00	 0.00000000E+00
	 0.00000000E+00	 0.00000000E+00	 0.00000000E+00
	 0.00000000E+00	 0.00000000E+00	 0.00000000E+00
	 0.00000000E+00	 0.00000000E+00	 0.00000000E+00
	 0.00000000E+00	 0.00000000E+00	 0.00000000E+00
	 0.00000000E+00	 0.00000000E+00	 0.00000000E+00
	 0.00000000E+00	 0.00000000E+00	 0.00000000E+00
	 0.00000000E+00	 0.00000000E+00	 0.00000000E+00
	 0.00000000E+00	 0.00000000E+00	 0.00000000E+00
	 0.00000000E+00	 0.00000000E+00	 0.00000000E+00
	 0.00000000E+00	 0.00000000E+00	 0.00000000E+00
	 0.00000000E+00	 0.00000000E+00	 0.00000000E+00
	 0.00000000E+00	 0.00000000E+00	 0.00000000E+00
	 0.00000000E+00	 0.00000000E+00	 0.00000000E+00
	 0.00000000E+00	 0.00000000E+00	 0.00000000E+00
	 0.00000000E+00	 0.00000000E+00	 0.00000000E+00
	 0.00000000E+00	 0.00000000E+00	 0.00000000E+00
	 0.00000000E+00	 0.00000000E+00	 0.00000000E+00
	 0.00000000E+00	 0.00000000E+00	 0.00000000E+00
	 0.00000000E+00	 0.00000000E+00	 0.00000000E+00
	 0.00000000E+00	 0.00000000E+00	 0.00000000E+00
	 0.00000000E+00	 0.00000000E+00	 0.00000000E+00
	 0.00000000E+00	 0.00000000E+00	 0.00000000E+00
	 0.00000000E+00	 0.00000000E+00	 0.00000000E+00
	 0.00000000E+00	 0.00000000E+00	 0.00000000E+00
	 0.00000000E+00	 0.00000000E+00	 0.00000000E+00
	 0.00000000E+00	 0.00000000E+00	 0.00000000E+00
	 0.00000000E+00	 0.00000000E+00	 0.00000000E+00
	 0.00000000E+00	 0.00000000E+00	 0.00000000E+00
	 0.00000000E+00	 0.00000000E+00	 0.00000000E+00
	 0.00000000E+00	 0.00000000E+00	 0.00000000E+00
	 0.00000000E+00	 0.00000000E+00	 0.00000000E+00
	 0.00000000E+00	 0.00000000E+00	 0.00000000E+00
	 0.00000000E+00	 0.00000000E+00	 0.00000000E+00
	 0.00000000E+00	 0.00000000E+00	 0.00000000E+00
	 0.00000000E+00	 0.00000000E+00	 0.00000000E+00
	 0.00000000E+00	 0.00000000E+00	 0.00000000E+00
	 0.00000000E+00	 0.00000000E+00	 0.00000000E+00
	 0.00000000E+00	 0.00000000E+00	 0.00000000E+00
	 0.00000000E+00	 0.00000000E+00	 0.00000000E+00
	 0.00000000E+00	 0.00000000E+00	 0.00000000E+00
	 0.00000000E+00	 0.00000000E+00	 0.00000000E+00
	 0.00000000E+00	 0.00000000E+00	 0.00000000E+00
	 0.00000000E+00	 0.00000000E+00	 0.00000000E+00
	 0.00000000E+00	 0.00000000E+00	 0.00000000E+00
	 0.00000000E+00	 0.00000000E+00	 0.00000000E+00
	 0.00000000E+00	 0.00000000E+00	 0.00000000E+00
	 0.00000000E+00	 0.00000000E+00	 0.00000000E+00
	 0.00000000E+00	 0.00000000E+00	 0.00000000E+00
	 0.00000000E+00	 0.00000000E+00	 0.00000000E+00
	 0.00000000E+00	 0.00000000E+00	 0.00000000E+00
	 0.00000000E+00	 0.00000000E+00	 0.00000000E+00
	 0.00000000E+00	 0.00000000E+00	 0.00000000E+00
	 0.00000000E+00	 0.00000000E+00	 0.00000000E+00
	 0.00000000E+00	 0.00000000E+00	 0.00000000E+00
	 0.00000000E+00	 0.00000000E+00	 0.00000000E+00
	 0.00000000E+00	 0.00000000E+00	 0.00000000E+00
	 0.00000000E+00	 0.00000000E+00	 0.00000000E+00
	 0.00000000E+00	 0.00000000E+00	 0.00000000E+00
	 0.00000000E+00	 0.00000000E+00	 0.00000000E+00
	 0.00000000E+00	 0.00000000E+00	 0.00000000E+00
	 0.00000000E+00	 0.00000000E+00	 0.00000000E+00
	 0.00000000E+00	 0.00000000E+00	 0.00000000E+00
	 0.00000000E+00	 0.00000000E+00	 0.00000000E+00
	 0.00000000E+00	 0.00000000E+00	 0.00000000E+00
	 0.00000000E+00	 0.00000000E+00	 0.00000000E+00
	 0.00000000E+00	 0.00000000E+00	 0.00000000E+00
	 0.00000000E+00	 0.00000000E+00	 0.00000000E+00
	 0.00000000E+00	 0.00000000E+00	 0.00000000E+00
	 0.00000000E+00	 0.00000000E+00	 0.00000000E+00
	 0.00000000E+00	 0.00000000E+00	 0.00000000E+00
	 0.00000000E+00	 0.00000000E+00	 0.00000000E+00
	 0.00000000E+00	 0.00000000E+00	 0.00000000E+00
	 0.00000000E+00	 0.00000000E+00	 0.00000000E+00
	 0.00000000E+00	 0.00000000E+00	 0.00000000E+00
	 0.00000000E+00	 0.00000000E+00	 0.00000000E+00
	 0.00000000E+00	 0.00000000E+00	 0.00000000E+00
	 0.00000000E+00	 0.00000000E+00	 0.00000000E+00
	 0.00000000E+00	 0.00000000E+00	 0.00000000E+00
	 0.00000000E+00	 0.00000000E+00	 0.00000000E+00
	 0.00000000E+00	 0.00000000E+00	 0.00000000E+00
	 0.00000000E+00	 0.00000000E+00	 0.00000000E+00
	 0.00000000E+00	 0.00000000E+00	 0.00000000E+00
	 0.00000000E+00	 0.00000000E+00	 0.00000000E+00
	 0.00000000E+00	 0.00000000E+00	 0.00000000E+00
	 0.00000000E+00	 0.00000000E+00	 0.00000000E+00
	 0.00000000E+00	 0.00000000E+00	 0.00000000E+00
	 0.00000000E+00	 0.00000000E+00	 0.00000000E+00
	 0.00000000E+00	 0.00000000E+00	 0.00000000E+00
	 0.00000000E+00	 0.00000000E+00	 0.00000000E+00
	 0.00000000E+00	 0.00000000E+00	 0.00000000E+00
	 0.00000000E+00	 0.00000000E+00	 0.00000000E+00
	 0.00000000E+00	 0.00000000E+00	 0.00000000E+00
	 0.00000000E+00	 0.00000000E+00	 0.00000000E+00
	 0.00000000E+00	 0.00000000E+00	 0.00000000E+00
	 0.00000000E+00	 0.00000000E+00	 0.00000000E+00
	 0.00000000E+00	 0.00000000E+00	 0.00000000E+00
	 0.00000000E+00	 0.00000000E+00	 0.00000000E+00
	 0.00000000E+00	 0.00000000E+00	 0.00000000E+00
	 0.00000000E+00	 0.00000000E+00	 0.00000000E+00
	 0.00000000E+00	 0.00000000E+00	 0.00000000E+00
	 0.00000000E+00	 0.00000000E+00	 0.00000000E+00
	 0.00000000E+00	 0.00000000E+00	 0.00000000E+00
	 0.00000000E+00	 0.00000000E+00	 0.00000000E+00
	 0.00000000E+00	 0.00000000E+00	 0.00000000E+00
	 0.00000000E+00	 0.00000000E+00	 0.00000000E+00
	 0.00000000E+00	 0.00000000E+00	 0.00000000E+00
	 0.00000000E+00	 0.00000000E+00	 0.00000000E+00
	 0.00000000E+00	 0.00000000E+00	 0.00000000E+00
	 0.00000000E+00	 0.00000000E+00	 0.00000000E+00
	 0.00000000E+00	 0.00000000E+00	 0.00000000E+00
	 0.00000000E+00	 0.00000000E+00	 0.00000000E+00
	 0.00000000E+00	 0.00000000E+00	 0.00000000E+00
	 0.00000000E+00	 0.00000000E+00	 0.00000000E+00
	 0.00000000E+00	 0.00000000E+00	 0.00000000E+00
	 0.00000000E+00	 0.00000000E+00	 0.00000000E+00
	 0.00000000E+00	 0.00000000E+00	 0.00000000E+00
	 0.00000000E+00	 0.00000000E+00	 0.00000000E+00
	 0.00000000E+00	 0.00000000E+00	 0.00000000E+00
	 0.00000000E+00	 0.00000000E+00	 0.00000000E+00
	 0.00000000E+00	 0.00000000E+00	 0.00000000E+00
	 0.00000000E+00	 0.00000000E+00	 0.00000000E+00
	 0.00000000E+00	 0.00000000E+00	 0.00000000E+00
	 0.00000000E+00	 0.00000000E+00	 0.00000000E+00
	 0.00000000E+00	 0.00000000E+00	 0.00000000E+00
	 0.00000000E+00	 0.00000000E+00	 0.00000000E+00
	 0.00000000E+00	 0.00000000E+00	 0.00000000E+00
	 0.00000000E+00	 0.00000000E+00	 0.00000000E+00
	 0.00000000E+00	 0.00000000E+00	 0.00000000E+00
	 0.00000000E+00	 0.00000000E+00	 0.00000000E+00
	 0.00000000E+00	 0.00000000E+00	 0.00000000E+00
	 0.00000000E+00	 0.00000000E+00	 0.00000000E+00
	 0.00000000E+00	 0.00000000E+00	 0.00000000E+00
	 0.00000000E+00	 0.00000000E+00	 0.00000000E+00
	 0.00000000E+00	 0.00000000E+00	 0.00000000E+00
	 0.00000000E+00	 0.00000000E+00	 0.00000000E+00
	 0.00000000E+00	 0.00000000E+00	 0.00000000E+00
	 0.00000000E+00	 0.00000000E+00	 0.00000000E+00
	 0.00000000E+00	 0.00000000E+00	 0.00000000E+00
	 0.00000000E+00	 0.00000000E+00	 0.00000000E+00
	 0.00000000E+00	 0.00000000E+00	 0.00000000E+00
	 0.00000000E+00	 0.00000000E+00	 0.00000000E+00
	 0.00000000E+00	 0.00000000E+00	 0.00000000E+00
	 0.00000000E+00	 0.00000000E+00	 0.00000000E+00
	 0.00000000E+00	 0.00000000E+00	 0.00000000E+00
	 0.00000000E+00	 0.00000000E+00	 0.00000000E+00
	 0.00000000E+00	 0.00000000E+00	 0.00000000E+00
	 0.00000000E+00	 0.00000000E+00	 0.00000000E+00
	 0.00000000E+00	 0.00000000E+00	 0.00000000E+00
	 0.00000000E+00	 0.00000000E+00	 0.00000000E+00
	 0.00000000E+00	 0.00000000E+00	 0.00000000E+00
	 0.00000000E+00	 0.00000000E+00	 0.00000000E+00
	 0.00000000E+00	 0.00000000E+00	 0.00000000E+00
	 0.00000000E+00	 0.00000000E+00	 0.00000000E+00
	 0.00000000E+00	 0.00000000E+00	 0.00000000E+00
	 0.00000000E+00	 0.00000000E+00	 0.00000000E+00
	 0.00000000E+00	 0.00000000E+00	 0.00000000E+00
	 0.00000000E+00	 0.00000000E+00	 0.00000000E+00
	 0.00000000E+00	 0.00000000E+00	 0.00000000E+00
	 0.00000000E+00	 0.00000000E+00	 0.00000000E+00
	 0.00000000E+00	 0.00000000E+00	 0.00000000E+00
	 0.00000000E+00	 0.00000000E+00	 0.00000000E+00
	 0.00000000E+00	 0.00000000E+00	 0.00000000E+00
	 0.00000000E+00	 0.00000000E+00	 0.00000000E+00
	 0.00000000E+00	 0.00000000E+00	 0.00000000E+00
	 0.00000000E+00	 0.00000000E+00	 0.00000000E+00
	 0.00000000E+00	 0.00000000E+00	 0.00000000E+00
	 0.00000000E+00	 0.00000000E+00	 0.00000000E+00
	 0.00000000E+00	 0.00000000E+00	 0.00000000E+00
	 0.00000000E+00	 0.00000000E+00	 0.00000000E+00
	 0.00000000E+00	 0.00000000E+00	 0.00000000E+00
	 0.00000000E+00	 0.00000000E+00	 0.00000000E+00
	 0.00000000E+00	 0.00000000E+00	 0.00000000E+00
	 0.00000000E+00	 0.00000000E+00	 0.00000000E+00
	 0.00000000E+00	 0.00000000E+00	 0.00000000E+00
	 0.00000000E+00	 0.00000000E+00	 0.00000000E+00
	 0.00000000E+00	 0.00000000E+00	 0.00000000E+00
	 0.00000000E+00	 0.00000000E+00	 0.00000000E+00
	 0.00000000E+00	 0.00000000E+00	 0.00000000E+00
	 0.00000000E+00	 0.00000000E+00	 0.00000000E+00
	 0.00000000E+00	 0.00000000E+00	 0.00000000E+00
	 0.00000000E+00	 0.00000000E+00	 0.00000000E+00
	 0.00000000E+00	 0.00000000E+00	 0.00000000E+00
	 0.00000000E+00	 0.00000000E+00	 0.00000000E+00
	 0.00000000E+00	 0.00000000E+00	 0.00000000E+00
	 0.00000000E+00	 0.00000000E+00	 0.00000000E+00
	 0.00000000E+00	 0.00000000E+00	 0.00000000E+00
	 0.00000000E+00	 0.00000000E+00	 0.00000000E+00
	 0.00000000E+00	 0.00000000E+00	 0.00000000E+00
	 0.00000000E+00	 0.00000000E+00	 0.00000000E+00
	 0.00000000E+00	 0.00000000E+00	 0.00000000E+00
	 0.00000000E+00	 0.00000000E+00	 0.00000000E+00
	 0.00000000E+00	 0.00000000E+00	 0.00000000E+00
	 0.00000000E+00	 0.00000000E+00	 0.00000000E+00
	 0.00000000E+00	 0.00000000E+00	 0.00000000E+00
	 0.00000000E+00	 0.00000000E+00	 0.00000000E+00
	 0.00000000E+00	 0.00000000E+00	 0.00000000E+00
	 0.00000000E+00	 0.00000000E+00	 0.00000000E+00
	 0.00000000E+00	 0.00000000E+00	 0.00000000E+00
	 0.00000000E+00	 0.00000000E+00	 0.00000000E+00
	 0.00000000E+00	 0.00000000E+00	 0.00000000E+00
	 0.00000000E+00	 0.00000000E+00	 0.00000000E+00
	 0.00000000E+00	 0.00000000E+00	 0.00000000E+00
	 0.00000000E+00	 0.00000000E+00	 0.00000000E+00
	 0.00000000E+00	 0.00000000E+00	 0.00000000E+00
	 0.00000000E+00	 0.00000000E+00	 0.00000000E+00
	 0.00000000E+00	 0.00000000E+00	 0.00000000E+00
	 0.00000000E+00	 0.00000000E+00	 0.00000000E+00
	 0.00000000E+00	 0.00000000E+00	 0.00000000E+00
	 0.00000000E+00	 0.00000000E+00	 0.00000000E+00
	 0.00000000E+00	 0.00000000E+00	 0.00000000E+00
	 0.00000000E+00	 0.00000000E+00	 0.00000000E+00
	 0.00000000E+00	 0.00000000E+00	 0.00000000E+00
	 0.00000000E+00	 0.00000000E+00	 0.00000000E+00
	 0.00000000E+00	 0.00000000E+00	 0.00000000E+00
	 0.00000000E+00	 0.00000000E+00	 0.00000000E+00
	 0.00000000E+00	 0.00000000E+00	 0.00000000E+00
	 0.00000000E+00	 0.00000000E+00	 0.00000000E+00
	 0.00000000E+00	 0.00000000E+00	 0.00000000E+00
	 0.00000000E+00	 0.00000000E+00	 0.00000000E+00
	 0.00000000E+00	 0.00000000E+00	 0.00000000E+00
	 0.00000000E+00	 0.00000000E+00	 0.00000000E+00
	 0.00000000E+00	 0.00000000E+00	 0.00000000E+00
	 0.00000000E+00	 0.00000000E+00	 0.00000000E+00
	 0.00000000E+00	 0.00000000E+00	 0.00000000E+00
	 0.00000000E+00	 0.00000000E+00	 0.00000000E+00
	 0.00000000E+00	 0.00000000E+00	 0.00000000E+00
	 0.00000000E+00	 0.00000000E+00	 0.00000000E+00
	 0.00000000E+00	 0.00000000E+00	 0.00000000E+00
	 0.00000000E+00	 0.00000000E+00	 0.00000000E+00
	 0.00000000E+00	 0.00000000E+00	 0.00000000E+00
	 0.00000000E+00	 0.00000000E+00	 0.00000000E+00
	 0.00000000E+00	 0.00000000E+00	 0.00000000E+00
	 0.00000000E+00	 0.00000000E+00	 0.00000000E+00
	 0.00000000E+00	 0.00000000E+00	 0.00000000E+00
	 0.00000000E+00	 0.00000000E+00	 0.00000000E+00
	 0.00000000E+00	 0.00000000E+00	 0.00000000E+00
	 0.00000000E+00	 0.00000000E+00	 0.00000000E+00
	 0.00000000E+00	 0.00000000E+00	 0.00000000E+00
	 0.00000000E+00	 0.00000000E+00	 0.00000000E+00
	 0.00000000E+00	 0.00000000E+00	 0.00000000E+00
	 0.00000000E+00	 0.00000000E+00	 0.00000000E+00
	 0.00000000E+00	 0.00000000E+00	 0.00000000E+00
	 0.00000000E+00	 0.00000000E+00	 0.00000000E+00
	 0.00000000E+00	 0.00000000E+00	 0.00000000E+00
	 0.00000000E+00	 0.00000000E+00	 0.00000000E+00
	 0.00000000E+00	 0.00000000E+00	 0.00000000E+00
	 0.00000000E+00	 0.00000000E+00	 0.00000000E+00
	 0.00000000E+00	 0.00000000E+00	 0.00000000E+00
	 0.00000000E+00	 0.00000000E+00	 0.00000000E+00
	 0.00000000E+00	 0.00000000E+00	 0.00000000E+00
	 0.00000000E+00	 0.00000000E+00	 0.00000000E+00
	 0.00000000E+00	 0.00000000E+00	 0.00000000E+00
	 0.00000000E+00	 0.00000000E+00	 0.00000000E+00
	 0.00000000E+00	 0.00000000E+00	 0.00000000E+00
	 0.00000000E+00	 0.00000000E+00	 0.00000000E+00
	 0.00000000E+00	 0.00000000E+00	 0.00000000E+00
	 0.00000000E+00	 0.00000000E+00	 0.00000000E+00
	 0.00000000E+00	 0.00000000E+00	 0.00000000E+00
	 0.00000000E+00	 0.00000000E+00	 0.00000000E+00
	 0.00000000E+00	 0.00000000E+00	 0.00000000E+00
	 0.00000000E+00	 0.00000000E+00	 0.00000000E+00
	 0.00000000E+00	 0.00000000E+00	 0.00000000E+00
	 0.00000000E+00	 0.00000000E+00	 0.00000000E+00
	 0.00000000E+00	 0.00000000E+00	 0.00000000E+00
	 0.00000000E+00	 0.00000000E+00	 0.00000000E+00
	 0.00000000E+00	 0.00000000E+00	 0.00000000E+00
	 0.00000000E+00	 0.00000000E+00	 0.00000000E+00
	 0.00000000E+00	 0.00000000E+00	 0.00000000E+00
	 0.00000000E+00	 0.00000000E+00	 0.00000000E+00
	 0.00000000E+00	 0.00000000E+00	 0.00000000E+00
	 0.00000000E+00	 0.00000000E+00	 0.00000000E+00
	 0.00000000E+00	 0.00000000E+00	 0.00000000E+00
	 0.00000000E+00	 0.00000000E+00	 0.00000000E+00
	 0.00000000E+00	 0.00000000E+00	 0.00000000E+00
	 0.00000000E+00	 0.00000000E+00	 0.00000000E+00
	 0.00000000E+00	 0.00000000E+00	 0.00000000E+00
	 0.00000000E+00	 0.00000000E+00	 0.00000000E+00
	 0.00000000E+00	 0.00000000E+00	 0.00000000E+00
	 0.00000000E+00	 0.00000000E+00	 0.00000000E+00
	 0.00000000E+00	 0.00000000E+00	 0.00000000E+00
	 0.00000000E+00	 0.00000000E+00	 0.00000000E+00
	 0.00000000E+00	 0.00000000E+00	 0.00000000E+00
	 0.00000000E+00	 0.00000000E+00	 0.00000000E+00
	 0.00000000E+00	 0.00000000E+00	 0.00000000E+00
	 0.00000000E+00	 0.00000000E+00	 0.00000000E+00
	 0.00000000E+00	 0.00000000E+00	 0.00000000E+00
	 0.00000000E+00	 0.00000000E+00	 0.00000000E+00
	 0.00000000E+00	 0.00000000E+00	 0.00000000E+00
	 0.00000000E+00	 0.00000000E+00	 0.00000000E+00
	 0.00000000E+00	 0.00000000E+00	 0.00000000E+00
	 0.00000000E+00	 0.00000000E+00	 0.00000000E+00
	 0.00000000E+00	 0.00000000E+00	 0.00000000E+00
	 0.00000000E+00	 0.00000000E+00	 0.00000000E+00
	 0.00000000E+00	 0.00000000E+00	 0.00000000E+00
	 0.00000000E+00	 0.00000000E+00	 0.00000000E+00
	 0.00000000E+00	 0.00000000E+00	 0.00000000E+00
	 0.00000000E+00	 0.00000000E+00	 0.00000000E+00
	 0.00000000E+00	 0.00000000E+00	 0.00000000E+00
	 0.00000000E+00	 0.00000000E+00	 0.00000000E+00
	 0.00000000E+00	 0.00000000E+00	 0.00000000E+00
	 0.00000000E+00	 0.00000000E+00	 0.00000000E+00
	 0.00000000E+00	 0.00000000E+00	 0.00000000E+00
	 0.00000000E+00	 0.00000000E+00	 0.00000000E+00
	 0.00000000E+00	 0.00000000E+00	 0.00000000E+00
	 0.00000000E+00	 0.00000000E+00	 0.00000000E+00
	 0.00000000E+00	 0.00000000E+00	 0.00000000E+00
	 0.00000000E+00	 0.00000000E+00	 0.00000000E+00
	 0.00000000E+00	 0.00000000E+00	 0.00000000E+00
	 0.00000000E+00	 0.00000000E+00	 0.00000000E+00
	 0.00000000E+00	 0.00000000E+00	 0.00000000E+00
	 0.00000000E+00	 0.00000000E+00	 0.00000000E+00
	 0.00000000E+00	 0.00000000E+00	 0.00000000E+00
	 0.00000000E+00	 0.00000000E+00	 0.00000000E+00
	 0.00000000E+00	 0.00000000E+00	 0.00000000E+00
	 0.00000000E+00	 0.00000000E+00	 0.00000000E+00
	 0.00000000E+00	 0.00000000E+00	 0.00000000E+00
	 0.00000000E+00	 0.00000000E+00	 0.00000000E+00
	 0.00000000E+00	 0.00000000E+00	 0.00000000E+00
	 0.00000000E+00	 0.00000000E+00	 0.00000000E+00
	 0.00000000E+00	 0.00000000E+00	 0.00000000E+00
	 0.00000000E+00	 0.00000000E+00	 0.00000000E+00
	 0.00000000E+00	 0.00000000E+00	 0.00000000E+00
	 0.00000000E+00	 0.00000000E+00	 0.00000000E+00
	 0.00000000E+00	 0.00000000E+00	 0.00000000E+00
	 0.00000000E+00	 0.00000000E+00	 0.00000000E+00
	 0.00000000E+00	 0.00000000E+00	 0.00000000E+00
	 0.00000000E+00	 0.00000000E+00	 0.00000000E+00
	 0.00000000E+00	 0.00000000E+00	 0.00000000E+00
	 0.00000000E+00	 0.00000000E+00	 0.00000000E+00
	 0.00000000E+00	 0.00000000E+00	 0.00000000E+00
	 0.00000000E+00	 0.00000000E+00	 0.00000000E+00
	 0.00000000E+00	 0.00000000E+00	 0.00000000E+00
	 0.00000000E+00	 0.00000000E+00	 0.00000000E+00
	 0.00000000E+00	 0.00000000E+00	 0.00000000E+00
	 0.00000000E+00	 0.00000000E+00	 0.00000000E+00
	 0.00000000E+00	 0.00000000E+00	 0.00000000E+00
	 0.00000000E+00	 0.00000000E+00	 0.00000000E+00
	 0.00000000E+00	 0.00000000E+00	 0.00000000E+00
	 0.00000000E+00	 0.00000000E+00	 0.00000000E+00
	 0.00000000E+00	 0.00000000E+00	 0.00000000E+00
	 0.00000000E+00	 0.00000000E+00	 0.00000000E+00
	 0.00000000E+00	 0.00000000E+00	 0.00000000E+00
	 0.00000000E+00	 0.00000000E+00	 0.00000000E+00
	 0.00000000E+00	 0.00000000E+00	 0.00000000E+00
	 0.00000000E+00	 0.00000000E+00	 0.00000000E+00
	 0.00000000E+00	 0.00000000E+00	 0.00000000E+00
	 0.00000000E+00	 0.00000000E+00	 0.00000000E+00
	 0.00000000E+00	 0.00000000E+00	 0.00000000E+00
	 0.00000000E+00	 0.00000000E+00	 0.00000000E+00
	 0.00000000E+00	 0.00000000E+00	 0.00000000E+00
	 0.00000000E+00	 0.00000000E+00	 0.00000000E+00
	 0.00000000E+00	 0.00000000E+00	 0.00000000E+00
	 0.00000000E+00	 0.00000000E+00	 0.00000000E+00
	 0.00000000E+00	 0.00000000E+00	 0.00000000E+00
	 0.00000000E+00	 0.00000000E+00	 0.00000000E+00
	 0.00000000E+00	 0.00000000E+00	 0.00000000E+00
	 0.00000000E+00	 0.00000000E+00	 0.00000000E+00
	 0.00000000E+00	 0.00000000E+00	 0.00000000E+00
	 0.00000000E+00	 0.00000000E+00	 0.00000000E+00
	 0.00000000E+00	 0.00000000E+00	 0.00000000E+00
	 0.00000000E+00	 0.00000000E+00	 0.00000000E+00
	 0.00000000E+00	 0.00000000E+00	 0.00000000E+00
	 0.00000000E+00	 0.00000000E+00	 0.00000000E+00
	 0.00000000E+00	 0.00000000E+00	 0.00000000E+00
	 0.00000000E+00	 0.00000000E+00	 0.00000000E+00
	 0.00000000E+00	 0.00000000E+00	 0.00000000E+00
	 0.00000000E+00	 0.00000000E+00	 0.00000000E+00
	 0.00000000E+00	 0.00000000E+00	 0.00000000E+00
	 0.00000000E+00	 0.00000000E+00	 0.00000000E+00
	 0.00000000E+00	 0.00000000E+00	 0.00000000E+00
	 0.00000000E+00	 0.00000000E+00	 0.00000000E+00
	 0.00000000E+00	 0.00000000E+00	 0.00000000E+00
	 0.00000000E+00	 0.00000000E+00	 0.00000000E+00
	 0.00000000E+00	 0.00000000E+00	 0.00000000E+00
	 0.00000000E+00	 0.00000000E+00	 0.00000000E+00
	 0.00000000E+00	 0.00000000E+00	 0.00000000E+00
	 0.00000000E+00	 0.00000000E+00	 0.00000000E+00
	 0.00000000E+00	 0.00000000E+00	 0.00000000E+00
	 0.00000000E+00	 0.00000000E+00	 0.00000000E+00
	 0.00000000E+00	 0.00000000E+00	 0.00000000E+00
	 0.00000000E+00	 0.00000000E+00	 0.00000000E+00
	 0.00000000E+00	 0.00000000E+00	 0.00000000E+00
	 0.00000000E+00	 0.00000000E+00	 0.00000000E+00
	 0.00000000E+00	 0.00000000E+00	 0.00000000E+00
	 0.00000000E+00	 0.00000000E+00	 0.00000000E+00
	 0.00000000E+00	 0.00000000E+00	 0.00000000E+00
	 0.00000000E+00	 0.00000000E+00	 0.00000000E+00
	 0.00000000E+00	 0.00000000E+00	 0.00000000E+00
	 0.00000000E+00	 0.00000000E+00	 0.00000000E+00
	 0.00000000E+00	 0.00000000E+00	 0.00000000E+00
	 0.00000000E+00	 0.00000000E+00	 0.00000000E+00
	 0.00000000E+00	 0.00000000E+00	 0.00000000E+00
	 0.00000000E+00	 0.00000000E+00	 0.00000000E+00
	 0.00000000E+00	 0.00000000E+00	 0.00000000E+00
	 0.00000000E+00	 0.00000000E+00	 0.00000000E+00
	 0.00000000E+00	 0.00000000E+00	 0.00000000E+00
SCALARS 1_1.0_NDTEMP double
LOOKUP_TABLE default
	 2.00000000E+01
	 2.00000000E+01
	 2.00000000E+01
	 2.00000000E+01
	 2.00000000E+01
	 2.00000000E+01
	 2.00000000E+01
	 2.00000000E+01
	 2.00000000E+01
	 2.00000000E+01
	 2.00000000E+01
	 2.00000000E+01
	 2.00000000E+01
	 2.00000000E+01
	 2.00000000E+01
	 2.00000000E+01
	 2.00000000E+01
	 2.00000000E+01
	 2.00000000E+01
	 2.00000000E+01
	 2.00000000E+01
	 2.00000000E+01
	 2.00000000E+01
	 2.00000000E+01
	 2.00000000E+01
	 2.00000000E+01
	 2.00000000E+01
	 2.00000000E+01
	 2.00000000E+01
	 2.00000000E+01
	 2.00000000E+01
	 2.00000000E+01
	 2.00000000E+01
	 2.00000000E+01
	 2.00000000E+01
	 2.00000000E+01
	 2.00000000E+01
	 2.00000000E+01
	 2.00000000E+01
	 2.00000000E+01
	 2.00000000E+01
	 2.00000000E+01
	 2.00000000E+01
	 2.00000000E+01
	 2.00000000E+01
	 2.00000000E+01
	 2.00000000E+01
	 2.00000000E+01
	 2.00000000E+01
	 2.00000000E+01
	 2.00000000E+01
	 2.00000000E+01
	 2.00000000E+01
	 2.00000000E+01
	 2.00000000E+01
	 2.00000000E+01
	 2.00000000E+01
	 2.00000000E+01
	 2.00000000E+01
	 2.00000000E+01
	 2.00000000E+01
	 2.00000000E+01
	 2.00000000E+01
	 2.00000000E+01
	 2.00000000E+01
	 2.00000000E+01
	 2.00000000E+01
	 2.00000000E+01
	 2.00000000E+01
	 2.00000000E+01
	 2.00000000E+01
	 2.00000000E+01
	 2.00000000E+01
	 2.00000000E+01
	 2.00000000E+01
	 2.00000000E+01
	 2.00000000E+01
	 2.00000000E+01
	 2.00000000E+01
	 2.00000000E+01
	 2.00000000E+01
	 2.00000000E+01
	 2.00000000E+01
	 2.00000000E+01
	 2.00000000E+01
	 2.00000000E+01
	 2.00000000E+01
	 2.00000000E+01
	 2.00000000E+01
	 2.00000000E+01
	 2.00000000E+01
	 2.00000000E+01
	 2.00000000E+01
	 2.00000000E+01
	 2.00000000E+01
	 2.00000000E+01
	 2.00000000E+01
	 2.00000000E+01
	 2.00000000E+01
	 2.00000000E+01
	 2.00000000E+01
	 2.00000000E+01
	 2.00000000E+01
	 2.00000000E+01
	 2.00000000E+01
	 2.00000000E+01
	 2.00000000E+01
	 2.00000000E+01
	 2.00000000E+01
	 2.00000000E+01
	 2.00000000E+01
	 2.00000000E+01
	 2.00000000E+01
	 2.00000000E+01
	 2.00000000E+01
	 2.00000000E+01
	 2.00000000E+01
	 2.00000000E+01
	 2.00000000E+01
	 2.00000000E+01
	 2.00000000E+01
	 2.00000000E+01
	 2.00000000E+01
	 2.00000000E+01
	 2.00000000E+01
	 2.00000000E+01
	 2.00000000E+01
	 2.00000000E+01
	 2.00000000E+01
	 2.00000000E+01
	 2.00000000E+01
	 2.00000000E+01
	 2.00000000E+01
	 2.00000000E+01
	 2.00000000E+01
	 2.00000000E+01
	 2.00000000E+01
	 2.00000000E+01
	 2.00000000E+01
	 2.00000000E+01
	 2.00000000E+01
	 2.00000000E+01
	 2.00000000E+01
	 2.00000000E+01
	 2.00000000E+01
	 2.00000000E+01
	 2.00000000E+01
	 2.00000000E+01
	 2.00000000E+01
	 2.00000000E+01
	 2.00000000E+01
	 2.00000000E+01
	 2.00000000E+01
	 2.00000000E+01
	 2.00000000E+01
	 2.00000000E+01
	 2.00000000E+01
	 2.00000000E+01
	 2.00000000E+01
	 2.00000000E+01
	 2.00000000E+01
	 2.00000000E+01
	 2.00000000E+01
	 2.00000000E+01
	 2.00000000E+01
	 2.00000000E+01
	 2.00000000E+01
	 2.00000000E+01
	 2.00000000E+01
	 2.00000000E+01
	 2.00000000E+01
	 2.00000000E+01
	 2.00000000E+01
	 2.00000000E+01
	 2.00000000E+01
	 2.00000000E+01
	 2.00000000E+01
	 2.00000000E+01
	 2.00000000E+01
	 2.00000000E+01
	 2.00000000E+01
	 2.00000000E+01
	 2.00000000E+01
	 2.00000000E+01
	 2.00000000E+01
	 2.00000000E+01
	 2.00000000E+01
	 2.00000000E+01
	 2.00000000E+01
	 2.00000000E+01
	 2.00000000E+01
	 2.00000000E+01
	 2.00000000E+01
	 2.00000000E+01
	 2.00000000E+01
	 2.00000000E+01
	 2.00000000E+01
	 2.00000000E+01
	 2.00000000E+01
	 2.00000000E+01
	 2.00000000E+01
	 2.00000000E+01
	 2.00000000E+01
	 2.00000000E+01
	 2.00000000E+01
	 2.00000000E+01
	 2.00000000E+01
	 2.00000000E+01
	 2.00000000E+01
	 2.00000000E+01
	 2.00000000E+01
	 2.00000000E+01
	 2.00000000E+01
	 2.00000000E+01
	 2.00000000E+01
	 2.00000000E+01
	 2.00000000E+01
	 2.00000000E+01
	 2.00000000E+01
	 2.00000000E+01
	 2.00000000E+01
	 2.00000000E+01
	 2.00000000E+01
	 2.00000000E+01
	 2.00000000E+01
	 2.00000000E+01
	 2.00000000E+01
	 2.00000000E+01
	 2.00000000E+01
	 2.00000000E+01
	 2.00000000E+01
	 2.00000000E+01
	 2.00000000E+01
	 2.00000000E+01
	 2.00000000E+01
	 2.00000000E+01
	 2.00000000E+01
	 2.00000000E+01
	 2.00000000E+01
	 2.00000000E+01
	 2.00000000E+01
	 2.00000000E+01
	 2.00000000E+01
	 2.00000000E+01
	 2.00000000E+01
	 2.00000000E+01
	 2.00000000E+01
	 2.00000000E+01
	 2.00000000E+01
	 2.00000000E+01
	 2.00000000E+01
	 2.00000000E+01
	 2.00000000E+01
	 2.00000000E+01
	 2.00000000E+01
	 2.00000000E+01
	 2.00000000E+01
	 2.00000000E+01
	 2.00000000E+01
	 2.00000000E+01
	 2.00000000E+01
	 2.00000000E+01
	 2.00000000E+01
	 2.00000000E+01
	 2.00000000E+01
	 2.00000000E+01
	 2.00000000E+01
	 2.00000000E+01
	 2.00000000E+01
	 2.00000000E+01
	 2.00000000E+01
	 2.00000000E+01
	 2.00000000E+01
	 2.00000000E+01
	 2.00000000E+01
	 2.00000000E+01
	 2.00000000E+01
	 2.00000000E+01
	 2.00000000E+01
	 2.00000000E+01
	 2.00000000E+01
	 2.00000000E+01
	 2.00000000E+01
	 2.00000000E+01
	 2.00000000E+01
	 2.00000000E+01
	 2.00000000E+01
	 2.00000000E+01
	 2.00000000E+01
	 2.00000000E+01
	 2.00000000E+01
	 2.00000000E+01
	 2.00000000E+01
	 2.00000000E+01
	 2.00000000E+01
	 2.00000000E+01
	 2.00000000E+01
	 2.00000000E+01
	 2.00000000E+01
	 2.00000000E+01
	 2.00000000E+01
	 2.00000000E+01
	 2.00000000E+01
	 2.00000000E+01
	 2.00000000E+01
	 2.00000000E+01
	 2.00000000E+01
	 2.00000000E+01
	 2.00000000E+01
	 2.00000000E+01
	 2.00000000E+01
	 2.00000000E+01
	 2.00000000E+01
	 2.00000000E+01
	 2.00000000E+01
	 2.00000000E+01
	 2.00000000E+01
	 2.00000000E+01
	 2.00000000E+01
	 2.00000000E+01
	 2.00000000E+01
	 2.00000000E+01
	 2.00000000E+01
	 2.00000000E+01
	 2.00000000E+01
	 2.00000000E+01
	 2.00000000E+01
	 2.00000000E+01
	 2.00000000E+01
	 2.00000000E+01
	 2.00000000E+01
	 2.00000000E+01
	 2.00000000E+01
	 2.00000000E+01
	 2.00000000E+01
	 2.00000000E+01
	 2.00000000E+01
	 2.00000000E+01
	 2.00000000E+01
	 2.00000000E+01
	 2.00000000E+01
	 2.00000000E+01
	 2.00000000E+01
	 2.00000000E+01
	 2.00000000E+01
	 2.00000000E+01
	 2.00000000E+01
	 2.00000000E+01
	 2.00000000E+01
	 2.00000000E+01
	 2.00000000E+01
	 2.00000000E+01
	 2.00000000E+01
	 2.00000000E+01
	 2.00000000E+01
	 2.00000000E+01
	 2.00000000E+01
	 2.00000000E+01
	 2.00000000E+01
	 2.00000000E+01
	 2.00000000E+01
	 2.00000000E+01
	 2.00000000E+01
	 2.00000000E+01
	 2.00000000E+01
	 2.00000000E+01
	 2.00000000E+01
	 2.00000000E+01
	 2.00000000E+01
	 2.00000000E+01
	 2.00000000E+01
	 2.00000000E+01
	 2.00000000E+01
	 2.00000000E+01
	 2.00000000E+01
	 2.00000000E+01
	 2.00000000E+01
	 2.00000000E+01
	 2.00000000E+01
	 2.00000000E+01
	 2.00000000E+01
	 2.00000000E+01
	 2.00000000E+01
	 2.00000000E+01
	 2.00000000E+01
	 2.00000000E+01
	 2.00000000E+01
	 2.00000000E+01
	 2.00000000E+01
	 2.00000000E+01
	 2.00000000E+01
	 2.00000000E+01
	 2.00000000E+01
	 2.00000000E+01
	 2.00000000E+01
	 2.00000000E+01
	 2.00000000E+01
	 2.00000000E+01
	 2.00000000E+01
	 2.00000000E+01
	 2.00000000E+01
	 2.00000000E+01
	 2.00000000E+01
	 2.00000000E+01
	 2.00000000E+01
	 2.00000000E+01
	 2.00000000E+01
	 2.00000000E+01
	 2.00000000E+01
	 2.00000000E+01
	 2.00000000E+01
	 2.00000000E+01
	 2.00000000E+01
	 2.00000000E+01
	 2.00000000E+01
	 2.00000000E+01
	 2.00000000E+01
	 2.00000000E+01
	 2.00000000E+01
	 2.00000000E+01
	 2.00000000E+01
	 2.00000000E+01
	 2.00000000E+01
	 2.00000000E+01
	 2.00000000E+01
	 2.00000000E+01
	 2.00000000E+01
	 2.00000000E+01
	 2.00000000E+01
	 2.00000000E+01
	 2.00000000E+01
	 2.00000000E+01
	 2.00000000E+01
	 2.00000000E+01
	 2.00000000E+01
	 2.00000000E+01
	 2.00000000E+01
	 2.00000000E+01
	 2.00000000E+01
	 2.00000000E+01
	 2.00000000E+01
	 2.00000000E+01
	 2.00000000E+01
	 2.00000000E+01
	 2.00000000E+01
	 2.00000000E+01
	 2.00000000E+01
	 2.00000000E+01
	 2.00000000E+01
	 2.00000000E+01
	 2.00000000E+01
	 2.00000000E+01
	 2.00000000E+01
	 2.00000000E+01
	 2.00000000E+01
	 2.00000000E+01
	 2.00000000E+01
	 2.00000000E+01
	 2.00000000E+01
	 2.00000000E+01
	 2.00000000E+01
	 2.00000000E+01
	 2.00000000E+01
	 2.00000000E+01
	 2.00000000E+01
	 2.00000000E+01
	 2.00000000E+01
	 2.00000000E+01
	 2.00000000E+01
	 2.00000000E+01
	 2.00000000E+01
	 2.00000000E+01
	 2.00000000E+01
	 2.00000000E+01
	 2.00000000E+01
	 2.00000000E+01
	 2.00000000E+01
	 2.00000000E+01
	 2.00000000E+01
	 2.00000000E+01
	 2.00000000E+01
	 2.00000000E+01
	 2.00000000E+01
	 2.00000000E+01
	 2.00000000E+01
	 2.00000000E+01
	 2.00000000E+01
	 2.00000000E+01
	 2.00000000E+01
	 2.00000000E+01
	 2.00000000E+01
	 2.00000000E+01
	 2.00000000E+01
	 2.00000000E+01
	 2.00000000E+01
	 2.00000000E+01
	 2.00000000E+01
	 2.00000000E+01
	 2.00000000E+01
	 2.00000000E+01
	 2.00000000E+01
	 2.00000000E+01
	 2.00000000E+01
	 2.00000000E+01
	 2.00000000E+01
	 2.00000000E+01
	 2.00000000E+01
	 2.00000000E+01
	 2.00000000E+01
	 2.00000000E+01
	 2.00000000E+01
	 2.00000000E+01
	 2.00000000E+01
	 2.00000000E+01
	 2.00000000E+01
	 2.00000000E+01
	 2.00000000E+01
	 2.00000000E+01
	 2.00000000E+01
	 2.00000000E+01
	 2.00000000E+01
	 2.00000000E+01
	 2.00000000E+01
	 2.00000000E+01
	 2.00000000E+01
	 2.00000000E+01
	 2.00000000E+01
	 2.00000000E+01
	 2.00000000E+01
	 2.00000000E+01
	 2.00000000E+01
	 2.00000000E+01
	 2.00000000E+01
	 2.00000000E+01
	 2.00000000E+01
	 2.00000000E+01
	 2.00000000E+01
	 2.00000000E+01
	 2.00000000E+01
	 2.00000000E+01
	 2.00000000E+01
	 2.00000000E+01
	 2.00000000E+01
	 2.00000000E+01
	 2.00000000E+01
	 2.00000000E+01
	 2.00000000E+01
	 2.00000000E+01
	 2.00000000E+01
	 2.00000000E+01
	 2.00000000E+01
	 2.00000000E+01
	 2.00000000E+01
	 2.00000000E+01
	 2.00000000E+01
	 2.00000000E+01
	 2.00000000E+01
	 2.00000000E+01
	 2.00000000E+01
	 2.00000000E+01
	 2.00000000E+01
	 2.00000000E+01
	 2.00000000E+01
	 2.00000000E+01
	 2.00000000E+01
	 2.00000000E+01
	 2.00000000E+01
	 2.00000000E+01
	 2.00000000E+01
	 2.00000000E+01
	 2.00000000E+01
	 2.00000000E+01
	 2.00000000E+01
	 2.00000000E+01
	 2.00000000E+01
	 2.00000000E+01
	 2.00000000E+01
	 2.00000000E+01
	 2.00000000E+01
	 2.00000000E+01
	 2.00000000E+01
	 2.00000000E+01
	 2.00000000E+01
	 2.00000000E+01
	 2.00000000E+01
	 2.00000000E+01
	 2.00000000E+01
	 2.00000000E+01
	 2.00000000E+01
	 2.00000000E+01
	 2.00000000E+01
	 2.00000000E+01
	 2.00000000E+01
	 2.00000000E+01
	 2.00000000E+01
	 2.00000000E+01
	 2.00000000E+01
	 2.00000000E+01
	 2.00000000E+01
	 2.00000000E+01
	 2.00000000E+01
	 2.00000000E+01
	 2.00000000E+01
	 2.00000000E+01
	 2.00000000E+01
	 2.00000000E+01
	 2.00000000E+01
	 2.00000000E+01
	 2.00000000E+01
	 2.00000000E+01
	 2.00000000E+01
	 2.00000000E+01
	 2.00000000E+01
	 2.00000000E+01
	 2.00000000E+01
	 2.00000000E+01
	 2.00000000E+01
	 2.00000000E+01
	 2.00000000E+01
	 2.00000000E+01
	 2.00000000E+01
	 2.00000000E+01
	 2.00000000E+01
	 2.00000000E+01
	 2.00000000E+01
	 2.00000000E+01
	 2.00000000E+01
	 2.00000000E+01
	 2.00000000E+01
	 2.00000000E+01
	 2.00000000E+01
	 2.00000000E+01
	 2.00000000E+01
	 2.00000000E+01
	 2.00000000E+01
	 2.00000000E+01
	 2.00000000E+01
	 2.00000000E+01
	 2.00000000E+01
	 2.00000000E+01
	 2.00000000E+01
	 2.00000000E+01
	 2.00000000E+01
	 2.00000000E+01
	 2.00000000E+01
	 2.00000000E+01
	 2.00000000E+01
	 2.00000000E+01
	 2.00000000E+01
	 2.00000000E+01
	 2.00000000E+01
	 2.00000000E+01
	 2.00000000E+01
	 2.00000000E+01
	 2.00000000E+01
	 2.00000000E+01
	 2.00000000E+01
	 2.00000000E+01
	 2.00000000E+01
	 2.00000000E+01
	 2.00000000E+01
	 2.00000000E+01
	 2.00000000E+01
	 2.00000000E+01
	 2.00000000E+01
	 2.00000000E+01
	 2.00000000E+01
	 2.00000000E+01
	 2.00000000E+01
	 2.00000000E+01
	 2.00000000E+01
	 2.00000000E+01
	 2.00000000E+01
	 2.00000000E+01
	 2.00000000E+01
	 2.00000000E+01
	 2.00000000E+01
	 2.00000000E+01
	 2.00000000E+01
	 2.00000000E+01
	 2.00000000E+01
	 2.00000000E+01
	 2.00000000E+01
	 2.00000000E+01
	 2.00000000E+01
	 2.00000000E+01
	 2.00000000E+01
	 2.00000000E+01
	 2.00000000E+01
	 2.00000000E+01
	 2.00000000E+01
	 2.00000000E+01
	 2.00000000E+01
	 2.00000000E+01
	 2.00000000E+01
	 2.00000000E+01
	 2.00000000E+01
	 2.00000000E+01
	 2.00000000E+01
	 2.00000000E+01
	 2.00000000E+01
	 2.00000000E+01
	 2.00000000E+01
	 2.00000000E+01
	 2.00000000E+01
	 2.00000000E+01
	 2.00000000E+01
	 2.00000000E+01
	 2.00000000E+01
	 2.00000000E+01
	 2.00000000E+01
	 2.00000000E+01
	 2.00000000E+01
	 2.00000000E+01
	 2.00000000E+01
	 2.00000000E+01
	 2.00000000E+01
	 2.00000000E+01
	 2.00000000E+01
	 2.00000000E+01
	 2.00000000E+01
	 2.00000000E+01
	 2.00000000E+01
	 2.00000000E+01
	 2.00000000E+01
	 2.00000000E+01
	 2.00000000E+01
	 2.00000000E+01
	 2.00000000E+01
	 2.00000000E+01
	 2.00000000E+01
	 2.00000000E+01
	 2.00000000E+01
	 2.00000000E+01
	 2.00000000E+01
	 2.00000000E+01
	 2.00000000E+01
	 2.00000000E+01
	 2.00000000E+01
	 2.00000000E+01
	 2.00000000E+01
	 2.00000000E+01
	 2.00000000E+01
	 2.00000000E+01
	 2.00000000E+01
	 2.00000000E+01
	 2.00000000E+01
	 2.00000000E+01
	 2.00000000E+01
	 2.00000000E+01
	 2.00000000E+01
	 2.00000000E+01
	 2.00000000E+01
	 2.00000000E+01
	 2.00000000E+01
	 2.00000000E+01
	 2.00000000E+01
	 2.00000000E+01
	 2.00000000E+01
	 2.00000000E+01
	 2.00000000E+01
	 2.00000000E+01
	 2.00000000E+01
	 2.00000000E+01
	 2.00000000E+01
	 2.00000000E+01
	 2.00000000E+01
	 2.00000000E+01
	 2.00000000E+01
	 2.00000000E+01
	 2.00000000E+01
	 2.00000000E+01
	 2.00000000E+01
	 2.00000000E+01
	 2.00000000E+01
	 2.00000000E+01
	 2.00000000E+01
	 2.00000000E+01
	 2.00000000E+01
	 2.00000000E+01
	 2.00000000E+01
	 2.00000000E+01
	 2.00000000E+01
	 2.00000000E+01
	 2.00000000E+01
	 2.00000000E+01
	 2.00000000E+01
	 2.00000000E+01
	 2.00000000E+01
	 2.00000000E+01
	 2.00000000E+01
	 2.00000000E+01
	 2.00000000E+01
	 2.00000000E+01
	 2.00000000E+01
	 2.00000000E+01
	 2.00000000E+01
	 2.00000000E+01
	 2.00000000E+01
	 2.00000000E+01
	 2.00000000E+01
	 2.00000000E+01
	 2.00000000E+01
	 2.00000000E+01
	 2.00000000E+01
	 2.00000000E+01
	 2.00000000E+01
	 2.00000000E+01
	 2.00000000E+01
	 2.00000000E+01
	 2.00000000E+01
	 2.00000000E+01
	 2.00000000E+01
	 2.00000000E+01
	 2.00000000E+01
	 2.00000000E+01
	 2.00000000E+01
	 2.00000000E+01
	 2.00000000E+01
	 2.00000000E+01
	 2.00000000E+01
	 2.00000000E+01
	 2.00000000E+01
	 2.00000000E+01
	 2.00000000E+01
	 2.00000000E+01
	 2.00000000E+01
	 2.00000000E+01
	 2.00000000E+01
	 2.00000000E+01
	 2.00000000E+01
	 2.00000000E+01
	 2.00000000E+01
	 2.00000000E+01
	 2.00000000E+01
	 2.00000000E+01
	 2.00000000E+01
	 2.00000000E+01
	 2.00000000E+01
	 2.00000000E+01
	 2.00000000E+01
	 2.00000000E+01
	 2.00000000E+01
	 2.00000000E+01
	 2.00000000E+01
	 2.00000000E+01
	 2.00000000E+01
	 2.00000000E+01
	 2.00000000E+01
	 2.00000000E+01
	 2.00000000E+01
	 2.00000000E+01
	 2.00000000E+01
	 2.00000000E+01
	 2.00000000E+01
	 2.00000000E+01
	 2.00000000E+01
	 2.00000000E+01
	 2.00000000E+01
	 2.00000000E+01
	 2.00000000E+01
	 2.00000000E+01
	 2.00000000E+01
	 2.00000000E+01
	 2.00000000E+01
	 2.00000000E+01
	 2.00000000E+01
	 2.00000000E+01
	 2.00000000E+01
	 2.00000000E+01
	 2.00000000E+01
	 2.00000000E+01
	 2.00000000E+01
	 2.00000000E+01
	 2.00000000E+01
	 2.00000000E+01
	 2.00000000E+01
	 2.00000000E+01
	 2.00000000E+01
	 2.00000000E+01
	 2.00000000E+01
	 2.00000000E+01
	 2.00000000E+01
	 2.00000000E+01
	 2.00000000E+01
	 2.00000000E+01
	 2.00000000E+01
	 2.00000000E+01
	 2.00000000E+01
	 2.00000000E+01
	 2.00000000E+01
	 2.00000000E+01
	 2.00000000E+01
	 2.00000000E+01
	 2.00000000E+01
	 2.00000000E+01
	 2.00000000E+01
	 2.00000000E+01
	 2.00000000E+01
	 2.00000000E+01
	 2.00000000E+01
	 2.00000000E+01
	 2.00000000E+01
	 2.00000000E+01
	 2.00000000E+01
	 2.00000000E+01
	 2.00000000E+01
	 2.00000000E+01
	 2.00000000E+01
	 2.00000000E+01
	 2.00000000E+01
	 2.00000000E+01
	 2.00000000E+01
	 2.00000000E+01
	 2.00000000E+01
	 2.00000000E+01
	 2.00000000E+01
	 2.00000000E+01
	 2.00000000E+01
	 2.00000000E+01
	 2.00000000E+01
	 2.00000000E+01
	 2.00000000E+01
	 2.00000000E+01
	 2.00000000E+01
	 2.00000000E+01
	 2.00000000E+01
	 2.00000000E+01
	 2.00000000E+01
	 2.00000000E+01
	 2.00000000E+01
	 2.00000000E+01
	 2.00000000E+01
	 2.00000000E+01
	 2.00000000E+01
	 2.00000000E+01
	 2.00000000E+01
	 2.00000000E+01
	 2.00000000E+01
	 2.00000000E+01
	 2.00000000E+01
	 2.00000000E+01
	 2.00000000E+01
	 2.00000000E+01
	 2.00000000E+01
	 2.00000000E+01
	 2.00000000E+01
	 2.00000000E+01
	 2.00000000E+01
	 2.00000000E+01
	 2.00000000E+01
	 2.00000000E+01
	 2.00000000E+01
	 2.00000000E+01
	 2.00000000E+01
	 2.00000000E+01
	 2.00000000E+01
	 2.00000000E+01
	 2.00000000E+01
	 2.00000000E+01
	 2.00000000E+01
	 2.00000000E+01
	 2.00000000E+01
	 2.00000000E+01
	 2.00000000E+01
	 2.00000000E+01
	 2.00000000E+01
	 2.00000000E+01
	 2.00000000E+01
	 2.00000000E+01
	 2.00000000E+01
	 2.00000000E+01
	 2.00000000E+01
	 2.00000000E+01
	 2.00000000E+01
	 2.00000000E+01
	 2.00000000E+01
	 2.00000000E+01
	 2.00000000E+01
	 2.00000000E+01
	 2.00000000E+01
	 2.00000000E+01
	 2.00000000E+01
	 2.00000000E+01
	 2.00000000E+01
	 2.00000000E+01
	 2.00000000E+01
	 2.00000000E+01
	 2.00000000E+01
	 2.00000000E+01
	 2.00000000E+01
	 2.00000000E+01
	 2.00000000E+01
	 2.00000000E+01
	 2.00000000E+01
	 2.00000000E+01
	 2.00000000E+01
	 2.00000000E+01
	 2.00000000E+01
	 2.00000000E+01
	 2.00000000E+01
	 2.00000000E+01
	 2.00000000E+01
	 2.00000000E+01
	 2.00000000E+01
	 2.00000000E+01
	 2.00000000E+01
	 2.00000000E+01
	 2.00000000E+01
	 2.00000000E+01
	 2.00000000E+01
	 2.00000000E+01
	 2.00000000E+01
	 2.00000000E+01
	 2.00000000E+01
	 2.00000000E+01
	 2.00000000E+01
	 2.00000000E+01
	 2.00000000E+01
	 2.00000000E+01
	 2.00000000E+01
	 2.00000000E+01
	 2.00000000E+01
	 2.00000000E+01
	 2.00000000E+01
	 2.00000000E+01
	 2.00000000E+01
	 2.00000000E+01
	 2.00000000E+01
	 2.00000000E+01
	 2.00000000E+01
	 2.00000000E+01
	 2.00000000E+01
	 2.00000000E+01
	 2.00000000E+01
	 2.00000000E+01
	 2.00000000E+01
	 2.00000000E+01
	 2.00000000E+01
	 2.00000000E+01
	 2.00000000E+01
	 2.00000000E+01
	 2.00000000E+01
	 2.00000000E+01
	 2.00000000E+01
	 2.00000000E+01
	 2.00000000E+01
	 2.00000000E+01
	 2.00000000E+01
	 2.00000000E+01
	 2.00000000E+01
	 2.00000000E+01
	 2.00000000E+01
	 2.00000000E+01
	 2.00000000E+01
	 2.00000000E+01
	 2.00000000E+01
	 2.00000000E+01
	 2.00000000E+01
	 2.00000000E+01
	 2.00000000E+01
	 2.00000000E+01
	 2.00000000E+01
	 2.00000000E+01
	 2.00000000E+01
	 2.00000000E+01
	 2.00000000E+01
	 2.00000000E+01
	 2.00000000E+01
	 2.00000000E+01
	 2.00000000E+01
	 2.00000000E+01
	 2.00000000E+01
	 2.00000000E+01
	 2.00000000E+01
	 2.00000000E+01
	 2.00000000E+01
	 2.00000000E+01
	 2.00000000E+01
	 2.00000000E+01
	 2.00000000E+01
	 2.00000000E+01
	 2.00000000E+01
	 2.00000000E+01
	 2.00000000E+01
	 2.00000000E+01
	 2.00000000E+01
	 2.00000000E+01
	 2.00000000E+01
	 2.00000000E+01
	 2.00000000E+01
	 2.00000000E+01
	 2.00000000E+01
	 2.00000000E+01
	 2.00000000E+01
	 2.00000000E+01
	 2.00000000E+01
	 2.00000000E+01
	 2.00000000E+01
	 2.00000000E+01
	 2.00000000E+01
	 2.00000000E+01
	 2.00000000E+01
	 2.00000000E+01
	 2.00000000E+01
	 2.00000000E+01
	 2.00000000E+01
	 2.00000000E+01
	 2.00000000E+01
	 2.00000000E+01
	 2.00000000E+01
	 2.00000000E+01
	 2.00000000E+01
	 2.00000000E+01
	 2.00000000E+01
	 2.00000000E+01
	 2.00000000E+01
	 2.00000000E+01
	 2.00000000E+01
	 2.00000000E+01
	 2.00000000E+01
	 2.00000000E+01
	 2.00000000E+01
	 2.00000000E+01
	 2.00000000E+01
	 2.00000000E+01
	 2.00000000E+01
	 2.00000000E+01
	 2.00000000E+01
	 2.00000000E+01
	 2.00000000E+01
	 2.00000000E+01
	 2.00000000E+01
	 2.00000000E+01
	 2.00000000E+01
	 2.00000000E+01
	 2.00000000E+01
	 2.00000000E+01
	 2.00000000E+01
	 2.00000000E+01
	 2.00000000E+01
	 2.00000000E+01
	 2.00000000E+01
	 2.00000000E+01
	 2.00000000E+01
	 2.00000000E+01
	 2.00000000E+01
	 2.00000000E+01
	 2.00000000E+01
	 2.00000000E+01
	 2.00000000E+01
	 2.00000000E+01
	 2.00000000E+01
	 2.00000000E+01
	 2.00000000E+01
	 2.00000000E+01
	 2.00000000E+01
	 2.00000000E+01
	 2.00000000E+01
	 2.00000000E+01
	 2.00000000E+01
	 2.00000000E+01
	 2.00000000E+01
	 2.00000000E+01
	 2.00000000E+01
	 2.00000000E+01
	 2.00000000E+01
	 2.00000000E+01
	 2.00000000E+01
	 2.00000000E+01
	 2.00000000E+01
	 2.00000000E+01
	 2.00000000E+01
	 2.00000000E+01
	 2.00000000E+01
	 2.00000000E+01
	 2.00000000E+01
	 2.00000000E+01
	 2.00000000E+01
	 2.00000000E+01
	 2.00000000E+01
	 2.00000000E+01
	 2.00000000E+01
	 2.00000000E+01
	 2.00000000E+01
	 2.00000000E+01
	 2.00000000E+01
	 2.00000000E+01
	 2.00000000E+01
	 2.00000000E+01
	 2.00000000E+01
	 2.00000000E+01
	 2.00000000E+01
	 2.00000000E+01
	 2.00000000E+01
	 2.00000000E+01
	 2.00000000E+01
	 2.00000000E+01
	 2.00000000E+01
	 2.00000000E+01
	 2.00000000E+01
	 2.00000000E+01
	 2.00000000E+01
	 2.00000000E+01
	 2.00000000E+01
	 2.00000000E+01
	 2.00000000E+01
	 2.00000000E+01
	 2.00000000E+01
	 2.00000000E+01
	 2.00000000E+01
	 2.00000000E+01
	 2.00000000E+01
	 2.00000000E+01
	 2.00000000E+01
	 2.00000000E+01
	 2.00000000E+01
	 2.00000000E+01
	 2.00000000E+01
	 2.00000000E+01
	 2.00000000E+01
	 2.00000000E+01
	 2.00000000E+01
	 2.00000000E+01
	 2.00000000E+01
	 2.00000000E+01
	 2.00000000E+01
	 2.00000000E+01
	 2.00000000E+01
	 2.00000000E+01
	 2.00000000E+01
	 2.00000000E+01
	 2.00000000E+01
	 2.00000000E+01
	 2.00000000E+01
	 2.00000000E+01
	 2.00000000E+01
	 2.00000000E+01
	 2.00000000E+01
	 2.00000000E+01
	 2.00000000E+01
	 2.00000000E+01
	 2.00000000E+01
	 2.00000000E+01
	 2.00000000E+01
	 2.00000000E+01
	 2.00000000E+01
	 2.00000000E+01
	 2.00000000E+01
	 2.00000000E+01
	 2.00000000E+01
	 2.00000000E+01
	 2.00000000E+01
	 2.00000000E+01
	 2.00000000E+01
	 2.00000000E+01
	 2.00000000E+01
	 2.00000000E+01
	 2.00000000E+01
	 2.00000000E+01
	 2.00000000E+01
	 2.00000000E+01
	 2.00000000E+01
	 2.00000000E+01
	 2.00000000E+01
	 2.00000000E+01
	 2.00000000E+01
	 2.00000000E+01
	 2.00000000E+01
	 2.00000000E+01
	 2.00000000E+01
	 2.00000000E+01
	 2.00000000E+01
	 2.00000000E+01
	 2.00000000E+01
	 2.00000000E+01
	 2.00000000E+01
	 2.00000000E+01
	 2.00000000E+01
	 2.00000000E+01
	 2.00000000E+01
	 2.00000000E+01
	 2.00000000E+01
	 2.00000000E+01
	 2.00000000E+01
	 2.00000000E+01
	 2.00000000E+01
	 2.00000000E+01
	 2.00000000E+01
	 2.00000000E+01
	 2.00000000E+01
	 2.00000000E+01
	 2.00000000E+01
	 2.00000000E+01
	 2.00000000E+01
	 2.00000000E+01
	 2.00000000E+01
	 2.00000000E+01
	 2.00000000E+01
	 2.00000000E+01
	 2.00000000E+01
	 2.00000000E+01
	 2.00000000E+01
	 2.00000000E+01
	 2.00000000E+01
	 2.00000000E+01
	 2.00000000E+01
	 2.00000000E+01
	 2.00000000E+01
	 2.00000000E+01
	 2.00000000E+01
	 2.00000000E+01
	 2.00000000E+01
	 2.00000000E+01
	 2.00000000E+01
	 2.00000000E+01
	 2.00000000E+01
	 2.00000000E+01
	 2.00000000E+01
	 2.00000000E+01
	 2.00000000E+01
	 2.00000000E+01
	 2.00000000E+01
	 2.00000000E+01
	 2.00000000E+01
	 2.00000000E+01
	 2.00000000E+01
	 2.00000000E+01
	 2.00000000E+01
	 2.00000000E+01
	 2.00000000E+01
	 2.00000000E+01
	 2.00000000E+01
	 2.00000000E+01
	 2.00000000E+01
	 2.00000000E+01
	 2.00000000E+01
	 2.00000000E+01
	 2.00000000E+01
	 2.00000000E+01
	 2.00000000E+01
	 2.00000000E+01
	 2.00000000E+01
	 2.00000000E+01
	 2.00000000E+01
	 2.00000000E+01
	 2.00000000E+01
	 2.00000000E+01
	 2.00000000E+01
	 2.00000000E+01
	 2.00000000E+01
	 2.00000000E+01
	 2.00000000E+01
	 2.00000000E+01
	 2.00000000E+01
	 2.00000000E+01
	 2.00000000E+01
	 2.00000000E+01
	 2.00000000E+01
	 2.00000000E+01
	 2.00000000E+01
	 2.00000000E+01
	 2.00000000E+01
	 2.00000000E+01
	 2.00000000E+01
	 2.00000000E+01
	 2.00000000E+01
	 2.00000000E+01
	 2.00000000E+01
	 2.00000000E+01
	 2.00000000E+01
	 2.00000000E+01
	 2.00000000E+01
	 2.00000000E+01
	 2.00000000E+01
	 2.00000000E+01
	 2.00000000E+01
	 2.00000000E+01
	 2.00000000E+01
	 2.00000000E+01
	 2.00000000E+01
	 2.00000000E+01
	 2.00000000E+01
	 2.00000000E+01
	 2.00000000E+01
	 2.00000000E+01
	 2.00000000E+01
	 2.00000000E+01
	 2.00000000E+01
	 2.00000000E+01
	 2.00000000E+01
	 2.00000000E+01
	 2.00000000E+01
	 2.00000000E+01
	 2.00000000E+01
	 2.00000000E+01
	 2.00000000E+01
	 2.00000000E+01
	 2.00000000E+01
	 2.00000000E+01
	 2.00000000E+01
	 2.00000000E+01
	 2.00000000E+01
	 2.00000000E+01
	 2.00000000E+01
	 2.00000000E+01
	 2.00000000E+01
	 2.00000000E+01
	 2.00000000E+01
	 2.00000000E+01
	 2.00000000E+01
	 2.00000000E+01
	 2.00000000E+01
	 2.00000000E+01
	 2.00000000E+01
	 2.00000000E+01
	 2.00000000E+01
	 2.00000000E+01
	 2.00000000E+01
	 2.00000000E+01
	 2.00000000E+01
	 2.00000000E+01
	 2.00000000E+01
	 2.00000000E+01
	 2.00000000E+01
	 2.00000000E+01
	 2.00000000E+01
	 2.00000000E+01
	 2.00000000E+01
	 2.00000000E+01
	 2.00000000E+01
	 2.00000000E+01
	 2.00000000E+01
	 2.00000000E+01
	 2.00000000E+01
	 2.00000000E+01
	 2.00000000E+01
	 2.00000000E+01
	 2.00000000E+01
	 2.00000000E+01
	 2.00000000E+01
	 2.00000000E+01
	 2.00000000E+01
	 2.00000000E+01
	 2.00000000E+01
	 2.00000000E+01
	 2.00000000E+01
	 2.00000000E+01
	 2.00000000E+01
	 2.00000000E+01
	 2.00000000E+01
	 2.00000000E+01
	 2.00000000E+01
	 2.00000000E+01
	 2.00000000E+01
	 2.00000000E+01
	 2.00000000E+01
	 2.00000000E+01
	 2.00000000E+01
	 2.00000000E+01
	 2.00000000E+01
	 2.00000000E+01
	 2.00000000E+01
	 2.00000000E+01
	 2.00000000E+01
	 2.00000000E+01
	 2.00000000E+01
	 2.00000000E+01
	 2.00000000E+01
	 2.00000000E+01
	 2.00000000E+01
	 2.00000000E+01
	 2.00000000E+01
	 2.00000000E+01
	 2.00000000E+01
	 2.00000000E+01
	 2.00000000E+01
	 2.00000000E+01
	 2.00000000E+01
	 2.00000000E+01
	 2.00000000E+01
	 2.00000000E+01
	 2.00000000E+01
	 2.00000000E+01
	 2.00000000E+01
	 2.00000000E+01
	 2.00000000E+01
	 2.00000000E+01
	 2.00000000E+01
	 2.00000000E+01
	 2.00000000E+01
	 2.00000000E+01
	 2.00000000E+01
	 2.00000000E+01
	 2.00000000E+01
	 2.00000000E+01
	 2.00000000E+01
	 2.00000000E+01
	 2.00000000E+01
	 2.00000000E+01
	 2.00000000E+01
	 2.00000000E+01
	 2.00000000E+01
	 2.00000000E+01
	 2.00000000E+01
	 2.00000000E+01
	 2.00000000E+01
	 2.00000000E+01
	 2.00000000E+01
	 2.00000000E+01
	 2.00000000E+01
	 2.00000000E+01
	 2.00000000E+01
	 2.00000000E+01
	 2.00000000E+01
	 2.00000000E+01
	 2.00000000E+01
	 2.00000000E+01
	 2.00000000E+01
	 2.00000000E+01
	 2.00000000E+01
	 2.00000000E+01
	 2.00000000E+01
	 2.00000000E+01
	 2.00000000E+01
	 2.00000000E+01
	 2.00000000E+01
	 2.00000000E+01
	 2.00000000E+01
	 2.00000000E+01
	 2.00000000E+01
	 2.00000000E+01
	 2.00000000E+01
	 2.00000000E+01
	 2.00000000E+01
	 2.00000000E+01
	 2.00000000E+01
	 2.00000000E+01
	 2.00000000E+01
	 2.00000000E+01
	 2.00000000E+01
	 2.00000000E+01
	 2.00000000E+01
	 2.00000000E+01
	 2.00000000E+01
	 2.00000000E+01
	 2.00000000E+01
	 2.00000000E+01
	 2.00000000E+01
	 2.00000000E+01
	 2.00000000E+01
	 2.00000000E+01
	 2.00000000E+01
	 2.00000000E+01
	 2.00000000E+01
	 2.00000000E+01
	 2.00000000E+01
	 2.00000000E+01
	 2.00000000E+01
	 2.00000000E+01
	 2.00000000E+01
	 2.00000000E+01
	 2.00000000E+01
	 2.00000000E+01
	 2.00000000E+01
	 2.00000000E+01
	 2.00000000E+01
	 2.00000000E+01
	 2.00000000E+01
	 2.00000000E+01
	 2.00000000E+01
	 2.00000000E+01
	 2.00000000E+01
	 2.00000000E+01
	 2.00000000E+01
	 2.00000000E+01
	 2.00000000E+01
	 2.00000000E+01
	 2.00000000E+01
	 2.00000000E+01
	 2.00000000E+01
	 2.00000000E+01
	 2.00000000E+01
	 2.00000000E+01
	 2.00000000E+01
	 2.00000000E+01
	 2.00000000E+01
	 2.00000000E+01
	 2.00000000E+01
	 2.00000000E+01
	 2.00000000E+01
	 2.00000000E+01
	 2.00000000E+01
	 2.00000000E+01
	 2.00000000E+01
	 2.00000000E+01
	 2.00000000E+01
	 2.00000000E+01
	 2.00000000E+01
	 2.00000000E+01
	 2.00000000E+01
	 2.00000000E+01
	 2.00000000E+01
	 2.00000000E+01
	 2.00000000E+01
	 2.00000000E+01
	 2.00000000E+01
	 2.00000000E+01
	 2.00000000E+01
	 2.00000000E+01
	 2.00000000E+01
	 2.00000000E+01
	 2.00000000E+01
	 2.00000000E+01
	 2.00000000E+01
	 2.00000000E+01
	 2.00000000E+01
	 2.00000000E+01
	 2.00000000E+01
	 2.00000000E+01
	 2.00000000E+01
	 2.00000000E+01
	 2.00000000E+01
	 2.00000000E+01
	 2.00000000E+01
	 2.00000000E+01
	 2.00000000E+01
	 2.00000000E+01
	 2.00000000E+01
	 2.00000000E+01
	 2.00000000E+01
	 2.00000000E+01
	 2.00000000E+01
	 2.00000000E+01
	 2.00000000E+01
	 2.00000000E+01
	 2.00000000E+01
	 2.00000000E+01
	 2.00000000E+01
	 2.00000000E+01
	 2.00000000E+01
	 2.00000000E+01
	 2.00000000E+01
	 2.00000000E+01
	 2.00000000E+01
	 2.00000000E+01
	 2.00000000E+01
	 2.00000000E+01
	 2.00000000E+01
	 2.00000000E+01
	 2.00000000E+01
	 2.00000000E+01
	 2.00000000E+01
	 2.00000000E+01
	 2.00000000E+01
	 2.00000000E+01
	 2.00000000E+01
	 2.00000000E+01
	 2.00000000E+01
	 2.00000000E+01
	 2.00000000E+01
	 2.00000000E+01
	 2.00000000E+01
	 2.00000000E+01
	 2.00000000E+01
	 2.00000000E+01
	 2.00000000E+01
	 2.00000000E+01
	 2.00000000E+01
	 2.00000000E+01
	 2.00000000E+01
	 2.00000000E+01
	 2.00000000E+01
	 2.00000000E+01
	 2.00000000E+01
	 2.00000000E+01
	 2.00000000E+01
	 2.00000000E+01
	 2.00000000E+01
	 2.00000000E+01
	 2.00000000E+01
	 2.00000000E+01
	 2.00000000E+01
	 2.00000000E+01
	 2.00000000E+01
	 2.00000000E+01
	 2.00000000E+01
	 2.00000000E+01
	 2.00000000E+01
	 2.00000000E+01
	 2.00000000E+01
	 2.00000000E+01
	 2.00000000E+01
	 2.00000000E+01
	 2.00000000E+01
	 2.00000000E+01
	 2.00000000E+01
	 2.00000000E+01
	 2.00000000E+01
	 2.00000000E+01
	 2.00000000E+01
	 2.00000000E+01
	 2.00000000E+01
	 2.00000000E+01
	 2.00000000E+01
	 2.00000000E+01
	 2.00000000E+01
	 2.00000000E+01
	 2.00000000E+01
	 2.00000000E+01
	 2.00000000E+01
	 2.00000000E+01
	 2.00000000E+01
	 2.00000000E+01
	 2.00000000E+01
	 2.00000000E+01
	 2.00000000E+01
	 2.00000000E+01
	 2.00000000E+01
	 2.00000000E+01
	 2.00000000E+01
	 2.00000000E+01
	 2.00000000E+01
	 2.00000000E+01
	 2.00000000E+01
	 2.00000000E+01
	 2.00000000E+01
	 2.00000000E+01
	 2.00000000E+01
	 2.00000000E+01
	 2.00000000E+01
	 2.00000000E+01
	 2.00000000E+01
	 2.00000000E+01
	 2.00000000E+01
	 2.00000000E+01
	 2.00000000E+01
	 2.00000000E+01
	 2.00000000E+01
	 2.00000000E+01
	 2.00000000E+01
	 2.00000000E+01
	 2.00000000E+01
	 2.00000000E+01
	 2.00000000E+01
	 2.00000000E+01
	 2.00000000E+01
	 2.00000000E+01
	 2.00000000E+01
	 2.00000000E+01
	 2.00000000E+01
	 2.00000000E+01
	 2.00000000E+01
	 2.00000000E+01
	 2.00000000E+01
	 2.00000000E+01
	 2.00000000E+01
	 2.00000000E+01
	 2.00000000E+01
	 2.00000000E+01
	 2.00000000E+01
	 2.00000000E+01
	 2.00000000E+01
	 2.00000000E+01
	 2.00000000E+01
	 2.00000000E+01
	 2.00000000E+01
	 2.00000000E+01
	 2.00000000E+01
	 2.00000000E+01
	 2.00000000E+01
	 2.00000000E+01
	 2.00000000E+01
	 2.00000000E+01
	 2.00000000E+01
	 2.00000000E+01
	 2.00000000E+01
	 2.00000000E+01
	 2.00000000E+01
	 2.00000000E+01
	 2.00000000E+01
	 2.00000000E+01
	 2.00000000E+01
	 2.00000000E+01
	 2.00000000E+01
	 2.00000000E+01
	 2.00000000E+01
	 2.00000000E+01
	 2.00000000E+01
	 2.00000000E+01
	 2.00000000E+01
	 2.00000000E+01
	 2.00000000E+01
	 2.00000000E+01
	 2.00000000E+01
	 2.00000000E+01
	 2.00000000E+01
	 2.00000000E+01
	 2.00000000E+01
	 2.00000000E+01
	 2.00000000E+01
	 2.00000000E+01
	 2.00000000E+01
	 2.00000000E+01
	 2.00000000E+01
	 2.00000000E+01
	 2.00000000E+01
	 2.00000000E+01
	 2.00000000E+01
	 2.00000000E+01
	 2.00000000E+01
	 2.00000000E+01
	 2.00000000E+01
	 2.00000000E+01
	 2.00000000E+01
	 2.00000000E+01
	 2.00000000E+01
	 2.00000000E+01
	 2.00000000E+01
	 2.00000000E+01
	 2.00000000E+01
	 2.00000000E+01
	 2.00000000E+01
	 2.00000000E+01
	 2.00000000E+01
	 2.00000000E+01
	 2.00000000E+01
	 2.00000000E+01
	 2.00000000E+01
	 2.00000000E+01
	 2.00000000E+01
	 2.00000000E+01
	 2.00000000E+01
	 2.00000000E+01
	 2.00000000E+01
	 2.00000000E+01
	 2.00000000E+01
	 2.00000000E+01
	 2.00000000E+01
	 2.00000000E+01
	 2.00000000E+01
	 2.00000000E+01
	 2.00000000E+01
	 2.00000000E+01
	 2.00000000E+01
	 2.00000000E+01
	 2.00000000E+01
	 2.00000000E+01
	 2.00000000E+01
	 2.00000000E+01
	 2.00000000E+01
	 2.00000000E+01
	 2.00000000E+01
	 2.00000000E+01
	 2.00000000E+01
	 2.00000000E+01
	 2.00000000E+01
	 2.00000000E+01
	 2.00000000E+01
	 2.00000000E+01
	 2.00000000E+01
	 2.00000000E+01
	 2.00000000E+01
	 2.00000000E+01
	 2.00000000E+01
	 2.00000000E+01
	 2.00000000E+01
	 2.00000000E+01
	 2.00000000E+01
	 2.00000000E+01
	 2.00000000E+01
	 2.00000000E+01
	 2.00000000E+01
	 2.00000000E+01
	 2.00000000E+01
	 2.00000000E+01
	 2.00000000E+01
	 2.00000000E+01
	 2.00000000E+01
	 2.00000000E+01
	 2.00000000E+01
	 2.00000000E+01
	 2.00000000E+01
	 2.00000000E+01
	 2.00000000E+01
	 2.00000000E+01
	 2.00000000E+01
	 2.00000000E+01
	 2.00000000E+01
	 2.00000000E+01
	 2.00000000E+01
	 2.00000000E+01
	 2.00000000E+01
	 2.00000000E+01
	 2.00000000E+01
	 2.00000000E+01
	 2.00000000E+01
	 2.00000000E+01
	 2.00000000E+01
	 2.00000000E+01
	 2.00000000E+01
	 2.00000000E+01
	 2.00000000E+01
	 2.00000000E+01
	 2.00000000E+01
	 2.00000000E+01
	 2.00000000E+01
	 2.00000000E+01
	 2.00000000E+01
	 2.00000000E+01
	 2.00000000E+01
	 2.00000000E+01
	 2.00000000E+01
	 2.00000000E+01
	 2.00000000E+01
	 2.00000000E+01
	 2.00000000E+01
	 2.00000000E+01
	 2.00000000E+01
	 2.00000000E+01
	 2.00000000E+01
	 2.00000000E+01
	 2.00000000E+01
	 2.00000000E+01
	 2.00000000E+01
	 2.00000000E+01
	 2.00000000E+01
	 2.00000000E+01
	 2.00000000E+01
	 2.00000000E+01
	 2.00000000E+01
	 2.00000000E+01
	 2.00000000E+01
	 2.00000000E+01
	 2.00000000E+01
	 2.00000000E+01
	 2.00000000E+01
	 2.00000000E+01
	 2.00000000E+01
	 2.00000000E+01
	 2.00000000E+01
	 2.00000000E+01
	 2.00000000E+01
	 2.00000000E+01
	 2.00000000E+01
	 2.00000000E+01
	 2.00000000E+01
	 2.00000000E+01
	 2.00000000E+01
	 2.00000000E+01
	 2.00000000E+01
	 2.00000000E+01
	 2.00000000E+01
	 2.00000000E+01
	 2.00000000E+01
	 2.00000000E+01
	 2.00000000E+01
	 2.00000000E+01
	 2.00000000E+01
	 2.00000000E+01
	 2.00000000E+01
	 2.00000000E+01
	 2.00000000E+01
	 2.00000000E+01
	 2.00000000E+01
	 2.00000000E+01
	 2.00000000E+01
	 2.00000000E+01
	 2.00000000E+01
	 2.00000000E+01
	 2.00000000E+01
	 2.00000000E+01
	 2.00000000E+01
	 2.00000000E+01
	 2.00000000E+01
	 2.00000000E+01
	 2.00000000E+01
	 2.00000000E+01
	 2.00000000E+01
	 2.00000000E+01
	 2.00000000E+01
	 2.00000000E+01
	 2.00000000E+01
	 2.00000000E+01
	 2.00000000E+01
	 2.00000000E+01
	 2.00000000E+01
	 2.00000000E+01
	 2.00000000E+01
	 2.00000000E+01
	 2.00000000E+01
	 2.00000000E+01
	 2.00000000E+01
	 2.00000000E+01
	 2.00000000E+01
	 2.00000000E+01
	 2.00000000E+01
	 2.00000000E+01
	 2.00000000E+01
	 2.00000000E+01
	 2.00000000E+01
	 2.00000000E+01
	 2.00000000E+01
	 2.00000000E+01
	 2.00000000E+01
	 2.00000000E+01
	 2.00000000E+01
	 2.00000000E+01
	 2.00000000E+01
	 2.00000000E+01
	 2.00000000E+01
	 2.00000000E+01
	 2.00000000E+01
	 2.00000000E+01
	 2.00000000E+01
	 2.00000000E+01
	 2.00000000E+01
	 2.00000000E+01
	 2.00000000E+01
	 2.00000000E+01
	 2.00000000E+01
	 2.00000000E+01
	 2.00000000E+01
	 2.00000000E+01
	 2.00000000E+01
	 2.00000000E+01
	 2.00000000E+01
	 2.00000000E+01
	 2.00000000E+01
	 2.00000000E+01
	 2.00000000E+01
	 2.00000000E+01
	 2.00000000E+01
	 2.00000000E+01
	 2.00000000E+01
	 2.00000000E+01
	 2.00000000E+01
	 2.00000000E+01
	 2.00000000E+01
	 2.00000000E+01
	 2.00000000E+01
	 2.00000000E+01
	 2.00000000E+01
	 2.00000000E+01
	 2.00000000E+01
	 2.00000000E+01
	 2.00000000E+01
	 2.00000000E+01
	 2.00000000E+01
	 2.00000000E+01
	 2.00000000E+01
	 2.00000000E+01
	 2.00000000E+01
	 2.00000000E+01
	 2.00000000E+01
	 2.00000000E+01
	 2.00000000E+01
	 2.00000000E+01
	 2.00000000E+01
	 2.00000000E+01
	 2.00000000E+01
	 2.00000000E+01
	 2.00000000E+01
	 2.00000000E+01
	 2.00000000E+01
	 2.00000000E+01
	 2.00000000E+01
	 2.00000000E+01
	 2.00000000E+01
	 2.00000000E+01
	 2.00000000E+01
	 2.00000000E+01
	 2.00000000E+01
	 2.00000000E+01
	 2.00000000E+01
	 2.00000000E+01
	 2.00000000E+01
	 2.00000000E+01
	 2.00000000E+01
	 2.00000000E+01
	 2.00000000E+01
	 2.00000000E+01
	 2.00000000E+01
	 2.00000000E+01
	 2.00000000E+01
	 2.00000000E+01
	 2.00000000E+01
	 2.00000000E+01
	 2.00000000E+01
	 2.00000000E+01
	 2.00000000E+01
	 2.00000000E+01
	 2.00000000E+01
	 2.00000000E+01
	 2.00000000E+01
	 2.00000000E+01
	 2.00000000E+01
	 2.00000000E+01
	 2.00000000E+01
	 2.00000000E+01
	 2.00000000E+01
	 2.00000000E+01
	 2.00000000E+01
	 2.00000000E+01
	 2.00000000E+01
	 2.00000000E+01
	 2.00000000E+01
	 2.00000000E+01
	 2.00000000E+01
	 2.00000000E+01
	 2.00000000E+01
	 2.00000000E+01
	 2.00000000E+01
	 2.00000000E+01
	 2.00000000E+01
	 2.00000000E+01
	 2.00000000E+01
	 2.00000000E+01
	 2.00000000E+01
	 2.00000000E+01
	 2.00000000E+01
	 2.00000000E+01
	 2.00000000E+01
	 2.00000000E+01
	 2.00000000E+01
	 2.00000000E+01
	 2.00000000E+01
	 2.00000000E+01
	 2.00000000E+01
	 2.00000000E+01
	 2.00000000E+01
	 2.00000000E+01
	 2.00000000E+01
	 2.00000000E+01
	 2.00000000E+01
	 2.00000000E+01
	 2.00000000E+01
	 2.00000000E+01
	 2.00000000E+01
	 2.00000000E+01
	 2.00000000E+01
	 2.00000000E+01
	 2.00000000E+01
	 2.00000000E+01
	 2.00000000E+01
	 2.00000000E+01
	 2.00000000E+01
	 2.00000000E+01
	 2.00000000E+01
	 2.00000000E+01
	 2.00000000E+01
	 2.00000000E+01
	 2.00000000E+01
	 2.00000000E+01
	 2.00000000E+01
	 2.00000000E+01
	 2.00000000E+01
	 2.00000000E+01
	 2.00000000E+01
	 2.00000000E+01
	 2.00000000E+01
	 2.00000000E+01
	 2.00000000E+01
	 2.00000000E+01
	 2.00000000E+01
	 2.00000000E+01
	 2.00000000E+01
	 2.00000000E+01
	 2.00000000E+01
	 2.00000000E+01
	 2.00000000E+01
	 2.00000000E+01
	 2.00000000E+01
	 2.00000000E+01
	 2.00000000E+01
	 2.00000000E+01
	 2.00000000E+01
	 2.00000000E+01
	 2.00000000E+01
	 2.00000000E+01
	 2.00000000E+01
	 2.00000000E+01
	 2.00000000E+01
	 2.00000000E+01
	 2.00000000E+01
	 2.00000000E+01
	 2.00000000E+01
	 2.00000000E+01
	 2.00000000E+01
	 2.00000000E+01
	 2.00000000E+01
	 2.00000000E+01
	 2.00000000E+01
	 2.00000000E+01
	 2.00000000E+01
	 2.00000000E+01
	 2.00000000E+01
	 2.00000000E+01
	 2.00000000E+01
	 2.00000000E+01
	 2.00000000E+01
	 2.00000000E+01
	 2.00000000E+01
	 2.00000000E+01
	 2.00000000E+01
	 2.00000000E+01
	 2.00000000E+01
	 2.00000000E+01
	 2.00000000E+01
	 2.00000000E+01
	 2.00000000E+01
	 2.00000000E+01
	 2.00000000E+01
	 2.00000000E+01
	 2.00000000E+01
	 2.00000000E+01
	 2.00000000E+01
	 2.00000000E+01
	 2.00000000E+01
	 2.00000000E+01
	 2.00000000E+01
	 2.00000000E+01
	 2.00000000E+01
	 2.00000000E+01
	 2.00000000E+01
	 2.00000000E+01
	 2.00000000E+01
	 2.00000000E+01
	 2.00000000E+01
	 2.00000000E+01
	 2.00000000E+01
	 2.00000000E+01
	 2.00000000E+01
	 2.00000000E+01
	 2.00000000E+01
	 2.00000000E+01
	 2.00000000E+01
	 2.00000000E+01
	 2.00000000E+01
	 2.00000000E+01
	 2.00000000E+01
	 2.00000000E+01
	 2.00000000E+01
	 2.00000000E+01
	 2.00000000E+01
	 2.00000000E+01
	 2.00000000E+01
	 2.00000000E+01
	 2.00000000E+01
	 2.00000000E+01
	 2.00000000E+01
	 2.00000000E+01
	 2.00000000E+01
	 2.00000000E+01
	 2.00000000E+01
	 2.00000000E+01
	 2.00000000E+01
	 2.00000000E+01
	 2.00000000E+01
	 2.00000000E+01
	 2.00000000E+01
	 2.00000000E+01
	 2.00000000E+01
	 2.00000000E+01
	 2.00000000E+01
	 2.00000000E+01
	 2.00000000E+01
	 2.00000000E+01
	 2.00000000E+01
	 2.00000000E+01
	 2.00000000E+01
	 2.00000000E+01
	 2.00000000E+01
	 2.00000000E+01
	 2.00000000E+01
	 2.00000000E+01
	 2.00000000E+01
	 2.00000000E+01
	 2.00000000E+01
	 2.00000000E+01
	 2.00000000E+01
	 2.00000000E+01
	 2.00000000E+01
	 2.00000000E+01
	 2.00000000E+01
	 2.00000000E+01
	 2.00000000E+01
	 2.00000000E+01
	 2.00000000E+01
	 2.00000000E+01
	 2.00000000E+01
	 2.00000000E+01
	 2.00000000E+01
	 2.00000000E+01
	 2.00000000E+01
	 2.00000000E+01
	 2.00000000E+01
	 2.00000000E+01
	 2.00000000E+01
	 2.00000000E+01
	 2.00000000E+01
	 2.00000000E+01
	 2.00000000E+01
	 2.00000000E+01
	 2.00000000E+01
	 2.00000000E+01
	 2.00000000E+01
	 2.00000000E+01
	 2.00000000E+01
	 2.00000000E+01
	 2.00000000E+01
	 2.00000000E+01
	 2.00000000E+01
	 2.00000000E+01
	 2.00000000E+01
	 2.00000000E+01
	 2.00000000E+01
	 2.00000000E+01
	 2.00000000E+01
	 2.00000000E+01
	 2.00000000E+01
	 2.00000000E+01
	 2.00000000E+01
	 2.00000000E+01
	 2.00000000E+01
	 2.00000000E+01
	 2.00000000E+01
	 2.00000000E+01
	 2.00000000E+01
	 2.00000000E+01
	 2.00000000E+01
	 2.00000000E+01
	 2.00000000E+01
	 2.00000000E+01
	 2.00000000E+01
	 2.00000000E+01
	 2.00000000E+01
	 2.00000000E+01
	 2.00000000E+01
	 2.00000000E+01
	 2.00000000E+01
	 2.00000000E+01
	 2.00000000E+01
	 2.00000000E+01
	 2.00000000E+01
	 2.00000000E+01
	 2.00000000E+01
	 2.00000000E+01
	 2.00000000E+01
	 2.00000000E+01
	 2.00000000E+01
	 2.00000000E+01
	 2.00000000E+01
	 2.00000000E+01
	 2.00000000E+01
	 2.00000000E+01
	 2.00000000E+01
	 2.00000000E+01
	 2.00000000E+01
	 2.00000000E+01
	 2.00000000E+01
	 2.00000000E+01
	 2.00000000E+01
	 2.00000000E+01
	 2.00000000E+01
	 2.00000000E+01
	 2.00000000E+01
	 2.00000000E+01
	 2.00000000E+01
	 2.00000000E+01
	 2.00000000E+01
	 2.00000000E+01
	 2.00000000E+01
	 2.00000000E+01
	 2.00000000E+01
	 2.00000000E+01
	 2.00000000E+01
	 2.00000000E+01
	 2.00000000E+01
	 2.00000000E+01
	 2.00000000E+01
	 2.00000000E+01
	 2.00000000E+01
	 2.00000000E+01
	 2.00000000E+01
	 2.00000000E+01
	 2.00000000E+01
	 2.00000000E+01
	 2.00000000E+01
	 2.00000000E+01
	 2.00000000E+01
	 2.00000000E+01
	 2.00000000E+01
	 2.00000000E+01
	 2.00000000E+01
	 2.00000000E+01
	 2.00000000E+01
	 2.00000000E+01
	 2.00000000E+01
	 2.00000000E+01
	 2.00000000E+01
	 2.00000000E+01
	 2.00000000E+01
	 2.00000000E+01
	 2.00000000E+01
	 2.00000000E+01
	 2.00000000E+01
	 2.00000000E+01
	 2.00000000E+01
	 2.00000000E+01
	 2.00000000E+01
	 2.00000000E+01
	 2.00000000E+01
	 2.00000000E+01
	 2.00000000E+01
	 2.00000000E+01
	 2.00000000E+01
	 2.00000000E+01
	 2.00000000E+01
	 2.00000000E+01
	 2.00000000E+01
	 2.00000000E+01
	 2.00000000E+01
	 2.00000000E+01
	 2.00000000E+01
	 2.00000000E+01
	 2.00000000E+01
	 2.00000000E+01
	 2.00000000E+01
	 2.00000000E+01
	 2.00000000E+01
	 2.00000000E+01
	 2.00000000E+01
	 2.00000000E+01
	 2.00000000E+01
	 2.00000000E+01
	 2.00000000E+01
	 2.00000000E+01
	 2.00000000E+01
	 2.00000000E+01
	 2.00000000E+01
	 2.00000000E+01
	 2.00000000E+01
	 2.00000000E+01
	 2.00000000E+01
	 2.00000000E+01
	 2.00000000E+01
	 2.00000000E+01
	 2.00000000E+01
	 2.00000000E+01
	 2.00000000E+01
	 2.00000000E+01
	 2.00000000E+01
	 2.00000000E+01
	 2.00000000E+01
	 2.00000000E+01
	 2.00000000E+01
	 2.00000000E+01
	 2.00000000E+01
	 2.00000000E+01
	 2.00000000E+01
	 2.00000000E+01
	 2.00000000E+01
	 2.00000000E+01
	 2.00000000E+01
	 2.00000000E+01
	 2.00000000E+01
	 2.00000000E+01
	 2.00000000E+01
	 2.00000000E+01
	 2.00000000E+01
	 2.00000000E+01
	 2.00000000E+01
	 2.00000000E+01
	 2.00000000E+01
	 2.00000000E+01
	 2.00000000E+01
	 2.00000000E+01
	 2.00000000E+01
	 2.00000000E+01
	 2.00000000E+01
	 2.00000000E+01
	 2.00000000E+01
	 2.00000000E+01
	 2.00000000E+01
	 2.00000000E+01
	 2.00000000E+01
	 2.00000000E+01
	 2.00000000E+01
	 2.00000000E+01
	 2.00000000E+01
	 2.00000000E+01
	 2.00000000E+01
	 2.00000000E+01
	 2.00000000E+01
	 2.00000000E+01
	 2.00000000E+01
	 2.00000000E+01
	 2.00000000E+01
	 2.00000000E+01
	 2.00000000E+01
	 2.00000000E+01
	 2.00000000E+01
	 2.00000000E+01
	 2.00000000E+01
	 2.00000000E+01
	 2.00000000E+01
	 2.00000000E+01
	 2.00000000E+01
	 2.00000000E+01
	 2.00000000E+01
	 2.00000000E+01
	 2.00000000E+01
	 2.00000000E+01
	 2.00000000E+01
	 2.00000000E+01
	 2.00000000E+01
	 2.00000000E+01
	 2.00000000E+01
	 2.00000000E+01
	 2.00000000E+01
	 2.00000000E+01
	 2.00000000E+01
	 2.00000000E+01
	 2.00000000E+01
	 2.00000000E+01
	 2.00000000E+01
	 2.00000000E+01
	 2.00000000E+01
	 2.00000000E+01
	 2.00000000E+01
	 2.00000000E+01
	 2.00000000E+01
	 2.00000000E+01
	 2.00000000E+01
	 2.00000000E+01
	 2.00000000E+01
	 2.00000000E+01
	 2.00000000E+01
	 2.00000000E+01
	 2.00000000E+01
	 2.00000000E+01
	 2.00000000E+01
	 2.00000000E+01
	 2.00000000E+01
	 2.00000000E+01
	 2.00000000E+01
	 2.00000000E+01
	 2.00000000E+01
	 2.00000000E+01
	 2.00000000E+01
	 2.00000000E+01
	 2.00000000E+01
	 2.00000000E+01
	 2.00000000E+01
	 2.00000000E+01
	 2.00000000E+01
	 2.00000000E+01
	 2.00000000E+01
	 2.00000000E+01
	 2.00000000E+01
	 2.00000000E+01
	 2.00000000E+01
	 2.00000000E+01
	 2.00000000E+01
	 2.00000000E+01
	 2.00000000E+01
	 2.00000000E+01
	 2.00000000E+01
	 2.00000000E+01
	 2.00000000E+01
	 2.00000000E+01
	 2.00000000E+01
	 2.00000000E+01
	 2.00000000E+01
	 2.00000000E+01
	 2.00000000E+01
	 2.00000000E+01
	 2.00000000E+01
	 2.00000000E+01
	 2.00000000E+01
	 2.00000000E+01
	 2.00000000E+01
	 2.00000000E+01
	 2.00000000E+01
	 2.00000000E+01
	 2.00000000E+01
	 2.00000000E+01
	 2.00000000E+01
	 2.00000000E+01
	 2.00000000E+01
	 2.00000000E+01
	 2.00000000E+01
	 2.00000000E+01
	 2.00000000E+01
	 2.00000000E+01
	 2.00000000E+01
	 2.00000000E+01
	 2.00000000E+01
	 2.00000000E+01
	 2.00000000E+01
	 2.00000000E+01
	 2.00000000E+01
	 2.00000000E+01
	 2.00000000E+01
	 2.00000000E+01
	 2.00000000E+01
	 2.00000000E+01
	 2.00000000E+01
	 2.00000000E+01
	 2.00000000E+01
	 2.00000000E+01
	 2.00000000E+01
	 2.00000000E+01
	 2.00000000E+01
	 2.00000000E+01
	 2.00000000E+01
	 2.00000000E+01
	 2.00000000E+01
	 2.00000000E+01
	 2.00000000E+01
	 2.00000000E+01
	 2.00000000E+01
	 2.00000000E+01
	 2.00000000E+01
	 2.00000000E+01
	 2.00000000E+01
	 2.00000000E+01
	 2.00000000E+01
	 2.00000000E+01
	 2.00000000E+01
	 2.00000000E+01
	 2.00000000E+01
	 2.00000000E+01
	 2.00000000E+01
	 2.00000000E+01
	 2.00000000E+01
	 2.00000000E+01
	 2.00000000E+01
	 2.00000000E+01
	 2.00000000E+01
	 2.00000000E+01
	 2.00000000E+01
	 2.00000000E+01
	 2.00000000E+01
	 2.00000000E+01
	 2.00000000E+01
	 2.00000000E+01
	 2.00000000E+01
	 2.00000000E+01
	 2.00000000E+01
	 2.00000000E+01
	 2.00000000E+01
	 2.00000000E+01
	 2.00000000E+01
	 2.00000000E+01
	 2.00000000E+01
	 2.00000000E+01
	 2.00000000E+01
	 2.00000000E+01
	 2.00000000E+01
	 2.00000000E+01
	 2.00000000E+01
	 2.00000000E+01
	 2.00000000E+01
	 2.00000000E+01
	 2.00000000E+01
	 2.00000000E+01
	 2.00000000E+01
	 2.00000000E+01
	 2.00000000E+01
	 2.00000000E+01
	 2.00000000E+01
	 2.00000000E+01
	 2.00000000E+01
	 2.00000000E+01
	 2.00000000E+01
	 2.00000000E+01
	 2.00000000E+01
	 2.00000000E+01
	 2.00000000E+01
	 2.00000000E+01
	 2.00000000E+01
	 2.00000000E+01
	 2.00000000E+01
	 2.00000000E+01
	 2.00000000E+01
	 2.00000000E+01
	 2.00000000E+01
	 2.00000000E+01
	 2.00000000E+01
	 2.00000000E+01
	 2.00000000E+01
	 2.00000000E+01
	 2.00000000E+01
	 2.00000000E+01
	 2.00000000E+01
	 2.00000000E+01
	 2.00000000E+01
	 2.00000000E+01
	 2.00000000E+01
	 2.00000000E+01
	 2.00000000E+01
	 2.00000000E+01
	 2.00000000E+01
	 2.00000000E+01
	 2.00000000E+01
	 2.00000000E+01
	 2.00000000E+01
	 2.00000000E+01
	 2.00000000E+01
	 2.00000000E+01
	 2.00000000E+01
	 2.00000000E+01
	 2.00000000E+01
	 2.00000000E+01
	 2.00000000E+01
	 2.00000000E+01
	 2.00000000E+01
	 2.00000000E+01
	 2.00000000E+01
	 2.00000000E+01
	 2.00000000E+01
	 2.00000000E+01
	 2.00000000E+01
	 2.00000000E+01
	 2.00000000E+01
	 2.00000000E+01
	 2.00000000E+01
	 2.00000000E+01
	 2.00000000E+01
	 2.00000000E+01
	 2.00000000E+01
	 2.00000000E+01
	 2.00000000E+01
	 2.00000000E+01
	 2.00000000E+01
	 2.00000000E+01
	 2.00000000E+01
	 2.00000000E+01
	 2.00000000E+01
	 2.00000000E+01
	 2.00000000E+01
	 2.00000000E+01
	 2.00000000E+01
	 2.00000000E+01
	 2.00000000E+01
	 2.00000000E+01
	 2.00000000E+01
	 2.00000000E+01
	 2.00000000E+01
	 2.00000000E+01
	 2.00000000E+01
	 2.00000000E+01
	 2.00000000E+01
	 2.00000000E+01
	 2.00000000E+01
	 2.00000000E+01
	 2.00000000E+01
	 2.00000000E+01
	 2.00000000E+01
	 2.00000000E+01
	 2.00000000E+01
	 2.00000000E+01
	 2.00000000E+01
	 2.00000000E+01
	 2.00000000E+01
	 2.00000000E+01
	 2.00000000E+01
	 2.00000000E+01
	 2.00000000E+01
	 2.00000000E+01
	 2.00000000E+01
	 2.00000000E+01
	 2.00000000E+01
	 2.00000000E+01
	 2.00000000E+01
	 2.00000000E+01
	 2.00000000E+01
	 2.00000000E+01
	 2.00000000E+01
	 2.00000000E+01
	 2.00000000E+01
	 2.00000000E+01
	 2.00000000E+01
	 2.00000000E+01
	 2.00000000E+01
	 2.00000000E+01
	 2.00000000E+01
	 2.00000000E+01
	 2.00000000E+01
	 2.00000000E+01
	 2.00000000E+01
	 2.00000000E+01
	 2.00000000E+01
	 2.00000000E+01
	 2.00000000E+01
	 2.00000000E+01
	 2.00000000E+01
	 2.00000000E+01
	 2.00000000E+01
	 2.00000000E+01
	 2.00000000E+01
	 2.00000000E+01
	 2.00000000E+01
	 2.00000000E+01
	 2.00000000E+01
	 2.00000000E+01
	 2.00000000E+01
	 2.00000000E+01
	 2.00000000E+01
	 2.00000000E+01
	 2.00000000E+01
	 2.00000000E+01
	 2.00000000E+01
	 2.00000000E+01
	 2.00000000E+01
	 2.00000000E+01
	 2.00000000E+01
	 2.00000000E+01
	 2.00000000E+01
	 2.00000000E+01
	 2.00000000E+01
	 2.00000000E+01
	 2.00000000E+01
	 2.00000000E+01
	 2.00000000E+01
	 2.00000000E+01
	 2.00000000E+01
	 2.00000000E+01
	 2.00000000E+01
	 2.00000000E+01
	 2.00000000E+01
	 2.00000000E+01
	 2.00000000E+01
	 2.00000000E+01
	 2.00000000E+01
	 2.00000000E+01
	 2.00000000E+01
	 2.00000000E+01
	 2.00000000E+01
	 2.00000000E+01
	 2.00000000E+01
	 2.00000000E+01
	 2.00000000E+01
	 2.00000000E+01
	 2.00000000E+01
	 2.00000000E+01
	 2.00000000E+01
	 2.00000000E+01
	 2.00000000E+01
	 2.00000000E+01
	 2.00000000E+01
	 2.00000000E+01
	 2.00000000E+01
	 2.00000000E+01
	 2.00000000E+01
	 2.00000000E+01
	 2.00000000E+01
	 2.00000000E+01
	 2.00000000E+01
	 2.00000000E+01
	 2.00000000E+01
	 2.00000000E+01
	 2.00000000E+01
	 2.00000000E+01
	 2.00000000E+01
	 2.00000000E+01
	 2.00000000E+01
	 2.00000000E+01
	 2.00000000E+01
	 2.00000000E+01
	 2.00000000E+01
	 2.00000000E+01
	 2.00000000E+01
	 2.00000000E+01
	 2.00000000E+01
	 2.00000000E+01
	 2.00000000E+01
	 2.00000000E+01
	 2.00000000E+01
	 2.00000000E+01
	 2.00000000E+01
	 2.00000000E+01
	 2.00000000E+01
	 2.00000000E+01
	 2.00000000E+01
	 2.00000000E+01
	 2.00000000E+01
	 2.00000000E+01
	 2.00000000E+01
	 2.00000000E+01
	 2.00000000E+01
	 2.00000000E+01
	 2.00000000E+01
	 2.00000000E+01
	 2.00000000E+01
	 2.00000000E+01
	 2.00000000E+01
	 2.00000000E+01
	 2.00000000E+01
	 2.00000000E+01
	 2.00000000E+01
	 2.00000000E+01
	 2.00000000E+01
	 2.00000000E+01
	 2.00000000E+01
	 2.00000000E+01
	 2.00000000E+01
	 2.00000000E+01
	 2.00000000E+01
	 2.00000000E+01
	 2.00000000E+01
	 2.00000000E+01
	 2.00000000E+01
	 2.00000000E+01
	 2.00000000E+01
	 2.00000000E+01
	 2.00000000E+01
	 2.00000000E+01
	 2.00000000E+01
	 2.00000000E+01
	 2.00000000E+01
	 2.00000000E+01
	 2.00000000E+01
	 2.00000000E+01
	 2.00000000E+01
	 2.00000000E+01
	 2.00000000E+01
	 2.00000000E+01
	 2.00000000E+01
	 2.00000000E+01
	 2.00000000E+01
	 2.00000000E+01
	 2.00000000E+01
	 2.00000000E+01
	 2.00000000E+01
	 2.00000000E+01
	 2.00000000E+01
	 2.00000000E+01
	 2.00000000E+01
	 2.00000000E+01
	 2.00000000E+01
	 2.00000000E+01
	 2.00000000E+01
	 2.00000000E+01
	 2.00000000E+01
	 2.00000000E+01
	 2.00000000E+01
	 2.00000000E+01
	 2.00000000E+01
	 2.00000000E+01
	 2.00000000E+01
	 2.00000000E+01
	 2.00000000E+01
	 2.00000000E+01
	 2.00000000E+01
	 2.00000000E+01
	 2.00000000E+01
	 2.00000000E+01
	 2.00000000E+01
	 2.00000000E+01
	 2.00000000E+01
	 2.00000000E+01
	 2.00000000E+01
	 2.00000000E+01
	 2.00000000E+01
	 2.00000000E+01
	 2.00000000E+01
	 2.00000000E+01
	 2.00000000E+01
	 2.00000000E+01
	 2.00000000E+01
	 2.00000000E+01
	 2.00000000E+01
	 2.00000000E+01
	 2.00000000E+01
	 2.00000000E+01
	 2.00000000E+01
	 2.00000000E+01
	 2.00000000E+01
	 2.00000000E+01
	 2.00000000E+01
	 2.00000000E+01
	 2.00000000E+01
	 2.00000000E+01
	 2.00000000E+01
	 2.00000000E+01
	 2.00000000E+01
	 2.00000000E+01
	 2.00000000E+01
	 2.00000000E+01
	 2.00000000E+01
	 2.00000000E+01
	 2.00000000E+01
	 2.00000000E+01
	 2.00000000E+01
	 2.00000000E+01
	 2.00000000E+01
	 2.00000000E+01
	 2.00000000E+01
	 2.00000000E+01
	 2.00000000E+01
	 2.00000000E+01
	 2.00000000E+01
	 2.00000000E+01
	 2.00000000E+01
	 2.00000000E+01
	 2.00000000E+01
	 2.00000000E+01
	 2.00000000E+01
	 2.00000000E+01
	 2.00000000E+01
	 2.00000000E+01
	 2.00000000E+01
	 2.00000000E+01
	 2.00000000E+01
	 2.00000000E+01
	 2.00000000E+01
	 2.00000000E+01
	 2.00000000E+01
	 2.00000000E+01
	 2.00000000E+01
	 2.00000000E+01
	 2.00000000E+01
	 2.00000000E+01
	 2.00000000E+01
	 2.00000000E+01
	 2.00000000E+01
	 2.00000000E+01
	 2.00000000E+01
	 2.00000000E+01
	 2.00000000E+01
	 2.00000000E+01
	 2.00000000E+01
	 2.00000000E+01
	 2.00000000E+01
	 2.00000000E+01
	 2.00000000E+01
	 2.00000000E+01
	 2.00000000E+01
	 2.00000000E+01
	 2.00000000E+01
	 2.00000000E+01
	 2.00000000E+01
	 2.00000000E+01
	 2.00000000E+01
	 2.00000000E+01
	 2.00000000E+01
	 2.00000000E+01
	 2.00000000E+01
	 2.00000000E+01
	 2.00000000E+01
	 2.00000000E+01
	 2.00000000E+01
	 2.00000000E+01
	 2.00000000E+01
	 2.00000000E+01
	 2.00000000E+01
	 2.00000000E+01
	 2.00000000E+01
	 2.00000000E+01
	 2.00000000E+01
	 2.00000000E+01
	 2.00000000E+01
	 2.00000000E+01
	 2.00000000E+01
	 2.00000000E+01
	 2.00000000E+01
	 2.00000000E+01
	 2.00000000E+01
	 2.00000000E+01
	 2.00000000E+01
	 2.00000000E+01
	 2.00000000E+01
	 2.00000000E+01
	 2.00000000E+01
	 2.00000000E+01
	 2.00000000E+01
	 2.00000000E+01
	 2.00000000E+01
	 2.00000000E+01
	 2.00000000E+01
	 2.00000000E+01
	 2.00000000E+01
	 2.00000000E+01
	 2.00000000E+01
	 2.00000000E+01
	 2.00000000E+01
	 2.00000000E+01
	 2.00000000E+01
	 2.00000000E+01
	 2.00000000E+01
	 2.00000000E+01
	 2.00000000E+01
	 2.00000000E+01
	 2.00000000E+01
	 2.00000000E+01
	 2.00000000E+01
	 2.00000000E+01
	 2.00000000E+01
	 2.00000000E+01
	 2.00000000E+01
	 2.00000000E+01
	 2.00000000E+01
	 2.00000000E+01
	 2.00000000E+01
	 2.00000000E+01
	 2.00000000E+01
	 2.00000000E+01
	 2.00000000E+01
	 2.00000000E+01
	 2.00000000E+01
	 2.00000000E+01
	 2.00000000E+01
	 2.00000000E+01
	 2.00000000E+01
	 2.00000000E+01
	 2.00000000E+01
	 2.00000000E+01
	 2.00000000E+01
	 2.00000000E+01
	 2.00000000E+01
	 2.00000000E+01
	 2.00000000E+01
	 2.00000000E+01
	 2.00000000E+01
	 2.00000000E+01
	 2.00000000E+01
	 2.00000000E+01
	 2.00000000E+01
	 2.00000000E+01
	 2.00000000E+01
	 2.00000000E+01
	 2.00000000E+01
	 2.00000000E+01
	 2.00000000E+01
	 2.00000000E+01
	 2.00000000E+01
	 2.00000000E+01
	 2.00000000E+01
	 2.00000000E+01
	 2.00000000E+01
	 2.00000000E+01
	 2.00000000E+01
	 2.00000000E+01
	 2.00000000E+01
	 2.00000000E+01
	 2.00000000E+01
	 2.00000000E+01
	 2.00000000E+01
	 2.00000000E+01
	 2.00000000E+01
	 2.00000000E+01
	 2.00000000E+01
	 2.00000000E+01
	 2.00000000E+01
	 2.00000000E+01
	 2.00000000E+01
	 2.00000000E+01
	 2.00000000E+01
	 2.00000000E+01
	 2.00000000E+01
	 2.00000000E+01
	 2.00000000E+01
	 2.00000000E+01
	 2.00000000E+01
	 2.00000000E+01
	 2.00000000E+01
	 2.00000000E+01
	 2.00000000E+01
	 2.00000000E+01
	 2.00000000E+01
	 2.00000000E+01
	 2.00000000E+01
	 2.00000000E+01
	 2.00000000E+01
	 2.00000000E+01
	 2.00000000E+01
	 2.00000000E+01
	 2.00000000E+01
	 2.00000000E+01
	 2.00000000E+01
	 2.00000000E+01
	 2.00000000E+01
	 2.00000000E+01
	 2.00000000E+01
	 2.00000000E+01
	 2.00000000E+01
	 2.00000000E+01
	 2.00000000E+01
	 2.00000000E+01
	 2.00000000E+01
	 2.00000000E+01
	 2.00000000E+01
	 2.00000000E+01
	 2.00000000E+01
	 2.00000000E+01
	 2.00000000E+01
	 2.00000000E+01
	 2.00000000E+01
	 2.00000000E+01
	 2.00000000E+01
	 2.00000000E+01
	 2.00000000E+01
	 2.00000000E+01
	 2.00000000E+01
	 2.00000000E+01
	 2.00000000E+01
	 2.00000000E+01
	 2.00000000E+01
	 2.00000000E+01
	 2.00000000E+01
	 2.00000000E+01
	 2.00000000E+01
	 2.00000000E+01
	 2.00000000E+01
	 2.00000000E+01
	 2.00000000E+01
	 2.00000000E+01
	 2.00000000E+01
	 2.00000000E+01
	 2.00000000E+01
	 2.00000000E+01
	 2.00000000E+01
	 2.00000000E+01
	 2.00000000E+01
	 2.00000000E+01
	 2.00000000E+01
	 2.00000000E+01
	 2.00000000E+01
	 2.00000000E+01
	 2.00000000E+01
	 2.00000000E+01
	 2.00000000E+01
	 2.00000000E+01
	 2.00000000E+01
	 2.00000000E+01
	 2.00000000E+01
	 2.00000000E+01
	 2.00000000E+01
	 2.00000000E+01
	 2.00000000E+01
	 2.00000000E+01
	 2.00000000E+01
	 2.00000000E+01
	 2.00000000E+01
	 2.00000000E+01
	 2.00000000E+01
	 2.00000000E+01
	 2.00000000E+01
	 2.00000000E+01
	 2.00000000E+01
	 2.00000000E+01
	 2.00000000E+01
	 2.00000000E+01
	 2.00000000E+01
	 2.00000000E+01
	 2.00000000E+01
	 2.00000000E+01
	 2.00000000E+01
	 2.00000000E+01
	 2.00000000E+01
	 2.00000000E+01
	 2.00000000E+01
	 2.00000000E+01
	 2.00000000E+01
	 2.00000000E+01
	 2.00000000E+01
	 2.00000000E+01
	 2.00000000E+01
	 2.00000000E+01
	 2.00000000E+01
	 2.00000000E+01
	 2.00000000E+01
	 2.00000000E+01
	 2.00000000E+01
	 2.00000000E+01
	 2.00000000E+01
	 2.00000000E+01
	 2.00000000E+01
	 2.00000000E+01
	 2.00000000E+01
	 2.00000000E+01
	 2.00000000E+01
	 2.00000000E+01
	 2.00000000E+01
	 2.00000000E+01
	 2.00000000E+01
	 2.00000000E+01
	 2.00000000E+01
	 2.00000000E+01
	 2.00000000E+01
	 2.00000000E+01
	 2.00000000E+01
	 2.00000000E+01
	 2.00000000E+01
	 2.00000000E+01
	 2.00000000E+01
	 2.00000000E+01
	 2.00000000E+01
	 2.00000000E+01
	 2.00000000E+01
	 2.00000000E+01
	 2.00000000E+01
	 2.00000000E+01
	 2.00000000E+01
	 2.00000000E+01
	 2.00000000E+01
	 2.00000000E+01
	 2.00000000E+01
	 2.00000000E+01
	 2.00000000E+01
	 2.00000000E+01
	 2.00000000E+01
	 2.00000000E+01
	 2.00000000E+01
	 2.00000000E+01
	 2.00000000E+01
	 2.00000000E+01
	 2.00000000E+01
	 2.00000000E+01
	 2.00000000E+01
	 2.00000000E+01
	 2.00000000E+01
	 2.00000000E+01
	 2.00000000E+01
	 2.00000000E+01
	 2.00000000E+01
	 2.00000000E+01
	 2.00000000E+01
	 2.00000000E+01
	 2.00000000E+01
	 2.00000000E+01
	 2.00000000E+01
	 2.00000000E+01
	 2.00000000E+01
	 2.00000000E+01
	 2.00000000E+01
	 2.00000000E+01
	 2.00000000E+01
	 2.00000000E+01
	 2.00000000E+01
	 2.00000000E+01
	 2.00000000E+01
	 2.00000000E+01
	 2.00000000E+01
	 2.00000000E+01
	 2.00000000E+01
	 2.00000000E+01
	 2.00000000E+01
	 2.00000000E+01
	 2.00000000E+01
	 2.00000000E+01
	 2.00000000E+01
	 2.00000000E+01
	 2.00000000E+01
	 2.00000000E+01
	 2.00000000E+01
	 2.00000000E+01
	 2.00000000E+01
	 2.00000000E+01
	 2.00000000E+01
	 2.00000000E+01
	 2.00000000E+01
	 2.00000000E+01
	 2.00000000E+01
	 2.00000000E+01
	 2.00000000E+01
	 2.00000000E+01
	 2.00000000E+01
	 2.00000000E+01
	 2.00000000E+01
	 2.00000000E+01
	 2.00000000E+01
	 2.00000000E+01
	 2.00000000E+01
	 2.00000000E+01
	 2.00000000E+01
	 2.00000000E+01
	 2.00000000E+01
	 2.00000000E+01
	 2.00000000E+01
	 2.00000000E+01
	 2.00000000E+01
	 2.00000000E+01
	 2.00000000E+01
	 2.00000000E+01
	 2.00000000E+01
	 2.00000000E+01
	 2.00000000E+01
	 2.00000000E+01
	 2.00000000E+01
	 2.00000000E+01
	 2.00000000E+01
	 2.00000000E+01
	 2.00000000E+01
	 2.00000000E+01
	 2.00000000E+01
	 2.00000000E+01
	 2.00000000E+01
	 2.00000000E+01
	 2.00000000E+01
	 2.00000000E+01
	 2.00000000E+01
	 2.00000000E+01
	 2.00000000E+01
	 2.00000000E+01
	 2.00000000E+01
	 2.00000000E+01
	 2.00000000E+01
	 2.00000000E+01
	 2.00000000E+01
	 2.00000000E+01
	 2.00000000E+01
	 2.00000000E+01
	 2.00000000E+01
	 2.00000000E+01
	 2.00000000E+01
	 2.00000000E+01
	 2.00000000E+01
	 2.00000000E+01
	 2.00000000E+01
	 2.00000000E+01
	 2.00000000E+01
	 2.00000000E+01
	 2.00000000E+01
	 2.00000000E+01
	 2.00000000E+01
	 2.00000000E+01
	 2.00000000E+01
	 2.00000000E+01
	 2.00000000E+01
	 2.00000000E+01
	 2.00000000E+01
	 2.00000000E+01
	 2.00000000E+01
	 2.00000000E+01
	 2.00000000E+01
	 2.00000000E+01
	 2.00000000E+01
	 2.00000000E+01
	 2.00000000E+01
	 2.00000000E+01
	 2.00000000E+01
	 2.00000000E+01
	 2.00000000E+01
	 2.00000000E+01
	 2.00000000E+01
	 2.00000000E+01
	 2.00000000E+01
	 2.00000000E+01
	 2.00000000E+01
	 2.00000000E+01
	 2.00000000E+01
	 2.00000000E+01
	 2.00000000E+01
	 2.00000000E+01
	 2.00000000E+01
	 2.00000000E+01
	 2.00000000E+01
	 2.00000000E+01
	 2.00000000E+01
	 2.00000000E+01
	 2.00000000E+01
	 2.00000000E+01
	 2.00000000E+01
	 2.00000000E+01
	 2.00000000E+01
	 2.00000000E+01
	 2.00000000E+01
	 2.00000000E+01
	 2.00000000E+01
	 2.00000000E+01
	 2.00000000E+01
	 2.00000000E+01
	 2.00000000E+01
	 2.00000000E+01
	 2.00000000E+01
	 2.00000000E+01
	 2.00000000E+01
	 2.00000000E+01
	 2.00000000E+01
	 2.00000000E+01
	 2.00000000E+01
	 2.00000000E+01
	 2.00000000E+01
	 2.00000000E+01
	 2.00000000E+01
	 2.00000000E+01
	 2.00000000E+01
	 2.00000000E+01
	 2.00000000E+01
	 2.00000000E+01
	 2.00000000E+01
	 2.00000000E+01
	 2.00000000E+01
	 2.00000000E+01
	 2.00000000E+01
	 2.00000000E+01
	 2.00000000E+01
	 2.00000000E+01
	 2.00000000E+01
	 2.00000000E+01
	 2.00000000E+01
	 2.00000000E+01
	 2.00000000E+01
	 2.00000000E+01
	 2.00000000E+01
	 2.00000000E+01
	 2.00000000E+01
	 2.00000000E+01
	 2.00000000E+01
	 2.00000000E+01
	 2.00000000E+01
	 2.00000000E+01
	 2.00000000E+01
	 2.00000000E+01
	 2.00000000E+01
	 2.00000000E+01
	 2.00000000E+01
	 2.00000000E+01
	 2.00000000E+01
	 2.00000000E+01
	 2.00000000E+01
	 2.00000000E+01
	 2.00000000E+01
	 2.00000000E+01
	 2.00000000E+01
	 2.00000000E+01
	 2.00000000E+01
	 2.00000000E+01
	 2.00000000E+01
	 2.00000000E+01
	 2.00000000E+01
	 2.00000000E+01
	 2.00000000E+01
	 2.00000000E+01
	 2.00000000E+01
	 2.00000000E+01
	 2.00000000E+01
	 2.00000000E+01
	 2.00000000E+01
	 2.00000000E+01
	 2.00000000E+01
	 2.00000000E+01
	 2.00000000E+01
	 2.00000000E+01
	 2.00000000E+01
	 2.00000000E+01
	 2.00000000E+01
	 2.00000000E+01
	 2.00000000E+01
	 2.00000000E+01
	 2.00000000E+01
	 2.00000000E+01
	 2.00000000E+01
	 2.00000000E+01
	 2.00000000E+01
	 2.00000000E+01
	 2.00000000E+01
	 2.00000000E+01
	 2.00000000E+01
	 2.00000000E+01
	 2.00000000E+01
	 2.00000000E+01
	 2.00000000E+01
	 2.00000000E+01
	 2.00000000E+01
	 2.00000000E+01
	 2.00000000E+01
	 2.00000000E+01
	 2.00000000E+01
	 2.00000000E+01
	 2.00000000E+01
	 2.00000000E+01
	 2.00000000E+01
	 2.00000000E+01
	 2.00000000E+01
	 2.00000000E+01
	 2.00000000E+01
	 2.00000000E+01
	 2.00000000E+01
	 2.00000000E+01
	 2.00000000E+01
	 2.00000000E+01
	 2.00000000E+01
	 2.00000000E+01
	 2.00000000E+01
	 2.00000000E+01
	 2.00000000E+01
	 2.00000000E+01
	 2.00000000E+01
	 2.00000000E+01
	 2.00000000E+01
	 2.00000000E+01
	 2.00000000E+01
	 2.00000000E+01
	 2.00000000E+01
	 2.00000000E+01
	 2.00000000E+01
	 2.00000000E+01
	 2.00000000E+01
	 2.00000000E+01
	 2.00000000E+01
	 2.00000000E+01
	 2.00000000E+01
	 2.00000000E+01
	 2.00000000E+01
	 2.00000000E+01
	 2.00000000E+01
	 2.00000000E+01
	 2.00000000E+01
	 2.00000000E+01
	 2.00000000E+01
	 2.00000000E+01
	 2.00000000E+01
	 2.00000000E+01
	 2.00000000E+01
	 2.00000000E+01
	 2.00000000E+01
	 2.00000000E+01
	 2.00000000E+01
	 2.00000000E+01
	 2.00000000E+01
	 2.00000000E+01
	 2.00000000E+01
	 2.00000000E+01
	 2.00000000E+01
	 2.00000000E+01
	 2.00000000E+01
	 2.00000000E+01
	 2.00000000E+01
	 2.00000000E+01
	 2.00000000E+01
	 2.00000000E+01
	 2.00000000E+01
	 2.00000000E+01
	 2.00000000E+01
	 2.00000000E+01
	 2.00000000E+01
	 2.00000000E+01
	 2.00000000E+01
	 2.00000000E+01
	 2.00000000E+01
	 2.00000000E+01
	 2.00000000E+01
	 2.00000000E+01
	 2.00000000E+01
	 2.00000000E+01
	 2.00000000E+01
	 2.00000000E+01
	 2.00000000E+01
	 2.00000000E+01
	 2.00000000E+01
	 2.00000000E+01
	 2.00000000E+01
	 2.00000000E+01
	 2.00000000E+01
	 2.00000000E+01
	 2.00000000E+01
	 2.00000000E+01
	 2.00000000E+01
	 2.00000000E+01
	 2.00000000E+01
	 2.00000000E+01
	 2.00000000E+01
	 2.00000000E+01
	 2.00000000E+01
	 2.00000000E+01
	 2.00000000E+01
	 2.00000000E+01
	 2.00000000E+01
	 2.00000000E+01
	 2.00000000E+01
	 2.00000000E+01
	 2.00000000E+01
	 2.00000000E+01
	 2.00000000E+01
	 2.00000000E+01
	 2.00000000E+01
	 2.00000000E+01
	 2.00000000E+01
	 2.00000000E+01
	 2.00000000E+01
	 2.00000000E+01
	 2.00000000E+01
	 2.00000000E+01
	 2.00000000E+01
	 2.00000000E+01
	 2.00000000E+01
	 2.00000000E+01
	 2.00000000E+01
	 2.00000000E+01
	 2.00000000E+01
	 2.00000000E+01
	 2.00000000E+01
	 2.00000000E+01
	 2.00000000E+01
	 2.00000000E+01
	 2.00000000E+01
	 2.00000000E+01
	 2.00000000E+01
	 2.00000000E+01
	 2.00000000E+01
	 2.00000000E+01
	 2.00000000E+01
	 2.00000000E+01
	 2.00000000E+01
	 2.00000000E+01
	 2.00000000E+01
	 2.00000000E+01
	 2.00000000E+01
	 2.00000000E+01
	 2.00000000E+01
	 2.00000000E+01
	 2.00000000E+01
	 2.00000000E+01
	 2.00000000E+01
	 2.00000000E+01
	 2.00000000E+01
	 2.00000000E+01
	 2.00000000E+01
	 2.00000000E+01
	 2.00000000E+01
	 2.00000000E+01
	 2.00000000E+01
	 2.00000000E+01
	 2.00000000E+01
	 2.00000000E+01
	 2.00000000E+01
	 2.00000000E+01
	 2.00000000E+01
	 2.00000000E+01
	 2.00000000E+01
	 2.00000000E+01
	 2.00000000E+01
	 2.00000000E+01
	 2.00000000E+01
	 2.00000000E+01
	 2.00000000E+01
	 2.00000000E+01
	 2.00000000E+01
	 2.00000000E+01
	 2.00000000E+01
	 2.00000000E+01
	 2.00000000E+01
	 2.00000000E+01
	 2.00000000E+01
	 2.00000000E+01
	 2.00000000E+01
	 2.00000000E+01
	 2.00000000E+01
	 2.00000000E+01
	 2.00000000E+01
	 2.00000000E+01
	 2.00000000E+01
	 2.00000000E+01
	 2.00000000E+01
	 2.00000000E+01
	 2.00000000E+01
	 2.00000000E+01
	 2.00000000E+01
	 2.00000000E+01
	 2.00000000E+01
	 2.00000000E+01
	 2.00000000E+01
	 2.00000000E+01
	 2.00000000E+01
	 2.00000000E+01
	 2.00000000E+01
	 2.00000000E+01
	 2.00000000E+01
	 2.00000000E+01
	 2.00000000E+01
	 2.00000000E+01
	 2.00000000E+01
	 2.00000000E+01
	 2.00000000E+01
	 2.00000000E+01
	 2.00000000E+01
	 2.00000000E+01
	 2.00000000E+01
	 2.00000000E+01
	 2.00000000E+01
	 2.00000000E+01
	 2.00000000E+01
	 2.00000000E+01
	 2.00000000E+01
	 2.00000000E+01
	 2.00000000E+01
	 2.00000000E+01
	 2.00000000E+01
	 2.00000000E+01
	 2.00000000E+01
	 2.00000000E+01
	 2.00000000E+01
	 2.00000000E+01
	 2.00000000E+01
	 2.00000000E+01
	 2.00000000E+01
	 2.00000000E+01
	 2.00000000E+01
	 2.00000000E+01
	 2.00000000E+01
	 2.00000000E+01
	 2.00000000E+01
	 2.00000000E+01
	 2.00000000E+01
	 2.00000000E+01
	 2.00000000E+01
	 2.00000000E+01
	 2.00000000E+01
	 2.00000000E+01
	 2.00000000E+01
	 2.00000000E+01
	 2.00000000E+01
	 2.00000000E+01
	 2.00000000E+01
	 2.00000000E+01
	 2.00000000E+01
	 2.00000000E+01
	 2.00000000E+01
	 2.00000000E+01
	 2.00000000E+01
	 2.00000000E+01
	 2.00000000E+01
	 2.00000000E+01
	 2.00000000E+01
	 2.00000000E+01
	 2.00000000E+01
	 2.00000000E+01
	 2.00000000E+01
	 2.00000000E+01
	 2.00000000E+01
	 2.00000000E+01
	 2.00000000E+01
	 2.00000000E+01
	 2.00000000E+01
	 2.00000000E+01
	 2.00000000E+01
	 2.00000000E+01
	 2.00000000E+01
	 2.00000000E+01
	 2.00000000E+01
	 2.00000000E+01
	 2.00000000E+01
	 2.00000000E+01
	 2.00000000E+01
	 2.00000000E+01
	 2.00000000E+01
	 2.00000000E+01
	 2.00000000E+01
	 2.00000000E+01
	 2.00000000E+01
	 2.00000000E+01
	 2.00000000E+01
	 2.00000000E+01
	 2.00000000E+01
	 2.00000000E+01
	 2.00000000E+01
	 2.00000000E+01
	 2.00000000E+01
	 2.00000000E+01
	 2.00000000E+01
	 2.00000000E+01
	 2.00000000E+01
	 2.00000000E+01
	 2.00000000E+01
	 2.00000000E+01
	 2.00000000E+01
	 2.00000000E+01
	 2.00000000E+01
	 2.00000000E+01
	 2.00000000E+01
	 2.00000000E+01
	 2.00000000E+01
	 2.00000000E+01
	 2.00000000E+01
	 2.00000000E+01
	 2.00000000E+01
	 2.00000000E+01
	 2.00000000E+01
	 2.00000000E+01
	 2.00000000E+01
	 2.00000000E+01
	 2.00000000E+01
	 2.00000000E+01
	 2.00000000E+01
	 2.00000000E+01
	 2.00000000E+01
	 2.00000000E+01
	 2.00000000E+01
	 2.00000000E+01
	 2.00000000E+01
	 2.00000000E+01
	 2.00000000E+01
	 2.00000000E+01
	 2.00000000E+01
	 2.00000000E+01
	 2.00000000E+01
	 2.00000000E+01
	 2.00000000E+01
	 2.00000000E+01
	 2.00000000E+01
	 2.00000000E+01
	 2.00000000E+01
	 2.00000000E+01
	 2.00000000E+01
	 2.00000000E+01
	 2.00000000E+01
	 2.00000000E+01
	 2.00000000E+01
	 2.00000000E+01
	 2.00000000E+01
	 2.00000000E+01
	 2.00000000E+01
	 2.00000000E+01
	 2.00000000E+01
	 2.00000000E+01
	 2.00000000E+01
	 2.00000000E+01
	 2.00000000E+01
	 2.00000000E+01
	 2.00000000E+01
	 2.00000000E+01
	 2.00000000E+01
	 2.00000000E+01
	 2.00000000E+01
	 2.00000000E+01
	 2.00000000E+01
	 2.00000000E+01
	 2.00000000E+01
	 2.00000000E+01
	 2.00000000E+01
	 2.00000000E+01
	 2.00000000E+01
	 2.00000000E+01
	 2.00000000E+01
	 2.00000000E+01
	 2.00000000E+01
	 2.00000000E+01
	 2.00000000E+01
	 2.00000000E+01
	 2.00000000E+01
	 2.00000000E+01
	 2.00000000E+01
	 2.00000000E+01
	 2.00000000E+01
	 2.00000000E+01
	 2.00000000E+01
	 2.00000000E+01
	 2.00000000E+01
	 2.00000000E+01
	 2.00000000E+01
	 2.00000000E+01
	 2.00000000E+01
	 2.00000000E+01
	 2.00000000E+01
	 2.00000000E+01
	 2.00000000E+01
	 2.00000000E+01
	 2.00000000E+01
	 2.00000000E+01
	 2.00000000E+01
	 2.00000000E+01
	 2.00000000E+01
	 2.00000000E+01
	 2.00000000E+01
	 2.00000000E+01
	 2.00000000E+01
	 2.00000000E+01
	 2.00000000E+01
	 2.00000000E+01
	 2.00000000E+01
	 2.00000000E+01
	 2.00000000E+01
	 2.00000000E+01
	 2.00000000E+01
	 2.00000000E+01
	 2.00000000E+01
	 2.00000000E+01
	 2.00000000E+01
	 2.00000000E+01
	 2.00000000E+01
	 2.00000000E+01
	 2.00000000E+01
	 2.00000000E+01
	 2.00000000E+01
	 2.00000000E+01
	 2.00000000E+01
	 2.00000000E+01
	 2.00000000E+01
	 2.00000000E+01
	 2.00000000E+01
	 2.00000000E+01
	 2.00000000E+01
	 2.00000000E+01
	 2.00000000E+01
	 2.00000000E+01
	 2.00000000E+01
	 2.00000000E+01
	 2.00000000E+01
	 2.00000000E+01
	 2.00000000E+01
	 2.00000000E+01
	 2.00000000E+01
	 2.00000000E+01
	 2.00000000E+01
	 2.00000000E+01
	 2.00000000E+01
	 2.00000000E+01
	 2.00000000E+01
	 2.00000000E+01
	 2.00000000E+01
	 2.00000000E+01
	 2.00000000E+01
	 2.00000000E+01
	 2.00000000E+01
	 2.00000000E+01
	 2.00000000E+01
	 2.00000000E+01
	 2.00000000E+01
	 2.00000000E+01
	 2.00000000E+01
	 2.00000000E+01
	 2.00000000E+01
	 2.00000000E+01
	 2.00000000E+01
	 2.00000000E+01
	 2.00000000E+01
	 2.00000000E+01
	 2.00000000E+01
	 2.00000000E+01
	 2.00000000E+01
	 2.00000000E+01
	 2.00000000E+01
	 2.00000000E+01
	 2.00000000E+01
	 2.00000000E+01
	 2.00000000E+01
	 2.00000000E+01
	 2.00000000E+01
	 2.00000000E+01
	 2.00000000E+01
	 2.00000000E+01
	 2.00000000E+01
	 2.00000000E+01
	 2.00000000E+01
	 2.00000000E+01
	 2.00000000E+01
	 2.00000000E+01
	 2.00000000E+01
	 2.00000000E+01
	 2.00000000E+01
	 2.00000000E+01
	 2.00000000E+01
	 2.00000000E+01
	 2.00000000E+01
	 2.00000000E+01
	 2.00000000E+01
	 2.00000000E+01
	 2.00000000E+01
	 2.00000000E+01
	 2.00000000E+01
	 2.00000000E+01
	 2.00000000E+01
	 2.00000000E+01
	 2.00000000E+01
	 2.00000000E+01
	 2.00000000E+01
	 2.00000000E+01
	 2.00000000E+01
	 2.00000000E+01
	 2.00000000E+01
	 2.00000000E+01
	 2.00000000E+01
	 2.00000000E+01
	 2.00000000E+01
	 2.00000000E+01
	 2.00000000E+01
	 2.00000000E+01
	 2.00000000E+01
	 2.00000000E+01
	 2.00000000E+01
	 2.00000000E+01
	 2.00000000E+01
	 2.00000000E+01
	 2.00000000E+01
	 2.00000000E+01
	 2.00000000E+01
	 2.00000000E+01
	 2.00000000E+01
	 2.00000000E+01
	 2.00000000E+01
	 2.00000000E+01
	 2.00000000E+01
	 2.00000000E+01
	 2.00000000E+01
	 2.00000000E+01
	 2.00000000E+01
	 2.00000000E+01
	 2.00000000E+01
	 2.00000000E+01
	 2.00000000E+01
	 2.00000000E+01
	 2.00000000E+01
	 2.00000000E+01
	 2.00000000E+01
	 2.00000000E+01
	 2.00000000E+01
	 2.00000000E+01
	 2.00000000E+01
	 2.00000000E+01
	 2.00000000E+01
	 2.00000000E+01
	 2.00000000E+01
	 2.00000000E+01
	 2.00000000E+01
	 2.00000000E+01
	 2.00000000E+01
	 2.00000000E+01
	 2.00000000E+01
	 2.00000000E+01
	 2.00000000E+01
	 2.00000000E+01
	 2.00000000E+01
	 2.00000000E+01
	 2.00000000E+01
	 2.00000000E+01
	 2.00000000E+01
	 2.00000000E+01
	 2.00000000E+01
	 2.00000000E+01
	 2.00000000E+01
	 2.00000000E+01
	 2.00000000E+01
	 2.00000000E+01
	 2.00000000E+01
	 2.00000000E+01
	 2.00000000E+01
	 2.00000000E+01
	 2.00000000E+01
	 2.00000000E+01
	 2.00000000E+01
	 2.00000000E+01
	 2.00000000E+01
	 2.00000000E+01
	 2.00000000E+01
	 2.00000000E+01
	 2.00000000E+01
	 2.00000000E+01
	 2.00000000E+01
	 2.00000000E+01
	 2.00000000E+01
	 2.00000000E+01
	 2.00000000E+01
	 2.00000000E+01
	 2.00000000E+01
	 2.00000000E+01
	 2.00000000E+01
	 2.00000000E+01
	 2.00000000E+01
	 2.00000000E+01
	 2.00000000E+01
	 2.00000000E+01
	 2.00000000E+01
	 2.00000000E+01
	 2.00000000E+01
	 2.00000000E+01
	 2.00000000E+01
	 2.00000000E+01
	 2.00000000E+01
	 2.00000000E+01
	 2.00000000E+01
	 2.00000000E+01
	 2.00000000E+01
	 2.00000000E+01
	 2.00000000E+01
	 2.00000000E+01
	 2.00000000E+01
	 2.00000000E+01
	 2.00000000E+01
	 2.00000000E+01
	 2.00000000E+01
	 2.00000000E+01
	 2.00000000E+01
	 2.00000000E+01
	 2.00000000E+01
	 2.00000000E+01
	 2.00000000E+01
	 2.00000000E+01
	 2.00000000E+01
	 2.00000000E+01
	 2.00000000E+01
	 2.00000000E+01
	 2.00000000E+01
	 2.00000000E+01
	 2.00000000E+01
	 2.00000000E+01
	 2.00000000E+01
	 2.00000000E+01
	 2.00000000E+01
	 2.00000000E+01
	 2.00000000E+01
	 2.00000000E+01
	 2.00000000E+01
	 2.00000000E+01
	 2.00000000E+01
	 2.00000000E+01
	 2.00000000E+01
	 2.00000000E+01
	 2.00000000E+01
	 2.00000000E+01
	 2.00000000E+01
	 2.00000000E+01
	 2.00000000E+01
	 2.00000000E+01
	 2.00000000E+01
	 2.00000000E+01
	 2.00000000E+01
	 2.00000000E+01
	 2.00000000E+01
	 2.00000000E+01
	 2.00000000E+01
	 2.00000000E+01
	 2.00000000E+01
	 2.00000000E+01
	 2.00000000E+01
	 2.00000000E+01
	 2.00000000E+01
	 2.00000000E+01
	 2.00000000E+01
	 2.00000000E+01
	 2.00000000E+01
	 2.00000000E+01
	 2.00000000E+01
	 2.00000000E+01
	 2.00000000E+01
	 2.00000000E+01
	 2.00000000E+01
	 2.00000000E+01
	 2.00000000E+01
	 2.00000000E+01
	 2.00000000E+01
	 2.00000000E+01
	 2.00000000E+01
	 2.00000000E+01
	 2.00000000E+01
	 2.00000000E+01
	 2.00000000E+01
	 2.00000000E+01
	 2.00000000E+01
	 2.00000000E+01
	 2.00000000E+01
	 2.00000000E+01
	 2.00000000E+01
	 2.00000000E+01
	 2.00000000E+01
	 2.00000000E+01
	 2.00000000E+01
	 2.00000000E+01
	 2.00000000E+01
	 2.00000000E+01
	 2.00000000E+01
	 2.00000000E+01
	 2.00000000E+01
	 2.00000000E+01
	 2.00000000E+01
	 2.00000000E+01
	 2.00000000E+01
	 2.00000000E+01
	 2.00000000E+01
	 2.00000000E+01
	 2.00000000E+01
	 2.00000000E+01
	 2.00000000E+01
	 2.00000000E+01
	 2.00000000E+01
	 2.00000000E+01
	 2.00000000E+01
	 2.00000000E+01
	 2.00000000E+01
	 2.00000000E+01
	 2.00000000E+01
	 2.00000000E+01
	 2.00000000E+01
	 2.00000000E+01
	 2.00000000E+01
	 2.00000000E+01
	 2.00000000E+01
	 2.00000000E+01
	 2.00000000E+01
	 2.00000000E+01
	 2.00000000E+01
	 2.00000000E+01
	 2.00000000E+01
	 2.00000000E+01
	 2.00000000E+01
	 2.00000000E+01
	 2.00000000E+01
	 2.00000000E+01
	 2.00000000E+01
	 2.00000000E+01
	 2.00000000E+01
	 2.00000000E+01
	 2.00000000E+01
	 2.00000000E+01
	 2.00000000E+01
	 2.00000000E+01
	 2.00000000E+01
	 2.00000000E+01
	 2.00000000E+01
	 2.00000000E+01
	 2.00000000E+01
	 2.00000000E+01
	 2.00000000E+01
	 2.00000000E+01
	 2.00000000E+01
	 2.00000000E+01
	 2.00000000E+01
	 2.00000000E+01
	 2.00000000E+01
	 2.00000000E+01
	 2.00000000E+01
	 2.00000000E+01
	 2.00000000E+01
	 2.00000000E+01
	 2.00000000E+01
	 2.00000000E+01
	 2.00000000E+01
	 2.00000000E+01
	 2.00000000E+01
	 2.00000000E+01
	 2.00000000E+01
	 2.00000000E+01
	 2.00000000E+01
	 2.00000000E+01
	 2.00000000E+01
	 2.00000000E+01
	 2.00000000E+01
	 2.00000000E+01
	 2.00000000E+01
	 2.00000000E+01
	 2.00000000E+01
	 2.00000000E+01
	 2.00000000E+01
	 2.00000000E+01
	 2.00000000E+01
	 2.00000000E+01
	 2.00000000E+01
	 2.00000000E+01
	 2.00000000E+01
	 2.00000000E+01
	 2.00000000E+01
	 2.00000000E+01
	 2.00000000E+01
	 2.00000000E+01
	 2.00000000E+01
	 2.00000000E+01
	 2.00000000E+01
	 2.00000000E+01
	 2.00000000E+01
	 2.00000000E+01
	 2.00000000E+01
	 2.00000000E+01
	 2.00000000E+01
	 2.00000000E+01
	 2.00000000E+01
	 2.00000000E+01
	 2.00000000E+01
	 2.00000000E+01
	 2.00000000E+01
	 2.00000000E+01
	 2.00000000E+01
	 2.00000000E+01
	 2.00000000E+01
	 2.00000000E+01
	 2.00000000E+01
	 2.00000000E+01
	 2.00000000E+01
	 2.00000000E+01
	 2.00000000E+01
	 2.00000000E+01
	 2.00000000E+01
	 2.00000000E+01
	 2.00000000E+01
	 2.00000000E+01
	 2.00000000E+01
	 2.00000000E+01
	 2.00000000E+01
	 2.00000000E+01
	 2.00000000E+01
	 2.00000000E+01
	 2.00000000E+01
	 2.00000000E+01
	 2.00000000E+01
	 2.00000000E+01
	 2.00000000E+01
	 2.00000000E+01
	 2.00000000E+01
	 2.00000000E+01
	 2.00000000E+01
	 2.00000000E+01
	 2.00000000E+01
	 2.00000000E+01
	 2.00000000E+01
	 2.00000000E+01
	 2.00000000E+01
	 2.00000000E+01
	 2.00000000E+01
	 2.00000000E+01
	 2.00000000E+01
	 2.00000000E+01
	 2.00000000E+01
	 2.00000000E+01
	 2.00000000E+01
	 2.00000000E+01
	 2.00000000E+01
	 2.00000000E+01
	 2.00000000E+01
	 2.00000000E+01
	 2.00000000E+01
	 2.00000000E+01
	 2.00000000E+01
	 2.00000000E+01
	 2.00000000E+01
	 2.00000000E+01
	 2.00000000E+01
	 2.00000000E+01
	 2.00000000E+01
	 2.00000000E+01
	 2.00000000E+01
	 2.00000000E+01
	 2.00000000E+01
	 2.00000000E+01
	 2.00000000E+01
	 2.00000000E+01
	 2.00000000E+01
	 2.00000000E+01
	 2.00000000E+01
	 2.00000000E+01
	 2.00000000E+01
	 2.00000000E+01
	 2.00000000E+01
	 2.00000000E+01
	 2.00000000E+01
	 2.00000000E+01
	 2.00000000E+01
	 2.00000000E+01
	 2.00000000E+01
	 2.00000000E+01
	 2.00000000E+01
	 2.00000000E+01
	 2.00000000E+01
	 2.00000000E+01
	 2.00000000E+01
	 2.00000000E+01
	 2.00000000E+01
	 2.00000000E+01
	 2.00000000E+01
	 2.00000000E+01
	 2.00000000E+01
	 2.00000000E+01
	 2.00000000E+01
	 2.00000000E+01
	 2.00000000E+01
	 2.00000000E+01
	 2.00000000E+01
	 2.00000000E+01
	 2.00000000E+01
	 2.00000000E+01
	 2.00000000E+01
	 2.00000000E+01
	 2.00000000E+01
	 2.00000000E+01
	 2.00000000E+01
	 2.00000000E+01
	 2.00000000E+01
	 2.00000000E+01
	 2.00000000E+01
	 2.00000000E+01
	 2.00000000E+01
	 2.00000000E+01
	 2.00000000E+01
	 2.00000000E+01
	 2.00000000E+01
	 2.00000000E+01
	 2.00000000E+01
	 2.00000000E+01
	 2.00000000E+01
	 2.00000000E+01
	 2.00000000E+01
	 2.00000000E+01
	 2.00000000E+01
	 2.00000000E+01
	 2.00000000E+01
	 2.00000000E+01
	 2.00000000E+01
	 2.00000000E+01
	 2.00000000E+01
	 2.00000000E+01
	 2.00000000E+01
	 2.00000000E+01
	 2.00000000E+01
	 2.00000000E+01
	 2.00000000E+01
	 2.00000000E+01
	 2.00000000E+01
	 2.00000000E+01
	 2.00000000E+01
	 2.00000000E+01
	 2.00000000E+01
	 2.00000000E+01
	 2.00000000E+01
	 2.00000000E+01
	 2.00000000E+01
	 2.00000000E+01
	 2.00000000E+01
	 2.00000000E+01
	 2.00000000E+01
	 2.00000000E+01
	 2.00000000E+01
	 2.00000000E+01
	 2.00000000E+01
	 2.00000000E+01
	 2.00000000E+01
	 2.00000000E+01
	 2.00000000E+01
	 2.00000000E+01
	 2.00000000E+01
	 2.00000000E+01
	 2.00000000E+01
	 2.00000000E+01
	 2.00000000E+01
	 2.00000000E+01
	 2.00000000E+01
	 2.00000000E+01
	 2.00000000E+01
	 2.00000000E+01
	 2.00000000E+01
	 2.00000000E+01
	 2.00000000E+01
	 2.00000000E+01
	 2.00000000E+01
	 2.00000000E+01
	 2.00000000E+01
	 2.00000000E+01
	 2.00000000E+01
	 2.00000000E+01
	 2.00000000E+01
	 2.00000000E+01
	 2.00000000E+01
	 2.00000000E+01
	 2.00000000E+01
	 2.00000000E+01
	 2.00000000E+01
	 2.00000000E+01
	 2.00000000E+01
	 2.00000000E+01
	 2.00000000E+01
	 2.00000000E+01
	 2.00000000E+01
	 2.00000000E+01
	 2.00000000E+01
	 2.00000000E+01
	 2.00000000E+01
	 2.00000000E+01
	 2.00000000E+01
	 2.00000000E+01
	 2.00000000E+01
	 2.00000000E+01
	 2.00000000E+01
	 2.00000000E+01
	 2.00000000E+01
	 2.00000000E+01
	 2.00000000E+01
	 2.00000000E+01
	 2.00000000E+01
	 2.00000000E+01
	 2.00000000E+01
	 2.00000000E+01
	 2.00000000E+01
	 2.00000000E+01
	 2.00000000E+01
	 2.00000000E+01
	 2.00000000E+01
	 2.00000000E+01
	 2.00000000E+01
	 2.00000000E+01
	 2.00000000E+01
	 2.00000000E+01
	 2.00000000E+01
	 2.00000000E+01
	 2.00000000E+01
	 2.00000000E+01
	 2.00000000E+01
	 2.00000000E+01
	 2.00000000E+01
	 2.00000000E+01
	 2.00000000E+01
	 2.00000000E+01
	 2.00000000E+01
	 2.00000000E+01
	 2.00000000E+01
	 2.00000000E+01
	 2.00000000E+01
	 2.00000000E+01
	 2.00000000E+01
	 2.00000000E+01
	 2.00000000E+01
	 2.00000000E+01
	 2.00000000E+01
	 2.00000000E+01
	 2.00000000E+01
	 2.00000000E+01
	 2.00000000E+01
	 2.00000000E+01
	 2.00000000E+01
	 2.00000000E+01
	 2.00000000E+01
	 2.00000000E+01
	 2.00000000E+01
	 2.00000000E+01
	 2.00000000E+01
	 2.00000000E+01
	 2.00000000E+01
	 2.00000000E+01
	 2.00000000E+01
	 2.00000000E+01
	 2.00000000E+01
	 2.00000000E+01
	 2.00000000E+01
	 2.00000000E+01
	 2.00000000E+01
	 2.00000000E+01
	 2.00000000E+01
	 2.00000000E+01
	 2.00000000E+01
	 2.00000000E+01
	 2.00000000E+01
	 2.00000000E+01
	 2.00000000E+01
	 2.00000000E+01
	 2.00000000E+01
	 2.00000000E+01
	 2.00000000E+01
	 2.00000000E+01
	 2.00000000E+01
	 2.00000000E+01
	 2.00000000E+01
	 2.00000000E+01
	 2.00000000E+01
	 2.00000000E+01
	 2.00000000E+01
	 2.00000000E+01
	 2.00000000E+01
	 2.00000000E+01
	 2.00000000E+01
	 2.00000000E+01
	 2.00000000E+01
	 2.00000000E+01
	 2.00000000E+01
	 2.00000000E+01
	 2.00000000E+01
	 2.00000000E+01
	 2.00000000E+01
	 2.00000000E+01
	 2.00000000E+01
	 2.00000000E+01
	 2.00000000E+01
	 2.00000000E+01
	 2.00000000E+01
	 2.00000000E+01
	 2.00000000E+01
	 2.00000000E+01
	 2.00000000E+01
	 2.00000000E+01
	 2.00000000E+01
	 2.00000000E+01
	 2.00000000E+01
	 2.00000000E+01
	 2.00000000E+01
	 2.00000000E+01
	 2.00000000E+01
	 2.00000000E+01
	 2.00000000E+01
	 2.00000000E+01
	 2.00000000E+01
	 2.00000000E+01
	 2.00000000E+01
	 2.00000000E+01
	 2.00000000E+01
	 2.00000000E+01
	 2.00000000E+01
	 2.00000000E+01
	 2.00000000E+01
	 2.00000000E+01
	 2.00000000E+01
	 2.00000000E+01
	 2.00000000E+01
	 2.00000000E+01
	 2.00000000E+01
	 2.00000000E+01
	 2.00000000E+01
	 2.00000000E+01
	 2.00000000E+01
	 2.00000000E+01
	 2.00000000E+01
	 2.00000000E+01
	 2.00000000E+01
	 2.00000000E+01
	 2.00000000E+01
	 2.00000000E+01
	 2.00000000E+01
	 2.00000000E+01
	 2.00000000E+01
	 2.00000000E+01
	 2.00000000E+01
	 2.00000000E+01
	 2.00000000E+01
	 2.00000000E+01
	 2.00000000E+01
	 2.00000000E+01
	 2.00000000E+01
	 2.00000000E+01
	 2.00000000E+01
	 2.00000000E+01
	 2.00000000E+01
	 2.00000000E+01
	 2.00000000E+01
	 2.00000000E+01
	 2.00000000E+01
	 2.00000000E+01
	 2.00000000E+01
	 2.00000000E+01
	 2.00000000E+01
	 2.00000000E+01
	 2.00000000E+01
	 2.00000000E+01
	 2.00000000E+01
	 2.00000000E+01
	 2.00000000E+01
	 2.00000000E+01
	 2.00000000E+01
	 2.00000000E+01
	 2.00000000E+01
	 2.00000000E+01
	 2.00000000E+01
	 2.00000000E+01
	 2.00000000E+01
	 2.00000000E+01
	 2.00000000E+01
	 2.00000000E+01
	 2.00000000E+01
	 2.00000000E+01
	 2.00000000E+01
	 2.00000000E+01
	 2.00000000E+01
	 2.00000000E+01
	 2.00000000E+01
	 2.00000000E+01
	 2.00000000E+01
	 2.00000000E+01
	 2.00000000E+01
	 2.00000000E+01
	 2.00000000E+01
	 2.00000000E+01
	 2.00000000E+01
	 2.00000000E+01
	 2.00000000E+01
	 2.00000000E+01
	 2.00000000E+01
	 2.00000000E+01
	 2.00000000E+01
	 2.00000000E+01
	 2.00000000E+01
	 2.00000000E+01
	 2.00000000E+01
	 2.00000000E+01
	 2.00000000E+01
	 2.00000000E+01
	 2.00000000E+01
	 2.00000000E+01
	 2.00000000E+01
	 2.00000000E+01
	 2.00000000E+01
	 2.00000000E+01
	 2.00000000E+01
	 2.00000000E+01
	 2.00000000E+01
	 2.00000000E+01
	 2.00000000E+01
	 2.00000000E+01
	 2.00000000E+01
	 2.00000000E+01
	 2.00000000E+01
	 2.00000000E+01
	 2.00000000E+01
	 2.00000000E+01
	 2.00000000E+01
	 2.00000000E+01
	 2.00000000E+01
	 2.00000000E+01
	 2.00000000E+01
	 2.00000000E+01
	 2.00000000E+01
	 2.00000000E+01
	 2.00000000E+01
	 2.00000000E+01
	 2.00000000E+01
	 2.00000000E+01
	 2.00000000E+01
	 2.00000000E+01
	 2.00000000E+01
	 2.00000000E+01
	 2.00000000E+01
	 2.00000000E+01
	 2.00000000E+01
	 2.00000000E+01
	 2.00000000E+01
	 2.00000000E+01
	 2.00000000E+01
	 2.00000000E+01
	 2.00000000E+01
	 2.00000000E+01
	 2.00000000E+01
	 2.00000000E+01
	 2.00000000E+01
	 2.00000000E+01
	 2.00000000E+01
	 2.00000000E+01
	 2.00000000E+01
	 2.00000000E+01
	 2.00000000E+01
	 2.00000000E+01
	 2.00000000E+01
	 2.00000000E+01
	 2.00000000E+01
	 2.00000000E+01
	 2.00000000E+01
	 2.00000000E+01
	 2.00000000E+01
	 2.00000000E+01
	 2.00000000E+01
	 2.00000000E+01
	 2.00000000E+01
	 2.00000000E+01
	 2.00000000E+01
	 2.00000000E+01
	 2.00000000E+01
	 2.00000000E+01
	 2.00000000E+01
	 2.00000000E+01
	 2.00000000E+01
	 2.00000000E+01
	 2.00000000E+01
	 2.00000000E+01
	 2.00000000E+01
	 2.00000000E+01
	 2.00000000E+01
	 2.00000000E+01
	 2.00000000E+01
	 2.00000000E+01
	 2.00000000E+01
	 2.00000000E+01
	 2.00000000E+01
	 2.00000000E+01
	 2.00000000E+01
	 2.00000000E+01
	 2.00000000E+01
	 2.00000000E+01
	 2.00000000E+01
	 2.00000000E+01
	 2.00000000E+01
	 2.00000000E+01
	 2.00000000E+01
	 2.00000000E+01
	 2.00000000E+01
	 2.00000000E+01
	 2.00000000E+01
	 2.00000000E+01
	 2.00000000E+01
	 2.00000000E+01
	 2.00000000E+01
	 2.00000000E+01
	 2.00000000E+01
	 2.00000000E+01
	 2.00000000E+01
	 2.00000000E+01
	 2.00000000E+01
	 2.00000000E+01
	 2.00000000E+01
	 2.00000000E+01
	 2.00000000E+01
	 2.00000000E+01
	 2.00000000E+01
	 2.00000000E+01
	 2.00000000E+01
	 2.00000000E+01
	 2.00000000E+01
	 2.00000000E+01
	 2.00000000E+01
	 2.00000000E+01
	 2.00000000E+01
	 2.00000000E+01
	 2.00000000E+01
	 2.00000000E+01
	 2.00000000E+01
	 2.00000000E+01
	 2.00000000E+01
	 2.00000000E+01
	 2.00000000E+01
	 2.00000000E+01
	 2.00000000E+01
	 2.00000000E+01
	 2.00000000E+01
	 2.00000000E+01
	 2.00000000E+01
	 2.00000000E+01
	 2.00000000E+01
	 2.00000000E+01
	 2.00000000E+01
	 2.00000000E+01
	 2.00000000E+01
	 2.00000000E+01
	 2.00000000E+01
	 2.00000000E+01
	 2.00000000E+01
	 2.00000000E+01
	 2.00000000E+01
	 2.00000000E+01
	 2.00000000E+01
	 2.00000000E+01
	 2.00000000E+01
	 2.00000000E+01
	 2.00000000E+01
	 2.00000000E+01
	 2.00000000E+01
	 2.00000000E+01
	 2.00000000E+01
	 2.00000000E+01
	 2.00000000E+01
	 2.00000000E+01
	 2.00000000E+01
	 2.00000000E+01
	 2.00000000E+01
	 2.00000000E+01
	 2.00000000E+01
	 2.00000000E+01
	 2.00000000E+01
	 2.00000000E+01
	 2.00000000E+01
	 2.00000000E+01
	 2.00000000E+01
	 2.00000000E+01
	 2.00000000E+01
	 2.00000000E+01
	 2.00000000E+01
	 2.00000000E+01
	 2.00000000E+01
	 2.00000000E+01
	 2.00000000E+01
	 2.00000000E+01
	 2.00000000E+01
	 2.00000000E+01
	 2.00000000E+01
	 2.00000000E+01
	 2.00000000E+01
	 2.00000000E+01
	 2.00000000E+01
	 2.00000000E+01
	 2.00000000E+01
	 2.00000000E+01
	 2.00000000E+01
	 2.00000000E+01
	 2.00000000E+01
	 2.00000000E+01
	 2.00000000E+01
	 2.00000000E+01
	 2.00000000E+01
	 2.00000000E+01
	 2.00000000E+01
	 2.00000000E+01
	 2.00000000E+01
	 2.00000000E+01
	 2.00000000E+01
	 2.00000000E+01
	 2.00000000E+01
	 2.00000000E+01
	 2.00000000E+01
	 2.00000000E+01
	 2.00000000E+01
	 2.00000000E+01
	 2.00000000E+01
	 2.00000000E+01
	 2.00000000E+01
	 2.00000000E+01
	 2.00000000E+01
	 2.00000000E+01
	 2.00000000E+01
	 2.00000000E+01
	 2.00000000E+01
	 2.00000000E+01
	 2.00000000E+01
	 2.00000000E+01
	 2.00000000E+01
	 2.00000000E+01
	 2.00000000E+01
	 2.00000000E+01
	 2.00000000E+01
	 2.00000000E+01
	 2.00000000E+01
	 2.00000000E+01
	 2.00000000E+01
	 2.00000000E+01
	 2.00000000E+01
	 2.00000000E+01
	 2.00000000E+01
	 2.00000000E+01
	 2.00000000E+01
	 2.00000000E+01
	 2.00000000E+01
	 2.00000000E+01
	 2.00000000E+01
	 2.00000000E+01
	 2.00000000E+01
	 2.00000000E+01
	 2.00000000E+01
	 2.00000000E+01
	 2.00000000E+01
	 2.00000000E+01
	 2.00000000E+01
	 2.00000000E+01
	 2.00000000E+01
	 2.00000000E+01
	 2.00000000E+01
	 2.00000000E+01
	 2.00000000E+01
	 2.00000000E+01
	 2.00000000E+01
	 2.00000000E+01
	 2.00000000E+01
	 2.00000000E+01
	 2.00000000E+01
	 2.00000000E+01
	 2.00000000E+01
	 2.00000000E+01
	 2.00000000E+01
	 2.00000000E+01
	 2.00000000E+01
	 2.00000000E+01
	 2.00000000E+01
	 2.00000000E+01
	 2.00000000E+01
	 2.00000000E+01
	 2.00000000E+01
	 2.00000000E+01
	 2.00000000E+01
	 2.00000000E+01
	 2.00000000E+01
	 2.00000000E+01
	 2.00000000E+01
	 2.00000000E+01
	 2.00000000E+01
	 2.00000000E+01
	 2.00000000E+01
	 2.00000000E+01
	 2.00000000E+01
	 2.00000000E+01
	 2.00000000E+01
	 2.00000000E+01
	 2.00000000E+01
	 2.00000000E+01
	 2.00000000E+01
	 2.00000000E+01
	 2.00000000E+01
	 2.00000000E+01
	 2.00000000E+01
	 2.00000000E+01
	 2.00000000E+01
	 2.00000000E+01
	 2.00000000E+01
	 2.00000000E+01
	 2.00000000E+01
	 2.00000000E+01
	 2.00000000E+01
	 2.00000000E+01
	 2.00000000E+01
	 2.00000000E+01
	 2.00000000E+01
	 2.00000000E+01
	 2.00000000E+01
	 2.00000000E+01
	 2.00000000E+01
	 2.00000000E+01
	 2.00000000E+01
	 2.00000000E+01
	 2.00000000E+01
	 2.00000000E+01
	 2.00000000E+01
	 2.00000000E+01
	 2.00000000E+01
	 2.00000000E+01
	 2.00000000E+01
	 2.00000000E+01
	 2.00000000E+01
	 2.00000000E+01
	 2.00000000E+01
	 2.00000000E+01
	 2.00000000E+01
	 2.00000000E+01
	 2.00000000E+01
	 2.00000000E+01
	 2.00000000E+01
	 2.00000000E+01
	 2.00000000E+01
	 2.00000000E+01
	 2.00000000E+01
	 2.00000000E+01
	 2.00000000E+01
	 2.00000000E+01
	 2.00000000E+01
	 2.00000000E+01
	 2.00000000E+01
	 2.00000000E+01
	 2.00000000E+01
	 2.00000000E+01
	 2.00000000E+01
	 2.00000000E+01
	 2.00000000E+01
	 2.00000000E+01
	 2.00000000E+01
	 2.00000000E+01
	 2.00000000E+01
	 2.00000000E+01
	 2.00000000E+01
	 2.00000000E+01
	 2.00000000E+01
	 2.00000000E+01
	 2.00000000E+01
	 2.00000000E+01
	 2.00000000E+01
	 2.00000000E+01
	 2.00000000E+01
	 2.00000000E+01
	 2.00000000E+01
	 2.00000000E+01
	 2.00000000E+01
	 2.00000000E+01
	 2.00000000E+01
	 2.00000000E+01
	 2.00000000E+01
	 2.00000000E+01
	 2.00000000E+01
	 2.00000000E+01
	 2.00000000E+01
	 2.00000000E+01
	 2.00000000E+01
	 2.00000000E+01
	 2.00000000E+01
	 2.00000000E+01
	 2.00000000E+01
	 2.00000000E+01
	 2.00000000E+01
	 2.00000000E+01
	 2.00000000E+01
	 2.00000000E+01
	 2.00000000E+01
	 2.00000000E+01
	 2.00000000E+01
	 2.00000000E+01
	 2.00000000E+01
	 2.00000000E+01
	 2.00000000E+01
	 2.00000000E+01
	 2.00000000E+01
	 2.00000000E+01
	 2.00000000E+01
	 2.00000000E+01
	 2.00000000E+01
	 2.00000000E+01
	 2.00000000E+01
	 2.00000000E+01
	 2.00000000E+01
	 2.00000000E+01
	 2.00000000E+01
	 2.00000000E+01
	 2.00000000E+01
	 2.00000000E+01
	 2.00000000E+01
	 2.00000000E+01
	 2.00000000E+01
	 2.00000000E+01
	 2.00000000E+01
	 2.00000000E+01
	 2.00000000E+01
	 2.00000000E+01
	 2.00000000E+01
	 2.00000000E+01
	 2.00000000E+01
	 2.00000000E+01
	 2.00000000E+01
	 2.00000000E+01
	 2.00000000E+01
	 2.00000000E+01
	 2.00000000E+01
	 2.00000000E+01
	 2.00000000E+01
	 2.00000000E+01
	 2.00000000E+01
	 2.00000000E+01
	 2.00000000E+01
	 2.00000000E+01
	 2.00000000E+01
	 2.00000000E+01
	 2.00000000E+01
	 2.00000000E+01
	 2.00000000E+01
	 2.00000000E+01
	 2.00000000E+01
	 2.00000000E+01
	 2.00000000E+01
	 2.00000000E+01
	 2.00000000E+01
	 2.00000000E+01
	 2.00000000E+01
	 2.00000000E+01
	 2.00000000E+01
	 2.00000000E+01
	 2.00000000E+01
	 2.00000000E+01
	 2.00000000E+01
	 2.00000000E+01
	 2.00000000E+01
	 2.00000000E+01
	 2.00000000E+01
	 2.00000000E+01
	 2.00000000E+01
	 2.00000000E+01
	 2.00000000E+01
	 2.00000000E+01
	 2.00000000E+01
	 2.00000000E+01
	 2.00000000E+01
	 2.00000000E+01
	 2.00000000E+01
	 2.00000000E+01
	 2.00000000E+01
	 2.00000000E+01
	 2.00000000E+01
	 2.00000000E+01
	 2.00000000E+01
	 2.00000000E+01
	 2.00000000E+01
	 2.00000000E+01
	 2.00000000E+01
	 2.00000000E+01
	 2.00000000E+01
	 2.00000000E+01
	 2.00000000E+01
	 2.00000000E+01
	 2.00000000E+01
	 2.00000000E+01
	 2.00000000E+01
	 2.00000000E+01
	 2.00000000E+01
	 2.00000000E+01
	 2.00000000E+01
	 2.00000000E+01
	 2.00000000E+01
	 2.00000000E+01
	 2.00000000E+01
	 2.00000000E+01
	 2.00000000E+01
	 2.00000000E+01
	 2.00000000E+01
	 2.00000000E+01
	 2.00000000E+01
	 2.00000000E+01
	 2.00000000E+01
	 2.00000000E+01
	 2.00000000E+01
	 2.00000000E+01
	 2.00000000E+01
	 2.00000000E+01
	 2.00000000E+01
	 2.00000000E+01
	 2.00000000E+01
	 2.00000000E+01
	 2.00000000E+01
	 2.00000000E+01
	 2.00000000E+01
	 2.00000000E+01
	 2.00000000E+01
	 2.00000000E+01
	 2.00000000E+01
	 2.00000000E+01
	 2.00000000E+01
	 2.00000000E+01
	 2.00000000E+01
	 2.00000000E+01
	 2.00000000E+01
	 2.00000000E+01
	 2.00000000E+01
	 2.00000000E+01
	 2.00000000E+01
	 2.00000000E+01
	 2.00000000E+01
	 2.00000000E+01
	 2.00000000E+01
	 2.00000000E+01
	 2.00000000E+01
	 2.00000000E+01
	 2.00000000E+01
	 2.00000000E+01
	 2.00000000E+01
	 2.00000000E+01
	 2.00000000E+01
	 2.00000000E+01
	 2.00000000E+01
	 2.00000000E+01
	 2.00000000E+01
	 2.00000000E+01
	 2.00000000E+01
	 2.00000000E+01
	 2.00000000E+01
	 2.00000000E+01
	 2.00000000E+01
	 2.00000000E+01
	 2.00000000E+01
	 2.00000000E+01
	 2.00000000E+01
	 2.00000000E+01
	 2.00000000E+01
	 2.00000000E+01
	 2.00000000E+01
	 2.00000000E+01
	 2.00000000E+01
	 2.00000000E+01
	 2.00000000E+01
	 2.00000000E+01
	 2.00000000E+01
	 2.00000000E+01
	 2.00000000E+01
	 2.00000000E+01
	 2.00000000E+01
	 2.00000000E+01
	 2.00000000E+01
	 2.00000000E+01
	 2.00000000E+01
	 2.00000000E+01
	 2.00000000E+01
	 2.00000000E+01
	 2.00000000E+01
	 2.00000000E+01
	 2.00000000E+01
	 2.00000000E+01
	 2.00000000E+01
	 2.00000000E+01
	 2.00000000E+01
	 2.00000000E+01
	 2.00000000E+01
	 2.00000000E+01
	 2.00000000E+01
	 2.00000000E+01
	 2.00000000E+01
	 2.00000000E+01
	 2.00000000E+01
	 2.00000000E+01
	 2.00000000E+01
	 2.00000000E+01
	 2.00000000E+01
	 2.00000000E+01
	 2.00000000E+01
	 2.00000000E+01
	 2.00000000E+01
	 2.00000000E+01
	 2.00000000E+01
	 2.00000000E+01
	 2.00000000E+01
	 2.00000000E+01
	 2.00000000E+01
	 2.00000000E+01
	 2.00000000E+01
	 2.00000000E+01
	 2.00000000E+01
	 2.00000000E+01
	 2.00000000E+01
	 2.00000000E+01
	 2.00000000E+01
	 2.00000000E+01
	 2.00000000E+01
	 2.00000000E+01
	 2.00000000E+01
	 2.00000000E+01
	 2.00000000E+01
	 2.00000000E+01
	 2.00000000E+01
	 2.00000000E+01
	 2.00000000E+01
	 2.00000000E+01
	 2.00000000E+01
	 2.00000000E+01
	 2.00000000E+01
	 2.00000000E+01
	 2.00000000E+01
	 2.00000000E+01
	 2.00000000E+01
	 2.00000000E+01
	 2.00000000E+01
	 2.00000000E+01
	 2.00000000E+01
	 2.00000000E+01
	 2.00000000E+01
	 2.00000000E+01
	 2.00000000E+01
	 2.00000000E+01
	 2.00000000E+01
	 2.00000000E+01
	 2.00000000E+01
	 2.00000000E+01
	 2.00000000E+01
	 2.00000000E+01
	 2.00000000E+01
	 2.00000000E+01
	 2.00000000E+01
	 2.00000000E+01
	 2.00000000E+01
	 2.00000000E+01
	 2.00000000E+01
	 2.00000000E+01
	 2.00000000E+01
	 2.00000000E+01
	 2.00000000E+01
	 2.00000000E+01
	 2.00000000E+01
	 2.00000000E+01
	 2.00000000E+01
	 2.00000000E+01
	 2.00000000E+01
	 2.00000000E+01
	 2.00000000E+01
	 2.00000000E+01
	 2.00000000E+01
	 2.00000000E+01
	 2.00000000E+01
	 2.00000000E+01
	 2.00000000E+01
	 2.00000000E+01
	 2.00000000E+01
	 2.00000000E+01
	 2.00000000E+01
	 2.00000000E+01
	 2.00000000E+01
	 2.00000000E+01
	 2.00000000E+01
	 2.00000000E+01
	 2.00000000E+01
	 2.00000000E+01
	 2.00000000E+01
	 2.00000000E+01
	 2.00000000E+01
	 2.00000000E+01
	 2.00000000E+01
	 2.00000000E+01
	 2.00000000E+01
	 2.00000000E+01
	 2.00000000E+01
	 2.00000000E+01
	 2.00000000E+01
	 2.00000000E+01
	 2.00000000E+01
	 2.00000000E+01
	 2.00000000E+01
	 2.00000000E+01
	 2.00000000E+01
	 2.00000000E+01
	 2.00000000E+01
	 2.00000000E+01
	 2.00000000E+01
	 2.00000000E+01
	 2.00000000E+01
	 2.00000000E+01
	 2.00000000E+01
	 2.00000000E+01
	 2.00000000E+01
	 2.00000000E+01
	 2.00000000E+01
	 2.00000000E+01
	 2.00000000E+01
	 2.00000000E+01
	 2.00000000E+01
	 2.00000000E+01
	 2.00000000E+01
	 2.00000000E+01
	 2.00000000E+01
	 2.00000000E+01
	 2.00000000E+01
	 2.00000000E+01
	 2.00000000E+01
	 2.00000000E+01
	 2.00000000E+01
	 2.00000000E+01
	 2.00000000E+01
	 2.00000000E+01
	 2.00000000E+01
	 2.00000000E+01
	 2.00000000E+01
	 2.00000000E+01
	 2.00000000E+01
	 2.00000000E+01
	 2.00000000E+01
	 2.00000000E+01
	 2.00000000E+01
	 2.00000000E+01
	 2.00000000E+01
	 2.00000000E+01
	 2.00000000E+01
	 2.00000000E+01
	 2.00000000E+01
	 2.00000000E+01
	 2.00000000E+01
	 2.00000000E+01
	 2.00000000E+01
	 2.00000000E+01
	 2.00000000E+01
	 2.00000000E+01
	 2.00000000E+01
	 2.00000000E+01
	 2.00000000E+01
	 2.00000000E+01
	 2.00000000E+01
	 2.00000000E+01
	 2.00000000E+01
	 2.00000000E+01
	 2.00000000E+01
	 2.00000000E+01
	 2.00000000E+01
	 2.00000000E+01
	 2.00000000E+01
	 2.00000000E+01
	 2.00000000E+01
	 2.00000000E+01
	 2.00000000E+01
	 2.00000000E+01
	 2.00000000E+01
	 2.00000000E+01
	 2.00000000E+01
	 2.00000000E+01
	 2.00000000E+01
	 2.00000000E+01
	 2.00000000E+01
	 2.00000000E+01
	 2.00000000E+01
	 2.00000000E+01
	 2.00000000E+01
	 2.00000000E+01
	 2.00000000E+01
	 2.00000000E+01
	 2.00000000E+01
	 2.00000000E+01
	 2.00000000E+01
	 2.00000000E+01
	 2.00000000E+01
	 2.00000000E+01
	 2.00000000E+01
	 2.00000000E+01
	 2.00000000E+01
	 2.00000000E+01
	 2.00000000E+01
	 2.00000000E+01
	 2.00000000E+01
	 2.00000000E+01
	 2.00000000E+01
	 2.00000000E+01
	 2.00000000E+01
	 2.00000000E+01
	 2.00000000E+01
	 2.00000000E+01
	 2.00000000E+01
	 2.00000000E+01
	 2.00000000E+01
	 2.00000000E+01
	 2.00000000E+01
	 2.00000000E+01
	 2.00000000E+01
	 2.00000000E+01
	 2.00000000E+01
	 2.00000000E+01
	 2.00000000E+01
	 2.00000000E+01
	 2.00000000E+01
	 2.00000000E+01
	 2.00000000E+01
	 2.00000000E+01
	 2.00000000E+01
	 2.00000000E+01
	 2.00000000E+01
	 2.00000000E+01
	 2.00000000E+01
	 2.00000000E+01
	 2.00000000E+01
	 2.00000000E+01
	 2.00000000E+01
	 2.00000000E+01
	 2.00000000E+01
	 2.00000000E+01
	 2.00000000E+01
	 2.00000000E+01
	 2.00000000E+01
	 2.00000000E+01
	 2.00000000E+01
	 2.00000000E+01
	 2.00000000E+01
	 2.00000000E+01
	 2.00000000E+01
	 2.00000000E+01
	 2.00000000E+01
	 2.00000000E+01
	 2.00000000E+01
	 2.00000000E+01
	 2.00000000E+01
	 2.00000000E+01
	 2.00000000E+01
	 2.00000000E+01
	 2.00000000E+01
	 2.00000000E+01
	 2.00000000E+01
	 2.00000000E+01
	 2.00000000E+01
	 2.00000000E+01
	 2.00000000E+01
	 2.00000000E+01
	 2.00000000E+01
	 2.00000000E+01
	 2.00000000E+01
	 2.00000000E+01
	 2.00000000E+01
	 2.00000000E+01
	 2.00000000E+01
	 2.00000000E+01
	 2.00000000E+01
	 2.00000000E+01
	 2.00000000E+01
	 2.00000000E+01
	 2.00000000E+01
	 2.00000000E+01
	 2.00000000E+01
	 2.00000000E+01
	 2.00000000E+01
	 2.00000000E+01
	 2.00000000E+01
	 2.00000000E+01
	 2.00000000E+01
	 2.00000000E+01
	 2.00000000E+01
	 2.00000000E+01
	 2.00000000E+01
	 2.00000000E+01
	 2.00000000E+01
	 2.00000000E+01
	 2.00000000E+01
	 2.00000000E+01
	 2.00000000E+01
	 2.00000000E+01
	 2.00000000E+01
	 2.00000000E+01
	 2.00000000E+01
	 2.00000000E+01
	 2.00000000E+01
	 2.00000000E+01
	 2.00000000E+01
	 2.00000000E+01
	 2.00000000E+01
	 2.00000000E+01
	 2.00000000E+01
	 2.00000000E+01
	 2.00000000E+01
	 2.00000000E+01
	 2.00000000E+01
	 2.00000000E+01
	 2.00000000E+01
	 2.00000000E+01
	 2.00000000E+01
	 2.00000000E+01
	 2.00000000E+01
	 2.00000000E+01
	 2.00000000E+01
	 2.00000000E+01
	 2.00000000E+01
	 2.00000000E+01
	 2.00000000E+01
	 2.00000000E+01
	 2.00000000E+01
	 2.00000000E+01
	 2.00000000E+01
	 2.00000000E+01
	 2.00000000E+01
	 2.00000000E+01
	 2.00000000E+01
	 2.00000000E+01
	 2.00000000E+01
	 2.00000000E+01
	 2.00000000E+01
	 2.00000000E+01
	 2.00000000E+01
	 2.00000000E+01
	 2.00000000E+01
	 2.00000000E+01
	 2.00000000E+01
	 2.00000000E+01
	 2.00000000E+01
	 2.00000000E+01
	 2.00000000E+01
	 2.00000000E+01
	 2.00000000E+01
	 2.00000000E+01
	 2.00000000E+01
	 2.00000000E+01
	 2.00000000E+01
	 2.00000000E+01
	 2.00000000E+01
	 2.00000000E+01
	 2.00000000E+01
	 2.00000000E+01
	 2.00000000E+01
	 2.00000000E+01
	 2.00000000E+01
	 2.00000000E+01
	 2.00000000E+01
	 2.00000000E+01
	 2.00000000E+01
	 2.00000000E+01
	 2.00000000E+01
	 2.00000000E+01
	 2.00000000E+01
	 2.00000000E+01
	 2.00000000E+01
	 2.00000000E+01
	 2.00000000E+01
	 2.00000000E+01
	 2.00000000E+01
	 2.00000000E+01
	 2.00000000E+01
	 2.00000000E+01
	 2.00000000E+01
	 2.00000000E+01
	 2.00000000E+01
	 2.00000000E+01
	 2.00000000E+01
	 2.00000000E+01
	 2.00000000E+01
	 2.00000000E+01
	 2.00000000E+01
	 2.00000000E+01
	 2.00000000E+01
	 2.00000000E+01
	 2.00000000E+01
	 2.00000000E+01
	 2.00000000E+01
	 2.00000000E+01
	 2.00000000E+01
	 2.00000000E+01
	 2.00000000E+01
	 2.00000000E+01
	 2.00000000E+01
	 2.00000000E+01
	 2.00000000E+01
	 2.00000000E+01
	 2.00000000E+01
	 2.00000000E+01
	 2.00000000E+01
	 2.00000000E+01
	 2.00000000E+01
	 2.00000000E+01
	 2.00000000E+01
	 2.00000000E+01
	 2.00000000E+01
	 2.00000000E+01
	 2.00000000E+01
	 2.00000000E+01
	 2.00000000E+01
	 2.00000000E+01
	 2.00000000E+01
	 2.00000000E+01
	 2.00000000E+01
	 2.00000000E+01
	 2.00000000E+01
	 2.00000000E+01
	 2.00000000E+01
	 2.00000000E+01
	 2.00000000E+01
	 2.00000000E+01
	 2.00000000E+01
	 2.00000000E+01
	 2.00000000E+01
	 2.00000000E+01
	 2.00000000E+01
	 2.00000000E+01
	 2.00000000E+01
	 2.00000000E+01
	 2.00000000E+01
	 2.00000000E+01
	 2.00000000E+01
	 2.00000000E+01
	 2.00000000E+01
	 2.00000000E+01
	 2.00000000E+01
	 2.00000000E+01
	 2.00000000E+01
	 2.00000000E+01
	 2.00000000E+01
	 2.00000000E+01
	 2.00000000E+01
	 2.00000000E+01
	 2.00000000E+01
	 2.00000000E+01
	 2.00000000E+01
	 2.00000000E+01
	 2.00000000E+01
	 2.00000000E+01
	 2.00000000E+01
	 2.00000000E+01
	 2.00000000E+01
	 2.00000000E+01
	 2.00000000E+01
	 2.00000000E+01
	 2.00000000E+01
	 2.00000000E+01
	 2.00000000E+01
	 2.00000000E+01
	 2.00000000E+01
	 2.00000000E+01
	 2.00000000E+01
	 2.00000000E+01
	 2.00000000E+01
	 2.00000000E+01
	 2.00000000E+01
	 2.00000000E+01
	 2.00000000E+01
	 2.00000000E+01
	 2.00000000E+01
	 2.00000000E+01
	 2.00000000E+01
	 2.00000000E+01
	 2.00000000E+01
	 2.00000000E+01
	 2.00000000E+01
	 2.00000000E+01
	 2.00000000E+01
	 2.00000000E+01
	 2.00000000E+01
	 2.00000000E+01
	 2.00000000E+01
	 2.00000000E+01
	 2.00000000E+01
	 2.00000000E+01
	 2.00000000E+01
	 2.00000000E+01
	 2.00000000E+01
	 2.00000000E+01
	 2.00000000E+01
	 2.00000000E+01
	 2.00000000E+01
	 2.00000000E+01
	 2.00000000E+01
	 2.00000000E+01
	 2.00000000E+01
	 2.00000000E+01
	 2.00000000E+01
	 2.00000000E+01
	 2.00000000E+01
	 2.00000000E+01
	 2.00000000E+01
	 2.00000000E+01
	 2.00000000E+01
	 2.00000000E+01
	 2.00000000E+01
	 2.00000000E+01
	 2.00000000E+01
	 2.00000000E+01
	 2.00000000E+01
	 2.00000000E+01
	 2.00000000E+01
	 2.00000000E+01
	 2.00000000E+01
	 2.00000000E+01
	 2.00000000E+01
	 2.00000000E+01
	 2.00000000E+01
	 2.00000000E+01
	 2.00000000E+01
	 2.00000000E+01
	 2.00000000E+01
	 2.00000000E+01
	 2.00000000E+01
	 2.00000000E+01
	 2.00000000E+01
	 2.00000000E+01
	 2.00000000E+01
	 2.00000000E+01
	 2.00000000E+01
	 2.00000000E+01
	 2.00000000E+01
	 2.00000000E+01
	 2.00000000E+01
	 2.00000000E+01
	 2.00000000E+01
	 2.00000000E+01
	 2.00000000E+01
	 2.00000000E+01
	 2.00000000E+01
	 2.00000000E+01
	 2.00000000E+01
	 2.00000000E+01
	 2.00000000E+01
	 2.00000000E+01
	 2.00000000E+01
	 2.00000000E+01
	 2.00000000E+01
	 2.00000000E+01
	 2.00000000E+01
	 2.00000000E+01
	 2.00000000E+01
	 2.00000000E+01
	 2.00000000E+01
	 2.00000000E+01
	 2.00000000E+01
	 2.00000000E+01
	 2.00000000E+01
	 2.00000000E+01
	 2.00000000E+01
	 2.00000000E+01
	 2.00000000E+01
	 2.00000000E+01
	 2.00000000E+01
	 2.00000000E+01
	 2.00000000E+01
	 2.00000000E+01
	 2.00000000E+01
	 2.00000000E+01
	 2.00000000E+01
	 2.00000000E+01
	 2.00000000E+01
	 2.00000000E+01
	 2.00000000E+01
	 2.00000000E+01
	 2.00000000E+01
	 2.00000000E+01
	 2.00000000E+01
	 2.00000000E+01
	 2.00000000E+01
	 2.00000000E+01
	 2.00000000E+01
	 2.00000000E+01
	 2.00000000E+01
	 2.00000000E+01
	 2.00000000E+01
	 2.00000000E+01
	 2.00000000E+01
	 2.00000000E+01
	 2.00000000E+01
	 2.00000000E+01
	 2.00000000E+01
	 2.00000000E+01
	 2.00000000E+01
	 2.00000000E+01
	 2.00000000E+01
	 2.00000000E+01
	 2.00000000E+01
	 2.00000000E+01
	 2.00000000E+01
	 2.00000000E+01
	 2.00000000E+01
	 2.00000000E+01
	 2.00000000E+01
	 2.00000000E+01
	 2.00000000E+01
	 2.00000000E+01
	 2.00000000E+01
	 2.00000000E+01
	 2.00000000E+01
	 2.00000000E+01
	 2.00000000E+01
	 2.00000000E+01
	 2.00000000E+01
	 2.00000000E+01
	 2.00000000E+01
	 2.00000000E+01
	 2.00000000E+01
	 2.00000000E+01
	 2.00000000E+01
	 2.00000000E+01
	 2.00000000E+01
	 2.00000000E+01
	 2.00000000E+01
	 2.00000000E+01
	 2.00000000E+01
	 2.00000000E+01
	 2.00000000E+01
	 2.00000000E+01
	 2.00000000E+01
	 2.00000000E+01
	 2.00000000E+01
	 2.00000000E+01
	 2.00000000E+01
	 2.00000000E+01
	 2.00000000E+01
	 2.00000000E+01
	 2.00000000E+01
	 2.00000000E+01
	 2.00000000E+01
	 2.00000000E+01
	 2.00000000E+01
	 2.00000000E+01
	 2.00000000E+01
	 2.00000000E+01
	 2.00000000E+01
	 2.00000000E+01
	 2.00000000E+01
	 2.00000000E+01
	 2.00000000E+01
	 2.00000000E+01
	 2.00000000E+01
	 2.00000000E+01
	 2.00000000E+01
	 2.00000000E+01
	 2.00000000E+01
	 2.00000000E+01
	 2.00000000E+01
	 2.00000000E+01
	 2.00000000E+01
	 2.00000000E+01
	 2.00000000E+01
	 2.00000000E+01
	 2.00000000E+01
	 2.00000000E+01
	 2.00000000E+01
	 2.00000000E+01
	 2.00000000E+01
	 2.00000000E+01
	 2.00000000E+01
	 2.00000000E+01
	 2.00000000E+01
	 2.00000000E+01
	 2.00000000E+01
	 2.00000000E+01
	 2.00000000E+01
	 2.00000000E+01
	 2.00000000E+01
	 2.00000000E+01
	 2.00000000E+01
	 2.00000000E+01
	 2.00000000E+01
	 2.00000000E+01
	 2.00000000E+01
	 2.00000000E+01
	 2.00000000E+01
	 2.00000000E+01
	 2.00000000E+01
	 2.00000000E+01
	 2.00000000E+01
	 2.00000000E+01
	 2.00000000E+01
	 2.00000000E+01
	 2.00000000E+01
	 2.00000000E+01
	 2.00000000E+01
	 2.00000000E+01
	 2.00000000E+01
	 2.00000000E+01
	 2.00000000E+01
	 2.00000000E+01
	 2.00000000E+01
	 2.00000000E+01
	 2.00000000E+01
	 2.00000000E+01
	 2.00000000E+01
	 2.00000000E+01
	 2.00000000E+01
	 2.00000000E+01
	 2.00000000E+01
	 2.00000000E+01
	 2.00000000E+01
	 2.00000000E+01
	 2.00000000E+01
	 2.00000000E+01
	 2.00000000E+01
	 2.00000000E+01
	 2.00000000E+01
	 2.00000000E+01
	 2.00000000E+01
	 2.00000000E+01
	 2.00000000E+01
	 2.00000000E+01
	 2.00000000E+01
	 2.00000000E+01
	 2.00000000E+01
	 2.00000000E+01
	 2.00000000E+01
	 2.00000000E+01
	 2.00000000E+01
	 2.00000000E+01
	 2.00000000E+01
	 2.00000000E+01
	 2.00000000E+01
	 2.00000000E+01
	 2.00000000E+01
	 2.00000000E+01
	 2.00000000E+01
	 2.00000000E+01
	 2.00000000E+01
	 2.00000000E+01
	 2.00000000E+01
	 2.00000000E+01
	 2.00000000E+01
	 2.00000000E+01
	 2.00000000E+01
	 2.00000000E+01
	 2.00000000E+01
	 2.00000000E+01
	 2.00000000E+01
	 2.00000000E+01
	 2.00000000E+01
	 2.00000000E+01
	 2.00000000E+01
	 2.00000000E+01
	 2.00000000E+01
	 2.00000000E+01
	 2.00000000E+01
	 2.00000000E+01
	 2.00000000E+01
	 2.00000000E+01
	 2.00000000E+01
	 2.00000000E+01
	 2.00000000E+01
	 2.00000000E+01
	 2.00000000E+01
	 2.00000000E+01
	 2.00000000E+01
	 2.00000000E+01
	 2.00000000E+01
	 2.00000000E+01
	 2.00000000E+01
	 2.00000000E+01
	 2.00000000E+01
	 2.00000000E+01
	 2.00000000E+01
	 2.00000000E+01
	 2.00000000E+01
	 2.00000000E+01
	 2.00000000E+01
	 2.00000000E+01
	 2.00000000E+01
	 2.00000000E+01
	 2.00000000E+01
	 2.00000000E+01
	 2.00000000E+01
	 2.00000000E+01
	 2.00000000E+01
	 2.00000000E+01
	 2.00000000E+01
	 2.00000000E+01
	 2.00000000E+01
	 2.00000000E+01
	 2.00000000E+01
	 2.00000000E+01
	 2.00000000E+01
	 2.00000000E+01
	 2.00000000E+01
	 2.00000000E+01
	 2.00000000E+01
	 2.00000000E+01
	 2.00000000E+01
	 2.00000000E+01
	 2.00000000E+01
	 2.00000000E+01
	 2.00000000E+01
	 2.00000000E+01
	 2.00000000E+01
	 2.00000000E+01
	 2.00000000E+01
	 2.00000000E+01
	 2.00000000E+01
	 2.00000000E+01
	 2.00000000E+01
	 2.00000000E+01
	 2.00000000E+01
	 2.00000000E+01
	 2.00000000E+01
	 2.00000000E+01
	 2.00000000E+01
	 2.00000000E+01
	 2.00000000E+01
	 2.00000000E+01
	 2.00000000E+01
	 2.00000000E+01
	 2.00000000E+01
	 2.00000000E+01
	 2.00000000E+01
	 2.00000000E+01
	 2.00000000E+01
	 2.00000000E+01
	 2.00000000E+01
	 2.00000000E+01
	 2.00000000E+01
	 2.00000000E+01
	 2.00000000E+01
	 2.00000000E+01
	 2.00000000E+01
	 2.00000000E+01
	 2.00000000E+01
	 2.00000000E+01
	 2.00000000E+01
	 2.00000000E+01
	 2.00000000E+01
	 2.00000000E+01
	 2.00000000E+01
	 2.00000000E+01
	 2.00000000E+01
	 2.00000000E+01
	 2.00000000E+01
	 2.00000000E+01
	 2.00000000E+01
	 2.00000000E+01
	 2.00000000E+01
	 2.00000000E+01
	 2.00000000E+01
	 2.00000000E+01
	 2.00000000E+01
	 2.00000000E+01
	 2.00000000E+01
	 2.00000000E+01
	 2.00000000E+01
	 2.00000000E+01
	 2.00000000E+01
	 2.00000000E+01
	 2.00000000E+01
	 2.00000000E+01
	 2.00000000E+01
	 2.00000000E+01
	 2.00000000E+01
	 2.00000000E+01
	 2.00000000E+01
	 2.00000000E+01
	 2.00000000E+01
	 2.00000000E+01
	 2.00000000E+01
	 2.00000000E+01
	 2.00000000E+01
	 2.00000000E+01
	 2.00000000E+01
	 2.00000000E+01
	 2.00000000E+01
	 2.00000000E+01
	 2.00000000E+01
	 2.00000000E+01
	 2.00000000E+01
	 2.00000000E+01
	 2.00000000E+01
	 2.00000000E+01
	 2.00000000E+01
	 2.00000000E+01
	 2.00000000E+01
	 2.00000000E+01
	 2.00000000E+01
	 2.00000000E+01
	 2.00000000E+01
	 2.00000000E+01
	 2.00000000E+01
	 2.00000000E+01
	 2.00000000E+01
	 2.00000000E+01
	 2.00000000E+01
	 2.00000000E+01
	 2.00000000E+01
	 2.00000000E+01
	 2.00000000E+01
	 2.00000000E+01
	 2.00000000E+01
	 2.00000000E+01
	 2.00000000E+01
	 2.00000000E+01
	 2.00000000E+01
	 2.00000000E+01
	 2.00000000E+01
	 2.00000000E+01
	 2.00000000E+01
	 2.00000000E+01
	 2.00000000E+01
	 2.00000000E+01
	 2.00000000E+01
	 2.00000000E+01
	 2.00000000E+01
	 2.00000000E+01
	 2.00000000E+01
	 2.00000000E+01
	 2.00000000E+01
	 2.00000000E+01
	 2.00000000E+01
	 2.00000000E+01
	 2.00000000E+01
	 2.00000000E+01
	 2.00000000E+01
	 2.00000000E+01
	 2.00000000E+01
	 2.00000000E+01
	 2.00000000E+01
	 2.00000000E+01
	 2.00000000E+01
	 2.00000000E+01
	 2.00000000E+01
	 2.00000000E+01
	 2.00000000E+01
	 2.00000000E+01
	 2.00000000E+01
	 2.00000000E+01
	 2.00000000E+01
	 2.00000000E+01
	 2.00000000E+01
	 2.00000000E+01
	 2.00000000E+01
	 2.00000000E+01
	 2.00000000E+01
	 2.00000000E+01
	 2.00000000E+01
	 2.00000000E+01
	 2.00000000E+01
	 2.00000000E+01
	 2.00000000E+01
	 2.00000000E+01
	 2.00000000E+01
	 2.00000000E+01
	 2.00000000E+01
	 2.00000000E+01
	 2.00000000E+01
	 2.00000000E+01
	 2.00000000E+01
	 2.00000000E+01
	 2.00000000E+01
	 2.00000000E+01
	 2.00000000E+01
	 2.00000000E+01
	 2.00000000E+01
	 2.00000000E+01
	 2.00000000E+01
	 2.00000000E+01
	 2.00000000E+01
	 2.00000000E+01
	 2.00000000E+01
	 2.00000000E+01
	 2.00000000E+01
	 2.00000000E+01
	 2.00000000E+01
	 2.00000000E+01
	 2.00000000E+01
	 2.00000000E+01
	 2.00000000E+01
	 2.00000000E+01
	 2.00000000E+01
	 2.00000000E+01
	 2.00000000E+01
	 2.00000000E+01
	 2.00000000E+01
	 2.00000000E+01
	 2.00000000E+01
	 2.00000000E+01
	 2.00000000E+01
	 2.00000000E+01
	 2.00000000E+01
	 2.00000000E+01
	 2.00000000E+01
	 2.00000000E+01
	 2.00000000E+01
	 2.00000000E+01
	 2.00000000E+01
	 2.00000000E+01
	 2.00000000E+01
	 2.00000000E+01
	 2.00000000E+01
	 2.00000000E+01
	 2.00000000E+01
	 2.00000000E+01
	 2.00000000E+01
	 2.00000000E+01
	 2.00000000E+01
	 2.00000000E+01
	 2.00000000E+01
	 2.00000000E+01
	 2.00000000E+01
	 2.00000000E+01
	 2.00000000E+01
	 2.00000000E+01
	 2.00000000E+01
	 2.00000000E+01
	 2.00000000E+01
	 2.00000000E+01
	 2.00000000E+01
	 2.00000000E+01
	 2.00000000E+01
	 2.00000000E+01
	 2.00000000E+01
	 2.00000000E+01
	 2.00000000E+01
	 2.00000000E+01
	 2.00000000E+01
	 2.00000000E+01
	 2.00000000E+01
	 2.00000000E+01
	 2.00000000E+01
	 2.00000000E+01
	 2.00000000E+01
	 2.00000000E+01
	 2.00000000E+01
	 2.00000000E+01
	 2.00000000E+01
	 2.00000000E+01
	 2.00000000E+01
	 2.00000000E+01
	 2.00000000E+01
	 2.00000000E+01
	 2.00000000E+01
	 2.00000000E+01
	 2.00000000E+01
	 2.00000000E+01
	 2.00000000E+01
	 2.00000000E+01
	 2.00000000E+01
	 2.00000000E+01
	 2.00000000E+01
	 2.00000000E+01
	 2.00000000E+01
	 2.00000000E+01
	 2.00000000E+01
	 2.00000000E+01
	 2.00000000E+01
	 2.00000000E+01
	 2.00000000E+01
	 2.00000000E+01
	 2.00000000E+01
	 2.00000000E+01
	 2.00000000E+01
	 2.00000000E+01
	 2.00000000E+01
	 2.00000000E+01
	 2.00000000E+01
	 2.00000000E+01
	 2.00000000E+01
	 2.00000000E+01
	 2.00000000E+01
	 2.00000000E+01
	 2.00000000E+01
	 2.00000000E+01
	 2.00000000E+01
	 2.00000000E+01
	 2.00000000E+01
	 2.00000000E+01
	 2.00000000E+01
	 2.00000000E+01
	 2.00000000E+01
	 2.00000000E+01
	 2.00000000E+01
	 2.00000000E+01
	 2.00000000E+01
	 2.00000000E+01
	 2.00000000E+01
	 2.00000000E+01
	 2.00000000E+01
	 2.00000000E+01
	 2.00000000E+01
	 2.00000000E+01
	 2.00000000E+01
	 2.00000000E+01
	 2.00000000E+01
	 2.00000000E+01
	 2.00000000E+01
	 2.00000000E+01
	 2.00000000E+01
	 2.00000000E+01
	 2.00000000E+01
	 2.00000000E+01
	 2.00000000E+01
	 2.00000000E+01
	 2.00000000E+01
	 2.00000000E+01
	 2.00000000E+01
	 2.00000000E+01
	 2.00000000E+01
	 2.00000000E+01
	 2.00000000E+01
	 2.00000000E+01
	 2.00000000E+01
	 2.00000000E+01
	 2.00000000E+01
	 2.00000000E+01
	 2.00000000E+01
	 2.00000000E+01
	 2.00000000E+01
	 2.00000000E+01
	 2.00000000E+01
	 2.00000000E+01
	 2.00000000E+01
	 2.00000000E+01
	 2.00000000E+01
	 2.00000000E+01
	 2.00000000E+01
	 2.00000000E+01
	 2.00000000E+01
	 2.00000000E+01
	 2.00000000E+01
	 2.00000000E+01
	 2.00000000E+01
	 2.00000000E+01
	 2.00000000E+01
	 2.00000000E+01
	 2.00000000E+01
	 2.00000000E+01
	 2.00000000E+01
	 2.00000000E+01
	 2.00000000E+01
	 2.00000000E+01
	 2.00000000E+01
	 2.00000000E+01
	 2.00000000E+01
	 2.00000000E+01
	 2.00000000E+01
	 2.00000000E+01
	 2.00000000E+01
	 2.00000000E+01
	 2.00000000E+01
	 2.00000000E+01
	 2.00000000E+01
	 2.00000000E+01
	 2.00000000E+01
	 2.00000000E+01
	 2.00000000E+01
	 2.00000000E+01
	 2.00000000E+01
	 2.00000000E+01
	 2.00000000E+01
	 2.00000000E+01
	 2.00000000E+01
	 2.00000000E+01
	 2.00000000E+01
	 2.00000000E+01
	 2.00000000E+01
	 2.00000000E+01
	 2.00000000E+01
	 2.00000000E+01
	 2.00000000E+01
	 2.00000000E+01
	 2.00000000E+01
	 2.00000000E+01
	 2.00000000E+01
	 2.00000000E+01
	 2.00000000E+01
	 2.00000000E+01
	 2.00000000E+01
	 2.00000000E+01
	 2.00000000E+01
	 2.00000000E+01
	 2.00000000E+01
	 2.00000000E+01
	 2.00000000E+01
	 2.00000000E+01
	 2.00000000E+01
	 2.00000000E+01
	 2.00000000E+01
	 2.00000000E+01
	 2.00000000E+01
	 2.00000000E+01
	 2.00000000E+01
	 2.00000000E+01
	 2.00000000E+01
	 2.00000000E+01
	 2.00000000E+01
	 2.00000000E+01
	 2.00000000E+01
	 2.00000000E+01
	 2.00000000E+01
	 2.00000000E+01
	 2.00000000E+01
	 2.00000000E+01
	 2.00000000E+01
	 2.00000000E+01
	 2.00000000E+01
	 2.00000000E+01
	 2.00000000E+01
	 2.00000000E+01
	 2.00000000E+01
	 2.00000000E+01
	 2.00000000E+01
	 2.00000000E+01
	 2.00000000E+01
	 2.00000000E+01
	 2.00000000E+01
	 2.00000000E+01
	 2.00000000E+01
	 2.00000000E+01
	 2.00000000E+01
	 2.00000000E+01
	 2.00000000E+01
	 2.00000000E+01
	 2.00000000E+01
	 2.00000000E+01
	 2.00000000E+01
	 2.00000000E+01
	 2.00000000E+01
	 2.00000000E+01
	 2.00000000E+01
	 2.00000000E+01
	 2.00000000E+01
	 2.00000000E+01
	 2.00000000E+01
	 2.00000000E+01
	 2.00000000E+01
	 2.00000000E+01
	 2.00000000E+01
	 2.00000000E+01
	 2.00000000E+01
	 2.00000000E+01
	 2.00000000E+01
	 2.00000000E+01
	 2.00000000E+01
	 2.00000000E+01
	 2.00000000E+01
	 2.00000000E+01
	 2.00000000E+01
	 2.00000000E+01
	 2.00000000E+01
	 2.00000000E+01
	 2.00000000E+01
	 2.00000000E+01
	 2.00000000E+01
	 2.00000000E+01
	 2.00000000E+01
	 2.00000000E+01
	 2.00000000E+01
	 2.00000000E+01
	 2.00000000E+01
	 2.00000000E+01
	 2.00000000E+01
	 2.00000000E+01
	 2.00000000E+01
	 2.00000000E+01
	 2.00000000E+01
	 2.00000000E+01
	 2.00000000E+01
	 2.00000000E+01
	 2.00000000E+01
	 2.00000000E+01
	 2.00000000E+01
	 2.00000000E+01
	 2.00000000E+01
	 2.00000000E+01
	 2.00000000E+01
	 2.00000000E+01
	 2.00000000E+01
	 2.00000000E+01
	 2.00000000E+01
	 2.00000000E+01
	 2.00000000E+01
	 2.00000000E+01
	 2.00000000E+01
	 2.00000000E+01
	 2.00000000E+01
	 2.00000000E+01
	 2.00000000E+01
	 2.00000000E+01
	 2.00000000E+01
	 2.00000000E+01
	 2.00000000E+01
	 2.00000000E+01
	 2.00000000E+01
	 2.00000000E+01
	 2.00000000E+01
	 2.00000000E+01
	 2.00000000E+01
	 2.00000000E+01
	 2.00000000E+01
	 2.00000000E+01
	 2.00000000E+01
	 2.00000000E+01
	 2.00000000E+01
	 2.00000000E+01
	 2.00000000E+01
	 2.00000000E+01
	 2.00000000E+01
	 2.00000000E+01
	 2.00000000E+01
	 2.00000000E+01
	 2.00000000E+01
	 2.00000000E+01
	 2.00000000E+01
	 2.00000000E+01
	 2.00000000E+01
	 2.00000000E+01
	 2.00000000E+01
	 2.00000000E+01
	 2.00000000E+01
	 2.00000000E+01
	 2.00000000E+01
	 2.00000000E+01
	 2.00000000E+01
	 2.00000000E+01
	 2.00000000E+01
	 2.00000000E+01
	 2.00000000E+01
	 2.00000000E+01
	 2.00000000E+01
	 2.00000000E+01
	 2.00000000E+01
	 2.00000000E+01
	 2.00000000E+01
	 2.00000000E+01
	 2.00000000E+01
	 2.00000000E+01
	 2.00000000E+01
	 2.00000000E+01
	 2.00000000E+01
	 2.00000000E+01
	 2.00000000E+01
	 2.00000000E+01
	 2.00000000E+01
	 2.00000000E+01
	 2.00000000E+01
	 2.00000000E+01
	 2.00000000E+01
	 2.00000000E+01
	 2.00000000E+01
	 2.00000000E+01
	 2.00000000E+01
	 2.00000000E+01
	 2.00000000E+01
	 2.00000000E+01
	 2.00000000E+01
	 2.00000000E+01
	 2.00000000E+01
	 2.00000000E+01
	 2.00000000E+01
	 2.00000000E+01
	 2.00000000E+01
	 2.00000000E+01
	 2.00000000E+01
	 2.00000000E+01
	 2.00000000E+01
	 2.00000000E+01
	 2.00000000E+01
	 2.00000000E+01
	 2.00000000E+01
	 2.00000000E+01
	 2.00000000E+01
	 2.00000000E+01
	 2.00000000E+01
	 2.00000000E+01
	 2.00000000E+01
	 2.00000000E+01
	 2.00000000E+01
	 2.00000000E+01
	 2.00000000E+01
	 2.00000000E+01
	 2.00000000E+01
	 2.00000000E+01
	 2.00000000E+01
	 2.00000000E+01
	 2.00000000E+01
	 2.00000000E+01
	 2.00000000E+01
	 2.00000000E+01
	 2.00000000E+01
	 2.00000000E+01
	 2.00000000E+01
	 2.00000000E+01
	 2.00000000E+01
	 2.00000000E+01
	 2.00000000E+01
	 2.00000000E+01
	 2.00000000E+01
	 2.00000000E+01
	 2.00000000E+01
	 2.00000000E+01
	 2.00000000E+01
	 2.00000000E+01
	 2.00000000E+01
	 2.00000000E+01
	 2.00000000E+01
	 2.00000000E+01
	 2.00000000E+01
	 2.00000000E+01
	 2.00000000E+01
	 2.00000000E+01
	 2.00000000E+01
	 2.00000000E+01
	 2.00000000E+01
	 2.00000000E+01
	 2.00000000E+01
	 2.00000000E+01
	 2.00000000E+01
	 2.00000000E+01
	 2.00000000E+01
	 2.00000000E+01
	 2.00000000E+01
	 2.00000000E+01
	 2.00000000E+01
	 2.00000000E+01
	 2.00000000E+01
	 2.00000000E+01
	 2.00000000E+01
	 2.00000000E+01
	 2.00000000E+01
	 2.00000000E+01
	 2.00000000E+01
	 2.00000000E+01
	 2.00000000E+01
	 2.00000000E+01
	 2.00000000E+01
	 2.00000000E+01
	 2.00000000E+01
	 2.00000000E+01
	 2.00000000E+01
	 2.00000000E+01
	 2.00000000E+01
	 2.00000000E+01
	 2.00000000E+01
	 2.00000000E+01
	 2.00000000E+01
	 2.00000000E+01
	 2.00000000E+01
	 2.00000000E+01
	 2.00000000E+01
	 2.00000000E+01
	 2.00000000E+01
	 2.00000000E+01
	 2.00000000E+01
	 2.00000000E+01
	 2.00000000E+01
	 2.00000000E+01
	 2.00000000E+01
	 2.00000000E+01
	 2.00000000E+01
	 2.00000000E+01
	 2.00000000E+01
	 2.00000000E+01
	 2.00000000E+01
	 2.00000000E+01
	 2.00000000E+01
	 2.00000000E+01
	 2.00000000E+01
	 2.00000000E+01
	 2.00000000E+01
	 2.00000000E+01
	 2.00000000E+01
	 2.00000000E+01
	 2.00000000E+01
	 2.00000000E+01
	 2.00000000E+01
	 2.00000000E+01
	 2.00000000E+01
	 2.00000000E+01
	 2.00000000E+01
	 2.00000000E+01
	 2.00000000E+01
	 2.00000000E+01
	 2.00000000E+01
	 2.00000000E+01
	 2.00000000E+01
	 2.00000000E+01
	 2.00000000E+01
	 2.00000000E+01
	 2.00000000E+01
	 2.00000000E+01
	 2.00000000E+01
	 2.00000000E+01
	 2.00000000E+01
	 2.00000000E+01
	 2.00000000E+01
	 2.00000000E+01
	 2.00000000E+01
	 2.00000000E+01
	 2.00000000E+01
	 2.00000000E+01
	 2.00000000E+01
	 2.00000000E+01
	 2.00000000E+01
	 2.00000000E+01
	 2.00000000E+01
	 2.00000000E+01
	 2.00000000E+01
	 2.00000000E+01
	 2.00000000E+01
	 2.00000000E+01
	 2.00000000E+01
	 2.00000000E+01
	 2.00000000E+01
	 2.00000000E+01
	 2.00000000E+01
	 2.00000000E+01
	 2.00000000E+01
	 2.00000000E+01
	 2.00000000E+01
	 2.00000000E+01
	 2.00000000E+01
	 2.00000000E+01
	 2.00000000E+01
	 2.00000000E+01
	 2.00000000E+01
	 2.00000000E+01
	 2.00000000E+01
	 2.00000000E+01
	 2.00000000E+01
	 2.00000000E+01
	 2.00000000E+01
	 2.00000000E+01
	 2.00000000E+01
	 2.00000000E+01
	 2.00000000E+01
	 2.00000000E+01
	 2.00000000E+01
	 2.00000000E+01
	 2.00000000E+01
	 2.00000000E+01
	 2.00000000E+01
	 2.00000000E+01
	 2.00000000E+01
	 2.00000000E+01
	 2.00000000E+01
	 2.00000000E+01
	 2.00000000E+01
	 2.00000000E+01
	 2.00000000E+01
	 2.00000000E+01
	 2.00000000E+01
	 2.00000000E+01
	 2.00000000E+01
	 2.00000000E+01
	 2.00000000E+01
	 2.00000000E+01
	 2.00000000E+01
	 2.00000000E+01
	 2.00000000E+01
	 2.00000000E+01
	 2.00000000E+01
	 2.00000000E+01
	 2.00000000E+01
	 2.00000000E+01
	 2.00000000E+01
	 2.00000000E+01
	 2.00000000E+01
	 2.00000000E+01
	 2.00000000E+01
	 2.00000000E+01
	 2.00000000E+01
	 2.00000000E+01
	 2.00000000E+01
	 2.00000000E+01
	 2.00000000E+01
	 2.00000000E+01
	 2.00000000E+01
	 2.00000000E+01
	 2.00000000E+01
	 2.00000000E+01
	 2.00000000E+01
	 2.00000000E+01
	 2.00000000E+01
	 2.00000000E+01
	 2.00000000E+01
	 2.00000000E+01
	 2.00000000E+01
	 2.00000000E+01
	 2.00000000E+01
	 2.00000000E+01
	 2.00000000E+01
	 2.00000000E+01
	 2.00000000E+01
	 2.00000000E+01
	 2.00000000E+01
	 2.00000000E+01
	 2.00000000E+01
	 2.00000000E+01
	 2.00000000E+01
	 2.00000000E+01
	 2.00000000E+01
	 2.00000000E+01
	 2.00000000E+01
	 2.00000000E+01
	 2.00000000E+01
	 2.00000000E+01
	 2.00000000E+01
	 2.00000000E+01
	 2.00000000E+01
	 2.00000000E+01
	 2.00000000E+01
	 2.00000000E+01
	 2.00000000E+01
	 2.00000000E+01
	 2.00000000E+01
	 2.00000000E+01
	 2.00000000E+01
	 2.00000000E+01
	 2.00000000E+01
	 2.00000000E+01
	 2.00000000E+01
	 2.00000000E+01
	 2.00000000E+01
	 2.00000000E+01
	 2.00000000E+01
	 2.00000000E+01
	 2.00000000E+01
	 2.00000000E+01
	 2.00000000E+01
	 2.00000000E+01
	 2.00000000E+01
	 2.00000000E+01
	 2.00000000E+01
	 2.00000000E+01
	 2.00000000E+01
	 2.00000000E+01
	 2.00000000E+01
	 2.00000000E+01
	 2.00000000E+01
	 2.00000000E+01
	 2.00000000E+01
	 2.00000000E+01
	 2.00000000E+01
	 2.00000000E+01
	 2.00000000E+01
	 2.00000000E+01
	 2.00000000E+01
	 2.00000000E+01
	 2.00000000E+01
	 2.00000000E+01
	 2.00000000E+01
	 2.00000000E+01
	 2.00000000E+01
	 2.00000000E+01
	 2.00000000E+01
	 2.00000000E+01
	 2.00000000E+01
	 2.00000000E+01
	 2.00000000E+01
	 2.00000000E+01
	 2.00000000E+01
	 2.00000000E+01
	 2.00000000E+01
	 2.00000000E+01
	 2.00000000E+01
	 2.00000000E+01
	 2.00000000E+01
	 2.00000000E+01
	 2.00000000E+01
	 2.00000000E+01
	 2.00000000E+01
	 2.00000000E+01
	 2.00000000E+01
	 2.00000000E+01
	 2.00000000E+01
	 2.00000000E+01
	 2.00000000E+01
	 2.00000000E+01
	 2.00000000E+01
	 2.00000000E+01
	 2.00000000E+01
	 2.00000000E+01
	 2.00000000E+01
	 2.00000000E+01
	 2.00000000E+01
	 2.00000000E+01
	 2.00000000E+01
	 2.00000000E+01
	 2.00000000E+01
	 2.00000000E+01
	 2.00000000E+01
	 2.00000000E+01
	 2.00000000E+01
	 2.00000000E+01
	 2.00000000E+01
	 2.00000000E+01
	 2.00000000E+01
	 2.00000000E+01
	 2.00000000E+01
	 2.00000000E+01
	 2.00000000E+01
	 2.00000000E+01
	 2.00000000E+01
	 2.00000000E+01
	 2.00000000E+01
	 2.00000000E+01
	 2.00000000E+01
	 2.00000000E+01
	 2.00000000E+01
	 2.00000000E+01
	 2.00000000E+01
	 2.00000000E+01
	 2.00000000E+01
	 2.00000000E+01
	 2.00000000E+01
	 2.00000000E+01
	 2.00000000E+01
	 2.00000000E+01
	 2.00000000E+01
	 2.00000000E+01
	 2.00000000E+01
	 2.00000000E+01
	 2.00000000E+01
	 2.00000000E+01
	 2.00000000E+01
	 2.00000000E+01
	 2.00000000E+01
	 2.00000000E+01
	 2.00000000E+01
	 2.00000000E+01
	 2.00000000E+01
	 2.00000000E+01
	 2.00000000E+01
	 2.00000000E+01
	 2.00000000E+01
	 2.00000000E+01
	 2.00000000E+01
	 2.00000000E+01
	 2.00000000E+01
	 2.00000000E+01
	 2.00000000E+01
	 2.00000000E+01
	 2.00000000E+01
	 2.00000000E+01
	 2.00000000E+01
	 2.00000000E+01
	 2.00000000E+01
	 2.00000000E+01
	 2.00000000E+01
	 2.00000000E+01
	 2.00000000E+01
	 2.00000000E+01
	 2.00000000E+01
	 2.00000000E+01
	 2.00000000E+01
	 2.00000000E+01
	 2.00000000E+01
	 2.00000000E+01
	 2.00000000E+01
	 2.00000000E+01
	 2.00000000E+01
	 2.00000000E+01
	 2.00000000E+01
	 2.00000000E+01
	 2.00000000E+01
	 2.00000000E+01
	 2.00000000E+01
	 2.00000000E+01
	 2.00000000E+01
	 2.00000000E+01
	 2.00000000E+01
	 2.00000000E+01
	 2.00000000E+01
	 2.00000000E+01
	 2.00000000E+01
	 2.00000000E+01
	 2.00000000E+01
	 2.00000000E+01
	 2.00000000E+01
	 2.00000000E+01
	 2.00000000E+01
	 2.00000000E+01
	 2.00000000E+01
	 2.00000000E+01
	 2.00000000E+01
	 2.00000000E+01
	 2.00000000E+01
	 2.00000000E+01
	 2.00000000E+01
	 2.00000000E+01
	 2.00000000E+01
	 2.00000000E+01
	 2.00000000E+01
	 2.00000000E+01
	 2.00000000E+01
	 2.00000000E+01
	 2.00000000E+01
	 2.00000000E+01
	 2.00000000E+01
	 2.00000000E+01
	 2.00000000E+01
	 2.00000000E+01
	 2.00000000E+01
	 2.00000000E+01
	 2.00000000E+01
	 2.00000000E+01
	 2.00000000E+01
	 2.00000000E+01
	 2.00000000E+01
	 2.00000000E+01
	 2.00000000E+01
	 2.00000000E+01
	 2.00000000E+01
	 2.00000000E+01
	 2.00000000E+01
	 2.00000000E+01
	 2.00000000E+01
	 2.00000000E+01
	 2.00000000E+01
	 2.00000000E+01
	 2.00000000E+01
	 2.00000000E+01
	 2.00000000E+01
	 2.00000000E+01
	 2.00000000E+01
	 2.00000000E+01
	 2.00000000E+01
	 2.00000000E+01
	 2.00000000E+01
	 2.00000000E+01
	 2.00000000E+01
	 2.00000000E+01
	 2.00000000E+01
	 2.00000000E+01
	 2.00000000E+01
	 2.00000000E+01
	 2.00000000E+01
	 2.00000000E+01
	 2.00000000E+01
	 2.00000000E+01
	 2.00000000E+01
	 2.00000000E+01
	 2.00000000E+01
	 2.00000000E+01
	 2.00000000E+01
	 2.00000000E+01
	 2.00000000E+01
	 2.00000000E+01
	 2.00000000E+01
	 2.00000000E+01
	 2.00000000E+01
	 2.00000000E+01
	 2.00000000E+01
	 2.00000000E+01
	 2.00000000E+01
	 2.00000000E+01
	 2.00000000E+01
	 2.00000000E+01
	 2.00000000E+01
	 2.00000000E+01
	 2.00000000E+01
	 2.00000000E+01
	 2.00000000E+01
	 2.00000000E+01
	 2.00000000E+01
	 2.00000000E+01
	 2.00000000E+01
	 2.00000000E+01
	 2.00000000E+01
	 2.00000000E+01
	 2.00000000E+01
	 2.00000000E+01
	 2.00000000E+01
	 2.00000000E+01
	 2.00000000E+01
	 2.00000000E+01
	 2.00000000E+01
	 2.00000000E+01
	 2.00000000E+01
	 2.00000000E+01
	 2.00000000E+01
	 2.00000000E+01
	 2.00000000E+01
	 2.00000000E+01
	 2.00000000E+01
	 2.00000000E+01
	 2.00000000E+01
	 2.00000000E+01
	 2.00000000E+01
	 2.00000000E+01
	 2.00000000E+01
	 2.00000000E+01
	 2.00000000E+01
	 2.00000000E+01
	 2.00000000E+01
	 2.00000000E+01
	 2.00000000E+01
	 2.00000000E+01
	 2.00000000E+01
	 2.00000000E+01
	 2.00000000E+01
	 2.00000000E+01
	 2.00000000E+01
	 2.00000000E+01
	 2.00000000E+01
	 2.00000000E+01
	 2.00000000E+01
	 2.00000000E+01
	 2.00000000E+01
	 2.00000000E+01
	 2.00000000E+01
	 2.00000000E+01
	 2.00000000E+01
	 2.00000000E+01
	 2.00000000E+01
	 2.00000000E+01
	 2.00000000E+01
	 2.00000000E+01
	 2.00000000E+01
	 2.00000000E+01
	 2.00000000E+01
	 2.00000000E+01
	 2.00000000E+01
	 2.00000000E+01
	 2.00000000E+01
	 2.00000000E+01
	 2.00000000E+01
	 2.00000000E+01
	 2.00000000E+01
	 2.00000000E+01
	 2.00000000E+01
	 2.00000000E+01
	 2.00000000E+01
	 2.00000000E+01
	 2.00000000E+01
	 2.00000000E+01
	 2.00000000E+01
	 2.00000000E+01
	 2.00000000E+01
	 2.00000000E+01
	 2.00000000E+01
	 2.00000000E+01
	 2.00000000E+01
	 2.00000000E+01
	 2.00000000E+01
	 2.00000000E+01
	 2.00000000E+01
	 2.00000000E+01
	 2.00000000E+01
	 2.00000000E+01
	 2.00000000E+01
	 2.00000000E+01
	 2.00000000E+01
	 2.00000000E+01
	 2.00000000E+01
	 2.00000000E+01
	 2.00000000E+01
	 2.00000000E+01
	 2.00000000E+01
	 2.00000000E+01
	 2.00000000E+01
	 2.00000000E+01
	 2.00000000E+01
	 2.00000000E+01
	 2.00000000E+01
	 2.00000000E+01
	 2.00000000E+01
	 2.00000000E+01
	 2.00000000E+01
	 2.00000000E+01
	 2.00000000E+01
	 2.00000000E+01
	 2.00000000E+01
	 2.00000000E+01
	 2.00000000E+01
	 2.00000000E+01
	 2.00000000E+01
	 2.00000000E+01
	 2.00000000E+01
	 2.00000000E+01
	 2.00000000E+01
	 2.00000000E+01
	 2.00000000E+01
	 2.00000000E+01
	 2.00000000E+01
	 2.00000000E+01
	 2.00000000E+01
	 2.00000000E+01
	 2.00000000E+01
	 2.00000000E+01
	 2.00000000E+01
	 2.00000000E+01
	 2.00000000E+01
	 2.00000000E+01
	 2.00000000E+01
	 2.00000000E+01
	 2.00000000E+01
	 2.00000000E+01
	 2.00000000E+01
	 2.00000000E+01
	 2.00000000E+01
	 2.00000000E+01
	 2.00000000E+01
	 2.00000000E+01
	 2.00000000E+01
	 2.00000000E+01
	 2.00000000E+01
	 2.00000000E+01
	 2.00000000E+01
	 2.00000000E+01
	 2.00000000E+01
	 2.00000000E+01
	 2.00000000E+01
	 2.00000000E+01
	 2.00000000E+01
	 2.00000000E+01
	 2.00000000E+01
	 2.00000000E+01
	 2.00000000E+01
	 2.00000000E+01
	 2.00000000E+01
	 2.00000000E+01
	 2.00000000E+01
	 2.00000000E+01
	 2.00000000E+01
	 2.00000000E+01
	 2.00000000E+01
	 2.00000000E+01
	 2.00000000E+01
	 2.00000000E+01
	 2.00000000E+01
	 2.00000000E+01
	 2.00000000E+01
	 2.00000000E+01
	 2.00000000E+01
	 2.00000000E+01
	 2.00000000E+01
	 2.00000000E+01
	 2.00000000E+01
	 2.00000000E+01
	 2.00000000E+01
	 2.00000000E+01
	 2.00000000E+01
	 2.00000000E+01
	 2.00000000E+01
	 2.00000000E+01
	 2.00000000E+01
	 2.00000000E+01
	 2.00000000E+01
	 2.00000000E+01
	 2.00000000E+01
	 2.00000000E+01
	 2.00000000E+01
	 2.00000000E+01
	 2.00000000E+01
	 2.00000000E+01
	 2.00000000E+01
	 2.00000000E+01
	 2.00000000E+01
	 2.00000000E+01
	 2.00000000E+01
	 2.00000000E+01
	 2.00000000E+01
	 2.00000000E+01
	 2.00000000E+01
	 2.00000000E+01
	 2.00000000E+01
	 2.00000000E+01
	 2.00000000E+01
	 2.00000000E+01
	 2.00000000E+01
	 2.00000000E+01
	 2.00000000E+01
	 2.00000000E+01
	 2.00000000E+01
	 2.00000000E+01
	 2.00000000E+01
	 2.00000000E+01
	 2.00000000E+01
	 2.00000000E+01
	 2.00000000E+01
	 2.00000000E+01
	 2.00000000E+01
	 2.00000000E+01
	 2.00000000E+01
	 2.00000000E+01
	 2.00000000E+01
	 2.00000000E+01
	 2.00000000E+01
	 2.00000000E+01
	 2.00000000E+01
	 2.00000000E+01
	 2.00000000E+01
	 2.00000000E+01
	 2.00000000E+01
	 2.00000000E+01
	 2.00000000E+01
	 2.00000000E+01
	 2.00000000E+01
	 2.00000000E+01
	 2.00000000E+01
	 2.00000000E+01
	 2.00000000E+01
	 2.00000000E+01
	 2.00000000E+01
	 2.00000000E+01
	 2.00000000E+01
	 2.00000000E+01
	 2.00000000E+01
	 2.00000000E+01
	 2.00000000E+01
	 2.00000000E+01
	 2.00000000E+01
	 2.00000000E+01
	 2.00000000E+01
	 2.00000000E+01
	 2.00000000E+01
	 2.00000000E+01
	 2.00000000E+01
	 2.00000000E+01
	 2.00000000E+01
	 2.00000000E+01
	 2.00000000E+01
	 2.00000000E+01
	 2.00000000E+01
	 2.00000000E+01
	 2.00000000E+01
	 2.00000000E+01
	 2.00000000E+01
	 2.00000000E+01
	 2.00000000E+01
	 2.00000000E+01
	 2.00000000E+01
	 2.00000000E+01
	 2.00000000E+01
	 2.00000000E+01
	 2.00000000E+01
	 2.00000000E+01
	 2.00000000E+01
	 2.00000000E+01
	 2.00000000E+01
	 2.00000000E+01
	 2.00000000E+01
	 2.00000000E+01
	 2.00000000E+01
	 2.00000000E+01
	 2.00000000E+01
	 2.00000000E+01
	 2.00000000E+01
	 2.00000000E+01
TENSORS 1_1.0_STRESS double
	 4.64852000E-13	 0.00000000E+00	 0.00000000E+00
	 0.00000000E+00	 4.64852000E-13	 0.00000000E+00
	 0.00000000E+00	 0.00000000E+00	 4.64852000E-13

	 4.38289000E-13	 0.00000000E+00	 0.00000000E+00
	 0.00000000E+00	 4.38289000E-13	 0.00000000E+00
	 0.00000000E+00	 0.00000000E+00	 4.38289000E-13

	 4.64852000E-13	 0.00000000E+00	 0.00000000E+00
	 0.00000000E+00	 4.64852000E-13	 0.00000000E+00
	 0.00000000E+00	 0.00000000E+00	 4.64852000E-13

	 4.64852000E-13	 0.00000000E+00	 0.00000000E+00
	 0.00000000E+00	 4.64852000E-13	 0.00000000E+00
	 0.00000000E+00	 0.00000000E+00	 4.64852000E-13

	 4.64852000E-13	 0.00000000E+00	 0.00000000E+00
	 0.00000000E+00	 4.64852000E-13	 0.00000000E+00
	 0.00000000E+00	 0.00000000E+00	 4.64852000E-13

	 5.04696000E-13	 0.00000000E+00	 0.00000000E+00
	 0.00000000E+00	 5.04696000E-13	 0.00000000E+00
	 0.00000000E+00	 0.00000000E+00	 5.04696000E-13

	 4.64852000E-13	 0.00000000E+00	 0.00000000E+00
	 0.00000000E+00	 4.64852000E-13	 0.00000000E+00
	 0.00000000E+00	 0.00000000E+00	 4.64852000E-13

	 4.64852000E-13	 0.00000000E+00	 0.00000000E+00
	 0.00000000E+00	 4.64852000E-13	 0.00000000E+00
	 0.00000000E+00	 0.00000000E+00	 4.64852000E-13

	 4.64852000E-13	 0.00000000E+00	 0.00000000E+00
	 0.00000000E+00	 4.64852000E-13	 0.00000000E+00
	 0.00000000E+00	 0.00000000E+00	 4.64852000E-13

	 4.38289000E-13	 0.00000000E+00	 0.00000000E+00
	 0.00000000E+00	 4.38289000E-13	 0.00000000E+00
	 0.00000000E+00	 0.00000000E+00	 4.38289000E-13

	 4.44929000E-13	 0.00000000E+00	 0.00000000E+00
	 0.00000000E+00	 4.44929000E-13	 0.00000000E+00
	 0.00000000E+00	 0.00000000E+00	 4.44929000E-13

	 4.38289000E-13	 0.00000000E+00	 0.00000000E+00
	 0.00000000E+00	 4.38289000E-13	 0.00000000E+00
	 0.00000000E+00	 0.00000000E+00	 4.38289000E-13

	 4.51570000E-13	 0.00000000E+00	 0.00000000E+00
	 0.00000000E+00	 4.51570000E-13	 0.00000000E+00
	 0.00000000E+00	 0.00000000E+00	 4.51570000E-13

	 4.38289000E-13	 0.00000000E+00	 0.00000000E+00
	 0.00000000E+00	 4.38289000E-13	 0.00000000E+00
	 0.00000000E+00	 0.00000000E+00	 4.38289000E-13

	 4.64852000E-13	 0.00000000E+00	 0.00000000E+00
	 0.00000000E+00	 4.64852000E-13	 0.00000000E+00
	 0.00000000E+00	 0.00000000E+00	 4.64852000E-13

	 4.64852000E-13	 0.00000000E+00	 0.00000000E+00
	 0.00000000E+00	 4.64852000E-13	 0.00000000E+00
	 0.00000000E+00	 0.00000000E+00	 4.64852000E-13

	 4.64852000E-13	 0.00000000E+00	 0.00000000E+00
	 0.00000000E+00	 4.64852000E-13	 0.00000000E+00
	 0.00000000E+00	 0.00000000E+00	 4.64852000E-13

	 4.64852000E-13	 0.00000000E+00	 0.00000000E+00
	 0.00000000E+00	 4.64852000E-13	 0.00000000E+00
	 0.00000000E+00	 0.00000000E+00	 4.64852000E-13

	 4.64852000E-13	 0.00000000E+00	 0.00000000E+00
	 0.00000000E+00	 4.64852000E-13	 0.00000000E+00
	 0.00000000E+00	 0.00000000E+00	 4.64852000E-13

	 4.44929000E-13	 0.00000000E+00	 0.00000000E+00
	 0.00000000E+00	 4.44929000E-13	 0.00000000E+00
	 0.00000000E+00	 0.00000000E+00	 4.44929000E-13

	 4.38289000E-13	 0.00000000E+00	 0.00000000E+00
	 0.00000000E+00	 4.38289000E-13	 0.00000000E+00
	 0.00000000E+00	 0.00000000E+00	 4.38289000E-13

	 4.64852000E-13	 0.00000000E+00	 0.00000000E+00
	 0.00000000E+00	 4.64852000E-13	 0.00000000E+00
	 0.00000000E+00	 0.00000000E+00	 4.64852000E-13

	 4.64852000E-13	 0.00000000E+00	 0.00000000E+00
	 0.00000000E+00	 4.64852000E-13	 0.00000000E+00
	 0.00000000E+00	 0.00000000E+00	 4.64852000E-13

	 4.64852000E-13	 0.00000000E+00	 0.00000000E+00
	 0.00000000E+00	 4.64852000E-13	 0.00000000E+00
	 0.00000000E+00	 0.00000000E+00	 4.64852000E-13

	 4.38289000E-13	 0.00000000E+00	 0.00000000E+00
	 0.00000000E+00	 4.38289000E-13	 0.00000000E+00
	 0.00000000E+00	 0.00000000E+00	 4.38289000E-13

	 4.38289000E-13	 0.00000000E+00	 0.00000000E+00
	 0.00000000E+00	 4.38289000E-13	 0.00000000E+00
	 0.00000000E+00	 0.00000000E+00	 4.38289000E-13

	 4.38289000E-13	 0.00000000E+00	 0.00000000E+00
	 0.00000000E+00	 4.38289000E-13	 0.00000000E+00
	 0.00000000E+00	 0.00000000E+00	 4.38289000E-13

	 4.38289000E-13	 0.00000000E+00	 0.00000000E+00
	 0.00000000E+00	 4.38289000E-13	 0.00000000E+00
	 0.00000000E+00	 0.00000000E+00	 4.38289000E-13

	 4.64852000E-13	 0.00000000E+00	 0.00000000E+00
	 0.00000000E+00	 4.64852000E-13	 0.00000000E+00
	 0.00000000E+00	 0.00000000E+00	 4.64852000E-13

	 4.38289000E-13	 0.00000000E+00	 0.00000000E+00
	 0.00000000E+00	 4.38289000E-13	 0.00000000E+00
	 0.00000000E+00	 0.00000000E+00	 4.38289000E-13

	 4.47143000E-13	 0.00000000E+00	 0.00000000E+00
	 0.00000000E+00	 4.47143000E-13	 0.00000000E+00
	 0.00000000E+00	 0.00000000E+00	 4.47143000E-13

	 4.61531000E-13	 0.00000000E+00	 0.00000000E+00
	 0.00000000E+00	 4.61531000E-13	 0.00000000E+00
	 0.00000000E+00	 0.00000000E+00	 4.61531000E-13

	 4.38289000E-13	 0.00000000E+00	 0.00000000E+00
	 0.00000000E+00	 4.38289000E-13	 0.00000000E+00
	 0.00000000E+00	 0.00000000E+00	 4.38289000E-13

	 4.61531000E-13	 0.00000000E+00	 0.00000000E+00
	 0.00000000E+00	 4.61531000E-13	 0.00000000E+00
	 0.00000000E+00	 0.00000000E+00	 4.61531000E-13

	 4.38289000E-13	 0.00000000E+00	 0.00000000E+00
	 0.00000000E+00	 4.38289000E-13	 0.00000000E+00
	 0.00000000E+00	 0.00000000E+00	 4.38289000E-13

	 4.64852000E-13	 0.00000000E+00	 0.00000000E+00
	 0.00000000E+00	 4.64852000E-13	 0.00000000E+00
	 0.00000000E+00	 0.00000000E+00	 4.64852000E-13

	 4.38289000E-13	 0.00000000E+00	 0.00000000E+00
	 0.00000000E+00	 4.38289000E-13	 0.00000000E+00
	 0.00000000E+00	 0.00000000E+00	 4.38289000E-13

	 4.64852000E-13	 0.00000000E+00	 0.00000000E+00
	 0.00000000E+00	 4.64852000E-13	 0.00000000E+00
	 0.00000000E+00	 0.00000000E+00	 4.64852000E-13

	 4.47143000E-13	 0.00000000E+00	 0.00000000E+00
	 0.00000000E+00	 4.47143000E-13	 0.00000000E+00
	 0.00000000E+00	 0.00000000E+00	 4.47143000E-13

	 4.38289000E-13	 0.00000000E+00	 0.00000000E+00
	 0.00000000E+00	 4.38289000E-13	 0.00000000E+00
	 0.00000000E+00	 0.00000000E+00	 4.38289000E-13

	 4.38289000E-13	 0.00000000E+00	 0.00000000E+00
	 0.00000000E+00	 4.38289000E-13	 0.00000000E+00
	 0.00000000E+00	 0.00000000E+00	 4.38289000E-13

	 4.64852000E-13	 0.00000000E+00	 0.00000000E+00
	 0.00000000E+00	 4.64852000E-13	 0.00000000E+00
	 0.00000000E+00	 0.00000000E+00	 4.64852000E-13

	 4.64852000E-13	 0.00000000E+00	 0.00000000E+00
	 0.00000000E+00	 4.64852000E-13	 0.00000000E+00
	 0.00000000E+00	 0.00000000E+00	 4.64852000E-13

	 4.64852000E-13	 0.00000000E+00	 0.00000000E+00
	 0.00000000E+00	 4.64852000E-13	 0.00000000E+00
	 0.00000000E+00	 0.00000000E+00	 4.64852000E-13

	 4.64852000E-13	 0.00000000E+00	 0.00000000E+00
	 0.00000000E+00	 4.64852000E-13	 0.00000000E+00
	 0.00000000E+00	 0.00000000E+00	 4.64852000E-13

	 4.64852000E-13	 0.00000000E+00	 0.00000000E+00
	 0.00000000E+00	 4.64852000E-13	 0.00000000E+00
	 0.00000000E+00	 0.00000000E+00	 4.64852000E-13

	 4.64852000E-13	 0.00000000E+00	 0.00000000E+00
	 0.00000000E+00	 4.64852000E-13	 0.00000000E+00
	 0.00000000E+00	 0.00000000E+00	 4.64852000E-13

	 4.64852000E-13	 0.00000000E+00	 0.00000000E+00
	 0.00000000E+00	 4.64852000E-13	 0.00000000E+00
	 0.00000000E+00	 0.00000000E+00	 4.64852000E-13

	 4.64852000E-13	 0.00000000E+00	 0.00000000E+00
	 0.00000000E+00	 4.64852000E-13	 0.00000000E+00
	 0.00000000E+00	 0.00000000E+00	 4.64852000E-13

	 4.64852000E-13	 0.00000000E+00	 0.00000000E+00
	 0.00000000E+00	 4.64852000E-13	 0.00000000E+00
	 0.00000000E+00	 0.00000000E+00	 4.64852000E-13

	 4.64852000E-13	 0.00000000E+00	 0.00000000E+00
	 0.00000000E+00	 4.64852000E-13	 0.00000000E+00
	 0.00000000E+00	 0.00000000E+00	 4.64852000E-13

	 4.64852000E-13	 0.00000000E+00	 0.00000000E+00
	 0.00000000E+00	 4.64852000E-13	 0.00000000E+00
	 0.00000000E+00	 0.00000000E+00	 4.64852000E-13

	 4.47143000E-13	 0.00000000E+00	 0.00000000E+00
	 0.00000000E+00	 4.47143000E-13	 0.00000000E+00
	 0.00000000E+00	 0.00000000E+00	 4.47143000E-13

	 4.38289000E-13	 0.00000000E+00	 0.00000000E+00
	 0.00000000E+00	 4.38289000E-13	 0.00000000E+00
	 0.00000000E+00	 0.00000000E+00	 4.38289000E-13

	 4.38289000E-13	 0.00000000E+00	 0.00000000E+00
	 0.00000000E+00	 4.38289000E-13	 0.00000000E+00
	 0.00000000E+00	 0.00000000E+00	 4.38289000E-13

	 4.38289000E-13	 0.00000000E+00	 0.00000000E+00
	 0.00000000E+00	 4.38289000E-13	 0.00000000E+00
	 0.00000000E+00	 0.00000000E+00	 4.38289000E-13

	 4.38289000E-13	 0.00000000E+00	 0.00000000E+00
	 0.00000000E+00	 4.38289000E-13	 0.00000000E+00
	 0.00000000E+00	 0.00000000E+00	 4.38289000E-13

	 4.38289000E-13	 0.00000000E+00	 0.00000000E+00
	 0.00000000E+00	 4.38289000E-13	 0.00000000E+00
	 0.00000000E+00	 0.00000000E+00	 4.38289000E-13

	 4.38289000E-13	 0.00000000E+00	 0.00000000E+00
	 0.00000000E+00	 4.38289000E-13	 0.00000000E+00
	 0.00000000E+00	 0.00000000E+00	 4.38289000E-13

	 4.51570000E-13	 0.00000000E+00	 0.00000000E+00
	 0.00000000E+00	 4.51570000E-13	 0.00000000E+00
	 0.00000000E+00	 0.00000000E+00	 4.51570000E-13

	 4.64852000E-13	 0.00000000E+00	 0.00000000E+00
	 0.00000000E+00	 4.64852000E-13	 0.00000000E+00
	 0.00000000E+00	 0.00000000E+00	 4.64852000E-13

	 4.64852000E-13	 0.00000000E+00	 0.00000000E+00
	 0.00000000E+00	 4.64852000E-13	 0.00000000E+00
	 0.00000000E+00	 0.00000000E+00	 4.64852000E-13

	 4.64852000E-13	 0.00000000E+00	 0.00000000E+00
	 0.00000000E+00	 4.64852000E-13	 0.00000000E+00
	 0.00000000E+00	 0.00000000E+00	 4.64852000E-13

	 4.64852000E-13	 0.00000000E+00	 0.00000000E+00
	 0.00000000E+00	 4.64852000E-13	 0.00000000E+00
	 0.00000000E+00	 0.00000000E+00	 4.64852000E-13

	 4.64852000E-13	 0.00000000E+00	 0.00000000E+00
	 0.00000000E+00	 4.64852000E-13	 0.00000000E+00
	 0.00000000E+00	 0.00000000E+00	 4.64852000E-13

	 4.64852000E-13	 0.00000000E+00	 0.00000000E+00
	 0.00000000E+00	 4.64852000E-13	 0.00000000E+00
	 0.00000000E+00	 0.00000000E+00	 4.64852000E-13

	 4.60425000E-13	 0.00000000E+00	 0.00000000E+00
	 0.00000000E+00	 4.60425000E-13	 0.00000000E+00
	 0.00000000E+00	 0.00000000E+00	 4.60425000E-13

	 4.60425000E-13	 0.00000000E+00	 0.00000000E+00
	 0.00000000E+00	 4.60425000E-13	 0.00000000E+00
	 0.00000000E+00	 0.00000000E+00	 4.60425000E-13

	 4.64852000E-13	 0.00000000E+00	 0.00000000E+00
	 0.00000000E+00	 4.64852000E-13	 0.00000000E+00
	 0.00000000E+00	 0.00000000E+00	 4.64852000E-13

	 4.64852000E-13	 0.00000000E+00	 0.00000000E+00
	 0.00000000E+00	 4.64852000E-13	 0.00000000E+00
	 0.00000000E+00	 0.00000000E+00	 4.64852000E-13

	 4.55997000E-13	 0.00000000E+00	 0.00000000E+00
	 0.00000000E+00	 4.55997000E-13	 0.00000000E+00
	 0.00000000E+00	 0.00000000E+00	 4.55997000E-13

	 4.38289000E-13	 0.00000000E+00	 0.00000000E+00
	 0.00000000E+00	 4.38289000E-13	 0.00000000E+00
	 0.00000000E+00	 0.00000000E+00	 4.38289000E-13

	 4.42716000E-13	 0.00000000E+00	 0.00000000E+00
	 0.00000000E+00	 4.42716000E-13	 0.00000000E+00
	 0.00000000E+00	 0.00000000E+00	 4.42716000E-13

	 4.60425000E-13	 0.00000000E+00	 0.00000000E+00
	 0.00000000E+00	 4.60425000E-13	 0.00000000E+00
	 0.00000000E+00	 0.00000000E+00	 4.60425000E-13

	 4.51570000E-13	 0.00000000E+00	 0.00000000E+00
	 0.00000000E+00	 4.51570000E-13	 0.00000000E+00
	 0.00000000E+00	 0.00000000E+00	 4.51570000E-13

	 4.38289000E-13	 0.00000000E+00	 0.00000000E+00
	 0.00000000E+00	 4.38289000E-13	 0.00000000E+00
	 0.00000000E+00	 0.00000000E+00	 4.38289000E-13

	 4.38289000E-13	 0.00000000E+00	 0.00000000E+00
	 0.00000000E+00	 4.38289000E-13	 0.00000000E+00
	 0.00000000E+00	 0.00000000E+00	 4.38289000E-13

	 4.38289000E-13	 0.00000000E+00	 0.00000000E+00
	 0.00000000E+00	 4.38289000E-13	 0.00000000E+00
	 0.00000000E+00	 0.00000000E+00	 4.38289000E-13

	 4.42716000E-13	 0.00000000E+00	 0.00000000E+00
	 0.00000000E+00	 4.42716000E-13	 0.00000000E+00
	 0.00000000E+00	 0.00000000E+00	 4.42716000E-13

	 4.55997000E-13	 0.00000000E+00	 0.00000000E+00
	 0.00000000E+00	 4.55997000E-13	 0.00000000E+00
	 0.00000000E+00	 0.00000000E+00	 4.55997000E-13

	 4.64852000E-13	 0.00000000E+00	 0.00000000E+00
	 0.00000000E+00	 4.64852000E-13	 0.00000000E+00
	 0.00000000E+00	 0.00000000E+00	 4.64852000E-13

	 4.64852000E-13	 0.00000000E+00	 0.00000000E+00
	 0.00000000E+00	 4.64852000E-13	 0.00000000E+00
	 0.00000000E+00	 0.00000000E+00	 4.64852000E-13

	 4.64852000E-13	 0.00000000E+00	 0.00000000E+00
	 0.00000000E+00	 4.64852000E-13	 0.00000000E+00
	 0.00000000E+00	 0.00000000E+00	 4.64852000E-13

	 4.60425000E-13	 0.00000000E+00	 0.00000000E+00
	 0.00000000E+00	 4.60425000E-13	 0.00000000E+00
	 0.00000000E+00	 0.00000000E+00	 4.60425000E-13

	 4.60425000E-13	 0.00000000E+00	 0.00000000E+00
	 0.00000000E+00	 4.60425000E-13	 0.00000000E+00
	 0.00000000E+00	 0.00000000E+00	 4.60425000E-13

	 4.64852000E-13	 0.00000000E+00	 0.00000000E+00
	 0.00000000E+00	 4.64852000E-13	 0.00000000E+00
	 0.00000000E+00	 0.00000000E+00	 4.64852000E-13

	 4.60425000E-13	 0.00000000E+00	 0.00000000E+00
	 0.00000000E+00	 4.60425000E-13	 0.00000000E+00
	 0.00000000E+00	 0.00000000E+00	 4.60425000E-13

	 4.47143000E-13	 0.00000000E+00	 0.00000000E+00
	 0.00000000E+00	 4.47143000E-13	 0.00000000E+00
	 0.00000000E+00	 0.00000000E+00	 4.47143000E-13

	 4.42716000E-13	 0.00000000E+00	 0.00000000E+00
	 0.00000000E+00	 4.42716000E-13	 0.00000000E+00
	 0.00000000E+00	 0.00000000E+00	 4.42716000E-13

	 4.55997000E-13	 0.00000000E+00	 0.00000000E+00
	 0.00000000E+00	 4.55997000E-13	 0.00000000E+00
	 0.00000000E+00	 0.00000000E+00	 4.55997000E-13

	 4.64852000E-13	 0.00000000E+00	 0.00000000E+00
	 0.00000000E+00	 4.64852000E-13	 0.00000000E+00
	 0.00000000E+00	 0.00000000E+00	 4.64852000E-13

	 4.64852000E-13	 0.00000000E+00	 0.00000000E+00
	 0.00000000E+00	 4.64852000E-13	 0.00000000E+00
	 0.00000000E+00	 0.00000000E+00	 4.64852000E-13

	 4.64852000E-13	 0.00000000E+00	 0.00000000E+00
	 0.00000000E+00	 4.64852000E-13	 0.00000000E+00
	 0.00000000E+00	 0.00000000E+00	 4.64852000E-13

	 4.64852000E-13	 0.00000000E+00	 0.00000000E+00
	 0.00000000E+00	 4.64852000E-13	 0.00000000E+00
	 0.00000000E+00	 0.00000000E+00	 4.64852000E-13

	 4.64852000E-13	 0.00000000E+00	 0.00000000E+00
	 0.00000000E+00	 4.64852000E-13	 0.00000000E+00
	 0.00000000E+00	 0.00000000E+00	 4.64852000E-13

	 4.64852000E-13	 0.00000000E+00	 0.00000000E+00
	 0.00000000E+00	 4.64852000E-13	 0.00000000E+00
	 0.00000000E+00	 0.00000000E+00	 4.64852000E-13

	 4.64852000E-13	 0.00000000E+00	 0.00000000E+00
	 0.00000000E+00	 4.64852000E-13	 0.00000000E+00
	 0.00000000E+00	 0.00000000E+00	 4.64852000E-13

	 4.64852000E-13	 0.00000000E+00	 0.00000000E+00
	 0.00000000E+00	 4.64852000E-13	 0.00000000E+00
	 0.00000000E+00	 0.00000000E+00	 4.64852000E-13

	 4.47143000E-13	 0.00000000E+00	 0.00000000E+00
	 0.00000000E+00	 4.47143000E-13	 0.00000000E+00
	 0.00000000E+00	 0.00000000E+00	 4.47143000E-13

	 4.47143000E-13	 0.00000000E+00	 0.00000000E+00
	 0.00000000E+00	 4.47143000E-13	 0.00000000E+00
	 0.00000000E+00	 0.00000000E+00	 4.47143000E-13

	 4.55997000E-13	 0.00000000E+00	 0.00000000E+00
	 0.00000000E+00	 4.55997000E-13	 0.00000000E+00
	 0.00000000E+00	 0.00000000E+00	 4.55997000E-13

	 4.60425000E-13	 0.00000000E+00	 0.00000000E+00
	 0.00000000E+00	 4.60425000E-13	 0.00000000E+00
	 0.00000000E+00	 0.00000000E+00	 4.60425000E-13

	 4.60425000E-13	 0.00000000E+00	 0.00000000E+00
	 0.00000000E+00	 4.60425000E-13	 0.00000000E+00
	 0.00000000E+00	 0.00000000E+00	 4.60425000E-13

	 4.60425000E-13	 0.00000000E+00	 0.00000000E+00
	 0.00000000E+00	 4.60425000E-13	 0.00000000E+00
	 0.00000000E+00	 0.00000000E+00	 4.60425000E-13

	 4.51570000E-13	 0.00000000E+00	 0.00000000E+00
	 0.00000000E+00	 4.51570000E-13	 0.00000000E+00
	 0.00000000E+00	 0.00000000E+00	 4.51570000E-13

	 4.38289000E-13	 0.00000000E+00	 0.00000000E+00
	 0.00000000E+00	 4.38289000E-13	 0.00000000E+00
	 0.00000000E+00	 0.00000000E+00	 4.38289000E-13

	 4.38289000E-13	 0.00000000E+00	 0.00000000E+00
	 0.00000000E+00	 4.38289000E-13	 0.00000000E+00
	 0.00000000E+00	 0.00000000E+00	 4.38289000E-13

	 4.38289000E-13	 0.00000000E+00	 0.00000000E+00
	 0.00000000E+00	 4.38289000E-13	 0.00000000E+00
	 0.00000000E+00	 0.00000000E+00	 4.38289000E-13

	 4.38289000E-13	 0.00000000E+00	 0.00000000E+00
	 0.00000000E+00	 4.38289000E-13	 0.00000000E+00
	 0.00000000E+00	 0.00000000E+00	 4.38289000E-13

	 4.38289000E-13	 0.00000000E+00	 0.00000000E+00
	 0.00000000E+00	 4.38289000E-13	 0.00000000E+00
	 0.00000000E+00	 0.00000000E+00	 4.38289000E-13

	 4.38289000E-13	 0.00000000E+00	 0.00000000E+00
	 0.00000000E+00	 4.38289000E-13	 0.00000000E+00
	 0.00000000E+00	 0.00000000E+00	 4.38289000E-13

	 4.38289000E-13	 0.00000000E+00	 0.00000000E+00
	 0.00000000E+00	 4.38289000E-13	 0.00000000E+00
	 0.00000000E+00	 0.00000000E+00	 4.38289000E-13

	 4.38289000E-13	 0.00000000E+00	 0.00000000E+00
	 0.00000000E+00	 4.38289000E-13	 0.00000000E+00
	 0.00000000E+00	 0.00000000E+00	 4.38289000E-13

	 4.38289000E-13	 0.00000000E+00	 0.00000000E+00
	 0.00000000E+00	 4.38289000E-13	 0.00000000E+00
	 0.00000000E+00	 0.00000000E+00	 4.38289000E-13

	 4.42716000E-13	 0.00000000E+00	 0.00000000E+00
	 0.00000000E+00	 4.42716000E-13	 0.00000000E+00
	 0.00000000E+00	 0.00000000E+00	 4.42716000E-13

	 4.42716000E-13	 0.00000000E+00	 0.00000000E+00
	 0.00000000E+00	 4.42716000E-13	 0.00000000E+00
	 0.00000000E+00	 0.00000000E+00	 4.42716000E-13

	 4.51570000E-13	 0.00000000E+00	 0.00000000E+00
	 0.00000000E+00	 4.51570000E-13	 0.00000000E+00
	 0.00000000E+00	 0.00000000E+00	 4.51570000E-13

	 4.55997000E-13	 0.00000000E+00	 0.00000000E+00
	 0.00000000E+00	 4.55997000E-13	 0.00000000E+00
	 0.00000000E+00	 0.00000000E+00	 4.55997000E-13

	 4.42716000E-13	 0.00000000E+00	 0.00000000E+00
	 0.00000000E+00	 4.42716000E-13	 0.00000000E+00
	 0.00000000E+00	 0.00000000E+00	 4.42716000E-13

	 4.42716000E-13	 0.00000000E+00	 0.00000000E+00
	 0.00000000E+00	 4.42716000E-13	 0.00000000E+00
	 0.00000000E+00	 0.00000000E+00	 4.42716000E-13

	 4.47143000E-13	 0.00000000E+00	 0.00000000E+00
	 0.00000000E+00	 4.47143000E-13	 0.00000000E+00
	 0.00000000E+00	 0.00000000E+00	 4.47143000E-13

	 4.47143000E-13	 0.00000000E+00	 0.00000000E+00
	 0.00000000E+00	 4.47143000E-13	 0.00000000E+00
	 0.00000000E+00	 0.00000000E+00	 4.47143000E-13

	 4.38289000E-13	 0.00000000E+00	 0.00000000E+00
	 0.00000000E+00	 4.38289000E-13	 0.00000000E+00
	 0.00000000E+00	 0.00000000E+00	 4.38289000E-13

	 4.38289000E-13	 0.00000000E+00	 0.00000000E+00
	 0.00000000E+00	 4.38289000E-13	 0.00000000E+00
	 0.00000000E+00	 0.00000000E+00	 4.38289000E-13

	 4.38289000E-13	 0.00000000E+00	 0.00000000E+00
	 0.00000000E+00	 4.38289000E-13	 0.00000000E+00
	 0.00000000E+00	 0.00000000E+00	 4.38289000E-13

	 4.38289000E-13	 0.00000000E+00	 0.00000000E+00
	 0.00000000E+00	 4.38289000E-13	 0.00000000E+00
	 0.00000000E+00	 0.00000000E+00	 4.38289000E-13

	 4.38289000E-13	 0.00000000E+00	 0.00000000E+00
	 0.00000000E+00	 4.38289000E-13	 0.00000000E+00
	 0.00000000E+00	 0.00000000E+00	 4.38289000E-13

	 4.38289000E-13	 0.00000000E+00	 0.00000000E+00
	 0.00000000E+00	 4.38289000E-13	 0.00000000E+00
	 0.00000000E+00	 0.00000000E+00	 4.38289000E-13

	 4.38289000E-13	 0.00000000E+00	 0.00000000E+00
	 0.00000000E+00	 4.38289000E-13	 0.00000000E+00
	 0.00000000E+00	 0.00000000E+00	 4.38289000E-13

	 4.38289000E-13	 0.00000000E+00	 0.00000000E+00
	 0.00000000E+00	 4.38289000E-13	 0.00000000E+00
	 0.00000000E+00	 0.00000000E+00	 4.38289000E-13

	 4.38289000E-13	 0.00000000E+00	 0.00000000E+00
	 0.00000000E+00	 4.38289000E-13	 0.00000000E+00
	 0.00000000E+00	 0.00000000E+00	 4.38289000E-13

	 4.38289000E-13	 0.00000000E+00	 0.00000000E+00
	 0.00000000E+00	 4.38289000E-13	 0.00000000E+00
	 0.00000000E+00	 0.00000000E+00	 4.38289000E-13

	 4.38289000E-13	 0.00000000E+00	 0.00000000E+00
	 0.00000000E+00	 4.38289000E-13	 0.00000000E+00
	 0.00000000E+00	 0.00000000E+00	 4.38289000E-13

	 4.38289000E-13	 0.00000000E+00	 0.00000000E+00
	 0.00000000E+00	 4.38289000E-13	 0.00000000E+00
	 0.00000000E+00	 0.00000000E+00	 4.38289000E-13

	 4.38289000E-13	 0.00000000E+00	 0.00000000E+00
	 0.00000000E+00	 4.38289000E-13	 0.00000000E+00
	 0.00000000E+00	 0.00000000E+00	 4.38289000E-13

	 4.38289000E-13	 0.00000000E+00	 0.00000000E+00
	 0.00000000E+00	 4.38289000E-13	 0.00000000E+00
	 0.00000000E+00	 0.00000000E+00	 4.38289000E-13

	 4.38289000E-13	 0.00000000E+00	 0.00000000E+00
	 0.00000000E+00	 4.38289000E-13	 0.00000000E+00
	 0.00000000E+00	 0.00000000E+00	 4.38289000E-13

	 4.38289000E-13	 0.00000000E+00	 0.00000000E+00
	 0.00000000E+00	 4.38289000E-13	 0.00000000E+00
	 0.00000000E+00	 0.00000000E+00	 4.38289000E-13

	 4.38289000E-13	 0.00000000E+00	 0.00000000E+00
	 0.00000000E+00	 4.38289000E-13	 0.00000000E+00
	 0.00000000E+00	 0.00000000E+00	 4.38289000E-13

	 4.38289000E-13	 0.00000000E+00	 0.00000000E+00
	 0.00000000E+00	 4.38289000E-13	 0.00000000E+00
	 0.00000000E+00	 0.00000000E+00	 4.38289000E-13

	 4.38289000E-13	 0.00000000E+00	 0.00000000E+00
	 0.00000000E+00	 4.38289000E-13	 0.00000000E+00
	 0.00000000E+00	 0.00000000E+00	 4.38289000E-13

	 4.38289000E-13	 0.00000000E+00	 0.00000000E+00
	 0.00000000E+00	 4.38289000E-13	 0.00000000E+00
	 0.00000000E+00	 0.00000000E+00	 4.38289000E-13

	 4.38289000E-13	 0.00000000E+00	 0.00000000E+00
	 0.00000000E+00	 4.38289000E-13	 0.00000000E+00
	 0.00000000E+00	 0.00000000E+00	 4.38289000E-13

	 4.51570000E-13	 0.00000000E+00	 0.00000000E+00
	 0.00000000E+00	 4.51570000E-13	 0.00000000E+00
	 0.00000000E+00	 0.00000000E+00	 4.51570000E-13

	 4.64852000E-13	 0.00000000E+00	 0.00000000E+00
	 0.00000000E+00	 4.64852000E-13	 0.00000000E+00
	 0.00000000E+00	 0.00000000E+00	 4.64852000E-13

	 4.51570000E-13	 0.00000000E+00	 0.00000000E+00
	 0.00000000E+00	 4.51570000E-13	 0.00000000E+00
	 0.00000000E+00	 0.00000000E+00	 4.51570000E-13

	 4.42716000E-13	 0.00000000E+00	 0.00000000E+00
	 0.00000000E+00	 4.42716000E-13	 0.00000000E+00
	 0.00000000E+00	 0.00000000E+00	 4.42716000E-13

	 4.60425000E-13	 0.00000000E+00	 0.00000000E+00
	 0.00000000E+00	 4.60425000E-13	 0.00000000E+00
	 0.00000000E+00	 0.00000000E+00	 4.60425000E-13

	 4.64852000E-13	 0.00000000E+00	 0.00000000E+00
	 0.00000000E+00	 4.64852000E-13	 0.00000000E+00
	 0.00000000E+00	 0.00000000E+00	 4.64852000E-13

	 4.64852000E-13	 0.00000000E+00	 0.00000000E+00
	 0.00000000E+00	 4.64852000E-13	 0.00000000E+00
	 0.00000000E+00	 0.00000000E+00	 4.64852000E-13

	 4.64852000E-13	 0.00000000E+00	 0.00000000E+00
	 0.00000000E+00	 4.64852000E-13	 0.00000000E+00
	 0.00000000E+00	 0.00000000E+00	 4.64852000E-13

	 4.64852000E-13	 0.00000000E+00	 0.00000000E+00
	 0.00000000E+00	 4.64852000E-13	 0.00000000E+00
	 0.00000000E+00	 0.00000000E+00	 4.64852000E-13

	 4.64852000E-13	 0.00000000E+00	 0.00000000E+00
	 0.00000000E+00	 4.64852000E-13	 0.00000000E+00
	 0.00000000E+00	 0.00000000E+00	 4.64852000E-13

	 4.64852000E-13	 0.00000000E+00	 0.00000000E+00
	 0.00000000E+00	 4.64852000E-13	 0.00000000E+00
	 0.00000000E+00	 0.00000000E+00	 4.64852000E-13

	 4.60425000E-13	 0.00000000E+00	 0.00000000E+00
	 0.00000000E+00	 4.60425000E-13	 0.00000000E+00
	 0.00000000E+00	 0.00000000E+00	 4.60425000E-13

	 4.42716000E-13	 0.00000000E+00	 0.00000000E+00
	 0.00000000E+00	 4.42716000E-13	 0.00000000E+00
	 0.00000000E+00	 0.00000000E+00	 4.42716000E-13

	 4.47143000E-13	 0.00000000E+00	 0.00000000E+00
	 0.00000000E+00	 4.47143000E-13	 0.00000000E+00
	 0.00000000E+00	 0.00000000E+00	 4.47143000E-13

	 4.47143000E-13	 0.00000000E+00	 0.00000000E+00
	 0.00000000E+00	 4.47143000E-13	 0.00000000E+00
	 0.00000000E+00	 0.00000000E+00	 4.47143000E-13

	 4.38289000E-13	 0.00000000E+00	 0.00000000E+00
	 0.00000000E+00	 4.38289000E-13	 0.00000000E+00
	 0.00000000E+00	 0.00000000E+00	 4.38289000E-13

	 4.42716000E-13	 0.00000000E+00	 0.00000000E+00
	 0.00000000E+00	 4.42716000E-13	 0.00000000E+00
	 0.00000000E+00	 0.00000000E+00	 4.42716000E-13

	 4.47143000E-13	 0.00000000E+00	 0.00000000E+00
	 0.00000000E+00	 4.47143000E-13	 0.00000000E+00
	 0.00000000E+00	 0.00000000E+00	 4.47143000E-13

	 4.60425000E-13	 0.00000000E+00	 0.00000000E+00
	 0.00000000E+00	 4.60425000E-13	 0.00000000E+00
	 0.00000000E+00	 0.00000000E+00	 4.60425000E-13

	 4.51570000E-13	 0.00000000E+00	 0.00000000E+00
	 0.00000000E+00	 4.51570000E-13	 0.00000000E+00
	 0.00000000E+00	 0.00000000E+00	 4.51570000E-13

	 4.38289000E-13	 0.00000000E+00	 0.00000000E+00
	 0.00000000E+00	 4.38289000E-13	 0.00000000E+00
	 0.00000000E+00	 0.00000000E+00	 4.38289000E-13

	 4.38289000E-13	 0.00000000E+00	 0.00000000E+00
	 0.00000000E+00	 4.38289000E-13	 0.00000000E+00
	 0.00000000E+00	 0.00000000E+00	 4.38289000E-13

	 4.47143000E-13	 0.00000000E+00	 0.00000000E+00
	 0.00000000E+00	 4.47143000E-13	 0.00000000E+00
	 0.00000000E+00	 0.00000000E+00	 4.47143000E-13

	 4.47143000E-13	 0.00000000E+00	 0.00000000E+00
	 0.00000000E+00	 4.47143000E-13	 0.00000000E+00
	 0.00000000E+00	 0.00000000E+00	 4.47143000E-13

	 4.55997000E-13	 0.00000000E+00	 0.00000000E+00
	 0.00000000E+00	 4.55997000E-13	 0.00000000E+00
	 0.00000000E+00	 0.00000000E+00	 4.55997000E-13

	 4.64852000E-13	 0.00000000E+00	 0.00000000E+00
	 0.00000000E+00	 4.64852000E-13	 0.00000000E+00
	 0.00000000E+00	 0.00000000E+00	 4.64852000E-13

	 4.51570000E-13	 0.00000000E+00	 0.00000000E+00
	 0.00000000E+00	 4.51570000E-13	 0.00000000E+00
	 0.00000000E+00	 0.00000000E+00	 4.51570000E-13

	 4.51570000E-13	 0.00000000E+00	 0.00000000E+00
	 0.00000000E+00	 4.51570000E-13	 0.00000000E+00
	 0.00000000E+00	 0.00000000E+00	 4.51570000E-13

	 4.64852000E-13	 0.00000000E+00	 0.00000000E+00
	 0.00000000E+00	 4.64852000E-13	 0.00000000E+00
	 0.00000000E+00	 0.00000000E+00	 4.64852000E-13

	 4.64852000E-13	 0.00000000E+00	 0.00000000E+00
	 0.00000000E+00	 4.64852000E-13	 0.00000000E+00
	 0.00000000E+00	 0.00000000E+00	 4.64852000E-13

	 4.64852000E-13	 0.00000000E+00	 0.00000000E+00
	 0.00000000E+00	 4.64852000E-13	 0.00000000E+00
	 0.00000000E+00	 0.00000000E+00	 4.64852000E-13

	 4.55997000E-13	 0.00000000E+00	 0.00000000E+00
	 0.00000000E+00	 4.55997000E-13	 0.00000000E+00
	 0.00000000E+00	 0.00000000E+00	 4.55997000E-13

	 4.51570000E-13	 0.00000000E+00	 0.00000000E+00
	 0.00000000E+00	 4.51570000E-13	 0.00000000E+00
	 0.00000000E+00	 0.00000000E+00	 4.51570000E-13

	 4.64852000E-13	 0.00000000E+00	 0.00000000E+00
	 0.00000000E+00	 4.64852000E-13	 0.00000000E+00
	 0.00000000E+00	 0.00000000E+00	 4.64852000E-13

	 4.64852000E-13	 0.00000000E+00	 0.00000000E+00
	 0.00000000E+00	 4.64852000E-13	 0.00000000E+00
	 0.00000000E+00	 0.00000000E+00	 4.64852000E-13

	 4.64852000E-13	 0.00000000E+00	 0.00000000E+00
	 0.00000000E+00	 4.64852000E-13	 0.00000000E+00
	 0.00000000E+00	 0.00000000E+00	 4.64852000E-13

	 4.64852000E-13	 0.00000000E+00	 0.00000000E+00
	 0.00000000E+00	 4.64852000E-13	 0.00000000E+00
	 0.00000000E+00	 0.00000000E+00	 4.64852000E-13

	 4.64852000E-13	 0.00000000E+00	 0.00000000E+00
	 0.00000000E+00	 4.64852000E-13	 0.00000000E+00
	 0.00000000E+00	 0.00000000E+00	 4.64852000E-13

	 4.64852000E-13	 0.00000000E+00	 0.00000000E+00
	 0.00000000E+00	 4.64852000E-13	 0.00000000E+00
	 0.00000000E+00	 0.00000000E+00	 4.64852000E-13

	 4.64852000E-13	 0.00000000E+00	 0.00000000E+00
	 0.00000000E+00	 4.64852000E-13	 0.00000000E+00
	 0.00000000E+00	 0.00000000E+00	 4.64852000E-13

	 4.64852000E-13	 0.00000000E+00	 0.00000000E+00
	 0.00000000E+00	 4.64852000E-13	 0.00000000E+00
	 0.00000000E+00	 0.00000000E+00	 4.64852000E-13

	 4.64852000E-13	 0.00000000E+00	 0.00000000E+00
	 0.00000000E+00	 4.64852000E-13	 0.00000000E+00
	 0.00000000E+00	 0.00000000E+00	 4.64852000E-13

	 4.64852000E-13	 0.00000000E+00	 0.00000000E+00
	 0.00000000E+00	 4.64852000E-13	 0.00000000E+00
	 0.00000000E+00	 0.00000000E+00	 4.64852000E-13

	 4.51570000E-13	 0.00000000E+00	 0.00000000E+00
	 0.00000000E+00	 4.51570000E-13	 0.00000000E+00
	 0.00000000E+00	 0.00000000E+00	 4.51570000E-13

	 4.42716000E-13	 0.00000000E+00	 0.00000000E+00
	 0.00000000E+00	 4.42716000E-13	 0.00000000E+00
	 0.00000000E+00	 0.00000000E+00	 4.42716000E-13

	 4.60425000E-13	 0.00000000E+00	 0.00000000E+00
	 0.00000000E+00	 4.60425000E-13	 0.00000000E+00
	 0.00000000E+00	 0.00000000E+00	 4.60425000E-13

	 4.55997000E-13	 0.00000000E+00	 0.00000000E+00
	 0.00000000E+00	 4.55997000E-13	 0.00000000E+00
	 0.00000000E+00	 0.00000000E+00	 4.55997000E-13

	 4.38289000E-13	 0.00000000E+00	 0.00000000E+00
	 0.00000000E+00	 4.38289000E-13	 0.00000000E+00
	 0.00000000E+00	 0.00000000E+00	 4.38289000E-13

	 4.38289000E-13	 0.00000000E+00	 0.00000000E+00
	 0.00000000E+00	 4.38289000E-13	 0.00000000E+00
	 0.00000000E+00	 0.00000000E+00	 4.38289000E-13

	 4.38289000E-13	 0.00000000E+00	 0.00000000E+00
	 0.00000000E+00	 4.38289000E-13	 0.00000000E+00
	 0.00000000E+00	 0.00000000E+00	 4.38289000E-13

	 4.51570000E-13	 0.00000000E+00	 0.00000000E+00
	 0.00000000E+00	 4.51570000E-13	 0.00000000E+00
	 0.00000000E+00	 0.00000000E+00	 4.51570000E-13

	 4.64852000E-13	 0.00000000E+00	 0.00000000E+00
	 0.00000000E+00	 4.64852000E-13	 0.00000000E+00
	 0.00000000E+00	 0.00000000E+00	 4.64852000E-13

	 4.54891000E-13	 0.00000000E+00	 0.00000000E+00
	 0.00000000E+00	 4.54891000E-13	 0.00000000E+00
	 0.00000000E+00	 0.00000000E+00	 4.54891000E-13

	 4.38289000E-13	 0.00000000E+00	 0.00000000E+00
	 0.00000000E+00	 4.38289000E-13	 0.00000000E+00
	 0.00000000E+00	 0.00000000E+00	 4.38289000E-13

	 4.38289000E-13	 0.00000000E+00	 0.00000000E+00
	 0.00000000E+00	 4.38289000E-13	 0.00000000E+00
	 0.00000000E+00	 0.00000000E+00	 4.38289000E-13

	 4.38289000E-13	 0.00000000E+00	 0.00000000E+00
	 0.00000000E+00	 4.38289000E-13	 0.00000000E+00
	 0.00000000E+00	 0.00000000E+00	 4.38289000E-13

	 4.38289000E-13	 0.00000000E+00	 0.00000000E+00
	 0.00000000E+00	 4.38289000E-13	 0.00000000E+00
	 0.00000000E+00	 0.00000000E+00	 4.38289000E-13

	 4.38289000E-13	 0.00000000E+00	 0.00000000E+00
	 0.00000000E+00	 4.38289000E-13	 0.00000000E+00
	 0.00000000E+00	 0.00000000E+00	 4.38289000E-13

	 4.38289000E-13	 0.00000000E+00	 0.00000000E+00
	 0.00000000E+00	 4.38289000E-13	 0.00000000E+00
	 0.00000000E+00	 0.00000000E+00	 4.38289000E-13

	 4.38289000E-13	 0.00000000E+00	 0.00000000E+00
	 0.00000000E+00	 4.38289000E-13	 0.00000000E+00
	 0.00000000E+00	 0.00000000E+00	 4.38289000E-13

	 4.38289000E-13	 0.00000000E+00	 0.00000000E+00
	 0.00000000E+00	 4.38289000E-13	 0.00000000E+00
	 0.00000000E+00	 0.00000000E+00	 4.38289000E-13

	 4.51570000E-13	 0.00000000E+00	 0.00000000E+00
	 0.00000000E+00	 4.51570000E-13	 0.00000000E+00
	 0.00000000E+00	 0.00000000E+00	 4.51570000E-13

	 4.55997000E-13	 0.00000000E+00	 0.00000000E+00
	 0.00000000E+00	 4.55997000E-13	 0.00000000E+00
	 0.00000000E+00	 0.00000000E+00	 4.55997000E-13

	 4.55997000E-13	 0.00000000E+00	 0.00000000E+00
	 0.00000000E+00	 4.55997000E-13	 0.00000000E+00
	 0.00000000E+00	 0.00000000E+00	 4.55997000E-13

	 4.64852000E-13	 0.00000000E+00	 0.00000000E+00
	 0.00000000E+00	 4.64852000E-13	 0.00000000E+00
	 0.00000000E+00	 0.00000000E+00	 4.64852000E-13

	 4.64852000E-13	 0.00000000E+00	 0.00000000E+00
	 0.00000000E+00	 4.64852000E-13	 0.00000000E+00
	 0.00000000E+00	 0.00000000E+00	 4.64852000E-13

	 4.64852000E-13	 0.00000000E+00	 0.00000000E+00
	 0.00000000E+00	 4.64852000E-13	 0.00000000E+00
	 0.00000000E+00	 0.00000000E+00	 4.64852000E-13

	 4.64852000E-13	 0.00000000E+00	 0.00000000E+00
	 0.00000000E+00	 4.64852000E-13	 0.00000000E+00
	 0.00000000E+00	 0.00000000E+00	 4.64852000E-13

	 4.64852000E-13	 0.00000000E+00	 0.00000000E+00
	 0.00000000E+00	 4.64852000E-13	 0.00000000E+00
	 0.00000000E+00	 0.00000000E+00	 4.64852000E-13

	 4.64852000E-13	 0.00000000E+00	 0.00000000E+00
	 0.00000000E+00	 4.64852000E-13	 0.00000000E+00
	 0.00000000E+00	 0.00000000E+00	 4.64852000E-13

	 4.51570000E-13	 0.00000000E+00	 0.00000000E+00
	 0.00000000E+00	 4.51570000E-13	 0.00000000E+00
	 0.00000000E+00	 0.00000000E+00	 4.51570000E-13

	 4.38289000E-13	 0.00000000E+00	 0.00000000E+00
	 0.00000000E+00	 4.38289000E-13	 0.00000000E+00
	 0.00000000E+00	 0.00000000E+00	 4.38289000E-13

	 4.38289000E-13	 0.00000000E+00	 0.00000000E+00
	 0.00000000E+00	 4.38289000E-13	 0.00000000E+00
	 0.00000000E+00	 0.00000000E+00	 4.38289000E-13

	 4.51570000E-13	 0.00000000E+00	 0.00000000E+00
	 0.00000000E+00	 4.51570000E-13	 0.00000000E+00
	 0.00000000E+00	 0.00000000E+00	 4.51570000E-13

	 4.64852000E-13	 0.00000000E+00	 0.00000000E+00
	 0.00000000E+00	 4.64852000E-13	 0.00000000E+00
	 0.00000000E+00	 0.00000000E+00	 4.64852000E-13

	 4.51570000E-13	 0.00000000E+00	 0.00000000E+00
	 0.00000000E+00	 4.51570000E-13	 0.00000000E+00
	 0.00000000E+00	 0.00000000E+00	 4.51570000E-13

	 4.51570000E-13	 0.00000000E+00	 0.00000000E+00
	 0.00000000E+00	 4.51570000E-13	 0.00000000E+00
	 0.00000000E+00	 0.00000000E+00	 4.51570000E-13

	 4.64852000E-13	 0.00000000E+00	 0.00000000E+00
	 0.00000000E+00	 4.64852000E-13	 0.00000000E+00
	 0.00000000E+00	 0.00000000E+00	 4.64852000E-13

	 4.64852000E-13	 0.00000000E+00	 0.00000000E+00
	 0.00000000E+00	 4.64852000E-13	 0.00000000E+00
	 0.00000000E+00	 0.00000000E+00	 4.64852000E-13

	 4.55997000E-13	 0.00000000E+00	 0.00000000E+00
	 0.00000000E+00	 4.55997000E-13	 0.00000000E+00
	 0.00000000E+00	 0.00000000E+00	 4.55997000E-13

	 4.60425000E-13	 0.00000000E+00	 0.00000000E+00
	 0.00000000E+00	 4.60425000E-13	 0.00000000E+00
	 0.00000000E+00	 0.00000000E+00	 4.60425000E-13

	 4.51570000E-13	 0.00000000E+00	 0.00000000E+00
	 0.00000000E+00	 4.51570000E-13	 0.00000000E+00
	 0.00000000E+00	 0.00000000E+00	 4.51570000E-13

	 4.38289000E-13	 0.00000000E+00	 0.00000000E+00
	 0.00000000E+00	 4.38289000E-13	 0.00000000E+00
	 0.00000000E+00	 0.00000000E+00	 4.38289000E-13

	 4.38289000E-13	 0.00000000E+00	 0.00000000E+00
	 0.00000000E+00	 4.38289000E-13	 0.00000000E+00
	 0.00000000E+00	 0.00000000E+00	 4.38289000E-13

	 4.38289000E-13	 0.00000000E+00	 0.00000000E+00
	 0.00000000E+00	 4.38289000E-13	 0.00000000E+00
	 0.00000000E+00	 0.00000000E+00	 4.38289000E-13

	 4.51570000E-13	 0.00000000E+00	 0.00000000E+00
	 0.00000000E+00	 4.51570000E-13	 0.00000000E+00
	 0.00000000E+00	 0.00000000E+00	 4.51570000E-13

	 4.64852000E-13	 0.00000000E+00	 0.00000000E+00
	 0.00000000E+00	 4.64852000E-13	 0.00000000E+00
	 0.00000000E+00	 0.00000000E+00	 4.64852000E-13

	 4.64852000E-13	 0.00000000E+00	 0.00000000E+00
	 0.00000000E+00	 4.64852000E-13	 0.00000000E+00
	 0.00000000E+00	 0.00000000E+00	 4.64852000E-13

	 4.64852000E-13	 0.00000000E+00	 0.00000000E+00
	 0.00000000E+00	 4.64852000E-13	 0.00000000E+00
	 0.00000000E+00	 0.00000000E+00	 4.64852000E-13

	 4.64852000E-13	 0.00000000E+00	 0.00000000E+00
	 0.00000000E+00	 4.64852000E-13	 0.00000000E+00
	 0.00000000E+00	 0.00000000E+00	 4.64852000E-13

	 4.64852000E-13	 0.00000000E+00	 0.00000000E+00
	 0.00000000E+00	 4.64852000E-13	 0.00000000E+00
	 0.00000000E+00	 0.00000000E+00	 4.64852000E-13

	 4.64852000E-13	 0.00000000E+00	 0.00000000E+00
	 0.00000000E+00	 4.64852000E-13	 0.00000000E+00
	 0.00000000E+00	 0.00000000E+00	 4.64852000E-13

	 4.64852000E-13	 0.00000000E+00	 0.00000000E+00
	 0.00000000E+00	 4.64852000E-13	 0.00000000E+00
	 0.00000000E+00	 0.00000000E+00	 4.64852000E-13

	 4.47143000E-13	 0.00000000E+00	 0.00000000E+00
	 0.00000000E+00	 4.47143000E-13	 0.00000000E+00
	 0.00000000E+00	 0.00000000E+00	 4.47143000E-13

	 4.42716000E-13	 0.00000000E+00	 0.00000000E+00
	 0.00000000E+00	 4.42716000E-13	 0.00000000E+00
	 0.00000000E+00	 0.00000000E+00	 4.42716000E-13

	 4.47143000E-13	 0.00000000E+00	 0.00000000E+00
	 0.00000000E+00	 4.47143000E-13	 0.00000000E+00
	 0.00000000E+00	 0.00000000E+00	 4.47143000E-13

	 4.51570000E-13	 0.00000000E+00	 0.00000000E+00
	 0.00000000E+00	 4.51570000E-13	 0.00000000E+00
	 0.00000000E+00	 0.00000000E+00	 4.51570000E-13

	 4.51570000E-13	 0.00000000E+00	 0.00000000E+00
	 0.00000000E+00	 4.51570000E-13	 0.00000000E+00
	 0.00000000E+00	 0.00000000E+00	 4.51570000E-13

	 4.47143000E-13	 0.00000000E+00	 0.00000000E+00
	 0.00000000E+00	 4.47143000E-13	 0.00000000E+00
	 0.00000000E+00	 0.00000000E+00	 4.47143000E-13

	 4.42716000E-13	 0.00000000E+00	 0.00000000E+00
	 0.00000000E+00	 4.42716000E-13	 0.00000000E+00
	 0.00000000E+00	 0.00000000E+00	 4.42716000E-13

	 4.42716000E-13	 0.00000000E+00	 0.00000000E+00
	 0.00000000E+00	 4.42716000E-13	 0.00000000E+00
	 0.00000000E+00	 0.00000000E+00	 4.42716000E-13

	 4.55997000E-13	 0.00000000E+00	 0.00000000E+00
	 0.00000000E+00	 4.55997000E-13	 0.00000000E+00
	 0.00000000E+00	 0.00000000E+00	 4.55997000E-13

	 4.64852000E-13	 0.00000000E+00	 0.00000000E+00
	 0.00000000E+00	 4.64852000E-13	 0.00000000E+00
	 0.00000000E+00	 0.00000000E+00	 4.64852000E-13

	 4.64852000E-13	 0.00000000E+00	 0.00000000E+00
	 0.00000000E+00	 4.64852000E-13	 0.00000000E+00
	 0.00000000E+00	 0.00000000E+00	 4.64852000E-13

	 4.64852000E-13	 0.00000000E+00	 0.00000000E+00
	 0.00000000E+00	 4.64852000E-13	 0.00000000E+00
	 0.00000000E+00	 0.00000000E+00	 4.64852000E-13

	 4.64852000E-13	 0.00000000E+00	 0.00000000E+00
	 0.00000000E+00	 4.64852000E-13	 0.00000000E+00
	 0.00000000E+00	 0.00000000E+00	 4.64852000E-13

	 4.64852000E-13	 0.00000000E+00	 0.00000000E+00
	 0.00000000E+00	 4.64852000E-13	 0.00000000E+00
	 0.00000000E+00	 0.00000000E+00	 4.64852000E-13

	 4.64852000E-13	 0.00000000E+00	 0.00000000E+00
	 0.00000000E+00	 4.64852000E-13	 0.00000000E+00
	 0.00000000E+00	 0.00000000E+00	 4.64852000E-13

	 4.64852000E-13	 0.00000000E+00	 0.00000000E+00
	 0.00000000E+00	 4.64852000E-13	 0.00000000E+00
	 0.00000000E+00	 0.00000000E+00	 4.64852000E-13

	 4.64852000E-13	 0.00000000E+00	 0.00000000E+00
	 0.00000000E+00	 4.64852000E-13	 0.00000000E+00
	 0.00000000E+00	 0.00000000E+00	 4.64852000E-13

	 4.64852000E-13	 0.00000000E+00	 0.00000000E+00
	 0.00000000E+00	 4.64852000E-13	 0.00000000E+00
	 0.00000000E+00	 0.00000000E+00	 4.64852000E-13

	 4.64852000E-13	 0.00000000E+00	 0.00000000E+00
	 0.00000000E+00	 4.64852000E-13	 0.00000000E+00
	 0.00000000E+00	 0.00000000E+00	 4.64852000E-13

	 4.64852000E-13	 0.00000000E+00	 0.00000000E+00
	 0.00000000E+00	 4.64852000E-13	 0.00000000E+00
	 0.00000000E+00	 0.00000000E+00	 4.64852000E-13

	 4.64852000E-13	 0.00000000E+00	 0.00000000E+00
	 0.00000000E+00	 4.64852000E-13	 0.00000000E+00
	 0.00000000E+00	 0.00000000E+00	 4.64852000E-13

	 4.64852000E-13	 0.00000000E+00	 0.00000000E+00
	 0.00000000E+00	 4.64852000E-13	 0.00000000E+00
	 0.00000000E+00	 0.00000000E+00	 4.64852000E-13

	 4.64852000E-13	 0.00000000E+00	 0.00000000E+00
	 0.00000000E+00	 4.64852000E-13	 0.00000000E+00
	 0.00000000E+00	 0.00000000E+00	 4.64852000E-13

	 4.64852000E-13	 0.00000000E+00	 0.00000000E+00
	 0.00000000E+00	 4.64852000E-13	 0.00000000E+00
	 0.00000000E+00	 0.00000000E+00	 4.64852000E-13

	 4.64852000E-13	 0.00000000E+00	 0.00000000E+00
	 0.00000000E+00	 4.64852000E-13	 0.00000000E+00
	 0.00000000E+00	 0.00000000E+00	 4.64852000E-13

	 4.64852000E-13	 0.00000000E+00	 0.00000000E+00
	 0.00000000E+00	 4.64852000E-13	 0.00000000E+00
	 0.00000000E+00	 0.00000000E+00	 4.64852000E-13

	 4.64852000E-13	 0.00000000E+00	 0.00000000E+00
	 0.00000000E+00	 4.64852000E-13	 0.00000000E+00
	 0.00000000E+00	 0.00000000E+00	 4.64852000E-13

	 4.64852000E-13	 0.00000000E+00	 0.00000000E+00
	 0.00000000E+00	 4.64852000E-13	 0.00000000E+00
	 0.00000000E+00	 0.00000000E+00	 4.64852000E-13

	 4.64852000E-13	 0.00000000E+00	 0.00000000E+00
	 0.00000000E+00	 4.64852000E-13	 0.00000000E+00
	 0.00000000E+00	 0.00000000E+00	 4.64852000E-13

	 4.64852000E-13	 0.00000000E+00	 0.00000000E+00
	 0.00000000E+00	 4.64852000E-13	 0.00000000E+00
	 0.00000000E+00	 0.00000000E+00	 4.64852000E-13

	 4.64852000E-13	 0.00000000E+00	 0.00000000E+00
	 0.00000000E+00	 4.64852000E-13	 0.00000000E+00
	 0.00000000E+00	 0.00000000E+00	 4.64852000E-13

	 4.51570000E-13	 0.00000000E+00	 0.00000000E+00
	 0.00000000E+00	 4.51570000E-13	 0.00000000E+00
	 0.00000000E+00	 0.00000000E+00	 4.51570000E-13

	 4.42716000E-13	 0.00000000E+00	 0.00000000E+00
	 0.00000000E+00	 4.42716000E-13	 0.00000000E+00
	 0.00000000E+00	 0.00000000E+00	 4.42716000E-13

	 4.55997000E-13	 0.00000000E+00	 0.00000000E+00
	 0.00000000E+00	 4.55997000E-13	 0.00000000E+00
	 0.00000000E+00	 0.00000000E+00	 4.55997000E-13

	 4.51570000E-13	 0.00000000E+00	 0.00000000E+00
	 0.00000000E+00	 4.51570000E-13	 0.00000000E+00
	 0.00000000E+00	 0.00000000E+00	 4.51570000E-13

	 4.38289000E-13	 0.00000000E+00	 0.00000000E+00
	 0.00000000E+00	 4.38289000E-13	 0.00000000E+00
	 0.00000000E+00	 0.00000000E+00	 4.38289000E-13

	 4.38289000E-13	 0.00000000E+00	 0.00000000E+00
	 0.00000000E+00	 4.38289000E-13	 0.00000000E+00
	 0.00000000E+00	 0.00000000E+00	 4.38289000E-13

	 4.42716000E-13	 0.00000000E+00	 0.00000000E+00
	 0.00000000E+00	 4.42716000E-13	 0.00000000E+00
	 0.00000000E+00	 0.00000000E+00	 4.42716000E-13

	 4.42716000E-13	 0.00000000E+00	 0.00000000E+00
	 0.00000000E+00	 4.42716000E-13	 0.00000000E+00
	 0.00000000E+00	 0.00000000E+00	 4.42716000E-13

	 4.38289000E-13	 0.00000000E+00	 0.00000000E+00
	 0.00000000E+00	 4.38289000E-13	 0.00000000E+00
	 0.00000000E+00	 0.00000000E+00	 4.38289000E-13

	 4.42716000E-13	 0.00000000E+00	 0.00000000E+00
	 0.00000000E+00	 4.42716000E-13	 0.00000000E+00
	 0.00000000E+00	 0.00000000E+00	 4.42716000E-13

	 4.42716000E-13	 0.00000000E+00	 0.00000000E+00
	 0.00000000E+00	 4.42716000E-13	 0.00000000E+00
	 0.00000000E+00	 0.00000000E+00	 4.42716000E-13

	 4.38289000E-13	 0.00000000E+00	 0.00000000E+00
	 0.00000000E+00	 4.38289000E-13	 0.00000000E+00
	 0.00000000E+00	 0.00000000E+00	 4.38289000E-13

	 4.38289000E-13	 0.00000000E+00	 0.00000000E+00
	 0.00000000E+00	 4.38289000E-13	 0.00000000E+00
	 0.00000000E+00	 0.00000000E+00	 4.38289000E-13

	 4.38289000E-13	 0.00000000E+00	 0.00000000E+00
	 0.00000000E+00	 4.38289000E-13	 0.00000000E+00
	 0.00000000E+00	 0.00000000E+00	 4.38289000E-13

	 4.42716000E-13	 0.00000000E+00	 0.00000000E+00
	 0.00000000E+00	 4.42716000E-13	 0.00000000E+00
	 0.00000000E+00	 0.00000000E+00	 4.42716000E-13

	 4.47143000E-13	 0.00000000E+00	 0.00000000E+00
	 0.00000000E+00	 4.47143000E-13	 0.00000000E+00
	 0.00000000E+00	 0.00000000E+00	 4.47143000E-13

	 4.42716000E-13	 0.00000000E+00	 0.00000000E+00
	 0.00000000E+00	 4.42716000E-13	 0.00000000E+00
	 0.00000000E+00	 0.00000000E+00	 4.42716000E-13

	 4.60425000E-13	 0.00000000E+00	 0.00000000E+00
	 0.00000000E+00	 4.60425000E-13	 0.00000000E+00
	 0.00000000E+00	 0.00000000E+00	 4.60425000E-13

	 4.64852000E-13	 0.00000000E+00	 0.00000000E+00
	 0.00000000E+00	 4.64852000E-13	 0.00000000E+00
	 0.00000000E+00	 0.00000000E+00	 4.64852000E-13

	 4.64852000E-13	 0.00000000E+00	 0.00000000E+00
	 0.00000000E+00	 4.64852000E-13	 0.00000000E+00
	 0.00000000E+00	 0.00000000E+00	 4.64852000E-13

	 4.64852000E-13	 0.00000000E+00	 0.00000000E+00
	 0.00000000E+00	 4.64852000E-13	 0.00000000E+00
	 0.00000000E+00	 0.00000000E+00	 4.64852000E-13

	 4.64852000E-13	 0.00000000E+00	 0.00000000E+00
	 0.00000000E+00	 4.64852000E-13	 0.00000000E+00
	 0.00000000E+00	 0.00000000E+00	 4.64852000E-13

	 4.64852000E-13	 0.00000000E+00	 0.00000000E+00
	 0.00000000E+00	 4.64852000E-13	 0.00000000E+00
	 0.00000000E+00	 0.00000000E+00	 4.64852000E-13

	 4.64852000E-13	 0.00000000E+00	 0.00000000E+00
	 0.00000000E+00	 4.64852000E-13	 0.00000000E+00
	 0.00000000E+00	 0.00000000E+00	 4.64852000E-13

	 4.64852000E-13	 0.00000000E+00	 0.00000000E+00
	 0.00000000E+00	 4.64852000E-13	 0.00000000E+00
	 0.00000000E+00	 0.00000000E+00	 4.64852000E-13

	 4.55997000E-13	 0.00000000E+00	 0.00000000E+00
	 0.00000000E+00	 4.55997000E-13	 0.00000000E+00
	 0.00000000E+00	 0.00000000E+00	 4.55997000E-13

	 4.47143000E-13	 0.00000000E+00	 0.00000000E+00
	 0.00000000E+00	 4.47143000E-13	 0.00000000E+00
	 0.00000000E+00	 0.00000000E+00	 4.47143000E-13

	 4.42716000E-13	 0.00000000E+00	 0.00000000E+00
	 0.00000000E+00	 4.42716000E-13	 0.00000000E+00
	 0.00000000E+00	 0.00000000E+00	 4.42716000E-13

	 4.47143000E-13	 0.00000000E+00	 0.00000000E+00
	 0.00000000E+00	 4.47143000E-13	 0.00000000E+00
	 0.00000000E+00	 0.00000000E+00	 4.47143000E-13

	 4.55997000E-13	 0.00000000E+00	 0.00000000E+00
	 0.00000000E+00	 4.55997000E-13	 0.00000000E+00
	 0.00000000E+00	 0.00000000E+00	 4.55997000E-13

	 4.60425000E-13	 0.00000000E+00	 0.00000000E+00
	 0.00000000E+00	 4.60425000E-13	 0.00000000E+00
	 0.00000000E+00	 0.00000000E+00	 4.60425000E-13

	 4.64852000E-13	 0.00000000E+00	 0.00000000E+00
	 0.00000000E+00	 4.64852000E-13	 0.00000000E+00
	 0.00000000E+00	 0.00000000E+00	 4.64852000E-13

	 4.64852000E-13	 0.00000000E+00	 0.00000000E+00
	 0.00000000E+00	 4.64852000E-13	 0.00000000E+00
	 0.00000000E+00	 0.00000000E+00	 4.64852000E-13

	 4.64852000E-13	 0.00000000E+00	 0.00000000E+00
	 0.00000000E+00	 4.64852000E-13	 0.00000000E+00
	 0.00000000E+00	 0.00000000E+00	 4.64852000E-13

	 4.64852000E-13	 0.00000000E+00	 0.00000000E+00
	 0.00000000E+00	 4.64852000E-13	 0.00000000E+00
	 0.00000000E+00	 0.00000000E+00	 4.64852000E-13

	 4.64852000E-13	 0.00000000E+00	 0.00000000E+00
	 0.00000000E+00	 4.64852000E-13	 0.00000000E+00
	 0.00000000E+00	 0.00000000E+00	 4.64852000E-13

	 4.47143000E-13	 0.00000000E+00	 0.00000000E+00
	 0.00000000E+00	 4.47143000E-13	 0.00000000E+00
	 0.00000000E+00	 0.00000000E+00	 4.47143000E-13

	 4.47143000E-13	 0.00000000E+00	 0.00000000E+00
	 0.00000000E+00	 4.47143000E-13	 0.00000000E+00
	 0.00000000E+00	 0.00000000E+00	 4.47143000E-13

	 4.60425000E-13	 0.00000000E+00	 0.00000000E+00
	 0.00000000E+00	 4.60425000E-13	 0.00000000E+00
	 0.00000000E+00	 0.00000000E+00	 4.60425000E-13

	 4.64852000E-13	 0.00000000E+00	 0.00000000E+00
	 0.00000000E+00	 4.64852000E-13	 0.00000000E+00
	 0.00000000E+00	 0.00000000E+00	 4.64852000E-13

	 4.64852000E-13	 0.00000000E+00	 0.00000000E+00
	 0.00000000E+00	 4.64852000E-13	 0.00000000E+00
	 0.00000000E+00	 0.00000000E+00	 4.64852000E-13

	 4.64852000E-13	 0.00000000E+00	 0.00000000E+00
	 0.00000000E+00	 4.64852000E-13	 0.00000000E+00
	 0.00000000E+00	 0.00000000E+00	 4.64852000E-13

	 4.64852000E-13	 0.00000000E+00	 0.00000000E+00
	 0.00000000E+00	 4.64852000E-13	 0.00000000E+00
	 0.00000000E+00	 0.00000000E+00	 4.64852000E-13

	 4.64852000E-13	 0.00000000E+00	 0.00000000E+00
	 0.00000000E+00	 4.64852000E-13	 0.00000000E+00
	 0.00000000E+00	 0.00000000E+00	 4.64852000E-13

	 4.64852000E-13	 0.00000000E+00	 0.00000000E+00
	 0.00000000E+00	 4.64852000E-13	 0.00000000E+00
	 0.00000000E+00	 0.00000000E+00	 4.64852000E-13

	 4.64852000E-13	 0.00000000E+00	 0.00000000E+00
	 0.00000000E+00	 4.64852000E-13	 0.00000000E+00
	 0.00000000E+00	 0.00000000E+00	 4.64852000E-13

	 4.55997000E-13	 0.00000000E+00	 0.00000000E+00
	 0.00000000E+00	 4.55997000E-13	 0.00000000E+00
	 0.00000000E+00	 0.00000000E+00	 4.55997000E-13

	 4.55997000E-13	 0.00000000E+00	 0.00000000E+00
	 0.00000000E+00	 4.55997000E-13	 0.00000000E+00
	 0.00000000E+00	 0.00000000E+00	 4.55997000E-13

	 4.64852000E-13	 0.00000000E+00	 0.00000000E+00
	 0.00000000E+00	 4.64852000E-13	 0.00000000E+00
	 0.00000000E+00	 0.00000000E+00	 4.64852000E-13

	 4.64852000E-13	 0.00000000E+00	 0.00000000E+00
	 0.00000000E+00	 4.64852000E-13	 0.00000000E+00
	 0.00000000E+00	 0.00000000E+00	 4.64852000E-13

	 4.51570000E-13	 0.00000000E+00	 0.00000000E+00
	 0.00000000E+00	 4.51570000E-13	 0.00000000E+00
	 0.00000000E+00	 0.00000000E+00	 4.51570000E-13

	 4.42716000E-13	 0.00000000E+00	 0.00000000E+00
	 0.00000000E+00	 4.42716000E-13	 0.00000000E+00
	 0.00000000E+00	 0.00000000E+00	 4.42716000E-13

	 4.38289000E-13	 0.00000000E+00	 0.00000000E+00
	 0.00000000E+00	 4.38289000E-13	 0.00000000E+00
	 0.00000000E+00	 0.00000000E+00	 4.38289000E-13

	 4.38289000E-13	 0.00000000E+00	 0.00000000E+00
	 0.00000000E+00	 4.38289000E-13	 0.00000000E+00
	 0.00000000E+00	 0.00000000E+00	 4.38289000E-13

	 4.38289000E-13	 0.00000000E+00	 0.00000000E+00
	 0.00000000E+00	 4.38289000E-13	 0.00000000E+00
	 0.00000000E+00	 0.00000000E+00	 4.38289000E-13

	 4.38289000E-13	 0.00000000E+00	 0.00000000E+00
	 0.00000000E+00	 4.38289000E-13	 0.00000000E+00
	 0.00000000E+00	 0.00000000E+00	 4.38289000E-13

	 4.38289000E-13	 0.00000000E+00	 0.00000000E+00
	 0.00000000E+00	 4.38289000E-13	 0.00000000E+00
	 0.00000000E+00	 0.00000000E+00	 4.38289000E-13

	 4.38289000E-13	 0.00000000E+00	 0.00000000E+00
	 0.00000000E+00	 4.38289000E-13	 0.00000000E+00
	 0.00000000E+00	 0.00000000E+00	 4.38289000E-13

	 4.38289000E-13	 0.00000000E+00	 0.00000000E+00
	 0.00000000E+00	 4.38289000E-13	 0.00000000E+00
	 0.00000000E+00	 0.00000000E+00	 4.38289000E-13

	 4.42716000E-13	 0.00000000E+00	 0.00000000E+00
	 0.00000000E+00	 4.42716000E-13	 0.00000000E+00
	 0.00000000E+00	 0.00000000E+00	 4.42716000E-13

	 4.47143000E-13	 0.00000000E+00	 0.00000000E+00
	 0.00000000E+00	 4.47143000E-13	 0.00000000E+00
	 0.00000000E+00	 0.00000000E+00	 4.47143000E-13

	 4.60425000E-13	 0.00000000E+00	 0.00000000E+00
	 0.00000000E+00	 4.60425000E-13	 0.00000000E+00
	 0.00000000E+00	 0.00000000E+00	 4.60425000E-13

	 4.64852000E-13	 0.00000000E+00	 0.00000000E+00
	 0.00000000E+00	 4.64852000E-13	 0.00000000E+00
	 0.00000000E+00	 0.00000000E+00	 4.64852000E-13

	 4.51570000E-13	 0.00000000E+00	 0.00000000E+00
	 0.00000000E+00	 4.51570000E-13	 0.00000000E+00
	 0.00000000E+00	 0.00000000E+00	 4.51570000E-13

	 4.38289000E-13	 0.00000000E+00	 0.00000000E+00
	 0.00000000E+00	 4.38289000E-13	 0.00000000E+00
	 0.00000000E+00	 0.00000000E+00	 4.38289000E-13

	 4.38289000E-13	 0.00000000E+00	 0.00000000E+00
	 0.00000000E+00	 4.38289000E-13	 0.00000000E+00
	 0.00000000E+00	 0.00000000E+00	 4.38289000E-13

	 4.38289000E-13	 0.00000000E+00	 0.00000000E+00
	 0.00000000E+00	 4.38289000E-13	 0.00000000E+00
	 0.00000000E+00	 0.00000000E+00	 4.38289000E-13

	 4.38289000E-13	 0.00000000E+00	 0.00000000E+00
	 0.00000000E+00	 4.38289000E-13	 0.00000000E+00
	 0.00000000E+00	 0.00000000E+00	 4.38289000E-13

	 4.38289000E-13	 0.00000000E+00	 0.00000000E+00
	 0.00000000E+00	 4.38289000E-13	 0.00000000E+00
	 0.00000000E+00	 0.00000000E+00	 4.38289000E-13

	 4.38289000E-13	 0.00000000E+00	 0.00000000E+00
	 0.00000000E+00	 4.38289000E-13	 0.00000000E+00
	 0.00000000E+00	 0.00000000E+00	 4.38289000E-13

	 4.64852000E-13	 0.00000000E+00	 0.00000000E+00
	 0.00000000E+00	 4.64852000E-13	 0.00000000E+00
	 0.00000000E+00	 0.00000000E+00	 4.64852000E-13

	 4.64852000E-13	 0.00000000E+00	 0.00000000E+00
	 0.00000000E+00	 4.64852000E-13	 0.00000000E+00
	 0.00000000E+00	 0.00000000E+00	 4.64852000E-13

	 4.64852000E-13	 0.00000000E+00	 0.00000000E+00
	 0.00000000E+00	 4.64852000E-13	 0.00000000E+00
	 0.00000000E+00	 0.00000000E+00	 4.64852000E-13

	 4.64852000E-13	 0.00000000E+00	 0.00000000E+00
	 0.00000000E+00	 4.64852000E-13	 0.00000000E+00
	 0.00000000E+00	 0.00000000E+00	 4.64852000E-13

	 4.64852000E-13	 0.00000000E+00	 0.00000000E+00
	 0.00000000E+00	 4.64852000E-13	 0.00000000E+00
	 0.00000000E+00	 0.00000000E+00	 4.64852000E-13

	 4.64852000E-13	 0.00000000E+00	 0.00000000E+00
	 0.00000000E+00	 4.64852000E-13	 0.00000000E+00
	 0.00000000E+00	 0.00000000E+00	 4.64852000E-13

	 4.64852000E-13	 0.00000000E+00	 0.00000000E+00
	 0.00000000E+00	 4.64852000E-13	 0.00000000E+00
	 0.00000000E+00	 0.00000000E+00	 4.64852000E-13

	 4.64852000E-13	 0.00000000E+00	 0.00000000E+00
	 0.00000000E+00	 4.64852000E-13	 0.00000000E+00
	 0.00000000E+00	 0.00000000E+00	 4.64852000E-13

	 4.64852000E-13	 0.00000000E+00	 0.00000000E+00
	 0.00000000E+00	 4.64852000E-13	 0.00000000E+00
	 0.00000000E+00	 0.00000000E+00	 4.64852000E-13

	 4.64852000E-13	 0.00000000E+00	 0.00000000E+00
	 0.00000000E+00	 4.64852000E-13	 0.00000000E+00
	 0.00000000E+00	 0.00000000E+00	 4.64852000E-13

	 4.64852000E-13	 0.00000000E+00	 0.00000000E+00
	 0.00000000E+00	 4.64852000E-13	 0.00000000E+00
	 0.00000000E+00	 0.00000000E+00	 4.64852000E-13

	 4.64852000E-13	 0.00000000E+00	 0.00000000E+00
	 0.00000000E+00	 4.64852000E-13	 0.00000000E+00
	 0.00000000E+00	 0.00000000E+00	 4.64852000E-13

	 4.64852000E-13	 0.00000000E+00	 0.00000000E+00
	 0.00000000E+00	 4.64852000E-13	 0.00000000E+00
	 0.00000000E+00	 0.00000000E+00	 4.64852000E-13

	 4.64852000E-13	 0.00000000E+00	 0.00000000E+00
	 0.00000000E+00	 4.64852000E-13	 0.00000000E+00
	 0.00000000E+00	 0.00000000E+00	 4.64852000E-13

	 4.64852000E-13	 0.00000000E+00	 0.00000000E+00
	 0.00000000E+00	 4.64852000E-13	 0.00000000E+00
	 0.00000000E+00	 0.00000000E+00	 4.64852000E-13

	 4.64852000E-13	 0.00000000E+00	 0.00000000E+00
	 0.00000000E+00	 4.64852000E-13	 0.00000000E+00
	 0.00000000E+00	 0.00000000E+00	 4.64852000E-13

	 4.64852000E-13	 0.00000000E+00	 0.00000000E+00
	 0.00000000E+00	 4.64852000E-13	 0.00000000E+00
	 0.00000000E+00	 0.00000000E+00	 4.64852000E-13

	 4.64852000E-13	 0.00000000E+00	 0.00000000E+00
	 0.00000000E+00	 4.64852000E-13	 0.00000000E+00
	 0.00000000E+00	 0.00000000E+00	 4.64852000E-13

	 4.64852000E-13	 0.00000000E+00	 0.00000000E+00
	 0.00000000E+00	 4.64852000E-13	 0.00000000E+00
	 0.00000000E+00	 0.00000000E+00	 4.64852000E-13

	 4.64852000E-13	 0.00000000E+00	 0.00000000E+00
	 0.00000000E+00	 4.64852000E-13	 0.00000000E+00
	 0.00000000E+00	 0.00000000E+00	 4.64852000E-13

	 4.64852000E-13	 0.00000000E+00	 0.00000000E+00
	 0.00000000E+00	 4.64852000E-13	 0.00000000E+00
	 0.00000000E+00	 0.00000000E+00	 4.64852000E-13

	 4.64852000E-13	 0.00000000E+00	 0.00000000E+00
	 0.00000000E+00	 4.64852000E-13	 0.00000000E+00
	 0.00000000E+00	 0.00000000E+00	 4.64852000E-13

	 4.64852000E-13	 0.00000000E+00	 0.00000000E+00
	 0.00000000E+00	 4.64852000E-13	 0.00000000E+00
	 0.00000000E+00	 0.00000000E+00	 4.64852000E-13

	 4.64852000E-13	 0.00000000E+00	 0.00000000E+00
	 0.00000000E+00	 4.64852000E-13	 0.00000000E+00
	 0.00000000E+00	 0.00000000E+00	 4.64852000E-13

	 4.64852000E-13	 0.00000000E+00	 0.00000000E+00
	 0.00000000E+00	 4.64852000E-13	 0.00000000E+00
	 0.00000000E+00	 0.00000000E+00	 4.64852000E-13

	 4.64852000E-13	 0.00000000E+00	 0.00000000E+00
	 0.00000000E+00	 4.64852000E-13	 0.00000000E+00
	 0.00000000E+00	 0.00000000E+00	 4.64852000E-13

	 4.64852000E-13	 0.00000000E+00	 0.00000000E+00
	 0.00000000E+00	 4.64852000E-13	 0.00000000E+00
	 0.00000000E+00	 0.00000000E+00	 4.64852000E-13

	 4.64852000E-13	 0.00000000E+00	 0.00000000E+00
	 0.00000000E+00	 4.64852000E-13	 0.00000000E+00
	 0.00000000E+00	 0.00000000E+00	 4.64852000E-13

	 4.64852000E-13	 0.00000000E+00	 0.00000000E+00
	 0.00000000E+00	 4.64852000E-13	 0.00000000E+00
	 0.00000000E+00	 0.00000000E+00	 4.64852000E-13

	 4.64852000E-13	 0.00000000E+00	 0.00000000E+00
	 0.00000000E+00	 4.64852000E-13	 0.00000000E+00
	 0.00000000E+00	 0.00000000E+00	 4.64852000E-13

	 4.64852000E-13	 0.00000000E+00	 0.00000000E+00
	 0.00000000E+00	 4.64852000E-13	 0.00000000E+00
	 0.00000000E+00	 0.00000000E+00	 4.64852000E-13

	 4.64852000E-13	 0.00000000E+00	 0.00000000E+00
	 0.00000000E+00	 4.64852000E-13	 0.00000000E+00
	 0.00000000E+00	 0.00000000E+00	 4.64852000E-13

	 4.64852000E-13	 0.00000000E+00	 0.00000000E+00
	 0.00000000E+00	 4.64852000E-13	 0.00000000E+00
	 0.00000000E+00	 0.00000000E+00	 4.64852000E-13

	 4.64852000E-13	 0.00000000E+00	 0.00000000E+00
	 0.00000000E+00	 4.64852000E-13	 0.00000000E+00
	 0.00000000E+00	 0.00000000E+00	 4.64852000E-13

	 4.64852000E-13	 0.00000000E+00	 0.00000000E+00
	 0.00000000E+00	 4.64852000E-13	 0.00000000E+00
	 0.00000000E+00	 0.00000000E+00	 4.64852000E-13

	 4.64852000E-13	 0.00000000E+00	 0.00000000E+00
	 0.00000000E+00	 4.64852000E-13	 0.00000000E+00
	 0.00000000E+00	 0.00000000E+00	 4.64852000E-13

	 4.64852000E-13	 0.00000000E+00	 0.00000000E+00
	 0.00000000E+00	 4.64852000E-13	 0.00000000E+00
	 0.00000000E+00	 0.00000000E+00	 4.64852000E-13

	 4.64852000E-13	 0.00000000E+00	 0.00000000E+00
	 0.00000000E+00	 4.64852000E-13	 0.00000000E+00
	 0.00000000E+00	 0.00000000E+00	 4.64852000E-13

	 4.64852000E-13	 0.00000000E+00	 0.00000000E+00
	 0.00000000E+00	 4.64852000E-13	 0.00000000E+00
	 0.00000000E+00	 0.00000000E+00	 4.64852000E-13

	 4.64852000E-13	 0.00000000E+00	 0.00000000E+00
	 0.00000000E+00	 4.64852000E-13	 0.00000000E+00
	 0.00000000E+00	 0.00000000E+00	 4.64852000E-13

	 4.64852000E-13	 0.00000000E+00	 0.00000000E+00
	 0.00000000E+00	 4.64852000E-13	 0.00000000E+00
	 0.00000000E+00	 0.00000000E+00	 4.64852000E-13

	 4.64852000E-13	 0.00000000E+00	 0.00000000E+00
	 0.00000000E+00	 4.64852000E-13	 0.00000000E+00
	 0.00000000E+00	 0.00000000E+00	 4.64852000E-13

	 4.64852000E-13	 0.00000000E+00	 0.00000000E+00
	 0.00000000E+00	 4.64852000E-13	 0.00000000E+00
	 0.00000000E+00	 0.00000000E+00	 4.64852000E-13

	 4.71492000E-13	 0.00000000E+00	 0.00000000E+00
	 0.00000000E+00	 4.71492000E-13	 0.00000000E+00
	 0.00000000E+00	 0.00000000E+00	 4.71492000E-13

	 4.86987000E-13	 0.00000000E+00	 0.00000000E+00
	 0.00000000E+00	 4.86987000E-13	 0.00000000E+00
	 0.00000000E+00	 0.00000000E+00	 4.86987000E-13

	 5.00269000E-13	 0.00000000E+00	 0.00000000E+00
	 0.00000000E+00	 5.00269000E-13	 0.00000000E+00
	 0.00000000E+00	 0.00000000E+00	 5.00269000E-13

	 4.64852000E-13	 0.00000000E+00	 0.00000000E+00
	 0.00000000E+00	 4.64852000E-13	 0.00000000E+00
	 0.00000000E+00	 0.00000000E+00	 4.64852000E-13

	 4.64852000E-13	 0.00000000E+00	 0.00000000E+00
	 0.00000000E+00	 4.64852000E-13	 0.00000000E+00
	 0.00000000E+00	 0.00000000E+00	 4.64852000E-13

	 5.04696000E-13	 0.00000000E+00	 0.00000000E+00
	 0.00000000E+00	 5.04696000E-13	 0.00000000E+00
	 0.00000000E+00	 0.00000000E+00	 5.04696000E-13

	 4.91415000E-13	 0.00000000E+00	 0.00000000E+00
	 0.00000000E+00	 4.91415000E-13	 0.00000000E+00
	 0.00000000E+00	 0.00000000E+00	 4.91415000E-13

	 4.64852000E-13	 0.00000000E+00	 0.00000000E+00
	 0.00000000E+00	 4.64852000E-13	 0.00000000E+00
	 0.00000000E+00	 0.00000000E+00	 4.64852000E-13

	 4.64852000E-13	 0.00000000E+00	 0.00000000E+00
	 0.00000000E+00	 4.64852000E-13	 0.00000000E+00
	 0.00000000E+00	 0.00000000E+00	 4.64852000E-13

	 4.64852000E-13	 0.00000000E+00	 0.00000000E+00
	 0.00000000E+00	 4.64852000E-13	 0.00000000E+00
	 0.00000000E+00	 0.00000000E+00	 4.64852000E-13

	 4.73706000E-13	 0.00000000E+00	 0.00000000E+00
	 0.00000000E+00	 4.73706000E-13	 0.00000000E+00
	 0.00000000E+00	 0.00000000E+00	 4.73706000E-13

	 4.73706000E-13	 0.00000000E+00	 0.00000000E+00
	 0.00000000E+00	 4.73706000E-13	 0.00000000E+00
	 0.00000000E+00	 0.00000000E+00	 4.73706000E-13

	 4.64852000E-13	 0.00000000E+00	 0.00000000E+00
	 0.00000000E+00	 4.64852000E-13	 0.00000000E+00
	 0.00000000E+00	 0.00000000E+00	 4.64852000E-13

	 4.64852000E-13	 0.00000000E+00	 0.00000000E+00
	 0.00000000E+00	 4.64852000E-13	 0.00000000E+00
	 0.00000000E+00	 0.00000000E+00	 4.64852000E-13

	 4.64852000E-13	 0.00000000E+00	 0.00000000E+00
	 0.00000000E+00	 4.64852000E-13	 0.00000000E+00
	 0.00000000E+00	 0.00000000E+00	 4.64852000E-13

	 4.64852000E-13	 0.00000000E+00	 0.00000000E+00
	 0.00000000E+00	 4.64852000E-13	 0.00000000E+00
	 0.00000000E+00	 0.00000000E+00	 4.64852000E-13

	 4.64852000E-13	 0.00000000E+00	 0.00000000E+00
	 0.00000000E+00	 4.64852000E-13	 0.00000000E+00
	 0.00000000E+00	 0.00000000E+00	 4.64852000E-13

	 4.64852000E-13	 0.00000000E+00	 0.00000000E+00
	 0.00000000E+00	 4.64852000E-13	 0.00000000E+00
	 0.00000000E+00	 0.00000000E+00	 4.64852000E-13

	 4.64852000E-13	 0.00000000E+00	 0.00000000E+00
	 0.00000000E+00	 4.64852000E-13	 0.00000000E+00
	 0.00000000E+00	 0.00000000E+00	 4.64852000E-13

	 4.64852000E-13	 0.00000000E+00	 0.00000000E+00
	 0.00000000E+00	 4.64852000E-13	 0.00000000E+00
	 0.00000000E+00	 0.00000000E+00	 4.64852000E-13

	 4.64852000E-13	 0.00000000E+00	 0.00000000E+00
	 0.00000000E+00	 4.64852000E-13	 0.00000000E+00
	 0.00000000E+00	 0.00000000E+00	 4.64852000E-13

	 4.64852000E-13	 0.00000000E+00	 0.00000000E+00
	 0.00000000E+00	 4.64852000E-13	 0.00000000E+00
	 0.00000000E+00	 0.00000000E+00	 4.64852000E-13

	 4.64852000E-13	 0.00000000E+00	 0.00000000E+00
	 0.00000000E+00	 4.64852000E-13	 0.00000000E+00
	 0.00000000E+00	 0.00000000E+00	 4.64852000E-13

	 4.64852000E-13	 0.00000000E+00	 0.00000000E+00
	 0.00000000E+00	 4.64852000E-13	 0.00000000E+00
	 0.00000000E+00	 0.00000000E+00	 4.64852000E-13

	 4.64852000E-13	 0.00000000E+00	 0.00000000E+00
	 0.00000000E+00	 4.64852000E-13	 0.00000000E+00
	 0.00000000E+00	 0.00000000E+00	 4.64852000E-13

	 4.64852000E-13	 0.00000000E+00	 0.00000000E+00
	 0.00000000E+00	 4.64852000E-13	 0.00000000E+00
	 0.00000000E+00	 0.00000000E+00	 4.64852000E-13

	 4.64852000E-13	 0.00000000E+00	 0.00000000E+00
	 0.00000000E+00	 4.64852000E-13	 0.00000000E+00
	 0.00000000E+00	 0.00000000E+00	 4.64852000E-13

	 4.64852000E-13	 0.00000000E+00	 0.00000000E+00
	 0.00000000E+00	 4.64852000E-13	 0.00000000E+00
	 0.00000000E+00	 0.00000000E+00	 4.64852000E-13

	 4.64852000E-13	 0.00000000E+00	 0.00000000E+00
	 0.00000000E+00	 4.64852000E-13	 0.00000000E+00
	 0.00000000E+00	 0.00000000E+00	 4.64852000E-13

	 4.64852000E-13	 0.00000000E+00	 0.00000000E+00
	 0.00000000E+00	 4.64852000E-13	 0.00000000E+00
	 0.00000000E+00	 0.00000000E+00	 4.64852000E-13

	 4.64852000E-13	 0.00000000E+00	 0.00000000E+00
	 0.00000000E+00	 4.64852000E-13	 0.00000000E+00
	 0.00000000E+00	 0.00000000E+00	 4.64852000E-13

	 4.60425000E-13	 0.00000000E+00	 0.00000000E+00
	 0.00000000E+00	 4.60425000E-13	 0.00000000E+00
	 0.00000000E+00	 0.00000000E+00	 4.60425000E-13

	 4.47143000E-13	 0.00000000E+00	 0.00000000E+00
	 0.00000000E+00	 4.47143000E-13	 0.00000000E+00
	 0.00000000E+00	 0.00000000E+00	 4.47143000E-13

	 4.38289000E-13	 0.00000000E+00	 0.00000000E+00
	 0.00000000E+00	 4.38289000E-13	 0.00000000E+00
	 0.00000000E+00	 0.00000000E+00	 4.38289000E-13

	 4.38289000E-13	 0.00000000E+00	 0.00000000E+00
	 0.00000000E+00	 4.38289000E-13	 0.00000000E+00
	 0.00000000E+00	 0.00000000E+00	 4.38289000E-13

	 4.55997000E-13	 0.00000000E+00	 0.00000000E+00
	 0.00000000E+00	 4.55997000E-13	 0.00000000E+00
	 0.00000000E+00	 0.00000000E+00	 4.55997000E-13

	 4.64852000E-13	 0.00000000E+00	 0.00000000E+00
	 0.00000000E+00	 4.64852000E-13	 0.00000000E+00
	 0.00000000E+00	 0.00000000E+00	 4.64852000E-13

	 4.64852000E-13	 0.00000000E+00	 0.00000000E+00
	 0.00000000E+00	 4.64852000E-13	 0.00000000E+00
	 0.00000000E+00	 0.00000000E+00	 4.64852000E-13

	 4.64852000E-13	 0.00000000E+00	 0.00000000E+00
	 0.00000000E+00	 4.64852000E-13	 0.00000000E+00
	 0.00000000E+00	 0.00000000E+00	 4.64852000E-13

	 4.64852000E-13	 0.00000000E+00	 0.00000000E+00
	 0.00000000E+00	 4.64852000E-13	 0.00000000E+00
	 0.00000000E+00	 0.00000000E+00	 4.64852000E-13

	 4.64852000E-13	 0.00000000E+00	 0.00000000E+00
	 0.00000000E+00	 4.64852000E-13	 0.00000000E+00
	 0.00000000E+00	 0.00000000E+00	 4.64852000E-13

	 4.64852000E-13	 0.00000000E+00	 0.00000000E+00
	 0.00000000E+00	 4.64852000E-13	 0.00000000E+00
	 0.00000000E+00	 0.00000000E+00	 4.64852000E-13

	 4.55997000E-13	 0.00000000E+00	 0.00000000E+00
	 0.00000000E+00	 4.55997000E-13	 0.00000000E+00
	 0.00000000E+00	 0.00000000E+00	 4.55997000E-13

	 4.51570000E-13	 0.00000000E+00	 0.00000000E+00
	 0.00000000E+00	 4.51570000E-13	 0.00000000E+00
	 0.00000000E+00	 0.00000000E+00	 4.51570000E-13

	 4.55997000E-13	 0.00000000E+00	 0.00000000E+00
	 0.00000000E+00	 4.55997000E-13	 0.00000000E+00
	 0.00000000E+00	 0.00000000E+00	 4.55997000E-13

	 4.42716000E-13	 0.00000000E+00	 0.00000000E+00
	 0.00000000E+00	 4.42716000E-13	 0.00000000E+00
	 0.00000000E+00	 0.00000000E+00	 4.42716000E-13

	 4.38289000E-13	 0.00000000E+00	 0.00000000E+00
	 0.00000000E+00	 4.38289000E-13	 0.00000000E+00
	 0.00000000E+00	 0.00000000E+00	 4.38289000E-13

	 4.42716000E-13	 0.00000000E+00	 0.00000000E+00
	 0.00000000E+00	 4.42716000E-13	 0.00000000E+00
	 0.00000000E+00	 0.00000000E+00	 4.42716000E-13

	 4.60425000E-13	 0.00000000E+00	 0.00000000E+00
	 0.00000000E+00	 4.60425000E-13	 0.00000000E+00
	 0.00000000E+00	 0.00000000E+00	 4.60425000E-13

	 4.64852000E-13	 0.00000000E+00	 0.00000000E+00
	 0.00000000E+00	 4.64852000E-13	 0.00000000E+00
	 0.00000000E+00	 0.00000000E+00	 4.64852000E-13

	 4.64852000E-13	 0.00000000E+00	 0.00000000E+00
	 0.00000000E+00	 4.64852000E-13	 0.00000000E+00
	 0.00000000E+00	 0.00000000E+00	 4.64852000E-13

	 4.64852000E-13	 0.00000000E+00	 0.00000000E+00
	 0.00000000E+00	 4.64852000E-13	 0.00000000E+00
	 0.00000000E+00	 0.00000000E+00	 4.64852000E-13

	 4.64852000E-13	 0.00000000E+00	 0.00000000E+00
	 0.00000000E+00	 4.64852000E-13	 0.00000000E+00
	 0.00000000E+00	 0.00000000E+00	 4.64852000E-13

	 4.60425000E-13	 0.00000000E+00	 0.00000000E+00
	 0.00000000E+00	 4.60425000E-13	 0.00000000E+00
	 0.00000000E+00	 0.00000000E+00	 4.60425000E-13

	 4.47143000E-13	 0.00000000E+00	 0.00000000E+00
	 0.00000000E+00	 4.47143000E-13	 0.00000000E+00
	 0.00000000E+00	 0.00000000E+00	 4.47143000E-13

	 4.47143000E-13	 0.00000000E+00	 0.00000000E+00
	 0.00000000E+00	 4.47143000E-13	 0.00000000E+00
	 0.00000000E+00	 0.00000000E+00	 4.47143000E-13

	 4.47143000E-13	 0.00000000E+00	 0.00000000E+00
	 0.00000000E+00	 4.47143000E-13	 0.00000000E+00
	 0.00000000E+00	 0.00000000E+00	 4.47143000E-13

	 4.51570000E-13	 0.00000000E+00	 0.00000000E+00
	 0.00000000E+00	 4.51570000E-13	 0.00000000E+00
	 0.00000000E+00	 0.00000000E+00	 4.51570000E-13

	 4.42716000E-13	 0.00000000E+00	 0.00000000E+00
	 0.00000000E+00	 4.42716000E-13	 0.00000000E+00
	 0.00000000E+00	 0.00000000E+00	 4.42716000E-13

	 4.38289000E-13	 0.00000000E+00	 0.00000000E+00
	 0.00000000E+00	 4.38289000E-13	 0.00000000E+00
	 0.00000000E+00	 0.00000000E+00	 4.38289000E-13

	 4.38289000E-13	 0.00000000E+00	 0.00000000E+00
	 0.00000000E+00	 4.38289000E-13	 0.00000000E+00
	 0.00000000E+00	 0.00000000E+00	 4.38289000E-13

	 4.38289000E-13	 0.00000000E+00	 0.00000000E+00
	 0.00000000E+00	 4.38289000E-13	 0.00000000E+00
	 0.00000000E+00	 0.00000000E+00	 4.38289000E-13

	 4.38289000E-13	 0.00000000E+00	 0.00000000E+00
	 0.00000000E+00	 4.38289000E-13	 0.00000000E+00
	 0.00000000E+00	 0.00000000E+00	 4.38289000E-13

	 4.38289000E-13	 0.00000000E+00	 0.00000000E+00
	 0.00000000E+00	 4.38289000E-13	 0.00000000E+00
	 0.00000000E+00	 0.00000000E+00	 4.38289000E-13

	 4.38289000E-13	 0.00000000E+00	 0.00000000E+00
	 0.00000000E+00	 4.38289000E-13	 0.00000000E+00
	 0.00000000E+00	 0.00000000E+00	 4.38289000E-13

	 4.38289000E-13	 0.00000000E+00	 0.00000000E+00
	 0.00000000E+00	 4.38289000E-13	 0.00000000E+00
	 0.00000000E+00	 0.00000000E+00	 4.38289000E-13

	 4.38289000E-13	 0.00000000E+00	 0.00000000E+00
	 0.00000000E+00	 4.38289000E-13	 0.00000000E+00
	 0.00000000E+00	 0.00000000E+00	 4.38289000E-13

	 4.38289000E-13	 0.00000000E+00	 0.00000000E+00
	 0.00000000E+00	 4.38289000E-13	 0.00000000E+00
	 0.00000000E+00	 0.00000000E+00	 4.38289000E-13

	 4.47143000E-13	 0.00000000E+00	 0.00000000E+00
	 0.00000000E+00	 4.47143000E-13	 0.00000000E+00
	 0.00000000E+00	 0.00000000E+00	 4.47143000E-13

	 4.47143000E-13	 0.00000000E+00	 0.00000000E+00
	 0.00000000E+00	 4.47143000E-13	 0.00000000E+00
	 0.00000000E+00	 0.00000000E+00	 4.47143000E-13

	 4.47143000E-13	 0.00000000E+00	 0.00000000E+00
	 0.00000000E+00	 4.47143000E-13	 0.00000000E+00
	 0.00000000E+00	 0.00000000E+00	 4.47143000E-13

	 4.60425000E-13	 0.00000000E+00	 0.00000000E+00
	 0.00000000E+00	 4.60425000E-13	 0.00000000E+00
	 0.00000000E+00	 0.00000000E+00	 4.60425000E-13

	 4.55997000E-13	 0.00000000E+00	 0.00000000E+00
	 0.00000000E+00	 4.55997000E-13	 0.00000000E+00
	 0.00000000E+00	 0.00000000E+00	 4.55997000E-13

	 4.42716000E-13	 0.00000000E+00	 0.00000000E+00
	 0.00000000E+00	 4.42716000E-13	 0.00000000E+00
	 0.00000000E+00	 0.00000000E+00	 4.42716000E-13

	 4.38289000E-13	 0.00000000E+00	 0.00000000E+00
	 0.00000000E+00	 4.38289000E-13	 0.00000000E+00
	 0.00000000E+00	 0.00000000E+00	 4.38289000E-13

	 4.38289000E-13	 0.00000000E+00	 0.00000000E+00
	 0.00000000E+00	 4.38289000E-13	 0.00000000E+00
	 0.00000000E+00	 0.00000000E+00	 4.38289000E-13

	 4.38289000E-13	 0.00000000E+00	 0.00000000E+00
	 0.00000000E+00	 4.38289000E-13	 0.00000000E+00
	 0.00000000E+00	 0.00000000E+00	 4.38289000E-13

	 4.38289000E-13	 0.00000000E+00	 0.00000000E+00
	 0.00000000E+00	 4.38289000E-13	 0.00000000E+00
	 0.00000000E+00	 0.00000000E+00	 4.38289000E-13

	 4.38289000E-13	 0.00000000E+00	 0.00000000E+00
	 0.00000000E+00	 4.38289000E-13	 0.00000000E+00
	 0.00000000E+00	 0.00000000E+00	 4.38289000E-13

	 4.51570000E-13	 0.00000000E+00	 0.00000000E+00
	 0.00000000E+00	 4.51570000E-13	 0.00000000E+00
	 0.00000000E+00	 0.00000000E+00	 4.51570000E-13

	 4.64852000E-13	 0.00000000E+00	 0.00000000E+00
	 0.00000000E+00	 4.64852000E-13	 0.00000000E+00
	 0.00000000E+00	 0.00000000E+00	 4.64852000E-13

	 4.64852000E-13	 0.00000000E+00	 0.00000000E+00
	 0.00000000E+00	 4.64852000E-13	 0.00000000E+00
	 0.00000000E+00	 0.00000000E+00	 4.64852000E-13

	 4.64852000E-13	 0.00000000E+00	 0.00000000E+00
	 0.00000000E+00	 4.64852000E-13	 0.00000000E+00
	 0.00000000E+00	 0.00000000E+00	 4.64852000E-13

	 4.51570000E-13	 0.00000000E+00	 0.00000000E+00
	 0.00000000E+00	 4.51570000E-13	 0.00000000E+00
	 0.00000000E+00	 0.00000000E+00	 4.51570000E-13

	 4.47143000E-13	 0.00000000E+00	 0.00000000E+00
	 0.00000000E+00	 4.47143000E-13	 0.00000000E+00
	 0.00000000E+00	 0.00000000E+00	 4.47143000E-13

	 4.47143000E-13	 0.00000000E+00	 0.00000000E+00
	 0.00000000E+00	 4.47143000E-13	 0.00000000E+00
	 0.00000000E+00	 0.00000000E+00	 4.47143000E-13

	 4.42716000E-13	 0.00000000E+00	 0.00000000E+00
	 0.00000000E+00	 4.42716000E-13	 0.00000000E+00
	 0.00000000E+00	 0.00000000E+00	 4.42716000E-13

	 4.42716000E-13	 0.00000000E+00	 0.00000000E+00
	 0.00000000E+00	 4.42716000E-13	 0.00000000E+00
	 0.00000000E+00	 0.00000000E+00	 4.42716000E-13

	 4.51570000E-13	 0.00000000E+00	 0.00000000E+00
	 0.00000000E+00	 4.51570000E-13	 0.00000000E+00
	 0.00000000E+00	 0.00000000E+00	 4.51570000E-13

	 4.64852000E-13	 0.00000000E+00	 0.00000000E+00
	 0.00000000E+00	 4.64852000E-13	 0.00000000E+00
	 0.00000000E+00	 0.00000000E+00	 4.64852000E-13

	 4.64852000E-13	 0.00000000E+00	 0.00000000E+00
	 0.00000000E+00	 4.64852000E-13	 0.00000000E+00
	 0.00000000E+00	 0.00000000E+00	 4.64852000E-13

	 4.64852000E-13	 0.00000000E+00	 0.00000000E+00
	 0.00000000E+00	 4.64852000E-13	 0.00000000E+00
	 0.00000000E+00	 0.00000000E+00	 4.64852000E-13

	 4.51570000E-13	 0.00000000E+00	 0.00000000E+00
	 0.00000000E+00	 4.51570000E-13	 0.00000000E+00
	 0.00000000E+00	 0.00000000E+00	 4.51570000E-13

	 4.55997000E-13	 0.00000000E+00	 0.00000000E+00
	 0.00000000E+00	 4.55997000E-13	 0.00000000E+00
	 0.00000000E+00	 0.00000000E+00	 4.55997000E-13

	 4.64852000E-13	 0.00000000E+00	 0.00000000E+00
	 0.00000000E+00	 4.64852000E-13	 0.00000000E+00
	 0.00000000E+00	 0.00000000E+00	 4.64852000E-13

	 4.55997000E-13	 0.00000000E+00	 0.00000000E+00
	 0.00000000E+00	 4.55997000E-13	 0.00000000E+00
	 0.00000000E+00	 0.00000000E+00	 4.55997000E-13

	 4.42716000E-13	 0.00000000E+00	 0.00000000E+00
	 0.00000000E+00	 4.42716000E-13	 0.00000000E+00
	 0.00000000E+00	 0.00000000E+00	 4.42716000E-13

	 4.51570000E-13	 0.00000000E+00	 0.00000000E+00
	 0.00000000E+00	 4.51570000E-13	 0.00000000E+00
	 0.00000000E+00	 0.00000000E+00	 4.51570000E-13

	 4.64852000E-13	 0.00000000E+00	 0.00000000E+00
	 0.00000000E+00	 4.64852000E-13	 0.00000000E+00
	 0.00000000E+00	 0.00000000E+00	 4.64852000E-13

	 4.64852000E-13	 0.00000000E+00	 0.00000000E+00
	 0.00000000E+00	 4.64852000E-13	 0.00000000E+00
	 0.00000000E+00	 0.00000000E+00	 4.64852000E-13

	 4.64852000E-13	 0.00000000E+00	 0.00000000E+00
	 0.00000000E+00	 4.64852000E-13	 0.00000000E+00
	 0.00000000E+00	 0.00000000E+00	 4.64852000E-13

	 4.60425000E-13	 0.00000000E+00	 0.00000000E+00
	 0.00000000E+00	 4.60425000E-13	 0.00000000E+00
	 0.00000000E+00	 0.00000000E+00	 4.60425000E-13

	 4.55997000E-13	 0.00000000E+00	 0.00000000E+00
	 0.00000000E+00	 4.55997000E-13	 0.00000000E+00
	 0.00000000E+00	 0.00000000E+00	 4.55997000E-13

	 4.64852000E-13	 0.00000000E+00	 0.00000000E+00
	 0.00000000E+00	 4.64852000E-13	 0.00000000E+00
	 0.00000000E+00	 0.00000000E+00	 4.64852000E-13

	 4.60425000E-13	 0.00000000E+00	 0.00000000E+00
	 0.00000000E+00	 4.60425000E-13	 0.00000000E+00
	 0.00000000E+00	 0.00000000E+00	 4.60425000E-13

	 4.47143000E-13	 0.00000000E+00	 0.00000000E+00
	 0.00000000E+00	 4.47143000E-13	 0.00000000E+00
	 0.00000000E+00	 0.00000000E+00	 4.47143000E-13

	 4.38289000E-13	 0.00000000E+00	 0.00000000E+00
	 0.00000000E+00	 4.38289000E-13	 0.00000000E+00
	 0.00000000E+00	 0.00000000E+00	 4.38289000E-13

	 4.38289000E-13	 0.00000000E+00	 0.00000000E+00
	 0.00000000E+00	 4.38289000E-13	 0.00000000E+00
	 0.00000000E+00	 0.00000000E+00	 4.38289000E-13

	 4.38289000E-13	 0.00000000E+00	 0.00000000E+00
	 0.00000000E+00	 4.38289000E-13	 0.00000000E+00
	 0.00000000E+00	 0.00000000E+00	 4.38289000E-13

	 4.38289000E-13	 0.00000000E+00	 0.00000000E+00
	 0.00000000E+00	 4.38289000E-13	 0.00000000E+00
	 0.00000000E+00	 0.00000000E+00	 4.38289000E-13

	 4.38289000E-13	 0.00000000E+00	 0.00000000E+00
	 0.00000000E+00	 4.38289000E-13	 0.00000000E+00
	 0.00000000E+00	 0.00000000E+00	 4.38289000E-13

	 4.38289000E-13	 0.00000000E+00	 0.00000000E+00
	 0.00000000E+00	 4.38289000E-13	 0.00000000E+00
	 0.00000000E+00	 0.00000000E+00	 4.38289000E-13

	 4.38289000E-13	 0.00000000E+00	 0.00000000E+00
	 0.00000000E+00	 4.38289000E-13	 0.00000000E+00
	 0.00000000E+00	 0.00000000E+00	 4.38289000E-13

	 4.38289000E-13	 0.00000000E+00	 0.00000000E+00
	 0.00000000E+00	 4.38289000E-13	 0.00000000E+00
	 0.00000000E+00	 0.00000000E+00	 4.38289000E-13

	 4.38289000E-13	 0.00000000E+00	 0.00000000E+00
	 0.00000000E+00	 4.38289000E-13	 0.00000000E+00
	 0.00000000E+00	 0.00000000E+00	 4.38289000E-13

	 4.42716000E-13	 0.00000000E+00	 0.00000000E+00
	 0.00000000E+00	 4.42716000E-13	 0.00000000E+00
	 0.00000000E+00	 0.00000000E+00	 4.42716000E-13

	 4.47143000E-13	 0.00000000E+00	 0.00000000E+00
	 0.00000000E+00	 4.47143000E-13	 0.00000000E+00
	 0.00000000E+00	 0.00000000E+00	 4.47143000E-13

	 4.55997000E-13	 0.00000000E+00	 0.00000000E+00
	 0.00000000E+00	 4.55997000E-13	 0.00000000E+00
	 0.00000000E+00	 0.00000000E+00	 4.55997000E-13

	 4.44929000E-13	 0.00000000E+00	 0.00000000E+00
	 0.00000000E+00	 4.44929000E-13	 0.00000000E+00
	 0.00000000E+00	 0.00000000E+00	 4.44929000E-13

	 4.38289000E-13	 0.00000000E+00	 0.00000000E+00
	 0.00000000E+00	 4.38289000E-13	 0.00000000E+00
	 0.00000000E+00	 0.00000000E+00	 4.38289000E-13

	 4.42716000E-13	 0.00000000E+00	 0.00000000E+00
	 0.00000000E+00	 4.42716000E-13	 0.00000000E+00
	 0.00000000E+00	 0.00000000E+00	 4.42716000E-13

	 4.42716000E-13	 0.00000000E+00	 0.00000000E+00
	 0.00000000E+00	 4.42716000E-13	 0.00000000E+00
	 0.00000000E+00	 0.00000000E+00	 4.42716000E-13

	 4.47143000E-13	 0.00000000E+00	 0.00000000E+00
	 0.00000000E+00	 4.47143000E-13	 0.00000000E+00
	 0.00000000E+00	 0.00000000E+00	 4.47143000E-13

	 4.42716000E-13	 0.00000000E+00	 0.00000000E+00
	 0.00000000E+00	 4.42716000E-13	 0.00000000E+00
	 0.00000000E+00	 0.00000000E+00	 4.42716000E-13

	 4.38289000E-13	 0.00000000E+00	 0.00000000E+00
	 0.00000000E+00	 4.38289000E-13	 0.00000000E+00
	 0.00000000E+00	 0.00000000E+00	 4.38289000E-13

	 4.38289000E-13	 0.00000000E+00	 0.00000000E+00
	 0.00000000E+00	 4.38289000E-13	 0.00000000E+00
	 0.00000000E+00	 0.00000000E+00	 4.38289000E-13

	 4.38289000E-13	 0.00000000E+00	 0.00000000E+00
	 0.00000000E+00	 4.38289000E-13	 0.00000000E+00
	 0.00000000E+00	 0.00000000E+00	 4.38289000E-13

	 4.38289000E-13	 0.00000000E+00	 0.00000000E+00
	 0.00000000E+00	 4.38289000E-13	 0.00000000E+00
	 0.00000000E+00	 0.00000000E+00	 4.38289000E-13

	 4.38289000E-13	 0.00000000E+00	 0.00000000E+00
	 0.00000000E+00	 4.38289000E-13	 0.00000000E+00
	 0.00000000E+00	 0.00000000E+00	 4.38289000E-13

	 4.38289000E-13	 0.00000000E+00	 0.00000000E+00
	 0.00000000E+00	 4.38289000E-13	 0.00000000E+00
	 0.00000000E+00	 0.00000000E+00	 4.38289000E-13

	 4.38289000E-13	 0.00000000E+00	 0.00000000E+00
	 0.00000000E+00	 4.38289000E-13	 0.00000000E+00
	 0.00000000E+00	 0.00000000E+00	 4.38289000E-13

	 4.38289000E-13	 0.00000000E+00	 0.00000000E+00
	 0.00000000E+00	 4.38289000E-13	 0.00000000E+00
	 0.00000000E+00	 0.00000000E+00	 4.38289000E-13

	 4.38289000E-13	 0.00000000E+00	 0.00000000E+00
	 0.00000000E+00	 4.38289000E-13	 0.00000000E+00
	 0.00000000E+00	 0.00000000E+00	 4.38289000E-13

	 4.42716000E-13	 0.00000000E+00	 0.00000000E+00
	 0.00000000E+00	 4.42716000E-13	 0.00000000E+00
	 0.00000000E+00	 0.00000000E+00	 4.42716000E-13

	 4.42716000E-13	 0.00000000E+00	 0.00000000E+00
	 0.00000000E+00	 4.42716000E-13	 0.00000000E+00
	 0.00000000E+00	 0.00000000E+00	 4.42716000E-13

	 4.42716000E-13	 0.00000000E+00	 0.00000000E+00
	 0.00000000E+00	 4.42716000E-13	 0.00000000E+00
	 0.00000000E+00	 0.00000000E+00	 4.42716000E-13

	 4.42716000E-13	 0.00000000E+00	 0.00000000E+00
	 0.00000000E+00	 4.42716000E-13	 0.00000000E+00
	 0.00000000E+00	 0.00000000E+00	 4.42716000E-13

	 4.38289000E-13	 0.00000000E+00	 0.00000000E+00
	 0.00000000E+00	 4.38289000E-13	 0.00000000E+00
	 0.00000000E+00	 0.00000000E+00	 4.38289000E-13

	 4.38289000E-13	 0.00000000E+00	 0.00000000E+00
	 0.00000000E+00	 4.38289000E-13	 0.00000000E+00
	 0.00000000E+00	 0.00000000E+00	 4.38289000E-13

	 4.38289000E-13	 0.00000000E+00	 0.00000000E+00
	 0.00000000E+00	 4.38289000E-13	 0.00000000E+00
	 0.00000000E+00	 0.00000000E+00	 4.38289000E-13

	 4.38289000E-13	 0.00000000E+00	 0.00000000E+00
	 0.00000000E+00	 4.38289000E-13	 0.00000000E+00
	 0.00000000E+00	 0.00000000E+00	 4.38289000E-13

	 4.38289000E-13	 0.00000000E+00	 0.00000000E+00
	 0.00000000E+00	 4.38289000E-13	 0.00000000E+00
	 0.00000000E+00	 0.00000000E+00	 4.38289000E-13

	 4.38289000E-13	 0.00000000E+00	 0.00000000E+00
	 0.00000000E+00	 4.38289000E-13	 0.00000000E+00
	 0.00000000E+00	 0.00000000E+00	 4.38289000E-13

	 4.38289000E-13	 0.00000000E+00	 0.00000000E+00
	 0.00000000E+00	 4.38289000E-13	 0.00000000E+00
	 0.00000000E+00	 0.00000000E+00	 4.38289000E-13

	 4.38289000E-13	 0.00000000E+00	 0.00000000E+00
	 0.00000000E+00	 4.38289000E-13	 0.00000000E+00
	 0.00000000E+00	 0.00000000E+00	 4.38289000E-13

	 4.38289000E-13	 0.00000000E+00	 0.00000000E+00
	 0.00000000E+00	 4.38289000E-13	 0.00000000E+00
	 0.00000000E+00	 0.00000000E+00	 4.38289000E-13

	 4.38289000E-13	 0.00000000E+00	 0.00000000E+00
	 0.00000000E+00	 4.38289000E-13	 0.00000000E+00
	 0.00000000E+00	 0.00000000E+00	 4.38289000E-13

	 4.38289000E-13	 0.00000000E+00	 0.00000000E+00
	 0.00000000E+00	 4.38289000E-13	 0.00000000E+00
	 0.00000000E+00	 0.00000000E+00	 4.38289000E-13

	 4.38289000E-13	 0.00000000E+00	 0.00000000E+00
	 0.00000000E+00	 4.38289000E-13	 0.00000000E+00
	 0.00000000E+00	 0.00000000E+00	 4.38289000E-13

	 4.38289000E-13	 0.00000000E+00	 0.00000000E+00
	 0.00000000E+00	 4.38289000E-13	 0.00000000E+00
	 0.00000000E+00	 0.00000000E+00	 4.38289000E-13

	 4.38289000E-13	 0.00000000E+00	 0.00000000E+00
	 0.00000000E+00	 4.38289000E-13	 0.00000000E+00
	 0.00000000E+00	 0.00000000E+00	 4.38289000E-13

	 4.38289000E-13	 0.00000000E+00	 0.00000000E+00
	 0.00000000E+00	 4.38289000E-13	 0.00000000E+00
	 0.00000000E+00	 0.00000000E+00	 4.38289000E-13

	 4.38289000E-13	 0.00000000E+00	 0.00000000E+00
	 0.00000000E+00	 4.38289000E-13	 0.00000000E+00
	 0.00000000E+00	 0.00000000E+00	 4.38289000E-13

	 4.38289000E-13	 0.00000000E+00	 0.00000000E+00
	 0.00000000E+00	 4.38289000E-13	 0.00000000E+00
	 0.00000000E+00	 0.00000000E+00	 4.38289000E-13

	 4.38289000E-13	 0.00000000E+00	 0.00000000E+00
	 0.00000000E+00	 4.38289000E-13	 0.00000000E+00
	 0.00000000E+00	 0.00000000E+00	 4.38289000E-13

	 4.38289000E-13	 0.00000000E+00	 0.00000000E+00
	 0.00000000E+00	 4.38289000E-13	 0.00000000E+00
	 0.00000000E+00	 0.00000000E+00	 4.38289000E-13

	 4.38289000E-13	 0.00000000E+00	 0.00000000E+00
	 0.00000000E+00	 4.38289000E-13	 0.00000000E+00
	 0.00000000E+00	 0.00000000E+00	 4.38289000E-13

	 4.38289000E-13	 0.00000000E+00	 0.00000000E+00
	 0.00000000E+00	 4.38289000E-13	 0.00000000E+00
	 0.00000000E+00	 0.00000000E+00	 4.38289000E-13

	 4.38289000E-13	 0.00000000E+00	 0.00000000E+00
	 0.00000000E+00	 4.38289000E-13	 0.00000000E+00
	 0.00000000E+00	 0.00000000E+00	 4.38289000E-13

	 4.47143000E-13	 0.00000000E+00	 0.00000000E+00
	 0.00000000E+00	 4.47143000E-13	 0.00000000E+00
	 0.00000000E+00	 0.00000000E+00	 4.47143000E-13

	 4.47143000E-13	 0.00000000E+00	 0.00000000E+00
	 0.00000000E+00	 4.47143000E-13	 0.00000000E+00
	 0.00000000E+00	 0.00000000E+00	 4.47143000E-13

	 4.51570000E-13	 0.00000000E+00	 0.00000000E+00
	 0.00000000E+00	 4.51570000E-13	 0.00000000E+00
	 0.00000000E+00	 0.00000000E+00	 4.51570000E-13

	 4.60425000E-13	 0.00000000E+00	 0.00000000E+00
	 0.00000000E+00	 4.60425000E-13	 0.00000000E+00
	 0.00000000E+00	 0.00000000E+00	 4.60425000E-13

	 4.51570000E-13	 0.00000000E+00	 0.00000000E+00
	 0.00000000E+00	 4.51570000E-13	 0.00000000E+00
	 0.00000000E+00	 0.00000000E+00	 4.51570000E-13

	 4.61531000E-13	 0.00000000E+00	 0.00000000E+00
	 0.00000000E+00	 4.61531000E-13	 0.00000000E+00
	 0.00000000E+00	 0.00000000E+00	 4.61531000E-13

	 4.64852000E-13	 0.00000000E+00	 0.00000000E+00
	 0.00000000E+00	 4.64852000E-13	 0.00000000E+00
	 0.00000000E+00	 0.00000000E+00	 4.64852000E-13

	 4.64852000E-13	 0.00000000E+00	 0.00000000E+00
	 0.00000000E+00	 4.64852000E-13	 0.00000000E+00
	 0.00000000E+00	 0.00000000E+00	 4.64852000E-13

	 4.64852000E-13	 0.00000000E+00	 0.00000000E+00
	 0.00000000E+00	 4.64852000E-13	 0.00000000E+00
	 0.00000000E+00	 0.00000000E+00	 4.64852000E-13

	 4.64852000E-13	 0.00000000E+00	 0.00000000E+00
	 0.00000000E+00	 4.64852000E-13	 0.00000000E+00
	 0.00000000E+00	 0.00000000E+00	 4.64852000E-13

	 4.64852000E-13	 0.00000000E+00	 0.00000000E+00
	 0.00000000E+00	 4.64852000E-13	 0.00000000E+00
	 0.00000000E+00	 0.00000000E+00	 4.64852000E-13

	 4.64852000E-13	 0.00000000E+00	 0.00000000E+00
	 0.00000000E+00	 4.64852000E-13	 0.00000000E+00
	 0.00000000E+00	 0.00000000E+00	 4.64852000E-13

	 4.64852000E-13	 0.00000000E+00	 0.00000000E+00
	 0.00000000E+00	 4.64852000E-13	 0.00000000E+00
	 0.00000000E+00	 0.00000000E+00	 4.64852000E-13

	 4.64852000E-13	 0.00000000E+00	 0.00000000E+00
	 0.00000000E+00	 4.64852000E-13	 0.00000000E+00
	 0.00000000E+00	 0.00000000E+00	 4.64852000E-13

	 4.64852000E-13	 0.00000000E+00	 0.00000000E+00
	 0.00000000E+00	 4.64852000E-13	 0.00000000E+00
	 0.00000000E+00	 0.00000000E+00	 4.64852000E-13

	 4.71492000E-13	 0.00000000E+00	 0.00000000E+00
	 0.00000000E+00	 4.71492000E-13	 0.00000000E+00
	 0.00000000E+00	 0.00000000E+00	 4.71492000E-13

	 4.82560000E-13	 0.00000000E+00	 0.00000000E+00
	 0.00000000E+00	 4.82560000E-13	 0.00000000E+00
	 0.00000000E+00	 0.00000000E+00	 4.82560000E-13

	 4.64852000E-13	 0.00000000E+00	 0.00000000E+00
	 0.00000000E+00	 4.64852000E-13	 0.00000000E+00
	 0.00000000E+00	 0.00000000E+00	 4.64852000E-13

	 4.64852000E-13	 0.00000000E+00	 0.00000000E+00
	 0.00000000E+00	 4.64852000E-13	 0.00000000E+00
	 0.00000000E+00	 0.00000000E+00	 4.64852000E-13

	 4.64852000E-13	 0.00000000E+00	 0.00000000E+00
	 0.00000000E+00	 4.64852000E-13	 0.00000000E+00
	 0.00000000E+00	 0.00000000E+00	 4.64852000E-13

	 4.64852000E-13	 0.00000000E+00	 0.00000000E+00
	 0.00000000E+00	 4.64852000E-13	 0.00000000E+00
	 0.00000000E+00	 0.00000000E+00	 4.64852000E-13

	 4.64852000E-13	 0.00000000E+00	 0.00000000E+00
	 0.00000000E+00	 4.64852000E-13	 0.00000000E+00
	 0.00000000E+00	 0.00000000E+00	 4.64852000E-13

	 4.64852000E-13	 0.00000000E+00	 0.00000000E+00
	 0.00000000E+00	 4.64852000E-13	 0.00000000E+00
	 0.00000000E+00	 0.00000000E+00	 4.64852000E-13

	 4.64852000E-13	 0.00000000E+00	 0.00000000E+00
	 0.00000000E+00	 4.64852000E-13	 0.00000000E+00
	 0.00000000E+00	 0.00000000E+00	 4.64852000E-13

	 4.64852000E-13	 0.00000000E+00	 0.00000000E+00
	 0.00000000E+00	 4.64852000E-13	 0.00000000E+00
	 0.00000000E+00	 0.00000000E+00	 4.64852000E-13

	 4.64852000E-13	 0.00000000E+00	 0.00000000E+00
	 0.00000000E+00	 4.64852000E-13	 0.00000000E+00
	 0.00000000E+00	 0.00000000E+00	 4.64852000E-13

	 4.64852000E-13	 0.00000000E+00	 0.00000000E+00
	 0.00000000E+00	 4.64852000E-13	 0.00000000E+00
	 0.00000000E+00	 0.00000000E+00	 4.64852000E-13

	 4.64852000E-13	 0.00000000E+00	 0.00000000E+00
	 0.00000000E+00	 4.64852000E-13	 0.00000000E+00
	 0.00000000E+00	 0.00000000E+00	 4.64852000E-13

	 4.64852000E-13	 0.00000000E+00	 0.00000000E+00
	 0.00000000E+00	 4.64852000E-13	 0.00000000E+00
	 0.00000000E+00	 0.00000000E+00	 4.64852000E-13

	 4.64852000E-13	 0.00000000E+00	 0.00000000E+00
	 0.00000000E+00	 4.64852000E-13	 0.00000000E+00
	 0.00000000E+00	 0.00000000E+00	 4.64852000E-13

	 4.64852000E-13	 0.00000000E+00	 0.00000000E+00
	 0.00000000E+00	 4.64852000E-13	 0.00000000E+00
	 0.00000000E+00	 0.00000000E+00	 4.64852000E-13

	 4.64852000E-13	 0.00000000E+00	 0.00000000E+00
	 0.00000000E+00	 4.64852000E-13	 0.00000000E+00
	 0.00000000E+00	 0.00000000E+00	 4.64852000E-13

	 4.64852000E-13	 0.00000000E+00	 0.00000000E+00
	 0.00000000E+00	 4.64852000E-13	 0.00000000E+00
	 0.00000000E+00	 0.00000000E+00	 4.64852000E-13

	 4.64852000E-13	 0.00000000E+00	 0.00000000E+00
	 0.00000000E+00	 4.64852000E-13	 0.00000000E+00
	 0.00000000E+00	 0.00000000E+00	 4.64852000E-13

	 4.64852000E-13	 0.00000000E+00	 0.00000000E+00
	 0.00000000E+00	 4.64852000E-13	 0.00000000E+00
	 0.00000000E+00	 0.00000000E+00	 4.64852000E-13

	 4.64852000E-13	 0.00000000E+00	 0.00000000E+00
	 0.00000000E+00	 4.64852000E-13	 0.00000000E+00
	 0.00000000E+00	 0.00000000E+00	 4.64852000E-13

	 4.64852000E-13	 0.00000000E+00	 0.00000000E+00
	 0.00000000E+00	 4.64852000E-13	 0.00000000E+00
	 0.00000000E+00	 0.00000000E+00	 4.64852000E-13

	 4.64852000E-13	 0.00000000E+00	 0.00000000E+00
	 0.00000000E+00	 4.64852000E-13	 0.00000000E+00
	 0.00000000E+00	 0.00000000E+00	 4.64852000E-13

	 4.64852000E-13	 0.00000000E+00	 0.00000000E+00
	 0.00000000E+00	 4.64852000E-13	 0.00000000E+00
	 0.00000000E+00	 0.00000000E+00	 4.64852000E-13

	 4.64852000E-13	 0.00000000E+00	 0.00000000E+00
	 0.00000000E+00	 4.64852000E-13	 0.00000000E+00
	 0.00000000E+00	 0.00000000E+00	 4.64852000E-13

	 4.51570000E-13	 0.00000000E+00	 0.00000000E+00
	 0.00000000E+00	 4.51570000E-13	 0.00000000E+00
	 0.00000000E+00	 0.00000000E+00	 4.51570000E-13

	 4.47143000E-13	 0.00000000E+00	 0.00000000E+00
	 0.00000000E+00	 4.47143000E-13	 0.00000000E+00
	 0.00000000E+00	 0.00000000E+00	 4.47143000E-13

	 4.61531000E-13	 0.00000000E+00	 0.00000000E+00
	 0.00000000E+00	 4.61531000E-13	 0.00000000E+00
	 0.00000000E+00	 0.00000000E+00	 4.61531000E-13

	 4.64852000E-13	 0.00000000E+00	 0.00000000E+00
	 0.00000000E+00	 4.64852000E-13	 0.00000000E+00
	 0.00000000E+00	 0.00000000E+00	 4.64852000E-13

	 4.64852000E-13	 0.00000000E+00	 0.00000000E+00
	 0.00000000E+00	 4.64852000E-13	 0.00000000E+00
	 0.00000000E+00	 0.00000000E+00	 4.64852000E-13

	 4.64852000E-13	 0.00000000E+00	 0.00000000E+00
	 0.00000000E+00	 4.64852000E-13	 0.00000000E+00
	 0.00000000E+00	 0.00000000E+00	 4.64852000E-13

	 4.51570000E-13	 0.00000000E+00	 0.00000000E+00
	 0.00000000E+00	 4.51570000E-13	 0.00000000E+00
	 0.00000000E+00	 0.00000000E+00	 4.51570000E-13

	 4.47143000E-13	 0.00000000E+00	 0.00000000E+00
	 0.00000000E+00	 4.47143000E-13	 0.00000000E+00
	 0.00000000E+00	 0.00000000E+00	 4.47143000E-13

	 4.64852000E-13	 0.00000000E+00	 0.00000000E+00
	 0.00000000E+00	 4.64852000E-13	 0.00000000E+00
	 0.00000000E+00	 0.00000000E+00	 4.64852000E-13

	 4.64852000E-13	 0.00000000E+00	 0.00000000E+00
	 0.00000000E+00	 4.64852000E-13	 0.00000000E+00
	 0.00000000E+00	 0.00000000E+00	 4.64852000E-13

	 4.64852000E-13	 0.00000000E+00	 0.00000000E+00
	 0.00000000E+00	 4.64852000E-13	 0.00000000E+00
	 0.00000000E+00	 0.00000000E+00	 4.64852000E-13

	 4.64852000E-13	 0.00000000E+00	 0.00000000E+00
	 0.00000000E+00	 4.64852000E-13	 0.00000000E+00
	 0.00000000E+00	 0.00000000E+00	 4.64852000E-13

	 4.64852000E-13	 0.00000000E+00	 0.00000000E+00
	 0.00000000E+00	 4.64852000E-13	 0.00000000E+00
	 0.00000000E+00	 0.00000000E+00	 4.64852000E-13

	 4.64852000E-13	 0.00000000E+00	 0.00000000E+00
	 0.00000000E+00	 4.64852000E-13	 0.00000000E+00
	 0.00000000E+00	 0.00000000E+00	 4.64852000E-13

	 4.64852000E-13	 0.00000000E+00	 0.00000000E+00
	 0.00000000E+00	 4.64852000E-13	 0.00000000E+00
	 0.00000000E+00	 0.00000000E+00	 4.64852000E-13

	 4.64852000E-13	 0.00000000E+00	 0.00000000E+00
	 0.00000000E+00	 4.64852000E-13	 0.00000000E+00
	 0.00000000E+00	 0.00000000E+00	 4.64852000E-13

	 4.64852000E-13	 0.00000000E+00	 0.00000000E+00
	 0.00000000E+00	 4.64852000E-13	 0.00000000E+00
	 0.00000000E+00	 0.00000000E+00	 4.64852000E-13

	 4.64852000E-13	 0.00000000E+00	 0.00000000E+00
	 0.00000000E+00	 4.64852000E-13	 0.00000000E+00
	 0.00000000E+00	 0.00000000E+00	 4.64852000E-13

	 4.64852000E-13	 0.00000000E+00	 0.00000000E+00
	 0.00000000E+00	 4.64852000E-13	 0.00000000E+00
	 0.00000000E+00	 0.00000000E+00	 4.64852000E-13

	 4.64852000E-13	 0.00000000E+00	 0.00000000E+00
	 0.00000000E+00	 4.64852000E-13	 0.00000000E+00
	 0.00000000E+00	 0.00000000E+00	 4.64852000E-13

	 4.64852000E-13	 0.00000000E+00	 0.00000000E+00
	 0.00000000E+00	 4.64852000E-13	 0.00000000E+00
	 0.00000000E+00	 0.00000000E+00	 4.64852000E-13

	 4.64852000E-13	 0.00000000E+00	 0.00000000E+00
	 0.00000000E+00	 4.64852000E-13	 0.00000000E+00
	 0.00000000E+00	 0.00000000E+00	 4.64852000E-13

	 4.64852000E-13	 0.00000000E+00	 0.00000000E+00
	 0.00000000E+00	 4.64852000E-13	 0.00000000E+00
	 0.00000000E+00	 0.00000000E+00	 4.64852000E-13

	 4.64852000E-13	 0.00000000E+00	 0.00000000E+00
	 0.00000000E+00	 4.64852000E-13	 0.00000000E+00
	 0.00000000E+00	 0.00000000E+00	 4.64852000E-13

	 4.64852000E-13	 0.00000000E+00	 0.00000000E+00
	 0.00000000E+00	 4.64852000E-13	 0.00000000E+00
	 0.00000000E+00	 0.00000000E+00	 4.64852000E-13

	 4.64852000E-13	 0.00000000E+00	 0.00000000E+00
	 0.00000000E+00	 4.64852000E-13	 0.00000000E+00
	 0.00000000E+00	 0.00000000E+00	 4.64852000E-13

	 4.64852000E-13	 0.00000000E+00	 0.00000000E+00
	 0.00000000E+00	 4.64852000E-13	 0.00000000E+00
	 0.00000000E+00	 0.00000000E+00	 4.64852000E-13

	 4.64852000E-13	 0.00000000E+00	 0.00000000E+00
	 0.00000000E+00	 4.64852000E-13	 0.00000000E+00
	 0.00000000E+00	 0.00000000E+00	 4.64852000E-13

	 4.64852000E-13	 0.00000000E+00	 0.00000000E+00
	 0.00000000E+00	 4.64852000E-13	 0.00000000E+00
	 0.00000000E+00	 0.00000000E+00	 4.64852000E-13

	 4.64852000E-13	 0.00000000E+00	 0.00000000E+00
	 0.00000000E+00	 4.64852000E-13	 0.00000000E+00
	 0.00000000E+00	 0.00000000E+00	 4.64852000E-13

	 4.64852000E-13	 0.00000000E+00	 0.00000000E+00
	 0.00000000E+00	 4.64852000E-13	 0.00000000E+00
	 0.00000000E+00	 0.00000000E+00	 4.64852000E-13

	 4.64852000E-13	 0.00000000E+00	 0.00000000E+00
	 0.00000000E+00	 4.64852000E-13	 0.00000000E+00
	 0.00000000E+00	 0.00000000E+00	 4.64852000E-13

	 4.64852000E-13	 0.00000000E+00	 0.00000000E+00
	 0.00000000E+00	 4.64852000E-13	 0.00000000E+00
	 0.00000000E+00	 0.00000000E+00	 4.64852000E-13

	 4.64852000E-13	 0.00000000E+00	 0.00000000E+00
	 0.00000000E+00	 4.64852000E-13	 0.00000000E+00
	 0.00000000E+00	 0.00000000E+00	 4.64852000E-13

	 4.64852000E-13	 0.00000000E+00	 0.00000000E+00
	 0.00000000E+00	 4.64852000E-13	 0.00000000E+00
	 0.00000000E+00	 0.00000000E+00	 4.64852000E-13

	 4.64852000E-13	 0.00000000E+00	 0.00000000E+00
	 0.00000000E+00	 4.64852000E-13	 0.00000000E+00
	 0.00000000E+00	 0.00000000E+00	 4.64852000E-13

	 4.64852000E-13	 0.00000000E+00	 0.00000000E+00
	 0.00000000E+00	 4.64852000E-13	 0.00000000E+00
	 0.00000000E+00	 0.00000000E+00	 4.64852000E-13

	 4.64852000E-13	 0.00000000E+00	 0.00000000E+00
	 0.00000000E+00	 4.64852000E-13	 0.00000000E+00
	 0.00000000E+00	 0.00000000E+00	 4.64852000E-13

	 4.64852000E-13	 0.00000000E+00	 0.00000000E+00
	 0.00000000E+00	 4.64852000E-13	 0.00000000E+00
	 0.00000000E+00	 0.00000000E+00	 4.64852000E-13

	 4.64852000E-13	 0.00000000E+00	 0.00000000E+00
	 0.00000000E+00	 4.64852000E-13	 0.00000000E+00
	 0.00000000E+00	 0.00000000E+00	 4.64852000E-13

	 4.64852000E-13	 0.00000000E+00	 0.00000000E+00
	 0.00000000E+00	 4.64852000E-13	 0.00000000E+00
	 0.00000000E+00	 0.00000000E+00	 4.64852000E-13

	 4.64852000E-13	 0.00000000E+00	 0.00000000E+00
	 0.00000000E+00	 4.64852000E-13	 0.00000000E+00
	 0.00000000E+00	 0.00000000E+00	 4.64852000E-13

	 4.64852000E-13	 0.00000000E+00	 0.00000000E+00
	 0.00000000E+00	 4.64852000E-13	 0.00000000E+00
	 0.00000000E+00	 0.00000000E+00	 4.64852000E-13

	 4.64852000E-13	 0.00000000E+00	 0.00000000E+00
	 0.00000000E+00	 4.64852000E-13	 0.00000000E+00
	 0.00000000E+00	 0.00000000E+00	 4.64852000E-13

	 4.64852000E-13	 0.00000000E+00	 0.00000000E+00
	 0.00000000E+00	 4.64852000E-13	 0.00000000E+00
	 0.00000000E+00	 0.00000000E+00	 4.64852000E-13

	 4.64852000E-13	 0.00000000E+00	 0.00000000E+00
	 0.00000000E+00	 4.64852000E-13	 0.00000000E+00
	 0.00000000E+00	 0.00000000E+00	 4.64852000E-13

	 4.64852000E-13	 0.00000000E+00	 0.00000000E+00
	 0.00000000E+00	 4.64852000E-13	 0.00000000E+00
	 0.00000000E+00	 0.00000000E+00	 4.64852000E-13

	 4.64852000E-13	 0.00000000E+00	 0.00000000E+00
	 0.00000000E+00	 4.64852000E-13	 0.00000000E+00
	 0.00000000E+00	 0.00000000E+00	 4.64852000E-13

	 4.64852000E-13	 0.00000000E+00	 0.00000000E+00
	 0.00000000E+00	 4.64852000E-13	 0.00000000E+00
	 0.00000000E+00	 0.00000000E+00	 4.64852000E-13

	 4.64852000E-13	 0.00000000E+00	 0.00000000E+00
	 0.00000000E+00	 4.64852000E-13	 0.00000000E+00
	 0.00000000E+00	 0.00000000E+00	 4.64852000E-13

	 4.64852000E-13	 0.00000000E+00	 0.00000000E+00
	 0.00000000E+00	 4.64852000E-13	 0.00000000E+00
	 0.00000000E+00	 0.00000000E+00	 4.64852000E-13

	 4.64852000E-13	 0.00000000E+00	 0.00000000E+00
	 0.00000000E+00	 4.64852000E-13	 0.00000000E+00
	 0.00000000E+00	 0.00000000E+00	 4.64852000E-13

	 4.64852000E-13	 0.00000000E+00	 0.00000000E+00
	 0.00000000E+00	 4.64852000E-13	 0.00000000E+00
	 0.00000000E+00	 0.00000000E+00	 4.64852000E-13

	 4.64852000E-13	 0.00000000E+00	 0.00000000E+00
	 0.00000000E+00	 4.64852000E-13	 0.00000000E+00
	 0.00000000E+00	 0.00000000E+00	 4.64852000E-13

	 4.64852000E-13	 0.00000000E+00	 0.00000000E+00
	 0.00000000E+00	 4.64852000E-13	 0.00000000E+00
	 0.00000000E+00	 0.00000000E+00	 4.64852000E-13

	 4.64852000E-13	 0.00000000E+00	 0.00000000E+00
	 0.00000000E+00	 4.64852000E-13	 0.00000000E+00
	 0.00000000E+00	 0.00000000E+00	 4.64852000E-13

	 4.64852000E-13	 0.00000000E+00	 0.00000000E+00
	 0.00000000E+00	 4.64852000E-13	 0.00000000E+00
	 0.00000000E+00	 0.00000000E+00	 4.64852000E-13

	 4.64852000E-13	 0.00000000E+00	 0.00000000E+00
	 0.00000000E+00	 4.64852000E-13	 0.00000000E+00
	 0.00000000E+00	 0.00000000E+00	 4.64852000E-13

	 4.64852000E-13	 0.00000000E+00	 0.00000000E+00
	 0.00000000E+00	 4.64852000E-13	 0.00000000E+00
	 0.00000000E+00	 0.00000000E+00	 4.64852000E-13

	 4.64852000E-13	 0.00000000E+00	 0.00000000E+00
	 0.00000000E+00	 4.64852000E-13	 0.00000000E+00
	 0.00000000E+00	 0.00000000E+00	 4.64852000E-13

	 4.64852000E-13	 0.00000000E+00	 0.00000000E+00
	 0.00000000E+00	 4.64852000E-13	 0.00000000E+00
	 0.00000000E+00	 0.00000000E+00	 4.64852000E-13

	 4.64852000E-13	 0.00000000E+00	 0.00000000E+00
	 0.00000000E+00	 4.64852000E-13	 0.00000000E+00
	 0.00000000E+00	 0.00000000E+00	 4.64852000E-13

	 4.64852000E-13	 0.00000000E+00	 0.00000000E+00
	 0.00000000E+00	 4.64852000E-13	 0.00000000E+00
	 0.00000000E+00	 0.00000000E+00	 4.64852000E-13

	 4.64852000E-13	 0.00000000E+00	 0.00000000E+00
	 0.00000000E+00	 4.64852000E-13	 0.00000000E+00
	 0.00000000E+00	 0.00000000E+00	 4.64852000E-13

	 4.64852000E-13	 0.00000000E+00	 0.00000000E+00
	 0.00000000E+00	 4.64852000E-13	 0.00000000E+00
	 0.00000000E+00	 0.00000000E+00	 4.64852000E-13

	 4.64852000E-13	 0.00000000E+00	 0.00000000E+00
	 0.00000000E+00	 4.64852000E-13	 0.00000000E+00
	 0.00000000E+00	 0.00000000E+00	 4.64852000E-13

	 4.64852000E-13	 0.00000000E+00	 0.00000000E+00
	 0.00000000E+00	 4.64852000E-13	 0.00000000E+00
	 0.00000000E+00	 0.00000000E+00	 4.64852000E-13

	 4.64852000E-13	 0.00000000E+00	 0.00000000E+00
	 0.00000000E+00	 4.64852000E-13	 0.00000000E+00
	 0.00000000E+00	 0.00000000E+00	 4.64852000E-13

	 4.64852000E-13	 0.00000000E+00	 0.00000000E+00
	 0.00000000E+00	 4.64852000E-13	 0.00000000E+00
	 0.00000000E+00	 0.00000000E+00	 4.64852000E-13

	 4.64852000E-13	 0.00000000E+00	 0.00000000E+00
	 0.00000000E+00	 4.64852000E-13	 0.00000000E+00
	 0.00000000E+00	 0.00000000E+00	 4.64852000E-13

	 4.64852000E-13	 0.00000000E+00	 0.00000000E+00
	 0.00000000E+00	 4.64852000E-13	 0.00000000E+00
	 0.00000000E+00	 0.00000000E+00	 4.64852000E-13

	 4.64852000E-13	 0.00000000E+00	 0.00000000E+00
	 0.00000000E+00	 4.64852000E-13	 0.00000000E+00
	 0.00000000E+00	 0.00000000E+00	 4.64852000E-13

	 4.64852000E-13	 0.00000000E+00	 0.00000000E+00
	 0.00000000E+00	 4.64852000E-13	 0.00000000E+00
	 0.00000000E+00	 0.00000000E+00	 4.64852000E-13

	 4.64852000E-13	 0.00000000E+00	 0.00000000E+00
	 0.00000000E+00	 4.64852000E-13	 0.00000000E+00
	 0.00000000E+00	 0.00000000E+00	 4.64852000E-13

	 4.64852000E-13	 0.00000000E+00	 0.00000000E+00
	 0.00000000E+00	 4.64852000E-13	 0.00000000E+00
	 0.00000000E+00	 0.00000000E+00	 4.64852000E-13

	 4.64852000E-13	 0.00000000E+00	 0.00000000E+00
	 0.00000000E+00	 4.64852000E-13	 0.00000000E+00
	 0.00000000E+00	 0.00000000E+00	 4.64852000E-13

	 4.60425000E-13	 0.00000000E+00	 0.00000000E+00
	 0.00000000E+00	 4.60425000E-13	 0.00000000E+00
	 0.00000000E+00	 0.00000000E+00	 4.60425000E-13

	 4.51570000E-13	 0.00000000E+00	 0.00000000E+00
	 0.00000000E+00	 4.51570000E-13	 0.00000000E+00
	 0.00000000E+00	 0.00000000E+00	 4.51570000E-13

	 4.55997000E-13	 0.00000000E+00	 0.00000000E+00
	 0.00000000E+00	 4.55997000E-13	 0.00000000E+00
	 0.00000000E+00	 0.00000000E+00	 4.55997000E-13

	 4.60425000E-13	 0.00000000E+00	 0.00000000E+00
	 0.00000000E+00	 4.60425000E-13	 0.00000000E+00
	 0.00000000E+00	 0.00000000E+00	 4.60425000E-13

	 4.64852000E-13	 0.00000000E+00	 0.00000000E+00
	 0.00000000E+00	 4.64852000E-13	 0.00000000E+00
	 0.00000000E+00	 0.00000000E+00	 4.64852000E-13

	 4.60425000E-13	 0.00000000E+00	 0.00000000E+00
	 0.00000000E+00	 4.60425000E-13	 0.00000000E+00
	 0.00000000E+00	 0.00000000E+00	 4.60425000E-13

	 4.42716000E-13	 0.00000000E+00	 0.00000000E+00
	 0.00000000E+00	 4.42716000E-13	 0.00000000E+00
	 0.00000000E+00	 0.00000000E+00	 4.42716000E-13

	 4.38289000E-13	 0.00000000E+00	 0.00000000E+00
	 0.00000000E+00	 4.38289000E-13	 0.00000000E+00
	 0.00000000E+00	 0.00000000E+00	 4.38289000E-13

	 4.38289000E-13	 0.00000000E+00	 0.00000000E+00
	 0.00000000E+00	 4.38289000E-13	 0.00000000E+00
	 0.00000000E+00	 0.00000000E+00	 4.38289000E-13

	 4.38289000E-13	 0.00000000E+00	 0.00000000E+00
	 0.00000000E+00	 4.38289000E-13	 0.00000000E+00
	 0.00000000E+00	 0.00000000E+00	 4.38289000E-13

	 4.42716000E-13	 0.00000000E+00	 0.00000000E+00
	 0.00000000E+00	 4.42716000E-13	 0.00000000E+00
	 0.00000000E+00	 0.00000000E+00	 4.42716000E-13

	 4.47143000E-13	 0.00000000E+00	 0.00000000E+00
	 0.00000000E+00	 4.47143000E-13	 0.00000000E+00
	 0.00000000E+00	 0.00000000E+00	 4.47143000E-13

	 4.38289000E-13	 0.00000000E+00	 0.00000000E+00
	 0.00000000E+00	 4.38289000E-13	 0.00000000E+00
	 0.00000000E+00	 0.00000000E+00	 4.38289000E-13

	 4.38289000E-13	 0.00000000E+00	 0.00000000E+00
	 0.00000000E+00	 4.38289000E-13	 0.00000000E+00
	 0.00000000E+00	 0.00000000E+00	 4.38289000E-13

	 4.38289000E-13	 0.00000000E+00	 0.00000000E+00
	 0.00000000E+00	 4.38289000E-13	 0.00000000E+00
	 0.00000000E+00	 0.00000000E+00	 4.38289000E-13

	 4.47143000E-13	 0.00000000E+00	 0.00000000E+00
	 0.00000000E+00	 4.47143000E-13	 0.00000000E+00
	 0.00000000E+00	 0.00000000E+00	 4.47143000E-13

	 4.60425000E-13	 0.00000000E+00	 0.00000000E+00
	 0.00000000E+00	 4.60425000E-13	 0.00000000E+00
	 0.00000000E+00	 0.00000000E+00	 4.60425000E-13

	 4.60425000E-13	 0.00000000E+00	 0.00000000E+00
	 0.00000000E+00	 4.60425000E-13	 0.00000000E+00
	 0.00000000E+00	 0.00000000E+00	 4.60425000E-13

	 4.55997000E-13	 0.00000000E+00	 0.00000000E+00
	 0.00000000E+00	 4.55997000E-13	 0.00000000E+00
	 0.00000000E+00	 0.00000000E+00	 4.55997000E-13

	 4.42716000E-13	 0.00000000E+00	 0.00000000E+00
	 0.00000000E+00	 4.42716000E-13	 0.00000000E+00
	 0.00000000E+00	 0.00000000E+00	 4.42716000E-13

	 4.38289000E-13	 0.00000000E+00	 0.00000000E+00
	 0.00000000E+00	 4.38289000E-13	 0.00000000E+00
	 0.00000000E+00	 0.00000000E+00	 4.38289000E-13

	 4.38289000E-13	 0.00000000E+00	 0.00000000E+00
	 0.00000000E+00	 4.38289000E-13	 0.00000000E+00
	 0.00000000E+00	 0.00000000E+00	 4.38289000E-13

	 4.38289000E-13	 0.00000000E+00	 0.00000000E+00
	 0.00000000E+00	 4.38289000E-13	 0.00000000E+00
	 0.00000000E+00	 0.00000000E+00	 4.38289000E-13

	 4.38289000E-13	 0.00000000E+00	 0.00000000E+00
	 0.00000000E+00	 4.38289000E-13	 0.00000000E+00
	 0.00000000E+00	 0.00000000E+00	 4.38289000E-13

	 4.42716000E-13	 0.00000000E+00	 0.00000000E+00
	 0.00000000E+00	 4.42716000E-13	 0.00000000E+00
	 0.00000000E+00	 0.00000000E+00	 4.42716000E-13

	 4.60425000E-13	 0.00000000E+00	 0.00000000E+00
	 0.00000000E+00	 4.60425000E-13	 0.00000000E+00
	 0.00000000E+00	 0.00000000E+00	 4.60425000E-13

	 4.64852000E-13	 0.00000000E+00	 0.00000000E+00
	 0.00000000E+00	 4.64852000E-13	 0.00000000E+00
	 0.00000000E+00	 0.00000000E+00	 4.64852000E-13

	 4.64852000E-13	 0.00000000E+00	 0.00000000E+00
	 0.00000000E+00	 4.64852000E-13	 0.00000000E+00
	 0.00000000E+00	 0.00000000E+00	 4.64852000E-13

	 4.64852000E-13	 0.00000000E+00	 0.00000000E+00
	 0.00000000E+00	 4.64852000E-13	 0.00000000E+00
	 0.00000000E+00	 0.00000000E+00	 4.64852000E-13

	 4.55997000E-13	 0.00000000E+00	 0.00000000E+00
	 0.00000000E+00	 4.55997000E-13	 0.00000000E+00
	 0.00000000E+00	 0.00000000E+00	 4.55997000E-13

	 4.55997000E-13	 0.00000000E+00	 0.00000000E+00
	 0.00000000E+00	 4.55997000E-13	 0.00000000E+00
	 0.00000000E+00	 0.00000000E+00	 4.55997000E-13

	 4.51570000E-13	 0.00000000E+00	 0.00000000E+00
	 0.00000000E+00	 4.51570000E-13	 0.00000000E+00
	 0.00000000E+00	 0.00000000E+00	 4.51570000E-13

	 4.47143000E-13	 0.00000000E+00	 0.00000000E+00
	 0.00000000E+00	 4.47143000E-13	 0.00000000E+00
	 0.00000000E+00	 0.00000000E+00	 4.47143000E-13

	 4.42716000E-13	 0.00000000E+00	 0.00000000E+00
	 0.00000000E+00	 4.42716000E-13	 0.00000000E+00
	 0.00000000E+00	 0.00000000E+00	 4.42716000E-13

	 4.38289000E-13	 0.00000000E+00	 0.00000000E+00
	 0.00000000E+00	 4.38289000E-13	 0.00000000E+00
	 0.00000000E+00	 0.00000000E+00	 4.38289000E-13

	 4.38289000E-13	 0.00000000E+00	 0.00000000E+00
	 0.00000000E+00	 4.38289000E-13	 0.00000000E+00
	 0.00000000E+00	 0.00000000E+00	 4.38289000E-13

	 4.38289000E-13	 0.00000000E+00	 0.00000000E+00
	 0.00000000E+00	 4.38289000E-13	 0.00000000E+00
	 0.00000000E+00	 0.00000000E+00	 4.38289000E-13

	 4.38289000E-13	 0.00000000E+00	 0.00000000E+00
	 0.00000000E+00	 4.38289000E-13	 0.00000000E+00
	 0.00000000E+00	 0.00000000E+00	 4.38289000E-13

	 4.38289000E-13	 0.00000000E+00	 0.00000000E+00
	 0.00000000E+00	 4.38289000E-13	 0.00000000E+00
	 0.00000000E+00	 0.00000000E+00	 4.38289000E-13

	 4.38289000E-13	 0.00000000E+00	 0.00000000E+00
	 0.00000000E+00	 4.38289000E-13	 0.00000000E+00
	 0.00000000E+00	 0.00000000E+00	 4.38289000E-13

	 4.38289000E-13	 0.00000000E+00	 0.00000000E+00
	 0.00000000E+00	 4.38289000E-13	 0.00000000E+00
	 0.00000000E+00	 0.00000000E+00	 4.38289000E-13

	 4.38289000E-13	 0.00000000E+00	 0.00000000E+00
	 0.00000000E+00	 4.38289000E-13	 0.00000000E+00
	 0.00000000E+00	 0.00000000E+00	 4.38289000E-13

	 4.38289000E-13	 0.00000000E+00	 0.00000000E+00
	 0.00000000E+00	 4.38289000E-13	 0.00000000E+00
	 0.00000000E+00	 0.00000000E+00	 4.38289000E-13

	 4.55997000E-13	 0.00000000E+00	 0.00000000E+00
	 0.00000000E+00	 4.55997000E-13	 0.00000000E+00
	 0.00000000E+00	 0.00000000E+00	 4.55997000E-13

	 4.64852000E-13	 0.00000000E+00	 0.00000000E+00
	 0.00000000E+00	 4.64852000E-13	 0.00000000E+00
	 0.00000000E+00	 0.00000000E+00	 4.64852000E-13

	 4.64852000E-13	 0.00000000E+00	 0.00000000E+00
	 0.00000000E+00	 4.64852000E-13	 0.00000000E+00
	 0.00000000E+00	 0.00000000E+00	 4.64852000E-13

	 4.64852000E-13	 0.00000000E+00	 0.00000000E+00
	 0.00000000E+00	 4.64852000E-13	 0.00000000E+00
	 0.00000000E+00	 0.00000000E+00	 4.64852000E-13

	 4.64852000E-13	 0.00000000E+00	 0.00000000E+00
	 0.00000000E+00	 4.64852000E-13	 0.00000000E+00
	 0.00000000E+00	 0.00000000E+00	 4.64852000E-13

	 4.64852000E-13	 0.00000000E+00	 0.00000000E+00
	 0.00000000E+00	 4.64852000E-13	 0.00000000E+00
	 0.00000000E+00	 0.00000000E+00	 4.64852000E-13

	 4.64852000E-13	 0.00000000E+00	 0.00000000E+00
	 0.00000000E+00	 4.64852000E-13	 0.00000000E+00
	 0.00000000E+00	 0.00000000E+00	 4.64852000E-13

	 4.64852000E-13	 0.00000000E+00	 0.00000000E+00
	 0.00000000E+00	 4.64852000E-13	 0.00000000E+00
	 0.00000000E+00	 0.00000000E+00	 4.64852000E-13

	 4.64852000E-13	 0.00000000E+00	 0.00000000E+00
	 0.00000000E+00	 4.64852000E-13	 0.00000000E+00
	 0.00000000E+00	 0.00000000E+00	 4.64852000E-13

	 4.64852000E-13	 0.00000000E+00	 0.00000000E+00
	 0.00000000E+00	 4.64852000E-13	 0.00000000E+00
	 0.00000000E+00	 0.00000000E+00	 4.64852000E-13

	 4.64852000E-13	 0.00000000E+00	 0.00000000E+00
	 0.00000000E+00	 4.64852000E-13	 0.00000000E+00
	 0.00000000E+00	 0.00000000E+00	 4.64852000E-13

	 4.64852000E-13	 0.00000000E+00	 0.00000000E+00
	 0.00000000E+00	 4.64852000E-13	 0.00000000E+00
	 0.00000000E+00	 0.00000000E+00	 4.64852000E-13

	 4.64852000E-13	 0.00000000E+00	 0.00000000E+00
	 0.00000000E+00	 4.64852000E-13	 0.00000000E+00
	 0.00000000E+00	 0.00000000E+00	 4.64852000E-13

	 4.64852000E-13	 0.00000000E+00	 0.00000000E+00
	 0.00000000E+00	 4.64852000E-13	 0.00000000E+00
	 0.00000000E+00	 0.00000000E+00	 4.64852000E-13

	 4.64852000E-13	 0.00000000E+00	 0.00000000E+00
	 0.00000000E+00	 4.64852000E-13	 0.00000000E+00
	 0.00000000E+00	 0.00000000E+00	 4.64852000E-13

	 4.64852000E-13	 0.00000000E+00	 0.00000000E+00
	 0.00000000E+00	 4.64852000E-13	 0.00000000E+00
	 0.00000000E+00	 0.00000000E+00	 4.64852000E-13

	 4.64852000E-13	 0.00000000E+00	 0.00000000E+00
	 0.00000000E+00	 4.64852000E-13	 0.00000000E+00
	 0.00000000E+00	 0.00000000E+00	 4.64852000E-13

	 4.64852000E-13	 0.00000000E+00	 0.00000000E+00
	 0.00000000E+00	 4.64852000E-13	 0.00000000E+00
	 0.00000000E+00	 0.00000000E+00	 4.64852000E-13

	 4.64852000E-13	 0.00000000E+00	 0.00000000E+00
	 0.00000000E+00	 4.64852000E-13	 0.00000000E+00
	 0.00000000E+00	 0.00000000E+00	 4.64852000E-13

	 4.64852000E-13	 0.00000000E+00	 0.00000000E+00
	 0.00000000E+00	 4.64852000E-13	 0.00000000E+00
	 0.00000000E+00	 0.00000000E+00	 4.64852000E-13

	 4.64852000E-13	 0.00000000E+00	 0.00000000E+00
	 0.00000000E+00	 4.64852000E-13	 0.00000000E+00
	 0.00000000E+00	 0.00000000E+00	 4.64852000E-13

	 4.64852000E-13	 0.00000000E+00	 0.00000000E+00
	 0.00000000E+00	 4.64852000E-13	 0.00000000E+00
	 0.00000000E+00	 0.00000000E+00	 4.64852000E-13

	 4.64852000E-13	 0.00000000E+00	 0.00000000E+00
	 0.00000000E+00	 4.64852000E-13	 0.00000000E+00
	 0.00000000E+00	 0.00000000E+00	 4.64852000E-13

	 4.64852000E-13	 0.00000000E+00	 0.00000000E+00
	 0.00000000E+00	 4.64852000E-13	 0.00000000E+00
	 0.00000000E+00	 0.00000000E+00	 4.64852000E-13

	 4.64852000E-13	 0.00000000E+00	 0.00000000E+00
	 0.00000000E+00	 4.64852000E-13	 0.00000000E+00
	 0.00000000E+00	 0.00000000E+00	 4.64852000E-13

	 4.64852000E-13	 0.00000000E+00	 0.00000000E+00
	 0.00000000E+00	 4.64852000E-13	 0.00000000E+00
	 0.00000000E+00	 0.00000000E+00	 4.64852000E-13

	 4.64852000E-13	 0.00000000E+00	 0.00000000E+00
	 0.00000000E+00	 4.64852000E-13	 0.00000000E+00
	 0.00000000E+00	 0.00000000E+00	 4.64852000E-13

	 4.64852000E-13	 0.00000000E+00	 0.00000000E+00
	 0.00000000E+00	 4.64852000E-13	 0.00000000E+00
	 0.00000000E+00	 0.00000000E+00	 4.64852000E-13

	 4.64852000E-13	 0.00000000E+00	 0.00000000E+00
	 0.00000000E+00	 4.64852000E-13	 0.00000000E+00
	 0.00000000E+00	 0.00000000E+00	 4.64852000E-13

	 4.64852000E-13	 0.00000000E+00	 0.00000000E+00
	 0.00000000E+00	 4.64852000E-13	 0.00000000E+00
	 0.00000000E+00	 0.00000000E+00	 4.64852000E-13

	 4.64852000E-13	 0.00000000E+00	 0.00000000E+00
	 0.00000000E+00	 4.64852000E-13	 0.00000000E+00
	 0.00000000E+00	 0.00000000E+00	 4.64852000E-13

	 4.64852000E-13	 0.00000000E+00	 0.00000000E+00
	 0.00000000E+00	 4.64852000E-13	 0.00000000E+00
	 0.00000000E+00	 0.00000000E+00	 4.64852000E-13

	 4.64852000E-13	 0.00000000E+00	 0.00000000E+00
	 0.00000000E+00	 4.64852000E-13	 0.00000000E+00
	 0.00000000E+00	 0.00000000E+00	 4.64852000E-13

	 4.64852000E-13	 0.00000000E+00	 0.00000000E+00
	 0.00000000E+00	 4.64852000E-13	 0.00000000E+00
	 0.00000000E+00	 0.00000000E+00	 4.64852000E-13

	 4.64852000E-13	 0.00000000E+00	 0.00000000E+00
	 0.00000000E+00	 4.64852000E-13	 0.00000000E+00
	 0.00000000E+00	 0.00000000E+00	 4.64852000E-13

	 4.64852000E-13	 0.00000000E+00	 0.00000000E+00
	 0.00000000E+00	 4.64852000E-13	 0.00000000E+00
	 0.00000000E+00	 0.00000000E+00	 4.64852000E-13

	 4.64852000E-13	 0.00000000E+00	 0.00000000E+00
	 0.00000000E+00	 4.64852000E-13	 0.00000000E+00
	 0.00000000E+00	 0.00000000E+00	 4.64852000E-13

	 4.64852000E-13	 0.00000000E+00	 0.00000000E+00
	 0.00000000E+00	 4.64852000E-13	 0.00000000E+00
	 0.00000000E+00	 0.00000000E+00	 4.64852000E-13

	 4.64852000E-13	 0.00000000E+00	 0.00000000E+00
	 0.00000000E+00	 4.64852000E-13	 0.00000000E+00
	 0.00000000E+00	 0.00000000E+00	 4.64852000E-13

	 4.64852000E-13	 0.00000000E+00	 0.00000000E+00
	 0.00000000E+00	 4.64852000E-13	 0.00000000E+00
	 0.00000000E+00	 0.00000000E+00	 4.64852000E-13

	 4.64852000E-13	 0.00000000E+00	 0.00000000E+00
	 0.00000000E+00	 4.64852000E-13	 0.00000000E+00
	 0.00000000E+00	 0.00000000E+00	 4.64852000E-13

	 4.64852000E-13	 0.00000000E+00	 0.00000000E+00
	 0.00000000E+00	 4.64852000E-13	 0.00000000E+00
	 0.00000000E+00	 0.00000000E+00	 4.64852000E-13

	 4.64852000E-13	 0.00000000E+00	 0.00000000E+00
	 0.00000000E+00	 4.64852000E-13	 0.00000000E+00
	 0.00000000E+00	 0.00000000E+00	 4.64852000E-13

	 4.64852000E-13	 0.00000000E+00	 0.00000000E+00
	 0.00000000E+00	 4.64852000E-13	 0.00000000E+00
	 0.00000000E+00	 0.00000000E+00	 4.64852000E-13

	 4.64852000E-13	 0.00000000E+00	 0.00000000E+00
	 0.00000000E+00	 4.64852000E-13	 0.00000000E+00
	 0.00000000E+00	 0.00000000E+00	 4.64852000E-13

	 4.64852000E-13	 0.00000000E+00	 0.00000000E+00
	 0.00000000E+00	 4.64852000E-13	 0.00000000E+00
	 0.00000000E+00	 0.00000000E+00	 4.64852000E-13

	 4.64852000E-13	 0.00000000E+00	 0.00000000E+00
	 0.00000000E+00	 4.64852000E-13	 0.00000000E+00
	 0.00000000E+00	 0.00000000E+00	 4.64852000E-13

	 4.64852000E-13	 0.00000000E+00	 0.00000000E+00
	 0.00000000E+00	 4.64852000E-13	 0.00000000E+00
	 0.00000000E+00	 0.00000000E+00	 4.64852000E-13

	 4.64852000E-13	 0.00000000E+00	 0.00000000E+00
	 0.00000000E+00	 4.64852000E-13	 0.00000000E+00
	 0.00000000E+00	 0.00000000E+00	 4.64852000E-13

	 4.64852000E-13	 0.00000000E+00	 0.00000000E+00
	 0.00000000E+00	 4.64852000E-13	 0.00000000E+00
	 0.00000000E+00	 0.00000000E+00	 4.64852000E-13

	 4.64852000E-13	 0.00000000E+00	 0.00000000E+00
	 0.00000000E+00	 4.64852000E-13	 0.00000000E+00
	 0.00000000E+00	 0.00000000E+00	 4.64852000E-13

	 4.64852000E-13	 0.00000000E+00	 0.00000000E+00
	 0.00000000E+00	 4.64852000E-13	 0.00000000E+00
	 0.00000000E+00	 0.00000000E+00	 4.64852000E-13

	 4.64852000E-13	 0.00000000E+00	 0.00000000E+00
	 0.00000000E+00	 4.64852000E-13	 0.00000000E+00
	 0.00000000E+00	 0.00000000E+00	 4.64852000E-13

	 4.64852000E-13	 0.00000000E+00	 0.00000000E+00
	 0.00000000E+00	 4.64852000E-13	 0.00000000E+00
	 0.00000000E+00	 0.00000000E+00	 4.64852000E-13

	 4.60425000E-13	 0.00000000E+00	 0.00000000E+00
	 0.00000000E+00	 4.60425000E-13	 0.00000000E+00
	 0.00000000E+00	 0.00000000E+00	 4.60425000E-13

	 4.47143000E-13	 0.00000000E+00	 0.00000000E+00
	 0.00000000E+00	 4.47143000E-13	 0.00000000E+00
	 0.00000000E+00	 0.00000000E+00	 4.47143000E-13

	 4.51570000E-13	 0.00000000E+00	 0.00000000E+00
	 0.00000000E+00	 4.51570000E-13	 0.00000000E+00
	 0.00000000E+00	 0.00000000E+00	 4.51570000E-13

	 4.64852000E-13	 0.00000000E+00	 0.00000000E+00
	 0.00000000E+00	 4.64852000E-13	 0.00000000E+00
	 0.00000000E+00	 0.00000000E+00	 4.64852000E-13

	 4.64852000E-13	 0.00000000E+00	 0.00000000E+00
	 0.00000000E+00	 4.64852000E-13	 0.00000000E+00
	 0.00000000E+00	 0.00000000E+00	 4.64852000E-13

	 4.64852000E-13	 0.00000000E+00	 0.00000000E+00
	 0.00000000E+00	 4.64852000E-13	 0.00000000E+00
	 0.00000000E+00	 0.00000000E+00	 4.64852000E-13

	 4.55997000E-13	 0.00000000E+00	 0.00000000E+00
	 0.00000000E+00	 4.55997000E-13	 0.00000000E+00
	 0.00000000E+00	 0.00000000E+00	 4.55997000E-13

	 4.42716000E-13	 0.00000000E+00	 0.00000000E+00
	 0.00000000E+00	 4.42716000E-13	 0.00000000E+00
	 0.00000000E+00	 0.00000000E+00	 4.42716000E-13

	 4.38289000E-13	 0.00000000E+00	 0.00000000E+00
	 0.00000000E+00	 4.38289000E-13	 0.00000000E+00
	 0.00000000E+00	 0.00000000E+00	 4.38289000E-13

	 4.38289000E-13	 0.00000000E+00	 0.00000000E+00
	 0.00000000E+00	 4.38289000E-13	 0.00000000E+00
	 0.00000000E+00	 0.00000000E+00	 4.38289000E-13

	 4.38289000E-13	 0.00000000E+00	 0.00000000E+00
	 0.00000000E+00	 4.38289000E-13	 0.00000000E+00
	 0.00000000E+00	 0.00000000E+00	 4.38289000E-13

	 4.38289000E-13	 0.00000000E+00	 0.00000000E+00
	 0.00000000E+00	 4.38289000E-13	 0.00000000E+00
	 0.00000000E+00	 0.00000000E+00	 4.38289000E-13

	 4.38289000E-13	 0.00000000E+00	 0.00000000E+00
	 0.00000000E+00	 4.38289000E-13	 0.00000000E+00
	 0.00000000E+00	 0.00000000E+00	 4.38289000E-13

	 4.38289000E-13	 0.00000000E+00	 0.00000000E+00
	 0.00000000E+00	 4.38289000E-13	 0.00000000E+00
	 0.00000000E+00	 0.00000000E+00	 4.38289000E-13

	 4.64852000E-13	 0.00000000E+00	 0.00000000E+00
	 0.00000000E+00	 4.64852000E-13	 0.00000000E+00
	 0.00000000E+00	 0.00000000E+00	 4.64852000E-13

	 4.64852000E-13	 0.00000000E+00	 0.00000000E+00
	 0.00000000E+00	 4.64852000E-13	 0.00000000E+00
	 0.00000000E+00	 0.00000000E+00	 4.64852000E-13

	 4.64852000E-13	 0.00000000E+00	 0.00000000E+00
	 0.00000000E+00	 4.64852000E-13	 0.00000000E+00
	 0.00000000E+00	 0.00000000E+00	 4.64852000E-13

	 4.38289000E-13	 0.00000000E+00	 0.00000000E+00
	 0.00000000E+00	 4.38289000E-13	 0.00000000E+00
	 0.00000000E+00	 0.00000000E+00	 4.38289000E-13

	 4.38289000E-13	 0.00000000E+00	 0.00000000E+00
	 0.00000000E+00	 4.38289000E-13	 0.00000000E+00
	 0.00000000E+00	 0.00000000E+00	 4.38289000E-13

	 4.38289000E-13	 0.00000000E+00	 0.00000000E+00
	 0.00000000E+00	 4.38289000E-13	 0.00000000E+00
	 0.00000000E+00	 0.00000000E+00	 4.38289000E-13

	 4.38289000E-13	 0.00000000E+00	 0.00000000E+00
	 0.00000000E+00	 4.38289000E-13	 0.00000000E+00
	 0.00000000E+00	 0.00000000E+00	 4.38289000E-13

	 4.38289000E-13	 0.00000000E+00	 0.00000000E+00
	 0.00000000E+00	 4.38289000E-13	 0.00000000E+00
	 0.00000000E+00	 0.00000000E+00	 4.38289000E-13

	 4.38289000E-13	 0.00000000E+00	 0.00000000E+00
	 0.00000000E+00	 4.38289000E-13	 0.00000000E+00
	 0.00000000E+00	 0.00000000E+00	 4.38289000E-13

	 4.38289000E-13	 0.00000000E+00	 0.00000000E+00
	 0.00000000E+00	 4.38289000E-13	 0.00000000E+00
	 0.00000000E+00	 0.00000000E+00	 4.38289000E-13

	 4.38289000E-13	 0.00000000E+00	 0.00000000E+00
	 0.00000000E+00	 4.38289000E-13	 0.00000000E+00
	 0.00000000E+00	 0.00000000E+00	 4.38289000E-13

	 4.38289000E-13	 0.00000000E+00	 0.00000000E+00
	 0.00000000E+00	 4.38289000E-13	 0.00000000E+00
	 0.00000000E+00	 0.00000000E+00	 4.38289000E-13

	 4.42716000E-13	 0.00000000E+00	 0.00000000E+00
	 0.00000000E+00	 4.42716000E-13	 0.00000000E+00
	 0.00000000E+00	 0.00000000E+00	 4.42716000E-13

	 4.42716000E-13	 0.00000000E+00	 0.00000000E+00
	 0.00000000E+00	 4.42716000E-13	 0.00000000E+00
	 0.00000000E+00	 0.00000000E+00	 4.42716000E-13

	 4.38289000E-13	 0.00000000E+00	 0.00000000E+00
	 0.00000000E+00	 4.38289000E-13	 0.00000000E+00
	 0.00000000E+00	 0.00000000E+00	 4.38289000E-13

	 4.38289000E-13	 0.00000000E+00	 0.00000000E+00
	 0.00000000E+00	 4.38289000E-13	 0.00000000E+00
	 0.00000000E+00	 0.00000000E+00	 4.38289000E-13

	 4.38289000E-13	 0.00000000E+00	 0.00000000E+00
	 0.00000000E+00	 4.38289000E-13	 0.00000000E+00
	 0.00000000E+00	 0.00000000E+00	 4.38289000E-13

	 4.38289000E-13	 0.00000000E+00	 0.00000000E+00
	 0.00000000E+00	 4.38289000E-13	 0.00000000E+00
	 0.00000000E+00	 0.00000000E+00	 4.38289000E-13

	 4.38289000E-13	 0.00000000E+00	 0.00000000E+00
	 0.00000000E+00	 4.38289000E-13	 0.00000000E+00
	 0.00000000E+00	 0.00000000E+00	 4.38289000E-13

	 4.38289000E-13	 0.00000000E+00	 0.00000000E+00
	 0.00000000E+00	 4.38289000E-13	 0.00000000E+00
	 0.00000000E+00	 0.00000000E+00	 4.38289000E-13

	 4.38289000E-13	 0.00000000E+00	 0.00000000E+00
	 0.00000000E+00	 4.38289000E-13	 0.00000000E+00
	 0.00000000E+00	 0.00000000E+00	 4.38289000E-13

	 4.38289000E-13	 0.00000000E+00	 0.00000000E+00
	 0.00000000E+00	 4.38289000E-13	 0.00000000E+00
	 0.00000000E+00	 0.00000000E+00	 4.38289000E-13

	 4.38289000E-13	 0.00000000E+00	 0.00000000E+00
	 0.00000000E+00	 4.38289000E-13	 0.00000000E+00
	 0.00000000E+00	 0.00000000E+00	 4.38289000E-13

	 4.38289000E-13	 0.00000000E+00	 0.00000000E+00
	 0.00000000E+00	 4.38289000E-13	 0.00000000E+00
	 0.00000000E+00	 0.00000000E+00	 4.38289000E-13

	 4.47143000E-13	 0.00000000E+00	 0.00000000E+00
	 0.00000000E+00	 4.47143000E-13	 0.00000000E+00
	 0.00000000E+00	 0.00000000E+00	 4.47143000E-13

	 4.42716000E-13	 0.00000000E+00	 0.00000000E+00
	 0.00000000E+00	 4.42716000E-13	 0.00000000E+00
	 0.00000000E+00	 0.00000000E+00	 4.42716000E-13

	 4.38289000E-13	 0.00000000E+00	 0.00000000E+00
	 0.00000000E+00	 4.38289000E-13	 0.00000000E+00
	 0.00000000E+00	 0.00000000E+00	 4.38289000E-13

	 4.38289000E-13	 0.00000000E+00	 0.00000000E+00
	 0.00000000E+00	 4.38289000E-13	 0.00000000E+00
	 0.00000000E+00	 0.00000000E+00	 4.38289000E-13

	 4.38289000E-13	 0.00000000E+00	 0.00000000E+00
	 0.00000000E+00	 4.38289000E-13	 0.00000000E+00
	 0.00000000E+00	 0.00000000E+00	 4.38289000E-13

	 4.42716000E-13	 0.00000000E+00	 0.00000000E+00
	 0.00000000E+00	 4.42716000E-13	 0.00000000E+00
	 0.00000000E+00	 0.00000000E+00	 4.42716000E-13

	 4.47143000E-13	 0.00000000E+00	 0.00000000E+00
	 0.00000000E+00	 4.47143000E-13	 0.00000000E+00
	 0.00000000E+00	 0.00000000E+00	 4.47143000E-13

	 4.51570000E-13	 0.00000000E+00	 0.00000000E+00
	 0.00000000E+00	 4.51570000E-13	 0.00000000E+00
	 0.00000000E+00	 0.00000000E+00	 4.51570000E-13

	 4.55997000E-13	 0.00000000E+00	 0.00000000E+00
	 0.00000000E+00	 4.55997000E-13	 0.00000000E+00
	 0.00000000E+00	 0.00000000E+00	 4.55997000E-13

	 4.64852000E-13	 0.00000000E+00	 0.00000000E+00
	 0.00000000E+00	 4.64852000E-13	 0.00000000E+00
	 0.00000000E+00	 0.00000000E+00	 4.64852000E-13

	 4.55997000E-13	 0.00000000E+00	 0.00000000E+00
	 0.00000000E+00	 4.55997000E-13	 0.00000000E+00
	 0.00000000E+00	 0.00000000E+00	 4.55997000E-13

	 4.55997000E-13	 0.00000000E+00	 0.00000000E+00
	 0.00000000E+00	 4.55997000E-13	 0.00000000E+00
	 0.00000000E+00	 0.00000000E+00	 4.55997000E-13

	 4.64852000E-13	 0.00000000E+00	 0.00000000E+00
	 0.00000000E+00	 4.64852000E-13	 0.00000000E+00
	 0.00000000E+00	 0.00000000E+00	 4.64852000E-13

	 4.64852000E-13	 0.00000000E+00	 0.00000000E+00
	 0.00000000E+00	 4.64852000E-13	 0.00000000E+00
	 0.00000000E+00	 0.00000000E+00	 4.64852000E-13

	 4.64852000E-13	 0.00000000E+00	 0.00000000E+00
	 0.00000000E+00	 4.64852000E-13	 0.00000000E+00
	 0.00000000E+00	 0.00000000E+00	 4.64852000E-13

	 4.60425000E-13	 0.00000000E+00	 0.00000000E+00
	 0.00000000E+00	 4.60425000E-13	 0.00000000E+00
	 0.00000000E+00	 0.00000000E+00	 4.60425000E-13

	 4.60425000E-13	 0.00000000E+00	 0.00000000E+00
	 0.00000000E+00	 4.60425000E-13	 0.00000000E+00
	 0.00000000E+00	 0.00000000E+00	 4.60425000E-13

	 4.64852000E-13	 0.00000000E+00	 0.00000000E+00
	 0.00000000E+00	 4.64852000E-13	 0.00000000E+00
	 0.00000000E+00	 0.00000000E+00	 4.64852000E-13

	 4.64852000E-13	 0.00000000E+00	 0.00000000E+00
	 0.00000000E+00	 4.64852000E-13	 0.00000000E+00
	 0.00000000E+00	 0.00000000E+00	 4.64852000E-13

	 4.64852000E-13	 0.00000000E+00	 0.00000000E+00
	 0.00000000E+00	 4.64852000E-13	 0.00000000E+00
	 0.00000000E+00	 0.00000000E+00	 4.64852000E-13

	 4.60425000E-13	 0.00000000E+00	 0.00000000E+00
	 0.00000000E+00	 4.60425000E-13	 0.00000000E+00
	 0.00000000E+00	 0.00000000E+00	 4.60425000E-13

	 4.47143000E-13	 0.00000000E+00	 0.00000000E+00
	 0.00000000E+00	 4.47143000E-13	 0.00000000E+00
	 0.00000000E+00	 0.00000000E+00	 4.47143000E-13

	 4.42716000E-13	 0.00000000E+00	 0.00000000E+00
	 0.00000000E+00	 4.42716000E-13	 0.00000000E+00
	 0.00000000E+00	 0.00000000E+00	 4.42716000E-13

	 4.42716000E-13	 0.00000000E+00	 0.00000000E+00
	 0.00000000E+00	 4.42716000E-13	 0.00000000E+00
	 0.00000000E+00	 0.00000000E+00	 4.42716000E-13

	 4.42716000E-13	 0.00000000E+00	 0.00000000E+00
	 0.00000000E+00	 4.42716000E-13	 0.00000000E+00
	 0.00000000E+00	 0.00000000E+00	 4.42716000E-13

	 4.42716000E-13	 0.00000000E+00	 0.00000000E+00
	 0.00000000E+00	 4.42716000E-13	 0.00000000E+00
	 0.00000000E+00	 0.00000000E+00	 4.42716000E-13

	 4.51570000E-13	 0.00000000E+00	 0.00000000E+00
	 0.00000000E+00	 4.51570000E-13	 0.00000000E+00
	 0.00000000E+00	 0.00000000E+00	 4.51570000E-13

	 4.64852000E-13	 0.00000000E+00	 0.00000000E+00
	 0.00000000E+00	 4.64852000E-13	 0.00000000E+00
	 0.00000000E+00	 0.00000000E+00	 4.64852000E-13

	 4.51570000E-13	 0.00000000E+00	 0.00000000E+00
	 0.00000000E+00	 4.51570000E-13	 0.00000000E+00
	 0.00000000E+00	 0.00000000E+00	 4.51570000E-13

	 4.38289000E-13	 0.00000000E+00	 0.00000000E+00
	 0.00000000E+00	 4.38289000E-13	 0.00000000E+00
	 0.00000000E+00	 0.00000000E+00	 4.38289000E-13

	 4.64852000E-13	 0.00000000E+00	 0.00000000E+00
	 0.00000000E+00	 4.64852000E-13	 0.00000000E+00
	 0.00000000E+00	 0.00000000E+00	 4.64852000E-13

	 4.64852000E-13	 0.00000000E+00	 0.00000000E+00
	 0.00000000E+00	 4.64852000E-13	 0.00000000E+00
	 0.00000000E+00	 0.00000000E+00	 4.64852000E-13

	 4.64852000E-13	 0.00000000E+00	 0.00000000E+00
	 0.00000000E+00	 4.64852000E-13	 0.00000000E+00
	 0.00000000E+00	 0.00000000E+00	 4.64852000E-13

	 4.60425000E-13	 0.00000000E+00	 0.00000000E+00
	 0.00000000E+00	 4.60425000E-13	 0.00000000E+00
	 0.00000000E+00	 0.00000000E+00	 4.60425000E-13

	 4.60425000E-13	 0.00000000E+00	 0.00000000E+00
	 0.00000000E+00	 4.60425000E-13	 0.00000000E+00
	 0.00000000E+00	 0.00000000E+00	 4.60425000E-13

	 4.58211000E-13	 0.00000000E+00	 0.00000000E+00
	 0.00000000E+00	 4.58211000E-13	 0.00000000E+00
	 0.00000000E+00	 0.00000000E+00	 4.58211000E-13

	 4.60425000E-13	 0.00000000E+00	 0.00000000E+00
	 0.00000000E+00	 4.60425000E-13	 0.00000000E+00
	 0.00000000E+00	 0.00000000E+00	 4.60425000E-13

	 4.60425000E-13	 0.00000000E+00	 0.00000000E+00
	 0.00000000E+00	 4.60425000E-13	 0.00000000E+00
	 0.00000000E+00	 0.00000000E+00	 4.60425000E-13

	 4.64852000E-13	 0.00000000E+00	 0.00000000E+00
	 0.00000000E+00	 4.64852000E-13	 0.00000000E+00
	 0.00000000E+00	 0.00000000E+00	 4.64852000E-13

	 4.64852000E-13	 0.00000000E+00	 0.00000000E+00
	 0.00000000E+00	 4.64852000E-13	 0.00000000E+00
	 0.00000000E+00	 0.00000000E+00	 4.64852000E-13

	 4.64852000E-13	 0.00000000E+00	 0.00000000E+00
	 0.00000000E+00	 4.64852000E-13	 0.00000000E+00
	 0.00000000E+00	 0.00000000E+00	 4.64852000E-13

	 4.64852000E-13	 0.00000000E+00	 0.00000000E+00
	 0.00000000E+00	 4.64852000E-13	 0.00000000E+00
	 0.00000000E+00	 0.00000000E+00	 4.64852000E-13

	 4.64852000E-13	 0.00000000E+00	 0.00000000E+00
	 0.00000000E+00	 4.64852000E-13	 0.00000000E+00
	 0.00000000E+00	 0.00000000E+00	 4.64852000E-13

	 4.64852000E-13	 0.00000000E+00	 0.00000000E+00
	 0.00000000E+00	 4.64852000E-13	 0.00000000E+00
	 0.00000000E+00	 0.00000000E+00	 4.64852000E-13

	 4.64852000E-13	 0.00000000E+00	 0.00000000E+00
	 0.00000000E+00	 4.64852000E-13	 0.00000000E+00
	 0.00000000E+00	 0.00000000E+00	 4.64852000E-13

	 4.64852000E-13	 0.00000000E+00	 0.00000000E+00
	 0.00000000E+00	 4.64852000E-13	 0.00000000E+00
	 0.00000000E+00	 0.00000000E+00	 4.64852000E-13

	 4.64852000E-13	 0.00000000E+00	 0.00000000E+00
	 0.00000000E+00	 4.64852000E-13	 0.00000000E+00
	 0.00000000E+00	 0.00000000E+00	 4.64852000E-13

	 4.64852000E-13	 0.00000000E+00	 0.00000000E+00
	 0.00000000E+00	 4.64852000E-13	 0.00000000E+00
	 0.00000000E+00	 0.00000000E+00	 4.64852000E-13

	 4.64852000E-13	 0.00000000E+00	 0.00000000E+00
	 0.00000000E+00	 4.64852000E-13	 0.00000000E+00
	 0.00000000E+00	 0.00000000E+00	 4.64852000E-13

	 4.64852000E-13	 0.00000000E+00	 0.00000000E+00
	 0.00000000E+00	 4.64852000E-13	 0.00000000E+00
	 0.00000000E+00	 0.00000000E+00	 4.64852000E-13

	 4.64852000E-13	 0.00000000E+00	 0.00000000E+00
	 0.00000000E+00	 4.64852000E-13	 0.00000000E+00
	 0.00000000E+00	 0.00000000E+00	 4.64852000E-13

	 4.64852000E-13	 0.00000000E+00	 0.00000000E+00
	 0.00000000E+00	 4.64852000E-13	 0.00000000E+00
	 0.00000000E+00	 0.00000000E+00	 4.64852000E-13

	 4.64852000E-13	 0.00000000E+00	 0.00000000E+00
	 0.00000000E+00	 4.64852000E-13	 0.00000000E+00
	 0.00000000E+00	 0.00000000E+00	 4.64852000E-13

	 4.64852000E-13	 0.00000000E+00	 0.00000000E+00
	 0.00000000E+00	 4.64852000E-13	 0.00000000E+00
	 0.00000000E+00	 0.00000000E+00	 4.64852000E-13

	 4.64852000E-13	 0.00000000E+00	 0.00000000E+00
	 0.00000000E+00	 4.64852000E-13	 0.00000000E+00
	 0.00000000E+00	 0.00000000E+00	 4.64852000E-13

	 4.64852000E-13	 0.00000000E+00	 0.00000000E+00
	 0.00000000E+00	 4.64852000E-13	 0.00000000E+00
	 0.00000000E+00	 0.00000000E+00	 4.64852000E-13

	 4.64852000E-13	 0.00000000E+00	 0.00000000E+00
	 0.00000000E+00	 4.64852000E-13	 0.00000000E+00
	 0.00000000E+00	 0.00000000E+00	 4.64852000E-13

	 4.64852000E-13	 0.00000000E+00	 0.00000000E+00
	 0.00000000E+00	 4.64852000E-13	 0.00000000E+00
	 0.00000000E+00	 0.00000000E+00	 4.64852000E-13

	 4.64852000E-13	 0.00000000E+00	 0.00000000E+00
	 0.00000000E+00	 4.64852000E-13	 0.00000000E+00
	 0.00000000E+00	 0.00000000E+00	 4.64852000E-13

	 4.64852000E-13	 0.00000000E+00	 0.00000000E+00
	 0.00000000E+00	 4.64852000E-13	 0.00000000E+00
	 0.00000000E+00	 0.00000000E+00	 4.64852000E-13

	 4.64852000E-13	 0.00000000E+00	 0.00000000E+00
	 0.00000000E+00	 4.64852000E-13	 0.00000000E+00
	 0.00000000E+00	 0.00000000E+00	 4.64852000E-13

	 4.64852000E-13	 0.00000000E+00	 0.00000000E+00
	 0.00000000E+00	 4.64852000E-13	 0.00000000E+00
	 0.00000000E+00	 0.00000000E+00	 4.64852000E-13

	 4.64852000E-13	 0.00000000E+00	 0.00000000E+00
	 0.00000000E+00	 4.64852000E-13	 0.00000000E+00
	 0.00000000E+00	 0.00000000E+00	 4.64852000E-13

	 4.64852000E-13	 0.00000000E+00	 0.00000000E+00
	 0.00000000E+00	 4.64852000E-13	 0.00000000E+00
	 0.00000000E+00	 0.00000000E+00	 4.64852000E-13

	 4.64852000E-13	 0.00000000E+00	 0.00000000E+00
	 0.00000000E+00	 4.64852000E-13	 0.00000000E+00
	 0.00000000E+00	 0.00000000E+00	 4.64852000E-13

	 4.64852000E-13	 0.00000000E+00	 0.00000000E+00
	 0.00000000E+00	 4.64852000E-13	 0.00000000E+00
	 0.00000000E+00	 0.00000000E+00	 4.64852000E-13

	 4.64852000E-13	 0.00000000E+00	 0.00000000E+00
	 0.00000000E+00	 4.64852000E-13	 0.00000000E+00
	 0.00000000E+00	 0.00000000E+00	 4.64852000E-13

	 4.38289000E-13	 0.00000000E+00	 0.00000000E+00
	 0.00000000E+00	 4.38289000E-13	 0.00000000E+00
	 0.00000000E+00	 0.00000000E+00	 4.38289000E-13

	 4.38289000E-13	 0.00000000E+00	 0.00000000E+00
	 0.00000000E+00	 4.38289000E-13	 0.00000000E+00
	 0.00000000E+00	 0.00000000E+00	 4.38289000E-13

	 4.47143000E-13	 0.00000000E+00	 0.00000000E+00
	 0.00000000E+00	 4.47143000E-13	 0.00000000E+00
	 0.00000000E+00	 0.00000000E+00	 4.47143000E-13

	 4.55997000E-13	 0.00000000E+00	 0.00000000E+00
	 0.00000000E+00	 4.55997000E-13	 0.00000000E+00
	 0.00000000E+00	 0.00000000E+00	 4.55997000E-13

	 4.51570000E-13	 0.00000000E+00	 0.00000000E+00
	 0.00000000E+00	 4.51570000E-13	 0.00000000E+00
	 0.00000000E+00	 0.00000000E+00	 4.51570000E-13

	 4.55997000E-13	 0.00000000E+00	 0.00000000E+00
	 0.00000000E+00	 4.55997000E-13	 0.00000000E+00
	 0.00000000E+00	 0.00000000E+00	 4.55997000E-13

	 4.42716000E-13	 0.00000000E+00	 0.00000000E+00
	 0.00000000E+00	 4.42716000E-13	 0.00000000E+00
	 0.00000000E+00	 0.00000000E+00	 4.42716000E-13

	 4.38289000E-13	 0.00000000E+00	 0.00000000E+00
	 0.00000000E+00	 4.38289000E-13	 0.00000000E+00
	 0.00000000E+00	 0.00000000E+00	 4.38289000E-13

	 4.38289000E-13	 0.00000000E+00	 0.00000000E+00
	 0.00000000E+00	 4.38289000E-13	 0.00000000E+00
	 0.00000000E+00	 0.00000000E+00	 4.38289000E-13

	 4.42716000E-13	 0.00000000E+00	 0.00000000E+00
	 0.00000000E+00	 4.42716000E-13	 0.00000000E+00
	 0.00000000E+00	 0.00000000E+00	 4.42716000E-13

	 4.42716000E-13	 0.00000000E+00	 0.00000000E+00
	 0.00000000E+00	 4.42716000E-13	 0.00000000E+00
	 0.00000000E+00	 0.00000000E+00	 4.42716000E-13

	 4.38289000E-13	 0.00000000E+00	 0.00000000E+00
	 0.00000000E+00	 4.38289000E-13	 0.00000000E+00
	 0.00000000E+00	 0.00000000E+00	 4.38289000E-13

	 4.47143000E-13	 0.00000000E+00	 0.00000000E+00
	 0.00000000E+00	 4.47143000E-13	 0.00000000E+00
	 0.00000000E+00	 0.00000000E+00	 4.47143000E-13

	 4.64852000E-13	 0.00000000E+00	 0.00000000E+00
	 0.00000000E+00	 4.64852000E-13	 0.00000000E+00
	 0.00000000E+00	 0.00000000E+00	 4.64852000E-13

	 4.64852000E-13	 0.00000000E+00	 0.00000000E+00
	 0.00000000E+00	 4.64852000E-13	 0.00000000E+00
	 0.00000000E+00	 0.00000000E+00	 4.64852000E-13

	 4.64852000E-13	 0.00000000E+00	 0.00000000E+00
	 0.00000000E+00	 4.64852000E-13	 0.00000000E+00
	 0.00000000E+00	 0.00000000E+00	 4.64852000E-13

	 4.64852000E-13	 0.00000000E+00	 0.00000000E+00
	 0.00000000E+00	 4.64852000E-13	 0.00000000E+00
	 0.00000000E+00	 0.00000000E+00	 4.64852000E-13

	 4.64852000E-13	 0.00000000E+00	 0.00000000E+00
	 0.00000000E+00	 4.64852000E-13	 0.00000000E+00
	 0.00000000E+00	 0.00000000E+00	 4.64852000E-13

	 4.64852000E-13	 0.00000000E+00	 0.00000000E+00
	 0.00000000E+00	 4.64852000E-13	 0.00000000E+00
	 0.00000000E+00	 0.00000000E+00	 4.64852000E-13

	 4.64852000E-13	 0.00000000E+00	 0.00000000E+00
	 0.00000000E+00	 4.64852000E-13	 0.00000000E+00
	 0.00000000E+00	 0.00000000E+00	 4.64852000E-13

	 4.64852000E-13	 0.00000000E+00	 0.00000000E+00
	 0.00000000E+00	 4.64852000E-13	 0.00000000E+00
	 0.00000000E+00	 0.00000000E+00	 4.64852000E-13

	 4.58211000E-13	 0.00000000E+00	 0.00000000E+00
	 0.00000000E+00	 4.58211000E-13	 0.00000000E+00
	 0.00000000E+00	 0.00000000E+00	 4.58211000E-13

	 4.64852000E-13	 0.00000000E+00	 0.00000000E+00
	 0.00000000E+00	 4.64852000E-13	 0.00000000E+00
	 0.00000000E+00	 0.00000000E+00	 4.64852000E-13

	 4.51570000E-13	 0.00000000E+00	 0.00000000E+00
	 0.00000000E+00	 4.51570000E-13	 0.00000000E+00
	 0.00000000E+00	 0.00000000E+00	 4.51570000E-13

	 4.38289000E-13	 0.00000000E+00	 0.00000000E+00
	 0.00000000E+00	 4.38289000E-13	 0.00000000E+00
	 0.00000000E+00	 0.00000000E+00	 4.38289000E-13

	 4.51570000E-13	 0.00000000E+00	 0.00000000E+00
	 0.00000000E+00	 4.51570000E-13	 0.00000000E+00
	 0.00000000E+00	 0.00000000E+00	 4.51570000E-13

	 4.64852000E-13	 0.00000000E+00	 0.00000000E+00
	 0.00000000E+00	 4.64852000E-13	 0.00000000E+00
	 0.00000000E+00	 0.00000000E+00	 4.64852000E-13

	 4.64852000E-13	 0.00000000E+00	 0.00000000E+00
	 0.00000000E+00	 4.64852000E-13	 0.00000000E+00
	 0.00000000E+00	 0.00000000E+00	 4.64852000E-13

	 4.64852000E-13	 0.00000000E+00	 0.00000000E+00
	 0.00000000E+00	 4.64852000E-13	 0.00000000E+00
	 0.00000000E+00	 0.00000000E+00	 4.64852000E-13

	 4.60425000E-13	 0.00000000E+00	 0.00000000E+00
	 0.00000000E+00	 4.60425000E-13	 0.00000000E+00
	 0.00000000E+00	 0.00000000E+00	 4.60425000E-13

	 4.55997000E-13	 0.00000000E+00	 0.00000000E+00
	 0.00000000E+00	 4.55997000E-13	 0.00000000E+00
	 0.00000000E+00	 0.00000000E+00	 4.55997000E-13

	 4.47143000E-13	 0.00000000E+00	 0.00000000E+00
	 0.00000000E+00	 4.47143000E-13	 0.00000000E+00
	 0.00000000E+00	 0.00000000E+00	 4.47143000E-13

	 4.38289000E-13	 0.00000000E+00	 0.00000000E+00
	 0.00000000E+00	 4.38289000E-13	 0.00000000E+00
	 0.00000000E+00	 0.00000000E+00	 4.38289000E-13

	 4.38289000E-13	 0.00000000E+00	 0.00000000E+00
	 0.00000000E+00	 4.38289000E-13	 0.00000000E+00
	 0.00000000E+00	 0.00000000E+00	 4.38289000E-13

	 4.38289000E-13	 0.00000000E+00	 0.00000000E+00
	 0.00000000E+00	 4.38289000E-13	 0.00000000E+00
	 0.00000000E+00	 0.00000000E+00	 4.38289000E-13

	 4.38289000E-13	 0.00000000E+00	 0.00000000E+00
	 0.00000000E+00	 4.38289000E-13	 0.00000000E+00
	 0.00000000E+00	 0.00000000E+00	 4.38289000E-13

	 4.38289000E-13	 0.00000000E+00	 0.00000000E+00
	 0.00000000E+00	 4.38289000E-13	 0.00000000E+00
	 0.00000000E+00	 0.00000000E+00	 4.38289000E-13

	 4.60425000E-13	 0.00000000E+00	 0.00000000E+00
	 0.00000000E+00	 4.60425000E-13	 0.00000000E+00
	 0.00000000E+00	 0.00000000E+00	 4.60425000E-13

	 4.61531000E-13	 0.00000000E+00	 0.00000000E+00
	 0.00000000E+00	 4.61531000E-13	 0.00000000E+00
	 0.00000000E+00	 0.00000000E+00	 4.61531000E-13

	 4.47143000E-13	 0.00000000E+00	 0.00000000E+00
	 0.00000000E+00	 4.47143000E-13	 0.00000000E+00
	 0.00000000E+00	 0.00000000E+00	 4.47143000E-13

	 4.42716000E-13	 0.00000000E+00	 0.00000000E+00
	 0.00000000E+00	 4.42716000E-13	 0.00000000E+00
	 0.00000000E+00	 0.00000000E+00	 4.42716000E-13

	 4.47143000E-13	 0.00000000E+00	 0.00000000E+00
	 0.00000000E+00	 4.47143000E-13	 0.00000000E+00
	 0.00000000E+00	 0.00000000E+00	 4.47143000E-13

	 4.64852000E-13	 0.00000000E+00	 0.00000000E+00
	 0.00000000E+00	 4.64852000E-13	 0.00000000E+00
	 0.00000000E+00	 0.00000000E+00	 4.64852000E-13

	 4.64852000E-13	 0.00000000E+00	 0.00000000E+00
	 0.00000000E+00	 4.64852000E-13	 0.00000000E+00
	 0.00000000E+00	 0.00000000E+00	 4.64852000E-13

	 4.64852000E-13	 0.00000000E+00	 0.00000000E+00
	 0.00000000E+00	 4.64852000E-13	 0.00000000E+00
	 0.00000000E+00	 0.00000000E+00	 4.64852000E-13

	 4.64852000E-13	 0.00000000E+00	 0.00000000E+00
	 0.00000000E+00	 4.64852000E-13	 0.00000000E+00
	 0.00000000E+00	 0.00000000E+00	 4.64852000E-13

	 4.64852000E-13	 0.00000000E+00	 0.00000000E+00
	 0.00000000E+00	 4.64852000E-13	 0.00000000E+00
	 0.00000000E+00	 0.00000000E+00	 4.64852000E-13

	 4.64852000E-13	 0.00000000E+00	 0.00000000E+00
	 0.00000000E+00	 4.64852000E-13	 0.00000000E+00
	 0.00000000E+00	 0.00000000E+00	 4.64852000E-13

	 4.64852000E-13	 0.00000000E+00	 0.00000000E+00
	 0.00000000E+00	 4.64852000E-13	 0.00000000E+00
	 0.00000000E+00	 0.00000000E+00	 4.64852000E-13

	 4.64852000E-13	 0.00000000E+00	 0.00000000E+00
	 0.00000000E+00	 4.64852000E-13	 0.00000000E+00
	 0.00000000E+00	 0.00000000E+00	 4.64852000E-13

	 4.64852000E-13	 0.00000000E+00	 0.00000000E+00
	 0.00000000E+00	 4.64852000E-13	 0.00000000E+00
	 0.00000000E+00	 0.00000000E+00	 4.64852000E-13

	 4.64852000E-13	 0.00000000E+00	 0.00000000E+00
	 0.00000000E+00	 4.64852000E-13	 0.00000000E+00
	 0.00000000E+00	 0.00000000E+00	 4.64852000E-13

	 4.55997000E-13	 0.00000000E+00	 0.00000000E+00
	 0.00000000E+00	 4.55997000E-13	 0.00000000E+00
	 0.00000000E+00	 0.00000000E+00	 4.55997000E-13

	 4.42716000E-13	 0.00000000E+00	 0.00000000E+00
	 0.00000000E+00	 4.42716000E-13	 0.00000000E+00
	 0.00000000E+00	 0.00000000E+00	 4.42716000E-13

	 4.55997000E-13	 0.00000000E+00	 0.00000000E+00
	 0.00000000E+00	 4.55997000E-13	 0.00000000E+00
	 0.00000000E+00	 0.00000000E+00	 4.55997000E-13

	 4.64852000E-13	 0.00000000E+00	 0.00000000E+00
	 0.00000000E+00	 4.64852000E-13	 0.00000000E+00
	 0.00000000E+00	 0.00000000E+00	 4.64852000E-13

	 4.51570000E-13	 0.00000000E+00	 0.00000000E+00
	 0.00000000E+00	 4.51570000E-13	 0.00000000E+00
	 0.00000000E+00	 0.00000000E+00	 4.51570000E-13

	 4.38289000E-13	 0.00000000E+00	 0.00000000E+00
	 0.00000000E+00	 4.38289000E-13	 0.00000000E+00
	 0.00000000E+00	 0.00000000E+00	 4.38289000E-13

	 4.38289000E-13	 0.00000000E+00	 0.00000000E+00
	 0.00000000E+00	 4.38289000E-13	 0.00000000E+00
	 0.00000000E+00	 0.00000000E+00	 4.38289000E-13

	 4.38289000E-13	 0.00000000E+00	 0.00000000E+00
	 0.00000000E+00	 4.38289000E-13	 0.00000000E+00
	 0.00000000E+00	 0.00000000E+00	 4.38289000E-13

	 4.38289000E-13	 0.00000000E+00	 0.00000000E+00
	 0.00000000E+00	 4.38289000E-13	 0.00000000E+00
	 0.00000000E+00	 0.00000000E+00	 4.38289000E-13

	 4.38289000E-13	 0.00000000E+00	 0.00000000E+00
	 0.00000000E+00	 4.38289000E-13	 0.00000000E+00
	 0.00000000E+00	 0.00000000E+00	 4.38289000E-13

	 4.38289000E-13	 0.00000000E+00	 0.00000000E+00
	 0.00000000E+00	 4.38289000E-13	 0.00000000E+00
	 0.00000000E+00	 0.00000000E+00	 4.38289000E-13

	 4.38289000E-13	 0.00000000E+00	 0.00000000E+00
	 0.00000000E+00	 4.38289000E-13	 0.00000000E+00
	 0.00000000E+00	 0.00000000E+00	 4.38289000E-13

	 4.38289000E-13	 0.00000000E+00	 0.00000000E+00
	 0.00000000E+00	 4.38289000E-13	 0.00000000E+00
	 0.00000000E+00	 0.00000000E+00	 4.38289000E-13

	 4.38289000E-13	 0.00000000E+00	 0.00000000E+00
	 0.00000000E+00	 4.38289000E-13	 0.00000000E+00
	 0.00000000E+00	 0.00000000E+00	 4.38289000E-13

	 4.38289000E-13	 0.00000000E+00	 0.00000000E+00
	 0.00000000E+00	 4.38289000E-13	 0.00000000E+00
	 0.00000000E+00	 0.00000000E+00	 4.38289000E-13

	 4.38289000E-13	 0.00000000E+00	 0.00000000E+00
	 0.00000000E+00	 4.38289000E-13	 0.00000000E+00
	 0.00000000E+00	 0.00000000E+00	 4.38289000E-13

	 4.38289000E-13	 0.00000000E+00	 0.00000000E+00
	 0.00000000E+00	 4.38289000E-13	 0.00000000E+00
	 0.00000000E+00	 0.00000000E+00	 4.38289000E-13

	 4.38289000E-13	 0.00000000E+00	 0.00000000E+00
	 0.00000000E+00	 4.38289000E-13	 0.00000000E+00
	 0.00000000E+00	 0.00000000E+00	 4.38289000E-13

	 4.38289000E-13	 0.00000000E+00	 0.00000000E+00
	 0.00000000E+00	 4.38289000E-13	 0.00000000E+00
	 0.00000000E+00	 0.00000000E+00	 4.38289000E-13

	 4.38289000E-13	 0.00000000E+00	 0.00000000E+00
	 0.00000000E+00	 4.38289000E-13	 0.00000000E+00
	 0.00000000E+00	 0.00000000E+00	 4.38289000E-13

	 4.38289000E-13	 0.00000000E+00	 0.00000000E+00
	 0.00000000E+00	 4.38289000E-13	 0.00000000E+00
	 0.00000000E+00	 0.00000000E+00	 4.38289000E-13

	 4.38289000E-13	 0.00000000E+00	 0.00000000E+00
	 0.00000000E+00	 4.38289000E-13	 0.00000000E+00
	 0.00000000E+00	 0.00000000E+00	 4.38289000E-13

	 4.60425000E-13	 0.00000000E+00	 0.00000000E+00
	 0.00000000E+00	 4.60425000E-13	 0.00000000E+00
	 0.00000000E+00	 0.00000000E+00	 4.60425000E-13

	 4.42716000E-13	 0.00000000E+00	 0.00000000E+00
	 0.00000000E+00	 4.42716000E-13	 0.00000000E+00
	 0.00000000E+00	 0.00000000E+00	 4.42716000E-13

	 4.38289000E-13	 0.00000000E+00	 0.00000000E+00
	 0.00000000E+00	 4.38289000E-13	 0.00000000E+00
	 0.00000000E+00	 0.00000000E+00	 4.38289000E-13

	 4.42716000E-13	 0.00000000E+00	 0.00000000E+00
	 0.00000000E+00	 4.42716000E-13	 0.00000000E+00
	 0.00000000E+00	 0.00000000E+00	 4.42716000E-13

	 4.42716000E-13	 0.00000000E+00	 0.00000000E+00
	 0.00000000E+00	 4.42716000E-13	 0.00000000E+00
	 0.00000000E+00	 0.00000000E+00	 4.42716000E-13

	 4.47143000E-13	 0.00000000E+00	 0.00000000E+00
	 0.00000000E+00	 4.47143000E-13	 0.00000000E+00
	 0.00000000E+00	 0.00000000E+00	 4.47143000E-13

	 4.64852000E-13	 0.00000000E+00	 0.00000000E+00
	 0.00000000E+00	 4.64852000E-13	 0.00000000E+00
	 0.00000000E+00	 0.00000000E+00	 4.64852000E-13

	 4.64852000E-13	 0.00000000E+00	 0.00000000E+00
	 0.00000000E+00	 4.64852000E-13	 0.00000000E+00
	 0.00000000E+00	 0.00000000E+00	 4.64852000E-13

	 4.64852000E-13	 0.00000000E+00	 0.00000000E+00
	 0.00000000E+00	 4.64852000E-13	 0.00000000E+00
	 0.00000000E+00	 0.00000000E+00	 4.64852000E-13

	 4.64852000E-13	 0.00000000E+00	 0.00000000E+00
	 0.00000000E+00	 4.64852000E-13	 0.00000000E+00
	 0.00000000E+00	 0.00000000E+00	 4.64852000E-13

	 4.64852000E-13	 0.00000000E+00	 0.00000000E+00
	 0.00000000E+00	 4.64852000E-13	 0.00000000E+00
	 0.00000000E+00	 0.00000000E+00	 4.64852000E-13

	 4.64852000E-13	 0.00000000E+00	 0.00000000E+00
	 0.00000000E+00	 4.64852000E-13	 0.00000000E+00
	 0.00000000E+00	 0.00000000E+00	 4.64852000E-13

	 4.55997000E-13	 0.00000000E+00	 0.00000000E+00
	 0.00000000E+00	 4.55997000E-13	 0.00000000E+00
	 0.00000000E+00	 0.00000000E+00	 4.55997000E-13

	 4.47143000E-13	 0.00000000E+00	 0.00000000E+00
	 0.00000000E+00	 4.47143000E-13	 0.00000000E+00
	 0.00000000E+00	 0.00000000E+00	 4.47143000E-13

	 4.55997000E-13	 0.00000000E+00	 0.00000000E+00
	 0.00000000E+00	 4.55997000E-13	 0.00000000E+00
	 0.00000000E+00	 0.00000000E+00	 4.55997000E-13

	 4.64852000E-13	 0.00000000E+00	 0.00000000E+00
	 0.00000000E+00	 4.64852000E-13	 0.00000000E+00
	 0.00000000E+00	 0.00000000E+00	 4.64852000E-13

	 4.64852000E-13	 0.00000000E+00	 0.00000000E+00
	 0.00000000E+00	 4.64852000E-13	 0.00000000E+00
	 0.00000000E+00	 0.00000000E+00	 4.64852000E-13

	 4.64852000E-13	 0.00000000E+00	 0.00000000E+00
	 0.00000000E+00	 4.64852000E-13	 0.00000000E+00
	 0.00000000E+00	 0.00000000E+00	 4.64852000E-13

	 4.64852000E-13	 0.00000000E+00	 0.00000000E+00
	 0.00000000E+00	 4.64852000E-13	 0.00000000E+00
	 0.00000000E+00	 0.00000000E+00	 4.64852000E-13

	 4.64852000E-13	 0.00000000E+00	 0.00000000E+00
	 0.00000000E+00	 4.64852000E-13	 0.00000000E+00
	 0.00000000E+00	 0.00000000E+00	 4.64852000E-13

	 4.64852000E-13	 0.00000000E+00	 0.00000000E+00
	 0.00000000E+00	 4.64852000E-13	 0.00000000E+00
	 0.00000000E+00	 0.00000000E+00	 4.64852000E-13

	 4.64852000E-13	 0.00000000E+00	 0.00000000E+00
	 0.00000000E+00	 4.64852000E-13	 0.00000000E+00
	 0.00000000E+00	 0.00000000E+00	 4.64852000E-13

	 4.64852000E-13	 0.00000000E+00	 0.00000000E+00
	 0.00000000E+00	 4.64852000E-13	 0.00000000E+00
	 0.00000000E+00	 0.00000000E+00	 4.64852000E-13

	 4.64852000E-13	 0.00000000E+00	 0.00000000E+00
	 0.00000000E+00	 4.64852000E-13	 0.00000000E+00
	 0.00000000E+00	 0.00000000E+00	 4.64852000E-13

	 4.64852000E-13	 0.00000000E+00	 0.00000000E+00
	 0.00000000E+00	 4.64852000E-13	 0.00000000E+00
	 0.00000000E+00	 0.00000000E+00	 4.64852000E-13

	 4.64852000E-13	 0.00000000E+00	 0.00000000E+00
	 0.00000000E+00	 4.64852000E-13	 0.00000000E+00
	 0.00000000E+00	 0.00000000E+00	 4.64852000E-13

	 4.64852000E-13	 0.00000000E+00	 0.00000000E+00
	 0.00000000E+00	 4.64852000E-13	 0.00000000E+00
	 0.00000000E+00	 0.00000000E+00	 4.64852000E-13

	 4.51570000E-13	 0.00000000E+00	 0.00000000E+00
	 0.00000000E+00	 4.51570000E-13	 0.00000000E+00
	 0.00000000E+00	 0.00000000E+00	 4.51570000E-13

	 4.38289000E-13	 0.00000000E+00	 0.00000000E+00
	 0.00000000E+00	 4.38289000E-13	 0.00000000E+00
	 0.00000000E+00	 0.00000000E+00	 4.38289000E-13

	 4.47143000E-13	 0.00000000E+00	 0.00000000E+00
	 0.00000000E+00	 4.47143000E-13	 0.00000000E+00
	 0.00000000E+00	 0.00000000E+00	 4.47143000E-13

	 4.60425000E-13	 0.00000000E+00	 0.00000000E+00
	 0.00000000E+00	 4.60425000E-13	 0.00000000E+00
	 0.00000000E+00	 0.00000000E+00	 4.60425000E-13

	 4.64852000E-13	 0.00000000E+00	 0.00000000E+00
	 0.00000000E+00	 4.64852000E-13	 0.00000000E+00
	 0.00000000E+00	 0.00000000E+00	 4.64852000E-13

	 4.64852000E-13	 0.00000000E+00	 0.00000000E+00
	 0.00000000E+00	 4.64852000E-13	 0.00000000E+00
	 0.00000000E+00	 0.00000000E+00	 4.64852000E-13

	 4.64852000E-13	 0.00000000E+00	 0.00000000E+00
	 0.00000000E+00	 4.64852000E-13	 0.00000000E+00
	 0.00000000E+00	 0.00000000E+00	 4.64852000E-13

	 4.64852000E-13	 0.00000000E+00	 0.00000000E+00
	 0.00000000E+00	 4.64852000E-13	 0.00000000E+00
	 0.00000000E+00	 0.00000000E+00	 4.64852000E-13

	 4.60425000E-13	 0.00000000E+00	 0.00000000E+00
	 0.00000000E+00	 4.60425000E-13	 0.00000000E+00
	 0.00000000E+00	 0.00000000E+00	 4.60425000E-13

	 4.55997000E-13	 0.00000000E+00	 0.00000000E+00
	 0.00000000E+00	 4.55997000E-13	 0.00000000E+00
	 0.00000000E+00	 0.00000000E+00	 4.55997000E-13

	 4.38289000E-13	 0.00000000E+00	 0.00000000E+00
	 0.00000000E+00	 4.38289000E-13	 0.00000000E+00
	 0.00000000E+00	 0.00000000E+00	 4.38289000E-13

	 4.44929000E-13	 0.00000000E+00	 0.00000000E+00
	 0.00000000E+00	 4.44929000E-13	 0.00000000E+00
	 0.00000000E+00	 0.00000000E+00	 4.44929000E-13

	 4.38289000E-13	 0.00000000E+00	 0.00000000E+00
	 0.00000000E+00	 4.38289000E-13	 0.00000000E+00
	 0.00000000E+00	 0.00000000E+00	 4.38289000E-13

	 4.38289000E-13	 0.00000000E+00	 0.00000000E+00
	 0.00000000E+00	 4.38289000E-13	 0.00000000E+00
	 0.00000000E+00	 0.00000000E+00	 4.38289000E-13

	 4.38289000E-13	 0.00000000E+00	 0.00000000E+00
	 0.00000000E+00	 4.38289000E-13	 0.00000000E+00
	 0.00000000E+00	 0.00000000E+00	 4.38289000E-13

	 4.42716000E-13	 0.00000000E+00	 0.00000000E+00
	 0.00000000E+00	 4.42716000E-13	 0.00000000E+00
	 0.00000000E+00	 0.00000000E+00	 4.42716000E-13

	 4.42716000E-13	 0.00000000E+00	 0.00000000E+00
	 0.00000000E+00	 4.42716000E-13	 0.00000000E+00
	 0.00000000E+00	 0.00000000E+00	 4.42716000E-13

	 4.38289000E-13	 0.00000000E+00	 0.00000000E+00
	 0.00000000E+00	 4.38289000E-13	 0.00000000E+00
	 0.00000000E+00	 0.00000000E+00	 4.38289000E-13

	 4.38289000E-13	 0.00000000E+00	 0.00000000E+00
	 0.00000000E+00	 4.38289000E-13	 0.00000000E+00
	 0.00000000E+00	 0.00000000E+00	 4.38289000E-13

	 4.38289000E-13	 0.00000000E+00	 0.00000000E+00
	 0.00000000E+00	 4.38289000E-13	 0.00000000E+00
	 0.00000000E+00	 0.00000000E+00	 4.38289000E-13

	 4.38289000E-13	 0.00000000E+00	 0.00000000E+00
	 0.00000000E+00	 4.38289000E-13	 0.00000000E+00
	 0.00000000E+00	 0.00000000E+00	 4.38289000E-13

	 4.38289000E-13	 0.00000000E+00	 0.00000000E+00
	 0.00000000E+00	 4.38289000E-13	 0.00000000E+00
	 0.00000000E+00	 0.00000000E+00	 4.38289000E-13

	 4.38289000E-13	 0.00000000E+00	 0.00000000E+00
	 0.00000000E+00	 4.38289000E-13	 0.00000000E+00
	 0.00000000E+00	 0.00000000E+00	 4.38289000E-13

	 4.55997000E-13	 0.00000000E+00	 0.00000000E+00
	 0.00000000E+00	 4.55997000E-13	 0.00000000E+00
	 0.00000000E+00	 0.00000000E+00	 4.55997000E-13

	 4.60425000E-13	 0.00000000E+00	 0.00000000E+00
	 0.00000000E+00	 4.60425000E-13	 0.00000000E+00
	 0.00000000E+00	 0.00000000E+00	 4.60425000E-13

	 4.42716000E-13	 0.00000000E+00	 0.00000000E+00
	 0.00000000E+00	 4.42716000E-13	 0.00000000E+00
	 0.00000000E+00	 0.00000000E+00	 4.42716000E-13

	 4.38289000E-13	 0.00000000E+00	 0.00000000E+00
	 0.00000000E+00	 4.38289000E-13	 0.00000000E+00
	 0.00000000E+00	 0.00000000E+00	 4.38289000E-13

	 4.38289000E-13	 0.00000000E+00	 0.00000000E+00
	 0.00000000E+00	 4.38289000E-13	 0.00000000E+00
	 0.00000000E+00	 0.00000000E+00	 4.38289000E-13

	 4.38289000E-13	 0.00000000E+00	 0.00000000E+00
	 0.00000000E+00	 4.38289000E-13	 0.00000000E+00
	 0.00000000E+00	 0.00000000E+00	 4.38289000E-13

	 4.38289000E-13	 0.00000000E+00	 0.00000000E+00
	 0.00000000E+00	 4.38289000E-13	 0.00000000E+00
	 0.00000000E+00	 0.00000000E+00	 4.38289000E-13

	 4.38289000E-13	 0.00000000E+00	 0.00000000E+00
	 0.00000000E+00	 4.38289000E-13	 0.00000000E+00
	 0.00000000E+00	 0.00000000E+00	 4.38289000E-13

	 4.38289000E-13	 0.00000000E+00	 0.00000000E+00
	 0.00000000E+00	 4.38289000E-13	 0.00000000E+00
	 0.00000000E+00	 0.00000000E+00	 4.38289000E-13

	 4.38289000E-13	 0.00000000E+00	 0.00000000E+00
	 0.00000000E+00	 4.38289000E-13	 0.00000000E+00
	 0.00000000E+00	 0.00000000E+00	 4.38289000E-13

	 4.38289000E-13	 0.00000000E+00	 0.00000000E+00
	 0.00000000E+00	 4.38289000E-13	 0.00000000E+00
	 0.00000000E+00	 0.00000000E+00	 4.38289000E-13

	 4.38289000E-13	 0.00000000E+00	 0.00000000E+00
	 0.00000000E+00	 4.38289000E-13	 0.00000000E+00
	 0.00000000E+00	 0.00000000E+00	 4.38289000E-13

	 4.38289000E-13	 0.00000000E+00	 0.00000000E+00
	 0.00000000E+00	 4.38289000E-13	 0.00000000E+00
	 0.00000000E+00	 0.00000000E+00	 4.38289000E-13

	 4.38289000E-13	 0.00000000E+00	 0.00000000E+00
	 0.00000000E+00	 4.38289000E-13	 0.00000000E+00
	 0.00000000E+00	 0.00000000E+00	 4.38289000E-13

	 4.41609000E-13	 0.00000000E+00	 0.00000000E+00
	 0.00000000E+00	 4.41609000E-13	 0.00000000E+00
	 0.00000000E+00	 0.00000000E+00	 4.41609000E-13

	 4.42716000E-13	 0.00000000E+00	 0.00000000E+00
	 0.00000000E+00	 4.42716000E-13	 0.00000000E+00
	 0.00000000E+00	 0.00000000E+00	 4.42716000E-13

	 4.38289000E-13	 0.00000000E+00	 0.00000000E+00
	 0.00000000E+00	 4.38289000E-13	 0.00000000E+00
	 0.00000000E+00	 0.00000000E+00	 4.38289000E-13

	 4.38289000E-13	 0.00000000E+00	 0.00000000E+00
	 0.00000000E+00	 4.38289000E-13	 0.00000000E+00
	 0.00000000E+00	 0.00000000E+00	 4.38289000E-13

	 4.55997000E-13	 0.00000000E+00	 0.00000000E+00
	 0.00000000E+00	 4.55997000E-13	 0.00000000E+00
	 0.00000000E+00	 0.00000000E+00	 4.55997000E-13

	 4.64852000E-13	 0.00000000E+00	 0.00000000E+00
	 0.00000000E+00	 4.64852000E-13	 0.00000000E+00
	 0.00000000E+00	 0.00000000E+00	 4.64852000E-13

	 4.60425000E-13	 0.00000000E+00	 0.00000000E+00
	 0.00000000E+00	 4.60425000E-13	 0.00000000E+00
	 0.00000000E+00	 0.00000000E+00	 4.60425000E-13

	 4.42716000E-13	 0.00000000E+00	 0.00000000E+00
	 0.00000000E+00	 4.42716000E-13	 0.00000000E+00
	 0.00000000E+00	 0.00000000E+00	 4.42716000E-13

	 4.38289000E-13	 0.00000000E+00	 0.00000000E+00
	 0.00000000E+00	 4.38289000E-13	 0.00000000E+00
	 0.00000000E+00	 0.00000000E+00	 4.38289000E-13

	 4.38289000E-13	 0.00000000E+00	 0.00000000E+00
	 0.00000000E+00	 4.38289000E-13	 0.00000000E+00
	 0.00000000E+00	 0.00000000E+00	 4.38289000E-13

	 4.47143000E-13	 0.00000000E+00	 0.00000000E+00
	 0.00000000E+00	 4.47143000E-13	 0.00000000E+00
	 0.00000000E+00	 0.00000000E+00	 4.47143000E-13

	 4.51570000E-13	 0.00000000E+00	 0.00000000E+00
	 0.00000000E+00	 4.51570000E-13	 0.00000000E+00
	 0.00000000E+00	 0.00000000E+00	 4.51570000E-13

	 4.64852000E-13	 0.00000000E+00	 0.00000000E+00
	 0.00000000E+00	 4.64852000E-13	 0.00000000E+00
	 0.00000000E+00	 0.00000000E+00	 4.64852000E-13

	 4.64852000E-13	 0.00000000E+00	 0.00000000E+00
	 0.00000000E+00	 4.64852000E-13	 0.00000000E+00
	 0.00000000E+00	 0.00000000E+00	 4.64852000E-13

	 4.64852000E-13	 0.00000000E+00	 0.00000000E+00
	 0.00000000E+00	 4.64852000E-13	 0.00000000E+00
	 0.00000000E+00	 0.00000000E+00	 4.64852000E-13

	 4.64852000E-13	 0.00000000E+00	 0.00000000E+00
	 0.00000000E+00	 4.64852000E-13	 0.00000000E+00
	 0.00000000E+00	 0.00000000E+00	 4.64852000E-13

	 4.64852000E-13	 0.00000000E+00	 0.00000000E+00
	 0.00000000E+00	 4.64852000E-13	 0.00000000E+00
	 0.00000000E+00	 0.00000000E+00	 4.64852000E-13

	 4.64852000E-13	 0.00000000E+00	 0.00000000E+00
	 0.00000000E+00	 4.64852000E-13	 0.00000000E+00
	 0.00000000E+00	 0.00000000E+00	 4.64852000E-13

	 4.64852000E-13	 0.00000000E+00	 0.00000000E+00
	 0.00000000E+00	 4.64852000E-13	 0.00000000E+00
	 0.00000000E+00	 0.00000000E+00	 4.64852000E-13

	 4.64852000E-13	 0.00000000E+00	 0.00000000E+00
	 0.00000000E+00	 4.64852000E-13	 0.00000000E+00
	 0.00000000E+00	 0.00000000E+00	 4.64852000E-13

	 4.64852000E-13	 0.00000000E+00	 0.00000000E+00
	 0.00000000E+00	 4.64852000E-13	 0.00000000E+00
	 0.00000000E+00	 0.00000000E+00	 4.64852000E-13

	 4.64852000E-13	 0.00000000E+00	 0.00000000E+00
	 0.00000000E+00	 4.64852000E-13	 0.00000000E+00
	 0.00000000E+00	 0.00000000E+00	 4.64852000E-13

	 4.64852000E-13	 0.00000000E+00	 0.00000000E+00
	 0.00000000E+00	 4.64852000E-13	 0.00000000E+00
	 0.00000000E+00	 0.00000000E+00	 4.64852000E-13

	 4.64852000E-13	 0.00000000E+00	 0.00000000E+00
	 0.00000000E+00	 4.64852000E-13	 0.00000000E+00
	 0.00000000E+00	 0.00000000E+00	 4.64852000E-13

	 4.64852000E-13	 0.00000000E+00	 0.00000000E+00
	 0.00000000E+00	 4.64852000E-13	 0.00000000E+00
	 0.00000000E+00	 0.00000000E+00	 4.64852000E-13

	 4.64852000E-13	 0.00000000E+00	 0.00000000E+00
	 0.00000000E+00	 4.64852000E-13	 0.00000000E+00
	 0.00000000E+00	 0.00000000E+00	 4.64852000E-13

	 4.64852000E-13	 0.00000000E+00	 0.00000000E+00
	 0.00000000E+00	 4.64852000E-13	 0.00000000E+00
	 0.00000000E+00	 0.00000000E+00	 4.64852000E-13

	 4.64852000E-13	 0.00000000E+00	 0.00000000E+00
	 0.00000000E+00	 4.64852000E-13	 0.00000000E+00
	 0.00000000E+00	 0.00000000E+00	 4.64852000E-13

	 4.64852000E-13	 0.00000000E+00	 0.00000000E+00
	 0.00000000E+00	 4.64852000E-13	 0.00000000E+00
	 0.00000000E+00	 0.00000000E+00	 4.64852000E-13

	 4.64852000E-13	 0.00000000E+00	 0.00000000E+00
	 0.00000000E+00	 4.64852000E-13	 0.00000000E+00
	 0.00000000E+00	 0.00000000E+00	 4.64852000E-13

	 4.64852000E-13	 0.00000000E+00	 0.00000000E+00
	 0.00000000E+00	 4.64852000E-13	 0.00000000E+00
	 0.00000000E+00	 0.00000000E+00	 4.64852000E-13

	 4.64852000E-13	 0.00000000E+00	 0.00000000E+00
	 0.00000000E+00	 4.64852000E-13	 0.00000000E+00
	 0.00000000E+00	 0.00000000E+00	 4.64852000E-13

	 4.64852000E-13	 0.00000000E+00	 0.00000000E+00
	 0.00000000E+00	 4.64852000E-13	 0.00000000E+00
	 0.00000000E+00	 0.00000000E+00	 4.64852000E-13

	 4.64852000E-13	 0.00000000E+00	 0.00000000E+00
	 0.00000000E+00	 4.64852000E-13	 0.00000000E+00
	 0.00000000E+00	 0.00000000E+00	 4.64852000E-13

	 4.64852000E-13	 0.00000000E+00	 0.00000000E+00
	 0.00000000E+00	 4.64852000E-13	 0.00000000E+00
	 0.00000000E+00	 0.00000000E+00	 4.64852000E-13

	 4.64852000E-13	 0.00000000E+00	 0.00000000E+00
	 0.00000000E+00	 4.64852000E-13	 0.00000000E+00
	 0.00000000E+00	 0.00000000E+00	 4.64852000E-13

	 4.64852000E-13	 0.00000000E+00	 0.00000000E+00
	 0.00000000E+00	 4.64852000E-13	 0.00000000E+00
	 0.00000000E+00	 0.00000000E+00	 4.64852000E-13

	 4.64852000E-13	 0.00000000E+00	 0.00000000E+00
	 0.00000000E+00	 4.64852000E-13	 0.00000000E+00
	 0.00000000E+00	 0.00000000E+00	 4.64852000E-13

	 4.64852000E-13	 0.00000000E+00	 0.00000000E+00
	 0.00000000E+00	 4.64852000E-13	 0.00000000E+00
	 0.00000000E+00	 0.00000000E+00	 4.64852000E-13

	 4.64852000E-13	 0.00000000E+00	 0.00000000E+00
	 0.00000000E+00	 4.64852000E-13	 0.00000000E+00
	 0.00000000E+00	 0.00000000E+00	 4.64852000E-13

	 4.64852000E-13	 0.00000000E+00	 0.00000000E+00
	 0.00000000E+00	 4.64852000E-13	 0.00000000E+00
	 0.00000000E+00	 0.00000000E+00	 4.64852000E-13

	 4.64852000E-13	 0.00000000E+00	 0.00000000E+00
	 0.00000000E+00	 4.64852000E-13	 0.00000000E+00
	 0.00000000E+00	 0.00000000E+00	 4.64852000E-13

	 4.64852000E-13	 0.00000000E+00	 0.00000000E+00
	 0.00000000E+00	 4.64852000E-13	 0.00000000E+00
	 0.00000000E+00	 0.00000000E+00	 4.64852000E-13

	 4.64852000E-13	 0.00000000E+00	 0.00000000E+00
	 0.00000000E+00	 4.64852000E-13	 0.00000000E+00
	 0.00000000E+00	 0.00000000E+00	 4.64852000E-13

	 4.64852000E-13	 0.00000000E+00	 0.00000000E+00
	 0.00000000E+00	 4.64852000E-13	 0.00000000E+00
	 0.00000000E+00	 0.00000000E+00	 4.64852000E-13

	 4.64852000E-13	 0.00000000E+00	 0.00000000E+00
	 0.00000000E+00	 4.64852000E-13	 0.00000000E+00
	 0.00000000E+00	 0.00000000E+00	 4.64852000E-13

	 4.64852000E-13	 0.00000000E+00	 0.00000000E+00
	 0.00000000E+00	 4.64852000E-13	 0.00000000E+00
	 0.00000000E+00	 0.00000000E+00	 4.64852000E-13

	 4.38289000E-13	 0.00000000E+00	 0.00000000E+00
	 0.00000000E+00	 4.38289000E-13	 0.00000000E+00
	 0.00000000E+00	 0.00000000E+00	 4.38289000E-13

	 4.47143000E-13	 0.00000000E+00	 0.00000000E+00
	 0.00000000E+00	 4.47143000E-13	 0.00000000E+00
	 0.00000000E+00	 0.00000000E+00	 4.47143000E-13

	 4.42716000E-13	 0.00000000E+00	 0.00000000E+00
	 0.00000000E+00	 4.42716000E-13	 0.00000000E+00
	 0.00000000E+00	 0.00000000E+00	 4.42716000E-13

	 4.38289000E-13	 0.00000000E+00	 0.00000000E+00
	 0.00000000E+00	 4.38289000E-13	 0.00000000E+00
	 0.00000000E+00	 0.00000000E+00	 4.38289000E-13

	 4.38289000E-13	 0.00000000E+00	 0.00000000E+00
	 0.00000000E+00	 4.38289000E-13	 0.00000000E+00
	 0.00000000E+00	 0.00000000E+00	 4.38289000E-13

	 4.38289000E-13	 0.00000000E+00	 0.00000000E+00
	 0.00000000E+00	 4.38289000E-13	 0.00000000E+00
	 0.00000000E+00	 0.00000000E+00	 4.38289000E-13

	 4.38289000E-13	 0.00000000E+00	 0.00000000E+00
	 0.00000000E+00	 4.38289000E-13	 0.00000000E+00
	 0.00000000E+00	 0.00000000E+00	 4.38289000E-13

	 4.38289000E-13	 0.00000000E+00	 0.00000000E+00
	 0.00000000E+00	 4.38289000E-13	 0.00000000E+00
	 0.00000000E+00	 0.00000000E+00	 4.38289000E-13

	 4.38289000E-13	 0.00000000E+00	 0.00000000E+00
	 0.00000000E+00	 4.38289000E-13	 0.00000000E+00
	 0.00000000E+00	 0.00000000E+00	 4.38289000E-13

	 4.38289000E-13	 0.00000000E+00	 0.00000000E+00
	 0.00000000E+00	 4.38289000E-13	 0.00000000E+00
	 0.00000000E+00	 0.00000000E+00	 4.38289000E-13

	 4.38289000E-13	 0.00000000E+00	 0.00000000E+00
	 0.00000000E+00	 4.38289000E-13	 0.00000000E+00
	 0.00000000E+00	 0.00000000E+00	 4.38289000E-13

	 4.38289000E-13	 0.00000000E+00	 0.00000000E+00
	 0.00000000E+00	 4.38289000E-13	 0.00000000E+00
	 0.00000000E+00	 0.00000000E+00	 4.38289000E-13

	 4.38289000E-13	 0.00000000E+00	 0.00000000E+00
	 0.00000000E+00	 4.38289000E-13	 0.00000000E+00
	 0.00000000E+00	 0.00000000E+00	 4.38289000E-13

	 4.38289000E-13	 0.00000000E+00	 0.00000000E+00
	 0.00000000E+00	 4.38289000E-13	 0.00000000E+00
	 0.00000000E+00	 0.00000000E+00	 4.38289000E-13

	 4.38289000E-13	 0.00000000E+00	 0.00000000E+00
	 0.00000000E+00	 4.38289000E-13	 0.00000000E+00
	 0.00000000E+00	 0.00000000E+00	 4.38289000E-13

	 4.38289000E-13	 0.00000000E+00	 0.00000000E+00
	 0.00000000E+00	 4.38289000E-13	 0.00000000E+00
	 0.00000000E+00	 0.00000000E+00	 4.38289000E-13

	 4.38289000E-13	 0.00000000E+00	 0.00000000E+00
	 0.00000000E+00	 4.38289000E-13	 0.00000000E+00
	 0.00000000E+00	 0.00000000E+00	 4.38289000E-13

	 4.38289000E-13	 0.00000000E+00	 0.00000000E+00
	 0.00000000E+00	 4.38289000E-13	 0.00000000E+00
	 0.00000000E+00	 0.00000000E+00	 4.38289000E-13

	 4.38289000E-13	 0.00000000E+00	 0.00000000E+00
	 0.00000000E+00	 4.38289000E-13	 0.00000000E+00
	 0.00000000E+00	 0.00000000E+00	 4.38289000E-13

	 4.38289000E-13	 0.00000000E+00	 0.00000000E+00
	 0.00000000E+00	 4.38289000E-13	 0.00000000E+00
	 0.00000000E+00	 0.00000000E+00	 4.38289000E-13

	 4.38289000E-13	 0.00000000E+00	 0.00000000E+00
	 0.00000000E+00	 4.38289000E-13	 0.00000000E+00
	 0.00000000E+00	 0.00000000E+00	 4.38289000E-13

	 4.38289000E-13	 0.00000000E+00	 0.00000000E+00
	 0.00000000E+00	 4.38289000E-13	 0.00000000E+00
	 0.00000000E+00	 0.00000000E+00	 4.38289000E-13

	 4.38289000E-13	 0.00000000E+00	 0.00000000E+00
	 0.00000000E+00	 4.38289000E-13	 0.00000000E+00
	 0.00000000E+00	 0.00000000E+00	 4.38289000E-13

	 4.38289000E-13	 0.00000000E+00	 0.00000000E+00
	 0.00000000E+00	 4.38289000E-13	 0.00000000E+00
	 0.00000000E+00	 0.00000000E+00	 4.38289000E-13

	 4.51570000E-13	 0.00000000E+00	 0.00000000E+00
	 0.00000000E+00	 4.51570000E-13	 0.00000000E+00
	 0.00000000E+00	 0.00000000E+00	 4.51570000E-13

	 4.60425000E-13	 0.00000000E+00	 0.00000000E+00
	 0.00000000E+00	 4.60425000E-13	 0.00000000E+00
	 0.00000000E+00	 0.00000000E+00	 4.60425000E-13

	 4.42716000E-13	 0.00000000E+00	 0.00000000E+00
	 0.00000000E+00	 4.42716000E-13	 0.00000000E+00
	 0.00000000E+00	 0.00000000E+00	 4.42716000E-13

	 4.38289000E-13	 0.00000000E+00	 0.00000000E+00
	 0.00000000E+00	 4.38289000E-13	 0.00000000E+00
	 0.00000000E+00	 0.00000000E+00	 4.38289000E-13

	 4.38289000E-13	 0.00000000E+00	 0.00000000E+00
	 0.00000000E+00	 4.38289000E-13	 0.00000000E+00
	 0.00000000E+00	 0.00000000E+00	 4.38289000E-13

	 4.38289000E-13	 0.00000000E+00	 0.00000000E+00
	 0.00000000E+00	 4.38289000E-13	 0.00000000E+00
	 0.00000000E+00	 0.00000000E+00	 4.38289000E-13

	 4.38289000E-13	 0.00000000E+00	 0.00000000E+00
	 0.00000000E+00	 4.38289000E-13	 0.00000000E+00
	 0.00000000E+00	 0.00000000E+00	 4.38289000E-13

	 4.38289000E-13	 0.00000000E+00	 0.00000000E+00
	 0.00000000E+00	 4.38289000E-13	 0.00000000E+00
	 0.00000000E+00	 0.00000000E+00	 4.38289000E-13

	 4.38289000E-13	 0.00000000E+00	 0.00000000E+00
	 0.00000000E+00	 4.38289000E-13	 0.00000000E+00
	 0.00000000E+00	 0.00000000E+00	 4.38289000E-13

	 4.38289000E-13	 0.00000000E+00	 0.00000000E+00
	 0.00000000E+00	 4.38289000E-13	 0.00000000E+00
	 0.00000000E+00	 0.00000000E+00	 4.38289000E-13

	 4.38289000E-13	 0.00000000E+00	 0.00000000E+00
	 0.00000000E+00	 4.38289000E-13	 0.00000000E+00
	 0.00000000E+00	 0.00000000E+00	 4.38289000E-13

	 4.38289000E-13	 0.00000000E+00	 0.00000000E+00
	 0.00000000E+00	 4.38289000E-13	 0.00000000E+00
	 0.00000000E+00	 0.00000000E+00	 4.38289000E-13

	 4.38289000E-13	 0.00000000E+00	 0.00000000E+00
	 0.00000000E+00	 4.38289000E-13	 0.00000000E+00
	 0.00000000E+00	 0.00000000E+00	 4.38289000E-13

	 4.64852000E-13	 0.00000000E+00	 0.00000000E+00
	 0.00000000E+00	 4.64852000E-13	 0.00000000E+00
	 0.00000000E+00	 0.00000000E+00	 4.64852000E-13

	 4.64852000E-13	 0.00000000E+00	 0.00000000E+00
	 0.00000000E+00	 4.64852000E-13	 0.00000000E+00
	 0.00000000E+00	 0.00000000E+00	 4.64852000E-13

	 4.64852000E-13	 0.00000000E+00	 0.00000000E+00
	 0.00000000E+00	 4.64852000E-13	 0.00000000E+00
	 0.00000000E+00	 0.00000000E+00	 4.64852000E-13

	 4.64852000E-13	 0.00000000E+00	 0.00000000E+00
	 0.00000000E+00	 4.64852000E-13	 0.00000000E+00
	 0.00000000E+00	 0.00000000E+00	 4.64852000E-13

	 4.64852000E-13	 0.00000000E+00	 0.00000000E+00
	 0.00000000E+00	 4.64852000E-13	 0.00000000E+00
	 0.00000000E+00	 0.00000000E+00	 4.64852000E-13

	 4.64852000E-13	 0.00000000E+00	 0.00000000E+00
	 0.00000000E+00	 4.64852000E-13	 0.00000000E+00
	 0.00000000E+00	 0.00000000E+00	 4.64852000E-13

	 4.64852000E-13	 0.00000000E+00	 0.00000000E+00
	 0.00000000E+00	 4.64852000E-13	 0.00000000E+00
	 0.00000000E+00	 0.00000000E+00	 4.64852000E-13

	 4.64852000E-13	 0.00000000E+00	 0.00000000E+00
	 0.00000000E+00	 4.64852000E-13	 0.00000000E+00
	 0.00000000E+00	 0.00000000E+00	 4.64852000E-13

	 4.64852000E-13	 0.00000000E+00	 0.00000000E+00
	 0.00000000E+00	 4.64852000E-13	 0.00000000E+00
	 0.00000000E+00	 0.00000000E+00	 4.64852000E-13

	 4.64852000E-13	 0.00000000E+00	 0.00000000E+00
	 0.00000000E+00	 4.64852000E-13	 0.00000000E+00
	 0.00000000E+00	 0.00000000E+00	 4.64852000E-13

	 4.64852000E-13	 0.00000000E+00	 0.00000000E+00
	 0.00000000E+00	 4.64852000E-13	 0.00000000E+00
	 0.00000000E+00	 0.00000000E+00	 4.64852000E-13

	 4.64852000E-13	 0.00000000E+00	 0.00000000E+00
	 0.00000000E+00	 4.64852000E-13	 0.00000000E+00
	 0.00000000E+00	 0.00000000E+00	 4.64852000E-13

	 4.64852000E-13	 0.00000000E+00	 0.00000000E+00
	 0.00000000E+00	 4.64852000E-13	 0.00000000E+00
	 0.00000000E+00	 0.00000000E+00	 4.64852000E-13

	 4.64852000E-13	 0.00000000E+00	 0.00000000E+00
	 0.00000000E+00	 4.64852000E-13	 0.00000000E+00
	 0.00000000E+00	 0.00000000E+00	 4.64852000E-13

	 4.64852000E-13	 0.00000000E+00	 0.00000000E+00
	 0.00000000E+00	 4.64852000E-13	 0.00000000E+00
	 0.00000000E+00	 0.00000000E+00	 4.64852000E-13

	 4.64852000E-13	 0.00000000E+00	 0.00000000E+00
	 0.00000000E+00	 4.64852000E-13	 0.00000000E+00
	 0.00000000E+00	 0.00000000E+00	 4.64852000E-13

	 4.64852000E-13	 0.00000000E+00	 0.00000000E+00
	 0.00000000E+00	 4.64852000E-13	 0.00000000E+00
	 0.00000000E+00	 0.00000000E+00	 4.64852000E-13

	 4.64852000E-13	 0.00000000E+00	 0.00000000E+00
	 0.00000000E+00	 4.64852000E-13	 0.00000000E+00
	 0.00000000E+00	 0.00000000E+00	 4.64852000E-13

	 4.64852000E-13	 0.00000000E+00	 0.00000000E+00
	 0.00000000E+00	 4.64852000E-13	 0.00000000E+00
	 0.00000000E+00	 0.00000000E+00	 4.64852000E-13

	 4.64852000E-13	 0.00000000E+00	 0.00000000E+00
	 0.00000000E+00	 4.64852000E-13	 0.00000000E+00
	 0.00000000E+00	 0.00000000E+00	 4.64852000E-13

	 4.64852000E-13	 0.00000000E+00	 0.00000000E+00
	 0.00000000E+00	 4.64852000E-13	 0.00000000E+00
	 0.00000000E+00	 0.00000000E+00	 4.64852000E-13

	 4.64852000E-13	 0.00000000E+00	 0.00000000E+00
	 0.00000000E+00	 4.64852000E-13	 0.00000000E+00
	 0.00000000E+00	 0.00000000E+00	 4.64852000E-13

	 4.64852000E-13	 0.00000000E+00	 0.00000000E+00
	 0.00000000E+00	 4.64852000E-13	 0.00000000E+00
	 0.00000000E+00	 0.00000000E+00	 4.64852000E-13

	 4.64852000E-13	 0.00000000E+00	 0.00000000E+00
	 0.00000000E+00	 4.64852000E-13	 0.00000000E+00
	 0.00000000E+00	 0.00000000E+00	 4.64852000E-13

	 4.64852000E-13	 0.00000000E+00	 0.00000000E+00
	 0.00000000E+00	 4.64852000E-13	 0.00000000E+00
	 0.00000000E+00	 0.00000000E+00	 4.64852000E-13

	 4.64852000E-13	 0.00000000E+00	 0.00000000E+00
	 0.00000000E+00	 4.64852000E-13	 0.00000000E+00
	 0.00000000E+00	 0.00000000E+00	 4.64852000E-13

	 4.64852000E-13	 0.00000000E+00	 0.00000000E+00
	 0.00000000E+00	 4.64852000E-13	 0.00000000E+00
	 0.00000000E+00	 0.00000000E+00	 4.64852000E-13

	 4.64852000E-13	 0.00000000E+00	 0.00000000E+00
	 0.00000000E+00	 4.64852000E-13	 0.00000000E+00
	 0.00000000E+00	 0.00000000E+00	 4.64852000E-13

	 4.64852000E-13	 0.00000000E+00	 0.00000000E+00
	 0.00000000E+00	 4.64852000E-13	 0.00000000E+00
	 0.00000000E+00	 0.00000000E+00	 4.64852000E-13

	 4.64852000E-13	 0.00000000E+00	 0.00000000E+00
	 0.00000000E+00	 4.64852000E-13	 0.00000000E+00
	 0.00000000E+00	 0.00000000E+00	 4.64852000E-13

	 4.64852000E-13	 0.00000000E+00	 0.00000000E+00
	 0.00000000E+00	 4.64852000E-13	 0.00000000E+00
	 0.00000000E+00	 0.00000000E+00	 4.64852000E-13

	 4.64852000E-13	 0.00000000E+00	 0.00000000E+00
	 0.00000000E+00	 4.64852000E-13	 0.00000000E+00
	 0.00000000E+00	 0.00000000E+00	 4.64852000E-13

	 4.64852000E-13	 0.00000000E+00	 0.00000000E+00
	 0.00000000E+00	 4.64852000E-13	 0.00000000E+00
	 0.00000000E+00	 0.00000000E+00	 4.64852000E-13

	 4.55997000E-13	 0.00000000E+00	 0.00000000E+00
	 0.00000000E+00	 4.55997000E-13	 0.00000000E+00
	 0.00000000E+00	 0.00000000E+00	 4.55997000E-13

	 4.55997000E-13	 0.00000000E+00	 0.00000000E+00
	 0.00000000E+00	 4.55997000E-13	 0.00000000E+00
	 0.00000000E+00	 0.00000000E+00	 4.55997000E-13

	 4.48250000E-13	 0.00000000E+00	 0.00000000E+00
	 0.00000000E+00	 4.48250000E-13	 0.00000000E+00
	 0.00000000E+00	 0.00000000E+00	 4.48250000E-13

	 4.51570000E-13	 0.00000000E+00	 0.00000000E+00
	 0.00000000E+00	 4.51570000E-13	 0.00000000E+00
	 0.00000000E+00	 0.00000000E+00	 4.51570000E-13

	 4.38289000E-13	 0.00000000E+00	 0.00000000E+00
	 0.00000000E+00	 4.38289000E-13	 0.00000000E+00
	 0.00000000E+00	 0.00000000E+00	 4.38289000E-13

	 4.47143000E-13	 0.00000000E+00	 0.00000000E+00
	 0.00000000E+00	 4.47143000E-13	 0.00000000E+00
	 0.00000000E+00	 0.00000000E+00	 4.47143000E-13

	 4.47143000E-13	 0.00000000E+00	 0.00000000E+00
	 0.00000000E+00	 4.47143000E-13	 0.00000000E+00
	 0.00000000E+00	 0.00000000E+00	 4.47143000E-13

	 4.51570000E-13	 0.00000000E+00	 0.00000000E+00
	 0.00000000E+00	 4.51570000E-13	 0.00000000E+00
	 0.00000000E+00	 0.00000000E+00	 4.51570000E-13

	 4.42716000E-13	 0.00000000E+00	 0.00000000E+00
	 0.00000000E+00	 4.42716000E-13	 0.00000000E+00
	 0.00000000E+00	 0.00000000E+00	 4.42716000E-13

	 4.38289000E-13	 0.00000000E+00	 0.00000000E+00
	 0.00000000E+00	 4.38289000E-13	 0.00000000E+00
	 0.00000000E+00	 0.00000000E+00	 4.38289000E-13

	 4.38289000E-13	 0.00000000E+00	 0.00000000E+00
	 0.00000000E+00	 4.38289000E-13	 0.00000000E+00
	 0.00000000E+00	 0.00000000E+00	 4.38289000E-13

	 4.38289000E-13	 0.00000000E+00	 0.00000000E+00
	 0.00000000E+00	 4.38289000E-13	 0.00000000E+00
	 0.00000000E+00	 0.00000000E+00	 4.38289000E-13

	 4.38289000E-13	 0.00000000E+00	 0.00000000E+00
	 0.00000000E+00	 4.38289000E-13	 0.00000000E+00
	 0.00000000E+00	 0.00000000E+00	 4.38289000E-13

	 4.38289000E-13	 0.00000000E+00	 0.00000000E+00
	 0.00000000E+00	 4.38289000E-13	 0.00000000E+00
	 0.00000000E+00	 0.00000000E+00	 4.38289000E-13

	 4.42716000E-13	 0.00000000E+00	 0.00000000E+00
	 0.00000000E+00	 4.42716000E-13	 0.00000000E+00
	 0.00000000E+00	 0.00000000E+00	 4.42716000E-13

	 4.41609000E-13	 0.00000000E+00	 0.00000000E+00
	 0.00000000E+00	 4.41609000E-13	 0.00000000E+00
	 0.00000000E+00	 0.00000000E+00	 4.41609000E-13

	 4.38289000E-13	 0.00000000E+00	 0.00000000E+00
	 0.00000000E+00	 4.38289000E-13	 0.00000000E+00
	 0.00000000E+00	 0.00000000E+00	 4.38289000E-13

	 4.38289000E-13	 0.00000000E+00	 0.00000000E+00
	 0.00000000E+00	 4.38289000E-13	 0.00000000E+00
	 0.00000000E+00	 0.00000000E+00	 4.38289000E-13

	 4.38289000E-13	 0.00000000E+00	 0.00000000E+00
	 0.00000000E+00	 4.38289000E-13	 0.00000000E+00
	 0.00000000E+00	 0.00000000E+00	 4.38289000E-13

	 4.38289000E-13	 0.00000000E+00	 0.00000000E+00
	 0.00000000E+00	 4.38289000E-13	 0.00000000E+00
	 0.00000000E+00	 0.00000000E+00	 4.38289000E-13

	 4.38289000E-13	 0.00000000E+00	 0.00000000E+00
	 0.00000000E+00	 4.38289000E-13	 0.00000000E+00
	 0.00000000E+00	 0.00000000E+00	 4.38289000E-13

	 4.38289000E-13	 0.00000000E+00	 0.00000000E+00
	 0.00000000E+00	 4.38289000E-13	 0.00000000E+00
	 0.00000000E+00	 0.00000000E+00	 4.38289000E-13

	 4.38289000E-13	 0.00000000E+00	 0.00000000E+00
	 0.00000000E+00	 4.38289000E-13	 0.00000000E+00
	 0.00000000E+00	 0.00000000E+00	 4.38289000E-13

	 4.47143000E-13	 0.00000000E+00	 0.00000000E+00
	 0.00000000E+00	 4.47143000E-13	 0.00000000E+00
	 0.00000000E+00	 0.00000000E+00	 4.47143000E-13

	 4.42716000E-13	 0.00000000E+00	 0.00000000E+00
	 0.00000000E+00	 4.42716000E-13	 0.00000000E+00
	 0.00000000E+00	 0.00000000E+00	 4.42716000E-13

	 4.38289000E-13	 0.00000000E+00	 0.00000000E+00
	 0.00000000E+00	 4.38289000E-13	 0.00000000E+00
	 0.00000000E+00	 0.00000000E+00	 4.38289000E-13

	 4.38289000E-13	 0.00000000E+00	 0.00000000E+00
	 0.00000000E+00	 4.38289000E-13	 0.00000000E+00
	 0.00000000E+00	 0.00000000E+00	 4.38289000E-13

	 4.38289000E-13	 0.00000000E+00	 0.00000000E+00
	 0.00000000E+00	 4.38289000E-13	 0.00000000E+00
	 0.00000000E+00	 0.00000000E+00	 4.38289000E-13

	 4.38289000E-13	 0.00000000E+00	 0.00000000E+00
	 0.00000000E+00	 4.38289000E-13	 0.00000000E+00
	 0.00000000E+00	 0.00000000E+00	 4.38289000E-13

	 4.38289000E-13	 0.00000000E+00	 0.00000000E+00
	 0.00000000E+00	 4.38289000E-13	 0.00000000E+00
	 0.00000000E+00	 0.00000000E+00	 4.38289000E-13

	 4.38289000E-13	 0.00000000E+00	 0.00000000E+00
	 0.00000000E+00	 4.38289000E-13	 0.00000000E+00
	 0.00000000E+00	 0.00000000E+00	 4.38289000E-13

	 4.38289000E-13	 0.00000000E+00	 0.00000000E+00
	 0.00000000E+00	 4.38289000E-13	 0.00000000E+00
	 0.00000000E+00	 0.00000000E+00	 4.38289000E-13

	 4.38289000E-13	 0.00000000E+00	 0.00000000E+00
	 0.00000000E+00	 4.38289000E-13	 0.00000000E+00
	 0.00000000E+00	 0.00000000E+00	 4.38289000E-13

	 4.38289000E-13	 0.00000000E+00	 0.00000000E+00
	 0.00000000E+00	 4.38289000E-13	 0.00000000E+00
	 0.00000000E+00	 0.00000000E+00	 4.38289000E-13

	 4.38289000E-13	 0.00000000E+00	 0.00000000E+00
	 0.00000000E+00	 4.38289000E-13	 0.00000000E+00
	 0.00000000E+00	 0.00000000E+00	 4.38289000E-13

	 4.38289000E-13	 0.00000000E+00	 0.00000000E+00
	 0.00000000E+00	 4.38289000E-13	 0.00000000E+00
	 0.00000000E+00	 0.00000000E+00	 4.38289000E-13

	 4.51570000E-13	 0.00000000E+00	 0.00000000E+00
	 0.00000000E+00	 4.51570000E-13	 0.00000000E+00
	 0.00000000E+00	 0.00000000E+00	 4.51570000E-13

	 4.55997000E-13	 0.00000000E+00	 0.00000000E+00
	 0.00000000E+00	 4.55997000E-13	 0.00000000E+00
	 0.00000000E+00	 0.00000000E+00	 4.55997000E-13

	 4.42716000E-13	 0.00000000E+00	 0.00000000E+00
	 0.00000000E+00	 4.42716000E-13	 0.00000000E+00
	 0.00000000E+00	 0.00000000E+00	 4.42716000E-13

	 4.55997000E-13	 0.00000000E+00	 0.00000000E+00
	 0.00000000E+00	 4.55997000E-13	 0.00000000E+00
	 0.00000000E+00	 0.00000000E+00	 4.55997000E-13

	 4.51570000E-13	 0.00000000E+00	 0.00000000E+00
	 0.00000000E+00	 4.51570000E-13	 0.00000000E+00
	 0.00000000E+00	 0.00000000E+00	 4.51570000E-13

	 4.51570000E-13	 0.00000000E+00	 0.00000000E+00
	 0.00000000E+00	 4.51570000E-13	 0.00000000E+00
	 0.00000000E+00	 0.00000000E+00	 4.51570000E-13

	 4.38289000E-13	 0.00000000E+00	 0.00000000E+00
	 0.00000000E+00	 4.38289000E-13	 0.00000000E+00
	 0.00000000E+00	 0.00000000E+00	 4.38289000E-13

	 4.47143000E-13	 0.00000000E+00	 0.00000000E+00
	 0.00000000E+00	 4.47143000E-13	 0.00000000E+00
	 0.00000000E+00	 0.00000000E+00	 4.47143000E-13

	 4.47143000E-13	 0.00000000E+00	 0.00000000E+00
	 0.00000000E+00	 4.47143000E-13	 0.00000000E+00
	 0.00000000E+00	 0.00000000E+00	 4.47143000E-13

	 4.42716000E-13	 0.00000000E+00	 0.00000000E+00
	 0.00000000E+00	 4.42716000E-13	 0.00000000E+00
	 0.00000000E+00	 0.00000000E+00	 4.42716000E-13

	 4.38289000E-13	 0.00000000E+00	 0.00000000E+00
	 0.00000000E+00	 4.38289000E-13	 0.00000000E+00
	 0.00000000E+00	 0.00000000E+00	 4.38289000E-13

	 4.38289000E-13	 0.00000000E+00	 0.00000000E+00
	 0.00000000E+00	 4.38289000E-13	 0.00000000E+00
	 0.00000000E+00	 0.00000000E+00	 4.38289000E-13

	 4.38289000E-13	 0.00000000E+00	 0.00000000E+00
	 0.00000000E+00	 4.38289000E-13	 0.00000000E+00
	 0.00000000E+00	 0.00000000E+00	 4.38289000E-13

	 4.38289000E-13	 0.00000000E+00	 0.00000000E+00
	 0.00000000E+00	 4.38289000E-13	 0.00000000E+00
	 0.00000000E+00	 0.00000000E+00	 4.38289000E-13

	 4.38289000E-13	 0.00000000E+00	 0.00000000E+00
	 0.00000000E+00	 4.38289000E-13	 0.00000000E+00
	 0.00000000E+00	 0.00000000E+00	 4.38289000E-13

	 4.47143000E-13	 0.00000000E+00	 0.00000000E+00
	 0.00000000E+00	 4.47143000E-13	 0.00000000E+00
	 0.00000000E+00	 0.00000000E+00	 4.47143000E-13

	 4.42716000E-13	 0.00000000E+00	 0.00000000E+00
	 0.00000000E+00	 4.42716000E-13	 0.00000000E+00
	 0.00000000E+00	 0.00000000E+00	 4.42716000E-13

	 4.47143000E-13	 0.00000000E+00	 0.00000000E+00
	 0.00000000E+00	 4.47143000E-13	 0.00000000E+00
	 0.00000000E+00	 0.00000000E+00	 4.47143000E-13

	 4.64852000E-13	 0.00000000E+00	 0.00000000E+00
	 0.00000000E+00	 4.64852000E-13	 0.00000000E+00
	 0.00000000E+00	 0.00000000E+00	 4.64852000E-13

	 4.64852000E-13	 0.00000000E+00	 0.00000000E+00
	 0.00000000E+00	 4.64852000E-13	 0.00000000E+00
	 0.00000000E+00	 0.00000000E+00	 4.64852000E-13

	 4.64852000E-13	 0.00000000E+00	 0.00000000E+00
	 0.00000000E+00	 4.64852000E-13	 0.00000000E+00
	 0.00000000E+00	 0.00000000E+00	 4.64852000E-13

	 4.64852000E-13	 0.00000000E+00	 0.00000000E+00
	 0.00000000E+00	 4.64852000E-13	 0.00000000E+00
	 0.00000000E+00	 0.00000000E+00	 4.64852000E-13

	 4.64852000E-13	 0.00000000E+00	 0.00000000E+00
	 0.00000000E+00	 4.64852000E-13	 0.00000000E+00
	 0.00000000E+00	 0.00000000E+00	 4.64852000E-13

	 4.64852000E-13	 0.00000000E+00	 0.00000000E+00
	 0.00000000E+00	 4.64852000E-13	 0.00000000E+00
	 0.00000000E+00	 0.00000000E+00	 4.64852000E-13

	 4.64852000E-13	 0.00000000E+00	 0.00000000E+00
	 0.00000000E+00	 4.64852000E-13	 0.00000000E+00
	 0.00000000E+00	 0.00000000E+00	 4.64852000E-13

	 4.64852000E-13	 0.00000000E+00	 0.00000000E+00
	 0.00000000E+00	 4.64852000E-13	 0.00000000E+00
	 0.00000000E+00	 0.00000000E+00	 4.64852000E-13

	 4.64852000E-13	 0.00000000E+00	 0.00000000E+00
	 0.00000000E+00	 4.64852000E-13	 0.00000000E+00
	 0.00000000E+00	 0.00000000E+00	 4.64852000E-13

	 4.64852000E-13	 0.00000000E+00	 0.00000000E+00
	 0.00000000E+00	 4.64852000E-13	 0.00000000E+00
	 0.00000000E+00	 0.00000000E+00	 4.64852000E-13

	 4.64852000E-13	 0.00000000E+00	 0.00000000E+00
	 0.00000000E+00	 4.64852000E-13	 0.00000000E+00
	 0.00000000E+00	 0.00000000E+00	 4.64852000E-13

	 4.64852000E-13	 0.00000000E+00	 0.00000000E+00
	 0.00000000E+00	 4.64852000E-13	 0.00000000E+00
	 0.00000000E+00	 0.00000000E+00	 4.64852000E-13

	 4.64852000E-13	 0.00000000E+00	 0.00000000E+00
	 0.00000000E+00	 4.64852000E-13	 0.00000000E+00
	 0.00000000E+00	 0.00000000E+00	 4.64852000E-13

	 4.64852000E-13	 0.00000000E+00	 0.00000000E+00
	 0.00000000E+00	 4.64852000E-13	 0.00000000E+00
	 0.00000000E+00	 0.00000000E+00	 4.64852000E-13

	 4.64852000E-13	 0.00000000E+00	 0.00000000E+00
	 0.00000000E+00	 4.64852000E-13	 0.00000000E+00
	 0.00000000E+00	 0.00000000E+00	 4.64852000E-13

	 4.64852000E-13	 0.00000000E+00	 0.00000000E+00
	 0.00000000E+00	 4.64852000E-13	 0.00000000E+00
	 0.00000000E+00	 0.00000000E+00	 4.64852000E-13

	 4.64852000E-13	 0.00000000E+00	 0.00000000E+00
	 0.00000000E+00	 4.64852000E-13	 0.00000000E+00
	 0.00000000E+00	 0.00000000E+00	 4.64852000E-13

	 4.64852000E-13	 0.00000000E+00	 0.00000000E+00
	 0.00000000E+00	 4.64852000E-13	 0.00000000E+00
	 0.00000000E+00	 0.00000000E+00	 4.64852000E-13

	 4.64852000E-13	 0.00000000E+00	 0.00000000E+00
	 0.00000000E+00	 4.64852000E-13	 0.00000000E+00
	 0.00000000E+00	 0.00000000E+00	 4.64852000E-13

	 4.64852000E-13	 0.00000000E+00	 0.00000000E+00
	 0.00000000E+00	 4.64852000E-13	 0.00000000E+00
	 0.00000000E+00	 0.00000000E+00	 4.64852000E-13

	 4.64852000E-13	 0.00000000E+00	 0.00000000E+00
	 0.00000000E+00	 4.64852000E-13	 0.00000000E+00
	 0.00000000E+00	 0.00000000E+00	 4.64852000E-13

	 4.64852000E-13	 0.00000000E+00	 0.00000000E+00
	 0.00000000E+00	 4.64852000E-13	 0.00000000E+00
	 0.00000000E+00	 0.00000000E+00	 4.64852000E-13

	 4.64852000E-13	 0.00000000E+00	 0.00000000E+00
	 0.00000000E+00	 4.64852000E-13	 0.00000000E+00
	 0.00000000E+00	 0.00000000E+00	 4.64852000E-13

	 4.64852000E-13	 0.00000000E+00	 0.00000000E+00
	 0.00000000E+00	 4.64852000E-13	 0.00000000E+00
	 0.00000000E+00	 0.00000000E+00	 4.64852000E-13

	 4.48250000E-13	 0.00000000E+00	 0.00000000E+00
	 0.00000000E+00	 4.48250000E-13	 0.00000000E+00
	 0.00000000E+00	 0.00000000E+00	 4.48250000E-13

	 4.47143000E-13	 0.00000000E+00	 0.00000000E+00
	 0.00000000E+00	 4.47143000E-13	 0.00000000E+00
	 0.00000000E+00	 0.00000000E+00	 4.47143000E-13

	 4.60425000E-13	 0.00000000E+00	 0.00000000E+00
	 0.00000000E+00	 4.60425000E-13	 0.00000000E+00
	 0.00000000E+00	 0.00000000E+00	 4.60425000E-13

	 4.61531000E-13	 0.00000000E+00	 0.00000000E+00
	 0.00000000E+00	 4.61531000E-13	 0.00000000E+00
	 0.00000000E+00	 0.00000000E+00	 4.61531000E-13

	 4.47143000E-13	 0.00000000E+00	 0.00000000E+00
	 0.00000000E+00	 4.47143000E-13	 0.00000000E+00
	 0.00000000E+00	 0.00000000E+00	 4.47143000E-13

	 4.51570000E-13	 0.00000000E+00	 0.00000000E+00
	 0.00000000E+00	 4.51570000E-13	 0.00000000E+00
	 0.00000000E+00	 0.00000000E+00	 4.51570000E-13

	 4.54891000E-13	 0.00000000E+00	 0.00000000E+00
	 0.00000000E+00	 4.54891000E-13	 0.00000000E+00
	 0.00000000E+00	 0.00000000E+00	 4.54891000E-13

	 4.51570000E-13	 0.00000000E+00	 0.00000000E+00
	 0.00000000E+00	 4.51570000E-13	 0.00000000E+00
	 0.00000000E+00	 0.00000000E+00	 4.51570000E-13

	 4.51570000E-13	 0.00000000E+00	 0.00000000E+00
	 0.00000000E+00	 4.51570000E-13	 0.00000000E+00
	 0.00000000E+00	 0.00000000E+00	 4.51570000E-13

	 4.55997000E-13	 0.00000000E+00	 0.00000000E+00
	 0.00000000E+00	 4.55997000E-13	 0.00000000E+00
	 0.00000000E+00	 0.00000000E+00	 4.55997000E-13

	 4.42716000E-13	 0.00000000E+00	 0.00000000E+00
	 0.00000000E+00	 4.42716000E-13	 0.00000000E+00
	 0.00000000E+00	 0.00000000E+00	 4.42716000E-13

	 4.38289000E-13	 0.00000000E+00	 0.00000000E+00
	 0.00000000E+00	 4.38289000E-13	 0.00000000E+00
	 0.00000000E+00	 0.00000000E+00	 4.38289000E-13

	 4.38289000E-13	 0.00000000E+00	 0.00000000E+00
	 0.00000000E+00	 4.38289000E-13	 0.00000000E+00
	 0.00000000E+00	 0.00000000E+00	 4.38289000E-13

	 4.38289000E-13	 0.00000000E+00	 0.00000000E+00
	 0.00000000E+00	 4.38289000E-13	 0.00000000E+00
	 0.00000000E+00	 0.00000000E+00	 4.38289000E-13

	 4.38289000E-13	 0.00000000E+00	 0.00000000E+00
	 0.00000000E+00	 4.38289000E-13	 0.00000000E+00
	 0.00000000E+00	 0.00000000E+00	 4.38289000E-13

	 4.38289000E-13	 0.00000000E+00	 0.00000000E+00
	 0.00000000E+00	 4.38289000E-13	 0.00000000E+00
	 0.00000000E+00	 0.00000000E+00	 4.38289000E-13

	 4.38289000E-13	 0.00000000E+00	 0.00000000E+00
	 0.00000000E+00	 4.38289000E-13	 0.00000000E+00
	 0.00000000E+00	 0.00000000E+00	 4.38289000E-13

	 4.38289000E-13	 0.00000000E+00	 0.00000000E+00
	 0.00000000E+00	 4.38289000E-13	 0.00000000E+00
	 0.00000000E+00	 0.00000000E+00	 4.38289000E-13

	 4.38289000E-13	 0.00000000E+00	 0.00000000E+00
	 0.00000000E+00	 4.38289000E-13	 0.00000000E+00
	 0.00000000E+00	 0.00000000E+00	 4.38289000E-13

	 4.38289000E-13	 0.00000000E+00	 0.00000000E+00
	 0.00000000E+00	 4.38289000E-13	 0.00000000E+00
	 0.00000000E+00	 0.00000000E+00	 4.38289000E-13

	 4.38289000E-13	 0.00000000E+00	 0.00000000E+00
	 0.00000000E+00	 4.38289000E-13	 0.00000000E+00
	 0.00000000E+00	 0.00000000E+00	 4.38289000E-13

	 4.38289000E-13	 0.00000000E+00	 0.00000000E+00
	 0.00000000E+00	 4.38289000E-13	 0.00000000E+00
	 0.00000000E+00	 0.00000000E+00	 4.38289000E-13

	 4.38289000E-13	 0.00000000E+00	 0.00000000E+00
	 0.00000000E+00	 4.38289000E-13	 0.00000000E+00
	 0.00000000E+00	 0.00000000E+00	 4.38289000E-13

	 4.38289000E-13	 0.00000000E+00	 0.00000000E+00
	 0.00000000E+00	 4.38289000E-13	 0.00000000E+00
	 0.00000000E+00	 0.00000000E+00	 4.38289000E-13

	 4.38289000E-13	 0.00000000E+00	 0.00000000E+00
	 0.00000000E+00	 4.38289000E-13	 0.00000000E+00
	 0.00000000E+00	 0.00000000E+00	 4.38289000E-13

	 4.38289000E-13	 0.00000000E+00	 0.00000000E+00
	 0.00000000E+00	 4.38289000E-13	 0.00000000E+00
	 0.00000000E+00	 0.00000000E+00	 4.38289000E-13

	 4.38289000E-13	 0.00000000E+00	 0.00000000E+00
	 0.00000000E+00	 4.38289000E-13	 0.00000000E+00
	 0.00000000E+00	 0.00000000E+00	 4.38289000E-13

	 4.47143000E-13	 0.00000000E+00	 0.00000000E+00
	 0.00000000E+00	 4.47143000E-13	 0.00000000E+00
	 0.00000000E+00	 0.00000000E+00	 4.47143000E-13

	 4.47143000E-13	 0.00000000E+00	 0.00000000E+00
	 0.00000000E+00	 4.47143000E-13	 0.00000000E+00
	 0.00000000E+00	 0.00000000E+00	 4.47143000E-13

	 4.42716000E-13	 0.00000000E+00	 0.00000000E+00
	 0.00000000E+00	 4.42716000E-13	 0.00000000E+00
	 0.00000000E+00	 0.00000000E+00	 4.42716000E-13

	 4.38289000E-13	 0.00000000E+00	 0.00000000E+00
	 0.00000000E+00	 4.38289000E-13	 0.00000000E+00
	 0.00000000E+00	 0.00000000E+00	 4.38289000E-13

	 4.38289000E-13	 0.00000000E+00	 0.00000000E+00
	 0.00000000E+00	 4.38289000E-13	 0.00000000E+00
	 0.00000000E+00	 0.00000000E+00	 4.38289000E-13

	 4.38289000E-13	 0.00000000E+00	 0.00000000E+00
	 0.00000000E+00	 4.38289000E-13	 0.00000000E+00
	 0.00000000E+00	 0.00000000E+00	 4.38289000E-13

	 4.38289000E-13	 0.00000000E+00	 0.00000000E+00
	 0.00000000E+00	 4.38289000E-13	 0.00000000E+00
	 0.00000000E+00	 0.00000000E+00	 4.38289000E-13

	 4.38289000E-13	 0.00000000E+00	 0.00000000E+00
	 0.00000000E+00	 4.38289000E-13	 0.00000000E+00
	 0.00000000E+00	 0.00000000E+00	 4.38289000E-13

	 4.38289000E-13	 0.00000000E+00	 0.00000000E+00
	 0.00000000E+00	 4.38289000E-13	 0.00000000E+00
	 0.00000000E+00	 0.00000000E+00	 4.38289000E-13

	 4.38289000E-13	 0.00000000E+00	 0.00000000E+00
	 0.00000000E+00	 4.38289000E-13	 0.00000000E+00
	 0.00000000E+00	 0.00000000E+00	 4.38289000E-13

	 4.38289000E-13	 0.00000000E+00	 0.00000000E+00
	 0.00000000E+00	 4.38289000E-13	 0.00000000E+00
	 0.00000000E+00	 0.00000000E+00	 4.38289000E-13

	 4.38289000E-13	 0.00000000E+00	 0.00000000E+00
	 0.00000000E+00	 4.38289000E-13	 0.00000000E+00
	 0.00000000E+00	 0.00000000E+00	 4.38289000E-13

	 4.47143000E-13	 0.00000000E+00	 0.00000000E+00
	 0.00000000E+00	 4.47143000E-13	 0.00000000E+00
	 0.00000000E+00	 0.00000000E+00	 4.47143000E-13

	 4.47143000E-13	 0.00000000E+00	 0.00000000E+00
	 0.00000000E+00	 4.47143000E-13	 0.00000000E+00
	 0.00000000E+00	 0.00000000E+00	 4.47143000E-13

	 4.51570000E-13	 0.00000000E+00	 0.00000000E+00
	 0.00000000E+00	 4.51570000E-13	 0.00000000E+00
	 0.00000000E+00	 0.00000000E+00	 4.51570000E-13

	 4.55997000E-13	 0.00000000E+00	 0.00000000E+00
	 0.00000000E+00	 4.55997000E-13	 0.00000000E+00
	 0.00000000E+00	 0.00000000E+00	 4.55997000E-13

	 4.51570000E-13	 0.00000000E+00	 0.00000000E+00
	 0.00000000E+00	 4.51570000E-13	 0.00000000E+00
	 0.00000000E+00	 0.00000000E+00	 4.51570000E-13

	 4.42716000E-13	 0.00000000E+00	 0.00000000E+00
	 0.00000000E+00	 4.42716000E-13	 0.00000000E+00
	 0.00000000E+00	 0.00000000E+00	 4.42716000E-13

	 4.47143000E-13	 0.00000000E+00	 0.00000000E+00
	 0.00000000E+00	 4.47143000E-13	 0.00000000E+00
	 0.00000000E+00	 0.00000000E+00	 4.47143000E-13

	 4.38289000E-13	 0.00000000E+00	 0.00000000E+00
	 0.00000000E+00	 4.38289000E-13	 0.00000000E+00
	 0.00000000E+00	 0.00000000E+00	 4.38289000E-13

	 4.51570000E-13	 0.00000000E+00	 0.00000000E+00
	 0.00000000E+00	 4.51570000E-13	 0.00000000E+00
	 0.00000000E+00	 0.00000000E+00	 4.51570000E-13

	 4.64852000E-13	 0.00000000E+00	 0.00000000E+00
	 0.00000000E+00	 4.64852000E-13	 0.00000000E+00
	 0.00000000E+00	 0.00000000E+00	 4.64852000E-13

	 4.64852000E-13	 0.00000000E+00	 0.00000000E+00
	 0.00000000E+00	 4.64852000E-13	 0.00000000E+00
	 0.00000000E+00	 0.00000000E+00	 4.64852000E-13

	 4.54891000E-13	 0.00000000E+00	 0.00000000E+00
	 0.00000000E+00	 4.54891000E-13	 0.00000000E+00
	 0.00000000E+00	 0.00000000E+00	 4.54891000E-13

	 4.47143000E-13	 0.00000000E+00	 0.00000000E+00
	 0.00000000E+00	 4.47143000E-13	 0.00000000E+00
	 0.00000000E+00	 0.00000000E+00	 4.47143000E-13

	 4.64852000E-13	 0.00000000E+00	 0.00000000E+00
	 0.00000000E+00	 4.64852000E-13	 0.00000000E+00
	 0.00000000E+00	 0.00000000E+00	 4.64852000E-13

	 4.64852000E-13	 0.00000000E+00	 0.00000000E+00
	 0.00000000E+00	 4.64852000E-13	 0.00000000E+00
	 0.00000000E+00	 0.00000000E+00	 4.64852000E-13

	 4.64852000E-13	 0.00000000E+00	 0.00000000E+00
	 0.00000000E+00	 4.64852000E-13	 0.00000000E+00
	 0.00000000E+00	 0.00000000E+00	 4.64852000E-13

	 4.64852000E-13	 0.00000000E+00	 0.00000000E+00
	 0.00000000E+00	 4.64852000E-13	 0.00000000E+00
	 0.00000000E+00	 0.00000000E+00	 4.64852000E-13

	 4.64852000E-13	 0.00000000E+00	 0.00000000E+00
	 0.00000000E+00	 4.64852000E-13	 0.00000000E+00
	 0.00000000E+00	 0.00000000E+00	 4.64852000E-13

	 4.64852000E-13	 0.00000000E+00	 0.00000000E+00
	 0.00000000E+00	 4.64852000E-13	 0.00000000E+00
	 0.00000000E+00	 0.00000000E+00	 4.64852000E-13

	 4.64852000E-13	 0.00000000E+00	 0.00000000E+00
	 0.00000000E+00	 4.64852000E-13	 0.00000000E+00
	 0.00000000E+00	 0.00000000E+00	 4.64852000E-13

	 4.64852000E-13	 0.00000000E+00	 0.00000000E+00
	 0.00000000E+00	 4.64852000E-13	 0.00000000E+00
	 0.00000000E+00	 0.00000000E+00	 4.64852000E-13

	 4.64852000E-13	 0.00000000E+00	 0.00000000E+00
	 0.00000000E+00	 4.64852000E-13	 0.00000000E+00
	 0.00000000E+00	 0.00000000E+00	 4.64852000E-13

	 4.64852000E-13	 0.00000000E+00	 0.00000000E+00
	 0.00000000E+00	 4.64852000E-13	 0.00000000E+00
	 0.00000000E+00	 0.00000000E+00	 4.64852000E-13

	 4.64852000E-13	 0.00000000E+00	 0.00000000E+00
	 0.00000000E+00	 4.64852000E-13	 0.00000000E+00
	 0.00000000E+00	 0.00000000E+00	 4.64852000E-13

	 4.64852000E-13	 0.00000000E+00	 0.00000000E+00
	 0.00000000E+00	 4.64852000E-13	 0.00000000E+00
	 0.00000000E+00	 0.00000000E+00	 4.64852000E-13

	 4.64852000E-13	 0.00000000E+00	 0.00000000E+00
	 0.00000000E+00	 4.64852000E-13	 0.00000000E+00
	 0.00000000E+00	 0.00000000E+00	 4.64852000E-13

	 4.58211000E-13	 0.00000000E+00	 0.00000000E+00
	 0.00000000E+00	 4.58211000E-13	 0.00000000E+00
	 0.00000000E+00	 0.00000000E+00	 4.58211000E-13

	 4.55997000E-13	 0.00000000E+00	 0.00000000E+00
	 0.00000000E+00	 4.55997000E-13	 0.00000000E+00
	 0.00000000E+00	 0.00000000E+00	 4.55997000E-13

	 4.54891000E-13	 0.00000000E+00	 0.00000000E+00
	 0.00000000E+00	 4.54891000E-13	 0.00000000E+00
	 0.00000000E+00	 0.00000000E+00	 4.54891000E-13

	 4.42716000E-13	 0.00000000E+00	 0.00000000E+00
	 0.00000000E+00	 4.42716000E-13	 0.00000000E+00
	 0.00000000E+00	 0.00000000E+00	 4.42716000E-13

	 4.38289000E-13	 0.00000000E+00	 0.00000000E+00
	 0.00000000E+00	 4.38289000E-13	 0.00000000E+00
	 0.00000000E+00	 0.00000000E+00	 4.38289000E-13

	 4.42716000E-13	 0.00000000E+00	 0.00000000E+00
	 0.00000000E+00	 4.42716000E-13	 0.00000000E+00
	 0.00000000E+00	 0.00000000E+00	 4.42716000E-13

	 4.44929000E-13	 0.00000000E+00	 0.00000000E+00
	 0.00000000E+00	 4.44929000E-13	 0.00000000E+00
	 0.00000000E+00	 0.00000000E+00	 4.44929000E-13

	 4.38289000E-13	 0.00000000E+00	 0.00000000E+00
	 0.00000000E+00	 4.38289000E-13	 0.00000000E+00
	 0.00000000E+00	 0.00000000E+00	 4.38289000E-13

	 4.38289000E-13	 0.00000000E+00	 0.00000000E+00
	 0.00000000E+00	 4.38289000E-13	 0.00000000E+00
	 0.00000000E+00	 0.00000000E+00	 4.38289000E-13

	 4.38289000E-13	 0.00000000E+00	 0.00000000E+00
	 0.00000000E+00	 4.38289000E-13	 0.00000000E+00
	 0.00000000E+00	 0.00000000E+00	 4.38289000E-13

	 4.38289000E-13	 0.00000000E+00	 0.00000000E+00
	 0.00000000E+00	 4.38289000E-13	 0.00000000E+00
	 0.00000000E+00	 0.00000000E+00	 4.38289000E-13

	 4.38289000E-13	 0.00000000E+00	 0.00000000E+00
	 0.00000000E+00	 4.38289000E-13	 0.00000000E+00
	 0.00000000E+00	 0.00000000E+00	 4.38289000E-13

	 4.38289000E-13	 0.00000000E+00	 0.00000000E+00
	 0.00000000E+00	 4.38289000E-13	 0.00000000E+00
	 0.00000000E+00	 0.00000000E+00	 4.38289000E-13

	 4.47143000E-13	 0.00000000E+00	 0.00000000E+00
	 0.00000000E+00	 4.47143000E-13	 0.00000000E+00
	 0.00000000E+00	 0.00000000E+00	 4.47143000E-13

	 4.42716000E-13	 0.00000000E+00	 0.00000000E+00
	 0.00000000E+00	 4.42716000E-13	 0.00000000E+00
	 0.00000000E+00	 0.00000000E+00	 4.42716000E-13

	 4.51570000E-13	 0.00000000E+00	 0.00000000E+00
	 0.00000000E+00	 4.51570000E-13	 0.00000000E+00
	 0.00000000E+00	 0.00000000E+00	 4.51570000E-13

	 4.47143000E-13	 0.00000000E+00	 0.00000000E+00
	 0.00000000E+00	 4.47143000E-13	 0.00000000E+00
	 0.00000000E+00	 0.00000000E+00	 4.47143000E-13

	 4.38289000E-13	 0.00000000E+00	 0.00000000E+00
	 0.00000000E+00	 4.38289000E-13	 0.00000000E+00
	 0.00000000E+00	 0.00000000E+00	 4.38289000E-13

	 4.38289000E-13	 0.00000000E+00	 0.00000000E+00
	 0.00000000E+00	 4.38289000E-13	 0.00000000E+00
	 0.00000000E+00	 0.00000000E+00	 4.38289000E-13

	 4.38289000E-13	 0.00000000E+00	 0.00000000E+00
	 0.00000000E+00	 4.38289000E-13	 0.00000000E+00
	 0.00000000E+00	 0.00000000E+00	 4.38289000E-13

	 4.38289000E-13	 0.00000000E+00	 0.00000000E+00
	 0.00000000E+00	 4.38289000E-13	 0.00000000E+00
	 0.00000000E+00	 0.00000000E+00	 4.38289000E-13

	 4.47143000E-13	 0.00000000E+00	 0.00000000E+00
	 0.00000000E+00	 4.47143000E-13	 0.00000000E+00
	 0.00000000E+00	 0.00000000E+00	 4.47143000E-13

	 4.42716000E-13	 0.00000000E+00	 0.00000000E+00
	 0.00000000E+00	 4.42716000E-13	 0.00000000E+00
	 0.00000000E+00	 0.00000000E+00	 4.42716000E-13

	 4.38289000E-13	 0.00000000E+00	 0.00000000E+00
	 0.00000000E+00	 4.38289000E-13	 0.00000000E+00
	 0.00000000E+00	 0.00000000E+00	 4.38289000E-13

	 4.38289000E-13	 0.00000000E+00	 0.00000000E+00
	 0.00000000E+00	 4.38289000E-13	 0.00000000E+00
	 0.00000000E+00	 0.00000000E+00	 4.38289000E-13

	 4.38289000E-13	 0.00000000E+00	 0.00000000E+00
	 0.00000000E+00	 4.38289000E-13	 0.00000000E+00
	 0.00000000E+00	 0.00000000E+00	 4.38289000E-13

	 4.38289000E-13	 0.00000000E+00	 0.00000000E+00
	 0.00000000E+00	 4.38289000E-13	 0.00000000E+00
	 0.00000000E+00	 0.00000000E+00	 4.38289000E-13

	 4.47143000E-13	 0.00000000E+00	 0.00000000E+00
	 0.00000000E+00	 4.47143000E-13	 0.00000000E+00
	 0.00000000E+00	 0.00000000E+00	 4.47143000E-13

	 4.55997000E-13	 0.00000000E+00	 0.00000000E+00
	 0.00000000E+00	 4.55997000E-13	 0.00000000E+00
	 0.00000000E+00	 0.00000000E+00	 4.55997000E-13

	 4.60425000E-13	 0.00000000E+00	 0.00000000E+00
	 0.00000000E+00	 4.60425000E-13	 0.00000000E+00
	 0.00000000E+00	 0.00000000E+00	 4.60425000E-13

	 4.55997000E-13	 0.00000000E+00	 0.00000000E+00
	 0.00000000E+00	 4.55997000E-13	 0.00000000E+00
	 0.00000000E+00	 0.00000000E+00	 4.55997000E-13

	 4.64852000E-13	 0.00000000E+00	 0.00000000E+00
	 0.00000000E+00	 4.64852000E-13	 0.00000000E+00
	 0.00000000E+00	 0.00000000E+00	 4.64852000E-13

	 4.58211000E-13	 0.00000000E+00	 0.00000000E+00
	 0.00000000E+00	 4.58211000E-13	 0.00000000E+00
	 0.00000000E+00	 0.00000000E+00	 4.58211000E-13

	 4.64852000E-13	 0.00000000E+00	 0.00000000E+00
	 0.00000000E+00	 4.64852000E-13	 0.00000000E+00
	 0.00000000E+00	 0.00000000E+00	 4.64852000E-13

	 4.64852000E-13	 0.00000000E+00	 0.00000000E+00
	 0.00000000E+00	 4.64852000E-13	 0.00000000E+00
	 0.00000000E+00	 0.00000000E+00	 4.64852000E-13

	 4.51570000E-13	 0.00000000E+00	 0.00000000E+00
	 0.00000000E+00	 4.51570000E-13	 0.00000000E+00
	 0.00000000E+00	 0.00000000E+00	 4.51570000E-13

	 4.38289000E-13	 0.00000000E+00	 0.00000000E+00
	 0.00000000E+00	 4.38289000E-13	 0.00000000E+00
	 0.00000000E+00	 0.00000000E+00	 4.38289000E-13

	 4.38289000E-13	 0.00000000E+00	 0.00000000E+00
	 0.00000000E+00	 4.38289000E-13	 0.00000000E+00
	 0.00000000E+00	 0.00000000E+00	 4.38289000E-13

	 4.38289000E-13	 0.00000000E+00	 0.00000000E+00
	 0.00000000E+00	 4.38289000E-13	 0.00000000E+00
	 0.00000000E+00	 0.00000000E+00	 4.38289000E-13

	 4.42716000E-13	 0.00000000E+00	 0.00000000E+00
	 0.00000000E+00	 4.42716000E-13	 0.00000000E+00
	 0.00000000E+00	 0.00000000E+00	 4.42716000E-13

	 4.55997000E-13	 0.00000000E+00	 0.00000000E+00
	 0.00000000E+00	 4.55997000E-13	 0.00000000E+00
	 0.00000000E+00	 0.00000000E+00	 4.55997000E-13

	 4.60425000E-13	 0.00000000E+00	 0.00000000E+00
	 0.00000000E+00	 4.60425000E-13	 0.00000000E+00
	 0.00000000E+00	 0.00000000E+00	 4.60425000E-13

	 4.61531000E-13	 0.00000000E+00	 0.00000000E+00
	 0.00000000E+00	 4.61531000E-13	 0.00000000E+00
	 0.00000000E+00	 0.00000000E+00	 4.61531000E-13

	 4.60425000E-13	 0.00000000E+00	 0.00000000E+00
	 0.00000000E+00	 4.60425000E-13	 0.00000000E+00
	 0.00000000E+00	 0.00000000E+00	 4.60425000E-13

	 4.51570000E-13	 0.00000000E+00	 0.00000000E+00
	 0.00000000E+00	 4.51570000E-13	 0.00000000E+00
	 0.00000000E+00	 0.00000000E+00	 4.51570000E-13

	 4.38289000E-13	 0.00000000E+00	 0.00000000E+00
	 0.00000000E+00	 4.38289000E-13	 0.00000000E+00
	 0.00000000E+00	 0.00000000E+00	 4.38289000E-13

	 4.64852000E-13	 0.00000000E+00	 0.00000000E+00
	 0.00000000E+00	 4.64852000E-13	 0.00000000E+00
	 0.00000000E+00	 0.00000000E+00	 4.64852000E-13

	 4.53784000E-13	 0.00000000E+00	 0.00000000E+00
	 0.00000000E+00	 4.53784000E-13	 0.00000000E+00
	 0.00000000E+00	 0.00000000E+00	 4.53784000E-13

	 4.62638000E-13	 0.00000000E+00	 0.00000000E+00
	 0.00000000E+00	 4.62638000E-13	 0.00000000E+00
	 0.00000000E+00	 0.00000000E+00	 4.62638000E-13

	 4.64852000E-13	 0.00000000E+00	 0.00000000E+00
	 0.00000000E+00	 4.64852000E-13	 0.00000000E+00
	 0.00000000E+00	 0.00000000E+00	 4.64852000E-13

	 4.51570000E-13	 0.00000000E+00	 0.00000000E+00
	 0.00000000E+00	 4.51570000E-13	 0.00000000E+00
	 0.00000000E+00	 0.00000000E+00	 4.51570000E-13

	 4.64852000E-13	 0.00000000E+00	 0.00000000E+00
	 0.00000000E+00	 4.64852000E-13	 0.00000000E+00
	 0.00000000E+00	 0.00000000E+00	 4.64852000E-13

	 4.53468000E-13	 0.00000000E+00	 0.00000000E+00
	 0.00000000E+00	 4.53468000E-13	 0.00000000E+00
	 0.00000000E+00	 0.00000000E+00	 4.53468000E-13

	 4.62638000E-13	 0.00000000E+00	 0.00000000E+00
	 0.00000000E+00	 4.62638000E-13	 0.00000000E+00
	 0.00000000E+00	 0.00000000E+00	 4.62638000E-13

	 4.47143000E-13	 0.00000000E+00	 0.00000000E+00
	 0.00000000E+00	 4.47143000E-13	 0.00000000E+00
	 0.00000000E+00	 0.00000000E+00	 4.47143000E-13

	 4.38289000E-13	 0.00000000E+00	 0.00000000E+00
	 0.00000000E+00	 4.38289000E-13	 0.00000000E+00
	 0.00000000E+00	 0.00000000E+00	 4.38289000E-13

	 4.42716000E-13	 0.00000000E+00	 0.00000000E+00
	 0.00000000E+00	 4.42716000E-13	 0.00000000E+00
	 0.00000000E+00	 0.00000000E+00	 4.42716000E-13

	 4.38289000E-13	 0.00000000E+00	 0.00000000E+00
	 0.00000000E+00	 4.38289000E-13	 0.00000000E+00
	 0.00000000E+00	 0.00000000E+00	 4.38289000E-13

	 4.45878000E-13	 0.00000000E+00	 0.00000000E+00
	 0.00000000E+00	 4.45878000E-13	 0.00000000E+00
	 0.00000000E+00	 0.00000000E+00	 4.45878000E-13

	 4.64852000E-13	 0.00000000E+00	 0.00000000E+00
	 0.00000000E+00	 4.64852000E-13	 0.00000000E+00
	 0.00000000E+00	 0.00000000E+00	 4.64852000E-13

	 4.62638000E-13	 0.00000000E+00	 0.00000000E+00
	 0.00000000E+00	 4.62638000E-13	 0.00000000E+00
	 0.00000000E+00	 0.00000000E+00	 4.62638000E-13

	 4.38289000E-13	 0.00000000E+00	 0.00000000E+00
	 0.00000000E+00	 4.38289000E-13	 0.00000000E+00
	 0.00000000E+00	 0.00000000E+00	 4.38289000E-13

	 4.64852000E-13	 0.00000000E+00	 0.00000000E+00
	 0.00000000E+00	 4.64852000E-13	 0.00000000E+00
	 0.00000000E+00	 0.00000000E+00	 4.64852000E-13

	 4.60425000E-13	 0.00000000E+00	 0.00000000E+00
	 0.00000000E+00	 4.60425000E-13	 0.00000000E+00
	 0.00000000E+00	 0.00000000E+00	 4.60425000E-13

	 4.51570000E-13	 0.00000000E+00	 0.00000000E+00
	 0.00000000E+00	 4.51570000E-13	 0.00000000E+00
	 0.00000000E+00	 0.00000000E+00	 4.51570000E-13

	 4.64852000E-13	 0.00000000E+00	 0.00000000E+00
	 0.00000000E+00	 4.64852000E-13	 0.00000000E+00
	 0.00000000E+00	 0.00000000E+00	 4.64852000E-13

	 4.64852000E-13	 0.00000000E+00	 0.00000000E+00
	 0.00000000E+00	 4.64852000E-13	 0.00000000E+00
	 0.00000000E+00	 0.00000000E+00	 4.64852000E-13

	 4.42083000E-13	 0.00000000E+00	 0.00000000E+00
	 0.00000000E+00	 4.42083000E-13	 0.00000000E+00
	 0.00000000E+00	 0.00000000E+00	 4.42083000E-13

	 4.38289000E-13	 0.00000000E+00	 0.00000000E+00
	 0.00000000E+00	 4.38289000E-13	 0.00000000E+00
	 0.00000000E+00	 0.00000000E+00	 4.38289000E-13

	 4.45878000E-13	 0.00000000E+00	 0.00000000E+00
	 0.00000000E+00	 4.45878000E-13	 0.00000000E+00
	 0.00000000E+00	 0.00000000E+00	 4.45878000E-13

	 4.64852000E-13	 0.00000000E+00	 0.00000000E+00
	 0.00000000E+00	 4.64852000E-13	 0.00000000E+00
	 0.00000000E+00	 0.00000000E+00	 4.64852000E-13

	 4.40502000E-13	 0.00000000E+00	 0.00000000E+00
	 0.00000000E+00	 4.40502000E-13	 0.00000000E+00
	 0.00000000E+00	 0.00000000E+00	 4.40502000E-13

	 4.64852000E-13	 0.00000000E+00	 0.00000000E+00
	 0.00000000E+00	 4.64852000E-13	 0.00000000E+00
	 0.00000000E+00	 0.00000000E+00	 4.64852000E-13

	 4.62638000E-13	 0.00000000E+00	 0.00000000E+00
	 0.00000000E+00	 4.62638000E-13	 0.00000000E+00
	 0.00000000E+00	 0.00000000E+00	 4.62638000E-13

	 4.55997000E-13	 0.00000000E+00	 0.00000000E+00
	 0.00000000E+00	 4.55997000E-13	 0.00000000E+00
	 0.00000000E+00	 0.00000000E+00	 4.55997000E-13

	 4.64852000E-13	 0.00000000E+00	 0.00000000E+00
	 0.00000000E+00	 4.64852000E-13	 0.00000000E+00
	 0.00000000E+00	 0.00000000E+00	 4.64852000E-13

	 4.38289000E-13	 0.00000000E+00	 0.00000000E+00
	 0.00000000E+00	 4.38289000E-13	 0.00000000E+00
	 0.00000000E+00	 0.00000000E+00	 4.38289000E-13

	 4.51570000E-13	 0.00000000E+00	 0.00000000E+00
	 0.00000000E+00	 4.51570000E-13	 0.00000000E+00
	 0.00000000E+00	 0.00000000E+00	 4.51570000E-13

	 4.62638000E-13	 0.00000000E+00	 0.00000000E+00
	 0.00000000E+00	 4.62638000E-13	 0.00000000E+00
	 0.00000000E+00	 0.00000000E+00	 4.62638000E-13

	 4.62638000E-13	 0.00000000E+00	 0.00000000E+00
	 0.00000000E+00	 4.62638000E-13	 0.00000000E+00
	 0.00000000E+00	 0.00000000E+00	 4.62638000E-13

	 4.62638000E-13	 0.00000000E+00	 0.00000000E+00
	 0.00000000E+00	 4.62638000E-13	 0.00000000E+00
	 0.00000000E+00	 0.00000000E+00	 4.62638000E-13

	 4.64852000E-13	 0.00000000E+00	 0.00000000E+00
	 0.00000000E+00	 4.64852000E-13	 0.00000000E+00
	 0.00000000E+00	 0.00000000E+00	 4.64852000E-13

	 4.64852000E-13	 0.00000000E+00	 0.00000000E+00
	 0.00000000E+00	 4.64852000E-13	 0.00000000E+00
	 0.00000000E+00	 0.00000000E+00	 4.64852000E-13

	 4.64852000E-13	 0.00000000E+00	 0.00000000E+00
	 0.00000000E+00	 4.64852000E-13	 0.00000000E+00
	 0.00000000E+00	 0.00000000E+00	 4.64852000E-13

	 4.64852000E-13	 0.00000000E+00	 0.00000000E+00
	 0.00000000E+00	 4.64852000E-13	 0.00000000E+00
	 0.00000000E+00	 0.00000000E+00	 4.64852000E-13

	 4.64852000E-13	 0.00000000E+00	 0.00000000E+00
	 0.00000000E+00	 4.64852000E-13	 0.00000000E+00
	 0.00000000E+00	 0.00000000E+00	 4.64852000E-13

	 4.62638000E-13	 0.00000000E+00	 0.00000000E+00
	 0.00000000E+00	 4.62638000E-13	 0.00000000E+00
	 0.00000000E+00	 0.00000000E+00	 4.62638000E-13

	 4.61057000E-13	 0.00000000E+00	 0.00000000E+00
	 0.00000000E+00	 4.61057000E-13	 0.00000000E+00
	 0.00000000E+00	 0.00000000E+00	 4.61057000E-13

	 4.45878000E-13	 0.00000000E+00	 0.00000000E+00
	 0.00000000E+00	 4.45878000E-13	 0.00000000E+00
	 0.00000000E+00	 0.00000000E+00	 4.45878000E-13

	 4.62638000E-13	 0.00000000E+00	 0.00000000E+00
	 0.00000000E+00	 4.62638000E-13	 0.00000000E+00
	 0.00000000E+00	 0.00000000E+00	 4.62638000E-13

	 4.49357000E-13	 0.00000000E+00	 0.00000000E+00
	 0.00000000E+00	 4.49357000E-13	 0.00000000E+00
	 0.00000000E+00	 0.00000000E+00	 4.49357000E-13

	 4.58211000E-13	 0.00000000E+00	 0.00000000E+00
	 0.00000000E+00	 4.58211000E-13	 0.00000000E+00
	 0.00000000E+00	 0.00000000E+00	 4.58211000E-13

	 4.64852000E-13	 0.00000000E+00	 0.00000000E+00
	 0.00000000E+00	 4.64852000E-13	 0.00000000E+00
	 0.00000000E+00	 0.00000000E+00	 4.64852000E-13

	 4.64852000E-13	 0.00000000E+00	 0.00000000E+00
	 0.00000000E+00	 4.64852000E-13	 0.00000000E+00
	 0.00000000E+00	 0.00000000E+00	 4.64852000E-13

	 4.38289000E-13	 0.00000000E+00	 0.00000000E+00
	 0.00000000E+00	 4.38289000E-13	 0.00000000E+00
	 0.00000000E+00	 0.00000000E+00	 4.38289000E-13

	 4.40502000E-13	 0.00000000E+00	 0.00000000E+00
	 0.00000000E+00	 4.40502000E-13	 0.00000000E+00
	 0.00000000E+00	 0.00000000E+00	 4.40502000E-13

	 4.47143000E-13	 0.00000000E+00	 0.00000000E+00
	 0.00000000E+00	 4.47143000E-13	 0.00000000E+00
	 0.00000000E+00	 0.00000000E+00	 4.47143000E-13

	 4.55997000E-13	 0.00000000E+00	 0.00000000E+00
	 0.00000000E+00	 4.55997000E-13	 0.00000000E+00
	 0.00000000E+00	 0.00000000E+00	 4.55997000E-13

	 4.47143000E-13	 0.00000000E+00	 0.00000000E+00
	 0.00000000E+00	 4.47143000E-13	 0.00000000E+00
	 0.00000000E+00	 0.00000000E+00	 4.47143000E-13

	 4.49357000E-13	 0.00000000E+00	 0.00000000E+00
	 0.00000000E+00	 4.49357000E-13	 0.00000000E+00
	 0.00000000E+00	 0.00000000E+00	 4.49357000E-13

	 4.38289000E-13	 0.00000000E+00	 0.00000000E+00
	 0.00000000E+00	 4.38289000E-13	 0.00000000E+00
	 0.00000000E+00	 0.00000000E+00	 4.38289000E-13

	 4.58211000E-13	 0.00000000E+00	 0.00000000E+00
	 0.00000000E+00	 4.58211000E-13	 0.00000000E+00
	 0.00000000E+00	 0.00000000E+00	 4.58211000E-13

	 4.38289000E-13	 0.00000000E+00	 0.00000000E+00
	 0.00000000E+00	 4.38289000E-13	 0.00000000E+00
	 0.00000000E+00	 0.00000000E+00	 4.38289000E-13

	 4.60425000E-13	 0.00000000E+00	 0.00000000E+00
	 0.00000000E+00	 4.60425000E-13	 0.00000000E+00
	 0.00000000E+00	 0.00000000E+00	 4.60425000E-13

	 4.64852000E-13	 0.00000000E+00	 0.00000000E+00
	 0.00000000E+00	 4.64852000E-13	 0.00000000E+00
	 0.00000000E+00	 0.00000000E+00	 4.64852000E-13

	 4.62638000E-13	 0.00000000E+00	 0.00000000E+00
	 0.00000000E+00	 4.62638000E-13	 0.00000000E+00
	 0.00000000E+00	 0.00000000E+00	 4.62638000E-13

	 4.64852000E-13	 0.00000000E+00	 0.00000000E+00
	 0.00000000E+00	 4.64852000E-13	 0.00000000E+00
	 0.00000000E+00	 0.00000000E+00	 4.64852000E-13

	 4.51570000E-13	 0.00000000E+00	 0.00000000E+00
	 0.00000000E+00	 4.51570000E-13	 0.00000000E+00
	 0.00000000E+00	 0.00000000E+00	 4.51570000E-13

	 4.47143000E-13	 0.00000000E+00	 0.00000000E+00
	 0.00000000E+00	 4.47143000E-13	 0.00000000E+00
	 0.00000000E+00	 0.00000000E+00	 4.47143000E-13

	 4.58211000E-13	 0.00000000E+00	 0.00000000E+00
	 0.00000000E+00	 4.58211000E-13	 0.00000000E+00
	 0.00000000E+00	 0.00000000E+00	 4.58211000E-13

	 4.60425000E-13	 0.00000000E+00	 0.00000000E+00
	 0.00000000E+00	 4.60425000E-13	 0.00000000E+00
	 0.00000000E+00	 0.00000000E+00	 4.60425000E-13

	 4.51570000E-13	 0.00000000E+00	 0.00000000E+00
	 0.00000000E+00	 4.51570000E-13	 0.00000000E+00
	 0.00000000E+00	 0.00000000E+00	 4.51570000E-13

	 4.58211000E-13	 0.00000000E+00	 0.00000000E+00
	 0.00000000E+00	 4.58211000E-13	 0.00000000E+00
	 0.00000000E+00	 0.00000000E+00	 4.58211000E-13

	 4.60425000E-13	 0.00000000E+00	 0.00000000E+00
	 0.00000000E+00	 4.60425000E-13	 0.00000000E+00
	 0.00000000E+00	 0.00000000E+00	 4.60425000E-13

	 4.42716000E-13	 0.00000000E+00	 0.00000000E+00
	 0.00000000E+00	 4.42716000E-13	 0.00000000E+00
	 0.00000000E+00	 0.00000000E+00	 4.42716000E-13

	 4.47143000E-13	 0.00000000E+00	 0.00000000E+00
	 0.00000000E+00	 4.47143000E-13	 0.00000000E+00
	 0.00000000E+00	 0.00000000E+00	 4.47143000E-13

	 4.38289000E-13	 0.00000000E+00	 0.00000000E+00
	 0.00000000E+00	 4.38289000E-13	 0.00000000E+00
	 0.00000000E+00	 0.00000000E+00	 4.38289000E-13

	 4.38289000E-13	 0.00000000E+00	 0.00000000E+00
	 0.00000000E+00	 4.38289000E-13	 0.00000000E+00
	 0.00000000E+00	 0.00000000E+00	 4.38289000E-13

	 4.38289000E-13	 0.00000000E+00	 0.00000000E+00
	 0.00000000E+00	 4.38289000E-13	 0.00000000E+00
	 0.00000000E+00	 0.00000000E+00	 4.38289000E-13

	 4.38289000E-13	 0.00000000E+00	 0.00000000E+00
	 0.00000000E+00	 4.38289000E-13	 0.00000000E+00
	 0.00000000E+00	 0.00000000E+00	 4.38289000E-13

	 4.64852000E-13	 0.00000000E+00	 0.00000000E+00
	 0.00000000E+00	 4.64852000E-13	 0.00000000E+00
	 0.00000000E+00	 0.00000000E+00	 4.64852000E-13

	 4.38289000E-13	 0.00000000E+00	 0.00000000E+00
	 0.00000000E+00	 4.38289000E-13	 0.00000000E+00
	 0.00000000E+00	 0.00000000E+00	 4.38289000E-13

	 4.38289000E-13	 0.00000000E+00	 0.00000000E+00
	 0.00000000E+00	 4.38289000E-13	 0.00000000E+00
	 0.00000000E+00	 0.00000000E+00	 4.38289000E-13

	 4.64852000E-13	 0.00000000E+00	 0.00000000E+00
	 0.00000000E+00	 4.64852000E-13	 0.00000000E+00
	 0.00000000E+00	 0.00000000E+00	 4.64852000E-13

	 4.64852000E-13	 0.00000000E+00	 0.00000000E+00
	 0.00000000E+00	 4.64852000E-13	 0.00000000E+00
	 0.00000000E+00	 0.00000000E+00	 4.64852000E-13

	 4.57262000E-13	 0.00000000E+00	 0.00000000E+00
	 0.00000000E+00	 4.57262000E-13	 0.00000000E+00
	 0.00000000E+00	 0.00000000E+00	 4.57262000E-13

	 4.58211000E-13	 0.00000000E+00	 0.00000000E+00
	 0.00000000E+00	 4.58211000E-13	 0.00000000E+00
	 0.00000000E+00	 0.00000000E+00	 4.58211000E-13

	 4.62638000E-13	 0.00000000E+00	 0.00000000E+00
	 0.00000000E+00	 4.62638000E-13	 0.00000000E+00
	 0.00000000E+00	 0.00000000E+00	 4.62638000E-13

	 4.64852000E-13	 0.00000000E+00	 0.00000000E+00
	 0.00000000E+00	 4.64852000E-13	 0.00000000E+00
	 0.00000000E+00	 0.00000000E+00	 4.64852000E-13

	 4.64852000E-13	 0.00000000E+00	 0.00000000E+00
	 0.00000000E+00	 4.64852000E-13	 0.00000000E+00
	 0.00000000E+00	 0.00000000E+00	 4.64852000E-13

	 4.55997000E-13	 0.00000000E+00	 0.00000000E+00
	 0.00000000E+00	 4.55997000E-13	 0.00000000E+00
	 0.00000000E+00	 0.00000000E+00	 4.55997000E-13

	 4.64852000E-13	 0.00000000E+00	 0.00000000E+00
	 0.00000000E+00	 4.64852000E-13	 0.00000000E+00
	 0.00000000E+00	 0.00000000E+00	 4.64852000E-13

	 4.51570000E-13	 0.00000000E+00	 0.00000000E+00
	 0.00000000E+00	 4.51570000E-13	 0.00000000E+00
	 0.00000000E+00	 0.00000000E+00	 4.51570000E-13

	 4.38289000E-13	 0.00000000E+00	 0.00000000E+00
	 0.00000000E+00	 4.38289000E-13	 0.00000000E+00
	 0.00000000E+00	 0.00000000E+00	 4.38289000E-13

	 4.38289000E-13	 0.00000000E+00	 0.00000000E+00
	 0.00000000E+00	 4.38289000E-13	 0.00000000E+00
	 0.00000000E+00	 0.00000000E+00	 4.38289000E-13

	 4.38289000E-13	 0.00000000E+00	 0.00000000E+00
	 0.00000000E+00	 4.38289000E-13	 0.00000000E+00
	 0.00000000E+00	 0.00000000E+00	 4.38289000E-13

	 4.55997000E-13	 0.00000000E+00	 0.00000000E+00
	 0.00000000E+00	 4.55997000E-13	 0.00000000E+00
	 0.00000000E+00	 0.00000000E+00	 4.55997000E-13

	 4.62954000E-13	 0.00000000E+00	 0.00000000E+00
	 0.00000000E+00	 4.62954000E-13	 0.00000000E+00
	 0.00000000E+00	 0.00000000E+00	 4.62954000E-13

	 4.38289000E-13	 0.00000000E+00	 0.00000000E+00
	 0.00000000E+00	 4.38289000E-13	 0.00000000E+00
	 0.00000000E+00	 0.00000000E+00	 4.38289000E-13

	 4.44929000E-13	 0.00000000E+00	 0.00000000E+00
	 0.00000000E+00	 4.44929000E-13	 0.00000000E+00
	 0.00000000E+00	 0.00000000E+00	 4.44929000E-13

	 4.40502000E-13	 0.00000000E+00	 0.00000000E+00
	 0.00000000E+00	 4.40502000E-13	 0.00000000E+00
	 0.00000000E+00	 0.00000000E+00	 4.40502000E-13

	 4.38289000E-13	 0.00000000E+00	 0.00000000E+00
	 0.00000000E+00	 4.38289000E-13	 0.00000000E+00
	 0.00000000E+00	 0.00000000E+00	 4.38289000E-13

	 4.64852000E-13	 0.00000000E+00	 0.00000000E+00
	 0.00000000E+00	 4.64852000E-13	 0.00000000E+00
	 0.00000000E+00	 0.00000000E+00	 4.64852000E-13

	 4.64852000E-13	 0.00000000E+00	 0.00000000E+00
	 0.00000000E+00	 4.64852000E-13	 0.00000000E+00
	 0.00000000E+00	 0.00000000E+00	 4.64852000E-13

	 4.64852000E-13	 0.00000000E+00	 0.00000000E+00
	 0.00000000E+00	 4.64852000E-13	 0.00000000E+00
	 0.00000000E+00	 0.00000000E+00	 4.64852000E-13

	 4.38289000E-13	 0.00000000E+00	 0.00000000E+00
	 0.00000000E+00	 4.38289000E-13	 0.00000000E+00
	 0.00000000E+00	 0.00000000E+00	 4.38289000E-13

	 4.38289000E-13	 0.00000000E+00	 0.00000000E+00
	 0.00000000E+00	 4.38289000E-13	 0.00000000E+00
	 0.00000000E+00	 0.00000000E+00	 4.38289000E-13

	 4.64852000E-13	 0.00000000E+00	 0.00000000E+00
	 0.00000000E+00	 4.64852000E-13	 0.00000000E+00
	 0.00000000E+00	 0.00000000E+00	 4.64852000E-13

	 4.64852000E-13	 0.00000000E+00	 0.00000000E+00
	 0.00000000E+00	 4.64852000E-13	 0.00000000E+00
	 0.00000000E+00	 0.00000000E+00	 4.64852000E-13

	 4.64852000E-13	 0.00000000E+00	 0.00000000E+00
	 0.00000000E+00	 4.64852000E-13	 0.00000000E+00
	 0.00000000E+00	 0.00000000E+00	 4.64852000E-13

	 4.64852000E-13	 0.00000000E+00	 0.00000000E+00
	 0.00000000E+00	 4.64852000E-13	 0.00000000E+00
	 0.00000000E+00	 0.00000000E+00	 4.64852000E-13

	 4.42716000E-13	 0.00000000E+00	 0.00000000E+00
	 0.00000000E+00	 4.42716000E-13	 0.00000000E+00
	 0.00000000E+00	 0.00000000E+00	 4.42716000E-13

	 4.44929000E-13	 0.00000000E+00	 0.00000000E+00
	 0.00000000E+00	 4.44929000E-13	 0.00000000E+00
	 0.00000000E+00	 0.00000000E+00	 4.44929000E-13

	 4.38289000E-13	 0.00000000E+00	 0.00000000E+00
	 0.00000000E+00	 4.38289000E-13	 0.00000000E+00
	 0.00000000E+00	 0.00000000E+00	 4.38289000E-13

	 4.64852000E-13	 0.00000000E+00	 0.00000000E+00
	 0.00000000E+00	 4.64852000E-13	 0.00000000E+00
	 0.00000000E+00	 0.00000000E+00	 4.64852000E-13

	 4.64852000E-13	 0.00000000E+00	 0.00000000E+00
	 0.00000000E+00	 4.64852000E-13	 0.00000000E+00
	 0.00000000E+00	 0.00000000E+00	 4.64852000E-13

	 4.47143000E-13	 0.00000000E+00	 0.00000000E+00
	 0.00000000E+00	 4.47143000E-13	 0.00000000E+00
	 0.00000000E+00	 0.00000000E+00	 4.47143000E-13

	 4.62638000E-13	 0.00000000E+00	 0.00000000E+00
	 0.00000000E+00	 4.62638000E-13	 0.00000000E+00
	 0.00000000E+00	 0.00000000E+00	 4.62638000E-13

	 4.62638000E-13	 0.00000000E+00	 0.00000000E+00
	 0.00000000E+00	 4.62638000E-13	 0.00000000E+00
	 0.00000000E+00	 0.00000000E+00	 4.62638000E-13

	 4.62954000E-13	 0.00000000E+00	 0.00000000E+00
	 0.00000000E+00	 4.62954000E-13	 0.00000000E+00
	 0.00000000E+00	 0.00000000E+00	 4.62954000E-13

	 4.64852000E-13	 0.00000000E+00	 0.00000000E+00
	 0.00000000E+00	 4.64852000E-13	 0.00000000E+00
	 0.00000000E+00	 0.00000000E+00	 4.64852000E-13

	 4.58211000E-13	 0.00000000E+00	 0.00000000E+00
	 0.00000000E+00	 4.58211000E-13	 0.00000000E+00
	 0.00000000E+00	 0.00000000E+00	 4.58211000E-13

	 4.64852000E-13	 0.00000000E+00	 0.00000000E+00
	 0.00000000E+00	 4.64852000E-13	 0.00000000E+00
	 0.00000000E+00	 0.00000000E+00	 4.64852000E-13

	 4.38289000E-13	 0.00000000E+00	 0.00000000E+00
	 0.00000000E+00	 4.38289000E-13	 0.00000000E+00
	 0.00000000E+00	 0.00000000E+00	 4.38289000E-13

	 4.38289000E-13	 0.00000000E+00	 0.00000000E+00
	 0.00000000E+00	 4.38289000E-13	 0.00000000E+00
	 0.00000000E+00	 0.00000000E+00	 4.38289000E-13

	 4.53784000E-13	 0.00000000E+00	 0.00000000E+00
	 0.00000000E+00	 4.53784000E-13	 0.00000000E+00
	 0.00000000E+00	 0.00000000E+00	 4.53784000E-13

	 4.64852000E-13	 0.00000000E+00	 0.00000000E+00
	 0.00000000E+00	 4.64852000E-13	 0.00000000E+00
	 0.00000000E+00	 0.00000000E+00	 4.64852000E-13

	 4.64852000E-13	 0.00000000E+00	 0.00000000E+00
	 0.00000000E+00	 4.64852000E-13	 0.00000000E+00
	 0.00000000E+00	 0.00000000E+00	 4.64852000E-13

	 4.64852000E-13	 0.00000000E+00	 0.00000000E+00
	 0.00000000E+00	 4.64852000E-13	 0.00000000E+00
	 0.00000000E+00	 0.00000000E+00	 4.64852000E-13

	 4.47143000E-13	 0.00000000E+00	 0.00000000E+00
	 0.00000000E+00	 4.47143000E-13	 0.00000000E+00
	 0.00000000E+00	 0.00000000E+00	 4.47143000E-13

	 4.49357000E-13	 0.00000000E+00	 0.00000000E+00
	 0.00000000E+00	 4.49357000E-13	 0.00000000E+00
	 0.00000000E+00	 0.00000000E+00	 4.49357000E-13

	 4.38289000E-13	 0.00000000E+00	 0.00000000E+00
	 0.00000000E+00	 4.38289000E-13	 0.00000000E+00
	 0.00000000E+00	 0.00000000E+00	 4.38289000E-13

	 4.38289000E-13	 0.00000000E+00	 0.00000000E+00
	 0.00000000E+00	 4.38289000E-13	 0.00000000E+00
	 0.00000000E+00	 0.00000000E+00	 4.38289000E-13

	 4.42716000E-13	 0.00000000E+00	 0.00000000E+00
	 0.00000000E+00	 4.42716000E-13	 0.00000000E+00
	 0.00000000E+00	 0.00000000E+00	 4.42716000E-13

	 4.64852000E-13	 0.00000000E+00	 0.00000000E+00
	 0.00000000E+00	 4.64852000E-13	 0.00000000E+00
	 0.00000000E+00	 0.00000000E+00	 4.64852000E-13

	 4.45878000E-13	 0.00000000E+00	 0.00000000E+00
	 0.00000000E+00	 4.45878000E-13	 0.00000000E+00
	 0.00000000E+00	 0.00000000E+00	 4.45878000E-13

	 4.38289000E-13	 0.00000000E+00	 0.00000000E+00
	 0.00000000E+00	 4.38289000E-13	 0.00000000E+00
	 0.00000000E+00	 0.00000000E+00	 4.38289000E-13

	 4.60425000E-13	 0.00000000E+00	 0.00000000E+00
	 0.00000000E+00	 4.60425000E-13	 0.00000000E+00
	 0.00000000E+00	 0.00000000E+00	 4.60425000E-13

	 4.51570000E-13	 0.00000000E+00	 0.00000000E+00
	 0.00000000E+00	 4.51570000E-13	 0.00000000E+00
	 0.00000000E+00	 0.00000000E+00	 4.51570000E-13

	 4.62638000E-13	 0.00000000E+00	 0.00000000E+00
	 0.00000000E+00	 4.62638000E-13	 0.00000000E+00
	 0.00000000E+00	 0.00000000E+00	 4.62638000E-13

	 4.64852000E-13	 0.00000000E+00	 0.00000000E+00
	 0.00000000E+00	 4.64852000E-13	 0.00000000E+00
	 0.00000000E+00	 0.00000000E+00	 4.64852000E-13

	 4.62638000E-13	 0.00000000E+00	 0.00000000E+00
	 0.00000000E+00	 4.62638000E-13	 0.00000000E+00
	 0.00000000E+00	 0.00000000E+00	 4.62638000E-13

	 4.38289000E-13	 0.00000000E+00	 0.00000000E+00
	 0.00000000E+00	 4.38289000E-13	 0.00000000E+00
	 0.00000000E+00	 0.00000000E+00	 4.38289000E-13

	 4.38289000E-13	 0.00000000E+00	 0.00000000E+00
	 0.00000000E+00	 4.38289000E-13	 0.00000000E+00
	 0.00000000E+00	 0.00000000E+00	 4.38289000E-13

	 4.40502000E-13	 0.00000000E+00	 0.00000000E+00
	 0.00000000E+00	 4.40502000E-13	 0.00000000E+00
	 0.00000000E+00	 0.00000000E+00	 4.40502000E-13

	 4.44929000E-13	 0.00000000E+00	 0.00000000E+00
	 0.00000000E+00	 4.44929000E-13	 0.00000000E+00
	 0.00000000E+00	 0.00000000E+00	 4.44929000E-13

	 4.64852000E-13	 0.00000000E+00	 0.00000000E+00
	 0.00000000E+00	 4.64852000E-13	 0.00000000E+00
	 0.00000000E+00	 0.00000000E+00	 4.64852000E-13

	 4.38289000E-13	 0.00000000E+00	 0.00000000E+00
	 0.00000000E+00	 4.38289000E-13	 0.00000000E+00
	 0.00000000E+00	 0.00000000E+00	 4.38289000E-13

	 4.60425000E-13	 0.00000000E+00	 0.00000000E+00
	 0.00000000E+00	 4.60425000E-13	 0.00000000E+00
	 0.00000000E+00	 0.00000000E+00	 4.60425000E-13

	 4.47143000E-13	 0.00000000E+00	 0.00000000E+00
	 0.00000000E+00	 4.47143000E-13	 0.00000000E+00
	 0.00000000E+00	 0.00000000E+00	 4.47143000E-13

	 4.64852000E-13	 0.00000000E+00	 0.00000000E+00
	 0.00000000E+00	 4.64852000E-13	 0.00000000E+00
	 0.00000000E+00	 0.00000000E+00	 4.64852000E-13

	 4.64852000E-13	 0.00000000E+00	 0.00000000E+00
	 0.00000000E+00	 4.64852000E-13	 0.00000000E+00
	 0.00000000E+00	 0.00000000E+00	 4.64852000E-13

	 4.42716000E-13	 0.00000000E+00	 0.00000000E+00
	 0.00000000E+00	 4.42716000E-13	 0.00000000E+00
	 0.00000000E+00	 0.00000000E+00	 4.42716000E-13

	 4.44929000E-13	 0.00000000E+00	 0.00000000E+00
	 0.00000000E+00	 4.44929000E-13	 0.00000000E+00
	 0.00000000E+00	 0.00000000E+00	 4.44929000E-13

	 4.53784000E-13	 0.00000000E+00	 0.00000000E+00
	 0.00000000E+00	 4.53784000E-13	 0.00000000E+00
	 0.00000000E+00	 0.00000000E+00	 4.53784000E-13

	 4.38289000E-13	 0.00000000E+00	 0.00000000E+00
	 0.00000000E+00	 4.38289000E-13	 0.00000000E+00
	 0.00000000E+00	 0.00000000E+00	 4.38289000E-13

	 4.49357000E-13	 0.00000000E+00	 0.00000000E+00
	 0.00000000E+00	 4.49357000E-13	 0.00000000E+00
	 0.00000000E+00	 0.00000000E+00	 4.49357000E-13

	 4.40502000E-13	 0.00000000E+00	 0.00000000E+00
	 0.00000000E+00	 4.40502000E-13	 0.00000000E+00
	 0.00000000E+00	 0.00000000E+00	 4.40502000E-13

	 4.38289000E-13	 0.00000000E+00	 0.00000000E+00
	 0.00000000E+00	 4.38289000E-13	 0.00000000E+00
	 0.00000000E+00	 0.00000000E+00	 4.38289000E-13

	 4.64852000E-13	 0.00000000E+00	 0.00000000E+00
	 0.00000000E+00	 4.64852000E-13	 0.00000000E+00
	 0.00000000E+00	 0.00000000E+00	 4.64852000E-13

	 4.47143000E-13	 0.00000000E+00	 0.00000000E+00
	 0.00000000E+00	 4.47143000E-13	 0.00000000E+00
	 0.00000000E+00	 0.00000000E+00	 4.47143000E-13

	 4.60425000E-13	 0.00000000E+00	 0.00000000E+00
	 0.00000000E+00	 4.60425000E-13	 0.00000000E+00
	 0.00000000E+00	 0.00000000E+00	 4.60425000E-13

	 4.42716000E-13	 0.00000000E+00	 0.00000000E+00
	 0.00000000E+00	 4.42716000E-13	 0.00000000E+00
	 0.00000000E+00	 0.00000000E+00	 4.42716000E-13

	 4.38289000E-13	 0.00000000E+00	 0.00000000E+00
	 0.00000000E+00	 4.38289000E-13	 0.00000000E+00
	 0.00000000E+00	 0.00000000E+00	 4.38289000E-13

	 4.38289000E-13	 0.00000000E+00	 0.00000000E+00
	 0.00000000E+00	 4.38289000E-13	 0.00000000E+00
	 0.00000000E+00	 0.00000000E+00	 4.38289000E-13

	 4.40502000E-13	 0.00000000E+00	 0.00000000E+00
	 0.00000000E+00	 4.40502000E-13	 0.00000000E+00
	 0.00000000E+00	 0.00000000E+00	 4.40502000E-13

	 4.64852000E-13	 0.00000000E+00	 0.00000000E+00
	 0.00000000E+00	 4.64852000E-13	 0.00000000E+00
	 0.00000000E+00	 0.00000000E+00	 4.64852000E-13

	 4.55997000E-13	 0.00000000E+00	 0.00000000E+00
	 0.00000000E+00	 4.55997000E-13	 0.00000000E+00
	 0.00000000E+00	 0.00000000E+00	 4.55997000E-13

	 4.53468000E-13	 0.00000000E+00	 0.00000000E+00
	 0.00000000E+00	 4.53468000E-13	 0.00000000E+00
	 0.00000000E+00	 0.00000000E+00	 4.53468000E-13

	 4.61057000E-13	 0.00000000E+00	 0.00000000E+00
	 0.00000000E+00	 4.61057000E-13	 0.00000000E+00
	 0.00000000E+00	 0.00000000E+00	 4.61057000E-13

	 4.64852000E-13	 0.00000000E+00	 0.00000000E+00
	 0.00000000E+00	 4.64852000E-13	 0.00000000E+00
	 0.00000000E+00	 0.00000000E+00	 4.64852000E-13

	 4.38289000E-13	 0.00000000E+00	 0.00000000E+00
	 0.00000000E+00	 4.38289000E-13	 0.00000000E+00
	 0.00000000E+00	 0.00000000E+00	 4.38289000E-13

	 4.40502000E-13	 0.00000000E+00	 0.00000000E+00
	 0.00000000E+00	 4.40502000E-13	 0.00000000E+00
	 0.00000000E+00	 0.00000000E+00	 4.40502000E-13

	 4.60425000E-13	 0.00000000E+00	 0.00000000E+00
	 0.00000000E+00	 4.60425000E-13	 0.00000000E+00
	 0.00000000E+00	 0.00000000E+00	 4.60425000E-13

	 4.51570000E-13	 0.00000000E+00	 0.00000000E+00
	 0.00000000E+00	 4.51570000E-13	 0.00000000E+00
	 0.00000000E+00	 0.00000000E+00	 4.51570000E-13

	 4.49357000E-13	 0.00000000E+00	 0.00000000E+00
	 0.00000000E+00	 4.49357000E-13	 0.00000000E+00
	 0.00000000E+00	 0.00000000E+00	 4.49357000E-13

	 4.38289000E-13	 0.00000000E+00	 0.00000000E+00
	 0.00000000E+00	 4.38289000E-13	 0.00000000E+00
	 0.00000000E+00	 0.00000000E+00	 4.38289000E-13

	 4.51570000E-13	 0.00000000E+00	 0.00000000E+00
	 0.00000000E+00	 4.51570000E-13	 0.00000000E+00
	 0.00000000E+00	 0.00000000E+00	 4.51570000E-13

	 4.38289000E-13	 0.00000000E+00	 0.00000000E+00
	 0.00000000E+00	 4.38289000E-13	 0.00000000E+00
	 0.00000000E+00	 0.00000000E+00	 4.38289000E-13

	 4.42716000E-13	 0.00000000E+00	 0.00000000E+00
	 0.00000000E+00	 4.42716000E-13	 0.00000000E+00
	 0.00000000E+00	 0.00000000E+00	 4.42716000E-13

	 4.62638000E-13	 0.00000000E+00	 0.00000000E+00
	 0.00000000E+00	 4.62638000E-13	 0.00000000E+00
	 0.00000000E+00	 0.00000000E+00	 4.62638000E-13

	 4.38289000E-13	 0.00000000E+00	 0.00000000E+00
	 0.00000000E+00	 4.38289000E-13	 0.00000000E+00
	 0.00000000E+00	 0.00000000E+00	 4.38289000E-13

	 4.59160000E-13	 0.00000000E+00	 0.00000000E+00
	 0.00000000E+00	 4.59160000E-13	 0.00000000E+00
	 0.00000000E+00	 0.00000000E+00	 4.59160000E-13

	 4.47143000E-13	 0.00000000E+00	 0.00000000E+00
	 0.00000000E+00	 4.47143000E-13	 0.00000000E+00
	 0.00000000E+00	 0.00000000E+00	 4.47143000E-13

	 4.47143000E-13	 0.00000000E+00	 0.00000000E+00
	 0.00000000E+00	 4.47143000E-13	 0.00000000E+00
	 0.00000000E+00	 0.00000000E+00	 4.47143000E-13

	 4.38289000E-13	 0.00000000E+00	 0.00000000E+00
	 0.00000000E+00	 4.38289000E-13	 0.00000000E+00
	 0.00000000E+00	 0.00000000E+00	 4.38289000E-13

	 4.64852000E-13	 0.00000000E+00	 0.00000000E+00
	 0.00000000E+00	 4.64852000E-13	 0.00000000E+00
	 0.00000000E+00	 0.00000000E+00	 4.64852000E-13

	 4.47775000E-13	 0.00000000E+00	 0.00000000E+00
	 0.00000000E+00	 4.47775000E-13	 0.00000000E+00
	 0.00000000E+00	 0.00000000E+00	 4.47775000E-13

	 4.60425000E-13	 0.00000000E+00	 0.00000000E+00
	 0.00000000E+00	 4.60425000E-13	 0.00000000E+00
	 0.00000000E+00	 0.00000000E+00	 4.60425000E-13

	 4.42716000E-13	 0.00000000E+00	 0.00000000E+00
	 0.00000000E+00	 4.42716000E-13	 0.00000000E+00
	 0.00000000E+00	 0.00000000E+00	 4.42716000E-13

	 4.38289000E-13	 0.00000000E+00	 0.00000000E+00
	 0.00000000E+00	 4.38289000E-13	 0.00000000E+00
	 0.00000000E+00	 0.00000000E+00	 4.38289000E-13

	 4.42716000E-13	 0.00000000E+00	 0.00000000E+00
	 0.00000000E+00	 4.42716000E-13	 0.00000000E+00
	 0.00000000E+00	 0.00000000E+00	 4.42716000E-13

	 4.42716000E-13	 0.00000000E+00	 0.00000000E+00
	 0.00000000E+00	 4.42716000E-13	 0.00000000E+00
	 0.00000000E+00	 0.00000000E+00	 4.42716000E-13

	 4.64852000E-13	 0.00000000E+00	 0.00000000E+00
	 0.00000000E+00	 4.64852000E-13	 0.00000000E+00
	 0.00000000E+00	 0.00000000E+00	 4.64852000E-13

	 4.64852000E-13	 0.00000000E+00	 0.00000000E+00
	 0.00000000E+00	 4.64852000E-13	 0.00000000E+00
	 0.00000000E+00	 0.00000000E+00	 4.64852000E-13

	 4.49673000E-13	 0.00000000E+00	 0.00000000E+00
	 0.00000000E+00	 4.49673000E-13	 0.00000000E+00
	 0.00000000E+00	 0.00000000E+00	 4.49673000E-13

	 4.47775000E-13	 0.00000000E+00	 0.00000000E+00
	 0.00000000E+00	 4.47775000E-13	 0.00000000E+00
	 0.00000000E+00	 0.00000000E+00	 4.47775000E-13

	 4.64852000E-13	 0.00000000E+00	 0.00000000E+00
	 0.00000000E+00	 4.64852000E-13	 0.00000000E+00
	 0.00000000E+00	 0.00000000E+00	 4.64852000E-13

	 4.38289000E-13	 0.00000000E+00	 0.00000000E+00
	 0.00000000E+00	 4.38289000E-13	 0.00000000E+00
	 0.00000000E+00	 0.00000000E+00	 4.38289000E-13

	 4.38289000E-13	 0.00000000E+00	 0.00000000E+00
	 0.00000000E+00	 4.38289000E-13	 0.00000000E+00
	 0.00000000E+00	 0.00000000E+00	 4.38289000E-13

	 4.55997000E-13	 0.00000000E+00	 0.00000000E+00
	 0.00000000E+00	 4.55997000E-13	 0.00000000E+00
	 0.00000000E+00	 0.00000000E+00	 4.55997000E-13

	 4.64852000E-13	 0.00000000E+00	 0.00000000E+00
	 0.00000000E+00	 4.64852000E-13	 0.00000000E+00
	 0.00000000E+00	 0.00000000E+00	 4.64852000E-13

	 4.38289000E-13	 0.00000000E+00	 0.00000000E+00
	 0.00000000E+00	 4.38289000E-13	 0.00000000E+00
	 0.00000000E+00	 0.00000000E+00	 4.38289000E-13

	 4.64852000E-13	 0.00000000E+00	 0.00000000E+00
	 0.00000000E+00	 4.64852000E-13	 0.00000000E+00
	 0.00000000E+00	 0.00000000E+00	 4.64852000E-13

	 4.38289000E-13	 0.00000000E+00	 0.00000000E+00
	 0.00000000E+00	 4.38289000E-13	 0.00000000E+00
	 0.00000000E+00	 0.00000000E+00	 4.38289000E-13

	 4.64852000E-13	 0.00000000E+00	 0.00000000E+00
	 0.00000000E+00	 4.64852000E-13	 0.00000000E+00
	 0.00000000E+00	 0.00000000E+00	 4.64852000E-13

	 4.42716000E-13	 0.00000000E+00	 0.00000000E+00
	 0.00000000E+00	 4.42716000E-13	 0.00000000E+00
	 0.00000000E+00	 0.00000000E+00	 4.42716000E-13

	 4.64852000E-13	 0.00000000E+00	 0.00000000E+00
	 0.00000000E+00	 4.64852000E-13	 0.00000000E+00
	 0.00000000E+00	 0.00000000E+00	 4.64852000E-13

	 4.38289000E-13	 0.00000000E+00	 0.00000000E+00
	 0.00000000E+00	 4.38289000E-13	 0.00000000E+00
	 0.00000000E+00	 0.00000000E+00	 4.38289000E-13

	 4.38289000E-13	 0.00000000E+00	 0.00000000E+00
	 0.00000000E+00	 4.38289000E-13	 0.00000000E+00
	 0.00000000E+00	 0.00000000E+00	 4.38289000E-13

	 4.64852000E-13	 0.00000000E+00	 0.00000000E+00
	 0.00000000E+00	 4.64852000E-13	 0.00000000E+00
	 0.00000000E+00	 0.00000000E+00	 4.64852000E-13

	 4.64852000E-13	 0.00000000E+00	 0.00000000E+00
	 0.00000000E+00	 4.64852000E-13	 0.00000000E+00
	 0.00000000E+00	 0.00000000E+00	 4.64852000E-13

	 4.64852000E-13	 0.00000000E+00	 0.00000000E+00
	 0.00000000E+00	 4.64852000E-13	 0.00000000E+00
	 0.00000000E+00	 0.00000000E+00	 4.64852000E-13

	 4.42083000E-13	 0.00000000E+00	 0.00000000E+00
	 0.00000000E+00	 4.42083000E-13	 0.00000000E+00
	 0.00000000E+00	 0.00000000E+00	 4.42083000E-13

	 4.64852000E-13	 0.00000000E+00	 0.00000000E+00
	 0.00000000E+00	 4.64852000E-13	 0.00000000E+00
	 0.00000000E+00	 0.00000000E+00	 4.64852000E-13

	 4.64852000E-13	 0.00000000E+00	 0.00000000E+00
	 0.00000000E+00	 4.64852000E-13	 0.00000000E+00
	 0.00000000E+00	 0.00000000E+00	 4.64852000E-13

	 4.55997000E-13	 0.00000000E+00	 0.00000000E+00
	 0.00000000E+00	 4.55997000E-13	 0.00000000E+00
	 0.00000000E+00	 0.00000000E+00	 4.55997000E-13

	 4.38289000E-13	 0.00000000E+00	 0.00000000E+00
	 0.00000000E+00	 4.38289000E-13	 0.00000000E+00
	 0.00000000E+00	 0.00000000E+00	 4.38289000E-13

	 4.64852000E-13	 0.00000000E+00	 0.00000000E+00
	 0.00000000E+00	 4.64852000E-13	 0.00000000E+00
	 0.00000000E+00	 0.00000000E+00	 4.64852000E-13

	 4.64852000E-13	 0.00000000E+00	 0.00000000E+00
	 0.00000000E+00	 4.64852000E-13	 0.00000000E+00
	 0.00000000E+00	 0.00000000E+00	 4.64852000E-13

	 4.38289000E-13	 0.00000000E+00	 0.00000000E+00
	 0.00000000E+00	 4.38289000E-13	 0.00000000E+00
	 0.00000000E+00	 0.00000000E+00	 4.38289000E-13

	 4.49357000E-13	 0.00000000E+00	 0.00000000E+00
	 0.00000000E+00	 4.49357000E-13	 0.00000000E+00
	 0.00000000E+00	 0.00000000E+00	 4.49357000E-13

	 4.49357000E-13	 0.00000000E+00	 0.00000000E+00
	 0.00000000E+00	 4.49357000E-13	 0.00000000E+00
	 0.00000000E+00	 0.00000000E+00	 4.49357000E-13

	 4.38289000E-13	 0.00000000E+00	 0.00000000E+00
	 0.00000000E+00	 4.38289000E-13	 0.00000000E+00
	 0.00000000E+00	 0.00000000E+00	 4.38289000E-13

	 4.64852000E-13	 0.00000000E+00	 0.00000000E+00
	 0.00000000E+00	 4.64852000E-13	 0.00000000E+00
	 0.00000000E+00	 0.00000000E+00	 4.64852000E-13

	 4.64852000E-13	 0.00000000E+00	 0.00000000E+00
	 0.00000000E+00	 4.64852000E-13	 0.00000000E+00
	 0.00000000E+00	 0.00000000E+00	 4.64852000E-13

	 4.38289000E-13	 0.00000000E+00	 0.00000000E+00
	 0.00000000E+00	 4.38289000E-13	 0.00000000E+00
	 0.00000000E+00	 0.00000000E+00	 4.38289000E-13

	 4.49357000E-13	 0.00000000E+00	 0.00000000E+00
	 0.00000000E+00	 4.49357000E-13	 0.00000000E+00
	 0.00000000E+00	 0.00000000E+00	 4.49357000E-13

	 4.38289000E-13	 0.00000000E+00	 0.00000000E+00
	 0.00000000E+00	 4.38289000E-13	 0.00000000E+00
	 0.00000000E+00	 0.00000000E+00	 4.38289000E-13

	 4.38289000E-13	 0.00000000E+00	 0.00000000E+00
	 0.00000000E+00	 4.38289000E-13	 0.00000000E+00
	 0.00000000E+00	 0.00000000E+00	 4.38289000E-13

	 4.49357000E-13	 0.00000000E+00	 0.00000000E+00
	 0.00000000E+00	 4.49357000E-13	 0.00000000E+00
	 0.00000000E+00	 0.00000000E+00	 4.49357000E-13

	 4.53784000E-13	 0.00000000E+00	 0.00000000E+00
	 0.00000000E+00	 4.53784000E-13	 0.00000000E+00
	 0.00000000E+00	 0.00000000E+00	 4.53784000E-13

	 4.42716000E-13	 0.00000000E+00	 0.00000000E+00
	 0.00000000E+00	 4.42716000E-13	 0.00000000E+00
	 0.00000000E+00	 0.00000000E+00	 4.42716000E-13

	 4.49673000E-13	 0.00000000E+00	 0.00000000E+00
	 0.00000000E+00	 4.49673000E-13	 0.00000000E+00
	 0.00000000E+00	 0.00000000E+00	 4.49673000E-13

	 4.38289000E-13	 0.00000000E+00	 0.00000000E+00
	 0.00000000E+00	 4.38289000E-13	 0.00000000E+00
	 0.00000000E+00	 0.00000000E+00	 4.38289000E-13

	 4.58211000E-13	 0.00000000E+00	 0.00000000E+00
	 0.00000000E+00	 4.58211000E-13	 0.00000000E+00
	 0.00000000E+00	 0.00000000E+00	 4.58211000E-13

	 4.51570000E-13	 0.00000000E+00	 0.00000000E+00
	 0.00000000E+00	 4.51570000E-13	 0.00000000E+00
	 0.00000000E+00	 0.00000000E+00	 4.51570000E-13

	 4.42083000E-13	 0.00000000E+00	 0.00000000E+00
	 0.00000000E+00	 4.42083000E-13	 0.00000000E+00
	 0.00000000E+00	 0.00000000E+00	 4.42083000E-13

	 4.64852000E-13	 0.00000000E+00	 0.00000000E+00
	 0.00000000E+00	 4.64852000E-13	 0.00000000E+00
	 0.00000000E+00	 0.00000000E+00	 4.64852000E-13

	 4.58211000E-13	 0.00000000E+00	 0.00000000E+00
	 0.00000000E+00	 4.58211000E-13	 0.00000000E+00
	 0.00000000E+00	 0.00000000E+00	 4.58211000E-13

	 4.64852000E-13	 0.00000000E+00	 0.00000000E+00
	 0.00000000E+00	 4.64852000E-13	 0.00000000E+00
	 0.00000000E+00	 0.00000000E+00	 4.64852000E-13

	 4.64852000E-13	 0.00000000E+00	 0.00000000E+00
	 0.00000000E+00	 4.64852000E-13	 0.00000000E+00
	 0.00000000E+00	 0.00000000E+00	 4.64852000E-13

	 4.40502000E-13	 0.00000000E+00	 0.00000000E+00
	 0.00000000E+00	 4.40502000E-13	 0.00000000E+00
	 0.00000000E+00	 0.00000000E+00	 4.40502000E-13

	 4.38289000E-13	 0.00000000E+00	 0.00000000E+00
	 0.00000000E+00	 4.38289000E-13	 0.00000000E+00
	 0.00000000E+00	 0.00000000E+00	 4.38289000E-13

	 4.64852000E-13	 0.00000000E+00	 0.00000000E+00
	 0.00000000E+00	 4.64852000E-13	 0.00000000E+00
	 0.00000000E+00	 0.00000000E+00	 4.64852000E-13

	 4.64852000E-13	 0.00000000E+00	 0.00000000E+00
	 0.00000000E+00	 4.64852000E-13	 0.00000000E+00
	 0.00000000E+00	 0.00000000E+00	 4.64852000E-13

	 4.64852000E-13	 0.00000000E+00	 0.00000000E+00
	 0.00000000E+00	 4.64852000E-13	 0.00000000E+00
	 0.00000000E+00	 0.00000000E+00	 4.64852000E-13

	 4.45878000E-13	 0.00000000E+00	 0.00000000E+00
	 0.00000000E+00	 4.45878000E-13	 0.00000000E+00
	 0.00000000E+00	 0.00000000E+00	 4.45878000E-13

	 4.38289000E-13	 0.00000000E+00	 0.00000000E+00
	 0.00000000E+00	 4.38289000E-13	 0.00000000E+00
	 0.00000000E+00	 0.00000000E+00	 4.38289000E-13

	 4.64852000E-13	 0.00000000E+00	 0.00000000E+00
	 0.00000000E+00	 4.64852000E-13	 0.00000000E+00
	 0.00000000E+00	 0.00000000E+00	 4.64852000E-13

	 4.64852000E-13	 0.00000000E+00	 0.00000000E+00
	 0.00000000E+00	 4.64852000E-13	 0.00000000E+00
	 0.00000000E+00	 0.00000000E+00	 4.64852000E-13

	 4.38289000E-13	 0.00000000E+00	 0.00000000E+00
	 0.00000000E+00	 4.38289000E-13	 0.00000000E+00
	 0.00000000E+00	 0.00000000E+00	 4.38289000E-13

	 4.61057000E-13	 0.00000000E+00	 0.00000000E+00
	 0.00000000E+00	 4.61057000E-13	 0.00000000E+00
	 0.00000000E+00	 0.00000000E+00	 4.61057000E-13

	 4.64852000E-13	 0.00000000E+00	 0.00000000E+00
	 0.00000000E+00	 4.64852000E-13	 0.00000000E+00
	 0.00000000E+00	 0.00000000E+00	 4.64852000E-13

	 4.38289000E-13	 0.00000000E+00	 0.00000000E+00
	 0.00000000E+00	 4.38289000E-13	 0.00000000E+00
	 0.00000000E+00	 0.00000000E+00	 4.38289000E-13

	 4.53784000E-13	 0.00000000E+00	 0.00000000E+00
	 0.00000000E+00	 4.53784000E-13	 0.00000000E+00
	 0.00000000E+00	 0.00000000E+00	 4.53784000E-13

	 4.64852000E-13	 0.00000000E+00	 0.00000000E+00
	 0.00000000E+00	 4.64852000E-13	 0.00000000E+00
	 0.00000000E+00	 0.00000000E+00	 4.64852000E-13

	 4.62638000E-13	 0.00000000E+00	 0.00000000E+00
	 0.00000000E+00	 4.62638000E-13	 0.00000000E+00
	 0.00000000E+00	 0.00000000E+00	 4.62638000E-13

	 4.38289000E-13	 0.00000000E+00	 0.00000000E+00
	 0.00000000E+00	 4.38289000E-13	 0.00000000E+00
	 0.00000000E+00	 0.00000000E+00	 4.38289000E-13

	 4.64852000E-13	 0.00000000E+00	 0.00000000E+00
	 0.00000000E+00	 4.64852000E-13	 0.00000000E+00
	 0.00000000E+00	 0.00000000E+00	 4.64852000E-13

	 4.64852000E-13	 0.00000000E+00	 0.00000000E+00
	 0.00000000E+00	 4.64852000E-13	 0.00000000E+00
	 0.00000000E+00	 0.00000000E+00	 4.64852000E-13

	 4.64852000E-13	 0.00000000E+00	 0.00000000E+00
	 0.00000000E+00	 4.64852000E-13	 0.00000000E+00
	 0.00000000E+00	 0.00000000E+00	 4.64852000E-13

	 4.64852000E-13	 0.00000000E+00	 0.00000000E+00
	 0.00000000E+00	 4.64852000E-13	 0.00000000E+00
	 0.00000000E+00	 0.00000000E+00	 4.64852000E-13

	 4.49357000E-13	 0.00000000E+00	 0.00000000E+00
	 0.00000000E+00	 4.49357000E-13	 0.00000000E+00
	 0.00000000E+00	 0.00000000E+00	 4.49357000E-13

	 4.53784000E-13	 0.00000000E+00	 0.00000000E+00
	 0.00000000E+00	 4.53784000E-13	 0.00000000E+00
	 0.00000000E+00	 0.00000000E+00	 4.53784000E-13

	 4.38289000E-13	 0.00000000E+00	 0.00000000E+00
	 0.00000000E+00	 4.38289000E-13	 0.00000000E+00
	 0.00000000E+00	 0.00000000E+00	 4.38289000E-13

	 4.55997000E-13	 0.00000000E+00	 0.00000000E+00
	 0.00000000E+00	 4.55997000E-13	 0.00000000E+00
	 0.00000000E+00	 0.00000000E+00	 4.55997000E-13

	 4.53784000E-13	 0.00000000E+00	 0.00000000E+00
	 0.00000000E+00	 4.53784000E-13	 0.00000000E+00
	 0.00000000E+00	 0.00000000E+00	 4.53784000E-13

	 4.38289000E-13	 0.00000000E+00	 0.00000000E+00
	 0.00000000E+00	 4.38289000E-13	 0.00000000E+00
	 0.00000000E+00	 0.00000000E+00	 4.38289000E-13

	 4.64852000E-13	 0.00000000E+00	 0.00000000E+00
	 0.00000000E+00	 4.64852000E-13	 0.00000000E+00
	 0.00000000E+00	 0.00000000E+00	 4.64852000E-13

	 4.64852000E-13	 0.00000000E+00	 0.00000000E+00
	 0.00000000E+00	 4.64852000E-13	 0.00000000E+00
	 0.00000000E+00	 0.00000000E+00	 4.64852000E-13

	 4.38289000E-13	 0.00000000E+00	 0.00000000E+00
	 0.00000000E+00	 4.38289000E-13	 0.00000000E+00
	 0.00000000E+00	 0.00000000E+00	 4.38289000E-13

	 4.64852000E-13	 0.00000000E+00	 0.00000000E+00
	 0.00000000E+00	 4.64852000E-13	 0.00000000E+00
	 0.00000000E+00	 0.00000000E+00	 4.64852000E-13

	 4.64852000E-13	 0.00000000E+00	 0.00000000E+00
	 0.00000000E+00	 4.64852000E-13	 0.00000000E+00
	 0.00000000E+00	 0.00000000E+00	 4.64852000E-13

	 4.58211000E-13	 0.00000000E+00	 0.00000000E+00
	 0.00000000E+00	 4.58211000E-13	 0.00000000E+00
	 0.00000000E+00	 0.00000000E+00	 4.58211000E-13

	 4.38289000E-13	 0.00000000E+00	 0.00000000E+00
	 0.00000000E+00	 4.38289000E-13	 0.00000000E+00
	 0.00000000E+00	 0.00000000E+00	 4.38289000E-13

	 4.44929000E-13	 0.00000000E+00	 0.00000000E+00
	 0.00000000E+00	 4.44929000E-13	 0.00000000E+00
	 0.00000000E+00	 0.00000000E+00	 4.44929000E-13

	 4.64852000E-13	 0.00000000E+00	 0.00000000E+00
	 0.00000000E+00	 4.64852000E-13	 0.00000000E+00
	 0.00000000E+00	 0.00000000E+00	 4.64852000E-13

	 4.64852000E-13	 0.00000000E+00	 0.00000000E+00
	 0.00000000E+00	 4.64852000E-13	 0.00000000E+00
	 0.00000000E+00	 0.00000000E+00	 4.64852000E-13

	 4.62638000E-13	 0.00000000E+00	 0.00000000E+00
	 0.00000000E+00	 4.62638000E-13	 0.00000000E+00
	 0.00000000E+00	 0.00000000E+00	 4.62638000E-13

	 4.64852000E-13	 0.00000000E+00	 0.00000000E+00
	 0.00000000E+00	 4.64852000E-13	 0.00000000E+00
	 0.00000000E+00	 0.00000000E+00	 4.64852000E-13

	 4.38289000E-13	 0.00000000E+00	 0.00000000E+00
	 0.00000000E+00	 4.38289000E-13	 0.00000000E+00
	 0.00000000E+00	 0.00000000E+00	 4.38289000E-13

	 4.38289000E-13	 0.00000000E+00	 0.00000000E+00
	 0.00000000E+00	 4.38289000E-13	 0.00000000E+00
	 0.00000000E+00	 0.00000000E+00	 4.38289000E-13

	 4.62638000E-13	 0.00000000E+00	 0.00000000E+00
	 0.00000000E+00	 4.62638000E-13	 0.00000000E+00
	 0.00000000E+00	 0.00000000E+00	 4.62638000E-13

	 4.55997000E-13	 0.00000000E+00	 0.00000000E+00
	 0.00000000E+00	 4.55997000E-13	 0.00000000E+00
	 0.00000000E+00	 0.00000000E+00	 4.55997000E-13

	 4.64852000E-13	 0.00000000E+00	 0.00000000E+00
	 0.00000000E+00	 4.64852000E-13	 0.00000000E+00
	 0.00000000E+00	 0.00000000E+00	 4.64852000E-13

	 4.64852000E-13	 0.00000000E+00	 0.00000000E+00
	 0.00000000E+00	 4.64852000E-13	 0.00000000E+00
	 0.00000000E+00	 0.00000000E+00	 4.64852000E-13

	 4.53784000E-13	 0.00000000E+00	 0.00000000E+00
	 0.00000000E+00	 4.53784000E-13	 0.00000000E+00
	 0.00000000E+00	 0.00000000E+00	 4.53784000E-13

	 4.38289000E-13	 0.00000000E+00	 0.00000000E+00
	 0.00000000E+00	 4.38289000E-13	 0.00000000E+00
	 0.00000000E+00	 0.00000000E+00	 4.38289000E-13

	 4.38289000E-13	 0.00000000E+00	 0.00000000E+00
	 0.00000000E+00	 4.38289000E-13	 0.00000000E+00
	 0.00000000E+00	 0.00000000E+00	 4.38289000E-13

	 4.64852000E-13	 0.00000000E+00	 0.00000000E+00
	 0.00000000E+00	 4.64852000E-13	 0.00000000E+00
	 0.00000000E+00	 0.00000000E+00	 4.64852000E-13

	 4.64852000E-13	 0.00000000E+00	 0.00000000E+00
	 0.00000000E+00	 4.64852000E-13	 0.00000000E+00
	 0.00000000E+00	 0.00000000E+00	 4.64852000E-13

	 4.42083000E-13	 0.00000000E+00	 0.00000000E+00
	 0.00000000E+00	 4.42083000E-13	 0.00000000E+00
	 0.00000000E+00	 0.00000000E+00	 4.42083000E-13

	 4.64852000E-13	 0.00000000E+00	 0.00000000E+00
	 0.00000000E+00	 4.64852000E-13	 0.00000000E+00
	 0.00000000E+00	 0.00000000E+00	 4.64852000E-13

	 4.64852000E-13	 0.00000000E+00	 0.00000000E+00
	 0.00000000E+00	 4.64852000E-13	 0.00000000E+00
	 0.00000000E+00	 0.00000000E+00	 4.64852000E-13

	 4.64852000E-13	 0.00000000E+00	 0.00000000E+00
	 0.00000000E+00	 4.64852000E-13	 0.00000000E+00
	 0.00000000E+00	 0.00000000E+00	 4.64852000E-13

	 4.38289000E-13	 0.00000000E+00	 0.00000000E+00
	 0.00000000E+00	 4.38289000E-13	 0.00000000E+00
	 0.00000000E+00	 0.00000000E+00	 4.38289000E-13

	 4.64852000E-13	 0.00000000E+00	 0.00000000E+00
	 0.00000000E+00	 4.64852000E-13	 0.00000000E+00
	 0.00000000E+00	 0.00000000E+00	 4.64852000E-13

	 4.64852000E-13	 0.00000000E+00	 0.00000000E+00
	 0.00000000E+00	 4.64852000E-13	 0.00000000E+00
	 0.00000000E+00	 0.00000000E+00	 4.64852000E-13

	 4.64852000E-13	 0.00000000E+00	 0.00000000E+00
	 0.00000000E+00	 4.64852000E-13	 0.00000000E+00
	 0.00000000E+00	 0.00000000E+00	 4.64852000E-13

	 4.38289000E-13	 0.00000000E+00	 0.00000000E+00
	 0.00000000E+00	 4.38289000E-13	 0.00000000E+00
	 0.00000000E+00	 0.00000000E+00	 4.38289000E-13

	 4.60425000E-13	 0.00000000E+00	 0.00000000E+00
	 0.00000000E+00	 4.60425000E-13	 0.00000000E+00
	 0.00000000E+00	 0.00000000E+00	 4.60425000E-13

	 4.64852000E-13	 0.00000000E+00	 0.00000000E+00
	 0.00000000E+00	 4.64852000E-13	 0.00000000E+00
	 0.00000000E+00	 0.00000000E+00	 4.64852000E-13

	 4.42716000E-13	 0.00000000E+00	 0.00000000E+00
	 0.00000000E+00	 4.42716000E-13	 0.00000000E+00
	 0.00000000E+00	 0.00000000E+00	 4.42716000E-13

	 4.42083000E-13	 0.00000000E+00	 0.00000000E+00
	 0.00000000E+00	 4.42083000E-13	 0.00000000E+00
	 0.00000000E+00	 0.00000000E+00	 4.42083000E-13

	 4.64852000E-13	 0.00000000E+00	 0.00000000E+00
	 0.00000000E+00	 4.64852000E-13	 0.00000000E+00
	 0.00000000E+00	 0.00000000E+00	 4.64852000E-13

	 4.64852000E-13	 0.00000000E+00	 0.00000000E+00
	 0.00000000E+00	 4.64852000E-13	 0.00000000E+00
	 0.00000000E+00	 0.00000000E+00	 4.64852000E-13

	 4.64852000E-13	 0.00000000E+00	 0.00000000E+00
	 0.00000000E+00	 4.64852000E-13	 0.00000000E+00
	 0.00000000E+00	 0.00000000E+00	 4.64852000E-13

	 4.42716000E-13	 0.00000000E+00	 0.00000000E+00
	 0.00000000E+00	 4.42716000E-13	 0.00000000E+00
	 0.00000000E+00	 0.00000000E+00	 4.42716000E-13

	 4.38289000E-13	 0.00000000E+00	 0.00000000E+00
	 0.00000000E+00	 4.38289000E-13	 0.00000000E+00
	 0.00000000E+00	 0.00000000E+00	 4.38289000E-13

	 4.55997000E-13	 0.00000000E+00	 0.00000000E+00
	 0.00000000E+00	 4.55997000E-13	 0.00000000E+00
	 0.00000000E+00	 0.00000000E+00	 4.55997000E-13

	 4.38289000E-13	 0.00000000E+00	 0.00000000E+00
	 0.00000000E+00	 4.38289000E-13	 0.00000000E+00
	 0.00000000E+00	 0.00000000E+00	 4.38289000E-13

	 4.64852000E-13	 0.00000000E+00	 0.00000000E+00
	 0.00000000E+00	 4.64852000E-13	 0.00000000E+00
	 0.00000000E+00	 0.00000000E+00	 4.64852000E-13

	 4.38289000E-13	 0.00000000E+00	 0.00000000E+00
	 0.00000000E+00	 4.38289000E-13	 0.00000000E+00
	 0.00000000E+00	 0.00000000E+00	 4.38289000E-13

	 4.64852000E-13	 0.00000000E+00	 0.00000000E+00
	 0.00000000E+00	 4.64852000E-13	 0.00000000E+00
	 0.00000000E+00	 0.00000000E+00	 4.64852000E-13

	 4.64852000E-13	 0.00000000E+00	 0.00000000E+00
	 0.00000000E+00	 4.64852000E-13	 0.00000000E+00
	 0.00000000E+00	 0.00000000E+00	 4.64852000E-13

	 4.42716000E-13	 0.00000000E+00	 0.00000000E+00
	 0.00000000E+00	 4.42716000E-13	 0.00000000E+00
	 0.00000000E+00	 0.00000000E+00	 4.42716000E-13

	 4.64852000E-13	 0.00000000E+00	 0.00000000E+00
	 0.00000000E+00	 4.64852000E-13	 0.00000000E+00
	 0.00000000E+00	 0.00000000E+00	 4.64852000E-13

	 4.47143000E-13	 0.00000000E+00	 0.00000000E+00
	 0.00000000E+00	 4.47143000E-13	 0.00000000E+00
	 0.00000000E+00	 0.00000000E+00	 4.47143000E-13

	 4.64852000E-13	 0.00000000E+00	 0.00000000E+00
	 0.00000000E+00	 4.64852000E-13	 0.00000000E+00
	 0.00000000E+00	 0.00000000E+00	 4.64852000E-13

	 4.61057000E-13	 0.00000000E+00	 0.00000000E+00
	 0.00000000E+00	 4.61057000E-13	 0.00000000E+00
	 0.00000000E+00	 0.00000000E+00	 4.61057000E-13

	 4.38289000E-13	 0.00000000E+00	 0.00000000E+00
	 0.00000000E+00	 4.38289000E-13	 0.00000000E+00
	 0.00000000E+00	 0.00000000E+00	 4.38289000E-13

	 4.43981000E-13	 0.00000000E+00	 0.00000000E+00
	 0.00000000E+00	 4.43981000E-13	 0.00000000E+00
	 0.00000000E+00	 0.00000000E+00	 4.43981000E-13

	 4.38289000E-13	 0.00000000E+00	 0.00000000E+00
	 0.00000000E+00	 4.38289000E-13	 0.00000000E+00
	 0.00000000E+00	 0.00000000E+00	 4.38289000E-13

	 4.55997000E-13	 0.00000000E+00	 0.00000000E+00
	 0.00000000E+00	 4.55997000E-13	 0.00000000E+00
	 0.00000000E+00	 0.00000000E+00	 4.55997000E-13

	 4.42716000E-13	 0.00000000E+00	 0.00000000E+00
	 0.00000000E+00	 4.42716000E-13	 0.00000000E+00
	 0.00000000E+00	 0.00000000E+00	 4.42716000E-13

	 4.38289000E-13	 0.00000000E+00	 0.00000000E+00
	 0.00000000E+00	 4.38289000E-13	 0.00000000E+00
	 0.00000000E+00	 0.00000000E+00	 4.38289000E-13

	 4.64852000E-13	 0.00000000E+00	 0.00000000E+00
	 0.00000000E+00	 4.64852000E-13	 0.00000000E+00
	 0.00000000E+00	 0.00000000E+00	 4.64852000E-13

	 4.38289000E-13	 0.00000000E+00	 0.00000000E+00
	 0.00000000E+00	 4.38289000E-13	 0.00000000E+00
	 0.00000000E+00	 0.00000000E+00	 4.38289000E-13

	 4.64852000E-13	 0.00000000E+00	 0.00000000E+00
	 0.00000000E+00	 4.64852000E-13	 0.00000000E+00
	 0.00000000E+00	 0.00000000E+00	 4.64852000E-13

	 4.40186000E-13	 0.00000000E+00	 0.00000000E+00
	 0.00000000E+00	 4.40186000E-13	 0.00000000E+00
	 0.00000000E+00	 0.00000000E+00	 4.40186000E-13

	 4.64852000E-13	 0.00000000E+00	 0.00000000E+00
	 0.00000000E+00	 4.64852000E-13	 0.00000000E+00
	 0.00000000E+00	 0.00000000E+00	 4.64852000E-13

	 4.38289000E-13	 0.00000000E+00	 0.00000000E+00
	 0.00000000E+00	 4.38289000E-13	 0.00000000E+00
	 0.00000000E+00	 0.00000000E+00	 4.38289000E-13

	 4.64852000E-13	 0.00000000E+00	 0.00000000E+00
	 0.00000000E+00	 4.64852000E-13	 0.00000000E+00
	 0.00000000E+00	 0.00000000E+00	 4.64852000E-13

	 4.64852000E-13	 0.00000000E+00	 0.00000000E+00
	 0.00000000E+00	 4.64852000E-13	 0.00000000E+00
	 0.00000000E+00	 0.00000000E+00	 4.64852000E-13

	 4.45878000E-13	 0.00000000E+00	 0.00000000E+00
	 0.00000000E+00	 4.45878000E-13	 0.00000000E+00
	 0.00000000E+00	 0.00000000E+00	 4.45878000E-13

	 4.40502000E-13	 0.00000000E+00	 0.00000000E+00
	 0.00000000E+00	 4.40502000E-13	 0.00000000E+00
	 0.00000000E+00	 0.00000000E+00	 4.40502000E-13

	 4.44929000E-13	 0.00000000E+00	 0.00000000E+00
	 0.00000000E+00	 4.44929000E-13	 0.00000000E+00
	 0.00000000E+00	 0.00000000E+00	 4.44929000E-13

	 4.38289000E-13	 0.00000000E+00	 0.00000000E+00
	 0.00000000E+00	 4.38289000E-13	 0.00000000E+00
	 0.00000000E+00	 0.00000000E+00	 4.38289000E-13

	 4.38289000E-13	 0.00000000E+00	 0.00000000E+00
	 0.00000000E+00	 4.38289000E-13	 0.00000000E+00
	 0.00000000E+00	 0.00000000E+00	 4.38289000E-13

	 4.38289000E-13	 0.00000000E+00	 0.00000000E+00
	 0.00000000E+00	 4.38289000E-13	 0.00000000E+00
	 0.00000000E+00	 0.00000000E+00	 4.38289000E-13

	 4.38289000E-13	 0.00000000E+00	 0.00000000E+00
	 0.00000000E+00	 4.38289000E-13	 0.00000000E+00
	 0.00000000E+00	 0.00000000E+00	 4.38289000E-13

	 4.38289000E-13	 0.00000000E+00	 0.00000000E+00
	 0.00000000E+00	 4.38289000E-13	 0.00000000E+00
	 0.00000000E+00	 0.00000000E+00	 4.38289000E-13

	 4.38289000E-13	 0.00000000E+00	 0.00000000E+00
	 0.00000000E+00	 4.38289000E-13	 0.00000000E+00
	 0.00000000E+00	 0.00000000E+00	 4.38289000E-13

	 4.38289000E-13	 0.00000000E+00	 0.00000000E+00
	 0.00000000E+00	 4.38289000E-13	 0.00000000E+00
	 0.00000000E+00	 0.00000000E+00	 4.38289000E-13

	 4.38289000E-13	 0.00000000E+00	 0.00000000E+00
	 0.00000000E+00	 4.38289000E-13	 0.00000000E+00
	 0.00000000E+00	 0.00000000E+00	 4.38289000E-13

	 4.38289000E-13	 0.00000000E+00	 0.00000000E+00
	 0.00000000E+00	 4.38289000E-13	 0.00000000E+00
	 0.00000000E+00	 0.00000000E+00	 4.38289000E-13

	 4.38289000E-13	 0.00000000E+00	 0.00000000E+00
	 0.00000000E+00	 4.38289000E-13	 0.00000000E+00
	 0.00000000E+00	 0.00000000E+00	 4.38289000E-13

	 4.38289000E-13	 0.00000000E+00	 0.00000000E+00
	 0.00000000E+00	 4.38289000E-13	 0.00000000E+00
	 0.00000000E+00	 0.00000000E+00	 4.38289000E-13

	 4.38289000E-13	 0.00000000E+00	 0.00000000E+00
	 0.00000000E+00	 4.38289000E-13	 0.00000000E+00
	 0.00000000E+00	 0.00000000E+00	 4.38289000E-13

	 4.38289000E-13	 0.00000000E+00	 0.00000000E+00
	 0.00000000E+00	 4.38289000E-13	 0.00000000E+00
	 0.00000000E+00	 0.00000000E+00	 4.38289000E-13

	 4.42716000E-13	 0.00000000E+00	 0.00000000E+00
	 0.00000000E+00	 4.42716000E-13	 0.00000000E+00
	 0.00000000E+00	 0.00000000E+00	 4.42716000E-13

	 4.62638000E-13	 0.00000000E+00	 0.00000000E+00
	 0.00000000E+00	 4.62638000E-13	 0.00000000E+00
	 0.00000000E+00	 0.00000000E+00	 4.62638000E-13

	 4.47143000E-13	 0.00000000E+00	 0.00000000E+00
	 0.00000000E+00	 4.47143000E-13	 0.00000000E+00
	 0.00000000E+00	 0.00000000E+00	 4.47143000E-13

	 4.38289000E-13	 0.00000000E+00	 0.00000000E+00
	 0.00000000E+00	 4.38289000E-13	 0.00000000E+00
	 0.00000000E+00	 0.00000000E+00	 4.38289000E-13

	 4.49357000E-13	 0.00000000E+00	 0.00000000E+00
	 0.00000000E+00	 4.49357000E-13	 0.00000000E+00
	 0.00000000E+00	 0.00000000E+00	 4.49357000E-13

	 4.64852000E-13	 0.00000000E+00	 0.00000000E+00
	 0.00000000E+00	 4.64852000E-13	 0.00000000E+00
	 0.00000000E+00	 0.00000000E+00	 4.64852000E-13

	 4.38289000E-13	 0.00000000E+00	 0.00000000E+00
	 0.00000000E+00	 4.38289000E-13	 0.00000000E+00
	 0.00000000E+00	 0.00000000E+00	 4.38289000E-13

	 4.38289000E-13	 0.00000000E+00	 0.00000000E+00
	 0.00000000E+00	 4.38289000E-13	 0.00000000E+00
	 0.00000000E+00	 0.00000000E+00	 4.38289000E-13

	 4.38289000E-13	 0.00000000E+00	 0.00000000E+00
	 0.00000000E+00	 4.38289000E-13	 0.00000000E+00
	 0.00000000E+00	 0.00000000E+00	 4.38289000E-13

	 4.40502000E-13	 0.00000000E+00	 0.00000000E+00
	 0.00000000E+00	 4.40502000E-13	 0.00000000E+00
	 0.00000000E+00	 0.00000000E+00	 4.40502000E-13

	 4.51570000E-13	 0.00000000E+00	 0.00000000E+00
	 0.00000000E+00	 4.51570000E-13	 0.00000000E+00
	 0.00000000E+00	 0.00000000E+00	 4.51570000E-13

	 4.42716000E-13	 0.00000000E+00	 0.00000000E+00
	 0.00000000E+00	 4.42716000E-13	 0.00000000E+00
	 0.00000000E+00	 0.00000000E+00	 4.42716000E-13

	 4.47143000E-13	 0.00000000E+00	 0.00000000E+00
	 0.00000000E+00	 4.47143000E-13	 0.00000000E+00
	 0.00000000E+00	 0.00000000E+00	 4.47143000E-13

	 4.62638000E-13	 0.00000000E+00	 0.00000000E+00
	 0.00000000E+00	 4.62638000E-13	 0.00000000E+00
	 0.00000000E+00	 0.00000000E+00	 4.62638000E-13

	 4.38289000E-13	 0.00000000E+00	 0.00000000E+00
	 0.00000000E+00	 4.38289000E-13	 0.00000000E+00
	 0.00000000E+00	 0.00000000E+00	 4.38289000E-13

	 4.47143000E-13	 0.00000000E+00	 0.00000000E+00
	 0.00000000E+00	 4.47143000E-13	 0.00000000E+00
	 0.00000000E+00	 0.00000000E+00	 4.47143000E-13

	 4.42716000E-13	 0.00000000E+00	 0.00000000E+00
	 0.00000000E+00	 4.42716000E-13	 0.00000000E+00
	 0.00000000E+00	 0.00000000E+00	 4.42716000E-13

	 4.44929000E-13	 0.00000000E+00	 0.00000000E+00
	 0.00000000E+00	 4.44929000E-13	 0.00000000E+00
	 0.00000000E+00	 0.00000000E+00	 4.44929000E-13

	 4.58211000E-13	 0.00000000E+00	 0.00000000E+00
	 0.00000000E+00	 4.58211000E-13	 0.00000000E+00
	 0.00000000E+00	 0.00000000E+00	 4.58211000E-13

	 4.38289000E-13	 0.00000000E+00	 0.00000000E+00
	 0.00000000E+00	 4.38289000E-13	 0.00000000E+00
	 0.00000000E+00	 0.00000000E+00	 4.38289000E-13

	 4.38289000E-13	 0.00000000E+00	 0.00000000E+00
	 0.00000000E+00	 4.38289000E-13	 0.00000000E+00
	 0.00000000E+00	 0.00000000E+00	 4.38289000E-13

	 4.42716000E-13	 0.00000000E+00	 0.00000000E+00
	 0.00000000E+00	 4.42716000E-13	 0.00000000E+00
	 0.00000000E+00	 0.00000000E+00	 4.42716000E-13

	 4.42716000E-13	 0.00000000E+00	 0.00000000E+00
	 0.00000000E+00	 4.42716000E-13	 0.00000000E+00
	 0.00000000E+00	 0.00000000E+00	 4.42716000E-13

	 4.44929000E-13	 0.00000000E+00	 0.00000000E+00
	 0.00000000E+00	 4.44929000E-13	 0.00000000E+00
	 0.00000000E+00	 0.00000000E+00	 4.44929000E-13

	 4.64852000E-13	 0.00000000E+00	 0.00000000E+00
	 0.00000000E+00	 4.64852000E-13	 0.00000000E+00
	 0.00000000E+00	 0.00000000E+00	 4.64852000E-13

	 4.64852000E-13	 0.00000000E+00	 0.00000000E+00
	 0.00000000E+00	 4.64852000E-13	 0.00000000E+00
	 0.00000000E+00	 0.00000000E+00	 4.64852000E-13

	 4.64852000E-13	 0.00000000E+00	 0.00000000E+00
	 0.00000000E+00	 4.64852000E-13	 0.00000000E+00
	 0.00000000E+00	 0.00000000E+00	 4.64852000E-13

	 4.64852000E-13	 0.00000000E+00	 0.00000000E+00
	 0.00000000E+00	 4.64852000E-13	 0.00000000E+00
	 0.00000000E+00	 0.00000000E+00	 4.64852000E-13

	 4.64852000E-13	 0.00000000E+00	 0.00000000E+00
	 0.00000000E+00	 4.64852000E-13	 0.00000000E+00
	 0.00000000E+00	 0.00000000E+00	 4.64852000E-13

	 4.64852000E-13	 0.00000000E+00	 0.00000000E+00
	 0.00000000E+00	 4.64852000E-13	 0.00000000E+00
	 0.00000000E+00	 0.00000000E+00	 4.64852000E-13

	 4.64852000E-13	 0.00000000E+00	 0.00000000E+00
	 0.00000000E+00	 4.64852000E-13	 0.00000000E+00
	 0.00000000E+00	 0.00000000E+00	 4.64852000E-13

	 4.62638000E-13	 0.00000000E+00	 0.00000000E+00
	 0.00000000E+00	 4.62638000E-13	 0.00000000E+00
	 0.00000000E+00	 0.00000000E+00	 4.62638000E-13

	 4.64852000E-13	 0.00000000E+00	 0.00000000E+00
	 0.00000000E+00	 4.64852000E-13	 0.00000000E+00
	 0.00000000E+00	 0.00000000E+00	 4.64852000E-13

	 4.62638000E-13	 0.00000000E+00	 0.00000000E+00
	 0.00000000E+00	 4.62638000E-13	 0.00000000E+00
	 0.00000000E+00	 0.00000000E+00	 4.62638000E-13

	 4.62638000E-13	 0.00000000E+00	 0.00000000E+00
	 0.00000000E+00	 4.62638000E-13	 0.00000000E+00
	 0.00000000E+00	 0.00000000E+00	 4.62638000E-13

	 4.62638000E-13	 0.00000000E+00	 0.00000000E+00
	 0.00000000E+00	 4.62638000E-13	 0.00000000E+00
	 0.00000000E+00	 0.00000000E+00	 4.62638000E-13

	 4.62638000E-13	 0.00000000E+00	 0.00000000E+00
	 0.00000000E+00	 4.62638000E-13	 0.00000000E+00
	 0.00000000E+00	 0.00000000E+00	 4.62638000E-13

	 4.62638000E-13	 0.00000000E+00	 0.00000000E+00
	 0.00000000E+00	 4.62638000E-13	 0.00000000E+00
	 0.00000000E+00	 0.00000000E+00	 4.62638000E-13

	 4.62638000E-13	 0.00000000E+00	 0.00000000E+00
	 0.00000000E+00	 4.62638000E-13	 0.00000000E+00
	 0.00000000E+00	 0.00000000E+00	 4.62638000E-13

	 4.62638000E-13	 0.00000000E+00	 0.00000000E+00
	 0.00000000E+00	 4.62638000E-13	 0.00000000E+00
	 0.00000000E+00	 0.00000000E+00	 4.62638000E-13

	 4.64852000E-13	 0.00000000E+00	 0.00000000E+00
	 0.00000000E+00	 4.64852000E-13	 0.00000000E+00
	 0.00000000E+00	 0.00000000E+00	 4.64852000E-13

	 4.64852000E-13	 0.00000000E+00	 0.00000000E+00
	 0.00000000E+00	 4.64852000E-13	 0.00000000E+00
	 0.00000000E+00	 0.00000000E+00	 4.64852000E-13

	 4.64852000E-13	 0.00000000E+00	 0.00000000E+00
	 0.00000000E+00	 4.64852000E-13	 0.00000000E+00
	 0.00000000E+00	 0.00000000E+00	 4.64852000E-13

	 4.62638000E-13	 0.00000000E+00	 0.00000000E+00
	 0.00000000E+00	 4.62638000E-13	 0.00000000E+00
	 0.00000000E+00	 0.00000000E+00	 4.62638000E-13

	 4.62638000E-13	 0.00000000E+00	 0.00000000E+00
	 0.00000000E+00	 4.62638000E-13	 0.00000000E+00
	 0.00000000E+00	 0.00000000E+00	 4.62638000E-13

	 4.62638000E-13	 0.00000000E+00	 0.00000000E+00
	 0.00000000E+00	 4.62638000E-13	 0.00000000E+00
	 0.00000000E+00	 0.00000000E+00	 4.62638000E-13

	 4.64852000E-13	 0.00000000E+00	 0.00000000E+00
	 0.00000000E+00	 4.64852000E-13	 0.00000000E+00
	 0.00000000E+00	 0.00000000E+00	 4.64852000E-13

	 4.64852000E-13	 0.00000000E+00	 0.00000000E+00
	 0.00000000E+00	 4.64852000E-13	 0.00000000E+00
	 0.00000000E+00	 0.00000000E+00	 4.64852000E-13

	 4.64852000E-13	 0.00000000E+00	 0.00000000E+00
	 0.00000000E+00	 4.64852000E-13	 0.00000000E+00
	 0.00000000E+00	 0.00000000E+00	 4.64852000E-13

	 4.62638000E-13	 0.00000000E+00	 0.00000000E+00
	 0.00000000E+00	 4.62638000E-13	 0.00000000E+00
	 0.00000000E+00	 0.00000000E+00	 4.62638000E-13

	 4.62638000E-13	 0.00000000E+00	 0.00000000E+00
	 0.00000000E+00	 4.62638000E-13	 0.00000000E+00
	 0.00000000E+00	 0.00000000E+00	 4.62638000E-13

	 4.64852000E-13	 0.00000000E+00	 0.00000000E+00
	 0.00000000E+00	 4.64852000E-13	 0.00000000E+00
	 0.00000000E+00	 0.00000000E+00	 4.64852000E-13

	 4.64852000E-13	 0.00000000E+00	 0.00000000E+00
	 0.00000000E+00	 4.64852000E-13	 0.00000000E+00
	 0.00000000E+00	 0.00000000E+00	 4.64852000E-13

	 4.64852000E-13	 0.00000000E+00	 0.00000000E+00
	 0.00000000E+00	 4.64852000E-13	 0.00000000E+00
	 0.00000000E+00	 0.00000000E+00	 4.64852000E-13

	 4.62638000E-13	 0.00000000E+00	 0.00000000E+00
	 0.00000000E+00	 4.62638000E-13	 0.00000000E+00
	 0.00000000E+00	 0.00000000E+00	 4.62638000E-13

	 4.64852000E-13	 0.00000000E+00	 0.00000000E+00
	 0.00000000E+00	 4.64852000E-13	 0.00000000E+00
	 0.00000000E+00	 0.00000000E+00	 4.64852000E-13

	 4.64852000E-13	 0.00000000E+00	 0.00000000E+00
	 0.00000000E+00	 4.64852000E-13	 0.00000000E+00
	 0.00000000E+00	 0.00000000E+00	 4.64852000E-13

	 4.62638000E-13	 0.00000000E+00	 0.00000000E+00
	 0.00000000E+00	 4.62638000E-13	 0.00000000E+00
	 0.00000000E+00	 0.00000000E+00	 4.62638000E-13

	 4.64852000E-13	 0.00000000E+00	 0.00000000E+00
	 0.00000000E+00	 4.64852000E-13	 0.00000000E+00
	 0.00000000E+00	 0.00000000E+00	 4.64852000E-13

	 4.64852000E-13	 0.00000000E+00	 0.00000000E+00
	 0.00000000E+00	 4.64852000E-13	 0.00000000E+00
	 0.00000000E+00	 0.00000000E+00	 4.64852000E-13

	 4.64852000E-13	 0.00000000E+00	 0.00000000E+00
	 0.00000000E+00	 4.64852000E-13	 0.00000000E+00
	 0.00000000E+00	 0.00000000E+00	 4.64852000E-13

	 4.64852000E-13	 0.00000000E+00	 0.00000000E+00
	 0.00000000E+00	 4.64852000E-13	 0.00000000E+00
	 0.00000000E+00	 0.00000000E+00	 4.64852000E-13

	 4.64852000E-13	 0.00000000E+00	 0.00000000E+00
	 0.00000000E+00	 4.64852000E-13	 0.00000000E+00
	 0.00000000E+00	 0.00000000E+00	 4.64852000E-13

	 4.64852000E-13	 0.00000000E+00	 0.00000000E+00
	 0.00000000E+00	 4.64852000E-13	 0.00000000E+00
	 0.00000000E+00	 0.00000000E+00	 4.64852000E-13

	 4.64852000E-13	 0.00000000E+00	 0.00000000E+00
	 0.00000000E+00	 4.64852000E-13	 0.00000000E+00
	 0.00000000E+00	 0.00000000E+00	 4.64852000E-13

	 4.38289000E-13	 0.00000000E+00	 0.00000000E+00
	 0.00000000E+00	 4.38289000E-13	 0.00000000E+00
	 0.00000000E+00	 0.00000000E+00	 4.38289000E-13

	 4.64852000E-13	 0.00000000E+00	 0.00000000E+00
	 0.00000000E+00	 4.64852000E-13	 0.00000000E+00
	 0.00000000E+00	 0.00000000E+00	 4.64852000E-13

	 4.64852000E-13	 0.00000000E+00	 0.00000000E+00
	 0.00000000E+00	 4.64852000E-13	 0.00000000E+00
	 0.00000000E+00	 0.00000000E+00	 4.64852000E-13

	 4.38289000E-13	 0.00000000E+00	 0.00000000E+00
	 0.00000000E+00	 4.38289000E-13	 0.00000000E+00
	 0.00000000E+00	 0.00000000E+00	 4.38289000E-13

	 4.42083000E-13	 0.00000000E+00	 0.00000000E+00
	 0.00000000E+00	 4.42083000E-13	 0.00000000E+00
	 0.00000000E+00	 0.00000000E+00	 4.42083000E-13

	 4.62638000E-13	 0.00000000E+00	 0.00000000E+00
	 0.00000000E+00	 4.62638000E-13	 0.00000000E+00
	 0.00000000E+00	 0.00000000E+00	 4.62638000E-13

	 4.38289000E-13	 0.00000000E+00	 0.00000000E+00
	 0.00000000E+00	 4.38289000E-13	 0.00000000E+00
	 0.00000000E+00	 0.00000000E+00	 4.38289000E-13

	 4.64852000E-13	 0.00000000E+00	 0.00000000E+00
	 0.00000000E+00	 4.64852000E-13	 0.00000000E+00
	 0.00000000E+00	 0.00000000E+00	 4.64852000E-13

	 4.38289000E-13	 0.00000000E+00	 0.00000000E+00
	 0.00000000E+00	 4.38289000E-13	 0.00000000E+00
	 0.00000000E+00	 0.00000000E+00	 4.38289000E-13

	 4.64852000E-13	 0.00000000E+00	 0.00000000E+00
	 0.00000000E+00	 4.64852000E-13	 0.00000000E+00
	 0.00000000E+00	 0.00000000E+00	 4.64852000E-13

	 4.64852000E-13	 0.00000000E+00	 0.00000000E+00
	 0.00000000E+00	 4.64852000E-13	 0.00000000E+00
	 0.00000000E+00	 0.00000000E+00	 4.64852000E-13

	 4.64852000E-13	 0.00000000E+00	 0.00000000E+00
	 0.00000000E+00	 4.64852000E-13	 0.00000000E+00
	 0.00000000E+00	 0.00000000E+00	 4.64852000E-13

	 4.38289000E-13	 0.00000000E+00	 0.00000000E+00
	 0.00000000E+00	 4.38289000E-13	 0.00000000E+00
	 0.00000000E+00	 0.00000000E+00	 4.38289000E-13

	 4.64852000E-13	 0.00000000E+00	 0.00000000E+00
	 0.00000000E+00	 4.64852000E-13	 0.00000000E+00
	 0.00000000E+00	 0.00000000E+00	 4.64852000E-13

	 4.64852000E-13	 0.00000000E+00	 0.00000000E+00
	 0.00000000E+00	 4.64852000E-13	 0.00000000E+00
	 0.00000000E+00	 0.00000000E+00	 4.64852000E-13

	 4.64852000E-13	 0.00000000E+00	 0.00000000E+00
	 0.00000000E+00	 4.64852000E-13	 0.00000000E+00
	 0.00000000E+00	 0.00000000E+00	 4.64852000E-13

	 4.64852000E-13	 0.00000000E+00	 0.00000000E+00
	 0.00000000E+00	 4.64852000E-13	 0.00000000E+00
	 0.00000000E+00	 0.00000000E+00	 4.64852000E-13

	 4.38289000E-13	 0.00000000E+00	 0.00000000E+00
	 0.00000000E+00	 4.38289000E-13	 0.00000000E+00
	 0.00000000E+00	 0.00000000E+00	 4.38289000E-13

	 4.62638000E-13	 0.00000000E+00	 0.00000000E+00
	 0.00000000E+00	 4.62638000E-13	 0.00000000E+00
	 0.00000000E+00	 0.00000000E+00	 4.62638000E-13

	 4.60425000E-13	 0.00000000E+00	 0.00000000E+00
	 0.00000000E+00	 4.60425000E-13	 0.00000000E+00
	 0.00000000E+00	 0.00000000E+00	 4.60425000E-13

	 4.42716000E-13	 0.00000000E+00	 0.00000000E+00
	 0.00000000E+00	 4.42716000E-13	 0.00000000E+00
	 0.00000000E+00	 0.00000000E+00	 4.42716000E-13

	 4.51570000E-13	 0.00000000E+00	 0.00000000E+00
	 0.00000000E+00	 4.51570000E-13	 0.00000000E+00
	 0.00000000E+00	 0.00000000E+00	 4.51570000E-13

	 4.53784000E-13	 0.00000000E+00	 0.00000000E+00
	 0.00000000E+00	 4.53784000E-13	 0.00000000E+00
	 0.00000000E+00	 0.00000000E+00	 4.53784000E-13

	 4.42716000E-13	 0.00000000E+00	 0.00000000E+00
	 0.00000000E+00	 4.42716000E-13	 0.00000000E+00
	 0.00000000E+00	 0.00000000E+00	 4.42716000E-13

	 4.55997000E-13	 0.00000000E+00	 0.00000000E+00
	 0.00000000E+00	 4.55997000E-13	 0.00000000E+00
	 0.00000000E+00	 0.00000000E+00	 4.55997000E-13

	 4.62638000E-13	 0.00000000E+00	 0.00000000E+00
	 0.00000000E+00	 4.62638000E-13	 0.00000000E+00
	 0.00000000E+00	 0.00000000E+00	 4.62638000E-13

	 4.58211000E-13	 0.00000000E+00	 0.00000000E+00
	 0.00000000E+00	 4.58211000E-13	 0.00000000E+00
	 0.00000000E+00	 0.00000000E+00	 4.58211000E-13

	 4.62638000E-13	 0.00000000E+00	 0.00000000E+00
	 0.00000000E+00	 4.62638000E-13	 0.00000000E+00
	 0.00000000E+00	 0.00000000E+00	 4.62638000E-13

	 4.57262000E-13	 0.00000000E+00	 0.00000000E+00
	 0.00000000E+00	 4.57262000E-13	 0.00000000E+00
	 0.00000000E+00	 0.00000000E+00	 4.57262000E-13

	 4.64852000E-13	 0.00000000E+00	 0.00000000E+00
	 0.00000000E+00	 4.64852000E-13	 0.00000000E+00
	 0.00000000E+00	 0.00000000E+00	 4.64852000E-13

	 4.64852000E-13	 0.00000000E+00	 0.00000000E+00
	 0.00000000E+00	 4.64852000E-13	 0.00000000E+00
	 0.00000000E+00	 0.00000000E+00	 4.64852000E-13

	 4.42716000E-13	 0.00000000E+00	 0.00000000E+00
	 0.00000000E+00	 4.42716000E-13	 0.00000000E+00
	 0.00000000E+00	 0.00000000E+00	 4.42716000E-13

	 4.64852000E-13	 0.00000000E+00	 0.00000000E+00
	 0.00000000E+00	 4.64852000E-13	 0.00000000E+00
	 0.00000000E+00	 0.00000000E+00	 4.64852000E-13

	 4.64852000E-13	 0.00000000E+00	 0.00000000E+00
	 0.00000000E+00	 4.64852000E-13	 0.00000000E+00
	 0.00000000E+00	 0.00000000E+00	 4.64852000E-13

	 4.38289000E-13	 0.00000000E+00	 0.00000000E+00
	 0.00000000E+00	 4.38289000E-13	 0.00000000E+00
	 0.00000000E+00	 0.00000000E+00	 4.38289000E-13

	 4.64852000E-13	 0.00000000E+00	 0.00000000E+00
	 0.00000000E+00	 4.64852000E-13	 0.00000000E+00
	 0.00000000E+00	 0.00000000E+00	 4.64852000E-13

	 4.38289000E-13	 0.00000000E+00	 0.00000000E+00
	 0.00000000E+00	 4.38289000E-13	 0.00000000E+00
	 0.00000000E+00	 0.00000000E+00	 4.38289000E-13

	 4.64852000E-13	 0.00000000E+00	 0.00000000E+00
	 0.00000000E+00	 4.64852000E-13	 0.00000000E+00
	 0.00000000E+00	 0.00000000E+00	 4.64852000E-13

	 4.38289000E-13	 0.00000000E+00	 0.00000000E+00
	 0.00000000E+00	 4.38289000E-13	 0.00000000E+00
	 0.00000000E+00	 0.00000000E+00	 4.38289000E-13

	 4.64852000E-13	 0.00000000E+00	 0.00000000E+00
	 0.00000000E+00	 4.64852000E-13	 0.00000000E+00
	 0.00000000E+00	 0.00000000E+00	 4.64852000E-13

	 4.38289000E-13	 0.00000000E+00	 0.00000000E+00
	 0.00000000E+00	 4.38289000E-13	 0.00000000E+00
	 0.00000000E+00	 0.00000000E+00	 4.38289000E-13

	 4.64852000E-13	 0.00000000E+00	 0.00000000E+00
	 0.00000000E+00	 4.64852000E-13	 0.00000000E+00
	 0.00000000E+00	 0.00000000E+00	 4.64852000E-13

	 4.38289000E-13	 0.00000000E+00	 0.00000000E+00
	 0.00000000E+00	 4.38289000E-13	 0.00000000E+00
	 0.00000000E+00	 0.00000000E+00	 4.38289000E-13

	 4.38289000E-13	 0.00000000E+00	 0.00000000E+00
	 0.00000000E+00	 4.38289000E-13	 0.00000000E+00
	 0.00000000E+00	 0.00000000E+00	 4.38289000E-13

	 4.64852000E-13	 0.00000000E+00	 0.00000000E+00
	 0.00000000E+00	 4.64852000E-13	 0.00000000E+00
	 0.00000000E+00	 0.00000000E+00	 4.64852000E-13

	 4.64852000E-13	 0.00000000E+00	 0.00000000E+00
	 0.00000000E+00	 4.64852000E-13	 0.00000000E+00
	 0.00000000E+00	 0.00000000E+00	 4.64852000E-13

	 4.64852000E-13	 0.00000000E+00	 0.00000000E+00
	 0.00000000E+00	 4.64852000E-13	 0.00000000E+00
	 0.00000000E+00	 0.00000000E+00	 4.64852000E-13

	 4.47143000E-13	 0.00000000E+00	 0.00000000E+00
	 0.00000000E+00	 4.47143000E-13	 0.00000000E+00
	 0.00000000E+00	 0.00000000E+00	 4.47143000E-13

	 4.51570000E-13	 0.00000000E+00	 0.00000000E+00
	 0.00000000E+00	 4.51570000E-13	 0.00000000E+00
	 0.00000000E+00	 0.00000000E+00	 4.51570000E-13

	 4.64852000E-13	 0.00000000E+00	 0.00000000E+00
	 0.00000000E+00	 4.64852000E-13	 0.00000000E+00
	 0.00000000E+00	 0.00000000E+00	 4.64852000E-13

	 4.64852000E-13	 0.00000000E+00	 0.00000000E+00
	 0.00000000E+00	 4.64852000E-13	 0.00000000E+00
	 0.00000000E+00	 0.00000000E+00	 4.64852000E-13

	 4.64852000E-13	 0.00000000E+00	 0.00000000E+00
	 0.00000000E+00	 4.64852000E-13	 0.00000000E+00
	 0.00000000E+00	 0.00000000E+00	 4.64852000E-13

	 4.55997000E-13	 0.00000000E+00	 0.00000000E+00
	 0.00000000E+00	 4.55997000E-13	 0.00000000E+00
	 0.00000000E+00	 0.00000000E+00	 4.55997000E-13

	 4.64852000E-13	 0.00000000E+00	 0.00000000E+00
	 0.00000000E+00	 4.64852000E-13	 0.00000000E+00
	 0.00000000E+00	 0.00000000E+00	 4.64852000E-13

	 4.47143000E-13	 0.00000000E+00	 0.00000000E+00
	 0.00000000E+00	 4.47143000E-13	 0.00000000E+00
	 0.00000000E+00	 0.00000000E+00	 4.47143000E-13

	 4.42716000E-13	 0.00000000E+00	 0.00000000E+00
	 0.00000000E+00	 4.42716000E-13	 0.00000000E+00
	 0.00000000E+00	 0.00000000E+00	 4.42716000E-13

	 4.64852000E-13	 0.00000000E+00	 0.00000000E+00
	 0.00000000E+00	 4.64852000E-13	 0.00000000E+00
	 0.00000000E+00	 0.00000000E+00	 4.64852000E-13

	 4.38289000E-13	 0.00000000E+00	 0.00000000E+00
	 0.00000000E+00	 4.38289000E-13	 0.00000000E+00
	 0.00000000E+00	 0.00000000E+00	 4.38289000E-13

	 4.64852000E-13	 0.00000000E+00	 0.00000000E+00
	 0.00000000E+00	 4.64852000E-13	 0.00000000E+00
	 0.00000000E+00	 0.00000000E+00	 4.64852000E-13

	 4.58211000E-13	 0.00000000E+00	 0.00000000E+00
	 0.00000000E+00	 4.58211000E-13	 0.00000000E+00
	 0.00000000E+00	 0.00000000E+00	 4.58211000E-13

	 4.60425000E-13	 0.00000000E+00	 0.00000000E+00
	 0.00000000E+00	 4.60425000E-13	 0.00000000E+00
	 0.00000000E+00	 0.00000000E+00	 4.60425000E-13

	 4.64852000E-13	 0.00000000E+00	 0.00000000E+00
	 0.00000000E+00	 4.64852000E-13	 0.00000000E+00
	 0.00000000E+00	 0.00000000E+00	 4.64852000E-13

	 4.64852000E-13	 0.00000000E+00	 0.00000000E+00
	 0.00000000E+00	 4.64852000E-13	 0.00000000E+00
	 0.00000000E+00	 0.00000000E+00	 4.64852000E-13

	 4.38289000E-13	 0.00000000E+00	 0.00000000E+00
	 0.00000000E+00	 4.38289000E-13	 0.00000000E+00
	 0.00000000E+00	 0.00000000E+00	 4.38289000E-13

	 4.62638000E-13	 0.00000000E+00	 0.00000000E+00
	 0.00000000E+00	 4.62638000E-13	 0.00000000E+00
	 0.00000000E+00	 0.00000000E+00	 4.62638000E-13

	 4.64852000E-13	 0.00000000E+00	 0.00000000E+00
	 0.00000000E+00	 4.64852000E-13	 0.00000000E+00
	 0.00000000E+00	 0.00000000E+00	 4.64852000E-13

	 4.64852000E-13	 0.00000000E+00	 0.00000000E+00
	 0.00000000E+00	 4.64852000E-13	 0.00000000E+00
	 0.00000000E+00	 0.00000000E+00	 4.64852000E-13

	 4.64852000E-13	 0.00000000E+00	 0.00000000E+00
	 0.00000000E+00	 4.64852000E-13	 0.00000000E+00
	 0.00000000E+00	 0.00000000E+00	 4.64852000E-13

	 4.64852000E-13	 0.00000000E+00	 0.00000000E+00
	 0.00000000E+00	 4.64852000E-13	 0.00000000E+00
	 0.00000000E+00	 0.00000000E+00	 4.64852000E-13

	 4.64852000E-13	 0.00000000E+00	 0.00000000E+00
	 0.00000000E+00	 4.64852000E-13	 0.00000000E+00
	 0.00000000E+00	 0.00000000E+00	 4.64852000E-13

	 4.62638000E-13	 0.00000000E+00	 0.00000000E+00
	 0.00000000E+00	 4.62638000E-13	 0.00000000E+00
	 0.00000000E+00	 0.00000000E+00	 4.62638000E-13

	 4.62638000E-13	 0.00000000E+00	 0.00000000E+00
	 0.00000000E+00	 4.62638000E-13	 0.00000000E+00
	 0.00000000E+00	 0.00000000E+00	 4.62638000E-13

	 4.38289000E-13	 0.00000000E+00	 0.00000000E+00
	 0.00000000E+00	 4.38289000E-13	 0.00000000E+00
	 0.00000000E+00	 0.00000000E+00	 4.38289000E-13

	 4.44929000E-13	 0.00000000E+00	 0.00000000E+00
	 0.00000000E+00	 4.44929000E-13	 0.00000000E+00
	 0.00000000E+00	 0.00000000E+00	 4.44929000E-13

	 4.55997000E-13	 0.00000000E+00	 0.00000000E+00
	 0.00000000E+00	 4.55997000E-13	 0.00000000E+00
	 0.00000000E+00	 0.00000000E+00	 4.55997000E-13

	 4.55997000E-13	 0.00000000E+00	 0.00000000E+00
	 0.00000000E+00	 4.55997000E-13	 0.00000000E+00
	 0.00000000E+00	 0.00000000E+00	 4.55997000E-13

	 4.58211000E-13	 0.00000000E+00	 0.00000000E+00
	 0.00000000E+00	 4.58211000E-13	 0.00000000E+00
	 0.00000000E+00	 0.00000000E+00	 4.58211000E-13

	 4.58211000E-13	 0.00000000E+00	 0.00000000E+00
	 0.00000000E+00	 4.58211000E-13	 0.00000000E+00
	 0.00000000E+00	 0.00000000E+00	 4.58211000E-13

	 4.58211000E-13	 0.00000000E+00	 0.00000000E+00
	 0.00000000E+00	 4.58211000E-13	 0.00000000E+00
	 0.00000000E+00	 0.00000000E+00	 4.58211000E-13

	 4.51570000E-13	 0.00000000E+00	 0.00000000E+00
	 0.00000000E+00	 4.51570000E-13	 0.00000000E+00
	 0.00000000E+00	 0.00000000E+00	 4.51570000E-13

	 4.60425000E-13	 0.00000000E+00	 0.00000000E+00
	 0.00000000E+00	 4.60425000E-13	 0.00000000E+00
	 0.00000000E+00	 0.00000000E+00	 4.60425000E-13

	 4.38289000E-13	 0.00000000E+00	 0.00000000E+00
	 0.00000000E+00	 4.38289000E-13	 0.00000000E+00
	 0.00000000E+00	 0.00000000E+00	 4.38289000E-13

	 4.64852000E-13	 0.00000000E+00	 0.00000000E+00
	 0.00000000E+00	 4.64852000E-13	 0.00000000E+00
	 0.00000000E+00	 0.00000000E+00	 4.64852000E-13

	 4.55997000E-13	 0.00000000E+00	 0.00000000E+00
	 0.00000000E+00	 4.55997000E-13	 0.00000000E+00
	 0.00000000E+00	 0.00000000E+00	 4.55997000E-13

	 4.38289000E-13	 0.00000000E+00	 0.00000000E+00
	 0.00000000E+00	 4.38289000E-13	 0.00000000E+00
	 0.00000000E+00	 0.00000000E+00	 4.38289000E-13

	 4.64852000E-13	 0.00000000E+00	 0.00000000E+00
	 0.00000000E+00	 4.64852000E-13	 0.00000000E+00
	 0.00000000E+00	 0.00000000E+00	 4.64852000E-13

	 4.47143000E-13	 0.00000000E+00	 0.00000000E+00
	 0.00000000E+00	 4.47143000E-13	 0.00000000E+00
	 0.00000000E+00	 0.00000000E+00	 4.47143000E-13

	 4.62638000E-13	 0.00000000E+00	 0.00000000E+00
	 0.00000000E+00	 4.62638000E-13	 0.00000000E+00
	 0.00000000E+00	 0.00000000E+00	 4.62638000E-13

	 4.60425000E-13	 0.00000000E+00	 0.00000000E+00
	 0.00000000E+00	 4.60425000E-13	 0.00000000E+00
	 0.00000000E+00	 0.00000000E+00	 4.60425000E-13

	 4.64852000E-13	 0.00000000E+00	 0.00000000E+00
	 0.00000000E+00	 4.64852000E-13	 0.00000000E+00
	 0.00000000E+00	 0.00000000E+00	 4.64852000E-13

	 4.64852000E-13	 0.00000000E+00	 0.00000000E+00
	 0.00000000E+00	 4.64852000E-13	 0.00000000E+00
	 0.00000000E+00	 0.00000000E+00	 4.64852000E-13

	 4.47143000E-13	 0.00000000E+00	 0.00000000E+00
	 0.00000000E+00	 4.47143000E-13	 0.00000000E+00
	 0.00000000E+00	 0.00000000E+00	 4.47143000E-13

	 4.42716000E-13	 0.00000000E+00	 0.00000000E+00
	 0.00000000E+00	 4.42716000E-13	 0.00000000E+00
	 0.00000000E+00	 0.00000000E+00	 4.42716000E-13

	 4.58211000E-13	 0.00000000E+00	 0.00000000E+00
	 0.00000000E+00	 4.58211000E-13	 0.00000000E+00
	 0.00000000E+00	 0.00000000E+00	 4.58211000E-13

	 4.62638000E-13	 0.00000000E+00	 0.00000000E+00
	 0.00000000E+00	 4.62638000E-13	 0.00000000E+00
	 0.00000000E+00	 0.00000000E+00	 4.62638000E-13

	 4.64852000E-13	 0.00000000E+00	 0.00000000E+00
	 0.00000000E+00	 4.64852000E-13	 0.00000000E+00
	 0.00000000E+00	 0.00000000E+00	 4.64852000E-13

	 4.64852000E-13	 0.00000000E+00	 0.00000000E+00
	 0.00000000E+00	 4.64852000E-13	 0.00000000E+00
	 0.00000000E+00	 0.00000000E+00	 4.64852000E-13

	 4.64852000E-13	 0.00000000E+00	 0.00000000E+00
	 0.00000000E+00	 4.64852000E-13	 0.00000000E+00
	 0.00000000E+00	 0.00000000E+00	 4.64852000E-13

	 4.47143000E-13	 0.00000000E+00	 0.00000000E+00
	 0.00000000E+00	 4.47143000E-13	 0.00000000E+00
	 0.00000000E+00	 0.00000000E+00	 4.47143000E-13

	 4.64852000E-13	 0.00000000E+00	 0.00000000E+00
	 0.00000000E+00	 4.64852000E-13	 0.00000000E+00
	 0.00000000E+00	 0.00000000E+00	 4.64852000E-13

	 4.40502000E-13	 0.00000000E+00	 0.00000000E+00
	 0.00000000E+00	 4.40502000E-13	 0.00000000E+00
	 0.00000000E+00	 0.00000000E+00	 4.40502000E-13

	 4.64852000E-13	 0.00000000E+00	 0.00000000E+00
	 0.00000000E+00	 4.64852000E-13	 0.00000000E+00
	 0.00000000E+00	 0.00000000E+00	 4.64852000E-13

	 4.64852000E-13	 0.00000000E+00	 0.00000000E+00
	 0.00000000E+00	 4.64852000E-13	 0.00000000E+00
	 0.00000000E+00	 0.00000000E+00	 4.64852000E-13

	 4.64852000E-13	 0.00000000E+00	 0.00000000E+00
	 0.00000000E+00	 4.64852000E-13	 0.00000000E+00
	 0.00000000E+00	 0.00000000E+00	 4.64852000E-13

	 4.38289000E-13	 0.00000000E+00	 0.00000000E+00
	 0.00000000E+00	 4.38289000E-13	 0.00000000E+00
	 0.00000000E+00	 0.00000000E+00	 4.38289000E-13

	 4.47143000E-13	 0.00000000E+00	 0.00000000E+00
	 0.00000000E+00	 4.47143000E-13	 0.00000000E+00
	 0.00000000E+00	 0.00000000E+00	 4.47143000E-13

	 4.64852000E-13	 0.00000000E+00	 0.00000000E+00
	 0.00000000E+00	 4.64852000E-13	 0.00000000E+00
	 0.00000000E+00	 0.00000000E+00	 4.64852000E-13

	 4.64852000E-13	 0.00000000E+00	 0.00000000E+00
	 0.00000000E+00	 4.64852000E-13	 0.00000000E+00
	 0.00000000E+00	 0.00000000E+00	 4.64852000E-13

	 4.64852000E-13	 0.00000000E+00	 0.00000000E+00
	 0.00000000E+00	 4.64852000E-13	 0.00000000E+00
	 0.00000000E+00	 0.00000000E+00	 4.64852000E-13

	 4.62638000E-13	 0.00000000E+00	 0.00000000E+00
	 0.00000000E+00	 4.62638000E-13	 0.00000000E+00
	 0.00000000E+00	 0.00000000E+00	 4.62638000E-13

	 4.62638000E-13	 0.00000000E+00	 0.00000000E+00
	 0.00000000E+00	 4.62638000E-13	 0.00000000E+00
	 0.00000000E+00	 0.00000000E+00	 4.62638000E-13

	 4.64852000E-13	 0.00000000E+00	 0.00000000E+00
	 0.00000000E+00	 4.64852000E-13	 0.00000000E+00
	 0.00000000E+00	 0.00000000E+00	 4.64852000E-13

	 4.62638000E-13	 0.00000000E+00	 0.00000000E+00
	 0.00000000E+00	 4.62638000E-13	 0.00000000E+00
	 0.00000000E+00	 0.00000000E+00	 4.62638000E-13

	 4.62638000E-13	 0.00000000E+00	 0.00000000E+00
	 0.00000000E+00	 4.62638000E-13	 0.00000000E+00
	 0.00000000E+00	 0.00000000E+00	 4.62638000E-13

	 4.64852000E-13	 0.00000000E+00	 0.00000000E+00
	 0.00000000E+00	 4.64852000E-13	 0.00000000E+00
	 0.00000000E+00	 0.00000000E+00	 4.64852000E-13

	 4.64852000E-13	 0.00000000E+00	 0.00000000E+00
	 0.00000000E+00	 4.64852000E-13	 0.00000000E+00
	 0.00000000E+00	 0.00000000E+00	 4.64852000E-13

	 4.64852000E-13	 0.00000000E+00	 0.00000000E+00
	 0.00000000E+00	 4.64852000E-13	 0.00000000E+00
	 0.00000000E+00	 0.00000000E+00	 4.64852000E-13

	 4.53784000E-13	 0.00000000E+00	 0.00000000E+00
	 0.00000000E+00	 4.53784000E-13	 0.00000000E+00
	 0.00000000E+00	 0.00000000E+00	 4.53784000E-13

	 4.44929000E-13	 0.00000000E+00	 0.00000000E+00
	 0.00000000E+00	 4.44929000E-13	 0.00000000E+00
	 0.00000000E+00	 0.00000000E+00	 4.44929000E-13

	 4.44929000E-13	 0.00000000E+00	 0.00000000E+00
	 0.00000000E+00	 4.44929000E-13	 0.00000000E+00
	 0.00000000E+00	 0.00000000E+00	 4.44929000E-13

	 4.42716000E-13	 0.00000000E+00	 0.00000000E+00
	 0.00000000E+00	 4.42716000E-13	 0.00000000E+00
	 0.00000000E+00	 0.00000000E+00	 4.42716000E-13

	 4.38289000E-13	 0.00000000E+00	 0.00000000E+00
	 0.00000000E+00	 4.38289000E-13	 0.00000000E+00
	 0.00000000E+00	 0.00000000E+00	 4.38289000E-13

	 4.38289000E-13	 0.00000000E+00	 0.00000000E+00
	 0.00000000E+00	 4.38289000E-13	 0.00000000E+00
	 0.00000000E+00	 0.00000000E+00	 4.38289000E-13

	 4.42716000E-13	 0.00000000E+00	 0.00000000E+00
	 0.00000000E+00	 4.42716000E-13	 0.00000000E+00
	 0.00000000E+00	 0.00000000E+00	 4.42716000E-13

	 4.47143000E-13	 0.00000000E+00	 0.00000000E+00
	 0.00000000E+00	 4.47143000E-13	 0.00000000E+00
	 0.00000000E+00	 0.00000000E+00	 4.47143000E-13

	 4.64852000E-13	 0.00000000E+00	 0.00000000E+00
	 0.00000000E+00	 4.64852000E-13	 0.00000000E+00
	 0.00000000E+00	 0.00000000E+00	 4.64852000E-13

	 4.64852000E-13	 0.00000000E+00	 0.00000000E+00
	 0.00000000E+00	 4.64852000E-13	 0.00000000E+00
	 0.00000000E+00	 0.00000000E+00	 4.64852000E-13

	 4.38289000E-13	 0.00000000E+00	 0.00000000E+00
	 0.00000000E+00	 4.38289000E-13	 0.00000000E+00
	 0.00000000E+00	 0.00000000E+00	 4.38289000E-13

	 4.64852000E-13	 0.00000000E+00	 0.00000000E+00
	 0.00000000E+00	 4.64852000E-13	 0.00000000E+00
	 0.00000000E+00	 0.00000000E+00	 4.64852000E-13

	 4.38289000E-13	 0.00000000E+00	 0.00000000E+00
	 0.00000000E+00	 4.38289000E-13	 0.00000000E+00
	 0.00000000E+00	 0.00000000E+00	 4.38289000E-13

	 4.53784000E-13	 0.00000000E+00	 0.00000000E+00
	 0.00000000E+00	 4.53784000E-13	 0.00000000E+00
	 0.00000000E+00	 0.00000000E+00	 4.53784000E-13

	 4.38289000E-13	 0.00000000E+00	 0.00000000E+00
	 0.00000000E+00	 4.38289000E-13	 0.00000000E+00
	 0.00000000E+00	 0.00000000E+00	 4.38289000E-13

	 4.64852000E-13	 0.00000000E+00	 0.00000000E+00
	 0.00000000E+00	 4.64852000E-13	 0.00000000E+00
	 0.00000000E+00	 0.00000000E+00	 4.64852000E-13

	 4.62638000E-13	 0.00000000E+00	 0.00000000E+00
	 0.00000000E+00	 4.62638000E-13	 0.00000000E+00
	 0.00000000E+00	 0.00000000E+00	 4.62638000E-13

	 4.60425000E-13	 0.00000000E+00	 0.00000000E+00
	 0.00000000E+00	 4.60425000E-13	 0.00000000E+00
	 0.00000000E+00	 0.00000000E+00	 4.60425000E-13

	 4.62638000E-13	 0.00000000E+00	 0.00000000E+00
	 0.00000000E+00	 4.62638000E-13	 0.00000000E+00
	 0.00000000E+00	 0.00000000E+00	 4.62638000E-13

	 4.55997000E-13	 0.00000000E+00	 0.00000000E+00
	 0.00000000E+00	 4.55997000E-13	 0.00000000E+00
	 0.00000000E+00	 0.00000000E+00	 4.55997000E-13

	 4.47143000E-13	 0.00000000E+00	 0.00000000E+00
	 0.00000000E+00	 4.47143000E-13	 0.00000000E+00
	 0.00000000E+00	 0.00000000E+00	 4.47143000E-13

	 4.42716000E-13	 0.00000000E+00	 0.00000000E+00
	 0.00000000E+00	 4.42716000E-13	 0.00000000E+00
	 0.00000000E+00	 0.00000000E+00	 4.42716000E-13

	 4.49357000E-13	 0.00000000E+00	 0.00000000E+00
	 0.00000000E+00	 4.49357000E-13	 0.00000000E+00
	 0.00000000E+00	 0.00000000E+00	 4.49357000E-13

	 4.47143000E-13	 0.00000000E+00	 0.00000000E+00
	 0.00000000E+00	 4.47143000E-13	 0.00000000E+00
	 0.00000000E+00	 0.00000000E+00	 4.47143000E-13

	 4.53784000E-13	 0.00000000E+00	 0.00000000E+00
	 0.00000000E+00	 4.53784000E-13	 0.00000000E+00
	 0.00000000E+00	 0.00000000E+00	 4.53784000E-13

	 4.53784000E-13	 0.00000000E+00	 0.00000000E+00
	 0.00000000E+00	 4.53784000E-13	 0.00000000E+00
	 0.00000000E+00	 0.00000000E+00	 4.53784000E-13

	 4.47143000E-13	 0.00000000E+00	 0.00000000E+00
	 0.00000000E+00	 4.47143000E-13	 0.00000000E+00
	 0.00000000E+00	 0.00000000E+00	 4.47143000E-13

	 4.51570000E-13	 0.00000000E+00	 0.00000000E+00
	 0.00000000E+00	 4.51570000E-13	 0.00000000E+00
	 0.00000000E+00	 0.00000000E+00	 4.51570000E-13

	 4.55997000E-13	 0.00000000E+00	 0.00000000E+00
	 0.00000000E+00	 4.55997000E-13	 0.00000000E+00
	 0.00000000E+00	 0.00000000E+00	 4.55997000E-13

	 4.62638000E-13	 0.00000000E+00	 0.00000000E+00
	 0.00000000E+00	 4.62638000E-13	 0.00000000E+00
	 0.00000000E+00	 0.00000000E+00	 4.62638000E-13

	 4.40502000E-13	 0.00000000E+00	 0.00000000E+00
	 0.00000000E+00	 4.40502000E-13	 0.00000000E+00
	 0.00000000E+00	 0.00000000E+00	 4.40502000E-13

	 4.55997000E-13	 0.00000000E+00	 0.00000000E+00
	 0.00000000E+00	 4.55997000E-13	 0.00000000E+00
	 0.00000000E+00	 0.00000000E+00	 4.55997000E-13

	 4.60425000E-13	 0.00000000E+00	 0.00000000E+00
	 0.00000000E+00	 4.60425000E-13	 0.00000000E+00
	 0.00000000E+00	 0.00000000E+00	 4.60425000E-13

	 4.60425000E-13	 0.00000000E+00	 0.00000000E+00
	 0.00000000E+00	 4.60425000E-13	 0.00000000E+00
	 0.00000000E+00	 0.00000000E+00	 4.60425000E-13

	 4.58211000E-13	 0.00000000E+00	 0.00000000E+00
	 0.00000000E+00	 4.58211000E-13	 0.00000000E+00
	 0.00000000E+00	 0.00000000E+00	 4.58211000E-13

	 4.60425000E-13	 0.00000000E+00	 0.00000000E+00
	 0.00000000E+00	 4.60425000E-13	 0.00000000E+00
	 0.00000000E+00	 0.00000000E+00	 4.60425000E-13

	 4.58211000E-13	 0.00000000E+00	 0.00000000E+00
	 0.00000000E+00	 4.58211000E-13	 0.00000000E+00
	 0.00000000E+00	 0.00000000E+00	 4.58211000E-13

	 4.55997000E-13	 0.00000000E+00	 0.00000000E+00
	 0.00000000E+00	 4.55997000E-13	 0.00000000E+00
	 0.00000000E+00	 0.00000000E+00	 4.55997000E-13

	 4.60425000E-13	 0.00000000E+00	 0.00000000E+00
	 0.00000000E+00	 4.60425000E-13	 0.00000000E+00
	 0.00000000E+00	 0.00000000E+00	 4.60425000E-13

	 4.58211000E-13	 0.00000000E+00	 0.00000000E+00
	 0.00000000E+00	 4.58211000E-13	 0.00000000E+00
	 0.00000000E+00	 0.00000000E+00	 4.58211000E-13

	 4.62638000E-13	 0.00000000E+00	 0.00000000E+00
	 0.00000000E+00	 4.62638000E-13	 0.00000000E+00
	 0.00000000E+00	 0.00000000E+00	 4.62638000E-13

	 4.60425000E-13	 0.00000000E+00	 0.00000000E+00
	 0.00000000E+00	 4.60425000E-13	 0.00000000E+00
	 0.00000000E+00	 0.00000000E+00	 4.60425000E-13

	 4.58211000E-13	 0.00000000E+00	 0.00000000E+00
	 0.00000000E+00	 4.58211000E-13	 0.00000000E+00
	 0.00000000E+00	 0.00000000E+00	 4.58211000E-13

	 4.58211000E-13	 0.00000000E+00	 0.00000000E+00
	 0.00000000E+00	 4.58211000E-13	 0.00000000E+00
	 0.00000000E+00	 0.00000000E+00	 4.58211000E-13

	 4.62638000E-13	 0.00000000E+00	 0.00000000E+00
	 0.00000000E+00	 4.62638000E-13	 0.00000000E+00
	 0.00000000E+00	 0.00000000E+00	 4.62638000E-13

	 4.64852000E-13	 0.00000000E+00	 0.00000000E+00
	 0.00000000E+00	 4.64852000E-13	 0.00000000E+00
	 0.00000000E+00	 0.00000000E+00	 4.64852000E-13

	 4.64852000E-13	 0.00000000E+00	 0.00000000E+00
	 0.00000000E+00	 4.64852000E-13	 0.00000000E+00
	 0.00000000E+00	 0.00000000E+00	 4.64852000E-13

	 4.58211000E-13	 0.00000000E+00	 0.00000000E+00
	 0.00000000E+00	 4.58211000E-13	 0.00000000E+00
	 0.00000000E+00	 0.00000000E+00	 4.58211000E-13

	 4.49357000E-13	 0.00000000E+00	 0.00000000E+00
	 0.00000000E+00	 4.49357000E-13	 0.00000000E+00
	 0.00000000E+00	 0.00000000E+00	 4.49357000E-13

	 4.58211000E-13	 0.00000000E+00	 0.00000000E+00
	 0.00000000E+00	 4.58211000E-13	 0.00000000E+00
	 0.00000000E+00	 0.00000000E+00	 4.58211000E-13

	 4.60425000E-13	 0.00000000E+00	 0.00000000E+00
	 0.00000000E+00	 4.60425000E-13	 0.00000000E+00
	 0.00000000E+00	 0.00000000E+00	 4.60425000E-13

	 4.55997000E-13	 0.00000000E+00	 0.00000000E+00
	 0.00000000E+00	 4.55997000E-13	 0.00000000E+00
	 0.00000000E+00	 0.00000000E+00	 4.55997000E-13

	 4.64852000E-13	 0.00000000E+00	 0.00000000E+00
	 0.00000000E+00	 4.64852000E-13	 0.00000000E+00
	 0.00000000E+00	 0.00000000E+00	 4.64852000E-13

	 4.42716000E-13	 0.00000000E+00	 0.00000000E+00
	 0.00000000E+00	 4.42716000E-13	 0.00000000E+00
	 0.00000000E+00	 0.00000000E+00	 4.42716000E-13

	 4.38289000E-13	 0.00000000E+00	 0.00000000E+00
	 0.00000000E+00	 4.38289000E-13	 0.00000000E+00
	 0.00000000E+00	 0.00000000E+00	 4.38289000E-13

	 4.55997000E-13	 0.00000000E+00	 0.00000000E+00
	 0.00000000E+00	 4.55997000E-13	 0.00000000E+00
	 0.00000000E+00	 0.00000000E+00	 4.55997000E-13

	 4.55997000E-13	 0.00000000E+00	 0.00000000E+00
	 0.00000000E+00	 4.55997000E-13	 0.00000000E+00
	 0.00000000E+00	 0.00000000E+00	 4.55997000E-13

	 4.44929000E-13	 0.00000000E+00	 0.00000000E+00
	 0.00000000E+00	 4.44929000E-13	 0.00000000E+00
	 0.00000000E+00	 0.00000000E+00	 4.44929000E-13

	 4.64852000E-13	 0.00000000E+00	 0.00000000E+00
	 0.00000000E+00	 4.64852000E-13	 0.00000000E+00
	 0.00000000E+00	 0.00000000E+00	 4.64852000E-13

	 4.64852000E-13	 0.00000000E+00	 0.00000000E+00
	 0.00000000E+00	 4.64852000E-13	 0.00000000E+00
	 0.00000000E+00	 0.00000000E+00	 4.64852000E-13

	 4.53784000E-13	 0.00000000E+00	 0.00000000E+00
	 0.00000000E+00	 4.53784000E-13	 0.00000000E+00
	 0.00000000E+00	 0.00000000E+00	 4.53784000E-13

	 4.42716000E-13	 0.00000000E+00	 0.00000000E+00
	 0.00000000E+00	 4.42716000E-13	 0.00000000E+00
	 0.00000000E+00	 0.00000000E+00	 4.42716000E-13

	 4.38289000E-13	 0.00000000E+00	 0.00000000E+00
	 0.00000000E+00	 4.38289000E-13	 0.00000000E+00
	 0.00000000E+00	 0.00000000E+00	 4.38289000E-13

	 4.38289000E-13	 0.00000000E+00	 0.00000000E+00
	 0.00000000E+00	 4.38289000E-13	 0.00000000E+00
	 0.00000000E+00	 0.00000000E+00	 4.38289000E-13

	 4.38289000E-13	 0.00000000E+00	 0.00000000E+00
	 0.00000000E+00	 4.38289000E-13	 0.00000000E+00
	 0.00000000E+00	 0.00000000E+00	 4.38289000E-13

	 4.60425000E-13	 0.00000000E+00	 0.00000000E+00
	 0.00000000E+00	 4.60425000E-13	 0.00000000E+00
	 0.00000000E+00	 0.00000000E+00	 4.60425000E-13

	 4.60425000E-13	 0.00000000E+00	 0.00000000E+00
	 0.00000000E+00	 4.60425000E-13	 0.00000000E+00
	 0.00000000E+00	 0.00000000E+00	 4.60425000E-13

	 4.58211000E-13	 0.00000000E+00	 0.00000000E+00
	 0.00000000E+00	 4.58211000E-13	 0.00000000E+00
	 0.00000000E+00	 0.00000000E+00	 4.58211000E-13

	 4.60425000E-13	 0.00000000E+00	 0.00000000E+00
	 0.00000000E+00	 4.60425000E-13	 0.00000000E+00
	 0.00000000E+00	 0.00000000E+00	 4.60425000E-13

	 4.62638000E-13	 0.00000000E+00	 0.00000000E+00
	 0.00000000E+00	 4.62638000E-13	 0.00000000E+00
	 0.00000000E+00	 0.00000000E+00	 4.62638000E-13

	 4.60425000E-13	 0.00000000E+00	 0.00000000E+00
	 0.00000000E+00	 4.60425000E-13	 0.00000000E+00
	 0.00000000E+00	 0.00000000E+00	 4.60425000E-13

	 4.44929000E-13	 0.00000000E+00	 0.00000000E+00
	 0.00000000E+00	 4.44929000E-13	 0.00000000E+00
	 0.00000000E+00	 0.00000000E+00	 4.44929000E-13

	 4.49357000E-13	 0.00000000E+00	 0.00000000E+00
	 0.00000000E+00	 4.49357000E-13	 0.00000000E+00
	 0.00000000E+00	 0.00000000E+00	 4.49357000E-13

	 4.47143000E-13	 0.00000000E+00	 0.00000000E+00
	 0.00000000E+00	 4.47143000E-13	 0.00000000E+00
	 0.00000000E+00	 0.00000000E+00	 4.47143000E-13

	 4.38289000E-13	 0.00000000E+00	 0.00000000E+00
	 0.00000000E+00	 4.38289000E-13	 0.00000000E+00
	 0.00000000E+00	 0.00000000E+00	 4.38289000E-13

	 4.42716000E-13	 0.00000000E+00	 0.00000000E+00
	 0.00000000E+00	 4.42716000E-13	 0.00000000E+00
	 0.00000000E+00	 0.00000000E+00	 4.42716000E-13

	 4.64852000E-13	 0.00000000E+00	 0.00000000E+00
	 0.00000000E+00	 4.64852000E-13	 0.00000000E+00
	 0.00000000E+00	 0.00000000E+00	 4.64852000E-13

	 4.53784000E-13	 0.00000000E+00	 0.00000000E+00
	 0.00000000E+00	 4.53784000E-13	 0.00000000E+00
	 0.00000000E+00	 0.00000000E+00	 4.53784000E-13

	 4.64852000E-13	 0.00000000E+00	 0.00000000E+00
	 0.00000000E+00	 4.64852000E-13	 0.00000000E+00
	 0.00000000E+00	 0.00000000E+00	 4.64852000E-13

	 4.51570000E-13	 0.00000000E+00	 0.00000000E+00
	 0.00000000E+00	 4.51570000E-13	 0.00000000E+00
	 0.00000000E+00	 0.00000000E+00	 4.51570000E-13

	 4.64852000E-13	 0.00000000E+00	 0.00000000E+00
	 0.00000000E+00	 4.64852000E-13	 0.00000000E+00
	 0.00000000E+00	 0.00000000E+00	 4.64852000E-13

	 4.64852000E-13	 0.00000000E+00	 0.00000000E+00
	 0.00000000E+00	 4.64852000E-13	 0.00000000E+00
	 0.00000000E+00	 0.00000000E+00	 4.64852000E-13

	 4.51570000E-13	 0.00000000E+00	 0.00000000E+00
	 0.00000000E+00	 4.51570000E-13	 0.00000000E+00
	 0.00000000E+00	 0.00000000E+00	 4.51570000E-13

	 4.64852000E-13	 0.00000000E+00	 0.00000000E+00
	 0.00000000E+00	 4.64852000E-13	 0.00000000E+00
	 0.00000000E+00	 0.00000000E+00	 4.64852000E-13

	 4.64852000E-13	 0.00000000E+00	 0.00000000E+00
	 0.00000000E+00	 4.64852000E-13	 0.00000000E+00
	 0.00000000E+00	 0.00000000E+00	 4.64852000E-13

	 4.38289000E-13	 0.00000000E+00	 0.00000000E+00
	 0.00000000E+00	 4.38289000E-13	 0.00000000E+00
	 0.00000000E+00	 0.00000000E+00	 4.38289000E-13

	 4.38289000E-13	 0.00000000E+00	 0.00000000E+00
	 0.00000000E+00	 4.38289000E-13	 0.00000000E+00
	 0.00000000E+00	 0.00000000E+00	 4.38289000E-13

	 4.42083000E-13	 0.00000000E+00	 0.00000000E+00
	 0.00000000E+00	 4.42083000E-13	 0.00000000E+00
	 0.00000000E+00	 0.00000000E+00	 4.42083000E-13

	 4.58211000E-13	 0.00000000E+00	 0.00000000E+00
	 0.00000000E+00	 4.58211000E-13	 0.00000000E+00
	 0.00000000E+00	 0.00000000E+00	 4.58211000E-13

	 4.38289000E-13	 0.00000000E+00	 0.00000000E+00
	 0.00000000E+00	 4.38289000E-13	 0.00000000E+00
	 0.00000000E+00	 0.00000000E+00	 4.38289000E-13

	 4.40502000E-13	 0.00000000E+00	 0.00000000E+00
	 0.00000000E+00	 4.40502000E-13	 0.00000000E+00
	 0.00000000E+00	 0.00000000E+00	 4.40502000E-13

	 4.59160000E-13	 0.00000000E+00	 0.00000000E+00
	 0.00000000E+00	 4.59160000E-13	 0.00000000E+00
	 0.00000000E+00	 0.00000000E+00	 4.59160000E-13

	 4.64852000E-13	 0.00000000E+00	 0.00000000E+00
	 0.00000000E+00	 4.64852000E-13	 0.00000000E+00
	 0.00000000E+00	 0.00000000E+00	 4.64852000E-13

	 4.64852000E-13	 0.00000000E+00	 0.00000000E+00
	 0.00000000E+00	 4.64852000E-13	 0.00000000E+00
	 0.00000000E+00	 0.00000000E+00	 4.64852000E-13

	 4.64852000E-13	 0.00000000E+00	 0.00000000E+00
	 0.00000000E+00	 4.64852000E-13	 0.00000000E+00
	 0.00000000E+00	 0.00000000E+00	 4.64852000E-13

	 4.64852000E-13	 0.00000000E+00	 0.00000000E+00
	 0.00000000E+00	 4.64852000E-13	 0.00000000E+00
	 0.00000000E+00	 0.00000000E+00	 4.64852000E-13

	 4.38289000E-13	 0.00000000E+00	 0.00000000E+00
	 0.00000000E+00	 4.38289000E-13	 0.00000000E+00
	 0.00000000E+00	 0.00000000E+00	 4.38289000E-13

	 4.40502000E-13	 0.00000000E+00	 0.00000000E+00
	 0.00000000E+00	 4.40502000E-13	 0.00000000E+00
	 0.00000000E+00	 0.00000000E+00	 4.40502000E-13

	 4.64852000E-13	 0.00000000E+00	 0.00000000E+00
	 0.00000000E+00	 4.64852000E-13	 0.00000000E+00
	 0.00000000E+00	 0.00000000E+00	 4.64852000E-13

	 4.64852000E-13	 0.00000000E+00	 0.00000000E+00
	 0.00000000E+00	 4.64852000E-13	 0.00000000E+00
	 0.00000000E+00	 0.00000000E+00	 4.64852000E-13

	 4.46258000E-13	 0.00000000E+00	 0.00000000E+00
	 0.00000000E+00	 4.46258000E-13	 0.00000000E+00
	 0.00000000E+00	 0.00000000E+00	 4.46258000E-13

	 4.38289000E-13	 0.00000000E+00	 0.00000000E+00
	 0.00000000E+00	 4.38289000E-13	 0.00000000E+00
	 0.00000000E+00	 0.00000000E+00	 4.38289000E-13

	 4.59539000E-13	 0.00000000E+00	 0.00000000E+00
	 0.00000000E+00	 4.59539000E-13	 0.00000000E+00
	 0.00000000E+00	 0.00000000E+00	 4.59539000E-13

	 4.64852000E-13	 0.00000000E+00	 0.00000000E+00
	 0.00000000E+00	 4.64852000E-13	 0.00000000E+00
	 0.00000000E+00	 0.00000000E+00	 4.64852000E-13

	 4.38289000E-13	 0.00000000E+00	 0.00000000E+00
	 0.00000000E+00	 4.38289000E-13	 0.00000000E+00
	 0.00000000E+00	 0.00000000E+00	 4.38289000E-13

	 4.60425000E-13	 0.00000000E+00	 0.00000000E+00
	 0.00000000E+00	 4.60425000E-13	 0.00000000E+00
	 0.00000000E+00	 0.00000000E+00	 4.60425000E-13

	 4.64852000E-13	 0.00000000E+00	 0.00000000E+00
	 0.00000000E+00	 4.64852000E-13	 0.00000000E+00
	 0.00000000E+00	 0.00000000E+00	 4.64852000E-13

	 4.64852000E-13	 0.00000000E+00	 0.00000000E+00
	 0.00000000E+00	 4.64852000E-13	 0.00000000E+00
	 0.00000000E+00	 0.00000000E+00	 4.64852000E-13

	 4.64852000E-13	 0.00000000E+00	 0.00000000E+00
	 0.00000000E+00	 4.64852000E-13	 0.00000000E+00
	 0.00000000E+00	 0.00000000E+00	 4.64852000E-13

	 4.64852000E-13	 0.00000000E+00	 0.00000000E+00
	 0.00000000E+00	 4.64852000E-13	 0.00000000E+00
	 0.00000000E+00	 0.00000000E+00	 4.64852000E-13

	 4.38289000E-13	 0.00000000E+00	 0.00000000E+00
	 0.00000000E+00	 4.38289000E-13	 0.00000000E+00
	 0.00000000E+00	 0.00000000E+00	 4.38289000E-13

	 4.44929000E-13	 0.00000000E+00	 0.00000000E+00
	 0.00000000E+00	 4.44929000E-13	 0.00000000E+00
	 0.00000000E+00	 0.00000000E+00	 4.44929000E-13

	 4.43981000E-13	 0.00000000E+00	 0.00000000E+00
	 0.00000000E+00	 4.43981000E-13	 0.00000000E+00
	 0.00000000E+00	 0.00000000E+00	 4.43981000E-13

	 4.38289000E-13	 0.00000000E+00	 0.00000000E+00
	 0.00000000E+00	 4.38289000E-13	 0.00000000E+00
	 0.00000000E+00	 0.00000000E+00	 4.38289000E-13

	 4.53784000E-13	 0.00000000E+00	 0.00000000E+00
	 0.00000000E+00	 4.53784000E-13	 0.00000000E+00
	 0.00000000E+00	 0.00000000E+00	 4.53784000E-13

	 4.60425000E-13	 0.00000000E+00	 0.00000000E+00
	 0.00000000E+00	 4.60425000E-13	 0.00000000E+00
	 0.00000000E+00	 0.00000000E+00	 4.60425000E-13

	 4.42716000E-13	 0.00000000E+00	 0.00000000E+00
	 0.00000000E+00	 4.42716000E-13	 0.00000000E+00
	 0.00000000E+00	 0.00000000E+00	 4.42716000E-13

	 4.38289000E-13	 0.00000000E+00	 0.00000000E+00
	 0.00000000E+00	 4.38289000E-13	 0.00000000E+00
	 0.00000000E+00	 0.00000000E+00	 4.38289000E-13

	 4.38289000E-13	 0.00000000E+00	 0.00000000E+00
	 0.00000000E+00	 4.38289000E-13	 0.00000000E+00
	 0.00000000E+00	 0.00000000E+00	 4.38289000E-13

	 4.38289000E-13	 0.00000000E+00	 0.00000000E+00
	 0.00000000E+00	 4.38289000E-13	 0.00000000E+00
	 0.00000000E+00	 0.00000000E+00	 4.38289000E-13

	 4.38289000E-13	 0.00000000E+00	 0.00000000E+00
	 0.00000000E+00	 4.38289000E-13	 0.00000000E+00
	 0.00000000E+00	 0.00000000E+00	 4.38289000E-13

	 4.38289000E-13	 0.00000000E+00	 0.00000000E+00
	 0.00000000E+00	 4.38289000E-13	 0.00000000E+00
	 0.00000000E+00	 0.00000000E+00	 4.38289000E-13

	 4.38289000E-13	 0.00000000E+00	 0.00000000E+00
	 0.00000000E+00	 4.38289000E-13	 0.00000000E+00
	 0.00000000E+00	 0.00000000E+00	 4.38289000E-13

	 4.42716000E-13	 0.00000000E+00	 0.00000000E+00
	 0.00000000E+00	 4.42716000E-13	 0.00000000E+00
	 0.00000000E+00	 0.00000000E+00	 4.42716000E-13

	 4.38289000E-13	 0.00000000E+00	 0.00000000E+00
	 0.00000000E+00	 4.38289000E-13	 0.00000000E+00
	 0.00000000E+00	 0.00000000E+00	 4.38289000E-13

	 4.42716000E-13	 0.00000000E+00	 0.00000000E+00
	 0.00000000E+00	 4.42716000E-13	 0.00000000E+00
	 0.00000000E+00	 0.00000000E+00	 4.42716000E-13

	 4.38289000E-13	 0.00000000E+00	 0.00000000E+00
	 0.00000000E+00	 4.38289000E-13	 0.00000000E+00
	 0.00000000E+00	 0.00000000E+00	 4.38289000E-13

	 4.38289000E-13	 0.00000000E+00	 0.00000000E+00
	 0.00000000E+00	 4.38289000E-13	 0.00000000E+00
	 0.00000000E+00	 0.00000000E+00	 4.38289000E-13

	 4.38289000E-13	 0.00000000E+00	 0.00000000E+00
	 0.00000000E+00	 4.38289000E-13	 0.00000000E+00
	 0.00000000E+00	 0.00000000E+00	 4.38289000E-13

	 4.42716000E-13	 0.00000000E+00	 0.00000000E+00
	 0.00000000E+00	 4.42716000E-13	 0.00000000E+00
	 0.00000000E+00	 0.00000000E+00	 4.42716000E-13

	 4.47143000E-13	 0.00000000E+00	 0.00000000E+00
	 0.00000000E+00	 4.47143000E-13	 0.00000000E+00
	 0.00000000E+00	 0.00000000E+00	 4.47143000E-13

	 4.42716000E-13	 0.00000000E+00	 0.00000000E+00
	 0.00000000E+00	 4.42716000E-13	 0.00000000E+00
	 0.00000000E+00	 0.00000000E+00	 4.42716000E-13

	 4.49357000E-13	 0.00000000E+00	 0.00000000E+00
	 0.00000000E+00	 4.49357000E-13	 0.00000000E+00
	 0.00000000E+00	 0.00000000E+00	 4.49357000E-13

	 4.55997000E-13	 0.00000000E+00	 0.00000000E+00
	 0.00000000E+00	 4.55997000E-13	 0.00000000E+00
	 0.00000000E+00	 0.00000000E+00	 4.55997000E-13

	 4.58211000E-13	 0.00000000E+00	 0.00000000E+00
	 0.00000000E+00	 4.58211000E-13	 0.00000000E+00
	 0.00000000E+00	 0.00000000E+00	 4.58211000E-13

	 4.51570000E-13	 0.00000000E+00	 0.00000000E+00
	 0.00000000E+00	 4.51570000E-13	 0.00000000E+00
	 0.00000000E+00	 0.00000000E+00	 4.51570000E-13

	 4.51570000E-13	 0.00000000E+00	 0.00000000E+00
	 0.00000000E+00	 4.51570000E-13	 0.00000000E+00
	 0.00000000E+00	 0.00000000E+00	 4.51570000E-13

	 4.64852000E-13	 0.00000000E+00	 0.00000000E+00
	 0.00000000E+00	 4.64852000E-13	 0.00000000E+00
	 0.00000000E+00	 0.00000000E+00	 4.64852000E-13

	 4.60425000E-13	 0.00000000E+00	 0.00000000E+00
	 0.00000000E+00	 4.60425000E-13	 0.00000000E+00
	 0.00000000E+00	 0.00000000E+00	 4.60425000E-13

	 4.60425000E-13	 0.00000000E+00	 0.00000000E+00
	 0.00000000E+00	 4.60425000E-13	 0.00000000E+00
	 0.00000000E+00	 0.00000000E+00	 4.60425000E-13

	 4.58211000E-13	 0.00000000E+00	 0.00000000E+00
	 0.00000000E+00	 4.58211000E-13	 0.00000000E+00
	 0.00000000E+00	 0.00000000E+00	 4.58211000E-13

	 4.42716000E-13	 0.00000000E+00	 0.00000000E+00
	 0.00000000E+00	 4.42716000E-13	 0.00000000E+00
	 0.00000000E+00	 0.00000000E+00	 4.42716000E-13

	 4.47143000E-13	 0.00000000E+00	 0.00000000E+00
	 0.00000000E+00	 4.47143000E-13	 0.00000000E+00
	 0.00000000E+00	 0.00000000E+00	 4.47143000E-13

	 4.58211000E-13	 0.00000000E+00	 0.00000000E+00
	 0.00000000E+00	 4.58211000E-13	 0.00000000E+00
	 0.00000000E+00	 0.00000000E+00	 4.58211000E-13

	 4.49357000E-13	 0.00000000E+00	 0.00000000E+00
	 0.00000000E+00	 4.49357000E-13	 0.00000000E+00
	 0.00000000E+00	 0.00000000E+00	 4.49357000E-13

	 4.44929000E-13	 0.00000000E+00	 0.00000000E+00
	 0.00000000E+00	 4.44929000E-13	 0.00000000E+00
	 0.00000000E+00	 0.00000000E+00	 4.44929000E-13

	 4.38289000E-13	 0.00000000E+00	 0.00000000E+00
	 0.00000000E+00	 4.38289000E-13	 0.00000000E+00
	 0.00000000E+00	 0.00000000E+00	 4.38289000E-13

	 4.42716000E-13	 0.00000000E+00	 0.00000000E+00
	 0.00000000E+00	 4.42716000E-13	 0.00000000E+00
	 0.00000000E+00	 0.00000000E+00	 4.42716000E-13

	 4.44929000E-13	 0.00000000E+00	 0.00000000E+00
	 0.00000000E+00	 4.44929000E-13	 0.00000000E+00
	 0.00000000E+00	 0.00000000E+00	 4.44929000E-13

	 4.47143000E-13	 0.00000000E+00	 0.00000000E+00
	 0.00000000E+00	 4.47143000E-13	 0.00000000E+00
	 0.00000000E+00	 0.00000000E+00	 4.47143000E-13

	 4.49357000E-13	 0.00000000E+00	 0.00000000E+00
	 0.00000000E+00	 4.49357000E-13	 0.00000000E+00
	 0.00000000E+00	 0.00000000E+00	 4.49357000E-13

	 4.60425000E-13	 0.00000000E+00	 0.00000000E+00
	 0.00000000E+00	 4.60425000E-13	 0.00000000E+00
	 0.00000000E+00	 0.00000000E+00	 4.60425000E-13

	 4.49357000E-13	 0.00000000E+00	 0.00000000E+00
	 0.00000000E+00	 4.49357000E-13	 0.00000000E+00
	 0.00000000E+00	 0.00000000E+00	 4.49357000E-13

	 4.47143000E-13	 0.00000000E+00	 0.00000000E+00
	 0.00000000E+00	 4.47143000E-13	 0.00000000E+00
	 0.00000000E+00	 0.00000000E+00	 4.47143000E-13

	 4.42716000E-13	 0.00000000E+00	 0.00000000E+00
	 0.00000000E+00	 4.42716000E-13	 0.00000000E+00
	 0.00000000E+00	 0.00000000E+00	 4.42716000E-13

	 4.38289000E-13	 0.00000000E+00	 0.00000000E+00
	 0.00000000E+00	 4.38289000E-13	 0.00000000E+00
	 0.00000000E+00	 0.00000000E+00	 4.38289000E-13

	 4.47143000E-13	 0.00000000E+00	 0.00000000E+00
	 0.00000000E+00	 4.47143000E-13	 0.00000000E+00
	 0.00000000E+00	 0.00000000E+00	 4.47143000E-13

	 4.64852000E-13	 0.00000000E+00	 0.00000000E+00
	 0.00000000E+00	 4.64852000E-13	 0.00000000E+00
	 0.00000000E+00	 0.00000000E+00	 4.64852000E-13

	 4.55997000E-13	 0.00000000E+00	 0.00000000E+00
	 0.00000000E+00	 4.55997000E-13	 0.00000000E+00
	 0.00000000E+00	 0.00000000E+00	 4.55997000E-13

	 4.47143000E-13	 0.00000000E+00	 0.00000000E+00
	 0.00000000E+00	 4.47143000E-13	 0.00000000E+00
	 0.00000000E+00	 0.00000000E+00	 4.47143000E-13

	 4.38289000E-13	 0.00000000E+00	 0.00000000E+00
	 0.00000000E+00	 4.38289000E-13	 0.00000000E+00
	 0.00000000E+00	 0.00000000E+00	 4.38289000E-13

	 4.38289000E-13	 0.00000000E+00	 0.00000000E+00
	 0.00000000E+00	 4.38289000E-13	 0.00000000E+00
	 0.00000000E+00	 0.00000000E+00	 4.38289000E-13

	 4.38289000E-13	 0.00000000E+00	 0.00000000E+00
	 0.00000000E+00	 4.38289000E-13	 0.00000000E+00
	 0.00000000E+00	 0.00000000E+00	 4.38289000E-13

	 4.38289000E-13	 0.00000000E+00	 0.00000000E+00
	 0.00000000E+00	 4.38289000E-13	 0.00000000E+00
	 0.00000000E+00	 0.00000000E+00	 4.38289000E-13

	 4.38289000E-13	 0.00000000E+00	 0.00000000E+00
	 0.00000000E+00	 4.38289000E-13	 0.00000000E+00
	 0.00000000E+00	 0.00000000E+00	 4.38289000E-13

	 4.38289000E-13	 0.00000000E+00	 0.00000000E+00
	 0.00000000E+00	 4.38289000E-13	 0.00000000E+00
	 0.00000000E+00	 0.00000000E+00	 4.38289000E-13

	 4.42716000E-13	 0.00000000E+00	 0.00000000E+00
	 0.00000000E+00	 4.42716000E-13	 0.00000000E+00
	 0.00000000E+00	 0.00000000E+00	 4.42716000E-13

	 4.40502000E-13	 0.00000000E+00	 0.00000000E+00
	 0.00000000E+00	 4.40502000E-13	 0.00000000E+00
	 0.00000000E+00	 0.00000000E+00	 4.40502000E-13

	 4.49357000E-13	 0.00000000E+00	 0.00000000E+00
	 0.00000000E+00	 4.49357000E-13	 0.00000000E+00
	 0.00000000E+00	 0.00000000E+00	 4.49357000E-13

	 4.40502000E-13	 0.00000000E+00	 0.00000000E+00
	 0.00000000E+00	 4.40502000E-13	 0.00000000E+00
	 0.00000000E+00	 0.00000000E+00	 4.40502000E-13

	 4.42716000E-13	 0.00000000E+00	 0.00000000E+00
	 0.00000000E+00	 4.42716000E-13	 0.00000000E+00
	 0.00000000E+00	 0.00000000E+00	 4.42716000E-13

	 4.42716000E-13	 0.00000000E+00	 0.00000000E+00
	 0.00000000E+00	 4.42716000E-13	 0.00000000E+00
	 0.00000000E+00	 0.00000000E+00	 4.42716000E-13

	 4.38289000E-13	 0.00000000E+00	 0.00000000E+00
	 0.00000000E+00	 4.38289000E-13	 0.00000000E+00
	 0.00000000E+00	 0.00000000E+00	 4.38289000E-13

	 4.38289000E-13	 0.00000000E+00	 0.00000000E+00
	 0.00000000E+00	 4.38289000E-13	 0.00000000E+00
	 0.00000000E+00	 0.00000000E+00	 4.38289000E-13

	 4.38289000E-13	 0.00000000E+00	 0.00000000E+00
	 0.00000000E+00	 4.38289000E-13	 0.00000000E+00
	 0.00000000E+00	 0.00000000E+00	 4.38289000E-13

	 4.38289000E-13	 0.00000000E+00	 0.00000000E+00
	 0.00000000E+00	 4.38289000E-13	 0.00000000E+00
	 0.00000000E+00	 0.00000000E+00	 4.38289000E-13

	 4.38289000E-13	 0.00000000E+00	 0.00000000E+00
	 0.00000000E+00	 4.38289000E-13	 0.00000000E+00
	 0.00000000E+00	 0.00000000E+00	 4.38289000E-13

	 4.38289000E-13	 0.00000000E+00	 0.00000000E+00
	 0.00000000E+00	 4.38289000E-13	 0.00000000E+00
	 0.00000000E+00	 0.00000000E+00	 4.38289000E-13

	 4.42716000E-13	 0.00000000E+00	 0.00000000E+00
	 0.00000000E+00	 4.42716000E-13	 0.00000000E+00
	 0.00000000E+00	 0.00000000E+00	 4.42716000E-13

	 4.42716000E-13	 0.00000000E+00	 0.00000000E+00
	 0.00000000E+00	 4.42716000E-13	 0.00000000E+00
	 0.00000000E+00	 0.00000000E+00	 4.42716000E-13

	 4.38289000E-13	 0.00000000E+00	 0.00000000E+00
	 0.00000000E+00	 4.38289000E-13	 0.00000000E+00
	 0.00000000E+00	 0.00000000E+00	 4.38289000E-13

	 4.42716000E-13	 0.00000000E+00	 0.00000000E+00
	 0.00000000E+00	 4.42716000E-13	 0.00000000E+00
	 0.00000000E+00	 0.00000000E+00	 4.42716000E-13

	 4.38289000E-13	 0.00000000E+00	 0.00000000E+00
	 0.00000000E+00	 4.38289000E-13	 0.00000000E+00
	 0.00000000E+00	 0.00000000E+00	 4.38289000E-13

	 4.38289000E-13	 0.00000000E+00	 0.00000000E+00
	 0.00000000E+00	 4.38289000E-13	 0.00000000E+00
	 0.00000000E+00	 0.00000000E+00	 4.38289000E-13

	 4.42716000E-13	 0.00000000E+00	 0.00000000E+00
	 0.00000000E+00	 4.42716000E-13	 0.00000000E+00
	 0.00000000E+00	 0.00000000E+00	 4.42716000E-13

	 4.38289000E-13	 0.00000000E+00	 0.00000000E+00
	 0.00000000E+00	 4.38289000E-13	 0.00000000E+00
	 0.00000000E+00	 0.00000000E+00	 4.38289000E-13

	 4.38289000E-13	 0.00000000E+00	 0.00000000E+00
	 0.00000000E+00	 4.38289000E-13	 0.00000000E+00
	 0.00000000E+00	 0.00000000E+00	 4.38289000E-13

	 4.40502000E-13	 0.00000000E+00	 0.00000000E+00
	 0.00000000E+00	 4.40502000E-13	 0.00000000E+00
	 0.00000000E+00	 0.00000000E+00	 4.40502000E-13

	 4.55997000E-13	 0.00000000E+00	 0.00000000E+00
	 0.00000000E+00	 4.55997000E-13	 0.00000000E+00
	 0.00000000E+00	 0.00000000E+00	 4.55997000E-13

	 4.49357000E-13	 0.00000000E+00	 0.00000000E+00
	 0.00000000E+00	 4.49357000E-13	 0.00000000E+00
	 0.00000000E+00	 0.00000000E+00	 4.49357000E-13

	 4.60425000E-13	 0.00000000E+00	 0.00000000E+00
	 0.00000000E+00	 4.60425000E-13	 0.00000000E+00
	 0.00000000E+00	 0.00000000E+00	 4.60425000E-13

	 4.51570000E-13	 0.00000000E+00	 0.00000000E+00
	 0.00000000E+00	 4.51570000E-13	 0.00000000E+00
	 0.00000000E+00	 0.00000000E+00	 4.51570000E-13

	 4.47143000E-13	 0.00000000E+00	 0.00000000E+00
	 0.00000000E+00	 4.47143000E-13	 0.00000000E+00
	 0.00000000E+00	 0.00000000E+00	 4.47143000E-13

	 4.53784000E-13	 0.00000000E+00	 0.00000000E+00
	 0.00000000E+00	 4.53784000E-13	 0.00000000E+00
	 0.00000000E+00	 0.00000000E+00	 4.53784000E-13

	 4.38289000E-13	 0.00000000E+00	 0.00000000E+00
	 0.00000000E+00	 4.38289000E-13	 0.00000000E+00
	 0.00000000E+00	 0.00000000E+00	 4.38289000E-13

	 4.38289000E-13	 0.00000000E+00	 0.00000000E+00
	 0.00000000E+00	 4.38289000E-13	 0.00000000E+00
	 0.00000000E+00	 0.00000000E+00	 4.38289000E-13

	 4.53784000E-13	 0.00000000E+00	 0.00000000E+00
	 0.00000000E+00	 4.53784000E-13	 0.00000000E+00
	 0.00000000E+00	 0.00000000E+00	 4.53784000E-13

	 4.58211000E-13	 0.00000000E+00	 0.00000000E+00
	 0.00000000E+00	 4.58211000E-13	 0.00000000E+00
	 0.00000000E+00	 0.00000000E+00	 4.58211000E-13

	 4.64852000E-13	 0.00000000E+00	 0.00000000E+00
	 0.00000000E+00	 4.64852000E-13	 0.00000000E+00
	 0.00000000E+00	 0.00000000E+00	 4.64852000E-13

	 4.64852000E-13	 0.00000000E+00	 0.00000000E+00
	 0.00000000E+00	 4.64852000E-13	 0.00000000E+00
	 0.00000000E+00	 0.00000000E+00	 4.64852000E-13

	 4.58211000E-13	 0.00000000E+00	 0.00000000E+00
	 0.00000000E+00	 4.58211000E-13	 0.00000000E+00
	 0.00000000E+00	 0.00000000E+00	 4.58211000E-13

	 4.42716000E-13	 0.00000000E+00	 0.00000000E+00
	 0.00000000E+00	 4.42716000E-13	 0.00000000E+00
	 0.00000000E+00	 0.00000000E+00	 4.42716000E-13

	 4.38289000E-13	 0.00000000E+00	 0.00000000E+00
	 0.00000000E+00	 4.38289000E-13	 0.00000000E+00
	 0.00000000E+00	 0.00000000E+00	 4.38289000E-13

	 4.38289000E-13	 0.00000000E+00	 0.00000000E+00
	 0.00000000E+00	 4.38289000E-13	 0.00000000E+00
	 0.00000000E+00	 0.00000000E+00	 4.38289000E-13

	 4.38289000E-13	 0.00000000E+00	 0.00000000E+00
	 0.00000000E+00	 4.38289000E-13	 0.00000000E+00
	 0.00000000E+00	 0.00000000E+00	 4.38289000E-13

	 4.38289000E-13	 0.00000000E+00	 0.00000000E+00
	 0.00000000E+00	 4.38289000E-13	 0.00000000E+00
	 0.00000000E+00	 0.00000000E+00	 4.38289000E-13

	 4.62638000E-13	 0.00000000E+00	 0.00000000E+00
	 0.00000000E+00	 4.62638000E-13	 0.00000000E+00
	 0.00000000E+00	 0.00000000E+00	 4.62638000E-13

	 4.64852000E-13	 0.00000000E+00	 0.00000000E+00
	 0.00000000E+00	 4.64852000E-13	 0.00000000E+00
	 0.00000000E+00	 0.00000000E+00	 4.64852000E-13

	 4.47143000E-13	 0.00000000E+00	 0.00000000E+00
	 0.00000000E+00	 4.47143000E-13	 0.00000000E+00
	 0.00000000E+00	 0.00000000E+00	 4.47143000E-13

	 4.38289000E-13	 0.00000000E+00	 0.00000000E+00
	 0.00000000E+00	 4.38289000E-13	 0.00000000E+00
	 0.00000000E+00	 0.00000000E+00	 4.38289000E-13

	 4.51570000E-13	 0.00000000E+00	 0.00000000E+00
	 0.00000000E+00	 4.51570000E-13	 0.00000000E+00
	 0.00000000E+00	 0.00000000E+00	 4.51570000E-13

	 4.64852000E-13	 0.00000000E+00	 0.00000000E+00
	 0.00000000E+00	 4.64852000E-13	 0.00000000E+00
	 0.00000000E+00	 0.00000000E+00	 4.64852000E-13

	 4.60425000E-13	 0.00000000E+00	 0.00000000E+00
	 0.00000000E+00	 4.60425000E-13	 0.00000000E+00
	 0.00000000E+00	 0.00000000E+00	 4.60425000E-13

	 4.64852000E-13	 0.00000000E+00	 0.00000000E+00
	 0.00000000E+00	 4.64852000E-13	 0.00000000E+00
	 0.00000000E+00	 0.00000000E+00	 4.64852000E-13

	 4.47143000E-13	 0.00000000E+00	 0.00000000E+00
	 0.00000000E+00	 4.47143000E-13	 0.00000000E+00
	 0.00000000E+00	 0.00000000E+00	 4.47143000E-13

	 4.60425000E-13	 0.00000000E+00	 0.00000000E+00
	 0.00000000E+00	 4.60425000E-13	 0.00000000E+00
	 0.00000000E+00	 0.00000000E+00	 4.60425000E-13

	 4.64852000E-13	 0.00000000E+00	 0.00000000E+00
	 0.00000000E+00	 4.64852000E-13	 0.00000000E+00
	 0.00000000E+00	 0.00000000E+00	 4.64852000E-13

	 4.38289000E-13	 0.00000000E+00	 0.00000000E+00
	 0.00000000E+00	 4.38289000E-13	 0.00000000E+00
	 0.00000000E+00	 0.00000000E+00	 4.38289000E-13

	 4.59160000E-13	 0.00000000E+00	 0.00000000E+00
	 0.00000000E+00	 4.59160000E-13	 0.00000000E+00
	 0.00000000E+00	 0.00000000E+00	 4.59160000E-13

	 4.62638000E-13	 0.00000000E+00	 0.00000000E+00
	 0.00000000E+00	 4.62638000E-13	 0.00000000E+00
	 0.00000000E+00	 0.00000000E+00	 4.62638000E-13

	 4.38289000E-13	 0.00000000E+00	 0.00000000E+00
	 0.00000000E+00	 4.38289000E-13	 0.00000000E+00
	 0.00000000E+00	 0.00000000E+00	 4.38289000E-13

	 4.44929000E-13	 0.00000000E+00	 0.00000000E+00
	 0.00000000E+00	 4.44929000E-13	 0.00000000E+00
	 0.00000000E+00	 0.00000000E+00	 4.44929000E-13

	 4.64852000E-13	 0.00000000E+00	 0.00000000E+00
	 0.00000000E+00	 4.64852000E-13	 0.00000000E+00
	 0.00000000E+00	 0.00000000E+00	 4.64852000E-13

	 4.64852000E-13	 0.00000000E+00	 0.00000000E+00
	 0.00000000E+00	 4.64852000E-13	 0.00000000E+00
	 0.00000000E+00	 0.00000000E+00	 4.64852000E-13

	 4.53784000E-13	 0.00000000E+00	 0.00000000E+00
	 0.00000000E+00	 4.53784000E-13	 0.00000000E+00
	 0.00000000E+00	 0.00000000E+00	 4.53784000E-13

	 4.38289000E-13	 0.00000000E+00	 0.00000000E+00
	 0.00000000E+00	 4.38289000E-13	 0.00000000E+00
	 0.00000000E+00	 0.00000000E+00	 4.38289000E-13

	 4.38289000E-13	 0.00000000E+00	 0.00000000E+00
	 0.00000000E+00	 4.38289000E-13	 0.00000000E+00
	 0.00000000E+00	 0.00000000E+00	 4.38289000E-13

	 4.51570000E-13	 0.00000000E+00	 0.00000000E+00
	 0.00000000E+00	 4.51570000E-13	 0.00000000E+00
	 0.00000000E+00	 0.00000000E+00	 4.51570000E-13

	 4.64852000E-13	 0.00000000E+00	 0.00000000E+00
	 0.00000000E+00	 4.64852000E-13	 0.00000000E+00
	 0.00000000E+00	 0.00000000E+00	 4.64852000E-13

	 4.51570000E-13	 0.00000000E+00	 0.00000000E+00
	 0.00000000E+00	 4.51570000E-13	 0.00000000E+00
	 0.00000000E+00	 0.00000000E+00	 4.51570000E-13

	 4.64852000E-13	 0.00000000E+00	 0.00000000E+00
	 0.00000000E+00	 4.64852000E-13	 0.00000000E+00
	 0.00000000E+00	 0.00000000E+00	 4.64852000E-13

	 4.49357000E-13	 0.00000000E+00	 0.00000000E+00
	 0.00000000E+00	 4.49357000E-13	 0.00000000E+00
	 0.00000000E+00	 0.00000000E+00	 4.49357000E-13

	 4.64852000E-13	 0.00000000E+00	 0.00000000E+00
	 0.00000000E+00	 4.64852000E-13	 0.00000000E+00
	 0.00000000E+00	 0.00000000E+00	 4.64852000E-13

	 4.38289000E-13	 0.00000000E+00	 0.00000000E+00
	 0.00000000E+00	 4.38289000E-13	 0.00000000E+00
	 0.00000000E+00	 0.00000000E+00	 4.38289000E-13

	 4.62638000E-13	 0.00000000E+00	 0.00000000E+00
	 0.00000000E+00	 4.62638000E-13	 0.00000000E+00
	 0.00000000E+00	 0.00000000E+00	 4.62638000E-13

	 4.49357000E-13	 0.00000000E+00	 0.00000000E+00
	 0.00000000E+00	 4.49357000E-13	 0.00000000E+00
	 0.00000000E+00	 0.00000000E+00	 4.49357000E-13

	 4.64852000E-13	 0.00000000E+00	 0.00000000E+00
	 0.00000000E+00	 4.64852000E-13	 0.00000000E+00
	 0.00000000E+00	 0.00000000E+00	 4.64852000E-13

	 4.59160000E-13	 0.00000000E+00	 0.00000000E+00
	 0.00000000E+00	 4.59160000E-13	 0.00000000E+00
	 0.00000000E+00	 0.00000000E+00	 4.59160000E-13

	 4.38289000E-13	 0.00000000E+00	 0.00000000E+00
	 0.00000000E+00	 4.38289000E-13	 0.00000000E+00
	 0.00000000E+00	 0.00000000E+00	 4.38289000E-13

	 4.64852000E-13	 0.00000000E+00	 0.00000000E+00
	 0.00000000E+00	 4.64852000E-13	 0.00000000E+00
	 0.00000000E+00	 0.00000000E+00	 4.64852000E-13

	 4.64852000E-13	 0.00000000E+00	 0.00000000E+00
	 0.00000000E+00	 4.64852000E-13	 0.00000000E+00
	 0.00000000E+00	 0.00000000E+00	 4.64852000E-13

	 4.53784000E-13	 0.00000000E+00	 0.00000000E+00
	 0.00000000E+00	 4.53784000E-13	 0.00000000E+00
	 0.00000000E+00	 0.00000000E+00	 4.53784000E-13

	 4.64852000E-13	 0.00000000E+00	 0.00000000E+00
	 0.00000000E+00	 4.64852000E-13	 0.00000000E+00
	 0.00000000E+00	 0.00000000E+00	 4.64852000E-13

	 4.38289000E-13	 0.00000000E+00	 0.00000000E+00
	 0.00000000E+00	 4.38289000E-13	 0.00000000E+00
	 0.00000000E+00	 0.00000000E+00	 4.38289000E-13

	 4.38289000E-13	 0.00000000E+00	 0.00000000E+00
	 0.00000000E+00	 4.38289000E-13	 0.00000000E+00
	 0.00000000E+00	 0.00000000E+00	 4.38289000E-13

	 4.64852000E-13	 0.00000000E+00	 0.00000000E+00
	 0.00000000E+00	 4.64852000E-13	 0.00000000E+00
	 0.00000000E+00	 0.00000000E+00	 4.64852000E-13

	 4.62954000E-13	 0.00000000E+00	 0.00000000E+00
	 0.00000000E+00	 4.62954000E-13	 0.00000000E+00
	 0.00000000E+00	 0.00000000E+00	 4.62954000E-13

	 4.42716000E-13	 0.00000000E+00	 0.00000000E+00
	 0.00000000E+00	 4.42716000E-13	 0.00000000E+00
	 0.00000000E+00	 0.00000000E+00	 4.42716000E-13

	 4.64852000E-13	 0.00000000E+00	 0.00000000E+00
	 0.00000000E+00	 4.64852000E-13	 0.00000000E+00
	 0.00000000E+00	 0.00000000E+00	 4.64852000E-13

	 4.38289000E-13	 0.00000000E+00	 0.00000000E+00
	 0.00000000E+00	 4.38289000E-13	 0.00000000E+00
	 0.00000000E+00	 0.00000000E+00	 4.38289000E-13

	 4.38289000E-13	 0.00000000E+00	 0.00000000E+00
	 0.00000000E+00	 4.38289000E-13	 0.00000000E+00
	 0.00000000E+00	 0.00000000E+00	 4.38289000E-13

	 4.64852000E-13	 0.00000000E+00	 0.00000000E+00
	 0.00000000E+00	 4.64852000E-13	 0.00000000E+00
	 0.00000000E+00	 0.00000000E+00	 4.64852000E-13

	 4.64852000E-13	 0.00000000E+00	 0.00000000E+00
	 0.00000000E+00	 4.64852000E-13	 0.00000000E+00
	 0.00000000E+00	 0.00000000E+00	 4.64852000E-13

	 4.64852000E-13	 0.00000000E+00	 0.00000000E+00
	 0.00000000E+00	 4.64852000E-13	 0.00000000E+00
	 0.00000000E+00	 0.00000000E+00	 4.64852000E-13

	 4.42716000E-13	 0.00000000E+00	 0.00000000E+00
	 0.00000000E+00	 4.42716000E-13	 0.00000000E+00
	 0.00000000E+00	 0.00000000E+00	 4.42716000E-13

	 4.42716000E-13	 0.00000000E+00	 0.00000000E+00
	 0.00000000E+00	 4.42716000E-13	 0.00000000E+00
	 0.00000000E+00	 0.00000000E+00	 4.42716000E-13

	 4.58211000E-13	 0.00000000E+00	 0.00000000E+00
	 0.00000000E+00	 4.58211000E-13	 0.00000000E+00
	 0.00000000E+00	 0.00000000E+00	 4.58211000E-13

	 4.53784000E-13	 0.00000000E+00	 0.00000000E+00
	 0.00000000E+00	 4.53784000E-13	 0.00000000E+00
	 0.00000000E+00	 0.00000000E+00	 4.53784000E-13

	 4.53784000E-13	 0.00000000E+00	 0.00000000E+00
	 0.00000000E+00	 4.53784000E-13	 0.00000000E+00
	 0.00000000E+00	 0.00000000E+00	 4.53784000E-13

	 4.55997000E-13	 0.00000000E+00	 0.00000000E+00
	 0.00000000E+00	 4.55997000E-13	 0.00000000E+00
	 0.00000000E+00	 0.00000000E+00	 4.55997000E-13

	 4.38289000E-13	 0.00000000E+00	 0.00000000E+00
	 0.00000000E+00	 4.38289000E-13	 0.00000000E+00
	 0.00000000E+00	 0.00000000E+00	 4.38289000E-13

	 4.38289000E-13	 0.00000000E+00	 0.00000000E+00
	 0.00000000E+00	 4.38289000E-13	 0.00000000E+00
	 0.00000000E+00	 0.00000000E+00	 4.38289000E-13

	 4.40502000E-13	 0.00000000E+00	 0.00000000E+00
	 0.00000000E+00	 4.40502000E-13	 0.00000000E+00
	 0.00000000E+00	 0.00000000E+00	 4.40502000E-13

	 4.40502000E-13	 0.00000000E+00	 0.00000000E+00
	 0.00000000E+00	 4.40502000E-13	 0.00000000E+00
	 0.00000000E+00	 0.00000000E+00	 4.40502000E-13

	 4.42716000E-13	 0.00000000E+00	 0.00000000E+00
	 0.00000000E+00	 4.42716000E-13	 0.00000000E+00
	 0.00000000E+00	 0.00000000E+00	 4.42716000E-13

	 4.44929000E-13	 0.00000000E+00	 0.00000000E+00
	 0.00000000E+00	 4.44929000E-13	 0.00000000E+00
	 0.00000000E+00	 0.00000000E+00	 4.44929000E-13

	 4.58211000E-13	 0.00000000E+00	 0.00000000E+00
	 0.00000000E+00	 4.58211000E-13	 0.00000000E+00
	 0.00000000E+00	 0.00000000E+00	 4.58211000E-13

	 4.62638000E-13	 0.00000000E+00	 0.00000000E+00
	 0.00000000E+00	 4.62638000E-13	 0.00000000E+00
	 0.00000000E+00	 0.00000000E+00	 4.62638000E-13

	 4.51570000E-13	 0.00000000E+00	 0.00000000E+00
	 0.00000000E+00	 4.51570000E-13	 0.00000000E+00
	 0.00000000E+00	 0.00000000E+00	 4.51570000E-13

	 4.62638000E-13	 0.00000000E+00	 0.00000000E+00
	 0.00000000E+00	 4.62638000E-13	 0.00000000E+00
	 0.00000000E+00	 0.00000000E+00	 4.62638000E-13

	 4.62638000E-13	 0.00000000E+00	 0.00000000E+00
	 0.00000000E+00	 4.62638000E-13	 0.00000000E+00
	 0.00000000E+00	 0.00000000E+00	 4.62638000E-13

	 4.60425000E-13	 0.00000000E+00	 0.00000000E+00
	 0.00000000E+00	 4.60425000E-13	 0.00000000E+00
	 0.00000000E+00	 0.00000000E+00	 4.60425000E-13

	 4.64852000E-13	 0.00000000E+00	 0.00000000E+00
	 0.00000000E+00	 4.64852000E-13	 0.00000000E+00
	 0.00000000E+00	 0.00000000E+00	 4.64852000E-13

	 4.64852000E-13	 0.00000000E+00	 0.00000000E+00
	 0.00000000E+00	 4.64852000E-13	 0.00000000E+00
	 0.00000000E+00	 0.00000000E+00	 4.64852000E-13

	 4.64852000E-13	 0.00000000E+00	 0.00000000E+00
	 0.00000000E+00	 4.64852000E-13	 0.00000000E+00
	 0.00000000E+00	 0.00000000E+00	 4.64852000E-13

	 4.42716000E-13	 0.00000000E+00	 0.00000000E+00
	 0.00000000E+00	 4.42716000E-13	 0.00000000E+00
	 0.00000000E+00	 0.00000000E+00	 4.42716000E-13

	 4.38289000E-13	 0.00000000E+00	 0.00000000E+00
	 0.00000000E+00	 4.38289000E-13	 0.00000000E+00
	 0.00000000E+00	 0.00000000E+00	 4.38289000E-13

	 4.64852000E-13	 0.00000000E+00	 0.00000000E+00
	 0.00000000E+00	 4.64852000E-13	 0.00000000E+00
	 0.00000000E+00	 0.00000000E+00	 4.64852000E-13

	 4.53784000E-13	 0.00000000E+00	 0.00000000E+00
	 0.00000000E+00	 4.53784000E-13	 0.00000000E+00
	 0.00000000E+00	 0.00000000E+00	 4.53784000E-13

	 4.64852000E-13	 0.00000000E+00	 0.00000000E+00
	 0.00000000E+00	 4.64852000E-13	 0.00000000E+00
	 0.00000000E+00	 0.00000000E+00	 4.64852000E-13

	 4.47143000E-13	 0.00000000E+00	 0.00000000E+00
	 0.00000000E+00	 4.47143000E-13	 0.00000000E+00
	 0.00000000E+00	 0.00000000E+00	 4.47143000E-13

	 4.42716000E-13	 0.00000000E+00	 0.00000000E+00
	 0.00000000E+00	 4.42716000E-13	 0.00000000E+00
	 0.00000000E+00	 0.00000000E+00	 4.42716000E-13

	 4.64852000E-13	 0.00000000E+00	 0.00000000E+00
	 0.00000000E+00	 4.64852000E-13	 0.00000000E+00
	 0.00000000E+00	 0.00000000E+00	 4.64852000E-13

	 4.64852000E-13	 0.00000000E+00	 0.00000000E+00
	 0.00000000E+00	 4.64852000E-13	 0.00000000E+00
	 0.00000000E+00	 0.00000000E+00	 4.64852000E-13

	 4.38289000E-13	 0.00000000E+00	 0.00000000E+00
	 0.00000000E+00	 4.38289000E-13	 0.00000000E+00
	 0.00000000E+00	 0.00000000E+00	 4.38289000E-13

	 4.38289000E-13	 0.00000000E+00	 0.00000000E+00
	 0.00000000E+00	 4.38289000E-13	 0.00000000E+00
	 0.00000000E+00	 0.00000000E+00	 4.38289000E-13

	 4.62638000E-13	 0.00000000E+00	 0.00000000E+00
	 0.00000000E+00	 4.62638000E-13	 0.00000000E+00
	 0.00000000E+00	 0.00000000E+00	 4.62638000E-13

	 4.62638000E-13	 0.00000000E+00	 0.00000000E+00
	 0.00000000E+00	 4.62638000E-13	 0.00000000E+00
	 0.00000000E+00	 0.00000000E+00	 4.62638000E-13

	 4.38289000E-13	 0.00000000E+00	 0.00000000E+00
	 0.00000000E+00	 4.38289000E-13	 0.00000000E+00
	 0.00000000E+00	 0.00000000E+00	 4.38289000E-13

	 4.38289000E-13	 0.00000000E+00	 0.00000000E+00
	 0.00000000E+00	 4.38289000E-13	 0.00000000E+00
	 0.00000000E+00	 0.00000000E+00	 4.38289000E-13

	 4.51570000E-13	 0.00000000E+00	 0.00000000E+00
	 0.00000000E+00	 4.51570000E-13	 0.00000000E+00
	 0.00000000E+00	 0.00000000E+00	 4.51570000E-13

	 4.38289000E-13	 0.00000000E+00	 0.00000000E+00
	 0.00000000E+00	 4.38289000E-13	 0.00000000E+00
	 0.00000000E+00	 0.00000000E+00	 4.38289000E-13

	 4.64852000E-13	 0.00000000E+00	 0.00000000E+00
	 0.00000000E+00	 4.64852000E-13	 0.00000000E+00
	 0.00000000E+00	 0.00000000E+00	 4.64852000E-13

	 4.42716000E-13	 0.00000000E+00	 0.00000000E+00
	 0.00000000E+00	 4.42716000E-13	 0.00000000E+00
	 0.00000000E+00	 0.00000000E+00	 4.42716000E-13

	 4.60425000E-13	 0.00000000E+00	 0.00000000E+00
	 0.00000000E+00	 4.60425000E-13	 0.00000000E+00
	 0.00000000E+00	 0.00000000E+00	 4.60425000E-13

	 4.64852000E-13	 0.00000000E+00	 0.00000000E+00
	 0.00000000E+00	 4.64852000E-13	 0.00000000E+00
	 0.00000000E+00	 0.00000000E+00	 4.64852000E-13

	 4.38289000E-13	 0.00000000E+00	 0.00000000E+00
	 0.00000000E+00	 4.38289000E-13	 0.00000000E+00
	 0.00000000E+00	 0.00000000E+00	 4.38289000E-13

	 4.38289000E-13	 0.00000000E+00	 0.00000000E+00
	 0.00000000E+00	 4.38289000E-13	 0.00000000E+00
	 0.00000000E+00	 0.00000000E+00	 4.38289000E-13

	 4.47143000E-13	 0.00000000E+00	 0.00000000E+00
	 0.00000000E+00	 4.47143000E-13	 0.00000000E+00
	 0.00000000E+00	 0.00000000E+00	 4.47143000E-13

	 4.42716000E-13	 0.00000000E+00	 0.00000000E+00
	 0.00000000E+00	 4.42716000E-13	 0.00000000E+00
	 0.00000000E+00	 0.00000000E+00	 4.42716000E-13

	 4.64852000E-13	 0.00000000E+00	 0.00000000E+00
	 0.00000000E+00	 4.64852000E-13	 0.00000000E+00
	 0.00000000E+00	 0.00000000E+00	 4.64852000E-13

	 4.64852000E-13	 0.00000000E+00	 0.00000000E+00
	 0.00000000E+00	 4.64852000E-13	 0.00000000E+00
	 0.00000000E+00	 0.00000000E+00	 4.64852000E-13

	 4.38289000E-13	 0.00000000E+00	 0.00000000E+00
	 0.00000000E+00	 4.38289000E-13	 0.00000000E+00
	 0.00000000E+00	 0.00000000E+00	 4.38289000E-13

	 4.38289000E-13	 0.00000000E+00	 0.00000000E+00
	 0.00000000E+00	 4.38289000E-13	 0.00000000E+00
	 0.00000000E+00	 0.00000000E+00	 4.38289000E-13

	 4.64852000E-13	 0.00000000E+00	 0.00000000E+00
	 0.00000000E+00	 4.64852000E-13	 0.00000000E+00
	 0.00000000E+00	 0.00000000E+00	 4.64852000E-13

	 4.64852000E-13	 0.00000000E+00	 0.00000000E+00
	 0.00000000E+00	 4.64852000E-13	 0.00000000E+00
	 0.00000000E+00	 0.00000000E+00	 4.64852000E-13

	 4.64852000E-13	 0.00000000E+00	 0.00000000E+00
	 0.00000000E+00	 4.64852000E-13	 0.00000000E+00
	 0.00000000E+00	 0.00000000E+00	 4.64852000E-13

	 4.38289000E-13	 0.00000000E+00	 0.00000000E+00
	 0.00000000E+00	 4.38289000E-13	 0.00000000E+00
	 0.00000000E+00	 0.00000000E+00	 4.38289000E-13

	 4.42716000E-13	 0.00000000E+00	 0.00000000E+00
	 0.00000000E+00	 4.42716000E-13	 0.00000000E+00
	 0.00000000E+00	 0.00000000E+00	 4.42716000E-13

	 4.64852000E-13	 0.00000000E+00	 0.00000000E+00
	 0.00000000E+00	 4.64852000E-13	 0.00000000E+00
	 0.00000000E+00	 0.00000000E+00	 4.64852000E-13

	 4.62638000E-13	 0.00000000E+00	 0.00000000E+00
	 0.00000000E+00	 4.62638000E-13	 0.00000000E+00
	 0.00000000E+00	 0.00000000E+00	 4.62638000E-13

	 4.55997000E-13	 0.00000000E+00	 0.00000000E+00
	 0.00000000E+00	 4.55997000E-13	 0.00000000E+00
	 0.00000000E+00	 0.00000000E+00	 4.55997000E-13

	 4.64852000E-13	 0.00000000E+00	 0.00000000E+00
	 0.00000000E+00	 4.64852000E-13	 0.00000000E+00
	 0.00000000E+00	 0.00000000E+00	 4.64852000E-13

	 4.38289000E-13	 0.00000000E+00	 0.00000000E+00
	 0.00000000E+00	 4.38289000E-13	 0.00000000E+00
	 0.00000000E+00	 0.00000000E+00	 4.38289000E-13

	 4.64852000E-13	 0.00000000E+00	 0.00000000E+00
	 0.00000000E+00	 4.64852000E-13	 0.00000000E+00
	 0.00000000E+00	 0.00000000E+00	 4.64852000E-13

	 4.64852000E-13	 0.00000000E+00	 0.00000000E+00
	 0.00000000E+00	 4.64852000E-13	 0.00000000E+00
	 0.00000000E+00	 0.00000000E+00	 4.64852000E-13

	 4.62638000E-13	 0.00000000E+00	 0.00000000E+00
	 0.00000000E+00	 4.62638000E-13	 0.00000000E+00
	 0.00000000E+00	 0.00000000E+00	 4.62638000E-13

	 4.38289000E-13	 0.00000000E+00	 0.00000000E+00
	 0.00000000E+00	 4.38289000E-13	 0.00000000E+00
	 0.00000000E+00	 0.00000000E+00	 4.38289000E-13

	 4.38289000E-13	 0.00000000E+00	 0.00000000E+00
	 0.00000000E+00	 4.38289000E-13	 0.00000000E+00
	 0.00000000E+00	 0.00000000E+00	 4.38289000E-13

	 4.64852000E-13	 0.00000000E+00	 0.00000000E+00
	 0.00000000E+00	 4.64852000E-13	 0.00000000E+00
	 0.00000000E+00	 0.00000000E+00	 4.64852000E-13

	 4.64852000E-13	 0.00000000E+00	 0.00000000E+00
	 0.00000000E+00	 4.64852000E-13	 0.00000000E+00
	 0.00000000E+00	 0.00000000E+00	 4.64852000E-13

	 4.64852000E-13	 0.00000000E+00	 0.00000000E+00
	 0.00000000E+00	 4.64852000E-13	 0.00000000E+00
	 0.00000000E+00	 0.00000000E+00	 4.64852000E-13

	 4.64852000E-13	 0.00000000E+00	 0.00000000E+00
	 0.00000000E+00	 4.64852000E-13	 0.00000000E+00
	 0.00000000E+00	 0.00000000E+00	 4.64852000E-13

	 4.64852000E-13	 0.00000000E+00	 0.00000000E+00
	 0.00000000E+00	 4.64852000E-13	 0.00000000E+00
	 0.00000000E+00	 0.00000000E+00	 4.64852000E-13

	 4.64852000E-13	 0.00000000E+00	 0.00000000E+00
	 0.00000000E+00	 4.64852000E-13	 0.00000000E+00
	 0.00000000E+00	 0.00000000E+00	 4.64852000E-13

	 4.64852000E-13	 0.00000000E+00	 0.00000000E+00
	 0.00000000E+00	 4.64852000E-13	 0.00000000E+00
	 0.00000000E+00	 0.00000000E+00	 4.64852000E-13

	 4.64852000E-13	 0.00000000E+00	 0.00000000E+00
	 0.00000000E+00	 4.64852000E-13	 0.00000000E+00
	 0.00000000E+00	 0.00000000E+00	 4.64852000E-13

	 4.64852000E-13	 0.00000000E+00	 0.00000000E+00
	 0.00000000E+00	 4.64852000E-13	 0.00000000E+00
	 0.00000000E+00	 0.00000000E+00	 4.64852000E-13

	 4.64852000E-13	 0.00000000E+00	 0.00000000E+00
	 0.00000000E+00	 4.64852000E-13	 0.00000000E+00
	 0.00000000E+00	 0.00000000E+00	 4.64852000E-13

	 4.60425000E-13	 0.00000000E+00	 0.00000000E+00
	 0.00000000E+00	 4.60425000E-13	 0.00000000E+00
	 0.00000000E+00	 0.00000000E+00	 4.60425000E-13

	 4.58211000E-13	 0.00000000E+00	 0.00000000E+00
	 0.00000000E+00	 4.58211000E-13	 0.00000000E+00
	 0.00000000E+00	 0.00000000E+00	 4.58211000E-13

	 4.49357000E-13	 0.00000000E+00	 0.00000000E+00
	 0.00000000E+00	 4.49357000E-13	 0.00000000E+00
	 0.00000000E+00	 0.00000000E+00	 4.49357000E-13

	 4.60425000E-13	 0.00000000E+00	 0.00000000E+00
	 0.00000000E+00	 4.60425000E-13	 0.00000000E+00
	 0.00000000E+00	 0.00000000E+00	 4.60425000E-13

	 4.51570000E-13	 0.00000000E+00	 0.00000000E+00
	 0.00000000E+00	 4.51570000E-13	 0.00000000E+00
	 0.00000000E+00	 0.00000000E+00	 4.51570000E-13

	 4.55997000E-13	 0.00000000E+00	 0.00000000E+00
	 0.00000000E+00	 4.55997000E-13	 0.00000000E+00
	 0.00000000E+00	 0.00000000E+00	 4.55997000E-13

	 4.38289000E-13	 0.00000000E+00	 0.00000000E+00
	 0.00000000E+00	 4.38289000E-13	 0.00000000E+00
	 0.00000000E+00	 0.00000000E+00	 4.38289000E-13

	 4.38289000E-13	 0.00000000E+00	 0.00000000E+00
	 0.00000000E+00	 4.38289000E-13	 0.00000000E+00
	 0.00000000E+00	 0.00000000E+00	 4.38289000E-13

	 4.38289000E-13	 0.00000000E+00	 0.00000000E+00
	 0.00000000E+00	 4.38289000E-13	 0.00000000E+00
	 0.00000000E+00	 0.00000000E+00	 4.38289000E-13

	 4.64852000E-13	 0.00000000E+00	 0.00000000E+00
	 0.00000000E+00	 4.64852000E-13	 0.00000000E+00
	 0.00000000E+00	 0.00000000E+00	 4.64852000E-13

	 4.64852000E-13	 0.00000000E+00	 0.00000000E+00
	 0.00000000E+00	 4.64852000E-13	 0.00000000E+00
	 0.00000000E+00	 0.00000000E+00	 4.64852000E-13

	 4.49357000E-13	 0.00000000E+00	 0.00000000E+00
	 0.00000000E+00	 4.49357000E-13	 0.00000000E+00
	 0.00000000E+00	 0.00000000E+00	 4.49357000E-13

	 4.62638000E-13	 0.00000000E+00	 0.00000000E+00
	 0.00000000E+00	 4.62638000E-13	 0.00000000E+00
	 0.00000000E+00	 0.00000000E+00	 4.62638000E-13

	 4.64852000E-13	 0.00000000E+00	 0.00000000E+00
	 0.00000000E+00	 4.64852000E-13	 0.00000000E+00
	 0.00000000E+00	 0.00000000E+00	 4.64852000E-13

	 4.44929000E-13	 0.00000000E+00	 0.00000000E+00
	 0.00000000E+00	 4.44929000E-13	 0.00000000E+00
	 0.00000000E+00	 0.00000000E+00	 4.44929000E-13

	 4.44929000E-13	 0.00000000E+00	 0.00000000E+00
	 0.00000000E+00	 4.44929000E-13	 0.00000000E+00
	 0.00000000E+00	 0.00000000E+00	 4.44929000E-13

	 4.64852000E-13	 0.00000000E+00	 0.00000000E+00
	 0.00000000E+00	 4.64852000E-13	 0.00000000E+00
	 0.00000000E+00	 0.00000000E+00	 4.64852000E-13

	 4.42716000E-13	 0.00000000E+00	 0.00000000E+00
	 0.00000000E+00	 4.42716000E-13	 0.00000000E+00
	 0.00000000E+00	 0.00000000E+00	 4.42716000E-13

	 4.38289000E-13	 0.00000000E+00	 0.00000000E+00
	 0.00000000E+00	 4.38289000E-13	 0.00000000E+00
	 0.00000000E+00	 0.00000000E+00	 4.38289000E-13

	 4.38289000E-13	 0.00000000E+00	 0.00000000E+00
	 0.00000000E+00	 4.38289000E-13	 0.00000000E+00
	 0.00000000E+00	 0.00000000E+00	 4.38289000E-13

	 4.38289000E-13	 0.00000000E+00	 0.00000000E+00
	 0.00000000E+00	 4.38289000E-13	 0.00000000E+00
	 0.00000000E+00	 0.00000000E+00	 4.38289000E-13

	 4.38289000E-13	 0.00000000E+00	 0.00000000E+00
	 0.00000000E+00	 4.38289000E-13	 0.00000000E+00
	 0.00000000E+00	 0.00000000E+00	 4.38289000E-13

	 4.64852000E-13	 0.00000000E+00	 0.00000000E+00
	 0.00000000E+00	 4.64852000E-13	 0.00000000E+00
	 0.00000000E+00	 0.00000000E+00	 4.64852000E-13

	 4.64852000E-13	 0.00000000E+00	 0.00000000E+00
	 0.00000000E+00	 4.64852000E-13	 0.00000000E+00
	 0.00000000E+00	 0.00000000E+00	 4.64852000E-13

	 4.64852000E-13	 0.00000000E+00	 0.00000000E+00
	 0.00000000E+00	 4.64852000E-13	 0.00000000E+00
	 0.00000000E+00	 0.00000000E+00	 4.64852000E-13

	 4.64852000E-13	 0.00000000E+00	 0.00000000E+00
	 0.00000000E+00	 4.64852000E-13	 0.00000000E+00
	 0.00000000E+00	 0.00000000E+00	 4.64852000E-13

	 4.60425000E-13	 0.00000000E+00	 0.00000000E+00
	 0.00000000E+00	 4.60425000E-13	 0.00000000E+00
	 0.00000000E+00	 0.00000000E+00	 4.60425000E-13

	 4.64852000E-13	 0.00000000E+00	 0.00000000E+00
	 0.00000000E+00	 4.64852000E-13	 0.00000000E+00
	 0.00000000E+00	 0.00000000E+00	 4.64852000E-13

	 4.53784000E-13	 0.00000000E+00	 0.00000000E+00
	 0.00000000E+00	 4.53784000E-13	 0.00000000E+00
	 0.00000000E+00	 0.00000000E+00	 4.53784000E-13

	 4.64852000E-13	 0.00000000E+00	 0.00000000E+00
	 0.00000000E+00	 4.64852000E-13	 0.00000000E+00
	 0.00000000E+00	 0.00000000E+00	 4.64852000E-13

	 4.38289000E-13	 0.00000000E+00	 0.00000000E+00
	 0.00000000E+00	 4.38289000E-13	 0.00000000E+00
	 0.00000000E+00	 0.00000000E+00	 4.38289000E-13

	 4.38289000E-13	 0.00000000E+00	 0.00000000E+00
	 0.00000000E+00	 4.38289000E-13	 0.00000000E+00
	 0.00000000E+00	 0.00000000E+00	 4.38289000E-13

	 4.38289000E-13	 0.00000000E+00	 0.00000000E+00
	 0.00000000E+00	 4.38289000E-13	 0.00000000E+00
	 0.00000000E+00	 0.00000000E+00	 4.38289000E-13

	 4.38289000E-13	 0.00000000E+00	 0.00000000E+00
	 0.00000000E+00	 4.38289000E-13	 0.00000000E+00
	 0.00000000E+00	 0.00000000E+00	 4.38289000E-13

	 4.47143000E-13	 0.00000000E+00	 0.00000000E+00
	 0.00000000E+00	 4.47143000E-13	 0.00000000E+00
	 0.00000000E+00	 0.00000000E+00	 4.47143000E-13

	 4.38289000E-13	 0.00000000E+00	 0.00000000E+00
	 0.00000000E+00	 4.38289000E-13	 0.00000000E+00
	 0.00000000E+00	 0.00000000E+00	 4.38289000E-13

	 4.51570000E-13	 0.00000000E+00	 0.00000000E+00
	 0.00000000E+00	 4.51570000E-13	 0.00000000E+00
	 0.00000000E+00	 0.00000000E+00	 4.51570000E-13

	 4.53784000E-13	 0.00000000E+00	 0.00000000E+00
	 0.00000000E+00	 4.53784000E-13	 0.00000000E+00
	 0.00000000E+00	 0.00000000E+00	 4.53784000E-13

	 4.60425000E-13	 0.00000000E+00	 0.00000000E+00
	 0.00000000E+00	 4.60425000E-13	 0.00000000E+00
	 0.00000000E+00	 0.00000000E+00	 4.60425000E-13

	 4.55997000E-13	 0.00000000E+00	 0.00000000E+00
	 0.00000000E+00	 4.55997000E-13	 0.00000000E+00
	 0.00000000E+00	 0.00000000E+00	 4.55997000E-13

	 4.64852000E-13	 0.00000000E+00	 0.00000000E+00
	 0.00000000E+00	 4.64852000E-13	 0.00000000E+00
	 0.00000000E+00	 0.00000000E+00	 4.64852000E-13

	 4.38289000E-13	 0.00000000E+00	 0.00000000E+00
	 0.00000000E+00	 4.38289000E-13	 0.00000000E+00
	 0.00000000E+00	 0.00000000E+00	 4.38289000E-13

	 4.64852000E-13	 0.00000000E+00	 0.00000000E+00
	 0.00000000E+00	 4.64852000E-13	 0.00000000E+00
	 0.00000000E+00	 0.00000000E+00	 4.64852000E-13

	 4.38289000E-13	 0.00000000E+00	 0.00000000E+00
	 0.00000000E+00	 4.38289000E-13	 0.00000000E+00
	 0.00000000E+00	 0.00000000E+00	 4.38289000E-13

	 4.42716000E-13	 0.00000000E+00	 0.00000000E+00
	 0.00000000E+00	 4.42716000E-13	 0.00000000E+00
	 0.00000000E+00	 0.00000000E+00	 4.42716000E-13

	 4.55997000E-13	 0.00000000E+00	 0.00000000E+00
	 0.00000000E+00	 4.55997000E-13	 0.00000000E+00
	 0.00000000E+00	 0.00000000E+00	 4.55997000E-13

	 4.64852000E-13	 0.00000000E+00	 0.00000000E+00
	 0.00000000E+00	 4.64852000E-13	 0.00000000E+00
	 0.00000000E+00	 0.00000000E+00	 4.64852000E-13

	 4.51570000E-13	 0.00000000E+00	 0.00000000E+00
	 0.00000000E+00	 4.51570000E-13	 0.00000000E+00
	 0.00000000E+00	 0.00000000E+00	 4.51570000E-13

	 4.64852000E-13	 0.00000000E+00	 0.00000000E+00
	 0.00000000E+00	 4.64852000E-13	 0.00000000E+00
	 0.00000000E+00	 0.00000000E+00	 4.64852000E-13

	 4.38289000E-13	 0.00000000E+00	 0.00000000E+00
	 0.00000000E+00	 4.38289000E-13	 0.00000000E+00
	 0.00000000E+00	 0.00000000E+00	 4.38289000E-13

	 4.38289000E-13	 0.00000000E+00	 0.00000000E+00
	 0.00000000E+00	 4.38289000E-13	 0.00000000E+00
	 0.00000000E+00	 0.00000000E+00	 4.38289000E-13

	 4.49357000E-13	 0.00000000E+00	 0.00000000E+00
	 0.00000000E+00	 4.49357000E-13	 0.00000000E+00
	 0.00000000E+00	 0.00000000E+00	 4.49357000E-13

	 4.64852000E-13	 0.00000000E+00	 0.00000000E+00
	 0.00000000E+00	 4.64852000E-13	 0.00000000E+00
	 0.00000000E+00	 0.00000000E+00	 4.64852000E-13

	 4.64852000E-13	 0.00000000E+00	 0.00000000E+00
	 0.00000000E+00	 4.64852000E-13	 0.00000000E+00
	 0.00000000E+00	 0.00000000E+00	 4.64852000E-13

	 4.38289000E-13	 0.00000000E+00	 0.00000000E+00
	 0.00000000E+00	 4.38289000E-13	 0.00000000E+00
	 0.00000000E+00	 0.00000000E+00	 4.38289000E-13

	 4.38289000E-13	 0.00000000E+00	 0.00000000E+00
	 0.00000000E+00	 4.38289000E-13	 0.00000000E+00
	 0.00000000E+00	 0.00000000E+00	 4.38289000E-13

	 4.64852000E-13	 0.00000000E+00	 0.00000000E+00
	 0.00000000E+00	 4.64852000E-13	 0.00000000E+00
	 0.00000000E+00	 0.00000000E+00	 4.64852000E-13

	 4.62638000E-13	 0.00000000E+00	 0.00000000E+00
	 0.00000000E+00	 4.62638000E-13	 0.00000000E+00
	 0.00000000E+00	 0.00000000E+00	 4.62638000E-13

	 4.64852000E-13	 0.00000000E+00	 0.00000000E+00
	 0.00000000E+00	 4.64852000E-13	 0.00000000E+00
	 0.00000000E+00	 0.00000000E+00	 4.64852000E-13

	 4.64852000E-13	 0.00000000E+00	 0.00000000E+00
	 0.00000000E+00	 4.64852000E-13	 0.00000000E+00
	 0.00000000E+00	 0.00000000E+00	 4.64852000E-13

	 4.64852000E-13	 0.00000000E+00	 0.00000000E+00
	 0.00000000E+00	 4.64852000E-13	 0.00000000E+00
	 0.00000000E+00	 0.00000000E+00	 4.64852000E-13

	 4.47143000E-13	 0.00000000E+00	 0.00000000E+00
	 0.00000000E+00	 4.47143000E-13	 0.00000000E+00
	 0.00000000E+00	 0.00000000E+00	 4.47143000E-13

	 4.38289000E-13	 0.00000000E+00	 0.00000000E+00
	 0.00000000E+00	 4.38289000E-13	 0.00000000E+00
	 0.00000000E+00	 0.00000000E+00	 4.38289000E-13

	 4.38289000E-13	 0.00000000E+00	 0.00000000E+00
	 0.00000000E+00	 4.38289000E-13	 0.00000000E+00
	 0.00000000E+00	 0.00000000E+00	 4.38289000E-13

	 4.38289000E-13	 0.00000000E+00	 0.00000000E+00
	 0.00000000E+00	 4.38289000E-13	 0.00000000E+00
	 0.00000000E+00	 0.00000000E+00	 4.38289000E-13

	 4.38289000E-13	 0.00000000E+00	 0.00000000E+00
	 0.00000000E+00	 4.38289000E-13	 0.00000000E+00
	 0.00000000E+00	 0.00000000E+00	 4.38289000E-13

	 4.40502000E-13	 0.00000000E+00	 0.00000000E+00
	 0.00000000E+00	 4.40502000E-13	 0.00000000E+00
	 0.00000000E+00	 0.00000000E+00	 4.40502000E-13

	 4.60425000E-13	 0.00000000E+00	 0.00000000E+00
	 0.00000000E+00	 4.60425000E-13	 0.00000000E+00
	 0.00000000E+00	 0.00000000E+00	 4.60425000E-13

	 4.55997000E-13	 0.00000000E+00	 0.00000000E+00
	 0.00000000E+00	 4.55997000E-13	 0.00000000E+00
	 0.00000000E+00	 0.00000000E+00	 4.55997000E-13

	 4.53784000E-13	 0.00000000E+00	 0.00000000E+00
	 0.00000000E+00	 4.53784000E-13	 0.00000000E+00
	 0.00000000E+00	 0.00000000E+00	 4.53784000E-13

	 4.47143000E-13	 0.00000000E+00	 0.00000000E+00
	 0.00000000E+00	 4.47143000E-13	 0.00000000E+00
	 0.00000000E+00	 0.00000000E+00	 4.47143000E-13

	 4.44929000E-13	 0.00000000E+00	 0.00000000E+00
	 0.00000000E+00	 4.44929000E-13	 0.00000000E+00
	 0.00000000E+00	 0.00000000E+00	 4.44929000E-13

	 4.42716000E-13	 0.00000000E+00	 0.00000000E+00
	 0.00000000E+00	 4.42716000E-13	 0.00000000E+00
	 0.00000000E+00	 0.00000000E+00	 4.42716000E-13

	 4.64852000E-13	 0.00000000E+00	 0.00000000E+00
	 0.00000000E+00	 4.64852000E-13	 0.00000000E+00
	 0.00000000E+00	 0.00000000E+00	 4.64852000E-13

	 4.47143000E-13	 0.00000000E+00	 0.00000000E+00
	 0.00000000E+00	 4.47143000E-13	 0.00000000E+00
	 0.00000000E+00	 0.00000000E+00	 4.47143000E-13

	 4.64852000E-13	 0.00000000E+00	 0.00000000E+00
	 0.00000000E+00	 4.64852000E-13	 0.00000000E+00
	 0.00000000E+00	 0.00000000E+00	 4.64852000E-13

	 4.64852000E-13	 0.00000000E+00	 0.00000000E+00
	 0.00000000E+00	 4.64852000E-13	 0.00000000E+00
	 0.00000000E+00	 0.00000000E+00	 4.64852000E-13

	 4.42716000E-13	 0.00000000E+00	 0.00000000E+00
	 0.00000000E+00	 4.42716000E-13	 0.00000000E+00
	 0.00000000E+00	 0.00000000E+00	 4.42716000E-13

	 4.40502000E-13	 0.00000000E+00	 0.00000000E+00
	 0.00000000E+00	 4.40502000E-13	 0.00000000E+00
	 0.00000000E+00	 0.00000000E+00	 4.40502000E-13

	 4.64852000E-13	 0.00000000E+00	 0.00000000E+00
	 0.00000000E+00	 4.64852000E-13	 0.00000000E+00
	 0.00000000E+00	 0.00000000E+00	 4.64852000E-13

	 4.55997000E-13	 0.00000000E+00	 0.00000000E+00
	 0.00000000E+00	 4.55997000E-13	 0.00000000E+00
	 0.00000000E+00	 0.00000000E+00	 4.55997000E-13

	 4.44929000E-13	 0.00000000E+00	 0.00000000E+00
	 0.00000000E+00	 4.44929000E-13	 0.00000000E+00
	 0.00000000E+00	 0.00000000E+00	 4.44929000E-13

	 4.64852000E-13	 0.00000000E+00	 0.00000000E+00
	 0.00000000E+00	 4.64852000E-13	 0.00000000E+00
	 0.00000000E+00	 0.00000000E+00	 4.64852000E-13

	 4.38289000E-13	 0.00000000E+00	 0.00000000E+00
	 0.00000000E+00	 4.38289000E-13	 0.00000000E+00
	 0.00000000E+00	 0.00000000E+00	 4.38289000E-13

	 4.58211000E-13	 0.00000000E+00	 0.00000000E+00
	 0.00000000E+00	 4.58211000E-13	 0.00000000E+00
	 0.00000000E+00	 0.00000000E+00	 4.58211000E-13

	 4.53784000E-13	 0.00000000E+00	 0.00000000E+00
	 0.00000000E+00	 4.53784000E-13	 0.00000000E+00
	 0.00000000E+00	 0.00000000E+00	 4.53784000E-13

	 4.51570000E-13	 0.00000000E+00	 0.00000000E+00
	 0.00000000E+00	 4.51570000E-13	 0.00000000E+00
	 0.00000000E+00	 0.00000000E+00	 4.51570000E-13

	 4.64852000E-13	 0.00000000E+00	 0.00000000E+00
	 0.00000000E+00	 4.64852000E-13	 0.00000000E+00
	 0.00000000E+00	 0.00000000E+00	 4.64852000E-13

	 4.64852000E-13	 0.00000000E+00	 0.00000000E+00
	 0.00000000E+00	 4.64852000E-13	 0.00000000E+00
	 0.00000000E+00	 0.00000000E+00	 4.64852000E-13

	 4.64852000E-13	 0.00000000E+00	 0.00000000E+00
	 0.00000000E+00	 4.64852000E-13	 0.00000000E+00
	 0.00000000E+00	 0.00000000E+00	 4.64852000E-13

	 4.38289000E-13	 0.00000000E+00	 0.00000000E+00
	 0.00000000E+00	 4.38289000E-13	 0.00000000E+00
	 0.00000000E+00	 0.00000000E+00	 4.38289000E-13

	 4.64852000E-13	 0.00000000E+00	 0.00000000E+00
	 0.00000000E+00	 4.64852000E-13	 0.00000000E+00
	 0.00000000E+00	 0.00000000E+00	 4.64852000E-13

	 4.42716000E-13	 0.00000000E+00	 0.00000000E+00
	 0.00000000E+00	 4.42716000E-13	 0.00000000E+00
	 0.00000000E+00	 0.00000000E+00	 4.42716000E-13

	 4.62638000E-13	 0.00000000E+00	 0.00000000E+00
	 0.00000000E+00	 4.62638000E-13	 0.00000000E+00
	 0.00000000E+00	 0.00000000E+00	 4.62638000E-13

	 4.38289000E-13	 0.00000000E+00	 0.00000000E+00
	 0.00000000E+00	 4.38289000E-13	 0.00000000E+00
	 0.00000000E+00	 0.00000000E+00	 4.38289000E-13

	 4.38289000E-13	 0.00000000E+00	 0.00000000E+00
	 0.00000000E+00	 4.38289000E-13	 0.00000000E+00
	 0.00000000E+00	 0.00000000E+00	 4.38289000E-13

	 4.38289000E-13	 0.00000000E+00	 0.00000000E+00
	 0.00000000E+00	 4.38289000E-13	 0.00000000E+00
	 0.00000000E+00	 0.00000000E+00	 4.38289000E-13

	 4.44929000E-13	 0.00000000E+00	 0.00000000E+00
	 0.00000000E+00	 4.44929000E-13	 0.00000000E+00
	 0.00000000E+00	 0.00000000E+00	 4.44929000E-13

	 4.64852000E-13	 0.00000000E+00	 0.00000000E+00
	 0.00000000E+00	 4.64852000E-13	 0.00000000E+00
	 0.00000000E+00	 0.00000000E+00	 4.64852000E-13

	 4.38289000E-13	 0.00000000E+00	 0.00000000E+00
	 0.00000000E+00	 4.38289000E-13	 0.00000000E+00
	 0.00000000E+00	 0.00000000E+00	 4.38289000E-13

	 4.62638000E-13	 0.00000000E+00	 0.00000000E+00
	 0.00000000E+00	 4.62638000E-13	 0.00000000E+00
	 0.00000000E+00	 0.00000000E+00	 4.62638000E-13

	 4.64852000E-13	 0.00000000E+00	 0.00000000E+00
	 0.00000000E+00	 4.64852000E-13	 0.00000000E+00
	 0.00000000E+00	 0.00000000E+00	 4.64852000E-13

	 4.38289000E-13	 0.00000000E+00	 0.00000000E+00
	 0.00000000E+00	 4.38289000E-13	 0.00000000E+00
	 0.00000000E+00	 0.00000000E+00	 4.38289000E-13

	 4.64852000E-13	 0.00000000E+00	 0.00000000E+00
	 0.00000000E+00	 4.64852000E-13	 0.00000000E+00
	 0.00000000E+00	 0.00000000E+00	 4.64852000E-13

	 4.62638000E-13	 0.00000000E+00	 0.00000000E+00
	 0.00000000E+00	 4.62638000E-13	 0.00000000E+00
	 0.00000000E+00	 0.00000000E+00	 4.62638000E-13

	 4.64852000E-13	 0.00000000E+00	 0.00000000E+00
	 0.00000000E+00	 4.64852000E-13	 0.00000000E+00
	 0.00000000E+00	 0.00000000E+00	 4.64852000E-13

	 4.47143000E-13	 0.00000000E+00	 0.00000000E+00
	 0.00000000E+00	 4.47143000E-13	 0.00000000E+00
	 0.00000000E+00	 0.00000000E+00	 4.47143000E-13

	 4.60425000E-13	 0.00000000E+00	 0.00000000E+00
	 0.00000000E+00	 4.60425000E-13	 0.00000000E+00
	 0.00000000E+00	 0.00000000E+00	 4.60425000E-13

	 4.64852000E-13	 0.00000000E+00	 0.00000000E+00
	 0.00000000E+00	 4.64852000E-13	 0.00000000E+00
	 0.00000000E+00	 0.00000000E+00	 4.64852000E-13

	 4.60425000E-13	 0.00000000E+00	 0.00000000E+00
	 0.00000000E+00	 4.60425000E-13	 0.00000000E+00
	 0.00000000E+00	 0.00000000E+00	 4.60425000E-13

	 4.42716000E-13	 0.00000000E+00	 0.00000000E+00
	 0.00000000E+00	 4.42716000E-13	 0.00000000E+00
	 0.00000000E+00	 0.00000000E+00	 4.42716000E-13

	 4.42716000E-13	 0.00000000E+00	 0.00000000E+00
	 0.00000000E+00	 4.42716000E-13	 0.00000000E+00
	 0.00000000E+00	 0.00000000E+00	 4.42716000E-13

	 4.62638000E-13	 0.00000000E+00	 0.00000000E+00
	 0.00000000E+00	 4.62638000E-13	 0.00000000E+00
	 0.00000000E+00	 0.00000000E+00	 4.62638000E-13

	 4.44929000E-13	 0.00000000E+00	 0.00000000E+00
	 0.00000000E+00	 4.44929000E-13	 0.00000000E+00
	 0.00000000E+00	 0.00000000E+00	 4.44929000E-13

	 4.62638000E-13	 0.00000000E+00	 0.00000000E+00
	 0.00000000E+00	 4.62638000E-13	 0.00000000E+00
	 0.00000000E+00	 0.00000000E+00	 4.62638000E-13

	 4.62638000E-13	 0.00000000E+00	 0.00000000E+00
	 0.00000000E+00	 4.62638000E-13	 0.00000000E+00
	 0.00000000E+00	 0.00000000E+00	 4.62638000E-13

	 4.64852000E-13	 0.00000000E+00	 0.00000000E+00
	 0.00000000E+00	 4.64852000E-13	 0.00000000E+00
	 0.00000000E+00	 0.00000000E+00	 4.64852000E-13

	 4.58211000E-13	 0.00000000E+00	 0.00000000E+00
	 0.00000000E+00	 4.58211000E-13	 0.00000000E+00
	 0.00000000E+00	 0.00000000E+00	 4.58211000E-13

	 4.64852000E-13	 0.00000000E+00	 0.00000000E+00
	 0.00000000E+00	 4.64852000E-13	 0.00000000E+00
	 0.00000000E+00	 0.00000000E+00	 4.64852000E-13

	 4.64852000E-13	 0.00000000E+00	 0.00000000E+00
	 0.00000000E+00	 4.64852000E-13	 0.00000000E+00
	 0.00000000E+00	 0.00000000E+00	 4.64852000E-13

	 4.38289000E-13	 0.00000000E+00	 0.00000000E+00
	 0.00000000E+00	 4.38289000E-13	 0.00000000E+00
	 0.00000000E+00	 0.00000000E+00	 4.38289000E-13

	 4.42716000E-13	 0.00000000E+00	 0.00000000E+00
	 0.00000000E+00	 4.42716000E-13	 0.00000000E+00
	 0.00000000E+00	 0.00000000E+00	 4.42716000E-13

	 4.64852000E-13	 0.00000000E+00	 0.00000000E+00
	 0.00000000E+00	 4.64852000E-13	 0.00000000E+00
	 0.00000000E+00	 0.00000000E+00	 4.64852000E-13

	 4.40502000E-13	 0.00000000E+00	 0.00000000E+00
	 0.00000000E+00	 4.40502000E-13	 0.00000000E+00
	 0.00000000E+00	 0.00000000E+00	 4.40502000E-13

	 4.49673000E-13	 0.00000000E+00	 0.00000000E+00
	 0.00000000E+00	 4.49673000E-13	 0.00000000E+00
	 0.00000000E+00	 0.00000000E+00	 4.49673000E-13

	 4.64852000E-13	 0.00000000E+00	 0.00000000E+00
	 0.00000000E+00	 4.64852000E-13	 0.00000000E+00
	 0.00000000E+00	 0.00000000E+00	 4.64852000E-13

	 4.58211000E-13	 0.00000000E+00	 0.00000000E+00
	 0.00000000E+00	 4.58211000E-13	 0.00000000E+00
	 0.00000000E+00	 0.00000000E+00	 4.58211000E-13

	 4.62638000E-13	 0.00000000E+00	 0.00000000E+00
	 0.00000000E+00	 4.62638000E-13	 0.00000000E+00
	 0.00000000E+00	 0.00000000E+00	 4.62638000E-13

	 4.38289000E-13	 0.00000000E+00	 0.00000000E+00
	 0.00000000E+00	 4.38289000E-13	 0.00000000E+00
	 0.00000000E+00	 0.00000000E+00	 4.38289000E-13

	 4.55997000E-13	 0.00000000E+00	 0.00000000E+00
	 0.00000000E+00	 4.55997000E-13	 0.00000000E+00
	 0.00000000E+00	 0.00000000E+00	 4.55997000E-13

	 4.64852000E-13	 0.00000000E+00	 0.00000000E+00
	 0.00000000E+00	 4.64852000E-13	 0.00000000E+00
	 0.00000000E+00	 0.00000000E+00	 4.64852000E-13

	 4.38289000E-13	 0.00000000E+00	 0.00000000E+00
	 0.00000000E+00	 4.38289000E-13	 0.00000000E+00
	 0.00000000E+00	 0.00000000E+00	 4.38289000E-13

	 4.64852000E-13	 0.00000000E+00	 0.00000000E+00
	 0.00000000E+00	 4.64852000E-13	 0.00000000E+00
	 0.00000000E+00	 0.00000000E+00	 4.64852000E-13

	 4.42716000E-13	 0.00000000E+00	 0.00000000E+00
	 0.00000000E+00	 4.42716000E-13	 0.00000000E+00
	 0.00000000E+00	 0.00000000E+00	 4.42716000E-13

	 4.38289000E-13	 0.00000000E+00	 0.00000000E+00
	 0.00000000E+00	 4.38289000E-13	 0.00000000E+00
	 0.00000000E+00	 0.00000000E+00	 4.38289000E-13

	 4.42716000E-13	 0.00000000E+00	 0.00000000E+00
	 0.00000000E+00	 4.42716000E-13	 0.00000000E+00
	 0.00000000E+00	 0.00000000E+00	 4.42716000E-13

	 4.49357000E-13	 0.00000000E+00	 0.00000000E+00
	 0.00000000E+00	 4.49357000E-13	 0.00000000E+00
	 0.00000000E+00	 0.00000000E+00	 4.49357000E-13

	 4.38289000E-13	 0.00000000E+00	 0.00000000E+00
	 0.00000000E+00	 4.38289000E-13	 0.00000000E+00
	 0.00000000E+00	 0.00000000E+00	 4.38289000E-13

	 4.51570000E-13	 0.00000000E+00	 0.00000000E+00
	 0.00000000E+00	 4.51570000E-13	 0.00000000E+00
	 0.00000000E+00	 0.00000000E+00	 4.51570000E-13

	 4.38289000E-13	 0.00000000E+00	 0.00000000E+00
	 0.00000000E+00	 4.38289000E-13	 0.00000000E+00
	 0.00000000E+00	 0.00000000E+00	 4.38289000E-13

	 4.62638000E-13	 0.00000000E+00	 0.00000000E+00
	 0.00000000E+00	 4.62638000E-13	 0.00000000E+00
	 0.00000000E+00	 0.00000000E+00	 4.62638000E-13

	 4.64852000E-13	 0.00000000E+00	 0.00000000E+00
	 0.00000000E+00	 4.64852000E-13	 0.00000000E+00
	 0.00000000E+00	 0.00000000E+00	 4.64852000E-13

	 4.38289000E-13	 0.00000000E+00	 0.00000000E+00
	 0.00000000E+00	 4.38289000E-13	 0.00000000E+00
	 0.00000000E+00	 0.00000000E+00	 4.38289000E-13

	 4.42716000E-13	 0.00000000E+00	 0.00000000E+00
	 0.00000000E+00	 4.42716000E-13	 0.00000000E+00
	 0.00000000E+00	 0.00000000E+00	 4.42716000E-13

	 4.62954000E-13	 0.00000000E+00	 0.00000000E+00
	 0.00000000E+00	 4.62954000E-13	 0.00000000E+00
	 0.00000000E+00	 0.00000000E+00	 4.62954000E-13

	 4.51570000E-13	 0.00000000E+00	 0.00000000E+00
	 0.00000000E+00	 4.51570000E-13	 0.00000000E+00
	 0.00000000E+00	 0.00000000E+00	 4.51570000E-13

	 4.59160000E-13	 0.00000000E+00	 0.00000000E+00
	 0.00000000E+00	 4.59160000E-13	 0.00000000E+00
	 0.00000000E+00	 0.00000000E+00	 4.59160000E-13

	 4.38289000E-13	 0.00000000E+00	 0.00000000E+00
	 0.00000000E+00	 4.38289000E-13	 0.00000000E+00
	 0.00000000E+00	 0.00000000E+00	 4.38289000E-13

	 4.64852000E-13	 0.00000000E+00	 0.00000000E+00
	 0.00000000E+00	 4.64852000E-13	 0.00000000E+00
	 0.00000000E+00	 0.00000000E+00	 4.64852000E-13

	 4.53784000E-13	 0.00000000E+00	 0.00000000E+00
	 0.00000000E+00	 4.53784000E-13	 0.00000000E+00
	 0.00000000E+00	 0.00000000E+00	 4.53784000E-13

	 4.42716000E-13	 0.00000000E+00	 0.00000000E+00
	 0.00000000E+00	 4.42716000E-13	 0.00000000E+00
	 0.00000000E+00	 0.00000000E+00	 4.42716000E-13

	 4.38289000E-13	 0.00000000E+00	 0.00000000E+00
	 0.00000000E+00	 4.38289000E-13	 0.00000000E+00
	 0.00000000E+00	 0.00000000E+00	 4.38289000E-13

	 4.64852000E-13	 0.00000000E+00	 0.00000000E+00
	 0.00000000E+00	 4.64852000E-13	 0.00000000E+00
	 0.00000000E+00	 0.00000000E+00	 4.64852000E-13

	 4.38289000E-13	 0.00000000E+00	 0.00000000E+00
	 0.00000000E+00	 4.38289000E-13	 0.00000000E+00
	 0.00000000E+00	 0.00000000E+00	 4.38289000E-13

	 4.64852000E-13	 0.00000000E+00	 0.00000000E+00
	 0.00000000E+00	 4.64852000E-13	 0.00000000E+00
	 0.00000000E+00	 0.00000000E+00	 4.64852000E-13

	 4.55997000E-13	 0.00000000E+00	 0.00000000E+00
	 0.00000000E+00	 4.55997000E-13	 0.00000000E+00
	 0.00000000E+00	 0.00000000E+00	 4.55997000E-13

	 4.55997000E-13	 0.00000000E+00	 0.00000000E+00
	 0.00000000E+00	 4.55997000E-13	 0.00000000E+00
	 0.00000000E+00	 0.00000000E+00	 4.55997000E-13

	 4.60425000E-13	 0.00000000E+00	 0.00000000E+00
	 0.00000000E+00	 4.60425000E-13	 0.00000000E+00
	 0.00000000E+00	 0.00000000E+00	 4.60425000E-13

	 4.64852000E-13	 0.00000000E+00	 0.00000000E+00
	 0.00000000E+00	 4.64852000E-13	 0.00000000E+00
	 0.00000000E+00	 0.00000000E+00	 4.64852000E-13

	 4.64852000E-13	 0.00000000E+00	 0.00000000E+00
	 0.00000000E+00	 4.64852000E-13	 0.00000000E+00
	 0.00000000E+00	 0.00000000E+00	 4.64852000E-13

	 4.64852000E-13	 0.00000000E+00	 0.00000000E+00
	 0.00000000E+00	 4.64852000E-13	 0.00000000E+00
	 0.00000000E+00	 0.00000000E+00	 4.64852000E-13

	 4.64852000E-13	 0.00000000E+00	 0.00000000E+00
	 0.00000000E+00	 4.64852000E-13	 0.00000000E+00
	 0.00000000E+00	 0.00000000E+00	 4.64852000E-13

	 4.64852000E-13	 0.00000000E+00	 0.00000000E+00
	 0.00000000E+00	 4.64852000E-13	 0.00000000E+00
	 0.00000000E+00	 0.00000000E+00	 4.64852000E-13

	 4.47143000E-13	 0.00000000E+00	 0.00000000E+00
	 0.00000000E+00	 4.47143000E-13	 0.00000000E+00
	 0.00000000E+00	 0.00000000E+00	 4.47143000E-13

	 4.62638000E-13	 0.00000000E+00	 0.00000000E+00
	 0.00000000E+00	 4.62638000E-13	 0.00000000E+00
	 0.00000000E+00	 0.00000000E+00	 4.62638000E-13

	 4.38289000E-13	 0.00000000E+00	 0.00000000E+00
	 0.00000000E+00	 4.38289000E-13	 0.00000000E+00
	 0.00000000E+00	 0.00000000E+00	 4.38289000E-13

	 4.64852000E-13	 0.00000000E+00	 0.00000000E+00
	 0.00000000E+00	 4.64852000E-13	 0.00000000E+00
	 0.00000000E+00	 0.00000000E+00	 4.64852000E-13

	 4.64852000E-13	 0.00000000E+00	 0.00000000E+00
	 0.00000000E+00	 4.64852000E-13	 0.00000000E+00
	 0.00000000E+00	 0.00000000E+00	 4.64852000E-13

	 4.64852000E-13	 0.00000000E+00	 0.00000000E+00
	 0.00000000E+00	 4.64852000E-13	 0.00000000E+00
	 0.00000000E+00	 0.00000000E+00	 4.64852000E-13

	 4.60425000E-13	 0.00000000E+00	 0.00000000E+00
	 0.00000000E+00	 4.60425000E-13	 0.00000000E+00
	 0.00000000E+00	 0.00000000E+00	 4.60425000E-13

	 4.64852000E-13	 0.00000000E+00	 0.00000000E+00
	 0.00000000E+00	 4.64852000E-13	 0.00000000E+00
	 0.00000000E+00	 0.00000000E+00	 4.64852000E-13

	 4.49673000E-13	 0.00000000E+00	 0.00000000E+00
	 0.00000000E+00	 4.49673000E-13	 0.00000000E+00
	 0.00000000E+00	 0.00000000E+00	 4.49673000E-13

	 4.62638000E-13	 0.00000000E+00	 0.00000000E+00
	 0.00000000E+00	 4.62638000E-13	 0.00000000E+00
	 0.00000000E+00	 0.00000000E+00	 4.62638000E-13

	 4.59160000E-13	 0.00000000E+00	 0.00000000E+00
	 0.00000000E+00	 4.59160000E-13	 0.00000000E+00
	 0.00000000E+00	 0.00000000E+00	 4.59160000E-13

	 4.60425000E-13	 0.00000000E+00	 0.00000000E+00
	 0.00000000E+00	 4.60425000E-13	 0.00000000E+00
	 0.00000000E+00	 0.00000000E+00	 4.60425000E-13

	 4.64852000E-13	 0.00000000E+00	 0.00000000E+00
	 0.00000000E+00	 4.64852000E-13	 0.00000000E+00
	 0.00000000E+00	 0.00000000E+00	 4.64852000E-13

	 4.64852000E-13	 0.00000000E+00	 0.00000000E+00
	 0.00000000E+00	 4.64852000E-13	 0.00000000E+00
	 0.00000000E+00	 0.00000000E+00	 4.64852000E-13

	 4.64852000E-13	 0.00000000E+00	 0.00000000E+00
	 0.00000000E+00	 4.64852000E-13	 0.00000000E+00
	 0.00000000E+00	 0.00000000E+00	 4.64852000E-13

	 4.64852000E-13	 0.00000000E+00	 0.00000000E+00
	 0.00000000E+00	 4.64852000E-13	 0.00000000E+00
	 0.00000000E+00	 0.00000000E+00	 4.64852000E-13

	 4.58211000E-13	 0.00000000E+00	 0.00000000E+00
	 0.00000000E+00	 4.58211000E-13	 0.00000000E+00
	 0.00000000E+00	 0.00000000E+00	 4.58211000E-13

	 4.47143000E-13	 0.00000000E+00	 0.00000000E+00
	 0.00000000E+00	 4.47143000E-13	 0.00000000E+00
	 0.00000000E+00	 0.00000000E+00	 4.47143000E-13

	 4.38289000E-13	 0.00000000E+00	 0.00000000E+00
	 0.00000000E+00	 4.38289000E-13	 0.00000000E+00
	 0.00000000E+00	 0.00000000E+00	 4.38289000E-13

	 4.38289000E-13	 0.00000000E+00	 0.00000000E+00
	 0.00000000E+00	 4.38289000E-13	 0.00000000E+00
	 0.00000000E+00	 0.00000000E+00	 4.38289000E-13

	 4.55997000E-13	 0.00000000E+00	 0.00000000E+00
	 0.00000000E+00	 4.55997000E-13	 0.00000000E+00
	 0.00000000E+00	 0.00000000E+00	 4.55997000E-13

	 4.44929000E-13	 0.00000000E+00	 0.00000000E+00
	 0.00000000E+00	 4.44929000E-13	 0.00000000E+00
	 0.00000000E+00	 0.00000000E+00	 4.44929000E-13

	 4.64852000E-13	 0.00000000E+00	 0.00000000E+00
	 0.00000000E+00	 4.64852000E-13	 0.00000000E+00
	 0.00000000E+00	 0.00000000E+00	 4.64852000E-13

	 4.64852000E-13	 0.00000000E+00	 0.00000000E+00
	 0.00000000E+00	 4.64852000E-13	 0.00000000E+00
	 0.00000000E+00	 0.00000000E+00	 4.64852000E-13

	 4.38289000E-13	 0.00000000E+00	 0.00000000E+00
	 0.00000000E+00	 4.38289000E-13	 0.00000000E+00
	 0.00000000E+00	 0.00000000E+00	 4.38289000E-13

	 4.38289000E-13	 0.00000000E+00	 0.00000000E+00
	 0.00000000E+00	 4.38289000E-13	 0.00000000E+00
	 0.00000000E+00	 0.00000000E+00	 4.38289000E-13

	 4.40502000E-13	 0.00000000E+00	 0.00000000E+00
	 0.00000000E+00	 4.40502000E-13	 0.00000000E+00
	 0.00000000E+00	 0.00000000E+00	 4.40502000E-13

	 4.38289000E-13	 0.00000000E+00	 0.00000000E+00
	 0.00000000E+00	 4.38289000E-13	 0.00000000E+00
	 0.00000000E+00	 0.00000000E+00	 4.38289000E-13

	 4.51570000E-13	 0.00000000E+00	 0.00000000E+00
	 0.00000000E+00	 4.51570000E-13	 0.00000000E+00
	 0.00000000E+00	 0.00000000E+00	 4.51570000E-13

	 4.51570000E-13	 0.00000000E+00	 0.00000000E+00
	 0.00000000E+00	 4.51570000E-13	 0.00000000E+00
	 0.00000000E+00	 0.00000000E+00	 4.51570000E-13

	 4.47143000E-13	 0.00000000E+00	 0.00000000E+00
	 0.00000000E+00	 4.47143000E-13	 0.00000000E+00
	 0.00000000E+00	 0.00000000E+00	 4.47143000E-13

	 4.44929000E-13	 0.00000000E+00	 0.00000000E+00
	 0.00000000E+00	 4.44929000E-13	 0.00000000E+00
	 0.00000000E+00	 0.00000000E+00	 4.44929000E-13

	 4.42716000E-13	 0.00000000E+00	 0.00000000E+00
	 0.00000000E+00	 4.42716000E-13	 0.00000000E+00
	 0.00000000E+00	 0.00000000E+00	 4.42716000E-13

	 4.38289000E-13	 0.00000000E+00	 0.00000000E+00
	 0.00000000E+00	 4.38289000E-13	 0.00000000E+00
	 0.00000000E+00	 0.00000000E+00	 4.38289000E-13

	 4.62638000E-13	 0.00000000E+00	 0.00000000E+00
	 0.00000000E+00	 4.62638000E-13	 0.00000000E+00
	 0.00000000E+00	 0.00000000E+00	 4.62638000E-13

	 4.64852000E-13	 0.00000000E+00	 0.00000000E+00
	 0.00000000E+00	 4.64852000E-13	 0.00000000E+00
	 0.00000000E+00	 0.00000000E+00	 4.64852000E-13

	 4.64852000E-13	 0.00000000E+00	 0.00000000E+00
	 0.00000000E+00	 4.64852000E-13	 0.00000000E+00
	 0.00000000E+00	 0.00000000E+00	 4.64852000E-13

	 4.64852000E-13	 0.00000000E+00	 0.00000000E+00
	 0.00000000E+00	 4.64852000E-13	 0.00000000E+00
	 0.00000000E+00	 0.00000000E+00	 4.64852000E-13

	 4.42716000E-13	 0.00000000E+00	 0.00000000E+00
	 0.00000000E+00	 4.42716000E-13	 0.00000000E+00
	 0.00000000E+00	 0.00000000E+00	 4.42716000E-13

	 4.64852000E-13	 0.00000000E+00	 0.00000000E+00
	 0.00000000E+00	 4.64852000E-13	 0.00000000E+00
	 0.00000000E+00	 0.00000000E+00	 4.64852000E-13

	 4.42716000E-13	 0.00000000E+00	 0.00000000E+00
	 0.00000000E+00	 4.42716000E-13	 0.00000000E+00
	 0.00000000E+00	 0.00000000E+00	 4.42716000E-13

	 4.38289000E-13	 0.00000000E+00	 0.00000000E+00
	 0.00000000E+00	 4.38289000E-13	 0.00000000E+00
	 0.00000000E+00	 0.00000000E+00	 4.38289000E-13

	 4.47143000E-13	 0.00000000E+00	 0.00000000E+00
	 0.00000000E+00	 4.47143000E-13	 0.00000000E+00
	 0.00000000E+00	 0.00000000E+00	 4.47143000E-13

	 4.55997000E-13	 0.00000000E+00	 0.00000000E+00
	 0.00000000E+00	 4.55997000E-13	 0.00000000E+00
	 0.00000000E+00	 0.00000000E+00	 4.55997000E-13

	 4.42716000E-13	 0.00000000E+00	 0.00000000E+00
	 0.00000000E+00	 4.42716000E-13	 0.00000000E+00
	 0.00000000E+00	 0.00000000E+00	 4.42716000E-13

	 4.51570000E-13	 0.00000000E+00	 0.00000000E+00
	 0.00000000E+00	 4.51570000E-13	 0.00000000E+00
	 0.00000000E+00	 0.00000000E+00	 4.51570000E-13

	 4.38289000E-13	 0.00000000E+00	 0.00000000E+00
	 0.00000000E+00	 4.38289000E-13	 0.00000000E+00
	 0.00000000E+00	 0.00000000E+00	 4.38289000E-13

	 4.47143000E-13	 0.00000000E+00	 0.00000000E+00
	 0.00000000E+00	 4.47143000E-13	 0.00000000E+00
	 0.00000000E+00	 0.00000000E+00	 4.47143000E-13

	 4.38289000E-13	 0.00000000E+00	 0.00000000E+00
	 0.00000000E+00	 4.38289000E-13	 0.00000000E+00
	 0.00000000E+00	 0.00000000E+00	 4.38289000E-13

	 4.64852000E-13	 0.00000000E+00	 0.00000000E+00
	 0.00000000E+00	 4.64852000E-13	 0.00000000E+00
	 0.00000000E+00	 0.00000000E+00	 4.64852000E-13

	 4.38289000E-13	 0.00000000E+00	 0.00000000E+00
	 0.00000000E+00	 4.38289000E-13	 0.00000000E+00
	 0.00000000E+00	 0.00000000E+00	 4.38289000E-13

	 4.38289000E-13	 0.00000000E+00	 0.00000000E+00
	 0.00000000E+00	 4.38289000E-13	 0.00000000E+00
	 0.00000000E+00	 0.00000000E+00	 4.38289000E-13

	 4.42716000E-13	 0.00000000E+00	 0.00000000E+00
	 0.00000000E+00	 4.42716000E-13	 0.00000000E+00
	 0.00000000E+00	 0.00000000E+00	 4.42716000E-13

	 4.38289000E-13	 0.00000000E+00	 0.00000000E+00
	 0.00000000E+00	 4.38289000E-13	 0.00000000E+00
	 0.00000000E+00	 0.00000000E+00	 4.38289000E-13

	 4.38289000E-13	 0.00000000E+00	 0.00000000E+00
	 0.00000000E+00	 4.38289000E-13	 0.00000000E+00
	 0.00000000E+00	 0.00000000E+00	 4.38289000E-13

	 4.38289000E-13	 0.00000000E+00	 0.00000000E+00
	 0.00000000E+00	 4.38289000E-13	 0.00000000E+00
	 0.00000000E+00	 0.00000000E+00	 4.38289000E-13

	 4.38289000E-13	 0.00000000E+00	 0.00000000E+00
	 0.00000000E+00	 4.38289000E-13	 0.00000000E+00
	 0.00000000E+00	 0.00000000E+00	 4.38289000E-13

	 4.38289000E-13	 0.00000000E+00	 0.00000000E+00
	 0.00000000E+00	 4.38289000E-13	 0.00000000E+00
	 0.00000000E+00	 0.00000000E+00	 4.38289000E-13

	 4.38289000E-13	 0.00000000E+00	 0.00000000E+00
	 0.00000000E+00	 4.38289000E-13	 0.00000000E+00
	 0.00000000E+00	 0.00000000E+00	 4.38289000E-13

	 4.38289000E-13	 0.00000000E+00	 0.00000000E+00
	 0.00000000E+00	 4.38289000E-13	 0.00000000E+00
	 0.00000000E+00	 0.00000000E+00	 4.38289000E-13

	 4.38289000E-13	 0.00000000E+00	 0.00000000E+00
	 0.00000000E+00	 4.38289000E-13	 0.00000000E+00
	 0.00000000E+00	 0.00000000E+00	 4.38289000E-13

	 4.38289000E-13	 0.00000000E+00	 0.00000000E+00
	 0.00000000E+00	 4.38289000E-13	 0.00000000E+00
	 0.00000000E+00	 0.00000000E+00	 4.38289000E-13

	 4.38289000E-13	 0.00000000E+00	 0.00000000E+00
	 0.00000000E+00	 4.38289000E-13	 0.00000000E+00
	 0.00000000E+00	 0.00000000E+00	 4.38289000E-13

	 4.38289000E-13	 0.00000000E+00	 0.00000000E+00
	 0.00000000E+00	 4.38289000E-13	 0.00000000E+00
	 0.00000000E+00	 0.00000000E+00	 4.38289000E-13

	 4.38289000E-13	 0.00000000E+00	 0.00000000E+00
	 0.00000000E+00	 4.38289000E-13	 0.00000000E+00
	 0.00000000E+00	 0.00000000E+00	 4.38289000E-13

	 4.38289000E-13	 0.00000000E+00	 0.00000000E+00
	 0.00000000E+00	 4.38289000E-13	 0.00000000E+00
	 0.00000000E+00	 0.00000000E+00	 4.38289000E-13

	 4.38289000E-13	 0.00000000E+00	 0.00000000E+00
	 0.00000000E+00	 4.38289000E-13	 0.00000000E+00
	 0.00000000E+00	 0.00000000E+00	 4.38289000E-13

	 4.38289000E-13	 0.00000000E+00	 0.00000000E+00
	 0.00000000E+00	 4.38289000E-13	 0.00000000E+00
	 0.00000000E+00	 0.00000000E+00	 4.38289000E-13

	 4.38289000E-13	 0.00000000E+00	 0.00000000E+00
	 0.00000000E+00	 4.38289000E-13	 0.00000000E+00
	 0.00000000E+00	 0.00000000E+00	 4.38289000E-13

	 4.47143000E-13	 0.00000000E+00	 0.00000000E+00
	 0.00000000E+00	 4.47143000E-13	 0.00000000E+00
	 0.00000000E+00	 0.00000000E+00	 4.47143000E-13

	 4.47143000E-13	 0.00000000E+00	 0.00000000E+00
	 0.00000000E+00	 4.47143000E-13	 0.00000000E+00
	 0.00000000E+00	 0.00000000E+00	 4.47143000E-13

	 4.42083000E-13	 0.00000000E+00	 0.00000000E+00
	 0.00000000E+00	 4.42083000E-13	 0.00000000E+00
	 0.00000000E+00	 0.00000000E+00	 4.42083000E-13

	 4.38289000E-13	 0.00000000E+00	 0.00000000E+00
	 0.00000000E+00	 4.38289000E-13	 0.00000000E+00
	 0.00000000E+00	 0.00000000E+00	 4.38289000E-13

	 4.38289000E-13	 0.00000000E+00	 0.00000000E+00
	 0.00000000E+00	 4.38289000E-13	 0.00000000E+00
	 0.00000000E+00	 0.00000000E+00	 4.38289000E-13

	 4.38289000E-13	 0.00000000E+00	 0.00000000E+00
	 0.00000000E+00	 4.38289000E-13	 0.00000000E+00
	 0.00000000E+00	 0.00000000E+00	 4.38289000E-13

	 4.38289000E-13	 0.00000000E+00	 0.00000000E+00
	 0.00000000E+00	 4.38289000E-13	 0.00000000E+00
	 0.00000000E+00	 0.00000000E+00	 4.38289000E-13

	 4.38289000E-13	 0.00000000E+00	 0.00000000E+00
	 0.00000000E+00	 4.38289000E-13	 0.00000000E+00
	 0.00000000E+00	 0.00000000E+00	 4.38289000E-13

	 4.42716000E-13	 0.00000000E+00	 0.00000000E+00
	 0.00000000E+00	 4.42716000E-13	 0.00000000E+00
	 0.00000000E+00	 0.00000000E+00	 4.42716000E-13

	 4.38289000E-13	 0.00000000E+00	 0.00000000E+00
	 0.00000000E+00	 4.38289000E-13	 0.00000000E+00
	 0.00000000E+00	 0.00000000E+00	 4.38289000E-13

	 4.44929000E-13	 0.00000000E+00	 0.00000000E+00
	 0.00000000E+00	 4.44929000E-13	 0.00000000E+00
	 0.00000000E+00	 0.00000000E+00	 4.44929000E-13

	 4.40502000E-13	 0.00000000E+00	 0.00000000E+00
	 0.00000000E+00	 4.40502000E-13	 0.00000000E+00
	 0.00000000E+00	 0.00000000E+00	 4.40502000E-13

	 4.38289000E-13	 0.00000000E+00	 0.00000000E+00
	 0.00000000E+00	 4.38289000E-13	 0.00000000E+00
	 0.00000000E+00	 0.00000000E+00	 4.38289000E-13

	 4.42716000E-13	 0.00000000E+00	 0.00000000E+00
	 0.00000000E+00	 4.42716000E-13	 0.00000000E+00
	 0.00000000E+00	 0.00000000E+00	 4.42716000E-13

	 4.38289000E-13	 0.00000000E+00	 0.00000000E+00
	 0.00000000E+00	 4.38289000E-13	 0.00000000E+00
	 0.00000000E+00	 0.00000000E+00	 4.38289000E-13

	 4.42716000E-13	 0.00000000E+00	 0.00000000E+00
	 0.00000000E+00	 4.42716000E-13	 0.00000000E+00
	 0.00000000E+00	 0.00000000E+00	 4.42716000E-13

	 4.40502000E-13	 0.00000000E+00	 0.00000000E+00
	 0.00000000E+00	 4.40502000E-13	 0.00000000E+00
	 0.00000000E+00	 0.00000000E+00	 4.40502000E-13

	 4.58211000E-13	 0.00000000E+00	 0.00000000E+00
	 0.00000000E+00	 4.58211000E-13	 0.00000000E+00
	 0.00000000E+00	 0.00000000E+00	 4.58211000E-13

	 4.38289000E-13	 0.00000000E+00	 0.00000000E+00
	 0.00000000E+00	 4.38289000E-13	 0.00000000E+00
	 0.00000000E+00	 0.00000000E+00	 4.38289000E-13

	 4.64852000E-13	 0.00000000E+00	 0.00000000E+00
	 0.00000000E+00	 4.64852000E-13	 0.00000000E+00
	 0.00000000E+00	 0.00000000E+00	 4.64852000E-13

	 4.62638000E-13	 0.00000000E+00	 0.00000000E+00
	 0.00000000E+00	 4.62638000E-13	 0.00000000E+00
	 0.00000000E+00	 0.00000000E+00	 4.62638000E-13

	 4.64852000E-13	 0.00000000E+00	 0.00000000E+00
	 0.00000000E+00	 4.64852000E-13	 0.00000000E+00
	 0.00000000E+00	 0.00000000E+00	 4.64852000E-13

	 4.64852000E-13	 0.00000000E+00	 0.00000000E+00
	 0.00000000E+00	 4.64852000E-13	 0.00000000E+00
	 0.00000000E+00	 0.00000000E+00	 4.64852000E-13

	 4.53784000E-13	 0.00000000E+00	 0.00000000E+00
	 0.00000000E+00	 4.53784000E-13	 0.00000000E+00
	 0.00000000E+00	 0.00000000E+00	 4.53784000E-13

	 4.64852000E-13	 0.00000000E+00	 0.00000000E+00
	 0.00000000E+00	 4.64852000E-13	 0.00000000E+00
	 0.00000000E+00	 0.00000000E+00	 4.64852000E-13

	 4.40502000E-13	 0.00000000E+00	 0.00000000E+00
	 0.00000000E+00	 4.40502000E-13	 0.00000000E+00
	 0.00000000E+00	 0.00000000E+00	 4.40502000E-13

	 4.40502000E-13	 0.00000000E+00	 0.00000000E+00
	 0.00000000E+00	 4.40502000E-13	 0.00000000E+00
	 0.00000000E+00	 0.00000000E+00	 4.40502000E-13

	 4.58211000E-13	 0.00000000E+00	 0.00000000E+00
	 0.00000000E+00	 4.58211000E-13	 0.00000000E+00
	 0.00000000E+00	 0.00000000E+00	 4.58211000E-13

	 4.64852000E-13	 0.00000000E+00	 0.00000000E+00
	 0.00000000E+00	 4.64852000E-13	 0.00000000E+00
	 0.00000000E+00	 0.00000000E+00	 4.64852000E-13

	 4.51570000E-13	 0.00000000E+00	 0.00000000E+00
	 0.00000000E+00	 4.51570000E-13	 0.00000000E+00
	 0.00000000E+00	 0.00000000E+00	 4.51570000E-13

	 4.38289000E-13	 0.00000000E+00	 0.00000000E+00
	 0.00000000E+00	 4.38289000E-13	 0.00000000E+00
	 0.00000000E+00	 0.00000000E+00	 4.38289000E-13

	 4.38289000E-13	 0.00000000E+00	 0.00000000E+00
	 0.00000000E+00	 4.38289000E-13	 0.00000000E+00
	 0.00000000E+00	 0.00000000E+00	 4.38289000E-13

	 4.61057000E-13	 0.00000000E+00	 0.00000000E+00
	 0.00000000E+00	 4.61057000E-13	 0.00000000E+00
	 0.00000000E+00	 0.00000000E+00	 4.61057000E-13

	 4.44929000E-13	 0.00000000E+00	 0.00000000E+00
	 0.00000000E+00	 4.44929000E-13	 0.00000000E+00
	 0.00000000E+00	 0.00000000E+00	 4.44929000E-13

	 4.64852000E-13	 0.00000000E+00	 0.00000000E+00
	 0.00000000E+00	 4.64852000E-13	 0.00000000E+00
	 0.00000000E+00	 0.00000000E+00	 4.64852000E-13

	 4.38289000E-13	 0.00000000E+00	 0.00000000E+00
	 0.00000000E+00	 4.38289000E-13	 0.00000000E+00
	 0.00000000E+00	 0.00000000E+00	 4.38289000E-13

	 4.64852000E-13	 0.00000000E+00	 0.00000000E+00
	 0.00000000E+00	 4.64852000E-13	 0.00000000E+00
	 0.00000000E+00	 0.00000000E+00	 4.64852000E-13

	 4.38289000E-13	 0.00000000E+00	 0.00000000E+00
	 0.00000000E+00	 4.38289000E-13	 0.00000000E+00
	 0.00000000E+00	 0.00000000E+00	 4.38289000E-13

	 4.64852000E-13	 0.00000000E+00	 0.00000000E+00
	 0.00000000E+00	 4.64852000E-13	 0.00000000E+00
	 0.00000000E+00	 0.00000000E+00	 4.64852000E-13

	 4.64852000E-13	 0.00000000E+00	 0.00000000E+00
	 0.00000000E+00	 4.64852000E-13	 0.00000000E+00
	 0.00000000E+00	 0.00000000E+00	 4.64852000E-13

	 4.64852000E-13	 0.00000000E+00	 0.00000000E+00
	 0.00000000E+00	 4.64852000E-13	 0.00000000E+00
	 0.00000000E+00	 0.00000000E+00	 4.64852000E-13

	 4.64852000E-13	 0.00000000E+00	 0.00000000E+00
	 0.00000000E+00	 4.64852000E-13	 0.00000000E+00
	 0.00000000E+00	 0.00000000E+00	 4.64852000E-13

	 4.64852000E-13	 0.00000000E+00	 0.00000000E+00
	 0.00000000E+00	 4.64852000E-13	 0.00000000E+00
	 0.00000000E+00	 0.00000000E+00	 4.64852000E-13

	 4.64852000E-13	 0.00000000E+00	 0.00000000E+00
	 0.00000000E+00	 4.64852000E-13	 0.00000000E+00
	 0.00000000E+00	 0.00000000E+00	 4.64852000E-13

	 4.64852000E-13	 0.00000000E+00	 0.00000000E+00
	 0.00000000E+00	 4.64852000E-13	 0.00000000E+00
	 0.00000000E+00	 0.00000000E+00	 4.64852000E-13

	 4.64852000E-13	 0.00000000E+00	 0.00000000E+00
	 0.00000000E+00	 4.64852000E-13	 0.00000000E+00
	 0.00000000E+00	 0.00000000E+00	 4.64852000E-13

	 4.64852000E-13	 0.00000000E+00	 0.00000000E+00
	 0.00000000E+00	 4.64852000E-13	 0.00000000E+00
	 0.00000000E+00	 0.00000000E+00	 4.64852000E-13

	 4.64852000E-13	 0.00000000E+00	 0.00000000E+00
	 0.00000000E+00	 4.64852000E-13	 0.00000000E+00
	 0.00000000E+00	 0.00000000E+00	 4.64852000E-13

	 4.64852000E-13	 0.00000000E+00	 0.00000000E+00
	 0.00000000E+00	 4.64852000E-13	 0.00000000E+00
	 0.00000000E+00	 0.00000000E+00	 4.64852000E-13

	 4.62638000E-13	 0.00000000E+00	 0.00000000E+00
	 0.00000000E+00	 4.62638000E-13	 0.00000000E+00
	 0.00000000E+00	 0.00000000E+00	 4.62638000E-13

	 4.62638000E-13	 0.00000000E+00	 0.00000000E+00
	 0.00000000E+00	 4.62638000E-13	 0.00000000E+00
	 0.00000000E+00	 0.00000000E+00	 4.62638000E-13

	 4.62638000E-13	 0.00000000E+00	 0.00000000E+00
	 0.00000000E+00	 4.62638000E-13	 0.00000000E+00
	 0.00000000E+00	 0.00000000E+00	 4.62638000E-13

	 4.64852000E-13	 0.00000000E+00	 0.00000000E+00
	 0.00000000E+00	 4.64852000E-13	 0.00000000E+00
	 0.00000000E+00	 0.00000000E+00	 4.64852000E-13

	 4.64852000E-13	 0.00000000E+00	 0.00000000E+00
	 0.00000000E+00	 4.64852000E-13	 0.00000000E+00
	 0.00000000E+00	 0.00000000E+00	 4.64852000E-13

	 4.64852000E-13	 0.00000000E+00	 0.00000000E+00
	 0.00000000E+00	 4.64852000E-13	 0.00000000E+00
	 0.00000000E+00	 0.00000000E+00	 4.64852000E-13

	 4.64852000E-13	 0.00000000E+00	 0.00000000E+00
	 0.00000000E+00	 4.64852000E-13	 0.00000000E+00
	 0.00000000E+00	 0.00000000E+00	 4.64852000E-13

	 4.62954000E-13	 0.00000000E+00	 0.00000000E+00
	 0.00000000E+00	 4.62954000E-13	 0.00000000E+00
	 0.00000000E+00	 0.00000000E+00	 4.62954000E-13

	 4.38289000E-13	 0.00000000E+00	 0.00000000E+00
	 0.00000000E+00	 4.38289000E-13	 0.00000000E+00
	 0.00000000E+00	 0.00000000E+00	 4.38289000E-13

	 4.58211000E-13	 0.00000000E+00	 0.00000000E+00
	 0.00000000E+00	 4.58211000E-13	 0.00000000E+00
	 0.00000000E+00	 0.00000000E+00	 4.58211000E-13

	 4.64852000E-13	 0.00000000E+00	 0.00000000E+00
	 0.00000000E+00	 4.64852000E-13	 0.00000000E+00
	 0.00000000E+00	 0.00000000E+00	 4.64852000E-13

	 4.64852000E-13	 0.00000000E+00	 0.00000000E+00
	 0.00000000E+00	 4.64852000E-13	 0.00000000E+00
	 0.00000000E+00	 0.00000000E+00	 4.64852000E-13

	 4.38289000E-13	 0.00000000E+00	 0.00000000E+00
	 0.00000000E+00	 4.38289000E-13	 0.00000000E+00
	 0.00000000E+00	 0.00000000E+00	 4.38289000E-13

	 4.54227000E-13	 0.00000000E+00	 0.00000000E+00
	 0.00000000E+00	 4.54227000E-13	 0.00000000E+00
	 0.00000000E+00	 0.00000000E+00	 4.54227000E-13

	 4.38289000E-13	 0.00000000E+00	 0.00000000E+00
	 0.00000000E+00	 4.38289000E-13	 0.00000000E+00
	 0.00000000E+00	 0.00000000E+00	 4.38289000E-13

	 4.51570000E-13	 0.00000000E+00	 0.00000000E+00
	 0.00000000E+00	 4.51570000E-13	 0.00000000E+00
	 0.00000000E+00	 0.00000000E+00	 4.51570000E-13

	 4.64852000E-13	 0.00000000E+00	 0.00000000E+00
	 0.00000000E+00	 4.64852000E-13	 0.00000000E+00
	 0.00000000E+00	 0.00000000E+00	 4.64852000E-13

	 4.62638000E-13	 0.00000000E+00	 0.00000000E+00
	 0.00000000E+00	 4.62638000E-13	 0.00000000E+00
	 0.00000000E+00	 0.00000000E+00	 4.62638000E-13

	 4.60425000E-13	 0.00000000E+00	 0.00000000E+00
	 0.00000000E+00	 4.60425000E-13	 0.00000000E+00
	 0.00000000E+00	 0.00000000E+00	 4.60425000E-13

	 4.47143000E-13	 0.00000000E+00	 0.00000000E+00
	 0.00000000E+00	 4.47143000E-13	 0.00000000E+00
	 0.00000000E+00	 0.00000000E+00	 4.47143000E-13

	 4.38289000E-13	 0.00000000E+00	 0.00000000E+00
	 0.00000000E+00	 4.38289000E-13	 0.00000000E+00
	 0.00000000E+00	 0.00000000E+00	 4.38289000E-13

	 4.38289000E-13	 0.00000000E+00	 0.00000000E+00
	 0.00000000E+00	 4.38289000E-13	 0.00000000E+00
	 0.00000000E+00	 0.00000000E+00	 4.38289000E-13

	 4.38289000E-13	 0.00000000E+00	 0.00000000E+00
	 0.00000000E+00	 4.38289000E-13	 0.00000000E+00
	 0.00000000E+00	 0.00000000E+00	 4.38289000E-13

	 4.38289000E-13	 0.00000000E+00	 0.00000000E+00
	 0.00000000E+00	 4.38289000E-13	 0.00000000E+00
	 0.00000000E+00	 0.00000000E+00	 4.38289000E-13

	 4.51570000E-13	 0.00000000E+00	 0.00000000E+00
	 0.00000000E+00	 4.51570000E-13	 0.00000000E+00
	 0.00000000E+00	 0.00000000E+00	 4.51570000E-13

	 4.38289000E-13	 0.00000000E+00	 0.00000000E+00
	 0.00000000E+00	 4.38289000E-13	 0.00000000E+00
	 0.00000000E+00	 0.00000000E+00	 4.38289000E-13

	 4.38289000E-13	 0.00000000E+00	 0.00000000E+00
	 0.00000000E+00	 4.38289000E-13	 0.00000000E+00
	 0.00000000E+00	 0.00000000E+00	 4.38289000E-13

	 4.42083000E-13	 0.00000000E+00	 0.00000000E+00
	 0.00000000E+00	 4.42083000E-13	 0.00000000E+00
	 0.00000000E+00	 0.00000000E+00	 4.42083000E-13

	 4.64852000E-13	 0.00000000E+00	 0.00000000E+00
	 0.00000000E+00	 4.64852000E-13	 0.00000000E+00
	 0.00000000E+00	 0.00000000E+00	 4.64852000E-13

	 4.38289000E-13	 0.00000000E+00	 0.00000000E+00
	 0.00000000E+00	 4.38289000E-13	 0.00000000E+00
	 0.00000000E+00	 0.00000000E+00	 4.38289000E-13

	 4.62638000E-13	 0.00000000E+00	 0.00000000E+00
	 0.00000000E+00	 4.62638000E-13	 0.00000000E+00
	 0.00000000E+00	 0.00000000E+00	 4.62638000E-13

	 4.64852000E-13	 0.00000000E+00	 0.00000000E+00
	 0.00000000E+00	 4.64852000E-13	 0.00000000E+00
	 0.00000000E+00	 0.00000000E+00	 4.64852000E-13

	 4.47143000E-13	 0.00000000E+00	 0.00000000E+00
	 0.00000000E+00	 4.47143000E-13	 0.00000000E+00
	 0.00000000E+00	 0.00000000E+00	 4.47143000E-13

	 4.42716000E-13	 0.00000000E+00	 0.00000000E+00
	 0.00000000E+00	 4.42716000E-13	 0.00000000E+00
	 0.00000000E+00	 0.00000000E+00	 4.42716000E-13

	 4.62638000E-13	 0.00000000E+00	 0.00000000E+00
	 0.00000000E+00	 4.62638000E-13	 0.00000000E+00
	 0.00000000E+00	 0.00000000E+00	 4.62638000E-13

	 4.55997000E-13	 0.00000000E+00	 0.00000000E+00
	 0.00000000E+00	 4.55997000E-13	 0.00000000E+00
	 0.00000000E+00	 0.00000000E+00	 4.55997000E-13

	 4.64852000E-13	 0.00000000E+00	 0.00000000E+00
	 0.00000000E+00	 4.64852000E-13	 0.00000000E+00
	 0.00000000E+00	 0.00000000E+00	 4.64852000E-13

	 4.64852000E-13	 0.00000000E+00	 0.00000000E+00
	 0.00000000E+00	 4.64852000E-13	 0.00000000E+00
	 0.00000000E+00	 0.00000000E+00	 4.64852000E-13

	 4.64852000E-13	 0.00000000E+00	 0.00000000E+00
	 0.00000000E+00	 4.64852000E-13	 0.00000000E+00
	 0.00000000E+00	 0.00000000E+00	 4.64852000E-13

	 4.64852000E-13	 0.00000000E+00	 0.00000000E+00
	 0.00000000E+00	 4.64852000E-13	 0.00000000E+00
	 0.00000000E+00	 0.00000000E+00	 4.64852000E-13

	 4.64852000E-13	 0.00000000E+00	 0.00000000E+00
	 0.00000000E+00	 4.64852000E-13	 0.00000000E+00
	 0.00000000E+00	 0.00000000E+00	 4.64852000E-13

	 4.64852000E-13	 0.00000000E+00	 0.00000000E+00
	 0.00000000E+00	 4.64852000E-13	 0.00000000E+00
	 0.00000000E+00	 0.00000000E+00	 4.64852000E-13

	 4.64852000E-13	 0.00000000E+00	 0.00000000E+00
	 0.00000000E+00	 4.64852000E-13	 0.00000000E+00
	 0.00000000E+00	 0.00000000E+00	 4.64852000E-13

	 4.60425000E-13	 0.00000000E+00	 0.00000000E+00
	 0.00000000E+00	 4.60425000E-13	 0.00000000E+00
	 0.00000000E+00	 0.00000000E+00	 4.60425000E-13

	 4.58211000E-13	 0.00000000E+00	 0.00000000E+00
	 0.00000000E+00	 4.58211000E-13	 0.00000000E+00
	 0.00000000E+00	 0.00000000E+00	 4.58211000E-13

	 4.60425000E-13	 0.00000000E+00	 0.00000000E+00
	 0.00000000E+00	 4.60425000E-13	 0.00000000E+00
	 0.00000000E+00	 0.00000000E+00	 4.60425000E-13

	 4.55997000E-13	 0.00000000E+00	 0.00000000E+00
	 0.00000000E+00	 4.55997000E-13	 0.00000000E+00
	 0.00000000E+00	 0.00000000E+00	 4.55997000E-13

	 4.58211000E-13	 0.00000000E+00	 0.00000000E+00
	 0.00000000E+00	 4.58211000E-13	 0.00000000E+00
	 0.00000000E+00	 0.00000000E+00	 4.58211000E-13

	 4.58211000E-13	 0.00000000E+00	 0.00000000E+00
	 0.00000000E+00	 4.58211000E-13	 0.00000000E+00
	 0.00000000E+00	 0.00000000E+00	 4.58211000E-13

	 4.62638000E-13	 0.00000000E+00	 0.00000000E+00
	 0.00000000E+00	 4.62638000E-13	 0.00000000E+00
	 0.00000000E+00	 0.00000000E+00	 4.62638000E-13

	 4.64852000E-13	 0.00000000E+00	 0.00000000E+00
	 0.00000000E+00	 4.64852000E-13	 0.00000000E+00
	 0.00000000E+00	 0.00000000E+00	 4.64852000E-13

	 4.60425000E-13	 0.00000000E+00	 0.00000000E+00
	 0.00000000E+00	 4.60425000E-13	 0.00000000E+00
	 0.00000000E+00	 0.00000000E+00	 4.60425000E-13

	 4.58211000E-13	 0.00000000E+00	 0.00000000E+00
	 0.00000000E+00	 4.58211000E-13	 0.00000000E+00
	 0.00000000E+00	 0.00000000E+00	 4.58211000E-13

	 4.62638000E-13	 0.00000000E+00	 0.00000000E+00
	 0.00000000E+00	 4.62638000E-13	 0.00000000E+00
	 0.00000000E+00	 0.00000000E+00	 4.62638000E-13

	 4.60425000E-13	 0.00000000E+00	 0.00000000E+00
	 0.00000000E+00	 4.60425000E-13	 0.00000000E+00
	 0.00000000E+00	 0.00000000E+00	 4.60425000E-13

	 4.64852000E-13	 0.00000000E+00	 0.00000000E+00
	 0.00000000E+00	 4.64852000E-13	 0.00000000E+00
	 0.00000000E+00	 0.00000000E+00	 4.64852000E-13

	 4.38289000E-13	 0.00000000E+00	 0.00000000E+00
	 0.00000000E+00	 4.38289000E-13	 0.00000000E+00
	 0.00000000E+00	 0.00000000E+00	 4.38289000E-13

	 4.64852000E-13	 0.00000000E+00	 0.00000000E+00
	 0.00000000E+00	 4.64852000E-13	 0.00000000E+00
	 0.00000000E+00	 0.00000000E+00	 4.64852000E-13

	 4.55365000E-13	 0.00000000E+00	 0.00000000E+00
	 0.00000000E+00	 4.55365000E-13	 0.00000000E+00
	 0.00000000E+00	 0.00000000E+00	 4.55365000E-13

	 4.38289000E-13	 0.00000000E+00	 0.00000000E+00
	 0.00000000E+00	 4.38289000E-13	 0.00000000E+00
	 0.00000000E+00	 0.00000000E+00	 4.38289000E-13

	 4.64852000E-13	 0.00000000E+00	 0.00000000E+00
	 0.00000000E+00	 4.64852000E-13	 0.00000000E+00
	 0.00000000E+00	 0.00000000E+00	 4.64852000E-13

	 4.42716000E-13	 0.00000000E+00	 0.00000000E+00
	 0.00000000E+00	 4.42716000E-13	 0.00000000E+00
	 0.00000000E+00	 0.00000000E+00	 4.42716000E-13

	 4.62638000E-13	 0.00000000E+00	 0.00000000E+00
	 0.00000000E+00	 4.62638000E-13	 0.00000000E+00
	 0.00000000E+00	 0.00000000E+00	 4.62638000E-13

	 4.49357000E-13	 0.00000000E+00	 0.00000000E+00
	 0.00000000E+00	 4.49357000E-13	 0.00000000E+00
	 0.00000000E+00	 0.00000000E+00	 4.49357000E-13

	 4.38289000E-13	 0.00000000E+00	 0.00000000E+00
	 0.00000000E+00	 4.38289000E-13	 0.00000000E+00
	 0.00000000E+00	 0.00000000E+00	 4.38289000E-13

	 4.64852000E-13	 0.00000000E+00	 0.00000000E+00
	 0.00000000E+00	 4.64852000E-13	 0.00000000E+00
	 0.00000000E+00	 0.00000000E+00	 4.64852000E-13

	 4.38289000E-13	 0.00000000E+00	 0.00000000E+00
	 0.00000000E+00	 4.38289000E-13	 0.00000000E+00
	 0.00000000E+00	 0.00000000E+00	 4.38289000E-13

	 4.43981000E-13	 0.00000000E+00	 0.00000000E+00
	 0.00000000E+00	 4.43981000E-13	 0.00000000E+00
	 0.00000000E+00	 0.00000000E+00	 4.43981000E-13

	 4.38289000E-13	 0.00000000E+00	 0.00000000E+00
	 0.00000000E+00	 4.38289000E-13	 0.00000000E+00
	 0.00000000E+00	 0.00000000E+00	 4.38289000E-13

	 4.38289000E-13	 0.00000000E+00	 0.00000000E+00
	 0.00000000E+00	 4.38289000E-13	 0.00000000E+00
	 0.00000000E+00	 0.00000000E+00	 4.38289000E-13

	 4.38289000E-13	 0.00000000E+00	 0.00000000E+00
	 0.00000000E+00	 4.38289000E-13	 0.00000000E+00
	 0.00000000E+00	 0.00000000E+00	 4.38289000E-13

	 4.38289000E-13	 0.00000000E+00	 0.00000000E+00
	 0.00000000E+00	 4.38289000E-13	 0.00000000E+00
	 0.00000000E+00	 0.00000000E+00	 4.38289000E-13

	 4.38289000E-13	 0.00000000E+00	 0.00000000E+00
	 0.00000000E+00	 4.38289000E-13	 0.00000000E+00
	 0.00000000E+00	 0.00000000E+00	 4.38289000E-13

	 4.38289000E-13	 0.00000000E+00	 0.00000000E+00
	 0.00000000E+00	 4.38289000E-13	 0.00000000E+00
	 0.00000000E+00	 0.00000000E+00	 4.38289000E-13

	 4.62638000E-13	 0.00000000E+00	 0.00000000E+00
	 0.00000000E+00	 4.62638000E-13	 0.00000000E+00
	 0.00000000E+00	 0.00000000E+00	 4.62638000E-13

	 4.64852000E-13	 0.00000000E+00	 0.00000000E+00
	 0.00000000E+00	 4.64852000E-13	 0.00000000E+00
	 0.00000000E+00	 0.00000000E+00	 4.64852000E-13

	 4.51570000E-13	 0.00000000E+00	 0.00000000E+00
	 0.00000000E+00	 4.51570000E-13	 0.00000000E+00
	 0.00000000E+00	 0.00000000E+00	 4.51570000E-13

	 4.53784000E-13	 0.00000000E+00	 0.00000000E+00
	 0.00000000E+00	 4.53784000E-13	 0.00000000E+00
	 0.00000000E+00	 0.00000000E+00	 4.53784000E-13

	 4.42716000E-13	 0.00000000E+00	 0.00000000E+00
	 0.00000000E+00	 4.42716000E-13	 0.00000000E+00
	 0.00000000E+00	 0.00000000E+00	 4.42716000E-13

	 4.42716000E-13	 0.00000000E+00	 0.00000000E+00
	 0.00000000E+00	 4.42716000E-13	 0.00000000E+00
	 0.00000000E+00	 0.00000000E+00	 4.42716000E-13

	 4.42716000E-13	 0.00000000E+00	 0.00000000E+00
	 0.00000000E+00	 4.42716000E-13	 0.00000000E+00
	 0.00000000E+00	 0.00000000E+00	 4.42716000E-13

	 4.40502000E-13	 0.00000000E+00	 0.00000000E+00
	 0.00000000E+00	 4.40502000E-13	 0.00000000E+00
	 0.00000000E+00	 0.00000000E+00	 4.40502000E-13

	 4.51570000E-13	 0.00000000E+00	 0.00000000E+00
	 0.00000000E+00	 4.51570000E-13	 0.00000000E+00
	 0.00000000E+00	 0.00000000E+00	 4.51570000E-13

	 4.51570000E-13	 0.00000000E+00	 0.00000000E+00
	 0.00000000E+00	 4.51570000E-13	 0.00000000E+00
	 0.00000000E+00	 0.00000000E+00	 4.51570000E-13

	 4.62638000E-13	 0.00000000E+00	 0.00000000E+00
	 0.00000000E+00	 4.62638000E-13	 0.00000000E+00
	 0.00000000E+00	 0.00000000E+00	 4.62638000E-13

	 4.62638000E-13	 0.00000000E+00	 0.00000000E+00
	 0.00000000E+00	 4.62638000E-13	 0.00000000E+00
	 0.00000000E+00	 0.00000000E+00	 4.62638000E-13

	 4.38289000E-13	 0.00000000E+00	 0.00000000E+00
	 0.00000000E+00	 4.38289000E-13	 0.00000000E+00
	 0.00000000E+00	 0.00000000E+00	 4.38289000E-13

	 4.38289000E-13	 0.00000000E+00	 0.00000000E+00
	 0.00000000E+00	 4.38289000E-13	 0.00000000E+00
	 0.00000000E+00	 0.00000000E+00	 4.38289000E-13

	 4.38289000E-13	 0.00000000E+00	 0.00000000E+00
	 0.00000000E+00	 4.38289000E-13	 0.00000000E+00
	 0.00000000E+00	 0.00000000E+00	 4.38289000E-13

	 4.62638000E-13	 0.00000000E+00	 0.00000000E+00
	 0.00000000E+00	 4.62638000E-13	 0.00000000E+00
	 0.00000000E+00	 0.00000000E+00	 4.62638000E-13

	 4.47143000E-13	 0.00000000E+00	 0.00000000E+00
	 0.00000000E+00	 4.47143000E-13	 0.00000000E+00
	 0.00000000E+00	 0.00000000E+00	 4.47143000E-13

	 4.51570000E-13	 0.00000000E+00	 0.00000000E+00
	 0.00000000E+00	 4.51570000E-13	 0.00000000E+00
	 0.00000000E+00	 0.00000000E+00	 4.51570000E-13

	 4.64852000E-13	 0.00000000E+00	 0.00000000E+00
	 0.00000000E+00	 4.64852000E-13	 0.00000000E+00
	 0.00000000E+00	 0.00000000E+00	 4.64852000E-13

	 4.60425000E-13	 0.00000000E+00	 0.00000000E+00
	 0.00000000E+00	 4.60425000E-13	 0.00000000E+00
	 0.00000000E+00	 0.00000000E+00	 4.60425000E-13

	 4.53784000E-13	 0.00000000E+00	 0.00000000E+00
	 0.00000000E+00	 4.53784000E-13	 0.00000000E+00
	 0.00000000E+00	 0.00000000E+00	 4.53784000E-13

	 4.51570000E-13	 0.00000000E+00	 0.00000000E+00
	 0.00000000E+00	 4.51570000E-13	 0.00000000E+00
	 0.00000000E+00	 0.00000000E+00	 4.51570000E-13

	 4.62638000E-13	 0.00000000E+00	 0.00000000E+00
	 0.00000000E+00	 4.62638000E-13	 0.00000000E+00
	 0.00000000E+00	 0.00000000E+00	 4.62638000E-13

	 4.60425000E-13	 0.00000000E+00	 0.00000000E+00
	 0.00000000E+00	 4.60425000E-13	 0.00000000E+00
	 0.00000000E+00	 0.00000000E+00	 4.60425000E-13

	 4.62638000E-13	 0.00000000E+00	 0.00000000E+00
	 0.00000000E+00	 4.62638000E-13	 0.00000000E+00
	 0.00000000E+00	 0.00000000E+00	 4.62638000E-13

	 4.62638000E-13	 0.00000000E+00	 0.00000000E+00
	 0.00000000E+00	 4.62638000E-13	 0.00000000E+00
	 0.00000000E+00	 0.00000000E+00	 4.62638000E-13

	 4.64852000E-13	 0.00000000E+00	 0.00000000E+00
	 0.00000000E+00	 4.64852000E-13	 0.00000000E+00
	 0.00000000E+00	 0.00000000E+00	 4.64852000E-13

	 4.58211000E-13	 0.00000000E+00	 0.00000000E+00
	 0.00000000E+00	 4.58211000E-13	 0.00000000E+00
	 0.00000000E+00	 0.00000000E+00	 4.58211000E-13

	 4.51570000E-13	 0.00000000E+00	 0.00000000E+00
	 0.00000000E+00	 4.51570000E-13	 0.00000000E+00
	 0.00000000E+00	 0.00000000E+00	 4.51570000E-13

	 4.53784000E-13	 0.00000000E+00	 0.00000000E+00
	 0.00000000E+00	 4.53784000E-13	 0.00000000E+00
	 0.00000000E+00	 0.00000000E+00	 4.53784000E-13

	 4.44929000E-13	 0.00000000E+00	 0.00000000E+00
	 0.00000000E+00	 4.44929000E-13	 0.00000000E+00
	 0.00000000E+00	 0.00000000E+00	 4.44929000E-13

	 4.58211000E-13	 0.00000000E+00	 0.00000000E+00
	 0.00000000E+00	 4.58211000E-13	 0.00000000E+00
	 0.00000000E+00	 0.00000000E+00	 4.58211000E-13

	 4.42716000E-13	 0.00000000E+00	 0.00000000E+00
	 0.00000000E+00	 4.42716000E-13	 0.00000000E+00
	 0.00000000E+00	 0.00000000E+00	 4.42716000E-13

	 4.55997000E-13	 0.00000000E+00	 0.00000000E+00
	 0.00000000E+00	 4.55997000E-13	 0.00000000E+00
	 0.00000000E+00	 0.00000000E+00	 4.55997000E-13

	 4.38289000E-13	 0.00000000E+00	 0.00000000E+00
	 0.00000000E+00	 4.38289000E-13	 0.00000000E+00
	 0.00000000E+00	 0.00000000E+00	 4.38289000E-13

	 4.47143000E-13	 0.00000000E+00	 0.00000000E+00
	 0.00000000E+00	 4.47143000E-13	 0.00000000E+00
	 0.00000000E+00	 0.00000000E+00	 4.47143000E-13

	 4.38289000E-13	 0.00000000E+00	 0.00000000E+00
	 0.00000000E+00	 4.38289000E-13	 0.00000000E+00
	 0.00000000E+00	 0.00000000E+00	 4.38289000E-13

	 4.38289000E-13	 0.00000000E+00	 0.00000000E+00
	 0.00000000E+00	 4.38289000E-13	 0.00000000E+00
	 0.00000000E+00	 0.00000000E+00	 4.38289000E-13

	 4.42716000E-13	 0.00000000E+00	 0.00000000E+00
	 0.00000000E+00	 4.42716000E-13	 0.00000000E+00
	 0.00000000E+00	 0.00000000E+00	 4.42716000E-13

	 4.64852000E-13	 0.00000000E+00	 0.00000000E+00
	 0.00000000E+00	 4.64852000E-13	 0.00000000E+00
	 0.00000000E+00	 0.00000000E+00	 4.64852000E-13

	 4.60425000E-13	 0.00000000E+00	 0.00000000E+00
	 0.00000000E+00	 4.60425000E-13	 0.00000000E+00
	 0.00000000E+00	 0.00000000E+00	 4.60425000E-13

	 4.42716000E-13	 0.00000000E+00	 0.00000000E+00
	 0.00000000E+00	 4.42716000E-13	 0.00000000E+00
	 0.00000000E+00	 0.00000000E+00	 4.42716000E-13

	 4.55997000E-13	 0.00000000E+00	 0.00000000E+00
	 0.00000000E+00	 4.55997000E-13	 0.00000000E+00
	 0.00000000E+00	 0.00000000E+00	 4.55997000E-13

	 4.60425000E-13	 0.00000000E+00	 0.00000000E+00
	 0.00000000E+00	 4.60425000E-13	 0.00000000E+00
	 0.00000000E+00	 0.00000000E+00	 4.60425000E-13

	 4.47143000E-13	 0.00000000E+00	 0.00000000E+00
	 0.00000000E+00	 4.47143000E-13	 0.00000000E+00
	 0.00000000E+00	 0.00000000E+00	 4.47143000E-13

	 4.47143000E-13	 0.00000000E+00	 0.00000000E+00
	 0.00000000E+00	 4.47143000E-13	 0.00000000E+00
	 0.00000000E+00	 0.00000000E+00	 4.47143000E-13

	 4.38289000E-13	 0.00000000E+00	 0.00000000E+00
	 0.00000000E+00	 4.38289000E-13	 0.00000000E+00
	 0.00000000E+00	 0.00000000E+00	 4.38289000E-13

	 4.42716000E-13	 0.00000000E+00	 0.00000000E+00
	 0.00000000E+00	 4.42716000E-13	 0.00000000E+00
	 0.00000000E+00	 0.00000000E+00	 4.42716000E-13

	 4.60425000E-13	 0.00000000E+00	 0.00000000E+00
	 0.00000000E+00	 4.60425000E-13	 0.00000000E+00
	 0.00000000E+00	 0.00000000E+00	 4.60425000E-13

	 4.51570000E-13	 0.00000000E+00	 0.00000000E+00
	 0.00000000E+00	 4.51570000E-13	 0.00000000E+00
	 0.00000000E+00	 0.00000000E+00	 4.51570000E-13

	 4.64852000E-13	 0.00000000E+00	 0.00000000E+00
	 0.00000000E+00	 4.64852000E-13	 0.00000000E+00
	 0.00000000E+00	 0.00000000E+00	 4.64852000E-13

	 4.64852000E-13	 0.00000000E+00	 0.00000000E+00
	 0.00000000E+00	 4.64852000E-13	 0.00000000E+00
	 0.00000000E+00	 0.00000000E+00	 4.64852000E-13

	 4.64852000E-13	 0.00000000E+00	 0.00000000E+00
	 0.00000000E+00	 4.64852000E-13	 0.00000000E+00
	 0.00000000E+00	 0.00000000E+00	 4.64852000E-13

	 4.64852000E-13	 0.00000000E+00	 0.00000000E+00
	 0.00000000E+00	 4.64852000E-13	 0.00000000E+00
	 0.00000000E+00	 0.00000000E+00	 4.64852000E-13

	 4.42716000E-13	 0.00000000E+00	 0.00000000E+00
	 0.00000000E+00	 4.42716000E-13	 0.00000000E+00
	 0.00000000E+00	 0.00000000E+00	 4.42716000E-13

	 4.62638000E-13	 0.00000000E+00	 0.00000000E+00
	 0.00000000E+00	 4.62638000E-13	 0.00000000E+00
	 0.00000000E+00	 0.00000000E+00	 4.62638000E-13

	 4.64852000E-13	 0.00000000E+00	 0.00000000E+00
	 0.00000000E+00	 4.64852000E-13	 0.00000000E+00
	 0.00000000E+00	 0.00000000E+00	 4.64852000E-13

	 4.58211000E-13	 0.00000000E+00	 0.00000000E+00
	 0.00000000E+00	 4.58211000E-13	 0.00000000E+00
	 0.00000000E+00	 0.00000000E+00	 4.58211000E-13

	 4.60425000E-13	 0.00000000E+00	 0.00000000E+00
	 0.00000000E+00	 4.60425000E-13	 0.00000000E+00
	 0.00000000E+00	 0.00000000E+00	 4.60425000E-13

	 4.47143000E-13	 0.00000000E+00	 0.00000000E+00
	 0.00000000E+00	 4.47143000E-13	 0.00000000E+00
	 0.00000000E+00	 0.00000000E+00	 4.47143000E-13

	 4.42716000E-13	 0.00000000E+00	 0.00000000E+00
	 0.00000000E+00	 4.42716000E-13	 0.00000000E+00
	 0.00000000E+00	 0.00000000E+00	 4.42716000E-13

	 4.38289000E-13	 0.00000000E+00	 0.00000000E+00
	 0.00000000E+00	 4.38289000E-13	 0.00000000E+00
	 0.00000000E+00	 0.00000000E+00	 4.38289000E-13

	 4.38289000E-13	 0.00000000E+00	 0.00000000E+00
	 0.00000000E+00	 4.38289000E-13	 0.00000000E+00
	 0.00000000E+00	 0.00000000E+00	 4.38289000E-13

	 4.42716000E-13	 0.00000000E+00	 0.00000000E+00
	 0.00000000E+00	 4.42716000E-13	 0.00000000E+00
	 0.00000000E+00	 0.00000000E+00	 4.42716000E-13

	 4.38289000E-13	 0.00000000E+00	 0.00000000E+00
	 0.00000000E+00	 4.38289000E-13	 0.00000000E+00
	 0.00000000E+00	 0.00000000E+00	 4.38289000E-13

	 4.38289000E-13	 0.00000000E+00	 0.00000000E+00
	 0.00000000E+00	 4.38289000E-13	 0.00000000E+00
	 0.00000000E+00	 0.00000000E+00	 4.38289000E-13

	 4.60425000E-13	 0.00000000E+00	 0.00000000E+00
	 0.00000000E+00	 4.60425000E-13	 0.00000000E+00
	 0.00000000E+00	 0.00000000E+00	 4.60425000E-13

	 4.38289000E-13	 0.00000000E+00	 0.00000000E+00
	 0.00000000E+00	 4.38289000E-13	 0.00000000E+00
	 0.00000000E+00	 0.00000000E+00	 4.38289000E-13

	 4.38289000E-13	 0.00000000E+00	 0.00000000E+00
	 0.00000000E+00	 4.38289000E-13	 0.00000000E+00
	 0.00000000E+00	 0.00000000E+00	 4.38289000E-13

	 4.38289000E-13	 0.00000000E+00	 0.00000000E+00
	 0.00000000E+00	 4.38289000E-13	 0.00000000E+00
	 0.00000000E+00	 0.00000000E+00	 4.38289000E-13

	 4.38289000E-13	 0.00000000E+00	 0.00000000E+00
	 0.00000000E+00	 4.38289000E-13	 0.00000000E+00
	 0.00000000E+00	 0.00000000E+00	 4.38289000E-13

	 4.47143000E-13	 0.00000000E+00	 0.00000000E+00
	 0.00000000E+00	 4.47143000E-13	 0.00000000E+00
	 0.00000000E+00	 0.00000000E+00	 4.47143000E-13

	 4.40502000E-13	 0.00000000E+00	 0.00000000E+00
	 0.00000000E+00	 4.40502000E-13	 0.00000000E+00
	 0.00000000E+00	 0.00000000E+00	 4.40502000E-13

	 4.58211000E-13	 0.00000000E+00	 0.00000000E+00
	 0.00000000E+00	 4.58211000E-13	 0.00000000E+00
	 0.00000000E+00	 0.00000000E+00	 4.58211000E-13

	 4.42716000E-13	 0.00000000E+00	 0.00000000E+00
	 0.00000000E+00	 4.42716000E-13	 0.00000000E+00
	 0.00000000E+00	 0.00000000E+00	 4.42716000E-13

	 4.55997000E-13	 0.00000000E+00	 0.00000000E+00
	 0.00000000E+00	 4.55997000E-13	 0.00000000E+00
	 0.00000000E+00	 0.00000000E+00	 4.55997000E-13

	 4.38289000E-13	 0.00000000E+00	 0.00000000E+00
	 0.00000000E+00	 4.38289000E-13	 0.00000000E+00
	 0.00000000E+00	 0.00000000E+00	 4.38289000E-13

	 4.42716000E-13	 0.00000000E+00	 0.00000000E+00
	 0.00000000E+00	 4.42716000E-13	 0.00000000E+00
	 0.00000000E+00	 0.00000000E+00	 4.42716000E-13

	 4.38289000E-13	 0.00000000E+00	 0.00000000E+00
	 0.00000000E+00	 4.38289000E-13	 0.00000000E+00
	 0.00000000E+00	 0.00000000E+00	 4.38289000E-13

	 4.51570000E-13	 0.00000000E+00	 0.00000000E+00
	 0.00000000E+00	 4.51570000E-13	 0.00000000E+00
	 0.00000000E+00	 0.00000000E+00	 4.51570000E-13

	 4.38289000E-13	 0.00000000E+00	 0.00000000E+00
	 0.00000000E+00	 4.38289000E-13	 0.00000000E+00
	 0.00000000E+00	 0.00000000E+00	 4.38289000E-13

	 4.38289000E-13	 0.00000000E+00	 0.00000000E+00
	 0.00000000E+00	 4.38289000E-13	 0.00000000E+00
	 0.00000000E+00	 0.00000000E+00	 4.38289000E-13

	 4.40502000E-13	 0.00000000E+00	 0.00000000E+00
	 0.00000000E+00	 4.40502000E-13	 0.00000000E+00
	 0.00000000E+00	 0.00000000E+00	 4.40502000E-13

	 4.44929000E-13	 0.00000000E+00	 0.00000000E+00
	 0.00000000E+00	 4.44929000E-13	 0.00000000E+00
	 0.00000000E+00	 0.00000000E+00	 4.44929000E-13

	 4.47143000E-13	 0.00000000E+00	 0.00000000E+00
	 0.00000000E+00	 4.47143000E-13	 0.00000000E+00
	 0.00000000E+00	 0.00000000E+00	 4.47143000E-13

	 4.53784000E-13	 0.00000000E+00	 0.00000000E+00
	 0.00000000E+00	 4.53784000E-13	 0.00000000E+00
	 0.00000000E+00	 0.00000000E+00	 4.53784000E-13

	 4.38289000E-13	 0.00000000E+00	 0.00000000E+00
	 0.00000000E+00	 4.38289000E-13	 0.00000000E+00
	 0.00000000E+00	 0.00000000E+00	 4.38289000E-13

	 4.42716000E-13	 0.00000000E+00	 0.00000000E+00
	 0.00000000E+00	 4.42716000E-13	 0.00000000E+00
	 0.00000000E+00	 0.00000000E+00	 4.42716000E-13

	 4.38289000E-13	 0.00000000E+00	 0.00000000E+00
	 0.00000000E+00	 4.38289000E-13	 0.00000000E+00
	 0.00000000E+00	 0.00000000E+00	 4.38289000E-13

	 4.58211000E-13	 0.00000000E+00	 0.00000000E+00
	 0.00000000E+00	 4.58211000E-13	 0.00000000E+00
	 0.00000000E+00	 0.00000000E+00	 4.58211000E-13

	 4.51570000E-13	 0.00000000E+00	 0.00000000E+00
	 0.00000000E+00	 4.51570000E-13	 0.00000000E+00
	 0.00000000E+00	 0.00000000E+00	 4.51570000E-13

	 4.49357000E-13	 0.00000000E+00	 0.00000000E+00
	 0.00000000E+00	 4.49357000E-13	 0.00000000E+00
	 0.00000000E+00	 0.00000000E+00	 4.49357000E-13

	 4.47143000E-13	 0.00000000E+00	 0.00000000E+00
	 0.00000000E+00	 4.47143000E-13	 0.00000000E+00
	 0.00000000E+00	 0.00000000E+00	 4.47143000E-13

	 4.62638000E-13	 0.00000000E+00	 0.00000000E+00
	 0.00000000E+00	 4.62638000E-13	 0.00000000E+00
	 0.00000000E+00	 0.00000000E+00	 4.62638000E-13

	 4.53784000E-13	 0.00000000E+00	 0.00000000E+00
	 0.00000000E+00	 4.53784000E-13	 0.00000000E+00
	 0.00000000E+00	 0.00000000E+00	 4.53784000E-13

	 4.62638000E-13	 0.00000000E+00	 0.00000000E+00
	 0.00000000E+00	 4.62638000E-13	 0.00000000E+00
	 0.00000000E+00	 0.00000000E+00	 4.62638000E-13

	 4.55997000E-13	 0.00000000E+00	 0.00000000E+00
	 0.00000000E+00	 4.55997000E-13	 0.00000000E+00
	 0.00000000E+00	 0.00000000E+00	 4.55997000E-13

	 4.42716000E-13	 0.00000000E+00	 0.00000000E+00
	 0.00000000E+00	 4.42716000E-13	 0.00000000E+00
	 0.00000000E+00	 0.00000000E+00	 4.42716000E-13

	 4.38289000E-13	 0.00000000E+00	 0.00000000E+00
	 0.00000000E+00	 4.38289000E-13	 0.00000000E+00
	 0.00000000E+00	 0.00000000E+00	 4.38289000E-13

	 4.55997000E-13	 0.00000000E+00	 0.00000000E+00
	 0.00000000E+00	 4.55997000E-13	 0.00000000E+00
	 0.00000000E+00	 0.00000000E+00	 4.55997000E-13

	 4.42716000E-13	 0.00000000E+00	 0.00000000E+00
	 0.00000000E+00	 4.42716000E-13	 0.00000000E+00
	 0.00000000E+00	 0.00000000E+00	 4.42716000E-13

	 4.38289000E-13	 0.00000000E+00	 0.00000000E+00
	 0.00000000E+00	 4.38289000E-13	 0.00000000E+00
	 0.00000000E+00	 0.00000000E+00	 4.38289000E-13

	 4.38289000E-13	 0.00000000E+00	 0.00000000E+00
	 0.00000000E+00	 4.38289000E-13	 0.00000000E+00
	 0.00000000E+00	 0.00000000E+00	 4.38289000E-13

	 4.38289000E-13	 0.00000000E+00	 0.00000000E+00
	 0.00000000E+00	 4.38289000E-13	 0.00000000E+00
	 0.00000000E+00	 0.00000000E+00	 4.38289000E-13

	 4.38289000E-13	 0.00000000E+00	 0.00000000E+00
	 0.00000000E+00	 4.38289000E-13	 0.00000000E+00
	 0.00000000E+00	 0.00000000E+00	 4.38289000E-13

	 4.38289000E-13	 0.00000000E+00	 0.00000000E+00
	 0.00000000E+00	 4.38289000E-13	 0.00000000E+00
	 0.00000000E+00	 0.00000000E+00	 4.38289000E-13

	 4.38289000E-13	 0.00000000E+00	 0.00000000E+00
	 0.00000000E+00	 4.38289000E-13	 0.00000000E+00
	 0.00000000E+00	 0.00000000E+00	 4.38289000E-13

	 4.38289000E-13	 0.00000000E+00	 0.00000000E+00
	 0.00000000E+00	 4.38289000E-13	 0.00000000E+00
	 0.00000000E+00	 0.00000000E+00	 4.38289000E-13

	 4.42716000E-13	 0.00000000E+00	 0.00000000E+00
	 0.00000000E+00	 4.42716000E-13	 0.00000000E+00
	 0.00000000E+00	 0.00000000E+00	 4.42716000E-13

	 4.55997000E-13	 0.00000000E+00	 0.00000000E+00
	 0.00000000E+00	 4.55997000E-13	 0.00000000E+00
	 0.00000000E+00	 0.00000000E+00	 4.55997000E-13

	 4.42716000E-13	 0.00000000E+00	 0.00000000E+00
	 0.00000000E+00	 4.42716000E-13	 0.00000000E+00
	 0.00000000E+00	 0.00000000E+00	 4.42716000E-13

	 4.51570000E-13	 0.00000000E+00	 0.00000000E+00
	 0.00000000E+00	 4.51570000E-13	 0.00000000E+00
	 0.00000000E+00	 0.00000000E+00	 4.51570000E-13

	 4.40502000E-13	 0.00000000E+00	 0.00000000E+00
	 0.00000000E+00	 4.40502000E-13	 0.00000000E+00
	 0.00000000E+00	 0.00000000E+00	 4.40502000E-13

	 4.51570000E-13	 0.00000000E+00	 0.00000000E+00
	 0.00000000E+00	 4.51570000E-13	 0.00000000E+00
	 0.00000000E+00	 0.00000000E+00	 4.51570000E-13

	 4.55997000E-13	 0.00000000E+00	 0.00000000E+00
	 0.00000000E+00	 4.55997000E-13	 0.00000000E+00
	 0.00000000E+00	 0.00000000E+00	 4.55997000E-13

	 4.58211000E-13	 0.00000000E+00	 0.00000000E+00
	 0.00000000E+00	 4.58211000E-13	 0.00000000E+00
	 0.00000000E+00	 0.00000000E+00	 4.58211000E-13

	 4.42716000E-13	 0.00000000E+00	 0.00000000E+00
	 0.00000000E+00	 4.42716000E-13	 0.00000000E+00
	 0.00000000E+00	 0.00000000E+00	 4.42716000E-13

	 4.53784000E-13	 0.00000000E+00	 0.00000000E+00
	 0.00000000E+00	 4.53784000E-13	 0.00000000E+00
	 0.00000000E+00	 0.00000000E+00	 4.53784000E-13

	 4.42716000E-13	 0.00000000E+00	 0.00000000E+00
	 0.00000000E+00	 4.42716000E-13	 0.00000000E+00
	 0.00000000E+00	 0.00000000E+00	 4.42716000E-13

	 4.55997000E-13	 0.00000000E+00	 0.00000000E+00
	 0.00000000E+00	 4.55997000E-13	 0.00000000E+00
	 0.00000000E+00	 0.00000000E+00	 4.55997000E-13

	 4.51570000E-13	 0.00000000E+00	 0.00000000E+00
	 0.00000000E+00	 4.51570000E-13	 0.00000000E+00
	 0.00000000E+00	 0.00000000E+00	 4.51570000E-13

	 4.38289000E-13	 0.00000000E+00	 0.00000000E+00
	 0.00000000E+00	 4.38289000E-13	 0.00000000E+00
	 0.00000000E+00	 0.00000000E+00	 4.38289000E-13

	 4.49357000E-13	 0.00000000E+00	 0.00000000E+00
	 0.00000000E+00	 4.49357000E-13	 0.00000000E+00
	 0.00000000E+00	 0.00000000E+00	 4.49357000E-13

	 4.38289000E-13	 0.00000000E+00	 0.00000000E+00
	 0.00000000E+00	 4.38289000E-13	 0.00000000E+00
	 0.00000000E+00	 0.00000000E+00	 4.38289000E-13

	 4.49357000E-13	 0.00000000E+00	 0.00000000E+00
	 0.00000000E+00	 4.49357000E-13	 0.00000000E+00
	 0.00000000E+00	 0.00000000E+00	 4.49357000E-13

	 4.38289000E-13	 0.00000000E+00	 0.00000000E+00
	 0.00000000E+00	 4.38289000E-13	 0.00000000E+00
	 0.00000000E+00	 0.00000000E+00	 4.38289000E-13

	 4.55997000E-13	 0.00000000E+00	 0.00000000E+00
	 0.00000000E+00	 4.55997000E-13	 0.00000000E+00
	 0.00000000E+00	 0.00000000E+00	 4.55997000E-13

	 4.55997000E-13	 0.00000000E+00	 0.00000000E+00
	 0.00000000E+00	 4.55997000E-13	 0.00000000E+00
	 0.00000000E+00	 0.00000000E+00	 4.55997000E-13

	 4.42716000E-13	 0.00000000E+00	 0.00000000E+00
	 0.00000000E+00	 4.42716000E-13	 0.00000000E+00
	 0.00000000E+00	 0.00000000E+00	 4.42716000E-13

	 4.44929000E-13	 0.00000000E+00	 0.00000000E+00
	 0.00000000E+00	 4.44929000E-13	 0.00000000E+00
	 0.00000000E+00	 0.00000000E+00	 4.44929000E-13

	 4.62638000E-13	 0.00000000E+00	 0.00000000E+00
	 0.00000000E+00	 4.62638000E-13	 0.00000000E+00
	 0.00000000E+00	 0.00000000E+00	 4.62638000E-13

	 4.38289000E-13	 0.00000000E+00	 0.00000000E+00
	 0.00000000E+00	 4.38289000E-13	 0.00000000E+00
	 0.00000000E+00	 0.00000000E+00	 4.38289000E-13

	 4.60425000E-13	 0.00000000E+00	 0.00000000E+00
	 0.00000000E+00	 4.60425000E-13	 0.00000000E+00
	 0.00000000E+00	 0.00000000E+00	 4.60425000E-13

	 4.58211000E-13	 0.00000000E+00	 0.00000000E+00
	 0.00000000E+00	 4.58211000E-13	 0.00000000E+00
	 0.00000000E+00	 0.00000000E+00	 4.58211000E-13

	 4.62638000E-13	 0.00000000E+00	 0.00000000E+00
	 0.00000000E+00	 4.62638000E-13	 0.00000000E+00
	 0.00000000E+00	 0.00000000E+00	 4.62638000E-13

	 4.60425000E-13	 0.00000000E+00	 0.00000000E+00
	 0.00000000E+00	 4.60425000E-13	 0.00000000E+00
	 0.00000000E+00	 0.00000000E+00	 4.60425000E-13

	 4.62638000E-13	 0.00000000E+00	 0.00000000E+00
	 0.00000000E+00	 4.62638000E-13	 0.00000000E+00
	 0.00000000E+00	 0.00000000E+00	 4.62638000E-13

	 4.62638000E-13	 0.00000000E+00	 0.00000000E+00
	 0.00000000E+00	 4.62638000E-13	 0.00000000E+00
	 0.00000000E+00	 0.00000000E+00	 4.62638000E-13

	 4.38289000E-13	 0.00000000E+00	 0.00000000E+00
	 0.00000000E+00	 4.38289000E-13	 0.00000000E+00
	 0.00000000E+00	 0.00000000E+00	 4.38289000E-13

	 4.38289000E-13	 0.00000000E+00	 0.00000000E+00
	 0.00000000E+00	 4.38289000E-13	 0.00000000E+00
	 0.00000000E+00	 0.00000000E+00	 4.38289000E-13

	 4.62638000E-13	 0.00000000E+00	 0.00000000E+00
	 0.00000000E+00	 4.62638000E-13	 0.00000000E+00
	 0.00000000E+00	 0.00000000E+00	 4.62638000E-13

	 4.51570000E-13	 0.00000000E+00	 0.00000000E+00
	 0.00000000E+00	 4.51570000E-13	 0.00000000E+00
	 0.00000000E+00	 0.00000000E+00	 4.51570000E-13

	 4.53784000E-13	 0.00000000E+00	 0.00000000E+00
	 0.00000000E+00	 4.53784000E-13	 0.00000000E+00
	 0.00000000E+00	 0.00000000E+00	 4.53784000E-13

	 4.40502000E-13	 0.00000000E+00	 0.00000000E+00
	 0.00000000E+00	 4.40502000E-13	 0.00000000E+00
	 0.00000000E+00	 0.00000000E+00	 4.40502000E-13

	 4.42716000E-13	 0.00000000E+00	 0.00000000E+00
	 0.00000000E+00	 4.42716000E-13	 0.00000000E+00
	 0.00000000E+00	 0.00000000E+00	 4.42716000E-13

	 4.49357000E-13	 0.00000000E+00	 0.00000000E+00
	 0.00000000E+00	 4.49357000E-13	 0.00000000E+00
	 0.00000000E+00	 0.00000000E+00	 4.49357000E-13

	 4.42716000E-13	 0.00000000E+00	 0.00000000E+00
	 0.00000000E+00	 4.42716000E-13	 0.00000000E+00
	 0.00000000E+00	 0.00000000E+00	 4.42716000E-13

	 4.64852000E-13	 0.00000000E+00	 0.00000000E+00
	 0.00000000E+00	 4.64852000E-13	 0.00000000E+00
	 0.00000000E+00	 0.00000000E+00	 4.64852000E-13

	 4.38289000E-13	 0.00000000E+00	 0.00000000E+00
	 0.00000000E+00	 4.38289000E-13	 0.00000000E+00
	 0.00000000E+00	 0.00000000E+00	 4.38289000E-13

	 4.38289000E-13	 0.00000000E+00	 0.00000000E+00
	 0.00000000E+00	 4.38289000E-13	 0.00000000E+00
	 0.00000000E+00	 0.00000000E+00	 4.38289000E-13

	 4.61057000E-13	 0.00000000E+00	 0.00000000E+00
	 0.00000000E+00	 4.61057000E-13	 0.00000000E+00
	 0.00000000E+00	 0.00000000E+00	 4.61057000E-13

	 4.64852000E-13	 0.00000000E+00	 0.00000000E+00
	 0.00000000E+00	 4.64852000E-13	 0.00000000E+00
	 0.00000000E+00	 0.00000000E+00	 4.64852000E-13

	 4.61057000E-13	 0.00000000E+00	 0.00000000E+00
	 0.00000000E+00	 4.61057000E-13	 0.00000000E+00
	 0.00000000E+00	 0.00000000E+00	 4.61057000E-13

	 4.60425000E-13	 0.00000000E+00	 0.00000000E+00
	 0.00000000E+00	 4.60425000E-13	 0.00000000E+00
	 0.00000000E+00	 0.00000000E+00	 4.60425000E-13

	 4.64852000E-13	 0.00000000E+00	 0.00000000E+00
	 0.00000000E+00	 4.64852000E-13	 0.00000000E+00
	 0.00000000E+00	 0.00000000E+00	 4.64852000E-13

	 4.42716000E-13	 0.00000000E+00	 0.00000000E+00
	 0.00000000E+00	 4.42716000E-13	 0.00000000E+00
	 0.00000000E+00	 0.00000000E+00	 4.42716000E-13

	 4.60425000E-13	 0.00000000E+00	 0.00000000E+00
	 0.00000000E+00	 4.60425000E-13	 0.00000000E+00
	 0.00000000E+00	 0.00000000E+00	 4.60425000E-13

	 4.47143000E-13	 0.00000000E+00	 0.00000000E+00
	 0.00000000E+00	 4.47143000E-13	 0.00000000E+00
	 0.00000000E+00	 0.00000000E+00	 4.47143000E-13

	 4.38289000E-13	 0.00000000E+00	 0.00000000E+00
	 0.00000000E+00	 4.38289000E-13	 0.00000000E+00
	 0.00000000E+00	 0.00000000E+00	 4.38289000E-13

	 4.60425000E-13	 0.00000000E+00	 0.00000000E+00
	 0.00000000E+00	 4.60425000E-13	 0.00000000E+00
	 0.00000000E+00	 0.00000000E+00	 4.60425000E-13

	 4.42716000E-13	 0.00000000E+00	 0.00000000E+00
	 0.00000000E+00	 4.42716000E-13	 0.00000000E+00
	 0.00000000E+00	 0.00000000E+00	 4.42716000E-13

	 4.38289000E-13	 0.00000000E+00	 0.00000000E+00
	 0.00000000E+00	 4.38289000E-13	 0.00000000E+00
	 0.00000000E+00	 0.00000000E+00	 4.38289000E-13

	 4.38289000E-13	 0.00000000E+00	 0.00000000E+00
	 0.00000000E+00	 4.38289000E-13	 0.00000000E+00
	 0.00000000E+00	 0.00000000E+00	 4.38289000E-13

	 4.40502000E-13	 0.00000000E+00	 0.00000000E+00
	 0.00000000E+00	 4.40502000E-13	 0.00000000E+00
	 0.00000000E+00	 0.00000000E+00	 4.40502000E-13

	 4.42716000E-13	 0.00000000E+00	 0.00000000E+00
	 0.00000000E+00	 4.42716000E-13	 0.00000000E+00
	 0.00000000E+00	 0.00000000E+00	 4.42716000E-13

	 4.64852000E-13	 0.00000000E+00	 0.00000000E+00
	 0.00000000E+00	 4.64852000E-13	 0.00000000E+00
	 0.00000000E+00	 0.00000000E+00	 4.64852000E-13

	 4.38289000E-13	 0.00000000E+00	 0.00000000E+00
	 0.00000000E+00	 4.38289000E-13	 0.00000000E+00
	 0.00000000E+00	 0.00000000E+00	 4.38289000E-13

	 4.49357000E-13	 0.00000000E+00	 0.00000000E+00
	 0.00000000E+00	 4.49357000E-13	 0.00000000E+00
	 0.00000000E+00	 0.00000000E+00	 4.49357000E-13

	 4.38289000E-13	 0.00000000E+00	 0.00000000E+00
	 0.00000000E+00	 4.38289000E-13	 0.00000000E+00
	 0.00000000E+00	 0.00000000E+00	 4.38289000E-13

	 4.38289000E-13	 0.00000000E+00	 0.00000000E+00
	 0.00000000E+00	 4.38289000E-13	 0.00000000E+00
	 0.00000000E+00	 0.00000000E+00	 4.38289000E-13

	 4.58211000E-13	 0.00000000E+00	 0.00000000E+00
	 0.00000000E+00	 4.58211000E-13	 0.00000000E+00
	 0.00000000E+00	 0.00000000E+00	 4.58211000E-13

	 4.58211000E-13	 0.00000000E+00	 0.00000000E+00
	 0.00000000E+00	 4.58211000E-13	 0.00000000E+00
	 0.00000000E+00	 0.00000000E+00	 4.58211000E-13

	 4.64852000E-13	 0.00000000E+00	 0.00000000E+00
	 0.00000000E+00	 4.64852000E-13	 0.00000000E+00
	 0.00000000E+00	 0.00000000E+00	 4.64852000E-13

	 4.62638000E-13	 0.00000000E+00	 0.00000000E+00
	 0.00000000E+00	 4.62638000E-13	 0.00000000E+00
	 0.00000000E+00	 0.00000000E+00	 4.62638000E-13

	 4.62638000E-13	 0.00000000E+00	 0.00000000E+00
	 0.00000000E+00	 4.62638000E-13	 0.00000000E+00
	 0.00000000E+00	 0.00000000E+00	 4.62638000E-13

	 4.62638000E-13	 0.00000000E+00	 0.00000000E+00
	 0.00000000E+00	 4.62638000E-13	 0.00000000E+00
	 0.00000000E+00	 0.00000000E+00	 4.62638000E-13

	 4.64852000E-13	 0.00000000E+00	 0.00000000E+00
	 0.00000000E+00	 4.64852000E-13	 0.00000000E+00
	 0.00000000E+00	 0.00000000E+00	 4.64852000E-13

	 4.64852000E-13	 0.00000000E+00	 0.00000000E+00
	 0.00000000E+00	 4.64852000E-13	 0.00000000E+00
	 0.00000000E+00	 0.00000000E+00	 4.64852000E-13

	 4.64852000E-13	 0.00000000E+00	 0.00000000E+00
	 0.00000000E+00	 4.64852000E-13	 0.00000000E+00
	 0.00000000E+00	 0.00000000E+00	 4.64852000E-13

	 4.64852000E-13	 0.00000000E+00	 0.00000000E+00
	 0.00000000E+00	 4.64852000E-13	 0.00000000E+00
	 0.00000000E+00	 0.00000000E+00	 4.64852000E-13

	 4.64852000E-13	 0.00000000E+00	 0.00000000E+00
	 0.00000000E+00	 4.64852000E-13	 0.00000000E+00
	 0.00000000E+00	 0.00000000E+00	 4.64852000E-13

	 4.64852000E-13	 0.00000000E+00	 0.00000000E+00
	 0.00000000E+00	 4.64852000E-13	 0.00000000E+00
	 0.00000000E+00	 0.00000000E+00	 4.64852000E-13

	 4.64852000E-13	 0.00000000E+00	 0.00000000E+00
	 0.00000000E+00	 4.64852000E-13	 0.00000000E+00
	 0.00000000E+00	 0.00000000E+00	 4.64852000E-13

	 4.64852000E-13	 0.00000000E+00	 0.00000000E+00
	 0.00000000E+00	 4.64852000E-13	 0.00000000E+00
	 0.00000000E+00	 0.00000000E+00	 4.64852000E-13

	 4.38289000E-13	 0.00000000E+00	 0.00000000E+00
	 0.00000000E+00	 4.38289000E-13	 0.00000000E+00
	 0.00000000E+00	 0.00000000E+00	 4.38289000E-13

	 4.38289000E-13	 0.00000000E+00	 0.00000000E+00
	 0.00000000E+00	 4.38289000E-13	 0.00000000E+00
	 0.00000000E+00	 0.00000000E+00	 4.38289000E-13

	 4.38289000E-13	 0.00000000E+00	 0.00000000E+00
	 0.00000000E+00	 4.38289000E-13	 0.00000000E+00
	 0.00000000E+00	 0.00000000E+00	 4.38289000E-13

	 4.64852000E-13	 0.00000000E+00	 0.00000000E+00
	 0.00000000E+00	 4.64852000E-13	 0.00000000E+00
	 0.00000000E+00	 0.00000000E+00	 4.64852000E-13

	 4.47775000E-13	 0.00000000E+00	 0.00000000E+00
	 0.00000000E+00	 4.47775000E-13	 0.00000000E+00
	 0.00000000E+00	 0.00000000E+00	 4.47775000E-13

	 4.42716000E-13	 0.00000000E+00	 0.00000000E+00
	 0.00000000E+00	 4.42716000E-13	 0.00000000E+00
	 0.00000000E+00	 0.00000000E+00	 4.42716000E-13

	 4.62638000E-13	 0.00000000E+00	 0.00000000E+00
	 0.00000000E+00	 4.62638000E-13	 0.00000000E+00
	 0.00000000E+00	 0.00000000E+00	 4.62638000E-13

	 4.38289000E-13	 0.00000000E+00	 0.00000000E+00
	 0.00000000E+00	 4.38289000E-13	 0.00000000E+00
	 0.00000000E+00	 0.00000000E+00	 4.38289000E-13

	 4.64852000E-13	 0.00000000E+00	 0.00000000E+00
	 0.00000000E+00	 4.64852000E-13	 0.00000000E+00
	 0.00000000E+00	 0.00000000E+00	 4.64852000E-13

	 4.64852000E-13	 0.00000000E+00	 0.00000000E+00
	 0.00000000E+00	 4.64852000E-13	 0.00000000E+00
	 0.00000000E+00	 0.00000000E+00	 4.64852000E-13

	 4.64852000E-13	 0.00000000E+00	 0.00000000E+00
	 0.00000000E+00	 4.64852000E-13	 0.00000000E+00
	 0.00000000E+00	 0.00000000E+00	 4.64852000E-13

	 4.47143000E-13	 0.00000000E+00	 0.00000000E+00
	 0.00000000E+00	 4.47143000E-13	 0.00000000E+00
	 0.00000000E+00	 0.00000000E+00	 4.47143000E-13

	 4.38289000E-13	 0.00000000E+00	 0.00000000E+00
	 0.00000000E+00	 4.38289000E-13	 0.00000000E+00
	 0.00000000E+00	 0.00000000E+00	 4.38289000E-13

	 4.64852000E-13	 0.00000000E+00	 0.00000000E+00
	 0.00000000E+00	 4.64852000E-13	 0.00000000E+00
	 0.00000000E+00	 0.00000000E+00	 4.64852000E-13

	 4.51570000E-13	 0.00000000E+00	 0.00000000E+00
	 0.00000000E+00	 4.51570000E-13	 0.00000000E+00
	 0.00000000E+00	 0.00000000E+00	 4.51570000E-13

	 4.42716000E-13	 0.00000000E+00	 0.00000000E+00
	 0.00000000E+00	 4.42716000E-13	 0.00000000E+00
	 0.00000000E+00	 0.00000000E+00	 4.42716000E-13

	 4.51570000E-13	 0.00000000E+00	 0.00000000E+00
	 0.00000000E+00	 4.51570000E-13	 0.00000000E+00
	 0.00000000E+00	 0.00000000E+00	 4.51570000E-13

	 4.38289000E-13	 0.00000000E+00	 0.00000000E+00
	 0.00000000E+00	 4.38289000E-13	 0.00000000E+00
	 0.00000000E+00	 0.00000000E+00	 4.38289000E-13

	 4.64852000E-13	 0.00000000E+00	 0.00000000E+00
	 0.00000000E+00	 4.64852000E-13	 0.00000000E+00
	 0.00000000E+00	 0.00000000E+00	 4.64852000E-13

	 4.64852000E-13	 0.00000000E+00	 0.00000000E+00
	 0.00000000E+00	 4.64852000E-13	 0.00000000E+00
	 0.00000000E+00	 0.00000000E+00	 4.64852000E-13

	 4.64852000E-13	 0.00000000E+00	 0.00000000E+00
	 0.00000000E+00	 4.64852000E-13	 0.00000000E+00
	 0.00000000E+00	 0.00000000E+00	 4.64852000E-13

	 4.60425000E-13	 0.00000000E+00	 0.00000000E+00
	 0.00000000E+00	 4.60425000E-13	 0.00000000E+00
	 0.00000000E+00	 0.00000000E+00	 4.60425000E-13

	 4.60425000E-13	 0.00000000E+00	 0.00000000E+00
	 0.00000000E+00	 4.60425000E-13	 0.00000000E+00
	 0.00000000E+00	 0.00000000E+00	 4.60425000E-13

	 4.38289000E-13	 0.00000000E+00	 0.00000000E+00
	 0.00000000E+00	 4.38289000E-13	 0.00000000E+00
	 0.00000000E+00	 0.00000000E+00	 4.38289000E-13

	 4.38289000E-13	 0.00000000E+00	 0.00000000E+00
	 0.00000000E+00	 4.38289000E-13	 0.00000000E+00
	 0.00000000E+00	 0.00000000E+00	 4.38289000E-13

	 4.42716000E-13	 0.00000000E+00	 0.00000000E+00
	 0.00000000E+00	 4.42716000E-13	 0.00000000E+00
	 0.00000000E+00	 0.00000000E+00	 4.42716000E-13

	 4.38289000E-13	 0.00000000E+00	 0.00000000E+00
	 0.00000000E+00	 4.38289000E-13	 0.00000000E+00
	 0.00000000E+00	 0.00000000E+00	 4.38289000E-13

	 4.58211000E-13	 0.00000000E+00	 0.00000000E+00
	 0.00000000E+00	 4.58211000E-13	 0.00000000E+00
	 0.00000000E+00	 0.00000000E+00	 4.58211000E-13

	 4.62954000E-13	 0.00000000E+00	 0.00000000E+00
	 0.00000000E+00	 4.62954000E-13	 0.00000000E+00
	 0.00000000E+00	 0.00000000E+00	 4.62954000E-13

	 4.62638000E-13	 0.00000000E+00	 0.00000000E+00
	 0.00000000E+00	 4.62638000E-13	 0.00000000E+00
	 0.00000000E+00	 0.00000000E+00	 4.62638000E-13

	 4.64852000E-13	 0.00000000E+00	 0.00000000E+00
	 0.00000000E+00	 4.64852000E-13	 0.00000000E+00
	 0.00000000E+00	 0.00000000E+00	 4.64852000E-13

	 5.00269000E-13	 0.00000000E+00	 0.00000000E+00
	 0.00000000E+00	 5.00269000E-13	 0.00000000E+00
	 0.00000000E+00	 0.00000000E+00	 5.00269000E-13

	 4.64852000E-13	 0.00000000E+00	 0.00000000E+00
	 0.00000000E+00	 4.64852000E-13	 0.00000000E+00
	 0.00000000E+00	 0.00000000E+00	 4.64852000E-13

	 4.38289000E-13	 0.00000000E+00	 0.00000000E+00
	 0.00000000E+00	 4.38289000E-13	 0.00000000E+00
	 0.00000000E+00	 0.00000000E+00	 4.38289000E-13

	 4.38289000E-13	 0.00000000E+00	 0.00000000E+00
	 0.00000000E+00	 4.38289000E-13	 0.00000000E+00
	 0.00000000E+00	 0.00000000E+00	 4.38289000E-13

	 4.42716000E-13	 0.00000000E+00	 0.00000000E+00
	 0.00000000E+00	 4.42716000E-13	 0.00000000E+00
	 0.00000000E+00	 0.00000000E+00	 4.42716000E-13

	 4.47143000E-13	 0.00000000E+00	 0.00000000E+00
	 0.00000000E+00	 4.47143000E-13	 0.00000000E+00
	 0.00000000E+00	 0.00000000E+00	 4.47143000E-13

	 4.38289000E-13	 0.00000000E+00	 0.00000000E+00
	 0.00000000E+00	 4.38289000E-13	 0.00000000E+00
	 0.00000000E+00	 0.00000000E+00	 4.38289000E-13

	 4.49673000E-13	 0.00000000E+00	 0.00000000E+00
	 0.00000000E+00	 4.49673000E-13	 0.00000000E+00
	 0.00000000E+00	 0.00000000E+00	 4.49673000E-13

	 4.64852000E-13	 0.00000000E+00	 0.00000000E+00
	 0.00000000E+00	 4.64852000E-13	 0.00000000E+00
	 0.00000000E+00	 0.00000000E+00	 4.64852000E-13

	 4.64852000E-13	 0.00000000E+00	 0.00000000E+00
	 0.00000000E+00	 4.64852000E-13	 0.00000000E+00
	 0.00000000E+00	 0.00000000E+00	 4.64852000E-13

	 4.64852000E-13	 0.00000000E+00	 0.00000000E+00
	 0.00000000E+00	 4.64852000E-13	 0.00000000E+00
	 0.00000000E+00	 0.00000000E+00	 4.64852000E-13

	 4.64852000E-13	 0.00000000E+00	 0.00000000E+00
	 0.00000000E+00	 4.64852000E-13	 0.00000000E+00
	 0.00000000E+00	 0.00000000E+00	 4.64852000E-13

	 4.64852000E-13	 0.00000000E+00	 0.00000000E+00
	 0.00000000E+00	 4.64852000E-13	 0.00000000E+00
	 0.00000000E+00	 0.00000000E+00	 4.64852000E-13

	 4.38289000E-13	 0.00000000E+00	 0.00000000E+00
	 0.00000000E+00	 4.38289000E-13	 0.00000000E+00
	 0.00000000E+00	 0.00000000E+00	 4.38289000E-13

	 4.40502000E-13	 0.00000000E+00	 0.00000000E+00
	 0.00000000E+00	 4.40502000E-13	 0.00000000E+00
	 0.00000000E+00	 0.00000000E+00	 4.40502000E-13

	 4.42716000E-13	 0.00000000E+00	 0.00000000E+00
	 0.00000000E+00	 4.42716000E-13	 0.00000000E+00
	 0.00000000E+00	 0.00000000E+00	 4.42716000E-13

	 4.38289000E-13	 0.00000000E+00	 0.00000000E+00
	 0.00000000E+00	 4.38289000E-13	 0.00000000E+00
	 0.00000000E+00	 0.00000000E+00	 4.38289000E-13

	 4.49357000E-13	 0.00000000E+00	 0.00000000E+00
	 0.00000000E+00	 4.49357000E-13	 0.00000000E+00
	 0.00000000E+00	 0.00000000E+00	 4.49357000E-13

	 4.55997000E-13	 0.00000000E+00	 0.00000000E+00
	 0.00000000E+00	 4.55997000E-13	 0.00000000E+00
	 0.00000000E+00	 0.00000000E+00	 4.55997000E-13

	 4.64852000E-13	 0.00000000E+00	 0.00000000E+00
	 0.00000000E+00	 4.64852000E-13	 0.00000000E+00
	 0.00000000E+00	 0.00000000E+00	 4.64852000E-13

	 4.60425000E-13	 0.00000000E+00	 0.00000000E+00
	 0.00000000E+00	 4.60425000E-13	 0.00000000E+00
	 0.00000000E+00	 0.00000000E+00	 4.60425000E-13

	 4.42716000E-13	 0.00000000E+00	 0.00000000E+00
	 0.00000000E+00	 4.42716000E-13	 0.00000000E+00
	 0.00000000E+00	 0.00000000E+00	 4.42716000E-13

	 4.38289000E-13	 0.00000000E+00	 0.00000000E+00
	 0.00000000E+00	 4.38289000E-13	 0.00000000E+00
	 0.00000000E+00	 0.00000000E+00	 4.38289000E-13

	 4.38289000E-13	 0.00000000E+00	 0.00000000E+00
	 0.00000000E+00	 4.38289000E-13	 0.00000000E+00
	 0.00000000E+00	 0.00000000E+00	 4.38289000E-13

	 4.49357000E-13	 0.00000000E+00	 0.00000000E+00
	 0.00000000E+00	 4.49357000E-13	 0.00000000E+00
	 0.00000000E+00	 0.00000000E+00	 4.49357000E-13

	 4.64852000E-13	 0.00000000E+00	 0.00000000E+00
	 0.00000000E+00	 4.64852000E-13	 0.00000000E+00
	 0.00000000E+00	 0.00000000E+00	 4.64852000E-13

	 4.53468000E-13	 0.00000000E+00	 0.00000000E+00
	 0.00000000E+00	 4.53468000E-13	 0.00000000E+00
	 0.00000000E+00	 0.00000000E+00	 4.53468000E-13

	 4.47775000E-13	 0.00000000E+00	 0.00000000E+00
	 0.00000000E+00	 4.47775000E-13	 0.00000000E+00
	 0.00000000E+00	 0.00000000E+00	 4.47775000E-13

	 4.61057000E-13	 0.00000000E+00	 0.00000000E+00
	 0.00000000E+00	 4.61057000E-13	 0.00000000E+00
	 0.00000000E+00	 0.00000000E+00	 4.61057000E-13

	 4.42716000E-13	 0.00000000E+00	 0.00000000E+00
	 0.00000000E+00	 4.42716000E-13	 0.00000000E+00
	 0.00000000E+00	 0.00000000E+00	 4.42716000E-13

	 4.44929000E-13	 0.00000000E+00	 0.00000000E+00
	 0.00000000E+00	 4.44929000E-13	 0.00000000E+00
	 0.00000000E+00	 0.00000000E+00	 4.44929000E-13

	 4.44929000E-13	 0.00000000E+00	 0.00000000E+00
	 0.00000000E+00	 4.44929000E-13	 0.00000000E+00
	 0.00000000E+00	 0.00000000E+00	 4.44929000E-13

	 4.45878000E-13	 0.00000000E+00	 0.00000000E+00
	 0.00000000E+00	 4.45878000E-13	 0.00000000E+00
	 0.00000000E+00	 0.00000000E+00	 4.45878000E-13

	 4.60425000E-13	 0.00000000E+00	 0.00000000E+00
	 0.00000000E+00	 4.60425000E-13	 0.00000000E+00
	 0.00000000E+00	 0.00000000E+00	 4.60425000E-13

	 4.38289000E-13	 0.00000000E+00	 0.00000000E+00
	 0.00000000E+00	 4.38289000E-13	 0.00000000E+00
	 0.00000000E+00	 0.00000000E+00	 4.38289000E-13

	 4.38289000E-13	 0.00000000E+00	 0.00000000E+00
	 0.00000000E+00	 4.38289000E-13	 0.00000000E+00
	 0.00000000E+00	 0.00000000E+00	 4.38289000E-13

	 4.38289000E-13	 0.00000000E+00	 0.00000000E+00
	 0.00000000E+00	 4.38289000E-13	 0.00000000E+00
	 0.00000000E+00	 0.00000000E+00	 4.38289000E-13

	 4.38289000E-13	 0.00000000E+00	 0.00000000E+00
	 0.00000000E+00	 4.38289000E-13	 0.00000000E+00
	 0.00000000E+00	 0.00000000E+00	 4.38289000E-13

	 4.38289000E-13	 0.00000000E+00	 0.00000000E+00
	 0.00000000E+00	 4.38289000E-13	 0.00000000E+00
	 0.00000000E+00	 0.00000000E+00	 4.38289000E-13

	 4.38289000E-13	 0.00000000E+00	 0.00000000E+00
	 0.00000000E+00	 4.38289000E-13	 0.00000000E+00
	 0.00000000E+00	 0.00000000E+00	 4.38289000E-13

	 4.49673000E-13	 0.00000000E+00	 0.00000000E+00
	 0.00000000E+00	 4.49673000E-13	 0.00000000E+00
	 0.00000000E+00	 0.00000000E+00	 4.49673000E-13

	 4.61057000E-13	 0.00000000E+00	 0.00000000E+00
	 0.00000000E+00	 4.61057000E-13	 0.00000000E+00
	 0.00000000E+00	 0.00000000E+00	 4.61057000E-13

	 4.64852000E-13	 0.00000000E+00	 0.00000000E+00
	 0.00000000E+00	 4.64852000E-13	 0.00000000E+00
	 0.00000000E+00	 0.00000000E+00	 4.64852000E-13

	 4.64852000E-13	 0.00000000E+00	 0.00000000E+00
	 0.00000000E+00	 4.64852000E-13	 0.00000000E+00
	 0.00000000E+00	 0.00000000E+00	 4.64852000E-13

	 4.58211000E-13	 0.00000000E+00	 0.00000000E+00
	 0.00000000E+00	 4.58211000E-13	 0.00000000E+00
	 0.00000000E+00	 0.00000000E+00	 4.58211000E-13

	 4.55997000E-13	 0.00000000E+00	 0.00000000E+00
	 0.00000000E+00	 4.55997000E-13	 0.00000000E+00
	 0.00000000E+00	 0.00000000E+00	 4.55997000E-13

	 4.53784000E-13	 0.00000000E+00	 0.00000000E+00
	 0.00000000E+00	 4.53784000E-13	 0.00000000E+00
	 0.00000000E+00	 0.00000000E+00	 4.53784000E-13

	 4.60425000E-13	 0.00000000E+00	 0.00000000E+00
	 0.00000000E+00	 4.60425000E-13	 0.00000000E+00
	 0.00000000E+00	 0.00000000E+00	 4.60425000E-13

	 4.64852000E-13	 0.00000000E+00	 0.00000000E+00
	 0.00000000E+00	 4.64852000E-13	 0.00000000E+00
	 0.00000000E+00	 0.00000000E+00	 4.64852000E-13

	 4.64852000E-13	 0.00000000E+00	 0.00000000E+00
	 0.00000000E+00	 4.64852000E-13	 0.00000000E+00
	 0.00000000E+00	 0.00000000E+00	 4.64852000E-13

	 4.64852000E-13	 0.00000000E+00	 0.00000000E+00
	 0.00000000E+00	 4.64852000E-13	 0.00000000E+00
	 0.00000000E+00	 0.00000000E+00	 4.64852000E-13

	 4.64852000E-13	 0.00000000E+00	 0.00000000E+00
	 0.00000000E+00	 4.64852000E-13	 0.00000000E+00
	 0.00000000E+00	 0.00000000E+00	 4.64852000E-13

	 4.62638000E-13	 0.00000000E+00	 0.00000000E+00
	 0.00000000E+00	 4.62638000E-13	 0.00000000E+00
	 0.00000000E+00	 0.00000000E+00	 4.62638000E-13

	 4.38289000E-13	 0.00000000E+00	 0.00000000E+00
	 0.00000000E+00	 4.38289000E-13	 0.00000000E+00
	 0.00000000E+00	 0.00000000E+00	 4.38289000E-13

	 4.47143000E-13	 0.00000000E+00	 0.00000000E+00
	 0.00000000E+00	 4.47143000E-13	 0.00000000E+00
	 0.00000000E+00	 0.00000000E+00	 4.47143000E-13

	 4.44929000E-13	 0.00000000E+00	 0.00000000E+00
	 0.00000000E+00	 4.44929000E-13	 0.00000000E+00
	 0.00000000E+00	 0.00000000E+00	 4.44929000E-13

	 4.58211000E-13	 0.00000000E+00	 0.00000000E+00
	 0.00000000E+00	 4.58211000E-13	 0.00000000E+00
	 0.00000000E+00	 0.00000000E+00	 4.58211000E-13

	 4.64852000E-13	 0.00000000E+00	 0.00000000E+00
	 0.00000000E+00	 4.64852000E-13	 0.00000000E+00
	 0.00000000E+00	 0.00000000E+00	 4.64852000E-13

	 4.42716000E-13	 0.00000000E+00	 0.00000000E+00
	 0.00000000E+00	 4.42716000E-13	 0.00000000E+00
	 0.00000000E+00	 0.00000000E+00	 4.42716000E-13

	 4.38289000E-13	 0.00000000E+00	 0.00000000E+00
	 0.00000000E+00	 4.38289000E-13	 0.00000000E+00
	 0.00000000E+00	 0.00000000E+00	 4.38289000E-13

	 4.60425000E-13	 0.00000000E+00	 0.00000000E+00
	 0.00000000E+00	 4.60425000E-13	 0.00000000E+00
	 0.00000000E+00	 0.00000000E+00	 4.60425000E-13

	 4.64852000E-13	 0.00000000E+00	 0.00000000E+00
	 0.00000000E+00	 4.64852000E-13	 0.00000000E+00
	 0.00000000E+00	 0.00000000E+00	 4.64852000E-13

	 4.60425000E-13	 0.00000000E+00	 0.00000000E+00
	 0.00000000E+00	 4.60425000E-13	 0.00000000E+00
	 0.00000000E+00	 0.00000000E+00	 4.60425000E-13

	 4.51570000E-13	 0.00000000E+00	 0.00000000E+00
	 0.00000000E+00	 4.51570000E-13	 0.00000000E+00
	 0.00000000E+00	 0.00000000E+00	 4.51570000E-13

	 4.40502000E-13	 0.00000000E+00	 0.00000000E+00
	 0.00000000E+00	 4.40502000E-13	 0.00000000E+00
	 0.00000000E+00	 0.00000000E+00	 4.40502000E-13

	 4.38289000E-13	 0.00000000E+00	 0.00000000E+00
	 0.00000000E+00	 4.38289000E-13	 0.00000000E+00
	 0.00000000E+00	 0.00000000E+00	 4.38289000E-13

	 4.64852000E-13	 0.00000000E+00	 0.00000000E+00
	 0.00000000E+00	 4.64852000E-13	 0.00000000E+00
	 0.00000000E+00	 0.00000000E+00	 4.64852000E-13

	 4.62638000E-13	 0.00000000E+00	 0.00000000E+00
	 0.00000000E+00	 4.62638000E-13	 0.00000000E+00
	 0.00000000E+00	 0.00000000E+00	 4.62638000E-13

	 4.51570000E-13	 0.00000000E+00	 0.00000000E+00
	 0.00000000E+00	 4.51570000E-13	 0.00000000E+00
	 0.00000000E+00	 0.00000000E+00	 4.51570000E-13

	 4.44929000E-13	 0.00000000E+00	 0.00000000E+00
	 0.00000000E+00	 4.44929000E-13	 0.00000000E+00
	 0.00000000E+00	 0.00000000E+00	 4.44929000E-13

	 4.38289000E-13	 0.00000000E+00	 0.00000000E+00
	 0.00000000E+00	 4.38289000E-13	 0.00000000E+00
	 0.00000000E+00	 0.00000000E+00	 4.38289000E-13

	 4.38289000E-13	 0.00000000E+00	 0.00000000E+00
	 0.00000000E+00	 4.38289000E-13	 0.00000000E+00
	 0.00000000E+00	 0.00000000E+00	 4.38289000E-13

	 4.38289000E-13	 0.00000000E+00	 0.00000000E+00
	 0.00000000E+00	 4.38289000E-13	 0.00000000E+00
	 0.00000000E+00	 0.00000000E+00	 4.38289000E-13

	 4.64852000E-13	 0.00000000E+00	 0.00000000E+00
	 0.00000000E+00	 4.64852000E-13	 0.00000000E+00
	 0.00000000E+00	 0.00000000E+00	 4.64852000E-13

	 4.40502000E-13	 0.00000000E+00	 0.00000000E+00
	 0.00000000E+00	 4.40502000E-13	 0.00000000E+00
	 0.00000000E+00	 0.00000000E+00	 4.40502000E-13

	 4.42716000E-13	 0.00000000E+00	 0.00000000E+00
	 0.00000000E+00	 4.42716000E-13	 0.00000000E+00
	 0.00000000E+00	 0.00000000E+00	 4.42716000E-13

	 4.47143000E-13	 0.00000000E+00	 0.00000000E+00
	 0.00000000E+00	 4.47143000E-13	 0.00000000E+00
	 0.00000000E+00	 0.00000000E+00	 4.47143000E-13

	 4.64852000E-13	 0.00000000E+00	 0.00000000E+00
	 0.00000000E+00	 4.64852000E-13	 0.00000000E+00
	 0.00000000E+00	 0.00000000E+00	 4.64852000E-13

	 4.60425000E-13	 0.00000000E+00	 0.00000000E+00
	 0.00000000E+00	 4.60425000E-13	 0.00000000E+00
	 0.00000000E+00	 0.00000000E+00	 4.60425000E-13

	 4.64852000E-13	 0.00000000E+00	 0.00000000E+00
	 0.00000000E+00	 4.64852000E-13	 0.00000000E+00
	 0.00000000E+00	 0.00000000E+00	 4.64852000E-13

	 4.64852000E-13	 0.00000000E+00	 0.00000000E+00
	 0.00000000E+00	 4.64852000E-13	 0.00000000E+00
	 0.00000000E+00	 0.00000000E+00	 4.64852000E-13

	 4.64852000E-13	 0.00000000E+00	 0.00000000E+00
	 0.00000000E+00	 4.64852000E-13	 0.00000000E+00
	 0.00000000E+00	 0.00000000E+00	 4.64852000E-13

	 4.55997000E-13	 0.00000000E+00	 0.00000000E+00
	 0.00000000E+00	 4.55997000E-13	 0.00000000E+00
	 0.00000000E+00	 0.00000000E+00	 4.55997000E-13

	 4.60425000E-13	 0.00000000E+00	 0.00000000E+00
	 0.00000000E+00	 4.60425000E-13	 0.00000000E+00
	 0.00000000E+00	 0.00000000E+00	 4.60425000E-13

	 4.62638000E-13	 0.00000000E+00	 0.00000000E+00
	 0.00000000E+00	 4.62638000E-13	 0.00000000E+00
	 0.00000000E+00	 0.00000000E+00	 4.62638000E-13

	 4.58211000E-13	 0.00000000E+00	 0.00000000E+00
	 0.00000000E+00	 4.58211000E-13	 0.00000000E+00
	 0.00000000E+00	 0.00000000E+00	 4.58211000E-13

	 4.38289000E-13	 0.00000000E+00	 0.00000000E+00
	 0.00000000E+00	 4.38289000E-13	 0.00000000E+00
	 0.00000000E+00	 0.00000000E+00	 4.38289000E-13

	 4.47143000E-13	 0.00000000E+00	 0.00000000E+00
	 0.00000000E+00	 4.47143000E-13	 0.00000000E+00
	 0.00000000E+00	 0.00000000E+00	 4.47143000E-13

	 4.51570000E-13	 0.00000000E+00	 0.00000000E+00
	 0.00000000E+00	 4.51570000E-13	 0.00000000E+00
	 0.00000000E+00	 0.00000000E+00	 4.51570000E-13

	 4.51570000E-13	 0.00000000E+00	 0.00000000E+00
	 0.00000000E+00	 4.51570000E-13	 0.00000000E+00
	 0.00000000E+00	 0.00000000E+00	 4.51570000E-13

	 4.42716000E-13	 0.00000000E+00	 0.00000000E+00
	 0.00000000E+00	 4.42716000E-13	 0.00000000E+00
	 0.00000000E+00	 0.00000000E+00	 4.42716000E-13

	 4.44929000E-13	 0.00000000E+00	 0.00000000E+00
	 0.00000000E+00	 4.44929000E-13	 0.00000000E+00
	 0.00000000E+00	 0.00000000E+00	 4.44929000E-13

	 4.42716000E-13	 0.00000000E+00	 0.00000000E+00
	 0.00000000E+00	 4.42716000E-13	 0.00000000E+00
	 0.00000000E+00	 0.00000000E+00	 4.42716000E-13

	 4.53784000E-13	 0.00000000E+00	 0.00000000E+00
	 0.00000000E+00	 4.53784000E-13	 0.00000000E+00
	 0.00000000E+00	 0.00000000E+00	 4.53784000E-13

	 4.42716000E-13	 0.00000000E+00	 0.00000000E+00
	 0.00000000E+00	 4.42716000E-13	 0.00000000E+00
	 0.00000000E+00	 0.00000000E+00	 4.42716000E-13

	 4.55997000E-13	 0.00000000E+00	 0.00000000E+00
	 0.00000000E+00	 4.55997000E-13	 0.00000000E+00
	 0.00000000E+00	 0.00000000E+00	 4.55997000E-13

	 4.62638000E-13	 0.00000000E+00	 0.00000000E+00
	 0.00000000E+00	 4.62638000E-13	 0.00000000E+00
	 0.00000000E+00	 0.00000000E+00	 4.62638000E-13

	 4.38289000E-13	 0.00000000E+00	 0.00000000E+00
	 0.00000000E+00	 4.38289000E-13	 0.00000000E+00
	 0.00000000E+00	 0.00000000E+00	 4.38289000E-13

	 4.62954000E-13	 0.00000000E+00	 0.00000000E+00
	 0.00000000E+00	 4.62954000E-13	 0.00000000E+00
	 0.00000000E+00	 0.00000000E+00	 4.62954000E-13

	 4.38289000E-13	 0.00000000E+00	 0.00000000E+00
	 0.00000000E+00	 4.38289000E-13	 0.00000000E+00
	 0.00000000E+00	 0.00000000E+00	 4.38289000E-13

	 4.53784000E-13	 0.00000000E+00	 0.00000000E+00
	 0.00000000E+00	 4.53784000E-13	 0.00000000E+00
	 0.00000000E+00	 0.00000000E+00	 4.53784000E-13

	 4.55997000E-13	 0.00000000E+00	 0.00000000E+00
	 0.00000000E+00	 4.55997000E-13	 0.00000000E+00
	 0.00000000E+00	 0.00000000E+00	 4.55997000E-13

	 4.62638000E-13	 0.00000000E+00	 0.00000000E+00
	 0.00000000E+00	 4.62638000E-13	 0.00000000E+00
	 0.00000000E+00	 0.00000000E+00	 4.62638000E-13

	 4.62638000E-13	 0.00000000E+00	 0.00000000E+00
	 0.00000000E+00	 4.62638000E-13	 0.00000000E+00
	 0.00000000E+00	 0.00000000E+00	 4.62638000E-13

	 4.62638000E-13	 0.00000000E+00	 0.00000000E+00
	 0.00000000E+00	 4.62638000E-13	 0.00000000E+00
	 0.00000000E+00	 0.00000000E+00	 4.62638000E-13

	 4.64852000E-13	 0.00000000E+00	 0.00000000E+00
	 0.00000000E+00	 4.64852000E-13	 0.00000000E+00
	 0.00000000E+00	 0.00000000E+00	 4.64852000E-13

	 4.64852000E-13	 0.00000000E+00	 0.00000000E+00
	 0.00000000E+00	 4.64852000E-13	 0.00000000E+00
	 0.00000000E+00	 0.00000000E+00	 4.64852000E-13

	 4.62638000E-13	 0.00000000E+00	 0.00000000E+00
	 0.00000000E+00	 4.62638000E-13	 0.00000000E+00
	 0.00000000E+00	 0.00000000E+00	 4.62638000E-13

	 4.62638000E-13	 0.00000000E+00	 0.00000000E+00
	 0.00000000E+00	 4.62638000E-13	 0.00000000E+00
	 0.00000000E+00	 0.00000000E+00	 4.62638000E-13

	 4.64852000E-13	 0.00000000E+00	 0.00000000E+00
	 0.00000000E+00	 4.64852000E-13	 0.00000000E+00
	 0.00000000E+00	 0.00000000E+00	 4.64852000E-13

	 4.60425000E-13	 0.00000000E+00	 0.00000000E+00
	 0.00000000E+00	 4.60425000E-13	 0.00000000E+00
	 0.00000000E+00	 0.00000000E+00	 4.60425000E-13

	 4.49357000E-13	 0.00000000E+00	 0.00000000E+00
	 0.00000000E+00	 4.49357000E-13	 0.00000000E+00
	 0.00000000E+00	 0.00000000E+00	 4.49357000E-13

	 4.47143000E-13	 0.00000000E+00	 0.00000000E+00
	 0.00000000E+00	 4.47143000E-13	 0.00000000E+00
	 0.00000000E+00	 0.00000000E+00	 4.47143000E-13

	 4.42716000E-13	 0.00000000E+00	 0.00000000E+00
	 0.00000000E+00	 4.42716000E-13	 0.00000000E+00
	 0.00000000E+00	 0.00000000E+00	 4.42716000E-13

	 4.44929000E-13	 0.00000000E+00	 0.00000000E+00
	 0.00000000E+00	 4.44929000E-13	 0.00000000E+00
	 0.00000000E+00	 0.00000000E+00	 4.44929000E-13

	 4.55997000E-13	 0.00000000E+00	 0.00000000E+00
	 0.00000000E+00	 4.55997000E-13	 0.00000000E+00
	 0.00000000E+00	 0.00000000E+00	 4.55997000E-13

	 4.62638000E-13	 0.00000000E+00	 0.00000000E+00
	 0.00000000E+00	 4.62638000E-13	 0.00000000E+00
	 0.00000000E+00	 0.00000000E+00	 4.62638000E-13

	 4.58211000E-13	 0.00000000E+00	 0.00000000E+00
	 0.00000000E+00	 4.58211000E-13	 0.00000000E+00
	 0.00000000E+00	 0.00000000E+00	 4.58211000E-13

	 4.64852000E-13	 0.00000000E+00	 0.00000000E+00
	 0.00000000E+00	 4.64852000E-13	 0.00000000E+00
	 0.00000000E+00	 0.00000000E+00	 4.64852000E-13

	 4.58211000E-13	 0.00000000E+00	 0.00000000E+00
	 0.00000000E+00	 4.58211000E-13	 0.00000000E+00
	 0.00000000E+00	 0.00000000E+00	 4.58211000E-13

	 4.62638000E-13	 0.00000000E+00	 0.00000000E+00
	 0.00000000E+00	 4.62638000E-13	 0.00000000E+00
	 0.00000000E+00	 0.00000000E+00	 4.62638000E-13

	 4.49357000E-13	 0.00000000E+00	 0.00000000E+00
	 0.00000000E+00	 4.49357000E-13	 0.00000000E+00
	 0.00000000E+00	 0.00000000E+00	 4.49357000E-13

	 4.60425000E-13	 0.00000000E+00	 0.00000000E+00
	 0.00000000E+00	 4.60425000E-13	 0.00000000E+00
	 0.00000000E+00	 0.00000000E+00	 4.60425000E-13

	 4.58211000E-13	 0.00000000E+00	 0.00000000E+00
	 0.00000000E+00	 4.58211000E-13	 0.00000000E+00
	 0.00000000E+00	 0.00000000E+00	 4.58211000E-13

	 4.64852000E-13	 0.00000000E+00	 0.00000000E+00
	 0.00000000E+00	 4.64852000E-13	 0.00000000E+00
	 0.00000000E+00	 0.00000000E+00	 4.64852000E-13

	 4.60425000E-13	 0.00000000E+00	 0.00000000E+00
	 0.00000000E+00	 4.60425000E-13	 0.00000000E+00
	 0.00000000E+00	 0.00000000E+00	 4.60425000E-13

	 4.64852000E-13	 0.00000000E+00	 0.00000000E+00
	 0.00000000E+00	 4.64852000E-13	 0.00000000E+00
	 0.00000000E+00	 0.00000000E+00	 4.64852000E-13

	 4.62638000E-13	 0.00000000E+00	 0.00000000E+00
	 0.00000000E+00	 4.62638000E-13	 0.00000000E+00
	 0.00000000E+00	 0.00000000E+00	 4.62638000E-13

	 4.64852000E-13	 0.00000000E+00	 0.00000000E+00
	 0.00000000E+00	 4.64852000E-13	 0.00000000E+00
	 0.00000000E+00	 0.00000000E+00	 4.64852000E-13

	 4.64852000E-13	 0.00000000E+00	 0.00000000E+00
	 0.00000000E+00	 4.64852000E-13	 0.00000000E+00
	 0.00000000E+00	 0.00000000E+00	 4.64852000E-13

	 4.64852000E-13	 0.00000000E+00	 0.00000000E+00
	 0.00000000E+00	 4.64852000E-13	 0.00000000E+00
	 0.00000000E+00	 0.00000000E+00	 4.64852000E-13

	 4.60425000E-13	 0.00000000E+00	 0.00000000E+00
	 0.00000000E+00	 4.60425000E-13	 0.00000000E+00
	 0.00000000E+00	 0.00000000E+00	 4.60425000E-13

	 4.58211000E-13	 0.00000000E+00	 0.00000000E+00
	 0.00000000E+00	 4.58211000E-13	 0.00000000E+00
	 0.00000000E+00	 0.00000000E+00	 4.58211000E-13

	 4.47143000E-13	 0.00000000E+00	 0.00000000E+00
	 0.00000000E+00	 4.47143000E-13	 0.00000000E+00
	 0.00000000E+00	 0.00000000E+00	 4.47143000E-13

	 4.49357000E-13	 0.00000000E+00	 0.00000000E+00
	 0.00000000E+00	 4.49357000E-13	 0.00000000E+00
	 0.00000000E+00	 0.00000000E+00	 4.49357000E-13

	 4.44929000E-13	 0.00000000E+00	 0.00000000E+00
	 0.00000000E+00	 4.44929000E-13	 0.00000000E+00
	 0.00000000E+00	 0.00000000E+00	 4.44929000E-13

	 4.49357000E-13	 0.00000000E+00	 0.00000000E+00
	 0.00000000E+00	 4.49357000E-13	 0.00000000E+00
	 0.00000000E+00	 0.00000000E+00	 4.49357000E-13

	 4.49357000E-13	 0.00000000E+00	 0.00000000E+00
	 0.00000000E+00	 4.49357000E-13	 0.00000000E+00
	 0.00000000E+00	 0.00000000E+00	 4.49357000E-13

	 4.47143000E-13	 0.00000000E+00	 0.00000000E+00
	 0.00000000E+00	 4.47143000E-13	 0.00000000E+00
	 0.00000000E+00	 0.00000000E+00	 4.47143000E-13

	 4.47143000E-13	 0.00000000E+00	 0.00000000E+00
	 0.00000000E+00	 4.47143000E-13	 0.00000000E+00
	 0.00000000E+00	 0.00000000E+00	 4.47143000E-13

	 4.58211000E-13	 0.00000000E+00	 0.00000000E+00
	 0.00000000E+00	 4.58211000E-13	 0.00000000E+00
	 0.00000000E+00	 0.00000000E+00	 4.58211000E-13

	 4.51570000E-13	 0.00000000E+00	 0.00000000E+00
	 0.00000000E+00	 4.51570000E-13	 0.00000000E+00
	 0.00000000E+00	 0.00000000E+00	 4.51570000E-13

	 4.58211000E-13	 0.00000000E+00	 0.00000000E+00
	 0.00000000E+00	 4.58211000E-13	 0.00000000E+00
	 0.00000000E+00	 0.00000000E+00	 4.58211000E-13

	 4.38289000E-13	 0.00000000E+00	 0.00000000E+00
	 0.00000000E+00	 4.38289000E-13	 0.00000000E+00
	 0.00000000E+00	 0.00000000E+00	 4.38289000E-13

	 4.53784000E-13	 0.00000000E+00	 0.00000000E+00
	 0.00000000E+00	 4.53784000E-13	 0.00000000E+00
	 0.00000000E+00	 0.00000000E+00	 4.53784000E-13

	 4.44929000E-13	 0.00000000E+00	 0.00000000E+00
	 0.00000000E+00	 4.44929000E-13	 0.00000000E+00
	 0.00000000E+00	 0.00000000E+00	 4.44929000E-13

	 4.42716000E-13	 0.00000000E+00	 0.00000000E+00
	 0.00000000E+00	 4.42716000E-13	 0.00000000E+00
	 0.00000000E+00	 0.00000000E+00	 4.42716000E-13

	 4.38289000E-13	 0.00000000E+00	 0.00000000E+00
	 0.00000000E+00	 4.38289000E-13	 0.00000000E+00
	 0.00000000E+00	 0.00000000E+00	 4.38289000E-13

	 4.55997000E-13	 0.00000000E+00	 0.00000000E+00
	 0.00000000E+00	 4.55997000E-13	 0.00000000E+00
	 0.00000000E+00	 0.00000000E+00	 4.55997000E-13

	 4.38289000E-13	 0.00000000E+00	 0.00000000E+00
	 0.00000000E+00	 4.38289000E-13	 0.00000000E+00
	 0.00000000E+00	 0.00000000E+00	 4.38289000E-13

	 4.38289000E-13	 0.00000000E+00	 0.00000000E+00
	 0.00000000E+00	 4.38289000E-13	 0.00000000E+00
	 0.00000000E+00	 0.00000000E+00	 4.38289000E-13

	 4.49357000E-13	 0.00000000E+00	 0.00000000E+00
	 0.00000000E+00	 4.49357000E-13	 0.00000000E+00
	 0.00000000E+00	 0.00000000E+00	 4.49357000E-13

	 4.38289000E-13	 0.00000000E+00	 0.00000000E+00
	 0.00000000E+00	 4.38289000E-13	 0.00000000E+00
	 0.00000000E+00	 0.00000000E+00	 4.38289000E-13

	 4.42716000E-13	 0.00000000E+00	 0.00000000E+00
	 0.00000000E+00	 4.42716000E-13	 0.00000000E+00
	 0.00000000E+00	 0.00000000E+00	 4.42716000E-13

	 4.38289000E-13	 0.00000000E+00	 0.00000000E+00
	 0.00000000E+00	 4.38289000E-13	 0.00000000E+00
	 0.00000000E+00	 0.00000000E+00	 4.38289000E-13

	 4.42716000E-13	 0.00000000E+00	 0.00000000E+00
	 0.00000000E+00	 4.42716000E-13	 0.00000000E+00
	 0.00000000E+00	 0.00000000E+00	 4.42716000E-13

	 4.38289000E-13	 0.00000000E+00	 0.00000000E+00
	 0.00000000E+00	 4.38289000E-13	 0.00000000E+00
	 0.00000000E+00	 0.00000000E+00	 4.38289000E-13

	 4.38289000E-13	 0.00000000E+00	 0.00000000E+00
	 0.00000000E+00	 4.38289000E-13	 0.00000000E+00
	 0.00000000E+00	 0.00000000E+00	 4.38289000E-13

	 4.42716000E-13	 0.00000000E+00	 0.00000000E+00
	 0.00000000E+00	 4.42716000E-13	 0.00000000E+00
	 0.00000000E+00	 0.00000000E+00	 4.42716000E-13

	 4.38289000E-13	 0.00000000E+00	 0.00000000E+00
	 0.00000000E+00	 4.38289000E-13	 0.00000000E+00
	 0.00000000E+00	 0.00000000E+00	 4.38289000E-13

	 4.47143000E-13	 0.00000000E+00	 0.00000000E+00
	 0.00000000E+00	 4.47143000E-13	 0.00000000E+00
	 0.00000000E+00	 0.00000000E+00	 4.47143000E-13

	 4.62638000E-13	 0.00000000E+00	 0.00000000E+00
	 0.00000000E+00	 4.62638000E-13	 0.00000000E+00
	 0.00000000E+00	 0.00000000E+00	 4.62638000E-13

	 4.64852000E-13	 0.00000000E+00	 0.00000000E+00
	 0.00000000E+00	 4.64852000E-13	 0.00000000E+00
	 0.00000000E+00	 0.00000000E+00	 4.64852000E-13

	 4.53784000E-13	 0.00000000E+00	 0.00000000E+00
	 0.00000000E+00	 4.53784000E-13	 0.00000000E+00
	 0.00000000E+00	 0.00000000E+00	 4.53784000E-13

	 4.62638000E-13	 0.00000000E+00	 0.00000000E+00
	 0.00000000E+00	 4.62638000E-13	 0.00000000E+00
	 0.00000000E+00	 0.00000000E+00	 4.62638000E-13

	 4.53784000E-13	 0.00000000E+00	 0.00000000E+00
	 0.00000000E+00	 4.53784000E-13	 0.00000000E+00
	 0.00000000E+00	 0.00000000E+00	 4.53784000E-13

	 4.64852000E-13	 0.00000000E+00	 0.00000000E+00
	 0.00000000E+00	 4.64852000E-13	 0.00000000E+00
	 0.00000000E+00	 0.00000000E+00	 4.64852000E-13

	 4.58211000E-13	 0.00000000E+00	 0.00000000E+00
	 0.00000000E+00	 4.58211000E-13	 0.00000000E+00
	 0.00000000E+00	 0.00000000E+00	 4.58211000E-13

	 4.62638000E-13	 0.00000000E+00	 0.00000000E+00
	 0.00000000E+00	 4.62638000E-13	 0.00000000E+00
	 0.00000000E+00	 0.00000000E+00	 4.62638000E-13

	 4.58211000E-13	 0.00000000E+00	 0.00000000E+00
	 0.00000000E+00	 4.58211000E-13	 0.00000000E+00
	 0.00000000E+00	 0.00000000E+00	 4.58211000E-13

	 4.64852000E-13	 0.00000000E+00	 0.00000000E+00
	 0.00000000E+00	 4.64852000E-13	 0.00000000E+00
	 0.00000000E+00	 0.00000000E+00	 4.64852000E-13

	 4.64852000E-13	 0.00000000E+00	 0.00000000E+00
	 0.00000000E+00	 4.64852000E-13	 0.00000000E+00
	 0.00000000E+00	 0.00000000E+00	 4.64852000E-13

	 4.62638000E-13	 0.00000000E+00	 0.00000000E+00
	 0.00000000E+00	 4.62638000E-13	 0.00000000E+00
	 0.00000000E+00	 0.00000000E+00	 4.62638000E-13

	 4.64852000E-13	 0.00000000E+00	 0.00000000E+00
	 0.00000000E+00	 4.64852000E-13	 0.00000000E+00
	 0.00000000E+00	 0.00000000E+00	 4.64852000E-13

	 4.64852000E-13	 0.00000000E+00	 0.00000000E+00
	 0.00000000E+00	 4.64852000E-13	 0.00000000E+00
	 0.00000000E+00	 0.00000000E+00	 4.64852000E-13

	 4.64852000E-13	 0.00000000E+00	 0.00000000E+00
	 0.00000000E+00	 4.64852000E-13	 0.00000000E+00
	 0.00000000E+00	 0.00000000E+00	 4.64852000E-13

	 4.64852000E-13	 0.00000000E+00	 0.00000000E+00
	 0.00000000E+00	 4.64852000E-13	 0.00000000E+00
	 0.00000000E+00	 0.00000000E+00	 4.64852000E-13

	 4.64852000E-13	 0.00000000E+00	 0.00000000E+00
	 0.00000000E+00	 4.64852000E-13	 0.00000000E+00
	 0.00000000E+00	 0.00000000E+00	 4.64852000E-13

	 4.58211000E-13	 0.00000000E+00	 0.00000000E+00
	 0.00000000E+00	 4.58211000E-13	 0.00000000E+00
	 0.00000000E+00	 0.00000000E+00	 4.58211000E-13

	 4.62638000E-13	 0.00000000E+00	 0.00000000E+00
	 0.00000000E+00	 4.62638000E-13	 0.00000000E+00
	 0.00000000E+00	 0.00000000E+00	 4.62638000E-13

	 4.55997000E-13	 0.00000000E+00	 0.00000000E+00
	 0.00000000E+00	 4.55997000E-13	 0.00000000E+00
	 0.00000000E+00	 0.00000000E+00	 4.55997000E-13

	 4.58211000E-13	 0.00000000E+00	 0.00000000E+00
	 0.00000000E+00	 4.58211000E-13	 0.00000000E+00
	 0.00000000E+00	 0.00000000E+00	 4.58211000E-13

	 4.62638000E-13	 0.00000000E+00	 0.00000000E+00
	 0.00000000E+00	 4.62638000E-13	 0.00000000E+00
	 0.00000000E+00	 0.00000000E+00	 4.62638000E-13

	 4.64852000E-13	 0.00000000E+00	 0.00000000E+00
	 0.00000000E+00	 4.64852000E-13	 0.00000000E+00
	 0.00000000E+00	 0.00000000E+00	 4.64852000E-13

	 4.64852000E-13	 0.00000000E+00	 0.00000000E+00
	 0.00000000E+00	 4.64852000E-13	 0.00000000E+00
	 0.00000000E+00	 0.00000000E+00	 4.64852000E-13

	 4.64852000E-13	 0.00000000E+00	 0.00000000E+00
	 0.00000000E+00	 4.64852000E-13	 0.00000000E+00
	 0.00000000E+00	 0.00000000E+00	 4.64852000E-13

	 4.64852000E-13	 0.00000000E+00	 0.00000000E+00
	 0.00000000E+00	 4.64852000E-13	 0.00000000E+00
	 0.00000000E+00	 0.00000000E+00	 4.64852000E-13

	 4.64852000E-13	 0.00000000E+00	 0.00000000E+00
	 0.00000000E+00	 4.64852000E-13	 0.00000000E+00
	 0.00000000E+00	 0.00000000E+00	 4.64852000E-13

	 4.64852000E-13	 0.00000000E+00	 0.00000000E+00
	 0.00000000E+00	 4.64852000E-13	 0.00000000E+00
	 0.00000000E+00	 0.00000000E+00	 4.64852000E-13

	 4.64852000E-13	 0.00000000E+00	 0.00000000E+00
	 0.00000000E+00	 4.64852000E-13	 0.00000000E+00
	 0.00000000E+00	 0.00000000E+00	 4.64852000E-13

	 4.64852000E-13	 0.00000000E+00	 0.00000000E+00
	 0.00000000E+00	 4.64852000E-13	 0.00000000E+00
	 0.00000000E+00	 0.00000000E+00	 4.64852000E-13

	 4.64852000E-13	 0.00000000E+00	 0.00000000E+00
	 0.00000000E+00	 4.64852000E-13	 0.00000000E+00
	 0.00000000E+00	 0.00000000E+00	 4.64852000E-13

	 4.64852000E-13	 0.00000000E+00	 0.00000000E+00
	 0.00000000E+00	 4.64852000E-13	 0.00000000E+00
	 0.00000000E+00	 0.00000000E+00	 4.64852000E-13

	 4.64852000E-13	 0.00000000E+00	 0.00000000E+00
	 0.00000000E+00	 4.64852000E-13	 0.00000000E+00
	 0.00000000E+00	 0.00000000E+00	 4.64852000E-13

	 4.64852000E-13	 0.00000000E+00	 0.00000000E+00
	 0.00000000E+00	 4.64852000E-13	 0.00000000E+00
	 0.00000000E+00	 0.00000000E+00	 4.64852000E-13

	 4.64852000E-13	 0.00000000E+00	 0.00000000E+00
	 0.00000000E+00	 4.64852000E-13	 0.00000000E+00
	 0.00000000E+00	 0.00000000E+00	 4.64852000E-13

	 4.64852000E-13	 0.00000000E+00	 0.00000000E+00
	 0.00000000E+00	 4.64852000E-13	 0.00000000E+00
	 0.00000000E+00	 0.00000000E+00	 4.64852000E-13

	 4.64852000E-13	 0.00000000E+00	 0.00000000E+00
	 0.00000000E+00	 4.64852000E-13	 0.00000000E+00
	 0.00000000E+00	 0.00000000E+00	 4.64852000E-13

	 4.64852000E-13	 0.00000000E+00	 0.00000000E+00
	 0.00000000E+00	 4.64852000E-13	 0.00000000E+00
	 0.00000000E+00	 0.00000000E+00	 4.64852000E-13

	 4.64852000E-13	 0.00000000E+00	 0.00000000E+00
	 0.00000000E+00	 4.64852000E-13	 0.00000000E+00
	 0.00000000E+00	 0.00000000E+00	 4.64852000E-13

	 4.64852000E-13	 0.00000000E+00	 0.00000000E+00
	 0.00000000E+00	 4.64852000E-13	 0.00000000E+00
	 0.00000000E+00	 0.00000000E+00	 4.64852000E-13

	 4.64852000E-13	 0.00000000E+00	 0.00000000E+00
	 0.00000000E+00	 4.64852000E-13	 0.00000000E+00
	 0.00000000E+00	 0.00000000E+00	 4.64852000E-13

	 4.64852000E-13	 0.00000000E+00	 0.00000000E+00
	 0.00000000E+00	 4.64852000E-13	 0.00000000E+00
	 0.00000000E+00	 0.00000000E+00	 4.64852000E-13

	 4.64852000E-13	 0.00000000E+00	 0.00000000E+00
	 0.00000000E+00	 4.64852000E-13	 0.00000000E+00
	 0.00000000E+00	 0.00000000E+00	 4.64852000E-13

	 4.64852000E-13	 0.00000000E+00	 0.00000000E+00
	 0.00000000E+00	 4.64852000E-13	 0.00000000E+00
	 0.00000000E+00	 0.00000000E+00	 4.64852000E-13

	 4.64852000E-13	 0.00000000E+00	 0.00000000E+00
	 0.00000000E+00	 4.64852000E-13	 0.00000000E+00
	 0.00000000E+00	 0.00000000E+00	 4.64852000E-13

	 4.64852000E-13	 0.00000000E+00	 0.00000000E+00
	 0.00000000E+00	 4.64852000E-13	 0.00000000E+00
	 0.00000000E+00	 0.00000000E+00	 4.64852000E-13

	 4.64852000E-13	 0.00000000E+00	 0.00000000E+00
	 0.00000000E+00	 4.64852000E-13	 0.00000000E+00
	 0.00000000E+00	 0.00000000E+00	 4.64852000E-13

	 4.64852000E-13	 0.00000000E+00	 0.00000000E+00
	 0.00000000E+00	 4.64852000E-13	 0.00000000E+00
	 0.00000000E+00	 0.00000000E+00	 4.64852000E-13

	 4.64852000E-13	 0.00000000E+00	 0.00000000E+00
	 0.00000000E+00	 4.64852000E-13	 0.00000000E+00
	 0.00000000E+00	 0.00000000E+00	 4.64852000E-13

	 4.64852000E-13	 0.00000000E+00	 0.00000000E+00
	 0.00000000E+00	 4.64852000E-13	 0.00000000E+00
	 0.00000000E+00	 0.00000000E+00	 4.64852000E-13

	 4.64852000E-13	 0.00000000E+00	 0.00000000E+00
	 0.00000000E+00	 4.64852000E-13	 0.00000000E+00
	 0.00000000E+00	 0.00000000E+00	 4.64852000E-13

	 4.64852000E-13	 0.00000000E+00	 0.00000000E+00
	 0.00000000E+00	 4.64852000E-13	 0.00000000E+00
	 0.00000000E+00	 0.00000000E+00	 4.64852000E-13

	 4.64852000E-13	 0.00000000E+00	 0.00000000E+00
	 0.00000000E+00	 4.64852000E-13	 0.00000000E+00
	 0.00000000E+00	 0.00000000E+00	 4.64852000E-13

	 4.64852000E-13	 0.00000000E+00	 0.00000000E+00
	 0.00000000E+00	 4.64852000E-13	 0.00000000E+00
	 0.00000000E+00	 0.00000000E+00	 4.64852000E-13

	 4.64852000E-13	 0.00000000E+00	 0.00000000E+00
	 0.00000000E+00	 4.64852000E-13	 0.00000000E+00
	 0.00000000E+00	 0.00000000E+00	 4.64852000E-13

	 4.64852000E-13	 0.00000000E+00	 0.00000000E+00
	 0.00000000E+00	 4.64852000E-13	 0.00000000E+00
	 0.00000000E+00	 0.00000000E+00	 4.64852000E-13

	 4.64852000E-13	 0.00000000E+00	 0.00000000E+00
	 0.00000000E+00	 4.64852000E-13	 0.00000000E+00
	 0.00000000E+00	 0.00000000E+00	 4.64852000E-13

	 4.64852000E-13	 0.00000000E+00	 0.00000000E+00
	 0.00000000E+00	 4.64852000E-13	 0.00000000E+00
	 0.00000000E+00	 0.00000000E+00	 4.64852000E-13

	 4.64852000E-13	 0.00000000E+00	 0.00000000E+00
	 0.00000000E+00	 4.64852000E-13	 0.00000000E+00
	 0.00000000E+00	 0.00000000E+00	 4.64852000E-13

	 4.64852000E-13	 0.00000000E+00	 0.00000000E+00
	 0.00000000E+00	 4.64852000E-13	 0.00000000E+00
	 0.00000000E+00	 0.00000000E+00	 4.64852000E-13

	 4.64852000E-13	 0.00000000E+00	 0.00000000E+00
	 0.00000000E+00	 4.64852000E-13	 0.00000000E+00
	 0.00000000E+00	 0.00000000E+00	 4.64852000E-13

	 4.64852000E-13	 0.00000000E+00	 0.00000000E+00
	 0.00000000E+00	 4.64852000E-13	 0.00000000E+00
	 0.00000000E+00	 0.00000000E+00	 4.64852000E-13

	 4.64852000E-13	 0.00000000E+00	 0.00000000E+00
	 0.00000000E+00	 4.64852000E-13	 0.00000000E+00
	 0.00000000E+00	 0.00000000E+00	 4.64852000E-13

	 4.64852000E-13	 0.00000000E+00	 0.00000000E+00
	 0.00000000E+00	 4.64852000E-13	 0.00000000E+00
	 0.00000000E+00	 0.00000000E+00	 4.64852000E-13

	 4.64852000E-13	 0.00000000E+00	 0.00000000E+00
	 0.00000000E+00	 4.64852000E-13	 0.00000000E+00
	 0.00000000E+00	 0.00000000E+00	 4.64852000E-13

	 4.64852000E-13	 0.00000000E+00	 0.00000000E+00
	 0.00000000E+00	 4.64852000E-13	 0.00000000E+00
	 0.00000000E+00	 0.00000000E+00	 4.64852000E-13

	 4.64852000E-13	 0.00000000E+00	 0.00000000E+00
	 0.00000000E+00	 4.64852000E-13	 0.00000000E+00
	 0.00000000E+00	 0.00000000E+00	 4.64852000E-13

	 4.64852000E-13	 0.00000000E+00	 0.00000000E+00
	 0.00000000E+00	 4.64852000E-13	 0.00000000E+00
	 0.00000000E+00	 0.00000000E+00	 4.64852000E-13

	 4.64852000E-13	 0.00000000E+00	 0.00000000E+00
	 0.00000000E+00	 4.64852000E-13	 0.00000000E+00
	 0.00000000E+00	 0.00000000E+00	 4.64852000E-13

	 4.64852000E-13	 0.00000000E+00	 0.00000000E+00
	 0.00000000E+00	 4.64852000E-13	 0.00000000E+00
	 0.00000000E+00	 0.00000000E+00	 4.64852000E-13

	 4.64852000E-13	 0.00000000E+00	 0.00000000E+00
	 0.00000000E+00	 4.64852000E-13	 0.00000000E+00
	 0.00000000E+00	 0.00000000E+00	 4.64852000E-13

	 4.64852000E-13	 0.00000000E+00	 0.00000000E+00
	 0.00000000E+00	 4.64852000E-13	 0.00000000E+00
	 0.00000000E+00	 0.00000000E+00	 4.64852000E-13

	 4.64852000E-13	 0.00000000E+00	 0.00000000E+00
	 0.00000000E+00	 4.64852000E-13	 0.00000000E+00
	 0.00000000E+00	 0.00000000E+00	 4.64852000E-13

	 4.64852000E-13	 0.00000000E+00	 0.00000000E+00
	 0.00000000E+00	 4.64852000E-13	 0.00000000E+00
	 0.00000000E+00	 0.00000000E+00	 4.64852000E-13

	 4.64852000E-13	 0.00000000E+00	 0.00000000E+00
	 0.00000000E+00	 4.64852000E-13	 0.00000000E+00
	 0.00000000E+00	 0.00000000E+00	 4.64852000E-13

	 4.64852000E-13	 0.00000000E+00	 0.00000000E+00
	 0.00000000E+00	 4.64852000E-13	 0.00000000E+00
	 0.00000000E+00	 0.00000000E+00	 4.64852000E-13

	 4.64852000E-13	 0.00000000E+00	 0.00000000E+00
	 0.00000000E+00	 4.64852000E-13	 0.00000000E+00
	 0.00000000E+00	 0.00000000E+00	 4.64852000E-13

	 4.64852000E-13	 0.00000000E+00	 0.00000000E+00
	 0.00000000E+00	 4.64852000E-13	 0.00000000E+00
	 0.00000000E+00	 0.00000000E+00	 4.64852000E-13

	 4.64852000E-13	 0.00000000E+00	 0.00000000E+00
	 0.00000000E+00	 4.64852000E-13	 0.00000000E+00
	 0.00000000E+00	 0.00000000E+00	 4.64852000E-13

	 4.64852000E-13	 0.00000000E+00	 0.00000000E+00
	 0.00000000E+00	 4.64852000E-13	 0.00000000E+00
	 0.00000000E+00	 0.00000000E+00	 4.64852000E-13

	 4.64852000E-13	 0.00000000E+00	 0.00000000E+00
	 0.00000000E+00	 4.64852000E-13	 0.00000000E+00
	 0.00000000E+00	 0.00000000E+00	 4.64852000E-13

	 4.64852000E-13	 0.00000000E+00	 0.00000000E+00
	 0.00000000E+00	 4.64852000E-13	 0.00000000E+00
	 0.00000000E+00	 0.00000000E+00	 4.64852000E-13

	 4.55997000E-13	 0.00000000E+00	 0.00000000E+00
	 0.00000000E+00	 4.55997000E-13	 0.00000000E+00
	 0.00000000E+00	 0.00000000E+00	 4.55997000E-13

	 4.38289000E-13	 0.00000000E+00	 0.00000000E+00
	 0.00000000E+00	 4.38289000E-13	 0.00000000E+00
	 0.00000000E+00	 0.00000000E+00	 4.38289000E-13

	 4.38289000E-13	 0.00000000E+00	 0.00000000E+00
	 0.00000000E+00	 4.38289000E-13	 0.00000000E+00
	 0.00000000E+00	 0.00000000E+00	 4.38289000E-13

	 4.64852000E-13	 0.00000000E+00	 0.00000000E+00
	 0.00000000E+00	 4.64852000E-13	 0.00000000E+00
	 0.00000000E+00	 0.00000000E+00	 4.64852000E-13

	 4.51570000E-13	 0.00000000E+00	 0.00000000E+00
	 0.00000000E+00	 4.51570000E-13	 0.00000000E+00
	 0.00000000E+00	 0.00000000E+00	 4.51570000E-13

	 4.64852000E-13	 0.00000000E+00	 0.00000000E+00
	 0.00000000E+00	 4.64852000E-13	 0.00000000E+00
	 0.00000000E+00	 0.00000000E+00	 4.64852000E-13

	 4.64852000E-13	 0.00000000E+00	 0.00000000E+00
	 0.00000000E+00	 4.64852000E-13	 0.00000000E+00
	 0.00000000E+00	 0.00000000E+00	 4.64852000E-13

	 4.60425000E-13	 0.00000000E+00	 0.00000000E+00
	 0.00000000E+00	 4.60425000E-13	 0.00000000E+00
	 0.00000000E+00	 0.00000000E+00	 4.60425000E-13

	 4.38289000E-13	 0.00000000E+00	 0.00000000E+00
	 0.00000000E+00	 4.38289000E-13	 0.00000000E+00
	 0.00000000E+00	 0.00000000E+00	 4.38289000E-13

	 4.40502000E-13	 0.00000000E+00	 0.00000000E+00
	 0.00000000E+00	 4.40502000E-13	 0.00000000E+00
	 0.00000000E+00	 0.00000000E+00	 4.40502000E-13

	 4.55997000E-13	 0.00000000E+00	 0.00000000E+00
	 0.00000000E+00	 4.55997000E-13	 0.00000000E+00
	 0.00000000E+00	 0.00000000E+00	 4.55997000E-13

	 4.48914000E-13	 0.00000000E+00	 0.00000000E+00
	 0.00000000E+00	 4.48914000E-13	 0.00000000E+00
	 0.00000000E+00	 0.00000000E+00	 4.48914000E-13

	 4.38289000E-13	 0.00000000E+00	 0.00000000E+00
	 0.00000000E+00	 4.38289000E-13	 0.00000000E+00
	 0.00000000E+00	 0.00000000E+00	 4.38289000E-13

	 4.38289000E-13	 0.00000000E+00	 0.00000000E+00
	 0.00000000E+00	 4.38289000E-13	 0.00000000E+00
	 0.00000000E+00	 0.00000000E+00	 4.38289000E-13

	 4.38289000E-13	 0.00000000E+00	 0.00000000E+00
	 0.00000000E+00	 4.38289000E-13	 0.00000000E+00
	 0.00000000E+00	 0.00000000E+00	 4.38289000E-13

	 4.64852000E-13	 0.00000000E+00	 0.00000000E+00
	 0.00000000E+00	 4.64852000E-13	 0.00000000E+00
	 0.00000000E+00	 0.00000000E+00	 4.64852000E-13

	 4.60425000E-13	 0.00000000E+00	 0.00000000E+00
	 0.00000000E+00	 4.60425000E-13	 0.00000000E+00
	 0.00000000E+00	 0.00000000E+00	 4.60425000E-13

	 4.62638000E-13	 0.00000000E+00	 0.00000000E+00
	 0.00000000E+00	 4.62638000E-13	 0.00000000E+00
	 0.00000000E+00	 0.00000000E+00	 4.62638000E-13

	 4.49357000E-13	 0.00000000E+00	 0.00000000E+00
	 0.00000000E+00	 4.49357000E-13	 0.00000000E+00
	 0.00000000E+00	 0.00000000E+00	 4.49357000E-13

	 4.55997000E-13	 0.00000000E+00	 0.00000000E+00
	 0.00000000E+00	 4.55997000E-13	 0.00000000E+00
	 0.00000000E+00	 0.00000000E+00	 4.55997000E-13

	 4.51570000E-13	 0.00000000E+00	 0.00000000E+00
	 0.00000000E+00	 4.51570000E-13	 0.00000000E+00
	 0.00000000E+00	 0.00000000E+00	 4.51570000E-13

	 4.47143000E-13	 0.00000000E+00	 0.00000000E+00
	 0.00000000E+00	 4.47143000E-13	 0.00000000E+00
	 0.00000000E+00	 0.00000000E+00	 4.47143000E-13

	 4.60425000E-13	 0.00000000E+00	 0.00000000E+00
	 0.00000000E+00	 4.60425000E-13	 0.00000000E+00
	 0.00000000E+00	 0.00000000E+00	 4.60425000E-13

	 4.64852000E-13	 0.00000000E+00	 0.00000000E+00
	 0.00000000E+00	 4.64852000E-13	 0.00000000E+00
	 0.00000000E+00	 0.00000000E+00	 4.64852000E-13

	 4.64852000E-13	 0.00000000E+00	 0.00000000E+00
	 0.00000000E+00	 4.64852000E-13	 0.00000000E+00
	 0.00000000E+00	 0.00000000E+00	 4.64852000E-13

	 4.64852000E-13	 0.00000000E+00	 0.00000000E+00
	 0.00000000E+00	 4.64852000E-13	 0.00000000E+00
	 0.00000000E+00	 0.00000000E+00	 4.64852000E-13

	 4.64852000E-13	 0.00000000E+00	 0.00000000E+00
	 0.00000000E+00	 4.64852000E-13	 0.00000000E+00
	 0.00000000E+00	 0.00000000E+00	 4.64852000E-13

	 4.64852000E-13	 0.00000000E+00	 0.00000000E+00
	 0.00000000E+00	 4.64852000E-13	 0.00000000E+00
	 0.00000000E+00	 0.00000000E+00	 4.64852000E-13

	 4.64852000E-13	 0.00000000E+00	 0.00000000E+00
	 0.00000000E+00	 4.64852000E-13	 0.00000000E+00
	 0.00000000E+00	 0.00000000E+00	 4.64852000E-13

	 4.64852000E-13	 0.00000000E+00	 0.00000000E+00
	 0.00000000E+00	 4.64852000E-13	 0.00000000E+00
	 0.00000000E+00	 0.00000000E+00	 4.64852000E-13

	 4.64852000E-13	 0.00000000E+00	 0.00000000E+00
	 0.00000000E+00	 4.64852000E-13	 0.00000000E+00
	 0.00000000E+00	 0.00000000E+00	 4.64852000E-13

	 4.64852000E-13	 0.00000000E+00	 0.00000000E+00
	 0.00000000E+00	 4.64852000E-13	 0.00000000E+00
	 0.00000000E+00	 0.00000000E+00	 4.64852000E-13

	 4.64852000E-13	 0.00000000E+00	 0.00000000E+00
	 0.00000000E+00	 4.64852000E-13	 0.00000000E+00
	 0.00000000E+00	 0.00000000E+00	 4.64852000E-13

	 4.49357000E-13	 0.00000000E+00	 0.00000000E+00
	 0.00000000E+00	 4.49357000E-13	 0.00000000E+00
	 0.00000000E+00	 0.00000000E+00	 4.49357000E-13

	 4.64852000E-13	 0.00000000E+00	 0.00000000E+00
	 0.00000000E+00	 4.64852000E-13	 0.00000000E+00
	 0.00000000E+00	 0.00000000E+00	 4.64852000E-13

	 4.64852000E-13	 0.00000000E+00	 0.00000000E+00
	 0.00000000E+00	 4.64852000E-13	 0.00000000E+00
	 0.00000000E+00	 0.00000000E+00	 4.64852000E-13

	 4.53784000E-13	 0.00000000E+00	 0.00000000E+00
	 0.00000000E+00	 4.53784000E-13	 0.00000000E+00
	 0.00000000E+00	 0.00000000E+00	 4.53784000E-13

	 4.64852000E-13	 0.00000000E+00	 0.00000000E+00
	 0.00000000E+00	 4.64852000E-13	 0.00000000E+00
	 0.00000000E+00	 0.00000000E+00	 4.64852000E-13

	 4.42716000E-13	 0.00000000E+00	 0.00000000E+00
	 0.00000000E+00	 4.42716000E-13	 0.00000000E+00
	 0.00000000E+00	 0.00000000E+00	 4.42716000E-13

	 4.55997000E-13	 0.00000000E+00	 0.00000000E+00
	 0.00000000E+00	 4.55997000E-13	 0.00000000E+00
	 0.00000000E+00	 0.00000000E+00	 4.55997000E-13

	 4.51570000E-13	 0.00000000E+00	 0.00000000E+00
	 0.00000000E+00	 4.51570000E-13	 0.00000000E+00
	 0.00000000E+00	 0.00000000E+00	 4.51570000E-13

	 4.53784000E-13	 0.00000000E+00	 0.00000000E+00
	 0.00000000E+00	 4.53784000E-13	 0.00000000E+00
	 0.00000000E+00	 0.00000000E+00	 4.53784000E-13

	 4.64852000E-13	 0.00000000E+00	 0.00000000E+00
	 0.00000000E+00	 4.64852000E-13	 0.00000000E+00
	 0.00000000E+00	 0.00000000E+00	 4.64852000E-13

	 4.64852000E-13	 0.00000000E+00	 0.00000000E+00
	 0.00000000E+00	 4.64852000E-13	 0.00000000E+00
	 0.00000000E+00	 0.00000000E+00	 4.64852000E-13

	 4.64852000E-13	 0.00000000E+00	 0.00000000E+00
	 0.00000000E+00	 4.64852000E-13	 0.00000000E+00
	 0.00000000E+00	 0.00000000E+00	 4.64852000E-13

	 4.64852000E-13	 0.00000000E+00	 0.00000000E+00
	 0.00000000E+00	 4.64852000E-13	 0.00000000E+00
	 0.00000000E+00	 0.00000000E+00	 4.64852000E-13

	 4.64852000E-13	 0.00000000E+00	 0.00000000E+00
	 0.00000000E+00	 4.64852000E-13	 0.00000000E+00
	 0.00000000E+00	 0.00000000E+00	 4.64852000E-13

	 4.64852000E-13	 0.00000000E+00	 0.00000000E+00
	 0.00000000E+00	 4.64852000E-13	 0.00000000E+00
	 0.00000000E+00	 0.00000000E+00	 4.64852000E-13

	 4.64852000E-13	 0.00000000E+00	 0.00000000E+00
	 0.00000000E+00	 4.64852000E-13	 0.00000000E+00
	 0.00000000E+00	 0.00000000E+00	 4.64852000E-13

	 4.64852000E-13	 0.00000000E+00	 0.00000000E+00
	 0.00000000E+00	 4.64852000E-13	 0.00000000E+00
	 0.00000000E+00	 0.00000000E+00	 4.64852000E-13

	 4.64852000E-13	 0.00000000E+00	 0.00000000E+00
	 0.00000000E+00	 4.64852000E-13	 0.00000000E+00
	 0.00000000E+00	 0.00000000E+00	 4.64852000E-13

	 4.64852000E-13	 0.00000000E+00	 0.00000000E+00
	 0.00000000E+00	 4.64852000E-13	 0.00000000E+00
	 0.00000000E+00	 0.00000000E+00	 4.64852000E-13

	 4.64852000E-13	 0.00000000E+00	 0.00000000E+00
	 0.00000000E+00	 4.64852000E-13	 0.00000000E+00
	 0.00000000E+00	 0.00000000E+00	 4.64852000E-13

	 4.64852000E-13	 0.00000000E+00	 0.00000000E+00
	 0.00000000E+00	 4.64852000E-13	 0.00000000E+00
	 0.00000000E+00	 0.00000000E+00	 4.64852000E-13

	 4.64852000E-13	 0.00000000E+00	 0.00000000E+00
	 0.00000000E+00	 4.64852000E-13	 0.00000000E+00
	 0.00000000E+00	 0.00000000E+00	 4.64852000E-13

	 4.64852000E-13	 0.00000000E+00	 0.00000000E+00
	 0.00000000E+00	 4.64852000E-13	 0.00000000E+00
	 0.00000000E+00	 0.00000000E+00	 4.64852000E-13

	 4.64852000E-13	 0.00000000E+00	 0.00000000E+00
	 0.00000000E+00	 4.64852000E-13	 0.00000000E+00
	 0.00000000E+00	 0.00000000E+00	 4.64852000E-13

	 4.64852000E-13	 0.00000000E+00	 0.00000000E+00
	 0.00000000E+00	 4.64852000E-13	 0.00000000E+00
	 0.00000000E+00	 0.00000000E+00	 4.64852000E-13

	 4.64852000E-13	 0.00000000E+00	 0.00000000E+00
	 0.00000000E+00	 4.64852000E-13	 0.00000000E+00
	 0.00000000E+00	 0.00000000E+00	 4.64852000E-13

	 4.64852000E-13	 0.00000000E+00	 0.00000000E+00
	 0.00000000E+00	 4.64852000E-13	 0.00000000E+00
	 0.00000000E+00	 0.00000000E+00	 4.64852000E-13

	 4.64852000E-13	 0.00000000E+00	 0.00000000E+00
	 0.00000000E+00	 4.64852000E-13	 0.00000000E+00
	 0.00000000E+00	 0.00000000E+00	 4.64852000E-13

	 4.64852000E-13	 0.00000000E+00	 0.00000000E+00
	 0.00000000E+00	 4.64852000E-13	 0.00000000E+00
	 0.00000000E+00	 0.00000000E+00	 4.64852000E-13

	 4.64852000E-13	 0.00000000E+00	 0.00000000E+00
	 0.00000000E+00	 4.64852000E-13	 0.00000000E+00
	 0.00000000E+00	 0.00000000E+00	 4.64852000E-13

	 4.64852000E-13	 0.00000000E+00	 0.00000000E+00
	 0.00000000E+00	 4.64852000E-13	 0.00000000E+00
	 0.00000000E+00	 0.00000000E+00	 4.64852000E-13

	 4.64852000E-13	 0.00000000E+00	 0.00000000E+00
	 0.00000000E+00	 4.64852000E-13	 0.00000000E+00
	 0.00000000E+00	 0.00000000E+00	 4.64852000E-13

	 4.64852000E-13	 0.00000000E+00	 0.00000000E+00
	 0.00000000E+00	 4.64852000E-13	 0.00000000E+00
	 0.00000000E+00	 0.00000000E+00	 4.64852000E-13

	 4.64852000E-13	 0.00000000E+00	 0.00000000E+00
	 0.00000000E+00	 4.64852000E-13	 0.00000000E+00
	 0.00000000E+00	 0.00000000E+00	 4.64852000E-13

	 4.64852000E-13	 0.00000000E+00	 0.00000000E+00
	 0.00000000E+00	 4.64852000E-13	 0.00000000E+00
	 0.00000000E+00	 0.00000000E+00	 4.64852000E-13

	 4.64852000E-13	 0.00000000E+00	 0.00000000E+00
	 0.00000000E+00	 4.64852000E-13	 0.00000000E+00
	 0.00000000E+00	 0.00000000E+00	 4.64852000E-13

	 4.64852000E-13	 0.00000000E+00	 0.00000000E+00
	 0.00000000E+00	 4.64852000E-13	 0.00000000E+00
	 0.00000000E+00	 0.00000000E+00	 4.64852000E-13

	 4.64852000E-13	 0.00000000E+00	 0.00000000E+00
	 0.00000000E+00	 4.64852000E-13	 0.00000000E+00
	 0.00000000E+00	 0.00000000E+00	 4.64852000E-13

	 4.64852000E-13	 0.00000000E+00	 0.00000000E+00
	 0.00000000E+00	 4.64852000E-13	 0.00000000E+00
	 0.00000000E+00	 0.00000000E+00	 4.64852000E-13

	 4.64852000E-13	 0.00000000E+00	 0.00000000E+00
	 0.00000000E+00	 4.64852000E-13	 0.00000000E+00
	 0.00000000E+00	 0.00000000E+00	 4.64852000E-13

	 4.64852000E-13	 0.00000000E+00	 0.00000000E+00
	 0.00000000E+00	 4.64852000E-13	 0.00000000E+00
	 0.00000000E+00	 0.00000000E+00	 4.64852000E-13

	 4.64852000E-13	 0.00000000E+00	 0.00000000E+00
	 0.00000000E+00	 4.64852000E-13	 0.00000000E+00
	 0.00000000E+00	 0.00000000E+00	 4.64852000E-13

	 4.64852000E-13	 0.00000000E+00	 0.00000000E+00
	 0.00000000E+00	 4.64852000E-13	 0.00000000E+00
	 0.00000000E+00	 0.00000000E+00	 4.64852000E-13

	 4.64852000E-13	 0.00000000E+00	 0.00000000E+00
	 0.00000000E+00	 4.64852000E-13	 0.00000000E+00
	 0.00000000E+00	 0.00000000E+00	 4.64852000E-13

	 4.64852000E-13	 0.00000000E+00	 0.00000000E+00
	 0.00000000E+00	 4.64852000E-13	 0.00000000E+00
	 0.00000000E+00	 0.00000000E+00	 4.64852000E-13

	 4.64852000E-13	 0.00000000E+00	 0.00000000E+00
	 0.00000000E+00	 4.64852000E-13	 0.00000000E+00
	 0.00000000E+00	 0.00000000E+00	 4.64852000E-13

	 4.64852000E-13	 0.00000000E+00	 0.00000000E+00
	 0.00000000E+00	 4.64852000E-13	 0.00000000E+00
	 0.00000000E+00	 0.00000000E+00	 4.64852000E-13

	 4.64852000E-13	 0.00000000E+00	 0.00000000E+00
	 0.00000000E+00	 4.64852000E-13	 0.00000000E+00
	 0.00000000E+00	 0.00000000E+00	 4.64852000E-13

	 4.64852000E-13	 0.00000000E+00	 0.00000000E+00
	 0.00000000E+00	 4.64852000E-13	 0.00000000E+00
	 0.00000000E+00	 0.00000000E+00	 4.64852000E-13

	 4.64852000E-13	 0.00000000E+00	 0.00000000E+00
	 0.00000000E+00	 4.64852000E-13	 0.00000000E+00
	 0.00000000E+00	 0.00000000E+00	 4.64852000E-13

	 4.64852000E-13	 0.00000000E+00	 0.00000000E+00
	 0.00000000E+00	 4.64852000E-13	 0.00000000E+00
	 0.00000000E+00	 0.00000000E+00	 4.64852000E-13

	 4.64852000E-13	 0.00000000E+00	 0.00000000E+00
	 0.00000000E+00	 4.64852000E-13	 0.00000000E+00
	 0.00000000E+00	 0.00000000E+00	 4.64852000E-13

	 4.64852000E-13	 0.00000000E+00	 0.00000000E+00
	 0.00000000E+00	 4.64852000E-13	 0.00000000E+00
	 0.00000000E+00	 0.00000000E+00	 4.64852000E-13

	 4.64852000E-13	 0.00000000E+00	 0.00000000E+00
	 0.00000000E+00	 4.64852000E-13	 0.00000000E+00
	 0.00000000E+00	 0.00000000E+00	 4.64852000E-13

	 4.64852000E-13	 0.00000000E+00	 0.00000000E+00
	 0.00000000E+00	 4.64852000E-13	 0.00000000E+00
	 0.00000000E+00	 0.00000000E+00	 4.64852000E-13

	 4.64852000E-13	 0.00000000E+00	 0.00000000E+00
	 0.00000000E+00	 4.64852000E-13	 0.00000000E+00
	 0.00000000E+00	 0.00000000E+00	 4.64852000E-13

	 4.64852000E-13	 0.00000000E+00	 0.00000000E+00
	 0.00000000E+00	 4.64852000E-13	 0.00000000E+00
	 0.00000000E+00	 0.00000000E+00	 4.64852000E-13

	 4.64852000E-13	 0.00000000E+00	 0.00000000E+00
	 0.00000000E+00	 4.64852000E-13	 0.00000000E+00
	 0.00000000E+00	 0.00000000E+00	 4.64852000E-13

	 4.47143000E-13	 0.00000000E+00	 0.00000000E+00
	 0.00000000E+00	 4.47143000E-13	 0.00000000E+00
	 0.00000000E+00	 0.00000000E+00	 4.47143000E-13

	 4.58211000E-13	 0.00000000E+00	 0.00000000E+00
	 0.00000000E+00	 4.58211000E-13	 0.00000000E+00
	 0.00000000E+00	 0.00000000E+00	 4.58211000E-13

	 4.42716000E-13	 0.00000000E+00	 0.00000000E+00
	 0.00000000E+00	 4.42716000E-13	 0.00000000E+00
	 0.00000000E+00	 0.00000000E+00	 4.42716000E-13

	 4.42716000E-13	 0.00000000E+00	 0.00000000E+00
	 0.00000000E+00	 4.42716000E-13	 0.00000000E+00
	 0.00000000E+00	 0.00000000E+00	 4.42716000E-13

	 4.64852000E-13	 0.00000000E+00	 0.00000000E+00
	 0.00000000E+00	 4.64852000E-13	 0.00000000E+00
	 0.00000000E+00	 0.00000000E+00	 4.64852000E-13

	 4.64852000E-13	 0.00000000E+00	 0.00000000E+00
	 0.00000000E+00	 4.64852000E-13	 0.00000000E+00
	 0.00000000E+00	 0.00000000E+00	 4.64852000E-13

	 4.64852000E-13	 0.00000000E+00	 0.00000000E+00
	 0.00000000E+00	 4.64852000E-13	 0.00000000E+00
	 0.00000000E+00	 0.00000000E+00	 4.64852000E-13

	 4.55997000E-13	 0.00000000E+00	 0.00000000E+00
	 0.00000000E+00	 4.55997000E-13	 0.00000000E+00
	 0.00000000E+00	 0.00000000E+00	 4.55997000E-13

	 4.64852000E-13	 0.00000000E+00	 0.00000000E+00
	 0.00000000E+00	 4.64852000E-13	 0.00000000E+00
	 0.00000000E+00	 0.00000000E+00	 4.64852000E-13

	 4.55997000E-13	 0.00000000E+00	 0.00000000E+00
	 0.00000000E+00	 4.55997000E-13	 0.00000000E+00
	 0.00000000E+00	 0.00000000E+00	 4.55997000E-13

	 4.38289000E-13	 0.00000000E+00	 0.00000000E+00
	 0.00000000E+00	 4.38289000E-13	 0.00000000E+00
	 0.00000000E+00	 0.00000000E+00	 4.38289000E-13

	 4.38289000E-13	 0.00000000E+00	 0.00000000E+00
	 0.00000000E+00	 4.38289000E-13	 0.00000000E+00
	 0.00000000E+00	 0.00000000E+00	 4.38289000E-13

	 4.64852000E-13	 0.00000000E+00	 0.00000000E+00
	 0.00000000E+00	 4.64852000E-13	 0.00000000E+00
	 0.00000000E+00	 0.00000000E+00	 4.64852000E-13

	 4.62638000E-13	 0.00000000E+00	 0.00000000E+00
	 0.00000000E+00	 4.62638000E-13	 0.00000000E+00
	 0.00000000E+00	 0.00000000E+00	 4.62638000E-13

	 4.46258000E-13	 0.00000000E+00	 0.00000000E+00
	 0.00000000E+00	 4.46258000E-13	 0.00000000E+00
	 0.00000000E+00	 0.00000000E+00	 4.46258000E-13

	 4.38289000E-13	 0.00000000E+00	 0.00000000E+00
	 0.00000000E+00	 4.38289000E-13	 0.00000000E+00
	 0.00000000E+00	 0.00000000E+00	 4.38289000E-13

	 4.64852000E-13	 0.00000000E+00	 0.00000000E+00
	 0.00000000E+00	 4.64852000E-13	 0.00000000E+00
	 0.00000000E+00	 0.00000000E+00	 4.64852000E-13

	 4.64852000E-13	 0.00000000E+00	 0.00000000E+00
	 0.00000000E+00	 4.64852000E-13	 0.00000000E+00
	 0.00000000E+00	 0.00000000E+00	 4.64852000E-13

	 4.62638000E-13	 0.00000000E+00	 0.00000000E+00
	 0.00000000E+00	 4.62638000E-13	 0.00000000E+00
	 0.00000000E+00	 0.00000000E+00	 4.62638000E-13

	 4.38289000E-13	 0.00000000E+00	 0.00000000E+00
	 0.00000000E+00	 4.38289000E-13	 0.00000000E+00
	 0.00000000E+00	 0.00000000E+00	 4.38289000E-13

	 4.38289000E-13	 0.00000000E+00	 0.00000000E+00
	 0.00000000E+00	 4.38289000E-13	 0.00000000E+00
	 0.00000000E+00	 0.00000000E+00	 4.38289000E-13

	 4.40502000E-13	 0.00000000E+00	 0.00000000E+00
	 0.00000000E+00	 4.40502000E-13	 0.00000000E+00
	 0.00000000E+00	 0.00000000E+00	 4.40502000E-13

	 4.64852000E-13	 0.00000000E+00	 0.00000000E+00
	 0.00000000E+00	 4.64852000E-13	 0.00000000E+00
	 0.00000000E+00	 0.00000000E+00	 4.64852000E-13

	 4.64852000E-13	 0.00000000E+00	 0.00000000E+00
	 0.00000000E+00	 4.64852000E-13	 0.00000000E+00
	 0.00000000E+00	 0.00000000E+00	 4.64852000E-13

	 4.64852000E-13	 0.00000000E+00	 0.00000000E+00
	 0.00000000E+00	 4.64852000E-13	 0.00000000E+00
	 0.00000000E+00	 0.00000000E+00	 4.64852000E-13

	 4.64852000E-13	 0.00000000E+00	 0.00000000E+00
	 0.00000000E+00	 4.64852000E-13	 0.00000000E+00
	 0.00000000E+00	 0.00000000E+00	 4.64852000E-13

	 4.58211000E-13	 0.00000000E+00	 0.00000000E+00
	 0.00000000E+00	 4.58211000E-13	 0.00000000E+00
	 0.00000000E+00	 0.00000000E+00	 4.58211000E-13

	 4.64852000E-13	 0.00000000E+00	 0.00000000E+00
	 0.00000000E+00	 4.64852000E-13	 0.00000000E+00
	 0.00000000E+00	 0.00000000E+00	 4.64852000E-13

	 4.40502000E-13	 0.00000000E+00	 0.00000000E+00
	 0.00000000E+00	 4.40502000E-13	 0.00000000E+00
	 0.00000000E+00	 0.00000000E+00	 4.40502000E-13

	 4.42716000E-13	 0.00000000E+00	 0.00000000E+00
	 0.00000000E+00	 4.42716000E-13	 0.00000000E+00
	 0.00000000E+00	 0.00000000E+00	 4.42716000E-13

	 4.49357000E-13	 0.00000000E+00	 0.00000000E+00
	 0.00000000E+00	 4.49357000E-13	 0.00000000E+00
	 0.00000000E+00	 0.00000000E+00	 4.49357000E-13

	 4.42716000E-13	 0.00000000E+00	 0.00000000E+00
	 0.00000000E+00	 4.42716000E-13	 0.00000000E+00
	 0.00000000E+00	 0.00000000E+00	 4.42716000E-13

	 4.38289000E-13	 0.00000000E+00	 0.00000000E+00
	 0.00000000E+00	 4.38289000E-13	 0.00000000E+00
	 0.00000000E+00	 0.00000000E+00	 4.38289000E-13

	 4.38289000E-13	 0.00000000E+00	 0.00000000E+00
	 0.00000000E+00	 4.38289000E-13	 0.00000000E+00
	 0.00000000E+00	 0.00000000E+00	 4.38289000E-13

	 4.42716000E-13	 0.00000000E+00	 0.00000000E+00
	 0.00000000E+00	 4.42716000E-13	 0.00000000E+00
	 0.00000000E+00	 0.00000000E+00	 4.42716000E-13

	 4.49357000E-13	 0.00000000E+00	 0.00000000E+00
	 0.00000000E+00	 4.49357000E-13	 0.00000000E+00
	 0.00000000E+00	 0.00000000E+00	 4.49357000E-13

	 4.49357000E-13	 0.00000000E+00	 0.00000000E+00
	 0.00000000E+00	 4.49357000E-13	 0.00000000E+00
	 0.00000000E+00	 0.00000000E+00	 4.49357000E-13

	 4.62638000E-13	 0.00000000E+00	 0.00000000E+00
	 0.00000000E+00	 4.62638000E-13	 0.00000000E+00
	 0.00000000E+00	 0.00000000E+00	 4.62638000E-13

	 4.53784000E-13	 0.00000000E+00	 0.00000000E+00
	 0.00000000E+00	 4.53784000E-13	 0.00000000E+00
	 0.00000000E+00	 0.00000000E+00	 4.53784000E-13

	 4.62638000E-13	 0.00000000E+00	 0.00000000E+00
	 0.00000000E+00	 4.62638000E-13	 0.00000000E+00
	 0.00000000E+00	 0.00000000E+00	 4.62638000E-13

	 4.47143000E-13	 0.00000000E+00	 0.00000000E+00
	 0.00000000E+00	 4.47143000E-13	 0.00000000E+00
	 0.00000000E+00	 0.00000000E+00	 4.47143000E-13

	 4.38289000E-13	 0.00000000E+00	 0.00000000E+00
	 0.00000000E+00	 4.38289000E-13	 0.00000000E+00
	 0.00000000E+00	 0.00000000E+00	 4.38289000E-13

	 4.64852000E-13	 0.00000000E+00	 0.00000000E+00
	 0.00000000E+00	 4.64852000E-13	 0.00000000E+00
	 0.00000000E+00	 0.00000000E+00	 4.64852000E-13

	 4.64852000E-13	 0.00000000E+00	 0.00000000E+00
	 0.00000000E+00	 4.64852000E-13	 0.00000000E+00
	 0.00000000E+00	 0.00000000E+00	 4.64852000E-13

	 4.47143000E-13	 0.00000000E+00	 0.00000000E+00
	 0.00000000E+00	 4.47143000E-13	 0.00000000E+00
	 0.00000000E+00	 0.00000000E+00	 4.47143000E-13

	 4.47143000E-13	 0.00000000E+00	 0.00000000E+00
	 0.00000000E+00	 4.47143000E-13	 0.00000000E+00
	 0.00000000E+00	 0.00000000E+00	 4.47143000E-13

	 4.64852000E-13	 0.00000000E+00	 0.00000000E+00
	 0.00000000E+00	 4.64852000E-13	 0.00000000E+00
	 0.00000000E+00	 0.00000000E+00	 4.64852000E-13

	 4.62638000E-13	 0.00000000E+00	 0.00000000E+00
	 0.00000000E+00	 4.62638000E-13	 0.00000000E+00
	 0.00000000E+00	 0.00000000E+00	 4.62638000E-13

	 4.38289000E-13	 0.00000000E+00	 0.00000000E+00
	 0.00000000E+00	 4.38289000E-13	 0.00000000E+00
	 0.00000000E+00	 0.00000000E+00	 4.38289000E-13

	 4.42716000E-13	 0.00000000E+00	 0.00000000E+00
	 0.00000000E+00	 4.42716000E-13	 0.00000000E+00
	 0.00000000E+00	 0.00000000E+00	 4.42716000E-13

	 4.38289000E-13	 0.00000000E+00	 0.00000000E+00
	 0.00000000E+00	 4.38289000E-13	 0.00000000E+00
	 0.00000000E+00	 0.00000000E+00	 4.38289000E-13

	 4.47143000E-13	 0.00000000E+00	 0.00000000E+00
	 0.00000000E+00	 4.47143000E-13	 0.00000000E+00
	 0.00000000E+00	 0.00000000E+00	 4.47143000E-13

	 4.38289000E-13	 0.00000000E+00	 0.00000000E+00
	 0.00000000E+00	 4.38289000E-13	 0.00000000E+00
	 0.00000000E+00	 0.00000000E+00	 4.38289000E-13

	 4.62638000E-13	 0.00000000E+00	 0.00000000E+00
	 0.00000000E+00	 4.62638000E-13	 0.00000000E+00
	 0.00000000E+00	 0.00000000E+00	 4.62638000E-13

	 4.58211000E-13	 0.00000000E+00	 0.00000000E+00
	 0.00000000E+00	 4.58211000E-13	 0.00000000E+00
	 0.00000000E+00	 0.00000000E+00	 4.58211000E-13

	 4.42716000E-13	 0.00000000E+00	 0.00000000E+00
	 0.00000000E+00	 4.42716000E-13	 0.00000000E+00
	 0.00000000E+00	 0.00000000E+00	 4.42716000E-13

	 4.40945000E-13	 0.00000000E+00	 0.00000000E+00
	 0.00000000E+00	 4.40945000E-13	 0.00000000E+00
	 0.00000000E+00	 0.00000000E+00	 4.40945000E-13

	 4.38289000E-13	 0.00000000E+00	 0.00000000E+00
	 0.00000000E+00	 4.38289000E-13	 0.00000000E+00
	 0.00000000E+00	 0.00000000E+00	 4.38289000E-13

	 4.53784000E-13	 0.00000000E+00	 0.00000000E+00
	 0.00000000E+00	 4.53784000E-13	 0.00000000E+00
	 0.00000000E+00	 0.00000000E+00	 4.53784000E-13

	 4.64852000E-13	 0.00000000E+00	 0.00000000E+00
	 0.00000000E+00	 4.64852000E-13	 0.00000000E+00
	 0.00000000E+00	 0.00000000E+00	 4.64852000E-13

	 4.64852000E-13	 0.00000000E+00	 0.00000000E+00
	 0.00000000E+00	 4.64852000E-13	 0.00000000E+00
	 0.00000000E+00	 0.00000000E+00	 4.64852000E-13

	 4.40502000E-13	 0.00000000E+00	 0.00000000E+00
	 0.00000000E+00	 4.40502000E-13	 0.00000000E+00
	 0.00000000E+00	 0.00000000E+00	 4.40502000E-13

	 4.38289000E-13	 0.00000000E+00	 0.00000000E+00
	 0.00000000E+00	 4.38289000E-13	 0.00000000E+00
	 0.00000000E+00	 0.00000000E+00	 4.38289000E-13

	 4.38289000E-13	 0.00000000E+00	 0.00000000E+00
	 0.00000000E+00	 4.38289000E-13	 0.00000000E+00
	 0.00000000E+00	 0.00000000E+00	 4.38289000E-13

	 4.47143000E-13	 0.00000000E+00	 0.00000000E+00
	 0.00000000E+00	 4.47143000E-13	 0.00000000E+00
	 0.00000000E+00	 0.00000000E+00	 4.47143000E-13

	 4.42716000E-13	 0.00000000E+00	 0.00000000E+00
	 0.00000000E+00	 4.42716000E-13	 0.00000000E+00
	 0.00000000E+00	 0.00000000E+00	 4.42716000E-13

	 4.55365000E-13	 0.00000000E+00	 0.00000000E+00
	 0.00000000E+00	 4.55365000E-13	 0.00000000E+00
	 0.00000000E+00	 0.00000000E+00	 4.55365000E-13

	 4.38289000E-13	 0.00000000E+00	 0.00000000E+00
	 0.00000000E+00	 4.38289000E-13	 0.00000000E+00
	 0.00000000E+00	 0.00000000E+00	 4.38289000E-13

	 4.38289000E-13	 0.00000000E+00	 0.00000000E+00
	 0.00000000E+00	 4.38289000E-13	 0.00000000E+00
	 0.00000000E+00	 0.00000000E+00	 4.38289000E-13

	 4.38289000E-13	 0.00000000E+00	 0.00000000E+00
	 0.00000000E+00	 4.38289000E-13	 0.00000000E+00
	 0.00000000E+00	 0.00000000E+00	 4.38289000E-13

	 4.38289000E-13	 0.00000000E+00	 0.00000000E+00
	 0.00000000E+00	 4.38289000E-13	 0.00000000E+00
	 0.00000000E+00	 0.00000000E+00	 4.38289000E-13

	 4.38289000E-13	 0.00000000E+00	 0.00000000E+00
	 0.00000000E+00	 4.38289000E-13	 0.00000000E+00
	 0.00000000E+00	 0.00000000E+00	 4.38289000E-13

	 4.38289000E-13	 0.00000000E+00	 0.00000000E+00
	 0.00000000E+00	 4.38289000E-13	 0.00000000E+00
	 0.00000000E+00	 0.00000000E+00	 4.38289000E-13

	 4.38289000E-13	 0.00000000E+00	 0.00000000E+00
	 0.00000000E+00	 4.38289000E-13	 0.00000000E+00
	 0.00000000E+00	 0.00000000E+00	 4.38289000E-13

	 4.38289000E-13	 0.00000000E+00	 0.00000000E+00
	 0.00000000E+00	 4.38289000E-13	 0.00000000E+00
	 0.00000000E+00	 0.00000000E+00	 4.38289000E-13

	 4.38289000E-13	 0.00000000E+00	 0.00000000E+00
	 0.00000000E+00	 4.38289000E-13	 0.00000000E+00
	 0.00000000E+00	 0.00000000E+00	 4.38289000E-13

	 4.38289000E-13	 0.00000000E+00	 0.00000000E+00
	 0.00000000E+00	 4.38289000E-13	 0.00000000E+00
	 0.00000000E+00	 0.00000000E+00	 4.38289000E-13

	 4.38289000E-13	 0.00000000E+00	 0.00000000E+00
	 0.00000000E+00	 4.38289000E-13	 0.00000000E+00
	 0.00000000E+00	 0.00000000E+00	 4.38289000E-13

	 4.38289000E-13	 0.00000000E+00	 0.00000000E+00
	 0.00000000E+00	 4.38289000E-13	 0.00000000E+00
	 0.00000000E+00	 0.00000000E+00	 4.38289000E-13

	 4.38289000E-13	 0.00000000E+00	 0.00000000E+00
	 0.00000000E+00	 4.38289000E-13	 0.00000000E+00
	 0.00000000E+00	 0.00000000E+00	 4.38289000E-13

	 4.38289000E-13	 0.00000000E+00	 0.00000000E+00
	 0.00000000E+00	 4.38289000E-13	 0.00000000E+00
	 0.00000000E+00	 0.00000000E+00	 4.38289000E-13

	 4.38289000E-13	 0.00000000E+00	 0.00000000E+00
	 0.00000000E+00	 4.38289000E-13	 0.00000000E+00
	 0.00000000E+00	 0.00000000E+00	 4.38289000E-13

	 4.38289000E-13	 0.00000000E+00	 0.00000000E+00
	 0.00000000E+00	 4.38289000E-13	 0.00000000E+00
	 0.00000000E+00	 0.00000000E+00	 4.38289000E-13

	 4.38289000E-13	 0.00000000E+00	 0.00000000E+00
	 0.00000000E+00	 4.38289000E-13	 0.00000000E+00
	 0.00000000E+00	 0.00000000E+00	 4.38289000E-13

	 4.38289000E-13	 0.00000000E+00	 0.00000000E+00
	 0.00000000E+00	 4.38289000E-13	 0.00000000E+00
	 0.00000000E+00	 0.00000000E+00	 4.38289000E-13

	 4.38289000E-13	 0.00000000E+00	 0.00000000E+00
	 0.00000000E+00	 4.38289000E-13	 0.00000000E+00
	 0.00000000E+00	 0.00000000E+00	 4.38289000E-13

	 4.38289000E-13	 0.00000000E+00	 0.00000000E+00
	 0.00000000E+00	 4.38289000E-13	 0.00000000E+00
	 0.00000000E+00	 0.00000000E+00	 4.38289000E-13

	 4.38289000E-13	 0.00000000E+00	 0.00000000E+00
	 0.00000000E+00	 4.38289000E-13	 0.00000000E+00
	 0.00000000E+00	 0.00000000E+00	 4.38289000E-13

	 4.38289000E-13	 0.00000000E+00	 0.00000000E+00
	 0.00000000E+00	 4.38289000E-13	 0.00000000E+00
	 0.00000000E+00	 0.00000000E+00	 4.38289000E-13

	 4.38289000E-13	 0.00000000E+00	 0.00000000E+00
	 0.00000000E+00	 4.38289000E-13	 0.00000000E+00
	 0.00000000E+00	 0.00000000E+00	 4.38289000E-13

	 4.38289000E-13	 0.00000000E+00	 0.00000000E+00
	 0.00000000E+00	 4.38289000E-13	 0.00000000E+00
	 0.00000000E+00	 0.00000000E+00	 4.38289000E-13

	 4.38289000E-13	 0.00000000E+00	 0.00000000E+00
	 0.00000000E+00	 4.38289000E-13	 0.00000000E+00
	 0.00000000E+00	 0.00000000E+00	 4.38289000E-13

	 4.38289000E-13	 0.00000000E+00	 0.00000000E+00
	 0.00000000E+00	 4.38289000E-13	 0.00000000E+00
	 0.00000000E+00	 0.00000000E+00	 4.38289000E-13

	 4.38289000E-13	 0.00000000E+00	 0.00000000E+00
	 0.00000000E+00	 4.38289000E-13	 0.00000000E+00
	 0.00000000E+00	 0.00000000E+00	 4.38289000E-13

	 4.38289000E-13	 0.00000000E+00	 0.00000000E+00
	 0.00000000E+00	 4.38289000E-13	 0.00000000E+00
	 0.00000000E+00	 0.00000000E+00	 4.38289000E-13

	 4.38289000E-13	 0.00000000E+00	 0.00000000E+00
	 0.00000000E+00	 4.38289000E-13	 0.00000000E+00
	 0.00000000E+00	 0.00000000E+00	 4.38289000E-13

	 4.38289000E-13	 0.00000000E+00	 0.00000000E+00
	 0.00000000E+00	 4.38289000E-13	 0.00000000E+00
	 0.00000000E+00	 0.00000000E+00	 4.38289000E-13

	 4.38289000E-13	 0.00000000E+00	 0.00000000E+00
	 0.00000000E+00	 4.38289000E-13	 0.00000000E+00
	 0.00000000E+00	 0.00000000E+00	 4.38289000E-13

	 4.38289000E-13	 0.00000000E+00	 0.00000000E+00
	 0.00000000E+00	 4.38289000E-13	 0.00000000E+00
	 0.00000000E+00	 0.00000000E+00	 4.38289000E-13

	 4.38289000E-13	 0.00000000E+00	 0.00000000E+00
	 0.00000000E+00	 4.38289000E-13	 0.00000000E+00
	 0.00000000E+00	 0.00000000E+00	 4.38289000E-13

	 4.38289000E-13	 0.00000000E+00	 0.00000000E+00
	 0.00000000E+00	 4.38289000E-13	 0.00000000E+00
	 0.00000000E+00	 0.00000000E+00	 4.38289000E-13

	 4.38289000E-13	 0.00000000E+00	 0.00000000E+00
	 0.00000000E+00	 4.38289000E-13	 0.00000000E+00
	 0.00000000E+00	 0.00000000E+00	 4.38289000E-13

	 4.38289000E-13	 0.00000000E+00	 0.00000000E+00
	 0.00000000E+00	 4.38289000E-13	 0.00000000E+00
	 0.00000000E+00	 0.00000000E+00	 4.38289000E-13

	 4.38289000E-13	 0.00000000E+00	 0.00000000E+00
	 0.00000000E+00	 4.38289000E-13	 0.00000000E+00
	 0.00000000E+00	 0.00000000E+00	 4.38289000E-13

	 4.38289000E-13	 0.00000000E+00	 0.00000000E+00
	 0.00000000E+00	 4.38289000E-13	 0.00000000E+00
	 0.00000000E+00	 0.00000000E+00	 4.38289000E-13

	 4.38289000E-13	 0.00000000E+00	 0.00000000E+00
	 0.00000000E+00	 4.38289000E-13	 0.00000000E+00
	 0.00000000E+00	 0.00000000E+00	 4.38289000E-13

	 4.38289000E-13	 0.00000000E+00	 0.00000000E+00
	 0.00000000E+00	 4.38289000E-13	 0.00000000E+00
	 0.00000000E+00	 0.00000000E+00	 4.38289000E-13

	 4.38289000E-13	 0.00000000E+00	 0.00000000E+00
	 0.00000000E+00	 4.38289000E-13	 0.00000000E+00
	 0.00000000E+00	 0.00000000E+00	 4.38289000E-13

	 4.38289000E-13	 0.00000000E+00	 0.00000000E+00
	 0.00000000E+00	 4.38289000E-13	 0.00000000E+00
	 0.00000000E+00	 0.00000000E+00	 4.38289000E-13

	 4.38289000E-13	 0.00000000E+00	 0.00000000E+00
	 0.00000000E+00	 4.38289000E-13	 0.00000000E+00
	 0.00000000E+00	 0.00000000E+00	 4.38289000E-13

	 4.38289000E-13	 0.00000000E+00	 0.00000000E+00
	 0.00000000E+00	 4.38289000E-13	 0.00000000E+00
	 0.00000000E+00	 0.00000000E+00	 4.38289000E-13

	 4.38289000E-13	 0.00000000E+00	 0.00000000E+00
	 0.00000000E+00	 4.38289000E-13	 0.00000000E+00
	 0.00000000E+00	 0.00000000E+00	 4.38289000E-13

	 4.38289000E-13	 0.00000000E+00	 0.00000000E+00
	 0.00000000E+00	 4.38289000E-13	 0.00000000E+00
	 0.00000000E+00	 0.00000000E+00	 4.38289000E-13

	 4.38289000E-13	 0.00000000E+00	 0.00000000E+00
	 0.00000000E+00	 4.38289000E-13	 0.00000000E+00
	 0.00000000E+00	 0.00000000E+00	 4.38289000E-13

	 4.38289000E-13	 0.00000000E+00	 0.00000000E+00
	 0.00000000E+00	 4.38289000E-13	 0.00000000E+00
	 0.00000000E+00	 0.00000000E+00	 4.38289000E-13

	 4.38289000E-13	 0.00000000E+00	 0.00000000E+00
	 0.00000000E+00	 4.38289000E-13	 0.00000000E+00
	 0.00000000E+00	 0.00000000E+00	 4.38289000E-13

	 4.38289000E-13	 0.00000000E+00	 0.00000000E+00
	 0.00000000E+00	 4.38289000E-13	 0.00000000E+00
	 0.00000000E+00	 0.00000000E+00	 4.38289000E-13

	 4.38289000E-13	 0.00000000E+00	 0.00000000E+00
	 0.00000000E+00	 4.38289000E-13	 0.00000000E+00
	 0.00000000E+00	 0.00000000E+00	 4.38289000E-13

	 4.38289000E-13	 0.00000000E+00	 0.00000000E+00
	 0.00000000E+00	 4.38289000E-13	 0.00000000E+00
	 0.00000000E+00	 0.00000000E+00	 4.38289000E-13

	 4.38289000E-13	 0.00000000E+00	 0.00000000E+00
	 0.00000000E+00	 4.38289000E-13	 0.00000000E+00
	 0.00000000E+00	 0.00000000E+00	 4.38289000E-13

	 4.38289000E-13	 0.00000000E+00	 0.00000000E+00
	 0.00000000E+00	 4.38289000E-13	 0.00000000E+00
	 0.00000000E+00	 0.00000000E+00	 4.38289000E-13

	 4.38289000E-13	 0.00000000E+00	 0.00000000E+00
	 0.00000000E+00	 4.38289000E-13	 0.00000000E+00
	 0.00000000E+00	 0.00000000E+00	 4.38289000E-13

	 4.38289000E-13	 0.00000000E+00	 0.00000000E+00
	 0.00000000E+00	 4.38289000E-13	 0.00000000E+00
	 0.00000000E+00	 0.00000000E+00	 4.38289000E-13

	 4.38289000E-13	 0.00000000E+00	 0.00000000E+00
	 0.00000000E+00	 4.38289000E-13	 0.00000000E+00
	 0.00000000E+00	 0.00000000E+00	 4.38289000E-13

	 4.38289000E-13	 0.00000000E+00	 0.00000000E+00
	 0.00000000E+00	 4.38289000E-13	 0.00000000E+00
	 0.00000000E+00	 0.00000000E+00	 4.38289000E-13

	 4.38289000E-13	 0.00000000E+00	 0.00000000E+00
	 0.00000000E+00	 4.38289000E-13	 0.00000000E+00
	 0.00000000E+00	 0.00000000E+00	 4.38289000E-13

	 4.38289000E-13	 0.00000000E+00	 0.00000000E+00
	 0.00000000E+00	 4.38289000E-13	 0.00000000E+00
	 0.00000000E+00	 0.00000000E+00	 4.38289000E-13

	 4.38289000E-13	 0.00000000E+00	 0.00000000E+00
	 0.00000000E+00	 4.38289000E-13	 0.00000000E+00
	 0.00000000E+00	 0.00000000E+00	 4.38289000E-13

	 4.38289000E-13	 0.00000000E+00	 0.00000000E+00
	 0.00000000E+00	 4.38289000E-13	 0.00000000E+00
	 0.00000000E+00	 0.00000000E+00	 4.38289000E-13

	 4.38289000E-13	 0.00000000E+00	 0.00000000E+00
	 0.00000000E+00	 4.38289000E-13	 0.00000000E+00
	 0.00000000E+00	 0.00000000E+00	 4.38289000E-13

	 4.38289000E-13	 0.00000000E+00	 0.00000000E+00
	 0.00000000E+00	 4.38289000E-13	 0.00000000E+00
	 0.00000000E+00	 0.00000000E+00	 4.38289000E-13

	 4.38289000E-13	 0.00000000E+00	 0.00000000E+00
	 0.00000000E+00	 4.38289000E-13	 0.00000000E+00
	 0.00000000E+00	 0.00000000E+00	 4.38289000E-13

	 4.38289000E-13	 0.00000000E+00	 0.00000000E+00
	 0.00000000E+00	 4.38289000E-13	 0.00000000E+00
	 0.00000000E+00	 0.00000000E+00	 4.38289000E-13

	 4.38289000E-13	 0.00000000E+00	 0.00000000E+00
	 0.00000000E+00	 4.38289000E-13	 0.00000000E+00
	 0.00000000E+00	 0.00000000E+00	 4.38289000E-13

	 4.38289000E-13	 0.00000000E+00	 0.00000000E+00
	 0.00000000E+00	 4.38289000E-13	 0.00000000E+00
	 0.00000000E+00	 0.00000000E+00	 4.38289000E-13

	 4.38289000E-13	 0.00000000E+00	 0.00000000E+00
	 0.00000000E+00	 4.38289000E-13	 0.00000000E+00
	 0.00000000E+00	 0.00000000E+00	 4.38289000E-13

	 4.38289000E-13	 0.00000000E+00	 0.00000000E+00
	 0.00000000E+00	 4.38289000E-13	 0.00000000E+00
	 0.00000000E+00	 0.00000000E+00	 4.38289000E-13

	 4.38289000E-13	 0.00000000E+00	 0.00000000E+00
	 0.00000000E+00	 4.38289000E-13	 0.00000000E+00
	 0.00000000E+00	 0.00000000E+00	 4.38289000E-13

	 4.38289000E-13	 0.00000000E+00	 0.00000000E+00
	 0.00000000E+00	 4.38289000E-13	 0.00000000E+00
	 0.00000000E+00	 0.00000000E+00	 4.38289000E-13

	 4.38289000E-13	 0.00000000E+00	 0.00000000E+00
	 0.00000000E+00	 4.38289000E-13	 0.00000000E+00
	 0.00000000E+00	 0.00000000E+00	 4.38289000E-13

	 4.38289000E-13	 0.00000000E+00	 0.00000000E+00
	 0.00000000E+00	 4.38289000E-13	 0.00000000E+00
	 0.00000000E+00	 0.00000000E+00	 4.38289000E-13

	 4.38289000E-13	 0.00000000E+00	 0.00000000E+00
	 0.00000000E+00	 4.38289000E-13	 0.00000000E+00
	 0.00000000E+00	 0.00000000E+00	 4.38289000E-13

	 4.38289000E-13	 0.00000000E+00	 0.00000000E+00
	 0.00000000E+00	 4.38289000E-13	 0.00000000E+00
	 0.00000000E+00	 0.00000000E+00	 4.38289000E-13

	 4.38289000E-13	 0.00000000E+00	 0.00000000E+00
	 0.00000000E+00	 4.38289000E-13	 0.00000000E+00
	 0.00000000E+00	 0.00000000E+00	 4.38289000E-13

	 4.40502000E-13	 0.00000000E+00	 0.00000000E+00
	 0.00000000E+00	 4.40502000E-13	 0.00000000E+00
	 0.00000000E+00	 0.00000000E+00	 4.40502000E-13

	 4.38289000E-13	 0.00000000E+00	 0.00000000E+00
	 0.00000000E+00	 4.38289000E-13	 0.00000000E+00
	 0.00000000E+00	 0.00000000E+00	 4.38289000E-13

	 4.42716000E-13	 0.00000000E+00	 0.00000000E+00
	 0.00000000E+00	 4.42716000E-13	 0.00000000E+00
	 0.00000000E+00	 0.00000000E+00	 4.42716000E-13

	 4.38289000E-13	 0.00000000E+00	 0.00000000E+00
	 0.00000000E+00	 4.38289000E-13	 0.00000000E+00
	 0.00000000E+00	 0.00000000E+00	 4.38289000E-13

	 4.38289000E-13	 0.00000000E+00	 0.00000000E+00
	 0.00000000E+00	 4.38289000E-13	 0.00000000E+00
	 0.00000000E+00	 0.00000000E+00	 4.38289000E-13

	 4.42716000E-13	 0.00000000E+00	 0.00000000E+00
	 0.00000000E+00	 4.42716000E-13	 0.00000000E+00
	 0.00000000E+00	 0.00000000E+00	 4.42716000E-13

	 4.40502000E-13	 0.00000000E+00	 0.00000000E+00
	 0.00000000E+00	 4.40502000E-13	 0.00000000E+00
	 0.00000000E+00	 0.00000000E+00	 4.40502000E-13

	 4.51570000E-13	 0.00000000E+00	 0.00000000E+00
	 0.00000000E+00	 4.51570000E-13	 0.00000000E+00
	 0.00000000E+00	 0.00000000E+00	 4.51570000E-13

	 4.42716000E-13	 0.00000000E+00	 0.00000000E+00
	 0.00000000E+00	 4.42716000E-13	 0.00000000E+00
	 0.00000000E+00	 0.00000000E+00	 4.42716000E-13

	 4.51570000E-13	 0.00000000E+00	 0.00000000E+00
	 0.00000000E+00	 4.51570000E-13	 0.00000000E+00
	 0.00000000E+00	 0.00000000E+00	 4.51570000E-13

	 4.38289000E-13	 0.00000000E+00	 0.00000000E+00
	 0.00000000E+00	 4.38289000E-13	 0.00000000E+00
	 0.00000000E+00	 0.00000000E+00	 4.38289000E-13

	 4.42716000E-13	 0.00000000E+00	 0.00000000E+00
	 0.00000000E+00	 4.42716000E-13	 0.00000000E+00
	 0.00000000E+00	 0.00000000E+00	 4.42716000E-13

	 4.38289000E-13	 0.00000000E+00	 0.00000000E+00
	 0.00000000E+00	 4.38289000E-13	 0.00000000E+00
	 0.00000000E+00	 0.00000000E+00	 4.38289000E-13

	 4.38289000E-13	 0.00000000E+00	 0.00000000E+00
	 0.00000000E+00	 4.38289000E-13	 0.00000000E+00
	 0.00000000E+00	 0.00000000E+00	 4.38289000E-13

	 4.38289000E-13	 0.00000000E+00	 0.00000000E+00
	 0.00000000E+00	 4.38289000E-13	 0.00000000E+00
	 0.00000000E+00	 0.00000000E+00	 4.38289000E-13

	 4.44929000E-13	 0.00000000E+00	 0.00000000E+00
	 0.00000000E+00	 4.44929000E-13	 0.00000000E+00
	 0.00000000E+00	 0.00000000E+00	 4.44929000E-13

	 4.38289000E-13	 0.00000000E+00	 0.00000000E+00
	 0.00000000E+00	 4.38289000E-13	 0.00000000E+00
	 0.00000000E+00	 0.00000000E+00	 4.38289000E-13

	 4.38289000E-13	 0.00000000E+00	 0.00000000E+00
	 0.00000000E+00	 4.38289000E-13	 0.00000000E+00
	 0.00000000E+00	 0.00000000E+00	 4.38289000E-13

	 4.38289000E-13	 0.00000000E+00	 0.00000000E+00
	 0.00000000E+00	 4.38289000E-13	 0.00000000E+00
	 0.00000000E+00	 0.00000000E+00	 4.38289000E-13

	 4.38289000E-13	 0.00000000E+00	 0.00000000E+00
	 0.00000000E+00	 4.38289000E-13	 0.00000000E+00
	 0.00000000E+00	 0.00000000E+00	 4.38289000E-13

	 4.38289000E-13	 0.00000000E+00	 0.00000000E+00
	 0.00000000E+00	 4.38289000E-13	 0.00000000E+00
	 0.00000000E+00	 0.00000000E+00	 4.38289000E-13

	 4.40502000E-13	 0.00000000E+00	 0.00000000E+00
	 0.00000000E+00	 4.40502000E-13	 0.00000000E+00
	 0.00000000E+00	 0.00000000E+00	 4.40502000E-13

	 4.38289000E-13	 0.00000000E+00	 0.00000000E+00
	 0.00000000E+00	 4.38289000E-13	 0.00000000E+00
	 0.00000000E+00	 0.00000000E+00	 4.38289000E-13

	 4.38289000E-13	 0.00000000E+00	 0.00000000E+00
	 0.00000000E+00	 4.38289000E-13	 0.00000000E+00
	 0.00000000E+00	 0.00000000E+00	 4.38289000E-13

	 4.42716000E-13	 0.00000000E+00	 0.00000000E+00
	 0.00000000E+00	 4.42716000E-13	 0.00000000E+00
	 0.00000000E+00	 0.00000000E+00	 4.42716000E-13

	 4.38289000E-13	 0.00000000E+00	 0.00000000E+00
	 0.00000000E+00	 4.38289000E-13	 0.00000000E+00
	 0.00000000E+00	 0.00000000E+00	 4.38289000E-13

	 4.38289000E-13	 0.00000000E+00	 0.00000000E+00
	 0.00000000E+00	 4.38289000E-13	 0.00000000E+00
	 0.00000000E+00	 0.00000000E+00	 4.38289000E-13

	 4.38289000E-13	 0.00000000E+00	 0.00000000E+00
	 0.00000000E+00	 4.38289000E-13	 0.00000000E+00
	 0.00000000E+00	 0.00000000E+00	 4.38289000E-13

	 4.38289000E-13	 0.00000000E+00	 0.00000000E+00
	 0.00000000E+00	 4.38289000E-13	 0.00000000E+00
	 0.00000000E+00	 0.00000000E+00	 4.38289000E-13

	 4.38289000E-13	 0.00000000E+00	 0.00000000E+00
	 0.00000000E+00	 4.38289000E-13	 0.00000000E+00
	 0.00000000E+00	 0.00000000E+00	 4.38289000E-13

	 4.38289000E-13	 0.00000000E+00	 0.00000000E+00
	 0.00000000E+00	 4.38289000E-13	 0.00000000E+00
	 0.00000000E+00	 0.00000000E+00	 4.38289000E-13

	 4.40502000E-13	 0.00000000E+00	 0.00000000E+00
	 0.00000000E+00	 4.40502000E-13	 0.00000000E+00
	 0.00000000E+00	 0.00000000E+00	 4.40502000E-13

	 4.38289000E-13	 0.00000000E+00	 0.00000000E+00
	 0.00000000E+00	 4.38289000E-13	 0.00000000E+00
	 0.00000000E+00	 0.00000000E+00	 4.38289000E-13

	 4.49357000E-13	 0.00000000E+00	 0.00000000E+00
	 0.00000000E+00	 4.49357000E-13	 0.00000000E+00
	 0.00000000E+00	 0.00000000E+00	 4.49357000E-13

	 4.38289000E-13	 0.00000000E+00	 0.00000000E+00
	 0.00000000E+00	 4.38289000E-13	 0.00000000E+00
	 0.00000000E+00	 0.00000000E+00	 4.38289000E-13

	 4.38289000E-13	 0.00000000E+00	 0.00000000E+00
	 0.00000000E+00	 4.38289000E-13	 0.00000000E+00
	 0.00000000E+00	 0.00000000E+00	 4.38289000E-13

	 4.38289000E-13	 0.00000000E+00	 0.00000000E+00
	 0.00000000E+00	 4.38289000E-13	 0.00000000E+00
	 0.00000000E+00	 0.00000000E+00	 4.38289000E-13

	 4.38289000E-13	 0.00000000E+00	 0.00000000E+00
	 0.00000000E+00	 4.38289000E-13	 0.00000000E+00
	 0.00000000E+00	 0.00000000E+00	 4.38289000E-13

	 4.38289000E-13	 0.00000000E+00	 0.00000000E+00
	 0.00000000E+00	 4.38289000E-13	 0.00000000E+00
	 0.00000000E+00	 0.00000000E+00	 4.38289000E-13

	 4.38289000E-13	 0.00000000E+00	 0.00000000E+00
	 0.00000000E+00	 4.38289000E-13	 0.00000000E+00
	 0.00000000E+00	 0.00000000E+00	 4.38289000E-13

	 4.38289000E-13	 0.00000000E+00	 0.00000000E+00
	 0.00000000E+00	 4.38289000E-13	 0.00000000E+00
	 0.00000000E+00	 0.00000000E+00	 4.38289000E-13

	 4.38289000E-13	 0.00000000E+00	 0.00000000E+00
	 0.00000000E+00	 4.38289000E-13	 0.00000000E+00
	 0.00000000E+00	 0.00000000E+00	 4.38289000E-13

	 4.42716000E-13	 0.00000000E+00	 0.00000000E+00
	 0.00000000E+00	 4.42716000E-13	 0.00000000E+00
	 0.00000000E+00	 0.00000000E+00	 4.42716000E-13

	 4.38289000E-13	 0.00000000E+00	 0.00000000E+00
	 0.00000000E+00	 4.38289000E-13	 0.00000000E+00
	 0.00000000E+00	 0.00000000E+00	 4.38289000E-13

	 4.38289000E-13	 0.00000000E+00	 0.00000000E+00
	 0.00000000E+00	 4.38289000E-13	 0.00000000E+00
	 0.00000000E+00	 0.00000000E+00	 4.38289000E-13

	 4.38289000E-13	 0.00000000E+00	 0.00000000E+00
	 0.00000000E+00	 4.38289000E-13	 0.00000000E+00
	 0.00000000E+00	 0.00000000E+00	 4.38289000E-13

	 4.38289000E-13	 0.00000000E+00	 0.00000000E+00
	 0.00000000E+00	 4.38289000E-13	 0.00000000E+00
	 0.00000000E+00	 0.00000000E+00	 4.38289000E-13

	 4.42716000E-13	 0.00000000E+00	 0.00000000E+00
	 0.00000000E+00	 4.42716000E-13	 0.00000000E+00
	 0.00000000E+00	 0.00000000E+00	 4.42716000E-13

	 4.42716000E-13	 0.00000000E+00	 0.00000000E+00
	 0.00000000E+00	 4.42716000E-13	 0.00000000E+00
	 0.00000000E+00	 0.00000000E+00	 4.42716000E-13

	 4.38289000E-13	 0.00000000E+00	 0.00000000E+00
	 0.00000000E+00	 4.38289000E-13	 0.00000000E+00
	 0.00000000E+00	 0.00000000E+00	 4.38289000E-13

	 4.38289000E-13	 0.00000000E+00	 0.00000000E+00
	 0.00000000E+00	 4.38289000E-13	 0.00000000E+00
	 0.00000000E+00	 0.00000000E+00	 4.38289000E-13

	 4.38289000E-13	 0.00000000E+00	 0.00000000E+00
	 0.00000000E+00	 4.38289000E-13	 0.00000000E+00
	 0.00000000E+00	 0.00000000E+00	 4.38289000E-13

	 4.38289000E-13	 0.00000000E+00	 0.00000000E+00
	 0.00000000E+00	 4.38289000E-13	 0.00000000E+00
	 0.00000000E+00	 0.00000000E+00	 4.38289000E-13

	 4.38289000E-13	 0.00000000E+00	 0.00000000E+00
	 0.00000000E+00	 4.38289000E-13	 0.00000000E+00
	 0.00000000E+00	 0.00000000E+00	 4.38289000E-13

	 4.38289000E-13	 0.00000000E+00	 0.00000000E+00
	 0.00000000E+00	 4.38289000E-13	 0.00000000E+00
	 0.00000000E+00	 0.00000000E+00	 4.38289000E-13

	 4.64852000E-13	 0.00000000E+00	 0.00000000E+00
	 0.00000000E+00	 4.64852000E-13	 0.00000000E+00
	 0.00000000E+00	 0.00000000E+00	 4.64852000E-13

	 4.64852000E-13	 0.00000000E+00	 0.00000000E+00
	 0.00000000E+00	 4.64852000E-13	 0.00000000E+00
	 0.00000000E+00	 0.00000000E+00	 4.64852000E-13

	 4.64852000E-13	 0.00000000E+00	 0.00000000E+00
	 0.00000000E+00	 4.64852000E-13	 0.00000000E+00
	 0.00000000E+00	 0.00000000E+00	 4.64852000E-13

	 4.64852000E-13	 0.00000000E+00	 0.00000000E+00
	 0.00000000E+00	 4.64852000E-13	 0.00000000E+00
	 0.00000000E+00	 0.00000000E+00	 4.64852000E-13

	 4.64852000E-13	 0.00000000E+00	 0.00000000E+00
	 0.00000000E+00	 4.64852000E-13	 0.00000000E+00
	 0.00000000E+00	 0.00000000E+00	 4.64852000E-13

	 4.64852000E-13	 0.00000000E+00	 0.00000000E+00
	 0.00000000E+00	 4.64852000E-13	 0.00000000E+00
	 0.00000000E+00	 0.00000000E+00	 4.64852000E-13

	 4.64852000E-13	 0.00000000E+00	 0.00000000E+00
	 0.00000000E+00	 4.64852000E-13	 0.00000000E+00
	 0.00000000E+00	 0.00000000E+00	 4.64852000E-13

	 4.64852000E-13	 0.00000000E+00	 0.00000000E+00
	 0.00000000E+00	 4.64852000E-13	 0.00000000E+00
	 0.00000000E+00	 0.00000000E+00	 4.64852000E-13

	 4.64852000E-13	 0.00000000E+00	 0.00000000E+00
	 0.00000000E+00	 4.64852000E-13	 0.00000000E+00
	 0.00000000E+00	 0.00000000E+00	 4.64852000E-13

	 4.64852000E-13	 0.00000000E+00	 0.00000000E+00
	 0.00000000E+00	 4.64852000E-13	 0.00000000E+00
	 0.00000000E+00	 0.00000000E+00	 4.64852000E-13

	 4.64852000E-13	 0.00000000E+00	 0.00000000E+00
	 0.00000000E+00	 4.64852000E-13	 0.00000000E+00
	 0.00000000E+00	 0.00000000E+00	 4.64852000E-13

	 4.64852000E-13	 0.00000000E+00	 0.00000000E+00
	 0.00000000E+00	 4.64852000E-13	 0.00000000E+00
	 0.00000000E+00	 0.00000000E+00	 4.64852000E-13

	 4.64852000E-13	 0.00000000E+00	 0.00000000E+00
	 0.00000000E+00	 4.64852000E-13	 0.00000000E+00
	 0.00000000E+00	 0.00000000E+00	 4.64852000E-13

	 4.64852000E-13	 0.00000000E+00	 0.00000000E+00
	 0.00000000E+00	 4.64852000E-13	 0.00000000E+00
	 0.00000000E+00	 0.00000000E+00	 4.64852000E-13

	 4.64852000E-13	 0.00000000E+00	 0.00000000E+00
	 0.00000000E+00	 4.64852000E-13	 0.00000000E+00
	 0.00000000E+00	 0.00000000E+00	 4.64852000E-13

	 4.64852000E-13	 0.00000000E+00	 0.00000000E+00
	 0.00000000E+00	 4.64852000E-13	 0.00000000E+00
	 0.00000000E+00	 0.00000000E+00	 4.64852000E-13

	 4.64852000E-13	 0.00000000E+00	 0.00000000E+00
	 0.00000000E+00	 4.64852000E-13	 0.00000000E+00
	 0.00000000E+00	 0.00000000E+00	 4.64852000E-13

	 4.64852000E-13	 0.00000000E+00	 0.00000000E+00
	 0.00000000E+00	 4.64852000E-13	 0.00000000E+00
	 0.00000000E+00	 0.00000000E+00	 4.64852000E-13

	 4.64852000E-13	 0.00000000E+00	 0.00000000E+00
	 0.00000000E+00	 4.64852000E-13	 0.00000000E+00
	 0.00000000E+00	 0.00000000E+00	 4.64852000E-13

	 4.64852000E-13	 0.00000000E+00	 0.00000000E+00
	 0.00000000E+00	 4.64852000E-13	 0.00000000E+00
	 0.00000000E+00	 0.00000000E+00	 4.64852000E-13

	 4.64852000E-13	 0.00000000E+00	 0.00000000E+00
	 0.00000000E+00	 4.64852000E-13	 0.00000000E+00
	 0.00000000E+00	 0.00000000E+00	 4.64852000E-13

	 4.64852000E-13	 0.00000000E+00	 0.00000000E+00
	 0.00000000E+00	 4.64852000E-13	 0.00000000E+00
	 0.00000000E+00	 0.00000000E+00	 4.64852000E-13

	 4.64852000E-13	 0.00000000E+00	 0.00000000E+00
	 0.00000000E+00	 4.64852000E-13	 0.00000000E+00
	 0.00000000E+00	 0.00000000E+00	 4.64852000E-13

	 4.64852000E-13	 0.00000000E+00	 0.00000000E+00
	 0.00000000E+00	 4.64852000E-13	 0.00000000E+00
	 0.00000000E+00	 0.00000000E+00	 4.64852000E-13

	 4.64852000E-13	 0.00000000E+00	 0.00000000E+00
	 0.00000000E+00	 4.64852000E-13	 0.00000000E+00
	 0.00000000E+00	 0.00000000E+00	 4.64852000E-13

	 4.64852000E-13	 0.00000000E+00	 0.00000000E+00
	 0.00000000E+00	 4.64852000E-13	 0.00000000E+00
	 0.00000000E+00	 0.00000000E+00	 4.64852000E-13

	 4.64852000E-13	 0.00000000E+00	 0.00000000E+00
	 0.00000000E+00	 4.64852000E-13	 0.00000000E+00
	 0.00000000E+00	 0.00000000E+00	 4.64852000E-13

	 4.64852000E-13	 0.00000000E+00	 0.00000000E+00
	 0.00000000E+00	 4.64852000E-13	 0.00000000E+00
	 0.00000000E+00	 0.00000000E+00	 4.64852000E-13

	 4.64852000E-13	 0.00000000E+00	 0.00000000E+00
	 0.00000000E+00	 4.64852000E-13	 0.00000000E+00
	 0.00000000E+00	 0.00000000E+00	 4.64852000E-13

	 4.64852000E-13	 0.00000000E+00	 0.00000000E+00
	 0.00000000E+00	 4.64852000E-13	 0.00000000E+00
	 0.00000000E+00	 0.00000000E+00	 4.64852000E-13

	 4.64852000E-13	 0.00000000E+00	 0.00000000E+00
	 0.00000000E+00	 4.64852000E-13	 0.00000000E+00
	 0.00000000E+00	 0.00000000E+00	 4.64852000E-13

	 4.64852000E-13	 0.00000000E+00	 0.00000000E+00
	 0.00000000E+00	 4.64852000E-13	 0.00000000E+00
	 0.00000000E+00	 0.00000000E+00	 4.64852000E-13

	 4.64852000E-13	 0.00000000E+00	 0.00000000E+00
	 0.00000000E+00	 4.64852000E-13	 0.00000000E+00
	 0.00000000E+00	 0.00000000E+00	 4.64852000E-13

	 4.64852000E-13	 0.00000000E+00	 0.00000000E+00
	 0.00000000E+00	 4.64852000E-13	 0.00000000E+00
	 0.00000000E+00	 0.00000000E+00	 4.64852000E-13

	 4.64852000E-13	 0.00000000E+00	 0.00000000E+00
	 0.00000000E+00	 4.64852000E-13	 0.00000000E+00
	 0.00000000E+00	 0.00000000E+00	 4.64852000E-13

	 4.64852000E-13	 0.00000000E+00	 0.00000000E+00
	 0.00000000E+00	 4.64852000E-13	 0.00000000E+00
	 0.00000000E+00	 0.00000000E+00	 4.64852000E-13

	 4.64852000E-13	 0.00000000E+00	 0.00000000E+00
	 0.00000000E+00	 4.64852000E-13	 0.00000000E+00
	 0.00000000E+00	 0.00000000E+00	 4.64852000E-13

	 4.64852000E-13	 0.00000000E+00	 0.00000000E+00
	 0.00000000E+00	 4.64852000E-13	 0.00000000E+00
	 0.00000000E+00	 0.00000000E+00	 4.64852000E-13

	 4.64852000E-13	 0.00000000E+00	 0.00000000E+00
	 0.00000000E+00	 4.64852000E-13	 0.00000000E+00
	 0.00000000E+00	 0.00000000E+00	 4.64852000E-13

	 4.64852000E-13	 0.00000000E+00	 0.00000000E+00
	 0.00000000E+00	 4.64852000E-13	 0.00000000E+00
	 0.00000000E+00	 0.00000000E+00	 4.64852000E-13

	 4.64852000E-13	 0.00000000E+00	 0.00000000E+00
	 0.00000000E+00	 4.64852000E-13	 0.00000000E+00
	 0.00000000E+00	 0.00000000E+00	 4.64852000E-13

	 4.64852000E-13	 0.00000000E+00	 0.00000000E+00
	 0.00000000E+00	 4.64852000E-13	 0.00000000E+00
	 0.00000000E+00	 0.00000000E+00	 4.64852000E-13

	 4.64852000E-13	 0.00000000E+00	 0.00000000E+00
	 0.00000000E+00	 4.64852000E-13	 0.00000000E+00
	 0.00000000E+00	 0.00000000E+00	 4.64852000E-13

	 4.64852000E-13	 0.00000000E+00	 0.00000000E+00
	 0.00000000E+00	 4.64852000E-13	 0.00000000E+00
	 0.00000000E+00	 0.00000000E+00	 4.64852000E-13

	 4.64852000E-13	 0.00000000E+00	 0.00000000E+00
	 0.00000000E+00	 4.64852000E-13	 0.00000000E+00
	 0.00000000E+00	 0.00000000E+00	 4.64852000E-13

	 4.64852000E-13	 0.00000000E+00	 0.00000000E+00
	 0.00000000E+00	 4.64852000E-13	 0.00000000E+00
	 0.00000000E+00	 0.00000000E+00	 4.64852000E-13

	 4.64852000E-13	 0.00000000E+00	 0.00000000E+00
	 0.00000000E+00	 4.64852000E-13	 0.00000000E+00
	 0.00000000E+00	 0.00000000E+00	 4.64852000E-13

	 4.64852000E-13	 0.00000000E+00	 0.00000000E+00
	 0.00000000E+00	 4.64852000E-13	 0.00000000E+00
	 0.00000000E+00	 0.00000000E+00	 4.64852000E-13

	 4.64852000E-13	 0.00000000E+00	 0.00000000E+00
	 0.00000000E+00	 4.64852000E-13	 0.00000000E+00
	 0.00000000E+00	 0.00000000E+00	 4.64852000E-13

	 4.64852000E-13	 0.00000000E+00	 0.00000000E+00
	 0.00000000E+00	 4.64852000E-13	 0.00000000E+00
	 0.00000000E+00	 0.00000000E+00	 4.64852000E-13

	 4.64852000E-13	 0.00000000E+00	 0.00000000E+00
	 0.00000000E+00	 4.64852000E-13	 0.00000000E+00
	 0.00000000E+00	 0.00000000E+00	 4.64852000E-13

	 4.64852000E-13	 0.00000000E+00	 0.00000000E+00
	 0.00000000E+00	 4.64852000E-13	 0.00000000E+00
	 0.00000000E+00	 0.00000000E+00	 4.64852000E-13

	 4.64852000E-13	 0.00000000E+00	 0.00000000E+00
	 0.00000000E+00	 4.64852000E-13	 0.00000000E+00
	 0.00000000E+00	 0.00000000E+00	 4.64852000E-13

	 4.64852000E-13	 0.00000000E+00	 0.00000000E+00
	 0.00000000E+00	 4.64852000E-13	 0.00000000E+00
	 0.00000000E+00	 0.00000000E+00	 4.64852000E-13

	 4.64852000E-13	 0.00000000E+00	 0.00000000E+00
	 0.00000000E+00	 4.64852000E-13	 0.00000000E+00
	 0.00000000E+00	 0.00000000E+00	 4.64852000E-13

	 4.64852000E-13	 0.00000000E+00	 0.00000000E+00
	 0.00000000E+00	 4.64852000E-13	 0.00000000E+00
	 0.00000000E+00	 0.00000000E+00	 4.64852000E-13

	 4.64852000E-13	 0.00000000E+00	 0.00000000E+00
	 0.00000000E+00	 4.64852000E-13	 0.00000000E+00
	 0.00000000E+00	 0.00000000E+00	 4.64852000E-13

	 4.64852000E-13	 0.00000000E+00	 0.00000000E+00
	 0.00000000E+00	 4.64852000E-13	 0.00000000E+00
	 0.00000000E+00	 0.00000000E+00	 4.64852000E-13

	 4.64852000E-13	 0.00000000E+00	 0.00000000E+00
	 0.00000000E+00	 4.64852000E-13	 0.00000000E+00
	 0.00000000E+00	 0.00000000E+00	 4.64852000E-13

	 4.64852000E-13	 0.00000000E+00	 0.00000000E+00
	 0.00000000E+00	 4.64852000E-13	 0.00000000E+00
	 0.00000000E+00	 0.00000000E+00	 4.64852000E-13

	 4.64852000E-13	 0.00000000E+00	 0.00000000E+00
	 0.00000000E+00	 4.64852000E-13	 0.00000000E+00
	 0.00000000E+00	 0.00000000E+00	 4.64852000E-13

	 4.64852000E-13	 0.00000000E+00	 0.00000000E+00
	 0.00000000E+00	 4.64852000E-13	 0.00000000E+00
	 0.00000000E+00	 0.00000000E+00	 4.64852000E-13

	 4.64852000E-13	 0.00000000E+00	 0.00000000E+00
	 0.00000000E+00	 4.64852000E-13	 0.00000000E+00
	 0.00000000E+00	 0.00000000E+00	 4.64852000E-13

	 4.64852000E-13	 0.00000000E+00	 0.00000000E+00
	 0.00000000E+00	 4.64852000E-13	 0.00000000E+00
	 0.00000000E+00	 0.00000000E+00	 4.64852000E-13

	 4.64852000E-13	 0.00000000E+00	 0.00000000E+00
	 0.00000000E+00	 4.64852000E-13	 0.00000000E+00
	 0.00000000E+00	 0.00000000E+00	 4.64852000E-13

	 4.64852000E-13	 0.00000000E+00	 0.00000000E+00
	 0.00000000E+00	 4.64852000E-13	 0.00000000E+00
	 0.00000000E+00	 0.00000000E+00	 4.64852000E-13

	 4.64852000E-13	 0.00000000E+00	 0.00000000E+00
	 0.00000000E+00	 4.64852000E-13	 0.00000000E+00
	 0.00000000E+00	 0.00000000E+00	 4.64852000E-13

	 4.64852000E-13	 0.00000000E+00	 0.00000000E+00
	 0.00000000E+00	 4.64852000E-13	 0.00000000E+00
	 0.00000000E+00	 0.00000000E+00	 4.64852000E-13

	 4.64852000E-13	 0.00000000E+00	 0.00000000E+00
	 0.00000000E+00	 4.64852000E-13	 0.00000000E+00
	 0.00000000E+00	 0.00000000E+00	 4.64852000E-13

	 4.64852000E-13	 0.00000000E+00	 0.00000000E+00
	 0.00000000E+00	 4.64852000E-13	 0.00000000E+00
	 0.00000000E+00	 0.00000000E+00	 4.64852000E-13

	 4.64852000E-13	 0.00000000E+00	 0.00000000E+00
	 0.00000000E+00	 4.64852000E-13	 0.00000000E+00
	 0.00000000E+00	 0.00000000E+00	 4.64852000E-13

	 4.64852000E-13	 0.00000000E+00	 0.00000000E+00
	 0.00000000E+00	 4.64852000E-13	 0.00000000E+00
	 0.00000000E+00	 0.00000000E+00	 4.64852000E-13

	 4.64852000E-13	 0.00000000E+00	 0.00000000E+00
	 0.00000000E+00	 4.64852000E-13	 0.00000000E+00
	 0.00000000E+00	 0.00000000E+00	 4.64852000E-13

	 4.64852000E-13	 0.00000000E+00	 0.00000000E+00
	 0.00000000E+00	 4.64852000E-13	 0.00000000E+00
	 0.00000000E+00	 0.00000000E+00	 4.64852000E-13

	 4.64852000E-13	 0.00000000E+00	 0.00000000E+00
	 0.00000000E+00	 4.64852000E-13	 0.00000000E+00
	 0.00000000E+00	 0.00000000E+00	 4.64852000E-13

	 4.64852000E-13	 0.00000000E+00	 0.00000000E+00
	 0.00000000E+00	 4.64852000E-13	 0.00000000E+00
	 0.00000000E+00	 0.00000000E+00	 4.64852000E-13

	 4.64852000E-13	 0.00000000E+00	 0.00000000E+00
	 0.00000000E+00	 4.64852000E-13	 0.00000000E+00
	 0.00000000E+00	 0.00000000E+00	 4.64852000E-13

	 4.64852000E-13	 0.00000000E+00	 0.00000000E+00
	 0.00000000E+00	 4.64852000E-13	 0.00000000E+00
	 0.00000000E+00	 0.00000000E+00	 4.64852000E-13

	 4.64852000E-13	 0.00000000E+00	 0.00000000E+00
	 0.00000000E+00	 4.64852000E-13	 0.00000000E+00
	 0.00000000E+00	 0.00000000E+00	 4.64852000E-13

	 4.64852000E-13	 0.00000000E+00	 0.00000000E+00
	 0.00000000E+00	 4.64852000E-13	 0.00000000E+00
	 0.00000000E+00	 0.00000000E+00	 4.64852000E-13

	 4.64852000E-13	 0.00000000E+00	 0.00000000E+00
	 0.00000000E+00	 4.64852000E-13	 0.00000000E+00
	 0.00000000E+00	 0.00000000E+00	 4.64852000E-13

	 4.64852000E-13	 0.00000000E+00	 0.00000000E+00
	 0.00000000E+00	 4.64852000E-13	 0.00000000E+00
	 0.00000000E+00	 0.00000000E+00	 4.64852000E-13

	 4.64852000E-13	 0.00000000E+00	 0.00000000E+00
	 0.00000000E+00	 4.64852000E-13	 0.00000000E+00
	 0.00000000E+00	 0.00000000E+00	 4.64852000E-13

	 4.64852000E-13	 0.00000000E+00	 0.00000000E+00
	 0.00000000E+00	 4.64852000E-13	 0.00000000E+00
	 0.00000000E+00	 0.00000000E+00	 4.64852000E-13

	 4.64852000E-13	 0.00000000E+00	 0.00000000E+00
	 0.00000000E+00	 4.64852000E-13	 0.00000000E+00
	 0.00000000E+00	 0.00000000E+00	 4.64852000E-13

	 4.64852000E-13	 0.00000000E+00	 0.00000000E+00
	 0.00000000E+00	 4.64852000E-13	 0.00000000E+00
	 0.00000000E+00	 0.00000000E+00	 4.64852000E-13

	 4.64852000E-13	 0.00000000E+00	 0.00000000E+00
	 0.00000000E+00	 4.64852000E-13	 0.00000000E+00
	 0.00000000E+00	 0.00000000E+00	 4.64852000E-13

	 4.64852000E-13	 0.00000000E+00	 0.00000000E+00
	 0.00000000E+00	 4.64852000E-13	 0.00000000E+00
	 0.00000000E+00	 0.00000000E+00	 4.64852000E-13

	 4.64852000E-13	 0.00000000E+00	 0.00000000E+00
	 0.00000000E+00	 4.64852000E-13	 0.00000000E+00
	 0.00000000E+00	 0.00000000E+00	 4.64852000E-13

	 4.64852000E-13	 0.00000000E+00	 0.00000000E+00
	 0.00000000E+00	 4.64852000E-13	 0.00000000E+00
	 0.00000000E+00	 0.00000000E+00	 4.64852000E-13

	 4.64852000E-13	 0.00000000E+00	 0.00000000E+00
	 0.00000000E+00	 4.64852000E-13	 0.00000000E+00
	 0.00000000E+00	 0.00000000E+00	 4.64852000E-13

	 4.64852000E-13	 0.00000000E+00	 0.00000000E+00
	 0.00000000E+00	 4.64852000E-13	 0.00000000E+00
	 0.00000000E+00	 0.00000000E+00	 4.64852000E-13

	 4.64852000E-13	 0.00000000E+00	 0.00000000E+00
	 0.00000000E+00	 4.64852000E-13	 0.00000000E+00
	 0.00000000E+00	 0.00000000E+00	 4.64852000E-13

	 4.64852000E-13	 0.00000000E+00	 0.00000000E+00
	 0.00000000E+00	 4.64852000E-13	 0.00000000E+00
	 0.00000000E+00	 0.00000000E+00	 4.64852000E-13

	 4.64852000E-13	 0.00000000E+00	 0.00000000E+00
	 0.00000000E+00	 4.64852000E-13	 0.00000000E+00
	 0.00000000E+00	 0.00000000E+00	 4.64852000E-13

	 4.64852000E-13	 0.00000000E+00	 0.00000000E+00
	 0.00000000E+00	 4.64852000E-13	 0.00000000E+00
	 0.00000000E+00	 0.00000000E+00	 4.64852000E-13

	 4.64852000E-13	 0.00000000E+00	 0.00000000E+00
	 0.00000000E+00	 4.64852000E-13	 0.00000000E+00
	 0.00000000E+00	 0.00000000E+00	 4.64852000E-13

	 4.64852000E-13	 0.00000000E+00	 0.00000000E+00
	 0.00000000E+00	 4.64852000E-13	 0.00000000E+00
	 0.00000000E+00	 0.00000000E+00	 4.64852000E-13

	 4.64852000E-13	 0.00000000E+00	 0.00000000E+00
	 0.00000000E+00	 4.64852000E-13	 0.00000000E+00
	 0.00000000E+00	 0.00000000E+00	 4.64852000E-13

	 4.64852000E-13	 0.00000000E+00	 0.00000000E+00
	 0.00000000E+00	 4.64852000E-13	 0.00000000E+00
	 0.00000000E+00	 0.00000000E+00	 4.64852000E-13

	 4.64852000E-13	 0.00000000E+00	 0.00000000E+00
	 0.00000000E+00	 4.64852000E-13	 0.00000000E+00
	 0.00000000E+00	 0.00000000E+00	 4.64852000E-13

	 4.64852000E-13	 0.00000000E+00	 0.00000000E+00
	 0.00000000E+00	 4.64852000E-13	 0.00000000E+00
	 0.00000000E+00	 0.00000000E+00	 4.64852000E-13

	 4.64852000E-13	 0.00000000E+00	 0.00000000E+00
	 0.00000000E+00	 4.64852000E-13	 0.00000000E+00
	 0.00000000E+00	 0.00000000E+00	 4.64852000E-13

	 4.64852000E-13	 0.00000000E+00	 0.00000000E+00
	 0.00000000E+00	 4.64852000E-13	 0.00000000E+00
	 0.00000000E+00	 0.00000000E+00	 4.64852000E-13

	 4.64852000E-13	 0.00000000E+00	 0.00000000E+00
	 0.00000000E+00	 4.64852000E-13	 0.00000000E+00
	 0.00000000E+00	 0.00000000E+00	 4.64852000E-13

	 4.64852000E-13	 0.00000000E+00	 0.00000000E+00
	 0.00000000E+00	 4.64852000E-13	 0.00000000E+00
	 0.00000000E+00	 0.00000000E+00	 4.64852000E-13

	 4.64852000E-13	 0.00000000E+00	 0.00000000E+00
	 0.00000000E+00	 4.64852000E-13	 0.00000000E+00
	 0.00000000E+00	 0.00000000E+00	 4.64852000E-13

	 4.64852000E-13	 0.00000000E+00	 0.00000000E+00
	 0.00000000E+00	 4.64852000E-13	 0.00000000E+00
	 0.00000000E+00	 0.00000000E+00	 4.64852000E-13

	 4.64852000E-13	 0.00000000E+00	 0.00000000E+00
	 0.00000000E+00	 4.64852000E-13	 0.00000000E+00
	 0.00000000E+00	 0.00000000E+00	 4.64852000E-13

	 4.64852000E-13	 0.00000000E+00	 0.00000000E+00
	 0.00000000E+00	 4.64852000E-13	 0.00000000E+00
	 0.00000000E+00	 0.00000000E+00	 4.64852000E-13

	 4.64852000E-13	 0.00000000E+00	 0.00000000E+00
	 0.00000000E+00	 4.64852000E-13	 0.00000000E+00
	 0.00000000E+00	 0.00000000E+00	 4.64852000E-13

	 4.64852000E-13	 0.00000000E+00	 0.00000000E+00
	 0.00000000E+00	 4.64852000E-13	 0.00000000E+00
	 0.00000000E+00	 0.00000000E+00	 4.64852000E-13

	 4.64852000E-13	 0.00000000E+00	 0.00000000E+00
	 0.00000000E+00	 4.64852000E-13	 0.00000000E+00
	 0.00000000E+00	 0.00000000E+00	 4.64852000E-13

	 4.64852000E-13	 0.00000000E+00	 0.00000000E+00
	 0.00000000E+00	 4.64852000E-13	 0.00000000E+00
	 0.00000000E+00	 0.00000000E+00	 4.64852000E-13

	 4.64852000E-13	 0.00000000E+00	 0.00000000E+00
	 0.00000000E+00	 4.64852000E-13	 0.00000000E+00
	 0.00000000E+00	 0.00000000E+00	 4.64852000E-13

	 4.64852000E-13	 0.00000000E+00	 0.00000000E+00
	 0.00000000E+00	 4.64852000E-13	 0.00000000E+00
	 0.00000000E+00	 0.00000000E+00	 4.64852000E-13

	 4.64852000E-13	 0.00000000E+00	 0.00000000E+00
	 0.00000000E+00	 4.64852000E-13	 0.00000000E+00
	 0.00000000E+00	 0.00000000E+00	 4.64852000E-13

	 4.64852000E-13	 0.00000000E+00	 0.00000000E+00
	 0.00000000E+00	 4.64852000E-13	 0.00000000E+00
	 0.00000000E+00	 0.00000000E+00	 4.64852000E-13

	 4.64852000E-13	 0.00000000E+00	 0.00000000E+00
	 0.00000000E+00	 4.64852000E-13	 0.00000000E+00
	 0.00000000E+00	 0.00000000E+00	 4.64852000E-13

	 4.64852000E-13	 0.00000000E+00	 0.00000000E+00
	 0.00000000E+00	 4.64852000E-13	 0.00000000E+00
	 0.00000000E+00	 0.00000000E+00	 4.64852000E-13

	 4.64852000E-13	 0.00000000E+00	 0.00000000E+00
	 0.00000000E+00	 4.64852000E-13	 0.00000000E+00
	 0.00000000E+00	 0.00000000E+00	 4.64852000E-13

	 4.64852000E-13	 0.00000000E+00	 0.00000000E+00
	 0.00000000E+00	 4.64852000E-13	 0.00000000E+00
	 0.00000000E+00	 0.00000000E+00	 4.64852000E-13

	 4.64852000E-13	 0.00000000E+00	 0.00000000E+00
	 0.00000000E+00	 4.64852000E-13	 0.00000000E+00
	 0.00000000E+00	 0.00000000E+00	 4.64852000E-13

	 4.64852000E-13	 0.00000000E+00	 0.00000000E+00
	 0.00000000E+00	 4.64852000E-13	 0.00000000E+00
	 0.00000000E+00	 0.00000000E+00	 4.64852000E-13

	 4.64852000E-13	 0.00000000E+00	 0.00000000E+00
	 0.00000000E+00	 4.64852000E-13	 0.00000000E+00
	 0.00000000E+00	 0.00000000E+00	 4.64852000E-13

	 4.64852000E-13	 0.00000000E+00	 0.00000000E+00
	 0.00000000E+00	 4.64852000E-13	 0.00000000E+00
	 0.00000000E+00	 0.00000000E+00	 4.64852000E-13

	 4.64852000E-13	 0.00000000E+00	 0.00000000E+00
	 0.00000000E+00	 4.64852000E-13	 0.00000000E+00
	 0.00000000E+00	 0.00000000E+00	 4.64852000E-13

	 4.64852000E-13	 0.00000000E+00	 0.00000000E+00
	 0.00000000E+00	 4.64852000E-13	 0.00000000E+00
	 0.00000000E+00	 0.00000000E+00	 4.64852000E-13

	 4.64852000E-13	 0.00000000E+00	 0.00000000E+00
	 0.00000000E+00	 4.64852000E-13	 0.00000000E+00
	 0.00000000E+00	 0.00000000E+00	 4.64852000E-13

	 4.64852000E-13	 0.00000000E+00	 0.00000000E+00
	 0.00000000E+00	 4.64852000E-13	 0.00000000E+00
	 0.00000000E+00	 0.00000000E+00	 4.64852000E-13

	 4.64852000E-13	 0.00000000E+00	 0.00000000E+00
	 0.00000000E+00	 4.64852000E-13	 0.00000000E+00
	 0.00000000E+00	 0.00000000E+00	 4.64852000E-13

	 4.64852000E-13	 0.00000000E+00	 0.00000000E+00
	 0.00000000E+00	 4.64852000E-13	 0.00000000E+00
	 0.00000000E+00	 0.00000000E+00	 4.64852000E-13

	 4.64852000E-13	 0.00000000E+00	 0.00000000E+00
	 0.00000000E+00	 4.64852000E-13	 0.00000000E+00
	 0.00000000E+00	 0.00000000E+00	 4.64852000E-13

	 4.64852000E-13	 0.00000000E+00	 0.00000000E+00
	 0.00000000E+00	 4.64852000E-13	 0.00000000E+00
	 0.00000000E+00	 0.00000000E+00	 4.64852000E-13

	 4.64852000E-13	 0.00000000E+00	 0.00000000E+00
	 0.00000000E+00	 4.64852000E-13	 0.00000000E+00
	 0.00000000E+00	 0.00000000E+00	 4.64852000E-13

	 4.64852000E-13	 0.00000000E+00	 0.00000000E+00
	 0.00000000E+00	 4.64852000E-13	 0.00000000E+00
	 0.00000000E+00	 0.00000000E+00	 4.64852000E-13

	 4.64852000E-13	 0.00000000E+00	 0.00000000E+00
	 0.00000000E+00	 4.64852000E-13	 0.00000000E+00
	 0.00000000E+00	 0.00000000E+00	 4.64852000E-13

	 4.64852000E-13	 0.00000000E+00	 0.00000000E+00
	 0.00000000E+00	 4.64852000E-13	 0.00000000E+00
	 0.00000000E+00	 0.00000000E+00	 4.64852000E-13

	 4.64852000E-13	 0.00000000E+00	 0.00000000E+00
	 0.00000000E+00	 4.64852000E-13	 0.00000000E+00
	 0.00000000E+00	 0.00000000E+00	 4.64852000E-13

	 4.64852000E-13	 0.00000000E+00	 0.00000000E+00
	 0.00000000E+00	 4.64852000E-13	 0.00000000E+00
	 0.00000000E+00	 0.00000000E+00	 4.64852000E-13

	 4.64852000E-13	 0.00000000E+00	 0.00000000E+00
	 0.00000000E+00	 4.64852000E-13	 0.00000000E+00
	 0.00000000E+00	 0.00000000E+00	 4.64852000E-13

	 4.64852000E-13	 0.00000000E+00	 0.00000000E+00
	 0.00000000E+00	 4.64852000E-13	 0.00000000E+00
	 0.00000000E+00	 0.00000000E+00	 4.64852000E-13

	 4.64852000E-13	 0.00000000E+00	 0.00000000E+00
	 0.00000000E+00	 4.64852000E-13	 0.00000000E+00
	 0.00000000E+00	 0.00000000E+00	 4.64852000E-13

	 4.64852000E-13	 0.00000000E+00	 0.00000000E+00
	 0.00000000E+00	 4.64852000E-13	 0.00000000E+00
	 0.00000000E+00	 0.00000000E+00	 4.64852000E-13

	 4.64852000E-13	 0.00000000E+00	 0.00000000E+00
	 0.00000000E+00	 4.64852000E-13	 0.00000000E+00
	 0.00000000E+00	 0.00000000E+00	 4.64852000E-13

	 4.64852000E-13	 0.00000000E+00	 0.00000000E+00
	 0.00000000E+00	 4.64852000E-13	 0.00000000E+00
	 0.00000000E+00	 0.00000000E+00	 4.64852000E-13

	 4.64852000E-13	 0.00000000E+00	 0.00000000E+00
	 0.00000000E+00	 4.64852000E-13	 0.00000000E+00
	 0.00000000E+00	 0.00000000E+00	 4.64852000E-13

	 4.64852000E-13	 0.00000000E+00	 0.00000000E+00
	 0.00000000E+00	 4.64852000E-13	 0.00000000E+00
	 0.00000000E+00	 0.00000000E+00	 4.64852000E-13

	 4.64852000E-13	 0.00000000E+00	 0.00000000E+00
	 0.00000000E+00	 4.64852000E-13	 0.00000000E+00
	 0.00000000E+00	 0.00000000E+00	 4.64852000E-13

	 4.64852000E-13	 0.00000000E+00	 0.00000000E+00
	 0.00000000E+00	 4.64852000E-13	 0.00000000E+00
	 0.00000000E+00	 0.00000000E+00	 4.64852000E-13

	 4.64852000E-13	 0.00000000E+00	 0.00000000E+00
	 0.00000000E+00	 4.64852000E-13	 0.00000000E+00
	 0.00000000E+00	 0.00000000E+00	 4.64852000E-13

	 4.64852000E-13	 0.00000000E+00	 0.00000000E+00
	 0.00000000E+00	 4.64852000E-13	 0.00000000E+00
	 0.00000000E+00	 0.00000000E+00	 4.64852000E-13

	 4.64852000E-13	 0.00000000E+00	 0.00000000E+00
	 0.00000000E+00	 4.64852000E-13	 0.00000000E+00
	 0.00000000E+00	 0.00000000E+00	 4.64852000E-13

	 4.64852000E-13	 0.00000000E+00	 0.00000000E+00
	 0.00000000E+00	 4.64852000E-13	 0.00000000E+00
	 0.00000000E+00	 0.00000000E+00	 4.64852000E-13

	 4.64852000E-13	 0.00000000E+00	 0.00000000E+00
	 0.00000000E+00	 4.64852000E-13	 0.00000000E+00
	 0.00000000E+00	 0.00000000E+00	 4.64852000E-13

	 4.64852000E-13	 0.00000000E+00	 0.00000000E+00
	 0.00000000E+00	 4.64852000E-13	 0.00000000E+00
	 0.00000000E+00	 0.00000000E+00	 4.64852000E-13

	 4.64852000E-13	 0.00000000E+00	 0.00000000E+00
	 0.00000000E+00	 4.64852000E-13	 0.00000000E+00
	 0.00000000E+00	 0.00000000E+00	 4.64852000E-13

	 4.64852000E-13	 0.00000000E+00	 0.00000000E+00
	 0.00000000E+00	 4.64852000E-13	 0.00000000E+00
	 0.00000000E+00	 0.00000000E+00	 4.64852000E-13

	 4.64852000E-13	 0.00000000E+00	 0.00000000E+00
	 0.00000000E+00	 4.64852000E-13	 0.00000000E+00
	 0.00000000E+00	 0.00000000E+00	 4.64852000E-13

	 4.64852000E-13	 0.00000000E+00	 0.00000000E+00
	 0.00000000E+00	 4.64852000E-13	 0.00000000E+00
	 0.00000000E+00	 0.00000000E+00	 4.64852000E-13

	 4.64852000E-13	 0.00000000E+00	 0.00000000E+00
	 0.00000000E+00	 4.64852000E-13	 0.00000000E+00
	 0.00000000E+00	 0.00000000E+00	 4.64852000E-13

	 4.64852000E-13	 0.00000000E+00	 0.00000000E+00
	 0.00000000E+00	 4.64852000E-13	 0.00000000E+00
	 0.00000000E+00	 0.00000000E+00	 4.64852000E-13

	 4.64852000E-13	 0.00000000E+00	 0.00000000E+00
	 0.00000000E+00	 4.64852000E-13	 0.00000000E+00
	 0.00000000E+00	 0.00000000E+00	 4.64852000E-13

	 4.64852000E-13	 0.00000000E+00	 0.00000000E+00
	 0.00000000E+00	 4.64852000E-13	 0.00000000E+00
	 0.00000000E+00	 0.00000000E+00	 4.64852000E-13

	 4.64852000E-13	 0.00000000E+00	 0.00000000E+00
	 0.00000000E+00	 4.64852000E-13	 0.00000000E+00
	 0.00000000E+00	 0.00000000E+00	 4.64852000E-13

	 4.64852000E-13	 0.00000000E+00	 0.00000000E+00
	 0.00000000E+00	 4.64852000E-13	 0.00000000E+00
	 0.00000000E+00	 0.00000000E+00	 4.64852000E-13

	 4.64852000E-13	 0.00000000E+00	 0.00000000E+00
	 0.00000000E+00	 4.64852000E-13	 0.00000000E+00
	 0.00000000E+00	 0.00000000E+00	 4.64852000E-13

	 4.64852000E-13	 0.00000000E+00	 0.00000000E+00
	 0.00000000E+00	 4.64852000E-13	 0.00000000E+00
	 0.00000000E+00	 0.00000000E+00	 4.64852000E-13

	 4.64852000E-13	 0.00000000E+00	 0.00000000E+00
	 0.00000000E+00	 4.64852000E-13	 0.00000000E+00
	 0.00000000E+00	 0.00000000E+00	 4.64852000E-13

	 4.64852000E-13	 0.00000000E+00	 0.00000000E+00
	 0.00000000E+00	 4.64852000E-13	 0.00000000E+00
	 0.00000000E+00	 0.00000000E+00	 4.64852000E-13

	 4.64852000E-13	 0.00000000E+00	 0.00000000E+00
	 0.00000000E+00	 4.64852000E-13	 0.00000000E+00
	 0.00000000E+00	 0.00000000E+00	 4.64852000E-13

	 4.64852000E-13	 0.00000000E+00	 0.00000000E+00
	 0.00000000E+00	 4.64852000E-13	 0.00000000E+00
	 0.00000000E+00	 0.00000000E+00	 4.64852000E-13

	 4.64852000E-13	 0.00000000E+00	 0.00000000E+00
	 0.00000000E+00	 4.64852000E-13	 0.00000000E+00
	 0.00000000E+00	 0.00000000E+00	 4.64852000E-13

	 4.64852000E-13	 0.00000000E+00	 0.00000000E+00
	 0.00000000E+00	 4.64852000E-13	 0.00000000E+00
	 0.00000000E+00	 0.00000000E+00	 4.64852000E-13

	 4.64852000E-13	 0.00000000E+00	 0.00000000E+00
	 0.00000000E+00	 4.64852000E-13	 0.00000000E+00
	 0.00000000E+00	 0.00000000E+00	 4.64852000E-13

	 4.64852000E-13	 0.00000000E+00	 0.00000000E+00
	 0.00000000E+00	 4.64852000E-13	 0.00000000E+00
	 0.00000000E+00	 0.00000000E+00	 4.64852000E-13

	 4.64852000E-13	 0.00000000E+00	 0.00000000E+00
	 0.00000000E+00	 4.64852000E-13	 0.00000000E+00
	 0.00000000E+00	 0.00000000E+00	 4.64852000E-13

	 4.64852000E-13	 0.00000000E+00	 0.00000000E+00
	 0.00000000E+00	 4.64852000E-13	 0.00000000E+00
	 0.00000000E+00	 0.00000000E+00	 4.64852000E-13

	 4.64852000E-13	 0.00000000E+00	 0.00000000E+00
	 0.00000000E+00	 4.64852000E-13	 0.00000000E+00
	 0.00000000E+00	 0.00000000E+00	 4.64852000E-13

	 4.64852000E-13	 0.00000000E+00	 0.00000000E+00
	 0.00000000E+00	 4.64852000E-13	 0.00000000E+00
	 0.00000000E+00	 0.00000000E+00	 4.64852000E-13

	 4.64852000E-13	 0.00000000E+00	 0.00000000E+00
	 0.00000000E+00	 4.64852000E-13	 0.00000000E+00
	 0.00000000E+00	 0.00000000E+00	 4.64852000E-13

	 4.64852000E-13	 0.00000000E+00	 0.00000000E+00
	 0.00000000E+00	 4.64852000E-13	 0.00000000E+00
	 0.00000000E+00	 0.00000000E+00	 4.64852000E-13

	 4.64852000E-13	 0.00000000E+00	 0.00000000E+00
	 0.00000000E+00	 4.64852000E-13	 0.00000000E+00
	 0.00000000E+00	 0.00000000E+00	 4.64852000E-13

	 4.64852000E-13	 0.00000000E+00	 0.00000000E+00
	 0.00000000E+00	 4.64852000E-13	 0.00000000E+00
	 0.00000000E+00	 0.00000000E+00	 4.64852000E-13

	 4.64852000E-13	 0.00000000E+00	 0.00000000E+00
	 0.00000000E+00	 4.64852000E-13	 0.00000000E+00
	 0.00000000E+00	 0.00000000E+00	 4.64852000E-13

	 4.64852000E-13	 0.00000000E+00	 0.00000000E+00
	 0.00000000E+00	 4.64852000E-13	 0.00000000E+00
	 0.00000000E+00	 0.00000000E+00	 4.64852000E-13

	 4.64852000E-13	 0.00000000E+00	 0.00000000E+00
	 0.00000000E+00	 4.64852000E-13	 0.00000000E+00
	 0.00000000E+00	 0.00000000E+00	 4.64852000E-13

	 4.64852000E-13	 0.00000000E+00	 0.00000000E+00
	 0.00000000E+00	 4.64852000E-13	 0.00000000E+00
	 0.00000000E+00	 0.00000000E+00	 4.64852000E-13

	 4.64852000E-13	 0.00000000E+00	 0.00000000E+00
	 0.00000000E+00	 4.64852000E-13	 0.00000000E+00
	 0.00000000E+00	 0.00000000E+00	 4.64852000E-13

	 4.64852000E-13	 0.00000000E+00	 0.00000000E+00
	 0.00000000E+00	 4.64852000E-13	 0.00000000E+00
	 0.00000000E+00	 0.00000000E+00	 4.64852000E-13

	 4.64852000E-13	 0.00000000E+00	 0.00000000E+00
	 0.00000000E+00	 4.64852000E-13	 0.00000000E+00
	 0.00000000E+00	 0.00000000E+00	 4.64852000E-13

	 4.64852000E-13	 0.00000000E+00	 0.00000000E+00
	 0.00000000E+00	 4.64852000E-13	 0.00000000E+00
	 0.00000000E+00	 0.00000000E+00	 4.64852000E-13

	 4.64852000E-13	 0.00000000E+00	 0.00000000E+00
	 0.00000000E+00	 4.64852000E-13	 0.00000000E+00
	 0.00000000E+00	 0.00000000E+00	 4.64852000E-13

	 4.64852000E-13	 0.00000000E+00	 0.00000000E+00
	 0.00000000E+00	 4.64852000E-13	 0.00000000E+00
	 0.00000000E+00	 0.00000000E+00	 4.64852000E-13

	 4.64852000E-13	 0.00000000E+00	 0.00000000E+00
	 0.00000000E+00	 4.64852000E-13	 0.00000000E+00
	 0.00000000E+00	 0.00000000E+00	 4.64852000E-13

	 4.64852000E-13	 0.00000000E+00	 0.00000000E+00
	 0.00000000E+00	 4.64852000E-13	 0.00000000E+00
	 0.00000000E+00	 0.00000000E+00	 4.64852000E-13

	 4.64852000E-13	 0.00000000E+00	 0.00000000E+00
	 0.00000000E+00	 4.64852000E-13	 0.00000000E+00
	 0.00000000E+00	 0.00000000E+00	 4.64852000E-13

	 4.64852000E-13	 0.00000000E+00	 0.00000000E+00
	 0.00000000E+00	 4.64852000E-13	 0.00000000E+00
	 0.00000000E+00	 0.00000000E+00	 4.64852000E-13

	 4.64852000E-13	 0.00000000E+00	 0.00000000E+00
	 0.00000000E+00	 4.64852000E-13	 0.00000000E+00
	 0.00000000E+00	 0.00000000E+00	 4.64852000E-13

	 4.64852000E-13	 0.00000000E+00	 0.00000000E+00
	 0.00000000E+00	 4.64852000E-13	 0.00000000E+00
	 0.00000000E+00	 0.00000000E+00	 4.64852000E-13

	 4.64852000E-13	 0.00000000E+00	 0.00000000E+00
	 0.00000000E+00	 4.64852000E-13	 0.00000000E+00
	 0.00000000E+00	 0.00000000E+00	 4.64852000E-13

	 4.64852000E-13	 0.00000000E+00	 0.00000000E+00
	 0.00000000E+00	 4.64852000E-13	 0.00000000E+00
	 0.00000000E+00	 0.00000000E+00	 4.64852000E-13

	 4.64852000E-13	 0.00000000E+00	 0.00000000E+00
	 0.00000000E+00	 4.64852000E-13	 0.00000000E+00
	 0.00000000E+00	 0.00000000E+00	 4.64852000E-13

	 4.64852000E-13	 0.00000000E+00	 0.00000000E+00
	 0.00000000E+00	 4.64852000E-13	 0.00000000E+00
	 0.00000000E+00	 0.00000000E+00	 4.64852000E-13

	 4.64852000E-13	 0.00000000E+00	 0.00000000E+00
	 0.00000000E+00	 4.64852000E-13	 0.00000000E+00
	 0.00000000E+00	 0.00000000E+00	 4.64852000E-13

	 4.58211000E-13	 0.00000000E+00	 0.00000000E+00
	 0.00000000E+00	 4.58211000E-13	 0.00000000E+00
	 0.00000000E+00	 0.00000000E+00	 4.58211000E-13

	 4.64852000E-13	 0.00000000E+00	 0.00000000E+00
	 0.00000000E+00	 4.64852000E-13	 0.00000000E+00
	 0.00000000E+00	 0.00000000E+00	 4.64852000E-13

	 4.64852000E-13	 0.00000000E+00	 0.00000000E+00
	 0.00000000E+00	 4.64852000E-13	 0.00000000E+00
	 0.00000000E+00	 0.00000000E+00	 4.64852000E-13

	 4.64852000E-13	 0.00000000E+00	 0.00000000E+00
	 0.00000000E+00	 4.64852000E-13	 0.00000000E+00
	 0.00000000E+00	 0.00000000E+00	 4.64852000E-13

	 4.64852000E-13	 0.00000000E+00	 0.00000000E+00
	 0.00000000E+00	 4.64852000E-13	 0.00000000E+00
	 0.00000000E+00	 0.00000000E+00	 4.64852000E-13

	 4.64852000E-13	 0.00000000E+00	 0.00000000E+00
	 0.00000000E+00	 4.64852000E-13	 0.00000000E+00
	 0.00000000E+00	 0.00000000E+00	 4.64852000E-13

	 4.64852000E-13	 0.00000000E+00	 0.00000000E+00
	 0.00000000E+00	 4.64852000E-13	 0.00000000E+00
	 0.00000000E+00	 0.00000000E+00	 4.64852000E-13

	 4.38289000E-13	 0.00000000E+00	 0.00000000E+00
	 0.00000000E+00	 4.38289000E-13	 0.00000000E+00
	 0.00000000E+00	 0.00000000E+00	 4.38289000E-13

	 4.42716000E-13	 0.00000000E+00	 0.00000000E+00
	 0.00000000E+00	 4.42716000E-13	 0.00000000E+00
	 0.00000000E+00	 0.00000000E+00	 4.42716000E-13

	 4.47143000E-13	 0.00000000E+00	 0.00000000E+00
	 0.00000000E+00	 4.47143000E-13	 0.00000000E+00
	 0.00000000E+00	 0.00000000E+00	 4.47143000E-13

	 4.61057000E-13	 0.00000000E+00	 0.00000000E+00
	 0.00000000E+00	 4.61057000E-13	 0.00000000E+00
	 0.00000000E+00	 0.00000000E+00	 4.61057000E-13

	 4.64852000E-13	 0.00000000E+00	 0.00000000E+00
	 0.00000000E+00	 4.64852000E-13	 0.00000000E+00
	 0.00000000E+00	 0.00000000E+00	 4.64852000E-13

	 4.42716000E-13	 0.00000000E+00	 0.00000000E+00
	 0.00000000E+00	 4.42716000E-13	 0.00000000E+00
	 0.00000000E+00	 0.00000000E+00	 4.42716000E-13

	 4.51570000E-13	 0.00000000E+00	 0.00000000E+00
	 0.00000000E+00	 4.51570000E-13	 0.00000000E+00
	 0.00000000E+00	 0.00000000E+00	 4.51570000E-13

	 4.38289000E-13	 0.00000000E+00	 0.00000000E+00
	 0.00000000E+00	 4.38289000E-13	 0.00000000E+00
	 0.00000000E+00	 0.00000000E+00	 4.38289000E-13

	 4.38289000E-13	 0.00000000E+00	 0.00000000E+00
	 0.00000000E+00	 4.38289000E-13	 0.00000000E+00
	 0.00000000E+00	 0.00000000E+00	 4.38289000E-13

	 4.38289000E-13	 0.00000000E+00	 0.00000000E+00
	 0.00000000E+00	 4.38289000E-13	 0.00000000E+00
	 0.00000000E+00	 0.00000000E+00	 4.38289000E-13

	 4.64852000E-13	 0.00000000E+00	 0.00000000E+00
	 0.00000000E+00	 4.64852000E-13	 0.00000000E+00
	 0.00000000E+00	 0.00000000E+00	 4.64852000E-13

	 4.49357000E-13	 0.00000000E+00	 0.00000000E+00
	 0.00000000E+00	 4.49357000E-13	 0.00000000E+00
	 0.00000000E+00	 0.00000000E+00	 4.49357000E-13

	 4.64852000E-13	 0.00000000E+00	 0.00000000E+00
	 0.00000000E+00	 4.64852000E-13	 0.00000000E+00
	 0.00000000E+00	 0.00000000E+00	 4.64852000E-13

	 4.44929000E-13	 0.00000000E+00	 0.00000000E+00
	 0.00000000E+00	 4.44929000E-13	 0.00000000E+00
	 0.00000000E+00	 0.00000000E+00	 4.44929000E-13

	 4.40186000E-13	 0.00000000E+00	 0.00000000E+00
	 0.00000000E+00	 4.40186000E-13	 0.00000000E+00
	 0.00000000E+00	 0.00000000E+00	 4.40186000E-13

	 4.38289000E-13	 0.00000000E+00	 0.00000000E+00
	 0.00000000E+00	 4.38289000E-13	 0.00000000E+00
	 0.00000000E+00	 0.00000000E+00	 4.38289000E-13

	 4.53468000E-13	 0.00000000E+00	 0.00000000E+00
	 0.00000000E+00	 4.53468000E-13	 0.00000000E+00
	 0.00000000E+00	 0.00000000E+00	 4.53468000E-13

	 4.64852000E-13	 0.00000000E+00	 0.00000000E+00
	 0.00000000E+00	 4.64852000E-13	 0.00000000E+00
	 0.00000000E+00	 0.00000000E+00	 4.64852000E-13

	 4.38289000E-13	 0.00000000E+00	 0.00000000E+00
	 0.00000000E+00	 4.38289000E-13	 0.00000000E+00
	 0.00000000E+00	 0.00000000E+00	 4.38289000E-13

	 4.45878000E-13	 0.00000000E+00	 0.00000000E+00
	 0.00000000E+00	 4.45878000E-13	 0.00000000E+00
	 0.00000000E+00	 0.00000000E+00	 4.45878000E-13

	 4.64852000E-13	 0.00000000E+00	 0.00000000E+00
	 0.00000000E+00	 4.64852000E-13	 0.00000000E+00
	 0.00000000E+00	 0.00000000E+00	 4.64852000E-13

	 4.64852000E-13	 0.00000000E+00	 0.00000000E+00
	 0.00000000E+00	 4.64852000E-13	 0.00000000E+00
	 0.00000000E+00	 0.00000000E+00	 4.64852000E-13

	 4.38289000E-13	 0.00000000E+00	 0.00000000E+00
	 0.00000000E+00	 4.38289000E-13	 0.00000000E+00
	 0.00000000E+00	 0.00000000E+00	 4.38289000E-13

	 4.42716000E-13	 0.00000000E+00	 0.00000000E+00
	 0.00000000E+00	 4.42716000E-13	 0.00000000E+00
	 0.00000000E+00	 0.00000000E+00	 4.42716000E-13

	 4.64852000E-13	 0.00000000E+00	 0.00000000E+00
	 0.00000000E+00	 4.64852000E-13	 0.00000000E+00
	 0.00000000E+00	 0.00000000E+00	 4.64852000E-13

	 4.64852000E-13	 0.00000000E+00	 0.00000000E+00
	 0.00000000E+00	 4.64852000E-13	 0.00000000E+00
	 0.00000000E+00	 0.00000000E+00	 4.64852000E-13

	 4.58211000E-13	 0.00000000E+00	 0.00000000E+00
	 0.00000000E+00	 4.58211000E-13	 0.00000000E+00
	 0.00000000E+00	 0.00000000E+00	 4.58211000E-13

	 4.60425000E-13	 0.00000000E+00	 0.00000000E+00
	 0.00000000E+00	 4.60425000E-13	 0.00000000E+00
	 0.00000000E+00	 0.00000000E+00	 4.60425000E-13

	 4.64852000E-13	 0.00000000E+00	 0.00000000E+00
	 0.00000000E+00	 4.64852000E-13	 0.00000000E+00
	 0.00000000E+00	 0.00000000E+00	 4.64852000E-13

	 4.62638000E-13	 0.00000000E+00	 0.00000000E+00
	 0.00000000E+00	 4.62638000E-13	 0.00000000E+00
	 0.00000000E+00	 0.00000000E+00	 4.62638000E-13

	 4.62638000E-13	 0.00000000E+00	 0.00000000E+00
	 0.00000000E+00	 4.62638000E-13	 0.00000000E+00
	 0.00000000E+00	 0.00000000E+00	 4.62638000E-13

	 4.64852000E-13	 0.00000000E+00	 0.00000000E+00
	 0.00000000E+00	 4.64852000E-13	 0.00000000E+00
	 0.00000000E+00	 0.00000000E+00	 4.64852000E-13

	 4.51570000E-13	 0.00000000E+00	 0.00000000E+00
	 0.00000000E+00	 4.51570000E-13	 0.00000000E+00
	 0.00000000E+00	 0.00000000E+00	 4.51570000E-13

	 4.55997000E-13	 0.00000000E+00	 0.00000000E+00
	 0.00000000E+00	 4.55997000E-13	 0.00000000E+00
	 0.00000000E+00	 0.00000000E+00	 4.55997000E-13

	 4.51570000E-13	 0.00000000E+00	 0.00000000E+00
	 0.00000000E+00	 4.51570000E-13	 0.00000000E+00
	 0.00000000E+00	 0.00000000E+00	 4.51570000E-13

	 4.44929000E-13	 0.00000000E+00	 0.00000000E+00
	 0.00000000E+00	 4.44929000E-13	 0.00000000E+00
	 0.00000000E+00	 0.00000000E+00	 4.44929000E-13

	 4.47143000E-13	 0.00000000E+00	 0.00000000E+00
	 0.00000000E+00	 4.47143000E-13	 0.00000000E+00
	 0.00000000E+00	 0.00000000E+00	 4.47143000E-13

	 4.47143000E-13	 0.00000000E+00	 0.00000000E+00
	 0.00000000E+00	 4.47143000E-13	 0.00000000E+00
	 0.00000000E+00	 0.00000000E+00	 4.47143000E-13

	 4.60425000E-13	 0.00000000E+00	 0.00000000E+00
	 0.00000000E+00	 4.60425000E-13	 0.00000000E+00
	 0.00000000E+00	 0.00000000E+00	 4.60425000E-13

	 4.47143000E-13	 0.00000000E+00	 0.00000000E+00
	 0.00000000E+00	 4.47143000E-13	 0.00000000E+00
	 0.00000000E+00	 0.00000000E+00	 4.47143000E-13

	 4.40502000E-13	 0.00000000E+00	 0.00000000E+00
	 0.00000000E+00	 4.40502000E-13	 0.00000000E+00
	 0.00000000E+00	 0.00000000E+00	 4.40502000E-13

	 4.51570000E-13	 0.00000000E+00	 0.00000000E+00
	 0.00000000E+00	 4.51570000E-13	 0.00000000E+00
	 0.00000000E+00	 0.00000000E+00	 4.51570000E-13

	 4.49357000E-13	 0.00000000E+00	 0.00000000E+00
	 0.00000000E+00	 4.49357000E-13	 0.00000000E+00
	 0.00000000E+00	 0.00000000E+00	 4.49357000E-13

	 4.64852000E-13	 0.00000000E+00	 0.00000000E+00
	 0.00000000E+00	 4.64852000E-13	 0.00000000E+00
	 0.00000000E+00	 0.00000000E+00	 4.64852000E-13

	 4.47775000E-13	 0.00000000E+00	 0.00000000E+00
	 0.00000000E+00	 4.47775000E-13	 0.00000000E+00
	 0.00000000E+00	 0.00000000E+00	 4.47775000E-13

	 4.64852000E-13	 0.00000000E+00	 0.00000000E+00
	 0.00000000E+00	 4.64852000E-13	 0.00000000E+00
	 0.00000000E+00	 0.00000000E+00	 4.64852000E-13

	 4.64852000E-13	 0.00000000E+00	 0.00000000E+00
	 0.00000000E+00	 4.64852000E-13	 0.00000000E+00
	 0.00000000E+00	 0.00000000E+00	 4.64852000E-13

	 4.58211000E-13	 0.00000000E+00	 0.00000000E+00
	 0.00000000E+00	 4.58211000E-13	 0.00000000E+00
	 0.00000000E+00	 0.00000000E+00	 4.58211000E-13

	 4.62638000E-13	 0.00000000E+00	 0.00000000E+00
	 0.00000000E+00	 4.62638000E-13	 0.00000000E+00
	 0.00000000E+00	 0.00000000E+00	 4.62638000E-13

	 4.64852000E-13	 0.00000000E+00	 0.00000000E+00
	 0.00000000E+00	 4.64852000E-13	 0.00000000E+00
	 0.00000000E+00	 0.00000000E+00	 4.64852000E-13

	 4.44929000E-13	 0.00000000E+00	 0.00000000E+00
	 0.00000000E+00	 4.44929000E-13	 0.00000000E+00
	 0.00000000E+00	 0.00000000E+00	 4.44929000E-13

	 4.42716000E-13	 0.00000000E+00	 0.00000000E+00
	 0.00000000E+00	 4.42716000E-13	 0.00000000E+00
	 0.00000000E+00	 0.00000000E+00	 4.42716000E-13

	 4.44929000E-13	 0.00000000E+00	 0.00000000E+00
	 0.00000000E+00	 4.44929000E-13	 0.00000000E+00
	 0.00000000E+00	 0.00000000E+00	 4.44929000E-13

	 4.42716000E-13	 0.00000000E+00	 0.00000000E+00
	 0.00000000E+00	 4.42716000E-13	 0.00000000E+00
	 0.00000000E+00	 0.00000000E+00	 4.42716000E-13

	 4.38289000E-13	 0.00000000E+00	 0.00000000E+00
	 0.00000000E+00	 4.38289000E-13	 0.00000000E+00
	 0.00000000E+00	 0.00000000E+00	 4.38289000E-13

	 4.38289000E-13	 0.00000000E+00	 0.00000000E+00
	 0.00000000E+00	 4.38289000E-13	 0.00000000E+00
	 0.00000000E+00	 0.00000000E+00	 4.38289000E-13

	 4.38289000E-13	 0.00000000E+00	 0.00000000E+00
	 0.00000000E+00	 4.38289000E-13	 0.00000000E+00
	 0.00000000E+00	 0.00000000E+00	 4.38289000E-13

	 4.64852000E-13	 0.00000000E+00	 0.00000000E+00
	 0.00000000E+00	 4.64852000E-13	 0.00000000E+00
	 0.00000000E+00	 0.00000000E+00	 4.64852000E-13

	 4.38289000E-13	 0.00000000E+00	 0.00000000E+00
	 0.00000000E+00	 4.38289000E-13	 0.00000000E+00
	 0.00000000E+00	 0.00000000E+00	 4.38289000E-13

	 4.64852000E-13	 0.00000000E+00	 0.00000000E+00
	 0.00000000E+00	 4.64852000E-13	 0.00000000E+00
	 0.00000000E+00	 0.00000000E+00	 4.64852000E-13

	 4.64852000E-13	 0.00000000E+00	 0.00000000E+00
	 0.00000000E+00	 4.64852000E-13	 0.00000000E+00
	 0.00000000E+00	 0.00000000E+00	 4.64852000E-13

	 4.64852000E-13	 0.00000000E+00	 0.00000000E+00
	 0.00000000E+00	 4.64852000E-13	 0.00000000E+00
	 0.00000000E+00	 0.00000000E+00	 4.64852000E-13

	 4.38289000E-13	 0.00000000E+00	 0.00000000E+00
	 0.00000000E+00	 4.38289000E-13	 0.00000000E+00
	 0.00000000E+00	 0.00000000E+00	 4.38289000E-13

	 4.64852000E-13	 0.00000000E+00	 0.00000000E+00
	 0.00000000E+00	 4.64852000E-13	 0.00000000E+00
	 0.00000000E+00	 0.00000000E+00	 4.64852000E-13

	 4.47143000E-13	 0.00000000E+00	 0.00000000E+00
	 0.00000000E+00	 4.47143000E-13	 0.00000000E+00
	 0.00000000E+00	 0.00000000E+00	 4.47143000E-13

	 4.55997000E-13	 0.00000000E+00	 0.00000000E+00
	 0.00000000E+00	 4.55997000E-13	 0.00000000E+00
	 0.00000000E+00	 0.00000000E+00	 4.55997000E-13

	 4.64852000E-13	 0.00000000E+00	 0.00000000E+00
	 0.00000000E+00	 4.64852000E-13	 0.00000000E+00
	 0.00000000E+00	 0.00000000E+00	 4.64852000E-13

	 4.64852000E-13	 0.00000000E+00	 0.00000000E+00
	 0.00000000E+00	 4.64852000E-13	 0.00000000E+00
	 0.00000000E+00	 0.00000000E+00	 4.64852000E-13

	 4.64852000E-13	 0.00000000E+00	 0.00000000E+00
	 0.00000000E+00	 4.64852000E-13	 0.00000000E+00
	 0.00000000E+00	 0.00000000E+00	 4.64852000E-13

	 4.64852000E-13	 0.00000000E+00	 0.00000000E+00
	 0.00000000E+00	 4.64852000E-13	 0.00000000E+00
	 0.00000000E+00	 0.00000000E+00	 4.64852000E-13

	 4.64852000E-13	 0.00000000E+00	 0.00000000E+00
	 0.00000000E+00	 4.64852000E-13	 0.00000000E+00
	 0.00000000E+00	 0.00000000E+00	 4.64852000E-13

	 4.44929000E-13	 0.00000000E+00	 0.00000000E+00
	 0.00000000E+00	 4.44929000E-13	 0.00000000E+00
	 0.00000000E+00	 0.00000000E+00	 4.44929000E-13

	 4.64852000E-13	 0.00000000E+00	 0.00000000E+00
	 0.00000000E+00	 4.64852000E-13	 0.00000000E+00
	 0.00000000E+00	 0.00000000E+00	 4.64852000E-13

	 4.64852000E-13	 0.00000000E+00	 0.00000000E+00
	 0.00000000E+00	 4.64852000E-13	 0.00000000E+00
	 0.00000000E+00	 0.00000000E+00	 4.64852000E-13

	 4.38289000E-13	 0.00000000E+00	 0.00000000E+00
	 0.00000000E+00	 4.38289000E-13	 0.00000000E+00
	 0.00000000E+00	 0.00000000E+00	 4.38289000E-13

	 4.38289000E-13	 0.00000000E+00	 0.00000000E+00
	 0.00000000E+00	 4.38289000E-13	 0.00000000E+00
	 0.00000000E+00	 0.00000000E+00	 4.38289000E-13

	 4.64852000E-13	 0.00000000E+00	 0.00000000E+00
	 0.00000000E+00	 4.64852000E-13	 0.00000000E+00
	 0.00000000E+00	 0.00000000E+00	 4.64852000E-13

	 4.64852000E-13	 0.00000000E+00	 0.00000000E+00
	 0.00000000E+00	 4.64852000E-13	 0.00000000E+00
	 0.00000000E+00	 0.00000000E+00	 4.64852000E-13

	 4.64852000E-13	 0.00000000E+00	 0.00000000E+00
	 0.00000000E+00	 4.64852000E-13	 0.00000000E+00
	 0.00000000E+00	 0.00000000E+00	 4.64852000E-13

	 4.64852000E-13	 0.00000000E+00	 0.00000000E+00
	 0.00000000E+00	 4.64852000E-13	 0.00000000E+00
	 0.00000000E+00	 0.00000000E+00	 4.64852000E-13

	 4.64852000E-13	 0.00000000E+00	 0.00000000E+00
	 0.00000000E+00	 4.64852000E-13	 0.00000000E+00
	 0.00000000E+00	 0.00000000E+00	 4.64852000E-13

	 4.64852000E-13	 0.00000000E+00	 0.00000000E+00
	 0.00000000E+00	 4.64852000E-13	 0.00000000E+00
	 0.00000000E+00	 0.00000000E+00	 4.64852000E-13

	 4.64852000E-13	 0.00000000E+00	 0.00000000E+00
	 0.00000000E+00	 4.64852000E-13	 0.00000000E+00
	 0.00000000E+00	 0.00000000E+00	 4.64852000E-13

	 4.38289000E-13	 0.00000000E+00	 0.00000000E+00
	 0.00000000E+00	 4.38289000E-13	 0.00000000E+00
	 0.00000000E+00	 0.00000000E+00	 4.38289000E-13

	 4.62954000E-13	 0.00000000E+00	 0.00000000E+00
	 0.00000000E+00	 4.62954000E-13	 0.00000000E+00
	 0.00000000E+00	 0.00000000E+00	 4.62954000E-13

	 4.55365000E-13	 0.00000000E+00	 0.00000000E+00
	 0.00000000E+00	 4.55365000E-13	 0.00000000E+00
	 0.00000000E+00	 0.00000000E+00	 4.55365000E-13

	 4.47775000E-13	 0.00000000E+00	 0.00000000E+00
	 0.00000000E+00	 4.47775000E-13	 0.00000000E+00
	 0.00000000E+00	 0.00000000E+00	 4.47775000E-13

	 4.38289000E-13	 0.00000000E+00	 0.00000000E+00
	 0.00000000E+00	 4.38289000E-13	 0.00000000E+00
	 0.00000000E+00	 0.00000000E+00	 4.38289000E-13

	 4.38289000E-13	 0.00000000E+00	 0.00000000E+00
	 0.00000000E+00	 4.38289000E-13	 0.00000000E+00
	 0.00000000E+00	 0.00000000E+00	 4.38289000E-13

	 4.64852000E-13	 0.00000000E+00	 0.00000000E+00
	 0.00000000E+00	 4.64852000E-13	 0.00000000E+00
	 0.00000000E+00	 0.00000000E+00	 4.64852000E-13

	 4.59160000E-13	 0.00000000E+00	 0.00000000E+00
	 0.00000000E+00	 4.59160000E-13	 0.00000000E+00
	 0.00000000E+00	 0.00000000E+00	 4.59160000E-13

	 4.61057000E-13	 0.00000000E+00	 0.00000000E+00
	 0.00000000E+00	 4.61057000E-13	 0.00000000E+00
	 0.00000000E+00	 0.00000000E+00	 4.61057000E-13

	 4.60425000E-13	 0.00000000E+00	 0.00000000E+00
	 0.00000000E+00	 4.60425000E-13	 0.00000000E+00
	 0.00000000E+00	 0.00000000E+00	 4.60425000E-13

	 4.62638000E-13	 0.00000000E+00	 0.00000000E+00
	 0.00000000E+00	 4.62638000E-13	 0.00000000E+00
	 0.00000000E+00	 0.00000000E+00	 4.62638000E-13

	 4.64852000E-13	 0.00000000E+00	 0.00000000E+00
	 0.00000000E+00	 4.64852000E-13	 0.00000000E+00
	 0.00000000E+00	 0.00000000E+00	 4.64852000E-13

	 4.38289000E-13	 0.00000000E+00	 0.00000000E+00
	 0.00000000E+00	 4.38289000E-13	 0.00000000E+00
	 0.00000000E+00	 0.00000000E+00	 4.38289000E-13

	 4.38289000E-13	 0.00000000E+00	 0.00000000E+00
	 0.00000000E+00	 4.38289000E-13	 0.00000000E+00
	 0.00000000E+00	 0.00000000E+00	 4.38289000E-13

	 4.64852000E-13	 0.00000000E+00	 0.00000000E+00
	 0.00000000E+00	 4.64852000E-13	 0.00000000E+00
	 0.00000000E+00	 0.00000000E+00	 4.64852000E-13

	 4.38289000E-13	 0.00000000E+00	 0.00000000E+00
	 0.00000000E+00	 4.38289000E-13	 0.00000000E+00
	 0.00000000E+00	 0.00000000E+00	 4.38289000E-13

	 4.64852000E-13	 0.00000000E+00	 0.00000000E+00
	 0.00000000E+00	 4.64852000E-13	 0.00000000E+00
	 0.00000000E+00	 0.00000000E+00	 4.64852000E-13

	 4.64852000E-13	 0.00000000E+00	 0.00000000E+00
	 0.00000000E+00	 4.64852000E-13	 0.00000000E+00
	 0.00000000E+00	 0.00000000E+00	 4.64852000E-13

	 4.42716000E-13	 0.00000000E+00	 0.00000000E+00
	 0.00000000E+00	 4.42716000E-13	 0.00000000E+00
	 0.00000000E+00	 0.00000000E+00	 4.42716000E-13

	 4.40186000E-13	 0.00000000E+00	 0.00000000E+00
	 0.00000000E+00	 4.40186000E-13	 0.00000000E+00
	 0.00000000E+00	 0.00000000E+00	 4.40186000E-13

	 4.43601000E-13	 0.00000000E+00	 0.00000000E+00
	 0.00000000E+00	 4.43601000E-13	 0.00000000E+00
	 0.00000000E+00	 0.00000000E+00	 4.43601000E-13

	 4.42716000E-13	 0.00000000E+00	 0.00000000E+00
	 0.00000000E+00	 4.42716000E-13	 0.00000000E+00
	 0.00000000E+00	 0.00000000E+00	 4.42716000E-13

	 4.38289000E-13	 0.00000000E+00	 0.00000000E+00
	 0.00000000E+00	 4.38289000E-13	 0.00000000E+00
	 0.00000000E+00	 0.00000000E+00	 4.38289000E-13

	 4.38289000E-13	 0.00000000E+00	 0.00000000E+00
	 0.00000000E+00	 4.38289000E-13	 0.00000000E+00
	 0.00000000E+00	 0.00000000E+00	 4.38289000E-13

	 4.38289000E-13	 0.00000000E+00	 0.00000000E+00
	 0.00000000E+00	 4.38289000E-13	 0.00000000E+00
	 0.00000000E+00	 0.00000000E+00	 4.38289000E-13

	 4.64852000E-13	 0.00000000E+00	 0.00000000E+00
	 0.00000000E+00	 4.64852000E-13	 0.00000000E+00
	 0.00000000E+00	 0.00000000E+00	 4.64852000E-13

	 4.64852000E-13	 0.00000000E+00	 0.00000000E+00
	 0.00000000E+00	 4.64852000E-13	 0.00000000E+00
	 0.00000000E+00	 0.00000000E+00	 4.64852000E-13

	 4.38289000E-13	 0.00000000E+00	 0.00000000E+00
	 0.00000000E+00	 4.38289000E-13	 0.00000000E+00
	 0.00000000E+00	 0.00000000E+00	 4.38289000E-13

	 4.64852000E-13	 0.00000000E+00	 0.00000000E+00
	 0.00000000E+00	 4.64852000E-13	 0.00000000E+00
	 0.00000000E+00	 0.00000000E+00	 4.64852000E-13

	 4.64852000E-13	 0.00000000E+00	 0.00000000E+00
	 0.00000000E+00	 4.64852000E-13	 0.00000000E+00
	 0.00000000E+00	 0.00000000E+00	 4.64852000E-13

	 4.64852000E-13	 0.00000000E+00	 0.00000000E+00
	 0.00000000E+00	 4.64852000E-13	 0.00000000E+00
	 0.00000000E+00	 0.00000000E+00	 4.64852000E-13

	 4.64852000E-13	 0.00000000E+00	 0.00000000E+00
	 0.00000000E+00	 4.64852000E-13	 0.00000000E+00
	 0.00000000E+00	 0.00000000E+00	 4.64852000E-13

	 4.64852000E-13	 0.00000000E+00	 0.00000000E+00
	 0.00000000E+00	 4.64852000E-13	 0.00000000E+00
	 0.00000000E+00	 0.00000000E+00	 4.64852000E-13

	 4.64852000E-13	 0.00000000E+00	 0.00000000E+00
	 0.00000000E+00	 4.64852000E-13	 0.00000000E+00
	 0.00000000E+00	 0.00000000E+00	 4.64852000E-13

	 4.64852000E-13	 0.00000000E+00	 0.00000000E+00
	 0.00000000E+00	 4.64852000E-13	 0.00000000E+00
	 0.00000000E+00	 0.00000000E+00	 4.64852000E-13

	 4.64852000E-13	 0.00000000E+00	 0.00000000E+00
	 0.00000000E+00	 4.64852000E-13	 0.00000000E+00
	 0.00000000E+00	 0.00000000E+00	 4.64852000E-13

	 4.64852000E-13	 0.00000000E+00	 0.00000000E+00
	 0.00000000E+00	 4.64852000E-13	 0.00000000E+00
	 0.00000000E+00	 0.00000000E+00	 4.64852000E-13

	 4.60425000E-13	 0.00000000E+00	 0.00000000E+00
	 0.00000000E+00	 4.60425000E-13	 0.00000000E+00
	 0.00000000E+00	 0.00000000E+00	 4.60425000E-13

	 4.64852000E-13	 0.00000000E+00	 0.00000000E+00
	 0.00000000E+00	 4.64852000E-13	 0.00000000E+00
	 0.00000000E+00	 0.00000000E+00	 4.64852000E-13

	 4.53784000E-13	 0.00000000E+00	 0.00000000E+00
	 0.00000000E+00	 4.53784000E-13	 0.00000000E+00
	 0.00000000E+00	 0.00000000E+00	 4.53784000E-13

	 4.64852000E-13	 0.00000000E+00	 0.00000000E+00
	 0.00000000E+00	 4.64852000E-13	 0.00000000E+00
	 0.00000000E+00	 0.00000000E+00	 4.64852000E-13

	 4.64852000E-13	 0.00000000E+00	 0.00000000E+00
	 0.00000000E+00	 4.64852000E-13	 0.00000000E+00
	 0.00000000E+00	 0.00000000E+00	 4.64852000E-13

	 4.38289000E-13	 0.00000000E+00	 0.00000000E+00
	 0.00000000E+00	 4.38289000E-13	 0.00000000E+00
	 0.00000000E+00	 0.00000000E+00	 4.38289000E-13

	 4.38289000E-13	 0.00000000E+00	 0.00000000E+00
	 0.00000000E+00	 4.38289000E-13	 0.00000000E+00
	 0.00000000E+00	 0.00000000E+00	 4.38289000E-13

	 4.38289000E-13	 0.00000000E+00	 0.00000000E+00
	 0.00000000E+00	 4.38289000E-13	 0.00000000E+00
	 0.00000000E+00	 0.00000000E+00	 4.38289000E-13

	 4.38289000E-13	 0.00000000E+00	 0.00000000E+00
	 0.00000000E+00	 4.38289000E-13	 0.00000000E+00
	 0.00000000E+00	 0.00000000E+00	 4.38289000E-13

	 4.38289000E-13	 0.00000000E+00	 0.00000000E+00
	 0.00000000E+00	 4.38289000E-13	 0.00000000E+00
	 0.00000000E+00	 0.00000000E+00	 4.38289000E-13

	 4.38289000E-13	 0.00000000E+00	 0.00000000E+00
	 0.00000000E+00	 4.38289000E-13	 0.00000000E+00
	 0.00000000E+00	 0.00000000E+00	 4.38289000E-13

	 4.38289000E-13	 0.00000000E+00	 0.00000000E+00
	 0.00000000E+00	 4.38289000E-13	 0.00000000E+00
	 0.00000000E+00	 0.00000000E+00	 4.38289000E-13

	 4.38289000E-13	 0.00000000E+00	 0.00000000E+00
	 0.00000000E+00	 4.38289000E-13	 0.00000000E+00
	 0.00000000E+00	 0.00000000E+00	 4.38289000E-13

	 4.64852000E-13	 0.00000000E+00	 0.00000000E+00
	 0.00000000E+00	 4.64852000E-13	 0.00000000E+00
	 0.00000000E+00	 0.00000000E+00	 4.64852000E-13

	 4.45878000E-13	 0.00000000E+00	 0.00000000E+00
	 0.00000000E+00	 4.45878000E-13	 0.00000000E+00
	 0.00000000E+00	 0.00000000E+00	 4.45878000E-13

	 4.38289000E-13	 0.00000000E+00	 0.00000000E+00
	 0.00000000E+00	 4.38289000E-13	 0.00000000E+00
	 0.00000000E+00	 0.00000000E+00	 4.38289000E-13

	 4.38289000E-13	 0.00000000E+00	 0.00000000E+00
	 0.00000000E+00	 4.38289000E-13	 0.00000000E+00
	 0.00000000E+00	 0.00000000E+00	 4.38289000E-13

	 4.38289000E-13	 0.00000000E+00	 0.00000000E+00
	 0.00000000E+00	 4.38289000E-13	 0.00000000E+00
	 0.00000000E+00	 0.00000000E+00	 4.38289000E-13

	 4.64852000E-13	 0.00000000E+00	 0.00000000E+00
	 0.00000000E+00	 4.64852000E-13	 0.00000000E+00
	 0.00000000E+00	 0.00000000E+00	 4.64852000E-13

	 4.38289000E-13	 0.00000000E+00	 0.00000000E+00
	 0.00000000E+00	 4.38289000E-13	 0.00000000E+00
	 0.00000000E+00	 0.00000000E+00	 4.38289000E-13

	 4.64852000E-13	 0.00000000E+00	 0.00000000E+00
	 0.00000000E+00	 4.64852000E-13	 0.00000000E+00
	 0.00000000E+00	 0.00000000E+00	 4.64852000E-13

	 4.38289000E-13	 0.00000000E+00	 0.00000000E+00
	 0.00000000E+00	 4.38289000E-13	 0.00000000E+00
	 0.00000000E+00	 0.00000000E+00	 4.38289000E-13

	 4.38289000E-13	 0.00000000E+00	 0.00000000E+00
	 0.00000000E+00	 4.38289000E-13	 0.00000000E+00
	 0.00000000E+00	 0.00000000E+00	 4.38289000E-13

	 4.38289000E-13	 0.00000000E+00	 0.00000000E+00
	 0.00000000E+00	 4.38289000E-13	 0.00000000E+00
	 0.00000000E+00	 0.00000000E+00	 4.38289000E-13

	 4.60425000E-13	 0.00000000E+00	 0.00000000E+00
	 0.00000000E+00	 4.60425000E-13	 0.00000000E+00
	 0.00000000E+00	 0.00000000E+00	 4.60425000E-13

	 4.55997000E-13	 0.00000000E+00	 0.00000000E+00
	 0.00000000E+00	 4.55997000E-13	 0.00000000E+00
	 0.00000000E+00	 0.00000000E+00	 4.55997000E-13

	 4.64852000E-13	 0.00000000E+00	 0.00000000E+00
	 0.00000000E+00	 4.64852000E-13	 0.00000000E+00
	 0.00000000E+00	 0.00000000E+00	 4.64852000E-13

	 4.64852000E-13	 0.00000000E+00	 0.00000000E+00
	 0.00000000E+00	 4.64852000E-13	 0.00000000E+00
	 0.00000000E+00	 0.00000000E+00	 4.64852000E-13

	 4.64852000E-13	 0.00000000E+00	 0.00000000E+00
	 0.00000000E+00	 4.64852000E-13	 0.00000000E+00
	 0.00000000E+00	 0.00000000E+00	 4.64852000E-13

	 4.64852000E-13	 0.00000000E+00	 0.00000000E+00
	 0.00000000E+00	 4.64852000E-13	 0.00000000E+00
	 0.00000000E+00	 0.00000000E+00	 4.64852000E-13

	 4.64852000E-13	 0.00000000E+00	 0.00000000E+00
	 0.00000000E+00	 4.64852000E-13	 0.00000000E+00
	 0.00000000E+00	 0.00000000E+00	 4.64852000E-13

	 4.38289000E-13	 0.00000000E+00	 0.00000000E+00
	 0.00000000E+00	 4.38289000E-13	 0.00000000E+00
	 0.00000000E+00	 0.00000000E+00	 4.38289000E-13

	 4.38289000E-13	 0.00000000E+00	 0.00000000E+00
	 0.00000000E+00	 4.38289000E-13	 0.00000000E+00
	 0.00000000E+00	 0.00000000E+00	 4.38289000E-13

	 4.38289000E-13	 0.00000000E+00	 0.00000000E+00
	 0.00000000E+00	 4.38289000E-13	 0.00000000E+00
	 0.00000000E+00	 0.00000000E+00	 4.38289000E-13

	 4.64852000E-13	 0.00000000E+00	 0.00000000E+00
	 0.00000000E+00	 4.64852000E-13	 0.00000000E+00
	 0.00000000E+00	 0.00000000E+00	 4.64852000E-13

	 4.64852000E-13	 0.00000000E+00	 0.00000000E+00
	 0.00000000E+00	 4.64852000E-13	 0.00000000E+00
	 0.00000000E+00	 0.00000000E+00	 4.64852000E-13

	 4.64852000E-13	 0.00000000E+00	 0.00000000E+00
	 0.00000000E+00	 4.64852000E-13	 0.00000000E+00
	 0.00000000E+00	 0.00000000E+00	 4.64852000E-13

	 4.42716000E-13	 0.00000000E+00	 0.00000000E+00
	 0.00000000E+00	 4.42716000E-13	 0.00000000E+00
	 0.00000000E+00	 0.00000000E+00	 4.42716000E-13

	 4.64852000E-13	 0.00000000E+00	 0.00000000E+00
	 0.00000000E+00	 4.64852000E-13	 0.00000000E+00
	 0.00000000E+00	 0.00000000E+00	 4.64852000E-13

	 4.47143000E-13	 0.00000000E+00	 0.00000000E+00
	 0.00000000E+00	 4.47143000E-13	 0.00000000E+00
	 0.00000000E+00	 0.00000000E+00	 4.47143000E-13

	 4.42716000E-13	 0.00000000E+00	 0.00000000E+00
	 0.00000000E+00	 4.42716000E-13	 0.00000000E+00
	 0.00000000E+00	 0.00000000E+00	 4.42716000E-13

	 4.38289000E-13	 0.00000000E+00	 0.00000000E+00
	 0.00000000E+00	 4.38289000E-13	 0.00000000E+00
	 0.00000000E+00	 0.00000000E+00	 4.38289000E-13

	 4.38289000E-13	 0.00000000E+00	 0.00000000E+00
	 0.00000000E+00	 4.38289000E-13	 0.00000000E+00
	 0.00000000E+00	 0.00000000E+00	 4.38289000E-13

	 4.38289000E-13	 0.00000000E+00	 0.00000000E+00
	 0.00000000E+00	 4.38289000E-13	 0.00000000E+00
	 0.00000000E+00	 0.00000000E+00	 4.38289000E-13

	 4.42716000E-13	 0.00000000E+00	 0.00000000E+00
	 0.00000000E+00	 4.42716000E-13	 0.00000000E+00
	 0.00000000E+00	 0.00000000E+00	 4.42716000E-13

	 4.38289000E-13	 0.00000000E+00	 0.00000000E+00
	 0.00000000E+00	 4.38289000E-13	 0.00000000E+00
	 0.00000000E+00	 0.00000000E+00	 4.38289000E-13

	 4.38289000E-13	 0.00000000E+00	 0.00000000E+00
	 0.00000000E+00	 4.38289000E-13	 0.00000000E+00
	 0.00000000E+00	 0.00000000E+00	 4.38289000E-13

	 4.40502000E-13	 0.00000000E+00	 0.00000000E+00
	 0.00000000E+00	 4.40502000E-13	 0.00000000E+00
	 0.00000000E+00	 0.00000000E+00	 4.40502000E-13

	 4.40502000E-13	 0.00000000E+00	 0.00000000E+00
	 0.00000000E+00	 4.40502000E-13	 0.00000000E+00
	 0.00000000E+00	 0.00000000E+00	 4.40502000E-13

	 4.38289000E-13	 0.00000000E+00	 0.00000000E+00
	 0.00000000E+00	 4.38289000E-13	 0.00000000E+00
	 0.00000000E+00	 0.00000000E+00	 4.38289000E-13

	 4.38289000E-13	 0.00000000E+00	 0.00000000E+00
	 0.00000000E+00	 4.38289000E-13	 0.00000000E+00
	 0.00000000E+00	 0.00000000E+00	 4.38289000E-13

	 4.38289000E-13	 0.00000000E+00	 0.00000000E+00
	 0.00000000E+00	 4.38289000E-13	 0.00000000E+00
	 0.00000000E+00	 0.00000000E+00	 4.38289000E-13

	 4.42716000E-13	 0.00000000E+00	 0.00000000E+00
	 0.00000000E+00	 4.42716000E-13	 0.00000000E+00
	 0.00000000E+00	 0.00000000E+00	 4.42716000E-13

	 4.38289000E-13	 0.00000000E+00	 0.00000000E+00
	 0.00000000E+00	 4.38289000E-13	 0.00000000E+00
	 0.00000000E+00	 0.00000000E+00	 4.38289000E-13

	 4.51570000E-13	 0.00000000E+00	 0.00000000E+00
	 0.00000000E+00	 4.51570000E-13	 0.00000000E+00
	 0.00000000E+00	 0.00000000E+00	 4.51570000E-13

	 4.38289000E-13	 0.00000000E+00	 0.00000000E+00
	 0.00000000E+00	 4.38289000E-13	 0.00000000E+00
	 0.00000000E+00	 0.00000000E+00	 4.38289000E-13

	 4.38289000E-13	 0.00000000E+00	 0.00000000E+00
	 0.00000000E+00	 4.38289000E-13	 0.00000000E+00
	 0.00000000E+00	 0.00000000E+00	 4.38289000E-13

	 4.42716000E-13	 0.00000000E+00	 0.00000000E+00
	 0.00000000E+00	 4.42716000E-13	 0.00000000E+00
	 0.00000000E+00	 0.00000000E+00	 4.42716000E-13

	 4.38289000E-13	 0.00000000E+00	 0.00000000E+00
	 0.00000000E+00	 4.38289000E-13	 0.00000000E+00
	 0.00000000E+00	 0.00000000E+00	 4.38289000E-13

	 4.40502000E-13	 0.00000000E+00	 0.00000000E+00
	 0.00000000E+00	 4.40502000E-13	 0.00000000E+00
	 0.00000000E+00	 0.00000000E+00	 4.40502000E-13

	 4.38289000E-13	 0.00000000E+00	 0.00000000E+00
	 0.00000000E+00	 4.38289000E-13	 0.00000000E+00
	 0.00000000E+00	 0.00000000E+00	 4.38289000E-13

	 4.38289000E-13	 0.00000000E+00	 0.00000000E+00
	 0.00000000E+00	 4.38289000E-13	 0.00000000E+00
	 0.00000000E+00	 0.00000000E+00	 4.38289000E-13

	 4.38289000E-13	 0.00000000E+00	 0.00000000E+00
	 0.00000000E+00	 4.38289000E-13	 0.00000000E+00
	 0.00000000E+00	 0.00000000E+00	 4.38289000E-13

	 4.38289000E-13	 0.00000000E+00	 0.00000000E+00
	 0.00000000E+00	 4.38289000E-13	 0.00000000E+00
	 0.00000000E+00	 0.00000000E+00	 4.38289000E-13

	 4.38289000E-13	 0.00000000E+00	 0.00000000E+00
	 0.00000000E+00	 4.38289000E-13	 0.00000000E+00
	 0.00000000E+00	 0.00000000E+00	 4.38289000E-13

	 4.38289000E-13	 0.00000000E+00	 0.00000000E+00
	 0.00000000E+00	 4.38289000E-13	 0.00000000E+00
	 0.00000000E+00	 0.00000000E+00	 4.38289000E-13

	 4.38289000E-13	 0.00000000E+00	 0.00000000E+00
	 0.00000000E+00	 4.38289000E-13	 0.00000000E+00
	 0.00000000E+00	 0.00000000E+00	 4.38289000E-13

	 4.42716000E-13	 0.00000000E+00	 0.00000000E+00
	 0.00000000E+00	 4.42716000E-13	 0.00000000E+00
	 0.00000000E+00	 0.00000000E+00	 4.42716000E-13

	 4.40502000E-13	 0.00000000E+00	 0.00000000E+00
	 0.00000000E+00	 4.40502000E-13	 0.00000000E+00
	 0.00000000E+00	 0.00000000E+00	 4.40502000E-13

	 4.53784000E-13	 0.00000000E+00	 0.00000000E+00
	 0.00000000E+00	 4.53784000E-13	 0.00000000E+00
	 0.00000000E+00	 0.00000000E+00	 4.53784000E-13

	 4.49357000E-13	 0.00000000E+00	 0.00000000E+00
	 0.00000000E+00	 4.49357000E-13	 0.00000000E+00
	 0.00000000E+00	 0.00000000E+00	 4.49357000E-13

	 4.62638000E-13	 0.00000000E+00	 0.00000000E+00
	 0.00000000E+00	 4.62638000E-13	 0.00000000E+00
	 0.00000000E+00	 0.00000000E+00	 4.62638000E-13

	 4.51570000E-13	 0.00000000E+00	 0.00000000E+00
	 0.00000000E+00	 4.51570000E-13	 0.00000000E+00
	 0.00000000E+00	 0.00000000E+00	 4.51570000E-13

	 4.47143000E-13	 0.00000000E+00	 0.00000000E+00
	 0.00000000E+00	 4.47143000E-13	 0.00000000E+00
	 0.00000000E+00	 0.00000000E+00	 4.47143000E-13

	 4.58211000E-13	 0.00000000E+00	 0.00000000E+00
	 0.00000000E+00	 4.58211000E-13	 0.00000000E+00
	 0.00000000E+00	 0.00000000E+00	 4.58211000E-13

	 4.47143000E-13	 0.00000000E+00	 0.00000000E+00
	 0.00000000E+00	 4.47143000E-13	 0.00000000E+00
	 0.00000000E+00	 0.00000000E+00	 4.47143000E-13

	 4.42716000E-13	 0.00000000E+00	 0.00000000E+00
	 0.00000000E+00	 4.42716000E-13	 0.00000000E+00
	 0.00000000E+00	 0.00000000E+00	 4.42716000E-13

	 4.51570000E-13	 0.00000000E+00	 0.00000000E+00
	 0.00000000E+00	 4.51570000E-13	 0.00000000E+00
	 0.00000000E+00	 0.00000000E+00	 4.51570000E-13

	 4.40502000E-13	 0.00000000E+00	 0.00000000E+00
	 0.00000000E+00	 4.40502000E-13	 0.00000000E+00
	 0.00000000E+00	 0.00000000E+00	 4.40502000E-13

	 4.51570000E-13	 0.00000000E+00	 0.00000000E+00
	 0.00000000E+00	 4.51570000E-13	 0.00000000E+00
	 0.00000000E+00	 0.00000000E+00	 4.51570000E-13

	 4.51570000E-13	 0.00000000E+00	 0.00000000E+00
	 0.00000000E+00	 4.51570000E-13	 0.00000000E+00
	 0.00000000E+00	 0.00000000E+00	 4.51570000E-13

	 4.42716000E-13	 0.00000000E+00	 0.00000000E+00
	 0.00000000E+00	 4.42716000E-13	 0.00000000E+00
	 0.00000000E+00	 0.00000000E+00	 4.42716000E-13

	 4.44929000E-13	 0.00000000E+00	 0.00000000E+00
	 0.00000000E+00	 4.44929000E-13	 0.00000000E+00
	 0.00000000E+00	 0.00000000E+00	 4.44929000E-13

	 4.44929000E-13	 0.00000000E+00	 0.00000000E+00
	 0.00000000E+00	 4.44929000E-13	 0.00000000E+00
	 0.00000000E+00	 0.00000000E+00	 4.44929000E-13

	 4.47143000E-13	 0.00000000E+00	 0.00000000E+00
	 0.00000000E+00	 4.47143000E-13	 0.00000000E+00
	 0.00000000E+00	 0.00000000E+00	 4.47143000E-13

	 4.60425000E-13	 0.00000000E+00	 0.00000000E+00
	 0.00000000E+00	 4.60425000E-13	 0.00000000E+00
	 0.00000000E+00	 0.00000000E+00	 4.60425000E-13

	 4.55997000E-13	 0.00000000E+00	 0.00000000E+00
	 0.00000000E+00	 4.55997000E-13	 0.00000000E+00
	 0.00000000E+00	 0.00000000E+00	 4.55997000E-13

	 4.62638000E-13	 0.00000000E+00	 0.00000000E+00
	 0.00000000E+00	 4.62638000E-13	 0.00000000E+00
	 0.00000000E+00	 0.00000000E+00	 4.62638000E-13

	 4.58211000E-13	 0.00000000E+00	 0.00000000E+00
	 0.00000000E+00	 4.58211000E-13	 0.00000000E+00
	 0.00000000E+00	 0.00000000E+00	 4.58211000E-13

	 4.58211000E-13	 0.00000000E+00	 0.00000000E+00
	 0.00000000E+00	 4.58211000E-13	 0.00000000E+00
	 0.00000000E+00	 0.00000000E+00	 4.58211000E-13

	 4.55997000E-13	 0.00000000E+00	 0.00000000E+00
	 0.00000000E+00	 4.55997000E-13	 0.00000000E+00
	 0.00000000E+00	 0.00000000E+00	 4.55997000E-13

	 4.55997000E-13	 0.00000000E+00	 0.00000000E+00
	 0.00000000E+00	 4.55997000E-13	 0.00000000E+00
	 0.00000000E+00	 0.00000000E+00	 4.55997000E-13

	 4.53784000E-13	 0.00000000E+00	 0.00000000E+00
	 0.00000000E+00	 4.53784000E-13	 0.00000000E+00
	 0.00000000E+00	 0.00000000E+00	 4.53784000E-13

	 4.53784000E-13	 0.00000000E+00	 0.00000000E+00
	 0.00000000E+00	 4.53784000E-13	 0.00000000E+00
	 0.00000000E+00	 0.00000000E+00	 4.53784000E-13

	 4.51570000E-13	 0.00000000E+00	 0.00000000E+00
	 0.00000000E+00	 4.51570000E-13	 0.00000000E+00
	 0.00000000E+00	 0.00000000E+00	 4.51570000E-13

	 4.55997000E-13	 0.00000000E+00	 0.00000000E+00
	 0.00000000E+00	 4.55997000E-13	 0.00000000E+00
	 0.00000000E+00	 0.00000000E+00	 4.55997000E-13

	 4.58211000E-13	 0.00000000E+00	 0.00000000E+00
	 0.00000000E+00	 4.58211000E-13	 0.00000000E+00
	 0.00000000E+00	 0.00000000E+00	 4.58211000E-13

	 4.62638000E-13	 0.00000000E+00	 0.00000000E+00
	 0.00000000E+00	 4.62638000E-13	 0.00000000E+00
	 0.00000000E+00	 0.00000000E+00	 4.62638000E-13

	 4.64852000E-13	 0.00000000E+00	 0.00000000E+00
	 0.00000000E+00	 4.64852000E-13	 0.00000000E+00
	 0.00000000E+00	 0.00000000E+00	 4.64852000E-13

	 4.55997000E-13	 0.00000000E+00	 0.00000000E+00
	 0.00000000E+00	 4.55997000E-13	 0.00000000E+00
	 0.00000000E+00	 0.00000000E+00	 4.55997000E-13

	 4.64852000E-13	 0.00000000E+00	 0.00000000E+00
	 0.00000000E+00	 4.64852000E-13	 0.00000000E+00
	 0.00000000E+00	 0.00000000E+00	 4.64852000E-13

	 4.64852000E-13	 0.00000000E+00	 0.00000000E+00
	 0.00000000E+00	 4.64852000E-13	 0.00000000E+00
	 0.00000000E+00	 0.00000000E+00	 4.64852000E-13

	 4.62638000E-13	 0.00000000E+00	 0.00000000E+00
	 0.00000000E+00	 4.62638000E-13	 0.00000000E+00
	 0.00000000E+00	 0.00000000E+00	 4.62638000E-13

	 4.62638000E-13	 0.00000000E+00	 0.00000000E+00
	 0.00000000E+00	 4.62638000E-13	 0.00000000E+00
	 0.00000000E+00	 0.00000000E+00	 4.62638000E-13

	 4.60425000E-13	 0.00000000E+00	 0.00000000E+00
	 0.00000000E+00	 4.60425000E-13	 0.00000000E+00
	 0.00000000E+00	 0.00000000E+00	 4.60425000E-13

	 4.51570000E-13	 0.00000000E+00	 0.00000000E+00
	 0.00000000E+00	 4.51570000E-13	 0.00000000E+00
	 0.00000000E+00	 0.00000000E+00	 4.51570000E-13

	 4.47143000E-13	 0.00000000E+00	 0.00000000E+00
	 0.00000000E+00	 4.47143000E-13	 0.00000000E+00
	 0.00000000E+00	 0.00000000E+00	 4.47143000E-13

	 4.58211000E-13	 0.00000000E+00	 0.00000000E+00
	 0.00000000E+00	 4.58211000E-13	 0.00000000E+00
	 0.00000000E+00	 0.00000000E+00	 4.58211000E-13

	 4.62638000E-13	 0.00000000E+00	 0.00000000E+00
	 0.00000000E+00	 4.62638000E-13	 0.00000000E+00
	 0.00000000E+00	 0.00000000E+00	 4.62638000E-13

	 4.47143000E-13	 0.00000000E+00	 0.00000000E+00
	 0.00000000E+00	 4.47143000E-13	 0.00000000E+00
	 0.00000000E+00	 0.00000000E+00	 4.47143000E-13

	 4.40502000E-13	 0.00000000E+00	 0.00000000E+00
	 0.00000000E+00	 4.40502000E-13	 0.00000000E+00
	 0.00000000E+00	 0.00000000E+00	 4.40502000E-13

	 4.42716000E-13	 0.00000000E+00	 0.00000000E+00
	 0.00000000E+00	 4.42716000E-13	 0.00000000E+00
	 0.00000000E+00	 0.00000000E+00	 4.42716000E-13

	 4.38289000E-13	 0.00000000E+00	 0.00000000E+00
	 0.00000000E+00	 4.38289000E-13	 0.00000000E+00
	 0.00000000E+00	 0.00000000E+00	 4.38289000E-13

	 4.38289000E-13	 0.00000000E+00	 0.00000000E+00
	 0.00000000E+00	 4.38289000E-13	 0.00000000E+00
	 0.00000000E+00	 0.00000000E+00	 4.38289000E-13

	 4.44929000E-13	 0.00000000E+00	 0.00000000E+00
	 0.00000000E+00	 4.44929000E-13	 0.00000000E+00
	 0.00000000E+00	 0.00000000E+00	 4.44929000E-13

	 4.47143000E-13	 0.00000000E+00	 0.00000000E+00
	 0.00000000E+00	 4.47143000E-13	 0.00000000E+00
	 0.00000000E+00	 0.00000000E+00	 4.47143000E-13

	 4.60425000E-13	 0.00000000E+00	 0.00000000E+00
	 0.00000000E+00	 4.60425000E-13	 0.00000000E+00
	 0.00000000E+00	 0.00000000E+00	 4.60425000E-13

	 4.49357000E-13	 0.00000000E+00	 0.00000000E+00
	 0.00000000E+00	 4.49357000E-13	 0.00000000E+00
	 0.00000000E+00	 0.00000000E+00	 4.49357000E-13

	 4.47143000E-13	 0.00000000E+00	 0.00000000E+00
	 0.00000000E+00	 4.47143000E-13	 0.00000000E+00
	 0.00000000E+00	 0.00000000E+00	 4.47143000E-13

	 4.38289000E-13	 0.00000000E+00	 0.00000000E+00
	 0.00000000E+00	 4.38289000E-13	 0.00000000E+00
	 0.00000000E+00	 0.00000000E+00	 4.38289000E-13

	 4.40502000E-13	 0.00000000E+00	 0.00000000E+00
	 0.00000000E+00	 4.40502000E-13	 0.00000000E+00
	 0.00000000E+00	 0.00000000E+00	 4.40502000E-13

	 4.55997000E-13	 0.00000000E+00	 0.00000000E+00
	 0.00000000E+00	 4.55997000E-13	 0.00000000E+00
	 0.00000000E+00	 0.00000000E+00	 4.55997000E-13

	 4.58211000E-13	 0.00000000E+00	 0.00000000E+00
	 0.00000000E+00	 4.58211000E-13	 0.00000000E+00
	 0.00000000E+00	 0.00000000E+00	 4.58211000E-13

	 4.53784000E-13	 0.00000000E+00	 0.00000000E+00
	 0.00000000E+00	 4.53784000E-13	 0.00000000E+00
	 0.00000000E+00	 0.00000000E+00	 4.53784000E-13

	 4.38289000E-13	 0.00000000E+00	 0.00000000E+00
	 0.00000000E+00	 4.38289000E-13	 0.00000000E+00
	 0.00000000E+00	 0.00000000E+00	 4.38289000E-13

	 4.38289000E-13	 0.00000000E+00	 0.00000000E+00
	 0.00000000E+00	 4.38289000E-13	 0.00000000E+00
	 0.00000000E+00	 0.00000000E+00	 4.38289000E-13

	 4.42716000E-13	 0.00000000E+00	 0.00000000E+00
	 0.00000000E+00	 4.42716000E-13	 0.00000000E+00
	 0.00000000E+00	 0.00000000E+00	 4.42716000E-13

	 4.38289000E-13	 0.00000000E+00	 0.00000000E+00
	 0.00000000E+00	 4.38289000E-13	 0.00000000E+00
	 0.00000000E+00	 0.00000000E+00	 4.38289000E-13

	 4.47143000E-13	 0.00000000E+00	 0.00000000E+00
	 0.00000000E+00	 4.47143000E-13	 0.00000000E+00
	 0.00000000E+00	 0.00000000E+00	 4.47143000E-13

	 4.44929000E-13	 0.00000000E+00	 0.00000000E+00
	 0.00000000E+00	 4.44929000E-13	 0.00000000E+00
	 0.00000000E+00	 0.00000000E+00	 4.44929000E-13

	 4.51570000E-13	 0.00000000E+00	 0.00000000E+00
	 0.00000000E+00	 4.51570000E-13	 0.00000000E+00
	 0.00000000E+00	 0.00000000E+00	 4.51570000E-13

	 4.49357000E-13	 0.00000000E+00	 0.00000000E+00
	 0.00000000E+00	 4.49357000E-13	 0.00000000E+00
	 0.00000000E+00	 0.00000000E+00	 4.49357000E-13

	 4.42716000E-13	 0.00000000E+00	 0.00000000E+00
	 0.00000000E+00	 4.42716000E-13	 0.00000000E+00
	 0.00000000E+00	 0.00000000E+00	 4.42716000E-13

	 4.42716000E-13	 0.00000000E+00	 0.00000000E+00
	 0.00000000E+00	 4.42716000E-13	 0.00000000E+00
	 0.00000000E+00	 0.00000000E+00	 4.42716000E-13

	 4.38289000E-13	 0.00000000E+00	 0.00000000E+00
	 0.00000000E+00	 4.38289000E-13	 0.00000000E+00
	 0.00000000E+00	 0.00000000E+00	 4.38289000E-13

	 4.38289000E-13	 0.00000000E+00	 0.00000000E+00
	 0.00000000E+00	 4.38289000E-13	 0.00000000E+00
	 0.00000000E+00	 0.00000000E+00	 4.38289000E-13

	 4.38289000E-13	 0.00000000E+00	 0.00000000E+00
	 0.00000000E+00	 4.38289000E-13	 0.00000000E+00
	 0.00000000E+00	 0.00000000E+00	 4.38289000E-13

	 4.38289000E-13	 0.00000000E+00	 0.00000000E+00
	 0.00000000E+00	 4.38289000E-13	 0.00000000E+00
	 0.00000000E+00	 0.00000000E+00	 4.38289000E-13

	 4.38289000E-13	 0.00000000E+00	 0.00000000E+00
	 0.00000000E+00	 4.38289000E-13	 0.00000000E+00
	 0.00000000E+00	 0.00000000E+00	 4.38289000E-13

	 4.38289000E-13	 0.00000000E+00	 0.00000000E+00
	 0.00000000E+00	 4.38289000E-13	 0.00000000E+00
	 0.00000000E+00	 0.00000000E+00	 4.38289000E-13

	 4.42716000E-13	 0.00000000E+00	 0.00000000E+00
	 0.00000000E+00	 4.42716000E-13	 0.00000000E+00
	 0.00000000E+00	 0.00000000E+00	 4.42716000E-13

	 4.40502000E-13	 0.00000000E+00	 0.00000000E+00
	 0.00000000E+00	 4.40502000E-13	 0.00000000E+00
	 0.00000000E+00	 0.00000000E+00	 4.40502000E-13

	 4.49357000E-13	 0.00000000E+00	 0.00000000E+00
	 0.00000000E+00	 4.49357000E-13	 0.00000000E+00
	 0.00000000E+00	 0.00000000E+00	 4.49357000E-13

	 4.42716000E-13	 0.00000000E+00	 0.00000000E+00
	 0.00000000E+00	 4.42716000E-13	 0.00000000E+00
	 0.00000000E+00	 0.00000000E+00	 4.42716000E-13

	 4.51570000E-13	 0.00000000E+00	 0.00000000E+00
	 0.00000000E+00	 4.51570000E-13	 0.00000000E+00
	 0.00000000E+00	 0.00000000E+00	 4.51570000E-13

	 4.42716000E-13	 0.00000000E+00	 0.00000000E+00
	 0.00000000E+00	 4.42716000E-13	 0.00000000E+00
	 0.00000000E+00	 0.00000000E+00	 4.42716000E-13

	 4.51570000E-13	 0.00000000E+00	 0.00000000E+00
	 0.00000000E+00	 4.51570000E-13	 0.00000000E+00
	 0.00000000E+00	 0.00000000E+00	 4.51570000E-13

	 4.47143000E-13	 0.00000000E+00	 0.00000000E+00
	 0.00000000E+00	 4.47143000E-13	 0.00000000E+00
	 0.00000000E+00	 0.00000000E+00	 4.47143000E-13

	 4.55997000E-13	 0.00000000E+00	 0.00000000E+00
	 0.00000000E+00	 4.55997000E-13	 0.00000000E+00
	 0.00000000E+00	 0.00000000E+00	 4.55997000E-13

	 4.55997000E-13	 0.00000000E+00	 0.00000000E+00
	 0.00000000E+00	 4.55997000E-13	 0.00000000E+00
	 0.00000000E+00	 0.00000000E+00	 4.55997000E-13

	 4.55997000E-13	 0.00000000E+00	 0.00000000E+00
	 0.00000000E+00	 4.55997000E-13	 0.00000000E+00
	 0.00000000E+00	 0.00000000E+00	 4.55997000E-13

	 4.58211000E-13	 0.00000000E+00	 0.00000000E+00
	 0.00000000E+00	 4.58211000E-13	 0.00000000E+00
	 0.00000000E+00	 0.00000000E+00	 4.58211000E-13

	 4.51570000E-13	 0.00000000E+00	 0.00000000E+00
	 0.00000000E+00	 4.51570000E-13	 0.00000000E+00
	 0.00000000E+00	 0.00000000E+00	 4.51570000E-13

	 4.62638000E-13	 0.00000000E+00	 0.00000000E+00
	 0.00000000E+00	 4.62638000E-13	 0.00000000E+00
	 0.00000000E+00	 0.00000000E+00	 4.62638000E-13

	 4.53784000E-13	 0.00000000E+00	 0.00000000E+00
	 0.00000000E+00	 4.53784000E-13	 0.00000000E+00
	 0.00000000E+00	 0.00000000E+00	 4.53784000E-13

	 4.62638000E-13	 0.00000000E+00	 0.00000000E+00
	 0.00000000E+00	 4.62638000E-13	 0.00000000E+00
	 0.00000000E+00	 0.00000000E+00	 4.62638000E-13

	 4.60425000E-13	 0.00000000E+00	 0.00000000E+00
	 0.00000000E+00	 4.60425000E-13	 0.00000000E+00
	 0.00000000E+00	 0.00000000E+00	 4.60425000E-13

	 4.55997000E-13	 0.00000000E+00	 0.00000000E+00
	 0.00000000E+00	 4.55997000E-13	 0.00000000E+00
	 0.00000000E+00	 0.00000000E+00	 4.55997000E-13

	 4.64852000E-13	 0.00000000E+00	 0.00000000E+00
	 0.00000000E+00	 4.64852000E-13	 0.00000000E+00
	 0.00000000E+00	 0.00000000E+00	 4.64852000E-13

	 4.62638000E-13	 0.00000000E+00	 0.00000000E+00
	 0.00000000E+00	 4.62638000E-13	 0.00000000E+00
	 0.00000000E+00	 0.00000000E+00	 4.62638000E-13

	 4.64852000E-13	 0.00000000E+00	 0.00000000E+00
	 0.00000000E+00	 4.64852000E-13	 0.00000000E+00
	 0.00000000E+00	 0.00000000E+00	 4.64852000E-13

	 4.64852000E-13	 0.00000000E+00	 0.00000000E+00
	 0.00000000E+00	 4.64852000E-13	 0.00000000E+00
	 0.00000000E+00	 0.00000000E+00	 4.64852000E-13

	 4.64852000E-13	 0.00000000E+00	 0.00000000E+00
	 0.00000000E+00	 4.64852000E-13	 0.00000000E+00
	 0.00000000E+00	 0.00000000E+00	 4.64852000E-13

	 4.64852000E-13	 0.00000000E+00	 0.00000000E+00
	 0.00000000E+00	 4.64852000E-13	 0.00000000E+00
	 0.00000000E+00	 0.00000000E+00	 4.64852000E-13

	 4.64852000E-13	 0.00000000E+00	 0.00000000E+00
	 0.00000000E+00	 4.64852000E-13	 0.00000000E+00
	 0.00000000E+00	 0.00000000E+00	 4.64852000E-13

	 4.64852000E-13	 0.00000000E+00	 0.00000000E+00
	 0.00000000E+00	 4.64852000E-13	 0.00000000E+00
	 0.00000000E+00	 0.00000000E+00	 4.64852000E-13

	 4.64852000E-13	 0.00000000E+00	 0.00000000E+00
	 0.00000000E+00	 4.64852000E-13	 0.00000000E+00
	 0.00000000E+00	 0.00000000E+00	 4.64852000E-13

	 4.62638000E-13	 0.00000000E+00	 0.00000000E+00
	 0.00000000E+00	 4.62638000E-13	 0.00000000E+00
	 0.00000000E+00	 0.00000000E+00	 4.62638000E-13

	 4.58211000E-13	 0.00000000E+00	 0.00000000E+00
	 0.00000000E+00	 4.58211000E-13	 0.00000000E+00
	 0.00000000E+00	 0.00000000E+00	 4.58211000E-13

	 4.55997000E-13	 0.00000000E+00	 0.00000000E+00
	 0.00000000E+00	 4.55997000E-13	 0.00000000E+00
	 0.00000000E+00	 0.00000000E+00	 4.55997000E-13

	 4.62638000E-13	 0.00000000E+00	 0.00000000E+00
	 0.00000000E+00	 4.62638000E-13	 0.00000000E+00
	 0.00000000E+00	 0.00000000E+00	 4.62638000E-13

	 4.62638000E-13	 0.00000000E+00	 0.00000000E+00
	 0.00000000E+00	 4.62638000E-13	 0.00000000E+00
	 0.00000000E+00	 0.00000000E+00	 4.62638000E-13

	 4.60425000E-13	 0.00000000E+00	 0.00000000E+00
	 0.00000000E+00	 4.60425000E-13	 0.00000000E+00
	 0.00000000E+00	 0.00000000E+00	 4.60425000E-13

	 4.64852000E-13	 0.00000000E+00	 0.00000000E+00
	 0.00000000E+00	 4.64852000E-13	 0.00000000E+00
	 0.00000000E+00	 0.00000000E+00	 4.64852000E-13

	 4.38289000E-13	 0.00000000E+00	 0.00000000E+00
	 0.00000000E+00	 4.38289000E-13	 0.00000000E+00
	 0.00000000E+00	 0.00000000E+00	 4.38289000E-13

	 4.38289000E-13	 0.00000000E+00	 0.00000000E+00
	 0.00000000E+00	 4.38289000E-13	 0.00000000E+00
	 0.00000000E+00	 0.00000000E+00	 4.38289000E-13

	 4.42716000E-13	 0.00000000E+00	 0.00000000E+00
	 0.00000000E+00	 4.42716000E-13	 0.00000000E+00
	 0.00000000E+00	 0.00000000E+00	 4.42716000E-13

	 4.47143000E-13	 0.00000000E+00	 0.00000000E+00
	 0.00000000E+00	 4.47143000E-13	 0.00000000E+00
	 0.00000000E+00	 0.00000000E+00	 4.47143000E-13

	 4.47143000E-13	 0.00000000E+00	 0.00000000E+00
	 0.00000000E+00	 4.47143000E-13	 0.00000000E+00
	 0.00000000E+00	 0.00000000E+00	 4.47143000E-13

	 4.62638000E-13	 0.00000000E+00	 0.00000000E+00
	 0.00000000E+00	 4.62638000E-13	 0.00000000E+00
	 0.00000000E+00	 0.00000000E+00	 4.62638000E-13

	 4.38289000E-13	 0.00000000E+00	 0.00000000E+00
	 0.00000000E+00	 4.38289000E-13	 0.00000000E+00
	 0.00000000E+00	 0.00000000E+00	 4.38289000E-13

	 4.64852000E-13	 0.00000000E+00	 0.00000000E+00
	 0.00000000E+00	 4.64852000E-13	 0.00000000E+00
	 0.00000000E+00	 0.00000000E+00	 4.64852000E-13

	 4.49357000E-13	 0.00000000E+00	 0.00000000E+00
	 0.00000000E+00	 4.49357000E-13	 0.00000000E+00
	 0.00000000E+00	 0.00000000E+00	 4.49357000E-13

	 4.64852000E-13	 0.00000000E+00	 0.00000000E+00
	 0.00000000E+00	 4.64852000E-13	 0.00000000E+00
	 0.00000000E+00	 0.00000000E+00	 4.64852000E-13

	 4.47143000E-13	 0.00000000E+00	 0.00000000E+00
	 0.00000000E+00	 4.47143000E-13	 0.00000000E+00
	 0.00000000E+00	 0.00000000E+00	 4.47143000E-13

	 4.44929000E-13	 0.00000000E+00	 0.00000000E+00
	 0.00000000E+00	 4.44929000E-13	 0.00000000E+00
	 0.00000000E+00	 0.00000000E+00	 4.44929000E-13

	 4.64852000E-13	 0.00000000E+00	 0.00000000E+00
	 0.00000000E+00	 4.64852000E-13	 0.00000000E+00
	 0.00000000E+00	 0.00000000E+00	 4.64852000E-13

	 4.64852000E-13	 0.00000000E+00	 0.00000000E+00
	 0.00000000E+00	 4.64852000E-13	 0.00000000E+00
	 0.00000000E+00	 0.00000000E+00	 4.64852000E-13

	 4.38289000E-13	 0.00000000E+00	 0.00000000E+00
	 0.00000000E+00	 4.38289000E-13	 0.00000000E+00
	 0.00000000E+00	 0.00000000E+00	 4.38289000E-13

	 4.38289000E-13	 0.00000000E+00	 0.00000000E+00
	 0.00000000E+00	 4.38289000E-13	 0.00000000E+00
	 0.00000000E+00	 0.00000000E+00	 4.38289000E-13

	 4.40502000E-13	 0.00000000E+00	 0.00000000E+00
	 0.00000000E+00	 4.40502000E-13	 0.00000000E+00
	 0.00000000E+00	 0.00000000E+00	 4.40502000E-13

	 4.53784000E-13	 0.00000000E+00	 0.00000000E+00
	 0.00000000E+00	 4.53784000E-13	 0.00000000E+00
	 0.00000000E+00	 0.00000000E+00	 4.53784000E-13

	 4.42716000E-13	 0.00000000E+00	 0.00000000E+00
	 0.00000000E+00	 4.42716000E-13	 0.00000000E+00
	 0.00000000E+00	 0.00000000E+00	 4.42716000E-13

	 4.42716000E-13	 0.00000000E+00	 0.00000000E+00
	 0.00000000E+00	 4.42716000E-13	 0.00000000E+00
	 0.00000000E+00	 0.00000000E+00	 4.42716000E-13

	 4.64852000E-13	 0.00000000E+00	 0.00000000E+00
	 0.00000000E+00	 4.64852000E-13	 0.00000000E+00
	 0.00000000E+00	 0.00000000E+00	 4.64852000E-13

	 4.42716000E-13	 0.00000000E+00	 0.00000000E+00
	 0.00000000E+00	 4.42716000E-13	 0.00000000E+00
	 0.00000000E+00	 0.00000000E+00	 4.42716000E-13

	 4.38289000E-13	 0.00000000E+00	 0.00000000E+00
	 0.00000000E+00	 4.38289000E-13	 0.00000000E+00
	 0.00000000E+00	 0.00000000E+00	 4.38289000E-13

	 4.62638000E-13	 0.00000000E+00	 0.00000000E+00
	 0.00000000E+00	 4.62638000E-13	 0.00000000E+00
	 0.00000000E+00	 0.00000000E+00	 4.62638000E-13

	 4.62638000E-13	 0.00000000E+00	 0.00000000E+00
	 0.00000000E+00	 4.62638000E-13	 0.00000000E+00
	 0.00000000E+00	 0.00000000E+00	 4.62638000E-13

	 4.64852000E-13	 0.00000000E+00	 0.00000000E+00
	 0.00000000E+00	 4.64852000E-13	 0.00000000E+00
	 0.00000000E+00	 0.00000000E+00	 4.64852000E-13

	 4.38289000E-13	 0.00000000E+00	 0.00000000E+00
	 0.00000000E+00	 4.38289000E-13	 0.00000000E+00
	 0.00000000E+00	 0.00000000E+00	 4.38289000E-13

	 4.42716000E-13	 0.00000000E+00	 0.00000000E+00
	 0.00000000E+00	 4.42716000E-13	 0.00000000E+00
	 0.00000000E+00	 0.00000000E+00	 4.42716000E-13

	 4.38289000E-13	 0.00000000E+00	 0.00000000E+00
	 0.00000000E+00	 4.38289000E-13	 0.00000000E+00
	 0.00000000E+00	 0.00000000E+00	 4.38289000E-13

	 4.38289000E-13	 0.00000000E+00	 0.00000000E+00
	 0.00000000E+00	 4.38289000E-13	 0.00000000E+00
	 0.00000000E+00	 0.00000000E+00	 4.38289000E-13

	 4.38289000E-13	 0.00000000E+00	 0.00000000E+00
	 0.00000000E+00	 4.38289000E-13	 0.00000000E+00
	 0.00000000E+00	 0.00000000E+00	 4.38289000E-13

	 4.44929000E-13	 0.00000000E+00	 0.00000000E+00
	 0.00000000E+00	 4.44929000E-13	 0.00000000E+00
	 0.00000000E+00	 0.00000000E+00	 4.44929000E-13

	 4.42716000E-13	 0.00000000E+00	 0.00000000E+00
	 0.00000000E+00	 4.42716000E-13	 0.00000000E+00
	 0.00000000E+00	 0.00000000E+00	 4.42716000E-13

	 4.38289000E-13	 0.00000000E+00	 0.00000000E+00
	 0.00000000E+00	 4.38289000E-13	 0.00000000E+00
	 0.00000000E+00	 0.00000000E+00	 4.38289000E-13

	 4.47143000E-13	 0.00000000E+00	 0.00000000E+00
	 0.00000000E+00	 4.47143000E-13	 0.00000000E+00
	 0.00000000E+00	 0.00000000E+00	 4.47143000E-13

	 4.58211000E-13	 0.00000000E+00	 0.00000000E+00
	 0.00000000E+00	 4.58211000E-13	 0.00000000E+00
	 0.00000000E+00	 0.00000000E+00	 4.58211000E-13

	 4.60425000E-13	 0.00000000E+00	 0.00000000E+00
	 0.00000000E+00	 4.60425000E-13	 0.00000000E+00
	 0.00000000E+00	 0.00000000E+00	 4.60425000E-13

	 4.38289000E-13	 0.00000000E+00	 0.00000000E+00
	 0.00000000E+00	 4.38289000E-13	 0.00000000E+00
	 0.00000000E+00	 0.00000000E+00	 4.38289000E-13

	 4.38289000E-13	 0.00000000E+00	 0.00000000E+00
	 0.00000000E+00	 4.38289000E-13	 0.00000000E+00
	 0.00000000E+00	 0.00000000E+00	 4.38289000E-13

	 4.47143000E-13	 0.00000000E+00	 0.00000000E+00
	 0.00000000E+00	 4.47143000E-13	 0.00000000E+00
	 0.00000000E+00	 0.00000000E+00	 4.47143000E-13

	 4.44929000E-13	 0.00000000E+00	 0.00000000E+00
	 0.00000000E+00	 4.44929000E-13	 0.00000000E+00
	 0.00000000E+00	 0.00000000E+00	 4.44929000E-13

	 4.62638000E-13	 0.00000000E+00	 0.00000000E+00
	 0.00000000E+00	 4.62638000E-13	 0.00000000E+00
	 0.00000000E+00	 0.00000000E+00	 4.62638000E-13

	 4.60425000E-13	 0.00000000E+00	 0.00000000E+00
	 0.00000000E+00	 4.60425000E-13	 0.00000000E+00
	 0.00000000E+00	 0.00000000E+00	 4.60425000E-13

	 4.64852000E-13	 0.00000000E+00	 0.00000000E+00
	 0.00000000E+00	 4.64852000E-13	 0.00000000E+00
	 0.00000000E+00	 0.00000000E+00	 4.64852000E-13

	 4.64852000E-13	 0.00000000E+00	 0.00000000E+00
	 0.00000000E+00	 4.64852000E-13	 0.00000000E+00
	 0.00000000E+00	 0.00000000E+00	 4.64852000E-13

	 4.62638000E-13	 0.00000000E+00	 0.00000000E+00
	 0.00000000E+00	 4.62638000E-13	 0.00000000E+00
	 0.00000000E+00	 0.00000000E+00	 4.62638000E-13

	 4.58211000E-13	 0.00000000E+00	 0.00000000E+00
	 0.00000000E+00	 4.58211000E-13	 0.00000000E+00
	 0.00000000E+00	 0.00000000E+00	 4.58211000E-13

	 4.55997000E-13	 0.00000000E+00	 0.00000000E+00
	 0.00000000E+00	 4.55997000E-13	 0.00000000E+00
	 0.00000000E+00	 0.00000000E+00	 4.55997000E-13

	 4.60425000E-13	 0.00000000E+00	 0.00000000E+00
	 0.00000000E+00	 4.60425000E-13	 0.00000000E+00
	 0.00000000E+00	 0.00000000E+00	 4.60425000E-13

	 4.60425000E-13	 0.00000000E+00	 0.00000000E+00
	 0.00000000E+00	 4.60425000E-13	 0.00000000E+00
	 0.00000000E+00	 0.00000000E+00	 4.60425000E-13

	 4.58211000E-13	 0.00000000E+00	 0.00000000E+00
	 0.00000000E+00	 4.58211000E-13	 0.00000000E+00
	 0.00000000E+00	 0.00000000E+00	 4.58211000E-13

	 4.44929000E-13	 0.00000000E+00	 0.00000000E+00
	 0.00000000E+00	 4.44929000E-13	 0.00000000E+00
	 0.00000000E+00	 0.00000000E+00	 4.44929000E-13

	 4.42716000E-13	 0.00000000E+00	 0.00000000E+00
	 0.00000000E+00	 4.42716000E-13	 0.00000000E+00
	 0.00000000E+00	 0.00000000E+00	 4.42716000E-13

	 4.47143000E-13	 0.00000000E+00	 0.00000000E+00
	 0.00000000E+00	 4.47143000E-13	 0.00000000E+00
	 0.00000000E+00	 0.00000000E+00	 4.47143000E-13

	 4.55997000E-13	 0.00000000E+00	 0.00000000E+00
	 0.00000000E+00	 4.55997000E-13	 0.00000000E+00
	 0.00000000E+00	 0.00000000E+00	 4.55997000E-13

	 4.62638000E-13	 0.00000000E+00	 0.00000000E+00
	 0.00000000E+00	 4.62638000E-13	 0.00000000E+00
	 0.00000000E+00	 0.00000000E+00	 4.62638000E-13

	 4.64852000E-13	 0.00000000E+00	 0.00000000E+00
	 0.00000000E+00	 4.64852000E-13	 0.00000000E+00
	 0.00000000E+00	 0.00000000E+00	 4.64852000E-13

	 4.64852000E-13	 0.00000000E+00	 0.00000000E+00
	 0.00000000E+00	 4.64852000E-13	 0.00000000E+00
	 0.00000000E+00	 0.00000000E+00	 4.64852000E-13

	 4.62638000E-13	 0.00000000E+00	 0.00000000E+00
	 0.00000000E+00	 4.62638000E-13	 0.00000000E+00
	 0.00000000E+00	 0.00000000E+00	 4.62638000E-13

	 4.55997000E-13	 0.00000000E+00	 0.00000000E+00
	 0.00000000E+00	 4.55997000E-13	 0.00000000E+00
	 0.00000000E+00	 0.00000000E+00	 4.55997000E-13

	 4.53784000E-13	 0.00000000E+00	 0.00000000E+00
	 0.00000000E+00	 4.53784000E-13	 0.00000000E+00
	 0.00000000E+00	 0.00000000E+00	 4.53784000E-13

	 4.42716000E-13	 0.00000000E+00	 0.00000000E+00
	 0.00000000E+00	 4.42716000E-13	 0.00000000E+00
	 0.00000000E+00	 0.00000000E+00	 4.42716000E-13

	 4.42716000E-13	 0.00000000E+00	 0.00000000E+00
	 0.00000000E+00	 4.42716000E-13	 0.00000000E+00
	 0.00000000E+00	 0.00000000E+00	 4.42716000E-13

	 4.40502000E-13	 0.00000000E+00	 0.00000000E+00
	 0.00000000E+00	 4.40502000E-13	 0.00000000E+00
	 0.00000000E+00	 0.00000000E+00	 4.40502000E-13

	 4.42716000E-13	 0.00000000E+00	 0.00000000E+00
	 0.00000000E+00	 4.42716000E-13	 0.00000000E+00
	 0.00000000E+00	 0.00000000E+00	 4.42716000E-13

	 4.47143000E-13	 0.00000000E+00	 0.00000000E+00
	 0.00000000E+00	 4.47143000E-13	 0.00000000E+00
	 0.00000000E+00	 0.00000000E+00	 4.47143000E-13

	 4.38289000E-13	 0.00000000E+00	 0.00000000E+00
	 0.00000000E+00	 4.38289000E-13	 0.00000000E+00
	 0.00000000E+00	 0.00000000E+00	 4.38289000E-13

	 4.47143000E-13	 0.00000000E+00	 0.00000000E+00
	 0.00000000E+00	 4.47143000E-13	 0.00000000E+00
	 0.00000000E+00	 0.00000000E+00	 4.47143000E-13

	 4.38289000E-13	 0.00000000E+00	 0.00000000E+00
	 0.00000000E+00	 4.38289000E-13	 0.00000000E+00
	 0.00000000E+00	 0.00000000E+00	 4.38289000E-13

	 4.42716000E-13	 0.00000000E+00	 0.00000000E+00
	 0.00000000E+00	 4.42716000E-13	 0.00000000E+00
	 0.00000000E+00	 0.00000000E+00	 4.42716000E-13

	 4.38289000E-13	 0.00000000E+00	 0.00000000E+00
	 0.00000000E+00	 4.38289000E-13	 0.00000000E+00
	 0.00000000E+00	 0.00000000E+00	 4.38289000E-13

	 4.38289000E-13	 0.00000000E+00	 0.00000000E+00
	 0.00000000E+00	 4.38289000E-13	 0.00000000E+00
	 0.00000000E+00	 0.00000000E+00	 4.38289000E-13

	 4.51570000E-13	 0.00000000E+00	 0.00000000E+00
	 0.00000000E+00	 4.51570000E-13	 0.00000000E+00
	 0.00000000E+00	 0.00000000E+00	 4.51570000E-13

	 4.47143000E-13	 0.00000000E+00	 0.00000000E+00
	 0.00000000E+00	 4.47143000E-13	 0.00000000E+00
	 0.00000000E+00	 0.00000000E+00	 4.47143000E-13

	 4.38289000E-13	 0.00000000E+00	 0.00000000E+00
	 0.00000000E+00	 4.38289000E-13	 0.00000000E+00
	 0.00000000E+00	 0.00000000E+00	 4.38289000E-13

	 4.40502000E-13	 0.00000000E+00	 0.00000000E+00
	 0.00000000E+00	 4.40502000E-13	 0.00000000E+00
	 0.00000000E+00	 0.00000000E+00	 4.40502000E-13

	 4.38289000E-13	 0.00000000E+00	 0.00000000E+00
	 0.00000000E+00	 4.38289000E-13	 0.00000000E+00
	 0.00000000E+00	 0.00000000E+00	 4.38289000E-13

	 4.38289000E-13	 0.00000000E+00	 0.00000000E+00
	 0.00000000E+00	 4.38289000E-13	 0.00000000E+00
	 0.00000000E+00	 0.00000000E+00	 4.38289000E-13

	 4.58211000E-13	 0.00000000E+00	 0.00000000E+00
	 0.00000000E+00	 4.58211000E-13	 0.00000000E+00
	 0.00000000E+00	 0.00000000E+00	 4.58211000E-13

	 4.47143000E-13	 0.00000000E+00	 0.00000000E+00
	 0.00000000E+00	 4.47143000E-13	 0.00000000E+00
	 0.00000000E+00	 0.00000000E+00	 4.47143000E-13

	 4.64852000E-13	 0.00000000E+00	 0.00000000E+00
	 0.00000000E+00	 4.64852000E-13	 0.00000000E+00
	 0.00000000E+00	 0.00000000E+00	 4.64852000E-13

	 4.38289000E-13	 0.00000000E+00	 0.00000000E+00
	 0.00000000E+00	 4.38289000E-13	 0.00000000E+00
	 0.00000000E+00	 0.00000000E+00	 4.38289000E-13

	 4.38289000E-13	 0.00000000E+00	 0.00000000E+00
	 0.00000000E+00	 4.38289000E-13	 0.00000000E+00
	 0.00000000E+00	 0.00000000E+00	 4.38289000E-13

	 4.40502000E-13	 0.00000000E+00	 0.00000000E+00
	 0.00000000E+00	 4.40502000E-13	 0.00000000E+00
	 0.00000000E+00	 0.00000000E+00	 4.40502000E-13

	 4.38289000E-13	 0.00000000E+00	 0.00000000E+00
	 0.00000000E+00	 4.38289000E-13	 0.00000000E+00
	 0.00000000E+00	 0.00000000E+00	 4.38289000E-13

	 4.38289000E-13	 0.00000000E+00	 0.00000000E+00
	 0.00000000E+00	 4.38289000E-13	 0.00000000E+00
	 0.00000000E+00	 0.00000000E+00	 4.38289000E-13

	 4.38289000E-13	 0.00000000E+00	 0.00000000E+00
	 0.00000000E+00	 4.38289000E-13	 0.00000000E+00
	 0.00000000E+00	 0.00000000E+00	 4.38289000E-13

	 4.60425000E-13	 0.00000000E+00	 0.00000000E+00
	 0.00000000E+00	 4.60425000E-13	 0.00000000E+00
	 0.00000000E+00	 0.00000000E+00	 4.60425000E-13

	 4.58211000E-13	 0.00000000E+00	 0.00000000E+00
	 0.00000000E+00	 4.58211000E-13	 0.00000000E+00
	 0.00000000E+00	 0.00000000E+00	 4.58211000E-13

	 4.47143000E-13	 0.00000000E+00	 0.00000000E+00
	 0.00000000E+00	 4.47143000E-13	 0.00000000E+00
	 0.00000000E+00	 0.00000000E+00	 4.47143000E-13

	 4.58211000E-13	 0.00000000E+00	 0.00000000E+00
	 0.00000000E+00	 4.58211000E-13	 0.00000000E+00
	 0.00000000E+00	 0.00000000E+00	 4.58211000E-13

	 4.64852000E-13	 0.00000000E+00	 0.00000000E+00
	 0.00000000E+00	 4.64852000E-13	 0.00000000E+00
	 0.00000000E+00	 0.00000000E+00	 4.64852000E-13

	 4.60425000E-13	 0.00000000E+00	 0.00000000E+00
	 0.00000000E+00	 4.60425000E-13	 0.00000000E+00
	 0.00000000E+00	 0.00000000E+00	 4.60425000E-13

	 4.64852000E-13	 0.00000000E+00	 0.00000000E+00
	 0.00000000E+00	 4.64852000E-13	 0.00000000E+00
	 0.00000000E+00	 0.00000000E+00	 4.64852000E-13

	 4.62638000E-13	 0.00000000E+00	 0.00000000E+00
	 0.00000000E+00	 4.62638000E-13	 0.00000000E+00
	 0.00000000E+00	 0.00000000E+00	 4.62638000E-13

	 4.60425000E-13	 0.00000000E+00	 0.00000000E+00
	 0.00000000E+00	 4.60425000E-13	 0.00000000E+00
	 0.00000000E+00	 0.00000000E+00	 4.60425000E-13

	 4.53784000E-13	 0.00000000E+00	 0.00000000E+00
	 0.00000000E+00	 4.53784000E-13	 0.00000000E+00
	 0.00000000E+00	 0.00000000E+00	 4.53784000E-13

	 4.49357000E-13	 0.00000000E+00	 0.00000000E+00
	 0.00000000E+00	 4.49357000E-13	 0.00000000E+00
	 0.00000000E+00	 0.00000000E+00	 4.49357000E-13

	 4.62638000E-13	 0.00000000E+00	 0.00000000E+00
	 0.00000000E+00	 4.62638000E-13	 0.00000000E+00
	 0.00000000E+00	 0.00000000E+00	 4.62638000E-13

	 4.51570000E-13	 0.00000000E+00	 0.00000000E+00
	 0.00000000E+00	 4.51570000E-13	 0.00000000E+00
	 0.00000000E+00	 0.00000000E+00	 4.51570000E-13

	 4.55997000E-13	 0.00000000E+00	 0.00000000E+00
	 0.00000000E+00	 4.55997000E-13	 0.00000000E+00
	 0.00000000E+00	 0.00000000E+00	 4.55997000E-13

	 4.62638000E-13	 0.00000000E+00	 0.00000000E+00
	 0.00000000E+00	 4.62638000E-13	 0.00000000E+00
	 0.00000000E+00	 0.00000000E+00	 4.62638000E-13

	 4.53784000E-13	 0.00000000E+00	 0.00000000E+00
	 0.00000000E+00	 4.53784000E-13	 0.00000000E+00
	 0.00000000E+00	 0.00000000E+00	 4.53784000E-13

	 4.62638000E-13	 0.00000000E+00	 0.00000000E+00
	 0.00000000E+00	 4.62638000E-13	 0.00000000E+00
	 0.00000000E+00	 0.00000000E+00	 4.62638000E-13

	 4.58211000E-13	 0.00000000E+00	 0.00000000E+00
	 0.00000000E+00	 4.58211000E-13	 0.00000000E+00
	 0.00000000E+00	 0.00000000E+00	 4.58211000E-13

	 4.62638000E-13	 0.00000000E+00	 0.00000000E+00
	 0.00000000E+00	 4.62638000E-13	 0.00000000E+00
	 0.00000000E+00	 0.00000000E+00	 4.62638000E-13

	 4.62638000E-13	 0.00000000E+00	 0.00000000E+00
	 0.00000000E+00	 4.62638000E-13	 0.00000000E+00
	 0.00000000E+00	 0.00000000E+00	 4.62638000E-13

	 4.51570000E-13	 0.00000000E+00	 0.00000000E+00
	 0.00000000E+00	 4.51570000E-13	 0.00000000E+00
	 0.00000000E+00	 0.00000000E+00	 4.51570000E-13

	 4.51570000E-13	 0.00000000E+00	 0.00000000E+00
	 0.00000000E+00	 4.51570000E-13	 0.00000000E+00
	 0.00000000E+00	 0.00000000E+00	 4.51570000E-13

	 4.58211000E-13	 0.00000000E+00	 0.00000000E+00
	 0.00000000E+00	 4.58211000E-13	 0.00000000E+00
	 0.00000000E+00	 0.00000000E+00	 4.58211000E-13

	 4.42716000E-13	 0.00000000E+00	 0.00000000E+00
	 0.00000000E+00	 4.42716000E-13	 0.00000000E+00
	 0.00000000E+00	 0.00000000E+00	 4.42716000E-13

	 4.60425000E-13	 0.00000000E+00	 0.00000000E+00
	 0.00000000E+00	 4.60425000E-13	 0.00000000E+00
	 0.00000000E+00	 0.00000000E+00	 4.60425000E-13

	 4.62638000E-13	 0.00000000E+00	 0.00000000E+00
	 0.00000000E+00	 4.62638000E-13	 0.00000000E+00
	 0.00000000E+00	 0.00000000E+00	 4.62638000E-13

	 4.53784000E-13	 0.00000000E+00	 0.00000000E+00
	 0.00000000E+00	 4.53784000E-13	 0.00000000E+00
	 0.00000000E+00	 0.00000000E+00	 4.53784000E-13

	 4.55997000E-13	 0.00000000E+00	 0.00000000E+00
	 0.00000000E+00	 4.55997000E-13	 0.00000000E+00
	 0.00000000E+00	 0.00000000E+00	 4.55997000E-13

	 4.47143000E-13	 0.00000000E+00	 0.00000000E+00
	 0.00000000E+00	 4.47143000E-13	 0.00000000E+00
	 0.00000000E+00	 0.00000000E+00	 4.47143000E-13

	 4.51570000E-13	 0.00000000E+00	 0.00000000E+00
	 0.00000000E+00	 4.51570000E-13	 0.00000000E+00
	 0.00000000E+00	 0.00000000E+00	 4.51570000E-13

	 4.51570000E-13	 0.00000000E+00	 0.00000000E+00
	 0.00000000E+00	 4.51570000E-13	 0.00000000E+00
	 0.00000000E+00	 0.00000000E+00	 4.51570000E-13

	 4.38289000E-13	 0.00000000E+00	 0.00000000E+00
	 0.00000000E+00	 4.38289000E-13	 0.00000000E+00
	 0.00000000E+00	 0.00000000E+00	 4.38289000E-13

	 4.42716000E-13	 0.00000000E+00	 0.00000000E+00
	 0.00000000E+00	 4.42716000E-13	 0.00000000E+00
	 0.00000000E+00	 0.00000000E+00	 4.42716000E-13

	 4.42716000E-13	 0.00000000E+00	 0.00000000E+00
	 0.00000000E+00	 4.42716000E-13	 0.00000000E+00
	 0.00000000E+00	 0.00000000E+00	 4.42716000E-13

	 4.58211000E-13	 0.00000000E+00	 0.00000000E+00
	 0.00000000E+00	 4.58211000E-13	 0.00000000E+00
	 0.00000000E+00	 0.00000000E+00	 4.58211000E-13

	 4.38289000E-13	 0.00000000E+00	 0.00000000E+00
	 0.00000000E+00	 4.38289000E-13	 0.00000000E+00
	 0.00000000E+00	 0.00000000E+00	 4.38289000E-13

	 4.38289000E-13	 0.00000000E+00	 0.00000000E+00
	 0.00000000E+00	 4.38289000E-13	 0.00000000E+00
	 0.00000000E+00	 0.00000000E+00	 4.38289000E-13

	 4.38289000E-13	 0.00000000E+00	 0.00000000E+00
	 0.00000000E+00	 4.38289000E-13	 0.00000000E+00
	 0.00000000E+00	 0.00000000E+00	 4.38289000E-13

	 4.38289000E-13	 0.00000000E+00	 0.00000000E+00
	 0.00000000E+00	 4.38289000E-13	 0.00000000E+00
	 0.00000000E+00	 0.00000000E+00	 4.38289000E-13

	 4.38289000E-13	 0.00000000E+00	 0.00000000E+00
	 0.00000000E+00	 4.38289000E-13	 0.00000000E+00
	 0.00000000E+00	 0.00000000E+00	 4.38289000E-13

	 4.38289000E-13	 0.00000000E+00	 0.00000000E+00
	 0.00000000E+00	 4.38289000E-13	 0.00000000E+00
	 0.00000000E+00	 0.00000000E+00	 4.38289000E-13

	 4.38289000E-13	 0.00000000E+00	 0.00000000E+00
	 0.00000000E+00	 4.38289000E-13	 0.00000000E+00
	 0.00000000E+00	 0.00000000E+00	 4.38289000E-13

	 4.38289000E-13	 0.00000000E+00	 0.00000000E+00
	 0.00000000E+00	 4.38289000E-13	 0.00000000E+00
	 0.00000000E+00	 0.00000000E+00	 4.38289000E-13

	 4.38289000E-13	 0.00000000E+00	 0.00000000E+00
	 0.00000000E+00	 4.38289000E-13	 0.00000000E+00
	 0.00000000E+00	 0.00000000E+00	 4.38289000E-13

	 4.42716000E-13	 0.00000000E+00	 0.00000000E+00
	 0.00000000E+00	 4.42716000E-13	 0.00000000E+00
	 0.00000000E+00	 0.00000000E+00	 4.42716000E-13

	 4.38289000E-13	 0.00000000E+00	 0.00000000E+00
	 0.00000000E+00	 4.38289000E-13	 0.00000000E+00
	 0.00000000E+00	 0.00000000E+00	 4.38289000E-13

	 4.38289000E-13	 0.00000000E+00	 0.00000000E+00
	 0.00000000E+00	 4.38289000E-13	 0.00000000E+00
	 0.00000000E+00	 0.00000000E+00	 4.38289000E-13

	 4.38289000E-13	 0.00000000E+00	 0.00000000E+00
	 0.00000000E+00	 4.38289000E-13	 0.00000000E+00
	 0.00000000E+00	 0.00000000E+00	 4.38289000E-13

	 4.40502000E-13	 0.00000000E+00	 0.00000000E+00
	 0.00000000E+00	 4.40502000E-13	 0.00000000E+00
	 0.00000000E+00	 0.00000000E+00	 4.40502000E-13

	 4.38289000E-13	 0.00000000E+00	 0.00000000E+00
	 0.00000000E+00	 4.38289000E-13	 0.00000000E+00
	 0.00000000E+00	 0.00000000E+00	 4.38289000E-13

	 4.38289000E-13	 0.00000000E+00	 0.00000000E+00
	 0.00000000E+00	 4.38289000E-13	 0.00000000E+00
	 0.00000000E+00	 0.00000000E+00	 4.38289000E-13

	 4.38289000E-13	 0.00000000E+00	 0.00000000E+00
	 0.00000000E+00	 4.38289000E-13	 0.00000000E+00
	 0.00000000E+00	 0.00000000E+00	 4.38289000E-13

	 4.38289000E-13	 0.00000000E+00	 0.00000000E+00
	 0.00000000E+00	 4.38289000E-13	 0.00000000E+00
	 0.00000000E+00	 0.00000000E+00	 4.38289000E-13

	 4.38289000E-13	 0.00000000E+00	 0.00000000E+00
	 0.00000000E+00	 4.38289000E-13	 0.00000000E+00
	 0.00000000E+00	 0.00000000E+00	 4.38289000E-13

	 4.38289000E-13	 0.00000000E+00	 0.00000000E+00
	 0.00000000E+00	 4.38289000E-13	 0.00000000E+00
	 0.00000000E+00	 0.00000000E+00	 4.38289000E-13

	 4.60425000E-13	 0.00000000E+00	 0.00000000E+00
	 0.00000000E+00	 4.60425000E-13	 0.00000000E+00
	 0.00000000E+00	 0.00000000E+00	 4.60425000E-13

	 4.58211000E-13	 0.00000000E+00	 0.00000000E+00
	 0.00000000E+00	 4.58211000E-13	 0.00000000E+00
	 0.00000000E+00	 0.00000000E+00	 4.58211000E-13

	 4.49357000E-13	 0.00000000E+00	 0.00000000E+00
	 0.00000000E+00	 4.49357000E-13	 0.00000000E+00
	 0.00000000E+00	 0.00000000E+00	 4.49357000E-13

	 4.49357000E-13	 0.00000000E+00	 0.00000000E+00
	 0.00000000E+00	 4.49357000E-13	 0.00000000E+00
	 0.00000000E+00	 0.00000000E+00	 4.49357000E-13

	 4.53784000E-13	 0.00000000E+00	 0.00000000E+00
	 0.00000000E+00	 4.53784000E-13	 0.00000000E+00
	 0.00000000E+00	 0.00000000E+00	 4.53784000E-13

	 4.42716000E-13	 0.00000000E+00	 0.00000000E+00
	 0.00000000E+00	 4.42716000E-13	 0.00000000E+00
	 0.00000000E+00	 0.00000000E+00	 4.42716000E-13

	 4.38289000E-13	 0.00000000E+00	 0.00000000E+00
	 0.00000000E+00	 4.38289000E-13	 0.00000000E+00
	 0.00000000E+00	 0.00000000E+00	 4.38289000E-13

	 4.51570000E-13	 0.00000000E+00	 0.00000000E+00
	 0.00000000E+00	 4.51570000E-13	 0.00000000E+00
	 0.00000000E+00	 0.00000000E+00	 4.51570000E-13

	 4.38289000E-13	 0.00000000E+00	 0.00000000E+00
	 0.00000000E+00	 4.38289000E-13	 0.00000000E+00
	 0.00000000E+00	 0.00000000E+00	 4.38289000E-13

	 4.38289000E-13	 0.00000000E+00	 0.00000000E+00
	 0.00000000E+00	 4.38289000E-13	 0.00000000E+00
	 0.00000000E+00	 0.00000000E+00	 4.38289000E-13

	 4.42716000E-13	 0.00000000E+00	 0.00000000E+00
	 0.00000000E+00	 4.42716000E-13	 0.00000000E+00
	 0.00000000E+00	 0.00000000E+00	 4.42716000E-13

	 4.47143000E-13	 0.00000000E+00	 0.00000000E+00
	 0.00000000E+00	 4.47143000E-13	 0.00000000E+00
	 0.00000000E+00	 0.00000000E+00	 4.47143000E-13

	 4.47143000E-13	 0.00000000E+00	 0.00000000E+00
	 0.00000000E+00	 4.47143000E-13	 0.00000000E+00
	 0.00000000E+00	 0.00000000E+00	 4.47143000E-13

	 4.47143000E-13	 0.00000000E+00	 0.00000000E+00
	 0.00000000E+00	 4.47143000E-13	 0.00000000E+00
	 0.00000000E+00	 0.00000000E+00	 4.47143000E-13

	 4.51570000E-13	 0.00000000E+00	 0.00000000E+00
	 0.00000000E+00	 4.51570000E-13	 0.00000000E+00
	 0.00000000E+00	 0.00000000E+00	 4.51570000E-13

	 4.64852000E-13	 0.00000000E+00	 0.00000000E+00
	 0.00000000E+00	 4.64852000E-13	 0.00000000E+00
	 0.00000000E+00	 0.00000000E+00	 4.64852000E-13

	 4.64852000E-13	 0.00000000E+00	 0.00000000E+00
	 0.00000000E+00	 4.64852000E-13	 0.00000000E+00
	 0.00000000E+00	 0.00000000E+00	 4.64852000E-13

	 4.64852000E-13	 0.00000000E+00	 0.00000000E+00
	 0.00000000E+00	 4.64852000E-13	 0.00000000E+00
	 0.00000000E+00	 0.00000000E+00	 4.64852000E-13

	 4.53784000E-13	 0.00000000E+00	 0.00000000E+00
	 0.00000000E+00	 4.53784000E-13	 0.00000000E+00
	 0.00000000E+00	 0.00000000E+00	 4.53784000E-13

	 4.60425000E-13	 0.00000000E+00	 0.00000000E+00
	 0.00000000E+00	 4.60425000E-13	 0.00000000E+00
	 0.00000000E+00	 0.00000000E+00	 4.60425000E-13

	 4.58211000E-13	 0.00000000E+00	 0.00000000E+00
	 0.00000000E+00	 4.58211000E-13	 0.00000000E+00
	 0.00000000E+00	 0.00000000E+00	 4.58211000E-13

	 4.38289000E-13	 0.00000000E+00	 0.00000000E+00
	 0.00000000E+00	 4.38289000E-13	 0.00000000E+00
	 0.00000000E+00	 0.00000000E+00	 4.38289000E-13

	 4.38289000E-13	 0.00000000E+00	 0.00000000E+00
	 0.00000000E+00	 4.38289000E-13	 0.00000000E+00
	 0.00000000E+00	 0.00000000E+00	 4.38289000E-13

	 4.38289000E-13	 0.00000000E+00	 0.00000000E+00
	 0.00000000E+00	 4.38289000E-13	 0.00000000E+00
	 0.00000000E+00	 0.00000000E+00	 4.38289000E-13

	 4.55997000E-13	 0.00000000E+00	 0.00000000E+00
	 0.00000000E+00	 4.55997000E-13	 0.00000000E+00
	 0.00000000E+00	 0.00000000E+00	 4.55997000E-13

	 4.51570000E-13	 0.00000000E+00	 0.00000000E+00
	 0.00000000E+00	 4.51570000E-13	 0.00000000E+00
	 0.00000000E+00	 0.00000000E+00	 4.51570000E-13

	 4.53784000E-13	 0.00000000E+00	 0.00000000E+00
	 0.00000000E+00	 4.53784000E-13	 0.00000000E+00
	 0.00000000E+00	 0.00000000E+00	 4.53784000E-13

	 4.47143000E-13	 0.00000000E+00	 0.00000000E+00
	 0.00000000E+00	 4.47143000E-13	 0.00000000E+00
	 0.00000000E+00	 0.00000000E+00	 4.47143000E-13

	 4.64852000E-13	 0.00000000E+00	 0.00000000E+00
	 0.00000000E+00	 4.64852000E-13	 0.00000000E+00
	 0.00000000E+00	 0.00000000E+00	 4.64852000E-13

	 4.55997000E-13	 0.00000000E+00	 0.00000000E+00
	 0.00000000E+00	 4.55997000E-13	 0.00000000E+00
	 0.00000000E+00	 0.00000000E+00	 4.55997000E-13

	 4.47143000E-13	 0.00000000E+00	 0.00000000E+00
	 0.00000000E+00	 4.47143000E-13	 0.00000000E+00
	 0.00000000E+00	 0.00000000E+00	 4.47143000E-13

	 4.38289000E-13	 0.00000000E+00	 0.00000000E+00
	 0.00000000E+00	 4.38289000E-13	 0.00000000E+00
	 0.00000000E+00	 0.00000000E+00	 4.38289000E-13

	 4.38289000E-13	 0.00000000E+00	 0.00000000E+00
	 0.00000000E+00	 4.38289000E-13	 0.00000000E+00
	 0.00000000E+00	 0.00000000E+00	 4.38289000E-13

	 4.38289000E-13	 0.00000000E+00	 0.00000000E+00
	 0.00000000E+00	 4.38289000E-13	 0.00000000E+00
	 0.00000000E+00	 0.00000000E+00	 4.38289000E-13

	 4.38289000E-13	 0.00000000E+00	 0.00000000E+00
	 0.00000000E+00	 4.38289000E-13	 0.00000000E+00
	 0.00000000E+00	 0.00000000E+00	 4.38289000E-13

	 4.42716000E-13	 0.00000000E+00	 0.00000000E+00
	 0.00000000E+00	 4.42716000E-13	 0.00000000E+00
	 0.00000000E+00	 0.00000000E+00	 4.42716000E-13

	 4.38289000E-13	 0.00000000E+00	 0.00000000E+00
	 0.00000000E+00	 4.38289000E-13	 0.00000000E+00
	 0.00000000E+00	 0.00000000E+00	 4.38289000E-13

	 4.55997000E-13	 0.00000000E+00	 0.00000000E+00
	 0.00000000E+00	 4.55997000E-13	 0.00000000E+00
	 0.00000000E+00	 0.00000000E+00	 4.55997000E-13

	 4.38289000E-13	 0.00000000E+00	 0.00000000E+00
	 0.00000000E+00	 4.38289000E-13	 0.00000000E+00
	 0.00000000E+00	 0.00000000E+00	 4.38289000E-13

	 4.38289000E-13	 0.00000000E+00	 0.00000000E+00
	 0.00000000E+00	 4.38289000E-13	 0.00000000E+00
	 0.00000000E+00	 0.00000000E+00	 4.38289000E-13

	 4.38289000E-13	 0.00000000E+00	 0.00000000E+00
	 0.00000000E+00	 4.38289000E-13	 0.00000000E+00
	 0.00000000E+00	 0.00000000E+00	 4.38289000E-13

	 4.38289000E-13	 0.00000000E+00	 0.00000000E+00
	 0.00000000E+00	 4.38289000E-13	 0.00000000E+00
	 0.00000000E+00	 0.00000000E+00	 4.38289000E-13

	 4.51570000E-13	 0.00000000E+00	 0.00000000E+00
	 0.00000000E+00	 4.51570000E-13	 0.00000000E+00
	 0.00000000E+00	 0.00000000E+00	 4.51570000E-13

	 4.47775000E-13	 0.00000000E+00	 0.00000000E+00
	 0.00000000E+00	 4.47775000E-13	 0.00000000E+00
	 0.00000000E+00	 0.00000000E+00	 4.47775000E-13

	 4.55997000E-13	 0.00000000E+00	 0.00000000E+00
	 0.00000000E+00	 4.55997000E-13	 0.00000000E+00
	 0.00000000E+00	 0.00000000E+00	 4.55997000E-13

	 4.64852000E-13	 0.00000000E+00	 0.00000000E+00
	 0.00000000E+00	 4.64852000E-13	 0.00000000E+00
	 0.00000000E+00	 0.00000000E+00	 4.64852000E-13

	 4.49357000E-13	 0.00000000E+00	 0.00000000E+00
	 0.00000000E+00	 4.49357000E-13	 0.00000000E+00
	 0.00000000E+00	 0.00000000E+00	 4.49357000E-13

	 4.42716000E-13	 0.00000000E+00	 0.00000000E+00
	 0.00000000E+00	 4.42716000E-13	 0.00000000E+00
	 0.00000000E+00	 0.00000000E+00	 4.42716000E-13

	 4.47143000E-13	 0.00000000E+00	 0.00000000E+00
	 0.00000000E+00	 4.47143000E-13	 0.00000000E+00
	 0.00000000E+00	 0.00000000E+00	 4.47143000E-13

	 4.38289000E-13	 0.00000000E+00	 0.00000000E+00
	 0.00000000E+00	 4.38289000E-13	 0.00000000E+00
	 0.00000000E+00	 0.00000000E+00	 4.38289000E-13

	 4.38289000E-13	 0.00000000E+00	 0.00000000E+00
	 0.00000000E+00	 4.38289000E-13	 0.00000000E+00
	 0.00000000E+00	 0.00000000E+00	 4.38289000E-13

	 4.38289000E-13	 0.00000000E+00	 0.00000000E+00
	 0.00000000E+00	 4.38289000E-13	 0.00000000E+00
	 0.00000000E+00	 0.00000000E+00	 4.38289000E-13

	 4.38289000E-13	 0.00000000E+00	 0.00000000E+00
	 0.00000000E+00	 4.38289000E-13	 0.00000000E+00
	 0.00000000E+00	 0.00000000E+00	 4.38289000E-13

	 4.38289000E-13	 0.00000000E+00	 0.00000000E+00
	 0.00000000E+00	 4.38289000E-13	 0.00000000E+00
	 0.00000000E+00	 0.00000000E+00	 4.38289000E-13

	 4.38289000E-13	 0.00000000E+00	 0.00000000E+00
	 0.00000000E+00	 4.38289000E-13	 0.00000000E+00
	 0.00000000E+00	 0.00000000E+00	 4.38289000E-13

	 4.64852000E-13	 0.00000000E+00	 0.00000000E+00
	 0.00000000E+00	 4.64852000E-13	 0.00000000E+00
	 0.00000000E+00	 0.00000000E+00	 4.64852000E-13

	 4.40186000E-13	 0.00000000E+00	 0.00000000E+00
	 0.00000000E+00	 4.40186000E-13	 0.00000000E+00
	 0.00000000E+00	 0.00000000E+00	 4.40186000E-13

	 4.49357000E-13	 0.00000000E+00	 0.00000000E+00
	 0.00000000E+00	 4.49357000E-13	 0.00000000E+00
	 0.00000000E+00	 0.00000000E+00	 4.49357000E-13

	 4.51570000E-13	 0.00000000E+00	 0.00000000E+00
	 0.00000000E+00	 4.51570000E-13	 0.00000000E+00
	 0.00000000E+00	 0.00000000E+00	 4.51570000E-13

	 4.46258000E-13	 0.00000000E+00	 0.00000000E+00
	 0.00000000E+00	 4.46258000E-13	 0.00000000E+00
	 0.00000000E+00	 0.00000000E+00	 4.46258000E-13

	 4.42716000E-13	 0.00000000E+00	 0.00000000E+00
	 0.00000000E+00	 4.42716000E-13	 0.00000000E+00
	 0.00000000E+00	 0.00000000E+00	 4.42716000E-13

	 4.38289000E-13	 0.00000000E+00	 0.00000000E+00
	 0.00000000E+00	 4.38289000E-13	 0.00000000E+00
	 0.00000000E+00	 0.00000000E+00	 4.38289000E-13

	 4.64852000E-13	 0.00000000E+00	 0.00000000E+00
	 0.00000000E+00	 4.64852000E-13	 0.00000000E+00
	 0.00000000E+00	 0.00000000E+00	 4.64852000E-13

	 4.64852000E-13	 0.00000000E+00	 0.00000000E+00
	 0.00000000E+00	 4.64852000E-13	 0.00000000E+00
	 0.00000000E+00	 0.00000000E+00	 4.64852000E-13

	 4.64852000E-13	 0.00000000E+00	 0.00000000E+00
	 0.00000000E+00	 4.64852000E-13	 0.00000000E+00
	 0.00000000E+00	 0.00000000E+00	 4.64852000E-13

	 4.64852000E-13	 0.00000000E+00	 0.00000000E+00
	 0.00000000E+00	 4.64852000E-13	 0.00000000E+00
	 0.00000000E+00	 0.00000000E+00	 4.64852000E-13

	 4.64852000E-13	 0.00000000E+00	 0.00000000E+00
	 0.00000000E+00	 4.64852000E-13	 0.00000000E+00
	 0.00000000E+00	 0.00000000E+00	 4.64852000E-13

	 4.64852000E-13	 0.00000000E+00	 0.00000000E+00
	 0.00000000E+00	 4.64852000E-13	 0.00000000E+00
	 0.00000000E+00	 0.00000000E+00	 4.64852000E-13

	 4.64852000E-13	 0.00000000E+00	 0.00000000E+00
	 0.00000000E+00	 4.64852000E-13	 0.00000000E+00
	 0.00000000E+00	 0.00000000E+00	 4.64852000E-13

	 4.64852000E-13	 0.00000000E+00	 0.00000000E+00
	 0.00000000E+00	 4.64852000E-13	 0.00000000E+00
	 0.00000000E+00	 0.00000000E+00	 4.64852000E-13

	 4.64852000E-13	 0.00000000E+00	 0.00000000E+00
	 0.00000000E+00	 4.64852000E-13	 0.00000000E+00
	 0.00000000E+00	 0.00000000E+00	 4.64852000E-13

	 4.64852000E-13	 0.00000000E+00	 0.00000000E+00
	 0.00000000E+00	 4.64852000E-13	 0.00000000E+00
	 0.00000000E+00	 0.00000000E+00	 4.64852000E-13

	 4.64852000E-13	 0.00000000E+00	 0.00000000E+00
	 0.00000000E+00	 4.64852000E-13	 0.00000000E+00
	 0.00000000E+00	 0.00000000E+00	 4.64852000E-13

	 4.62638000E-13	 0.00000000E+00	 0.00000000E+00
	 0.00000000E+00	 4.62638000E-13	 0.00000000E+00
	 0.00000000E+00	 0.00000000E+00	 4.62638000E-13

	 4.64852000E-13	 0.00000000E+00	 0.00000000E+00
	 0.00000000E+00	 4.64852000E-13	 0.00000000E+00
	 0.00000000E+00	 0.00000000E+00	 4.64852000E-13

	 4.64852000E-13	 0.00000000E+00	 0.00000000E+00
	 0.00000000E+00	 4.64852000E-13	 0.00000000E+00
	 0.00000000E+00	 0.00000000E+00	 4.64852000E-13

	 4.62638000E-13	 0.00000000E+00	 0.00000000E+00
	 0.00000000E+00	 4.62638000E-13	 0.00000000E+00
	 0.00000000E+00	 0.00000000E+00	 4.62638000E-13

	 4.64852000E-13	 0.00000000E+00	 0.00000000E+00
	 0.00000000E+00	 4.64852000E-13	 0.00000000E+00
	 0.00000000E+00	 0.00000000E+00	 4.64852000E-13

	 4.64852000E-13	 0.00000000E+00	 0.00000000E+00
	 0.00000000E+00	 4.64852000E-13	 0.00000000E+00
	 0.00000000E+00	 0.00000000E+00	 4.64852000E-13

	 4.64852000E-13	 0.00000000E+00	 0.00000000E+00
	 0.00000000E+00	 4.64852000E-13	 0.00000000E+00
	 0.00000000E+00	 0.00000000E+00	 4.64852000E-13

	 4.64852000E-13	 0.00000000E+00	 0.00000000E+00
	 0.00000000E+00	 4.64852000E-13	 0.00000000E+00
	 0.00000000E+00	 0.00000000E+00	 4.64852000E-13

	 4.60425000E-13	 0.00000000E+00	 0.00000000E+00
	 0.00000000E+00	 4.60425000E-13	 0.00000000E+00
	 0.00000000E+00	 0.00000000E+00	 4.60425000E-13

	 4.64852000E-13	 0.00000000E+00	 0.00000000E+00
	 0.00000000E+00	 4.64852000E-13	 0.00000000E+00
	 0.00000000E+00	 0.00000000E+00	 4.64852000E-13

	 4.62638000E-13	 0.00000000E+00	 0.00000000E+00
	 0.00000000E+00	 4.62638000E-13	 0.00000000E+00
	 0.00000000E+00	 0.00000000E+00	 4.62638000E-13

	 4.64852000E-13	 0.00000000E+00	 0.00000000E+00
	 0.00000000E+00	 4.64852000E-13	 0.00000000E+00
	 0.00000000E+00	 0.00000000E+00	 4.64852000E-13

	 4.64852000E-13	 0.00000000E+00	 0.00000000E+00
	 0.00000000E+00	 4.64852000E-13	 0.00000000E+00
	 0.00000000E+00	 0.00000000E+00	 4.64852000E-13

	 4.64852000E-13	 0.00000000E+00	 0.00000000E+00
	 0.00000000E+00	 4.64852000E-13	 0.00000000E+00
	 0.00000000E+00	 0.00000000E+00	 4.64852000E-13

	 4.64852000E-13	 0.00000000E+00	 0.00000000E+00
	 0.00000000E+00	 4.64852000E-13	 0.00000000E+00
	 0.00000000E+00	 0.00000000E+00	 4.64852000E-13

	 4.64852000E-13	 0.00000000E+00	 0.00000000E+00
	 0.00000000E+00	 4.64852000E-13	 0.00000000E+00
	 0.00000000E+00	 0.00000000E+00	 4.64852000E-13

	 4.64852000E-13	 0.00000000E+00	 0.00000000E+00
	 0.00000000E+00	 4.64852000E-13	 0.00000000E+00
	 0.00000000E+00	 0.00000000E+00	 4.64852000E-13

	 4.64852000E-13	 0.00000000E+00	 0.00000000E+00
	 0.00000000E+00	 4.64852000E-13	 0.00000000E+00
	 0.00000000E+00	 0.00000000E+00	 4.64852000E-13

	 4.64852000E-13	 0.00000000E+00	 0.00000000E+00
	 0.00000000E+00	 4.64852000E-13	 0.00000000E+00
	 0.00000000E+00	 0.00000000E+00	 4.64852000E-13

	 4.64852000E-13	 0.00000000E+00	 0.00000000E+00
	 0.00000000E+00	 4.64852000E-13	 0.00000000E+00
	 0.00000000E+00	 0.00000000E+00	 4.64852000E-13

	 4.64852000E-13	 0.00000000E+00	 0.00000000E+00
	 0.00000000E+00	 4.64852000E-13	 0.00000000E+00
	 0.00000000E+00	 0.00000000E+00	 4.64852000E-13

	 4.64852000E-13	 0.00000000E+00	 0.00000000E+00
	 0.00000000E+00	 4.64852000E-13	 0.00000000E+00
	 0.00000000E+00	 0.00000000E+00	 4.64852000E-13

	 4.64852000E-13	 0.00000000E+00	 0.00000000E+00
	 0.00000000E+00	 4.64852000E-13	 0.00000000E+00
	 0.00000000E+00	 0.00000000E+00	 4.64852000E-13

	 4.62638000E-13	 0.00000000E+00	 0.00000000E+00
	 0.00000000E+00	 4.62638000E-13	 0.00000000E+00
	 0.00000000E+00	 0.00000000E+00	 4.62638000E-13

	 4.62638000E-13	 0.00000000E+00	 0.00000000E+00
	 0.00000000E+00	 4.62638000E-13	 0.00000000E+00
	 0.00000000E+00	 0.00000000E+00	 4.62638000E-13

	 4.58211000E-13	 0.00000000E+00	 0.00000000E+00
	 0.00000000E+00	 4.58211000E-13	 0.00000000E+00
	 0.00000000E+00	 0.00000000E+00	 4.58211000E-13

	 4.62638000E-13	 0.00000000E+00	 0.00000000E+00
	 0.00000000E+00	 4.62638000E-13	 0.00000000E+00
	 0.00000000E+00	 0.00000000E+00	 4.62638000E-13

	 4.55997000E-13	 0.00000000E+00	 0.00000000E+00
	 0.00000000E+00	 4.55997000E-13	 0.00000000E+00
	 0.00000000E+00	 0.00000000E+00	 4.55997000E-13

	 4.62638000E-13	 0.00000000E+00	 0.00000000E+00
	 0.00000000E+00	 4.62638000E-13	 0.00000000E+00
	 0.00000000E+00	 0.00000000E+00	 4.62638000E-13

	 4.60425000E-13	 0.00000000E+00	 0.00000000E+00
	 0.00000000E+00	 4.60425000E-13	 0.00000000E+00
	 0.00000000E+00	 0.00000000E+00	 4.60425000E-13

	 4.64852000E-13	 0.00000000E+00	 0.00000000E+00
	 0.00000000E+00	 4.64852000E-13	 0.00000000E+00
	 0.00000000E+00	 0.00000000E+00	 4.64852000E-13

	 4.62638000E-13	 0.00000000E+00	 0.00000000E+00
	 0.00000000E+00	 4.62638000E-13	 0.00000000E+00
	 0.00000000E+00	 0.00000000E+00	 4.62638000E-13

	 4.58211000E-13	 0.00000000E+00	 0.00000000E+00
	 0.00000000E+00	 4.58211000E-13	 0.00000000E+00
	 0.00000000E+00	 0.00000000E+00	 4.58211000E-13

	 4.53784000E-13	 0.00000000E+00	 0.00000000E+00
	 0.00000000E+00	 4.53784000E-13	 0.00000000E+00
	 0.00000000E+00	 0.00000000E+00	 4.53784000E-13

	 4.42716000E-13	 0.00000000E+00	 0.00000000E+00
	 0.00000000E+00	 4.42716000E-13	 0.00000000E+00
	 0.00000000E+00	 0.00000000E+00	 4.42716000E-13

	 4.51570000E-13	 0.00000000E+00	 0.00000000E+00
	 0.00000000E+00	 4.51570000E-13	 0.00000000E+00
	 0.00000000E+00	 0.00000000E+00	 4.51570000E-13

	 4.49357000E-13	 0.00000000E+00	 0.00000000E+00
	 0.00000000E+00	 4.49357000E-13	 0.00000000E+00
	 0.00000000E+00	 0.00000000E+00	 4.49357000E-13

	 4.62638000E-13	 0.00000000E+00	 0.00000000E+00
	 0.00000000E+00	 4.62638000E-13	 0.00000000E+00
	 0.00000000E+00	 0.00000000E+00	 4.62638000E-13

	 4.64852000E-13	 0.00000000E+00	 0.00000000E+00
	 0.00000000E+00	 4.64852000E-13	 0.00000000E+00
	 0.00000000E+00	 0.00000000E+00	 4.64852000E-13

	 4.64852000E-13	 0.00000000E+00	 0.00000000E+00
	 0.00000000E+00	 4.64852000E-13	 0.00000000E+00
	 0.00000000E+00	 0.00000000E+00	 4.64852000E-13

	 4.64852000E-13	 0.00000000E+00	 0.00000000E+00
	 0.00000000E+00	 4.64852000E-13	 0.00000000E+00
	 0.00000000E+00	 0.00000000E+00	 4.64852000E-13

	 4.64852000E-13	 0.00000000E+00	 0.00000000E+00
	 0.00000000E+00	 4.64852000E-13	 0.00000000E+00
	 0.00000000E+00	 0.00000000E+00	 4.64852000E-13

	 4.64852000E-13	 0.00000000E+00	 0.00000000E+00
	 0.00000000E+00	 4.64852000E-13	 0.00000000E+00
	 0.00000000E+00	 0.00000000E+00	 4.64852000E-13

	 4.64852000E-13	 0.00000000E+00	 0.00000000E+00
	 0.00000000E+00	 4.64852000E-13	 0.00000000E+00
	 0.00000000E+00	 0.00000000E+00	 4.64852000E-13

	 4.64852000E-13	 0.00000000E+00	 0.00000000E+00
	 0.00000000E+00	 4.64852000E-13	 0.00000000E+00
	 0.00000000E+00	 0.00000000E+00	 4.64852000E-13

	 4.64852000E-13	 0.00000000E+00	 0.00000000E+00
	 0.00000000E+00	 4.64852000E-13	 0.00000000E+00
	 0.00000000E+00	 0.00000000E+00	 4.64852000E-13

	 4.64852000E-13	 0.00000000E+00	 0.00000000E+00
	 0.00000000E+00	 4.64852000E-13	 0.00000000E+00
	 0.00000000E+00	 0.00000000E+00	 4.64852000E-13

	 4.64852000E-13	 0.00000000E+00	 0.00000000E+00
	 0.00000000E+00	 4.64852000E-13	 0.00000000E+00
	 0.00000000E+00	 0.00000000E+00	 4.64852000E-13

	 4.64852000E-13	 0.00000000E+00	 0.00000000E+00
	 0.00000000E+00	 4.64852000E-13	 0.00000000E+00
	 0.00000000E+00	 0.00000000E+00	 4.64852000E-13

	 4.55997000E-13	 0.00000000E+00	 0.00000000E+00
	 0.00000000E+00	 4.55997000E-13	 0.00000000E+00
	 0.00000000E+00	 0.00000000E+00	 4.55997000E-13

	 4.62638000E-13	 0.00000000E+00	 0.00000000E+00
	 0.00000000E+00	 4.62638000E-13	 0.00000000E+00
	 0.00000000E+00	 0.00000000E+00	 4.62638000E-13

	 4.51570000E-13	 0.00000000E+00	 0.00000000E+00
	 0.00000000E+00	 4.51570000E-13	 0.00000000E+00
	 0.00000000E+00	 0.00000000E+00	 4.51570000E-13

	 4.64852000E-13	 0.00000000E+00	 0.00000000E+00
	 0.00000000E+00	 4.64852000E-13	 0.00000000E+00
	 0.00000000E+00	 0.00000000E+00	 4.64852000E-13

	 4.64852000E-13	 0.00000000E+00	 0.00000000E+00
	 0.00000000E+00	 4.64852000E-13	 0.00000000E+00
	 0.00000000E+00	 0.00000000E+00	 4.64852000E-13

	 4.55997000E-13	 0.00000000E+00	 0.00000000E+00
	 0.00000000E+00	 4.55997000E-13	 0.00000000E+00
	 0.00000000E+00	 0.00000000E+00	 4.55997000E-13

	 4.64852000E-13	 0.00000000E+00	 0.00000000E+00
	 0.00000000E+00	 4.64852000E-13	 0.00000000E+00
	 0.00000000E+00	 0.00000000E+00	 4.64852000E-13

	 4.60425000E-13	 0.00000000E+00	 0.00000000E+00
	 0.00000000E+00	 4.60425000E-13	 0.00000000E+00
	 0.00000000E+00	 0.00000000E+00	 4.60425000E-13

	 4.64852000E-13	 0.00000000E+00	 0.00000000E+00
	 0.00000000E+00	 4.64852000E-13	 0.00000000E+00
	 0.00000000E+00	 0.00000000E+00	 4.64852000E-13

	 4.47143000E-13	 0.00000000E+00	 0.00000000E+00
	 0.00000000E+00	 4.47143000E-13	 0.00000000E+00
	 0.00000000E+00	 0.00000000E+00	 4.47143000E-13

	 4.60425000E-13	 0.00000000E+00	 0.00000000E+00
	 0.00000000E+00	 4.60425000E-13	 0.00000000E+00
	 0.00000000E+00	 0.00000000E+00	 4.60425000E-13

	 4.64852000E-13	 0.00000000E+00	 0.00000000E+00
	 0.00000000E+00	 4.64852000E-13	 0.00000000E+00
	 0.00000000E+00	 0.00000000E+00	 4.64852000E-13

	 4.64852000E-13	 0.00000000E+00	 0.00000000E+00
	 0.00000000E+00	 4.64852000E-13	 0.00000000E+00
	 0.00000000E+00	 0.00000000E+00	 4.64852000E-13

	 4.64852000E-13	 0.00000000E+00	 0.00000000E+00
	 0.00000000E+00	 4.64852000E-13	 0.00000000E+00
	 0.00000000E+00	 0.00000000E+00	 4.64852000E-13

	 4.64852000E-13	 0.00000000E+00	 0.00000000E+00
	 0.00000000E+00	 4.64852000E-13	 0.00000000E+00
	 0.00000000E+00	 0.00000000E+00	 4.64852000E-13

	 4.64852000E-13	 0.00000000E+00	 0.00000000E+00
	 0.00000000E+00	 4.64852000E-13	 0.00000000E+00
	 0.00000000E+00	 0.00000000E+00	 4.64852000E-13

	 4.62638000E-13	 0.00000000E+00	 0.00000000E+00
	 0.00000000E+00	 4.62638000E-13	 0.00000000E+00
	 0.00000000E+00	 0.00000000E+00	 4.62638000E-13

	 4.64852000E-13	 0.00000000E+00	 0.00000000E+00
	 0.00000000E+00	 4.64852000E-13	 0.00000000E+00
	 0.00000000E+00	 0.00000000E+00	 4.64852000E-13

	 4.60425000E-13	 0.00000000E+00	 0.00000000E+00
	 0.00000000E+00	 4.60425000E-13	 0.00000000E+00
	 0.00000000E+00	 0.00000000E+00	 4.60425000E-13

	 4.64852000E-13	 0.00000000E+00	 0.00000000E+00
	 0.00000000E+00	 4.64852000E-13	 0.00000000E+00
	 0.00000000E+00	 0.00000000E+00	 4.64852000E-13

	 4.64852000E-13	 0.00000000E+00	 0.00000000E+00
	 0.00000000E+00	 4.64852000E-13	 0.00000000E+00
	 0.00000000E+00	 0.00000000E+00	 4.64852000E-13

	 4.64852000E-13	 0.00000000E+00	 0.00000000E+00
	 0.00000000E+00	 4.64852000E-13	 0.00000000E+00
	 0.00000000E+00	 0.00000000E+00	 4.64852000E-13

	 4.64852000E-13	 0.00000000E+00	 0.00000000E+00
	 0.00000000E+00	 4.64852000E-13	 0.00000000E+00
	 0.00000000E+00	 0.00000000E+00	 4.64852000E-13

	 4.64852000E-13	 0.00000000E+00	 0.00000000E+00
	 0.00000000E+00	 4.64852000E-13	 0.00000000E+00
	 0.00000000E+00	 0.00000000E+00	 4.64852000E-13

	 4.62638000E-13	 0.00000000E+00	 0.00000000E+00
	 0.00000000E+00	 4.62638000E-13	 0.00000000E+00
	 0.00000000E+00	 0.00000000E+00	 4.62638000E-13

	 4.64852000E-13	 0.00000000E+00	 0.00000000E+00
	 0.00000000E+00	 4.64852000E-13	 0.00000000E+00
	 0.00000000E+00	 0.00000000E+00	 4.64852000E-13

	 4.60425000E-13	 0.00000000E+00	 0.00000000E+00
	 0.00000000E+00	 4.60425000E-13	 0.00000000E+00
	 0.00000000E+00	 0.00000000E+00	 4.60425000E-13

	 4.64852000E-13	 0.00000000E+00	 0.00000000E+00
	 0.00000000E+00	 4.64852000E-13	 0.00000000E+00
	 0.00000000E+00	 0.00000000E+00	 4.64852000E-13

	 4.64852000E-13	 0.00000000E+00	 0.00000000E+00
	 0.00000000E+00	 4.64852000E-13	 0.00000000E+00
	 0.00000000E+00	 0.00000000E+00	 4.64852000E-13

	 4.55997000E-13	 0.00000000E+00	 0.00000000E+00
	 0.00000000E+00	 4.55997000E-13	 0.00000000E+00
	 0.00000000E+00	 0.00000000E+00	 4.55997000E-13

	 4.58211000E-13	 0.00000000E+00	 0.00000000E+00
	 0.00000000E+00	 4.58211000E-13	 0.00000000E+00
	 0.00000000E+00	 0.00000000E+00	 4.58211000E-13

	 4.42716000E-13	 0.00000000E+00	 0.00000000E+00
	 0.00000000E+00	 4.42716000E-13	 0.00000000E+00
	 0.00000000E+00	 0.00000000E+00	 4.42716000E-13

	 4.47143000E-13	 0.00000000E+00	 0.00000000E+00
	 0.00000000E+00	 4.47143000E-13	 0.00000000E+00
	 0.00000000E+00	 0.00000000E+00	 4.47143000E-13

	 4.40502000E-13	 0.00000000E+00	 0.00000000E+00
	 0.00000000E+00	 4.40502000E-13	 0.00000000E+00
	 0.00000000E+00	 0.00000000E+00	 4.40502000E-13

	 4.51570000E-13	 0.00000000E+00	 0.00000000E+00
	 0.00000000E+00	 4.51570000E-13	 0.00000000E+00
	 0.00000000E+00	 0.00000000E+00	 4.51570000E-13

	 4.58211000E-13	 0.00000000E+00	 0.00000000E+00
	 0.00000000E+00	 4.58211000E-13	 0.00000000E+00
	 0.00000000E+00	 0.00000000E+00	 4.58211000E-13

	 4.47143000E-13	 0.00000000E+00	 0.00000000E+00
	 0.00000000E+00	 4.47143000E-13	 0.00000000E+00
	 0.00000000E+00	 0.00000000E+00	 4.47143000E-13

	 4.64852000E-13	 0.00000000E+00	 0.00000000E+00
	 0.00000000E+00	 4.64852000E-13	 0.00000000E+00
	 0.00000000E+00	 0.00000000E+00	 4.64852000E-13

	 4.55997000E-13	 0.00000000E+00	 0.00000000E+00
	 0.00000000E+00	 4.55997000E-13	 0.00000000E+00
	 0.00000000E+00	 0.00000000E+00	 4.55997000E-13

	 4.60425000E-13	 0.00000000E+00	 0.00000000E+00
	 0.00000000E+00	 4.60425000E-13	 0.00000000E+00
	 0.00000000E+00	 0.00000000E+00	 4.60425000E-13

	 4.62638000E-13	 0.00000000E+00	 0.00000000E+00
	 0.00000000E+00	 4.62638000E-13	 0.00000000E+00
	 0.00000000E+00	 0.00000000E+00	 4.62638000E-13

	 4.53784000E-13	 0.00000000E+00	 0.00000000E+00
	 0.00000000E+00	 4.53784000E-13	 0.00000000E+00
	 0.00000000E+00	 0.00000000E+00	 4.53784000E-13

	 4.55997000E-13	 0.00000000E+00	 0.00000000E+00
	 0.00000000E+00	 4.55997000E-13	 0.00000000E+00
	 0.00000000E+00	 0.00000000E+00	 4.55997000E-13

	 4.47143000E-13	 0.00000000E+00	 0.00000000E+00
	 0.00000000E+00	 4.47143000E-13	 0.00000000E+00
	 0.00000000E+00	 0.00000000E+00	 4.47143000E-13

	 4.60425000E-13	 0.00000000E+00	 0.00000000E+00
	 0.00000000E+00	 4.60425000E-13	 0.00000000E+00
	 0.00000000E+00	 0.00000000E+00	 4.60425000E-13

	 4.51570000E-13	 0.00000000E+00	 0.00000000E+00
	 0.00000000E+00	 4.51570000E-13	 0.00000000E+00
	 0.00000000E+00	 0.00000000E+00	 4.51570000E-13

	 4.58211000E-13	 0.00000000E+00	 0.00000000E+00
	 0.00000000E+00	 4.58211000E-13	 0.00000000E+00
	 0.00000000E+00	 0.00000000E+00	 4.58211000E-13

	 4.47143000E-13	 0.00000000E+00	 0.00000000E+00
	 0.00000000E+00	 4.47143000E-13	 0.00000000E+00
	 0.00000000E+00	 0.00000000E+00	 4.47143000E-13

	 4.55997000E-13	 0.00000000E+00	 0.00000000E+00
	 0.00000000E+00	 4.55997000E-13	 0.00000000E+00
	 0.00000000E+00	 0.00000000E+00	 4.55997000E-13

	 4.51570000E-13	 0.00000000E+00	 0.00000000E+00
	 0.00000000E+00	 4.51570000E-13	 0.00000000E+00
	 0.00000000E+00	 0.00000000E+00	 4.51570000E-13

	 4.58211000E-13	 0.00000000E+00	 0.00000000E+00
	 0.00000000E+00	 4.58211000E-13	 0.00000000E+00
	 0.00000000E+00	 0.00000000E+00	 4.58211000E-13

	 4.51570000E-13	 0.00000000E+00	 0.00000000E+00
	 0.00000000E+00	 4.51570000E-13	 0.00000000E+00
	 0.00000000E+00	 0.00000000E+00	 4.51570000E-13

	 4.47143000E-13	 0.00000000E+00	 0.00000000E+00
	 0.00000000E+00	 4.47143000E-13	 0.00000000E+00
	 0.00000000E+00	 0.00000000E+00	 4.47143000E-13

	 4.40502000E-13	 0.00000000E+00	 0.00000000E+00
	 0.00000000E+00	 4.40502000E-13	 0.00000000E+00
	 0.00000000E+00	 0.00000000E+00	 4.40502000E-13

	 4.42716000E-13	 0.00000000E+00	 0.00000000E+00
	 0.00000000E+00	 4.42716000E-13	 0.00000000E+00
	 0.00000000E+00	 0.00000000E+00	 4.42716000E-13

	 4.38289000E-13	 0.00000000E+00	 0.00000000E+00
	 0.00000000E+00	 4.38289000E-13	 0.00000000E+00
	 0.00000000E+00	 0.00000000E+00	 4.38289000E-13

	 4.51570000E-13	 0.00000000E+00	 0.00000000E+00
	 0.00000000E+00	 4.51570000E-13	 0.00000000E+00
	 0.00000000E+00	 0.00000000E+00	 4.51570000E-13

	 4.51570000E-13	 0.00000000E+00	 0.00000000E+00
	 0.00000000E+00	 4.51570000E-13	 0.00000000E+00
	 0.00000000E+00	 0.00000000E+00	 4.51570000E-13

	 4.62638000E-13	 0.00000000E+00	 0.00000000E+00
	 0.00000000E+00	 4.62638000E-13	 0.00000000E+00
	 0.00000000E+00	 0.00000000E+00	 4.62638000E-13

	 4.60425000E-13	 0.00000000E+00	 0.00000000E+00
	 0.00000000E+00	 4.60425000E-13	 0.00000000E+00
	 0.00000000E+00	 0.00000000E+00	 4.60425000E-13

	 4.49357000E-13	 0.00000000E+00	 0.00000000E+00
	 0.00000000E+00	 4.49357000E-13	 0.00000000E+00
	 0.00000000E+00	 0.00000000E+00	 4.49357000E-13

	 4.42716000E-13	 0.00000000E+00	 0.00000000E+00
	 0.00000000E+00	 4.42716000E-13	 0.00000000E+00
	 0.00000000E+00	 0.00000000E+00	 4.42716000E-13

	 4.49357000E-13	 0.00000000E+00	 0.00000000E+00
	 0.00000000E+00	 4.49357000E-13	 0.00000000E+00
	 0.00000000E+00	 0.00000000E+00	 4.49357000E-13

	 4.47143000E-13	 0.00000000E+00	 0.00000000E+00
	 0.00000000E+00	 4.47143000E-13	 0.00000000E+00
	 0.00000000E+00	 0.00000000E+00	 4.47143000E-13

	 4.58211000E-13	 0.00000000E+00	 0.00000000E+00
	 0.00000000E+00	 4.58211000E-13	 0.00000000E+00
	 0.00000000E+00	 0.00000000E+00	 4.58211000E-13

	 4.38289000E-13	 0.00000000E+00	 0.00000000E+00
	 0.00000000E+00	 4.38289000E-13	 0.00000000E+00
	 0.00000000E+00	 0.00000000E+00	 4.38289000E-13

	 4.42716000E-13	 0.00000000E+00	 0.00000000E+00
	 0.00000000E+00	 4.42716000E-13	 0.00000000E+00
	 0.00000000E+00	 0.00000000E+00	 4.42716000E-13

	 4.60425000E-13	 0.00000000E+00	 0.00000000E+00
	 0.00000000E+00	 4.60425000E-13	 0.00000000E+00
	 0.00000000E+00	 0.00000000E+00	 4.60425000E-13

	 4.47143000E-13	 0.00000000E+00	 0.00000000E+00
	 0.00000000E+00	 4.47143000E-13	 0.00000000E+00
	 0.00000000E+00	 0.00000000E+00	 4.47143000E-13

	 4.62638000E-13	 0.00000000E+00	 0.00000000E+00
	 0.00000000E+00	 4.62638000E-13	 0.00000000E+00
	 0.00000000E+00	 0.00000000E+00	 4.62638000E-13

	 4.51570000E-13	 0.00000000E+00	 0.00000000E+00
	 0.00000000E+00	 4.51570000E-13	 0.00000000E+00
	 0.00000000E+00	 0.00000000E+00	 4.51570000E-13

	 4.64852000E-13	 0.00000000E+00	 0.00000000E+00
	 0.00000000E+00	 4.64852000E-13	 0.00000000E+00
	 0.00000000E+00	 0.00000000E+00	 4.64852000E-13

	 4.60425000E-13	 0.00000000E+00	 0.00000000E+00
	 0.00000000E+00	 4.60425000E-13	 0.00000000E+00
	 0.00000000E+00	 0.00000000E+00	 4.60425000E-13

	 4.47143000E-13	 0.00000000E+00	 0.00000000E+00
	 0.00000000E+00	 4.47143000E-13	 0.00000000E+00
	 0.00000000E+00	 0.00000000E+00	 4.47143000E-13

	 4.49357000E-13	 0.00000000E+00	 0.00000000E+00
	 0.00000000E+00	 4.49357000E-13	 0.00000000E+00
	 0.00000000E+00	 0.00000000E+00	 4.49357000E-13

	 4.60425000E-13	 0.00000000E+00	 0.00000000E+00
	 0.00000000E+00	 4.60425000E-13	 0.00000000E+00
	 0.00000000E+00	 0.00000000E+00	 4.60425000E-13

	 4.47143000E-13	 0.00000000E+00	 0.00000000E+00
	 0.00000000E+00	 4.47143000E-13	 0.00000000E+00
	 0.00000000E+00	 0.00000000E+00	 4.47143000E-13

	 4.47143000E-13	 0.00000000E+00	 0.00000000E+00
	 0.00000000E+00	 4.47143000E-13	 0.00000000E+00
	 0.00000000E+00	 0.00000000E+00	 4.47143000E-13

	 4.42716000E-13	 0.00000000E+00	 0.00000000E+00
	 0.00000000E+00	 4.42716000E-13	 0.00000000E+00
	 0.00000000E+00	 0.00000000E+00	 4.42716000E-13

	 4.38289000E-13	 0.00000000E+00	 0.00000000E+00
	 0.00000000E+00	 4.38289000E-13	 0.00000000E+00
	 0.00000000E+00	 0.00000000E+00	 4.38289000E-13

	 4.38289000E-13	 0.00000000E+00	 0.00000000E+00
	 0.00000000E+00	 4.38289000E-13	 0.00000000E+00
	 0.00000000E+00	 0.00000000E+00	 4.38289000E-13

	 4.58211000E-13	 0.00000000E+00	 0.00000000E+00
	 0.00000000E+00	 4.58211000E-13	 0.00000000E+00
	 0.00000000E+00	 0.00000000E+00	 4.58211000E-13

	 4.42716000E-13	 0.00000000E+00	 0.00000000E+00
	 0.00000000E+00	 4.42716000E-13	 0.00000000E+00
	 0.00000000E+00	 0.00000000E+00	 4.42716000E-13

	 4.38289000E-13	 0.00000000E+00	 0.00000000E+00
	 0.00000000E+00	 4.38289000E-13	 0.00000000E+00
	 0.00000000E+00	 0.00000000E+00	 4.38289000E-13

	 4.38289000E-13	 0.00000000E+00	 0.00000000E+00
	 0.00000000E+00	 4.38289000E-13	 0.00000000E+00
	 0.00000000E+00	 0.00000000E+00	 4.38289000E-13

	 4.38289000E-13	 0.00000000E+00	 0.00000000E+00
	 0.00000000E+00	 4.38289000E-13	 0.00000000E+00
	 0.00000000E+00	 0.00000000E+00	 4.38289000E-13

	 4.51570000E-13	 0.00000000E+00	 0.00000000E+00
	 0.00000000E+00	 4.51570000E-13	 0.00000000E+00
	 0.00000000E+00	 0.00000000E+00	 4.51570000E-13

	 4.42716000E-13	 0.00000000E+00	 0.00000000E+00
	 0.00000000E+00	 4.42716000E-13	 0.00000000E+00
	 0.00000000E+00	 0.00000000E+00	 4.42716000E-13

	 4.62954000E-13	 0.00000000E+00	 0.00000000E+00
	 0.00000000E+00	 4.62954000E-13	 0.00000000E+00
	 0.00000000E+00	 0.00000000E+00	 4.62954000E-13

	 4.49357000E-13	 0.00000000E+00	 0.00000000E+00
	 0.00000000E+00	 4.49357000E-13	 0.00000000E+00
	 0.00000000E+00	 0.00000000E+00	 4.49357000E-13

	 4.47143000E-13	 0.00000000E+00	 0.00000000E+00
	 0.00000000E+00	 4.47143000E-13	 0.00000000E+00
	 0.00000000E+00	 0.00000000E+00	 4.47143000E-13

	 4.42716000E-13	 0.00000000E+00	 0.00000000E+00
	 0.00000000E+00	 4.42716000E-13	 0.00000000E+00
	 0.00000000E+00	 0.00000000E+00	 4.42716000E-13

	 4.42716000E-13	 0.00000000E+00	 0.00000000E+00
	 0.00000000E+00	 4.42716000E-13	 0.00000000E+00
	 0.00000000E+00	 0.00000000E+00	 4.42716000E-13

	 4.38289000E-13	 0.00000000E+00	 0.00000000E+00
	 0.00000000E+00	 4.38289000E-13	 0.00000000E+00
	 0.00000000E+00	 0.00000000E+00	 4.38289000E-13

	 4.38289000E-13	 0.00000000E+00	 0.00000000E+00
	 0.00000000E+00	 4.38289000E-13	 0.00000000E+00
	 0.00000000E+00	 0.00000000E+00	 4.38289000E-13

	 4.47143000E-13	 0.00000000E+00	 0.00000000E+00
	 0.00000000E+00	 4.47143000E-13	 0.00000000E+00
	 0.00000000E+00	 0.00000000E+00	 4.47143000E-13

	 4.64852000E-13	 0.00000000E+00	 0.00000000E+00
	 0.00000000E+00	 4.64852000E-13	 0.00000000E+00
	 0.00000000E+00	 0.00000000E+00	 4.64852000E-13

	 4.55997000E-13	 0.00000000E+00	 0.00000000E+00
	 0.00000000E+00	 4.55997000E-13	 0.00000000E+00
	 0.00000000E+00	 0.00000000E+00	 4.55997000E-13

	 4.38289000E-13	 0.00000000E+00	 0.00000000E+00
	 0.00000000E+00	 4.38289000E-13	 0.00000000E+00
	 0.00000000E+00	 0.00000000E+00	 4.38289000E-13

	 4.38289000E-13	 0.00000000E+00	 0.00000000E+00
	 0.00000000E+00	 4.38289000E-13	 0.00000000E+00
	 0.00000000E+00	 0.00000000E+00	 4.38289000E-13

	 4.64852000E-13	 0.00000000E+00	 0.00000000E+00
	 0.00000000E+00	 4.64852000E-13	 0.00000000E+00
	 0.00000000E+00	 0.00000000E+00	 4.64852000E-13

	 4.47143000E-13	 0.00000000E+00	 0.00000000E+00
	 0.00000000E+00	 4.47143000E-13	 0.00000000E+00
	 0.00000000E+00	 0.00000000E+00	 4.47143000E-13

	 4.60425000E-13	 0.00000000E+00	 0.00000000E+00
	 0.00000000E+00	 4.60425000E-13	 0.00000000E+00
	 0.00000000E+00	 0.00000000E+00	 4.60425000E-13

	 4.47143000E-13	 0.00000000E+00	 0.00000000E+00
	 0.00000000E+00	 4.47143000E-13	 0.00000000E+00
	 0.00000000E+00	 0.00000000E+00	 4.47143000E-13

	 4.62638000E-13	 0.00000000E+00	 0.00000000E+00
	 0.00000000E+00	 4.62638000E-13	 0.00000000E+00
	 0.00000000E+00	 0.00000000E+00	 4.62638000E-13

	 4.62638000E-13	 0.00000000E+00	 0.00000000E+00
	 0.00000000E+00	 4.62638000E-13	 0.00000000E+00
	 0.00000000E+00	 0.00000000E+00	 4.62638000E-13

	 4.40502000E-13	 0.00000000E+00	 0.00000000E+00
	 0.00000000E+00	 4.40502000E-13	 0.00000000E+00
	 0.00000000E+00	 0.00000000E+00	 4.40502000E-13

	 4.38289000E-13	 0.00000000E+00	 0.00000000E+00
	 0.00000000E+00	 4.38289000E-13	 0.00000000E+00
	 0.00000000E+00	 0.00000000E+00	 4.38289000E-13

	 4.51570000E-13	 0.00000000E+00	 0.00000000E+00
	 0.00000000E+00	 4.51570000E-13	 0.00000000E+00
	 0.00000000E+00	 0.00000000E+00	 4.51570000E-13

	 4.57262000E-13	 0.00000000E+00	 0.00000000E+00
	 0.00000000E+00	 4.57262000E-13	 0.00000000E+00
	 0.00000000E+00	 0.00000000E+00	 4.57262000E-13

	 4.40502000E-13	 0.00000000E+00	 0.00000000E+00
	 0.00000000E+00	 4.40502000E-13	 0.00000000E+00
	 0.00000000E+00	 0.00000000E+00	 4.40502000E-13

	 4.42716000E-13	 0.00000000E+00	 0.00000000E+00
	 0.00000000E+00	 4.42716000E-13	 0.00000000E+00
	 0.00000000E+00	 0.00000000E+00	 4.42716000E-13

	 4.64852000E-13	 0.00000000E+00	 0.00000000E+00
	 0.00000000E+00	 4.64852000E-13	 0.00000000E+00
	 0.00000000E+00	 0.00000000E+00	 4.64852000E-13

	 4.64852000E-13	 0.00000000E+00	 0.00000000E+00
	 0.00000000E+00	 4.64852000E-13	 0.00000000E+00
	 0.00000000E+00	 0.00000000E+00	 4.64852000E-13

	 4.44929000E-13	 0.00000000E+00	 0.00000000E+00
	 0.00000000E+00	 4.44929000E-13	 0.00000000E+00
	 0.00000000E+00	 0.00000000E+00	 4.44929000E-13

	 4.40502000E-13	 0.00000000E+00	 0.00000000E+00
	 0.00000000E+00	 4.40502000E-13	 0.00000000E+00
	 0.00000000E+00	 0.00000000E+00	 4.40502000E-13

	 4.53784000E-13	 0.00000000E+00	 0.00000000E+00
	 0.00000000E+00	 4.53784000E-13	 0.00000000E+00
	 0.00000000E+00	 0.00000000E+00	 4.53784000E-13

	 4.60425000E-13	 0.00000000E+00	 0.00000000E+00
	 0.00000000E+00	 4.60425000E-13	 0.00000000E+00
	 0.00000000E+00	 0.00000000E+00	 4.60425000E-13

	 4.60425000E-13	 0.00000000E+00	 0.00000000E+00
	 0.00000000E+00	 4.60425000E-13	 0.00000000E+00
	 0.00000000E+00	 0.00000000E+00	 4.60425000E-13

	 4.42716000E-13	 0.00000000E+00	 0.00000000E+00
	 0.00000000E+00	 4.42716000E-13	 0.00000000E+00
	 0.00000000E+00	 0.00000000E+00	 4.42716000E-13

	 4.47143000E-13	 0.00000000E+00	 0.00000000E+00
	 0.00000000E+00	 4.47143000E-13	 0.00000000E+00
	 0.00000000E+00	 0.00000000E+00	 4.47143000E-13

	 4.42716000E-13	 0.00000000E+00	 0.00000000E+00
	 0.00000000E+00	 4.42716000E-13	 0.00000000E+00
	 0.00000000E+00	 0.00000000E+00	 4.42716000E-13

	 4.44929000E-13	 0.00000000E+00	 0.00000000E+00
	 0.00000000E+00	 4.44929000E-13	 0.00000000E+00
	 0.00000000E+00	 0.00000000E+00	 4.44929000E-13

	 4.58211000E-13	 0.00000000E+00	 0.00000000E+00
	 0.00000000E+00	 4.58211000E-13	 0.00000000E+00
	 0.00000000E+00	 0.00000000E+00	 4.58211000E-13

	 4.55997000E-13	 0.00000000E+00	 0.00000000E+00
	 0.00000000E+00	 4.55997000E-13	 0.00000000E+00
	 0.00000000E+00	 0.00000000E+00	 4.55997000E-13

	 4.42083000E-13	 0.00000000E+00	 0.00000000E+00
	 0.00000000E+00	 4.42083000E-13	 0.00000000E+00
	 0.00000000E+00	 0.00000000E+00	 4.42083000E-13

	 4.55997000E-13	 0.00000000E+00	 0.00000000E+00
	 0.00000000E+00	 4.55997000E-13	 0.00000000E+00
	 0.00000000E+00	 0.00000000E+00	 4.55997000E-13

	 4.38289000E-13	 0.00000000E+00	 0.00000000E+00
	 0.00000000E+00	 4.38289000E-13	 0.00000000E+00
	 0.00000000E+00	 0.00000000E+00	 4.38289000E-13

	 4.38289000E-13	 0.00000000E+00	 0.00000000E+00
	 0.00000000E+00	 4.38289000E-13	 0.00000000E+00
	 0.00000000E+00	 0.00000000E+00	 4.38289000E-13

	 4.38289000E-13	 0.00000000E+00	 0.00000000E+00
	 0.00000000E+00	 4.38289000E-13	 0.00000000E+00
	 0.00000000E+00	 0.00000000E+00	 4.38289000E-13

	 4.38289000E-13	 0.00000000E+00	 0.00000000E+00
	 0.00000000E+00	 4.38289000E-13	 0.00000000E+00
	 0.00000000E+00	 0.00000000E+00	 4.38289000E-13

	 4.38289000E-13	 0.00000000E+00	 0.00000000E+00
	 0.00000000E+00	 4.38289000E-13	 0.00000000E+00
	 0.00000000E+00	 0.00000000E+00	 4.38289000E-13

	 4.40502000E-13	 0.00000000E+00	 0.00000000E+00
	 0.00000000E+00	 4.40502000E-13	 0.00000000E+00
	 0.00000000E+00	 0.00000000E+00	 4.40502000E-13

	 4.53784000E-13	 0.00000000E+00	 0.00000000E+00
	 0.00000000E+00	 4.53784000E-13	 0.00000000E+00
	 0.00000000E+00	 0.00000000E+00	 4.53784000E-13

	 4.42716000E-13	 0.00000000E+00	 0.00000000E+00
	 0.00000000E+00	 4.42716000E-13	 0.00000000E+00
	 0.00000000E+00	 0.00000000E+00	 4.42716000E-13

	 4.42716000E-13	 0.00000000E+00	 0.00000000E+00
	 0.00000000E+00	 4.42716000E-13	 0.00000000E+00
	 0.00000000E+00	 0.00000000E+00	 4.42716000E-13

	 4.64852000E-13	 0.00000000E+00	 0.00000000E+00
	 0.00000000E+00	 4.64852000E-13	 0.00000000E+00
	 0.00000000E+00	 0.00000000E+00	 4.64852000E-13

	 4.42716000E-13	 0.00000000E+00	 0.00000000E+00
	 0.00000000E+00	 4.42716000E-13	 0.00000000E+00
	 0.00000000E+00	 0.00000000E+00	 4.42716000E-13

	 4.44929000E-13	 0.00000000E+00	 0.00000000E+00
	 0.00000000E+00	 4.44929000E-13	 0.00000000E+00
	 0.00000000E+00	 0.00000000E+00	 4.44929000E-13

	 4.55997000E-13	 0.00000000E+00	 0.00000000E+00
	 0.00000000E+00	 4.55997000E-13	 0.00000000E+00
	 0.00000000E+00	 0.00000000E+00	 4.55997000E-13

	 4.40502000E-13	 0.00000000E+00	 0.00000000E+00
	 0.00000000E+00	 4.40502000E-13	 0.00000000E+00
	 0.00000000E+00	 0.00000000E+00	 4.40502000E-13

	 4.64852000E-13	 0.00000000E+00	 0.00000000E+00
	 0.00000000E+00	 4.64852000E-13	 0.00000000E+00
	 0.00000000E+00	 0.00000000E+00	 4.64852000E-13

	 4.64852000E-13	 0.00000000E+00	 0.00000000E+00
	 0.00000000E+00	 4.64852000E-13	 0.00000000E+00
	 0.00000000E+00	 0.00000000E+00	 4.64852000E-13

	 4.38289000E-13	 0.00000000E+00	 0.00000000E+00
	 0.00000000E+00	 4.38289000E-13	 0.00000000E+00
	 0.00000000E+00	 0.00000000E+00	 4.38289000E-13

	 4.38289000E-13	 0.00000000E+00	 0.00000000E+00
	 0.00000000E+00	 4.38289000E-13	 0.00000000E+00
	 0.00000000E+00	 0.00000000E+00	 4.38289000E-13

	 4.42716000E-13	 0.00000000E+00	 0.00000000E+00
	 0.00000000E+00	 4.42716000E-13	 0.00000000E+00
	 0.00000000E+00	 0.00000000E+00	 4.42716000E-13

	 4.49357000E-13	 0.00000000E+00	 0.00000000E+00
	 0.00000000E+00	 4.49357000E-13	 0.00000000E+00
	 0.00000000E+00	 0.00000000E+00	 4.49357000E-13

	 4.62638000E-13	 0.00000000E+00	 0.00000000E+00
	 0.00000000E+00	 4.62638000E-13	 0.00000000E+00
	 0.00000000E+00	 0.00000000E+00	 4.62638000E-13

	 4.53784000E-13	 0.00000000E+00	 0.00000000E+00
	 0.00000000E+00	 4.53784000E-13	 0.00000000E+00
	 0.00000000E+00	 0.00000000E+00	 4.53784000E-13

	 4.47143000E-13	 0.00000000E+00	 0.00000000E+00
	 0.00000000E+00	 4.47143000E-13	 0.00000000E+00
	 0.00000000E+00	 0.00000000E+00	 4.47143000E-13

	 4.60425000E-13	 0.00000000E+00	 0.00000000E+00
	 0.00000000E+00	 4.60425000E-13	 0.00000000E+00
	 0.00000000E+00	 0.00000000E+00	 4.60425000E-13

	 4.62638000E-13	 0.00000000E+00	 0.00000000E+00
	 0.00000000E+00	 4.62638000E-13	 0.00000000E+00
	 0.00000000E+00	 0.00000000E+00	 4.62638000E-13

	 4.60425000E-13	 0.00000000E+00	 0.00000000E+00
	 0.00000000E+00	 4.60425000E-13	 0.00000000E+00
	 0.00000000E+00	 0.00000000E+00	 4.60425000E-13

	 4.62638000E-13	 0.00000000E+00	 0.00000000E+00
	 0.00000000E+00	 4.62638000E-13	 0.00000000E+00
	 0.00000000E+00	 0.00000000E+00	 4.62638000E-13

	 4.51570000E-13	 0.00000000E+00	 0.00000000E+00
	 0.00000000E+00	 4.51570000E-13	 0.00000000E+00
	 0.00000000E+00	 0.00000000E+00	 4.51570000E-13

	 4.44929000E-13	 0.00000000E+00	 0.00000000E+00
	 0.00000000E+00	 4.44929000E-13	 0.00000000E+00
	 0.00000000E+00	 0.00000000E+00	 4.44929000E-13

	 4.58211000E-13	 0.00000000E+00	 0.00000000E+00
	 0.00000000E+00	 4.58211000E-13	 0.00000000E+00
	 0.00000000E+00	 0.00000000E+00	 4.58211000E-13

	 4.62638000E-13	 0.00000000E+00	 0.00000000E+00
	 0.00000000E+00	 4.62638000E-13	 0.00000000E+00
	 0.00000000E+00	 0.00000000E+00	 4.62638000E-13

	 4.64852000E-13	 0.00000000E+00	 0.00000000E+00
	 0.00000000E+00	 4.64852000E-13	 0.00000000E+00
	 0.00000000E+00	 0.00000000E+00	 4.64852000E-13

	 4.47143000E-13	 0.00000000E+00	 0.00000000E+00
	 0.00000000E+00	 4.47143000E-13	 0.00000000E+00
	 0.00000000E+00	 0.00000000E+00	 4.47143000E-13

	 4.51570000E-13	 0.00000000E+00	 0.00000000E+00
	 0.00000000E+00	 4.51570000E-13	 0.00000000E+00
	 0.00000000E+00	 0.00000000E+00	 4.51570000E-13

	 4.47143000E-13	 0.00000000E+00	 0.00000000E+00
	 0.00000000E+00	 4.47143000E-13	 0.00000000E+00
	 0.00000000E+00	 0.00000000E+00	 4.47143000E-13

	 4.64852000E-13	 0.00000000E+00	 0.00000000E+00
	 0.00000000E+00	 4.64852000E-13	 0.00000000E+00
	 0.00000000E+00	 0.00000000E+00	 4.64852000E-13

	 4.64852000E-13	 0.00000000E+00	 0.00000000E+00
	 0.00000000E+00	 4.64852000E-13	 0.00000000E+00
	 0.00000000E+00	 0.00000000E+00	 4.64852000E-13

	 4.64852000E-13	 0.00000000E+00	 0.00000000E+00
	 0.00000000E+00	 4.64852000E-13	 0.00000000E+00
	 0.00000000E+00	 0.00000000E+00	 4.64852000E-13

	 4.64852000E-13	 0.00000000E+00	 0.00000000E+00
	 0.00000000E+00	 4.64852000E-13	 0.00000000E+00
	 0.00000000E+00	 0.00000000E+00	 4.64852000E-13

	 4.64852000E-13	 0.00000000E+00	 0.00000000E+00
	 0.00000000E+00	 4.64852000E-13	 0.00000000E+00
	 0.00000000E+00	 0.00000000E+00	 4.64852000E-13

	 4.64852000E-13	 0.00000000E+00	 0.00000000E+00
	 0.00000000E+00	 4.64852000E-13	 0.00000000E+00
	 0.00000000E+00	 0.00000000E+00	 4.64852000E-13

	 4.64852000E-13	 0.00000000E+00	 0.00000000E+00
	 0.00000000E+00	 4.64852000E-13	 0.00000000E+00
	 0.00000000E+00	 0.00000000E+00	 4.64852000E-13

	 4.62638000E-13	 0.00000000E+00	 0.00000000E+00
	 0.00000000E+00	 4.62638000E-13	 0.00000000E+00
	 0.00000000E+00	 0.00000000E+00	 4.62638000E-13

	 4.64852000E-13	 0.00000000E+00	 0.00000000E+00
	 0.00000000E+00	 4.64852000E-13	 0.00000000E+00
	 0.00000000E+00	 0.00000000E+00	 4.64852000E-13

	 4.64852000E-13	 0.00000000E+00	 0.00000000E+00
	 0.00000000E+00	 4.64852000E-13	 0.00000000E+00
	 0.00000000E+00	 0.00000000E+00	 4.64852000E-13

	 4.64852000E-13	 0.00000000E+00	 0.00000000E+00
	 0.00000000E+00	 4.64852000E-13	 0.00000000E+00
	 0.00000000E+00	 0.00000000E+00	 4.64852000E-13

	 4.64852000E-13	 0.00000000E+00	 0.00000000E+00
	 0.00000000E+00	 4.64852000E-13	 0.00000000E+00
	 0.00000000E+00	 0.00000000E+00	 4.64852000E-13

	 4.64852000E-13	 0.00000000E+00	 0.00000000E+00
	 0.00000000E+00	 4.64852000E-13	 0.00000000E+00
	 0.00000000E+00	 0.00000000E+00	 4.64852000E-13

	 4.64852000E-13	 0.00000000E+00	 0.00000000E+00
	 0.00000000E+00	 4.64852000E-13	 0.00000000E+00
	 0.00000000E+00	 0.00000000E+00	 4.64852000E-13

	 4.64852000E-13	 0.00000000E+00	 0.00000000E+00
	 0.00000000E+00	 4.64852000E-13	 0.00000000E+00
	 0.00000000E+00	 0.00000000E+00	 4.64852000E-13

	 4.64852000E-13	 0.00000000E+00	 0.00000000E+00
	 0.00000000E+00	 4.64852000E-13	 0.00000000E+00
	 0.00000000E+00	 0.00000000E+00	 4.64852000E-13

	 4.60425000E-13	 0.00000000E+00	 0.00000000E+00
	 0.00000000E+00	 4.60425000E-13	 0.00000000E+00
	 0.00000000E+00	 0.00000000E+00	 4.60425000E-13

	 4.64852000E-13	 0.00000000E+00	 0.00000000E+00
	 0.00000000E+00	 4.64852000E-13	 0.00000000E+00
	 0.00000000E+00	 0.00000000E+00	 4.64852000E-13

	 4.62638000E-13	 0.00000000E+00	 0.00000000E+00
	 0.00000000E+00	 4.62638000E-13	 0.00000000E+00
	 0.00000000E+00	 0.00000000E+00	 4.62638000E-13

	 4.60425000E-13	 0.00000000E+00	 0.00000000E+00
	 0.00000000E+00	 4.60425000E-13	 0.00000000E+00
	 0.00000000E+00	 0.00000000E+00	 4.60425000E-13

	 4.64852000E-13	 0.00000000E+00	 0.00000000E+00
	 0.00000000E+00	 4.64852000E-13	 0.00000000E+00
	 0.00000000E+00	 0.00000000E+00	 4.64852000E-13

	 4.64852000E-13	 0.00000000E+00	 0.00000000E+00
	 0.00000000E+00	 4.64852000E-13	 0.00000000E+00
	 0.00000000E+00	 0.00000000E+00	 4.64852000E-13

	 4.64852000E-13	 0.00000000E+00	 0.00000000E+00
	 0.00000000E+00	 4.64852000E-13	 0.00000000E+00
	 0.00000000E+00	 0.00000000E+00	 4.64852000E-13

	 4.64852000E-13	 0.00000000E+00	 0.00000000E+00
	 0.00000000E+00	 4.64852000E-13	 0.00000000E+00
	 0.00000000E+00	 0.00000000E+00	 4.64852000E-13

	 4.64852000E-13	 0.00000000E+00	 0.00000000E+00
	 0.00000000E+00	 4.64852000E-13	 0.00000000E+00
	 0.00000000E+00	 0.00000000E+00	 4.64852000E-13

	 4.64852000E-13	 0.00000000E+00	 0.00000000E+00
	 0.00000000E+00	 4.64852000E-13	 0.00000000E+00
	 0.00000000E+00	 0.00000000E+00	 4.64852000E-13

	 4.62638000E-13	 0.00000000E+00	 0.00000000E+00
	 0.00000000E+00	 4.62638000E-13	 0.00000000E+00
	 0.00000000E+00	 0.00000000E+00	 4.62638000E-13

	 4.55997000E-13	 0.00000000E+00	 0.00000000E+00
	 0.00000000E+00	 4.55997000E-13	 0.00000000E+00
	 0.00000000E+00	 0.00000000E+00	 4.55997000E-13

	 4.64852000E-13	 0.00000000E+00	 0.00000000E+00
	 0.00000000E+00	 4.64852000E-13	 0.00000000E+00
	 0.00000000E+00	 0.00000000E+00	 4.64852000E-13

	 4.42716000E-13	 0.00000000E+00	 0.00000000E+00
	 0.00000000E+00	 4.42716000E-13	 0.00000000E+00
	 0.00000000E+00	 0.00000000E+00	 4.42716000E-13

	 4.38289000E-13	 0.00000000E+00	 0.00000000E+00
	 0.00000000E+00	 4.38289000E-13	 0.00000000E+00
	 0.00000000E+00	 0.00000000E+00	 4.38289000E-13

	 4.38289000E-13	 0.00000000E+00	 0.00000000E+00
	 0.00000000E+00	 4.38289000E-13	 0.00000000E+00
	 0.00000000E+00	 0.00000000E+00	 4.38289000E-13

	 4.38289000E-13	 0.00000000E+00	 0.00000000E+00
	 0.00000000E+00	 4.38289000E-13	 0.00000000E+00
	 0.00000000E+00	 0.00000000E+00	 4.38289000E-13

	 4.42716000E-13	 0.00000000E+00	 0.00000000E+00
	 0.00000000E+00	 4.42716000E-13	 0.00000000E+00
	 0.00000000E+00	 0.00000000E+00	 4.42716000E-13

	 4.38289000E-13	 0.00000000E+00	 0.00000000E+00
	 0.00000000E+00	 4.38289000E-13	 0.00000000E+00
	 0.00000000E+00	 0.00000000E+00	 4.38289000E-13

	 4.64852000E-13	 0.00000000E+00	 0.00000000E+00
	 0.00000000E+00	 4.64852000E-13	 0.00000000E+00
	 0.00000000E+00	 0.00000000E+00	 4.64852000E-13

	 4.64852000E-13	 0.00000000E+00	 0.00000000E+00
	 0.00000000E+00	 4.64852000E-13	 0.00000000E+00
	 0.00000000E+00	 0.00000000E+00	 4.64852000E-13

	 4.58211000E-13	 0.00000000E+00	 0.00000000E+00
	 0.00000000E+00	 4.58211000E-13	 0.00000000E+00
	 0.00000000E+00	 0.00000000E+00	 4.58211000E-13

	 4.40502000E-13	 0.00000000E+00	 0.00000000E+00
	 0.00000000E+00	 4.40502000E-13	 0.00000000E+00
	 0.00000000E+00	 0.00000000E+00	 4.40502000E-13

	 4.49357000E-13	 0.00000000E+00	 0.00000000E+00
	 0.00000000E+00	 4.49357000E-13	 0.00000000E+00
	 0.00000000E+00	 0.00000000E+00	 4.49357000E-13

	 4.38289000E-13	 0.00000000E+00	 0.00000000E+00
	 0.00000000E+00	 4.38289000E-13	 0.00000000E+00
	 0.00000000E+00	 0.00000000E+00	 4.38289000E-13

	 4.47143000E-13	 0.00000000E+00	 0.00000000E+00
	 0.00000000E+00	 4.47143000E-13	 0.00000000E+00
	 0.00000000E+00	 0.00000000E+00	 4.47143000E-13

	 4.42716000E-13	 0.00000000E+00	 0.00000000E+00
	 0.00000000E+00	 4.42716000E-13	 0.00000000E+00
	 0.00000000E+00	 0.00000000E+00	 4.42716000E-13

	 4.55997000E-13	 0.00000000E+00	 0.00000000E+00
	 0.00000000E+00	 4.55997000E-13	 0.00000000E+00
	 0.00000000E+00	 0.00000000E+00	 4.55997000E-13

	 4.60425000E-13	 0.00000000E+00	 0.00000000E+00
	 0.00000000E+00	 4.60425000E-13	 0.00000000E+00
	 0.00000000E+00	 0.00000000E+00	 4.60425000E-13

	 4.64852000E-13	 0.00000000E+00	 0.00000000E+00
	 0.00000000E+00	 4.64852000E-13	 0.00000000E+00
	 0.00000000E+00	 0.00000000E+00	 4.64852000E-13

	 4.64852000E-13	 0.00000000E+00	 0.00000000E+00
	 0.00000000E+00	 4.64852000E-13	 0.00000000E+00
	 0.00000000E+00	 0.00000000E+00	 4.64852000E-13

	 4.64852000E-13	 0.00000000E+00	 0.00000000E+00
	 0.00000000E+00	 4.64852000E-13	 0.00000000E+00
	 0.00000000E+00	 0.00000000E+00	 4.64852000E-13

	 4.64852000E-13	 0.00000000E+00	 0.00000000E+00
	 0.00000000E+00	 4.64852000E-13	 0.00000000E+00
	 0.00000000E+00	 0.00000000E+00	 4.64852000E-13

	 4.64852000E-13	 0.00000000E+00	 0.00000000E+00
	 0.00000000E+00	 4.64852000E-13	 0.00000000E+00
	 0.00000000E+00	 0.00000000E+00	 4.64852000E-13

	 4.62638000E-13	 0.00000000E+00	 0.00000000E+00
	 0.00000000E+00	 4.62638000E-13	 0.00000000E+00
	 0.00000000E+00	 0.00000000E+00	 4.62638000E-13

	 4.64852000E-13	 0.00000000E+00	 0.00000000E+00
	 0.00000000E+00	 4.64852000E-13	 0.00000000E+00
	 0.00000000E+00	 0.00000000E+00	 4.64852000E-13

	 4.53468000E-13	 0.00000000E+00	 0.00000000E+00
	 0.00000000E+00	 4.53468000E-13	 0.00000000E+00
	 0.00000000E+00	 0.00000000E+00	 4.53468000E-13

	 4.64852000E-13	 0.00000000E+00	 0.00000000E+00
	 0.00000000E+00	 4.64852000E-13	 0.00000000E+00
	 0.00000000E+00	 0.00000000E+00	 4.64852000E-13

	 4.64852000E-13	 0.00000000E+00	 0.00000000E+00
	 0.00000000E+00	 4.64852000E-13	 0.00000000E+00
	 0.00000000E+00	 0.00000000E+00	 4.64852000E-13

	 4.64852000E-13	 0.00000000E+00	 0.00000000E+00
	 0.00000000E+00	 4.64852000E-13	 0.00000000E+00
	 0.00000000E+00	 0.00000000E+00	 4.64852000E-13

	 4.64852000E-13	 0.00000000E+00	 0.00000000E+00
	 0.00000000E+00	 4.64852000E-13	 0.00000000E+00
	 0.00000000E+00	 0.00000000E+00	 4.64852000E-13

	 4.64852000E-13	 0.00000000E+00	 0.00000000E+00
	 0.00000000E+00	 4.64852000E-13	 0.00000000E+00
	 0.00000000E+00	 0.00000000E+00	 4.64852000E-13

	 4.42716000E-13	 0.00000000E+00	 0.00000000E+00
	 0.00000000E+00	 4.42716000E-13	 0.00000000E+00
	 0.00000000E+00	 0.00000000E+00	 4.42716000E-13

	 4.64852000E-13	 0.00000000E+00	 0.00000000E+00
	 0.00000000E+00	 4.64852000E-13	 0.00000000E+00
	 0.00000000E+00	 0.00000000E+00	 4.64852000E-13

	 4.64852000E-13	 0.00000000E+00	 0.00000000E+00
	 0.00000000E+00	 4.64852000E-13	 0.00000000E+00
	 0.00000000E+00	 0.00000000E+00	 4.64852000E-13

	 4.60425000E-13	 0.00000000E+00	 0.00000000E+00
	 0.00000000E+00	 4.60425000E-13	 0.00000000E+00
	 0.00000000E+00	 0.00000000E+00	 4.60425000E-13

	 4.64852000E-13	 0.00000000E+00	 0.00000000E+00
	 0.00000000E+00	 4.64852000E-13	 0.00000000E+00
	 0.00000000E+00	 0.00000000E+00	 4.64852000E-13

	 4.64852000E-13	 0.00000000E+00	 0.00000000E+00
	 0.00000000E+00	 4.64852000E-13	 0.00000000E+00
	 0.00000000E+00	 0.00000000E+00	 4.64852000E-13

	 4.62638000E-13	 0.00000000E+00	 0.00000000E+00
	 0.00000000E+00	 4.62638000E-13	 0.00000000E+00
	 0.00000000E+00	 0.00000000E+00	 4.62638000E-13

	 4.38289000E-13	 0.00000000E+00	 0.00000000E+00
	 0.00000000E+00	 4.38289000E-13	 0.00000000E+00
	 0.00000000E+00	 0.00000000E+00	 4.38289000E-13

	 4.38289000E-13	 0.00000000E+00	 0.00000000E+00
	 0.00000000E+00	 4.38289000E-13	 0.00000000E+00
	 0.00000000E+00	 0.00000000E+00	 4.38289000E-13

	 4.38289000E-13	 0.00000000E+00	 0.00000000E+00
	 0.00000000E+00	 4.38289000E-13	 0.00000000E+00
	 0.00000000E+00	 0.00000000E+00	 4.38289000E-13

	 4.38289000E-13	 0.00000000E+00	 0.00000000E+00
	 0.00000000E+00	 4.38289000E-13	 0.00000000E+00
	 0.00000000E+00	 0.00000000E+00	 4.38289000E-13

	 4.38289000E-13	 0.00000000E+00	 0.00000000E+00
	 0.00000000E+00	 4.38289000E-13	 0.00000000E+00
	 0.00000000E+00	 0.00000000E+00	 4.38289000E-13

	 4.38289000E-13	 0.00000000E+00	 0.00000000E+00
	 0.00000000E+00	 4.38289000E-13	 0.00000000E+00
	 0.00000000E+00	 0.00000000E+00	 4.38289000E-13

	 4.60425000E-13	 0.00000000E+00	 0.00000000E+00
	 0.00000000E+00	 4.60425000E-13	 0.00000000E+00
	 0.00000000E+00	 0.00000000E+00	 4.60425000E-13

	 4.64852000E-13	 0.00000000E+00	 0.00000000E+00
	 0.00000000E+00	 4.64852000E-13	 0.00000000E+00
	 0.00000000E+00	 0.00000000E+00	 4.64852000E-13

	 4.64852000E-13	 0.00000000E+00	 0.00000000E+00
	 0.00000000E+00	 4.64852000E-13	 0.00000000E+00
	 0.00000000E+00	 0.00000000E+00	 4.64852000E-13

	 4.38289000E-13	 0.00000000E+00	 0.00000000E+00
	 0.00000000E+00	 4.38289000E-13	 0.00000000E+00
	 0.00000000E+00	 0.00000000E+00	 4.38289000E-13

	 4.64852000E-13	 0.00000000E+00	 0.00000000E+00
	 0.00000000E+00	 4.64852000E-13	 0.00000000E+00
	 0.00000000E+00	 0.00000000E+00	 4.64852000E-13

	 4.64852000E-13	 0.00000000E+00	 0.00000000E+00
	 0.00000000E+00	 4.64852000E-13	 0.00000000E+00
	 0.00000000E+00	 0.00000000E+00	 4.64852000E-13

	 4.64852000E-13	 0.00000000E+00	 0.00000000E+00
	 0.00000000E+00	 4.64852000E-13	 0.00000000E+00
	 0.00000000E+00	 0.00000000E+00	 4.64852000E-13

	 4.64852000E-13	 0.00000000E+00	 0.00000000E+00
	 0.00000000E+00	 4.64852000E-13	 0.00000000E+00
	 0.00000000E+00	 0.00000000E+00	 4.64852000E-13

	 4.64852000E-13	 0.00000000E+00	 0.00000000E+00
	 0.00000000E+00	 4.64852000E-13	 0.00000000E+00
	 0.00000000E+00	 0.00000000E+00	 4.64852000E-13

	 4.55365000E-13	 0.00000000E+00	 0.00000000E+00
	 0.00000000E+00	 4.55365000E-13	 0.00000000E+00
	 0.00000000E+00	 0.00000000E+00	 4.55365000E-13

	 4.38289000E-13	 0.00000000E+00	 0.00000000E+00
	 0.00000000E+00	 4.38289000E-13	 0.00000000E+00
	 0.00000000E+00	 0.00000000E+00	 4.38289000E-13

	 4.38289000E-13	 0.00000000E+00	 0.00000000E+00
	 0.00000000E+00	 4.38289000E-13	 0.00000000E+00
	 0.00000000E+00	 0.00000000E+00	 4.38289000E-13

	 4.38289000E-13	 0.00000000E+00	 0.00000000E+00
	 0.00000000E+00	 4.38289000E-13	 0.00000000E+00
	 0.00000000E+00	 0.00000000E+00	 4.38289000E-13

	 4.38289000E-13	 0.00000000E+00	 0.00000000E+00
	 0.00000000E+00	 4.38289000E-13	 0.00000000E+00
	 0.00000000E+00	 0.00000000E+00	 4.38289000E-13

	 4.38289000E-13	 0.00000000E+00	 0.00000000E+00
	 0.00000000E+00	 4.38289000E-13	 0.00000000E+00
	 0.00000000E+00	 0.00000000E+00	 4.38289000E-13

	 4.38289000E-13	 0.00000000E+00	 0.00000000E+00
	 0.00000000E+00	 4.38289000E-13	 0.00000000E+00
	 0.00000000E+00	 0.00000000E+00	 4.38289000E-13

	 4.38289000E-13	 0.00000000E+00	 0.00000000E+00
	 0.00000000E+00	 4.38289000E-13	 0.00000000E+00
	 0.00000000E+00	 0.00000000E+00	 4.38289000E-13

	 4.38289000E-13	 0.00000000E+00	 0.00000000E+00
	 0.00000000E+00	 4.38289000E-13	 0.00000000E+00
	 0.00000000E+00	 0.00000000E+00	 4.38289000E-13

	 4.64852000E-13	 0.00000000E+00	 0.00000000E+00
	 0.00000000E+00	 4.64852000E-13	 0.00000000E+00
	 0.00000000E+00	 0.00000000E+00	 4.64852000E-13

	 4.64852000E-13	 0.00000000E+00	 0.00000000E+00
	 0.00000000E+00	 4.64852000E-13	 0.00000000E+00
	 0.00000000E+00	 0.00000000E+00	 4.64852000E-13

	 4.64852000E-13	 0.00000000E+00	 0.00000000E+00
	 0.00000000E+00	 4.64852000E-13	 0.00000000E+00
	 0.00000000E+00	 0.00000000E+00	 4.64852000E-13

	 4.53784000E-13	 0.00000000E+00	 0.00000000E+00
	 0.00000000E+00	 4.53784000E-13	 0.00000000E+00
	 0.00000000E+00	 0.00000000E+00	 4.53784000E-13

	 4.64852000E-13	 0.00000000E+00	 0.00000000E+00
	 0.00000000E+00	 4.64852000E-13	 0.00000000E+00
	 0.00000000E+00	 0.00000000E+00	 4.64852000E-13

	 4.64852000E-13	 0.00000000E+00	 0.00000000E+00
	 0.00000000E+00	 4.64852000E-13	 0.00000000E+00
	 0.00000000E+00	 0.00000000E+00	 4.64852000E-13

	 4.64852000E-13	 0.00000000E+00	 0.00000000E+00
	 0.00000000E+00	 4.64852000E-13	 0.00000000E+00
	 0.00000000E+00	 0.00000000E+00	 4.64852000E-13

	 4.51570000E-13	 0.00000000E+00	 0.00000000E+00
	 0.00000000E+00	 4.51570000E-13	 0.00000000E+00
	 0.00000000E+00	 0.00000000E+00	 4.51570000E-13

	 4.64852000E-13	 0.00000000E+00	 0.00000000E+00
	 0.00000000E+00	 4.64852000E-13	 0.00000000E+00
	 0.00000000E+00	 0.00000000E+00	 4.64852000E-13

	 4.40502000E-13	 0.00000000E+00	 0.00000000E+00
	 0.00000000E+00	 4.40502000E-13	 0.00000000E+00
	 0.00000000E+00	 0.00000000E+00	 4.40502000E-13

	 4.64852000E-13	 0.00000000E+00	 0.00000000E+00
	 0.00000000E+00	 4.64852000E-13	 0.00000000E+00
	 0.00000000E+00	 0.00000000E+00	 4.64852000E-13

	 4.61057000E-13	 0.00000000E+00	 0.00000000E+00
	 0.00000000E+00	 4.61057000E-13	 0.00000000E+00
	 0.00000000E+00	 0.00000000E+00	 4.61057000E-13

	 4.38289000E-13	 0.00000000E+00	 0.00000000E+00
	 0.00000000E+00	 4.38289000E-13	 0.00000000E+00
	 0.00000000E+00	 0.00000000E+00	 4.38289000E-13

	 4.62954000E-13	 0.00000000E+00	 0.00000000E+00
	 0.00000000E+00	 4.62954000E-13	 0.00000000E+00
	 0.00000000E+00	 0.00000000E+00	 4.62954000E-13

	 4.42716000E-13	 0.00000000E+00	 0.00000000E+00
	 0.00000000E+00	 4.42716000E-13	 0.00000000E+00
	 0.00000000E+00	 0.00000000E+00	 4.42716000E-13

	 4.49357000E-13	 0.00000000E+00	 0.00000000E+00
	 0.00000000E+00	 4.49357000E-13	 0.00000000E+00
	 0.00000000E+00	 0.00000000E+00	 4.49357000E-13

	 4.64852000E-13	 0.00000000E+00	 0.00000000E+00
	 0.00000000E+00	 4.64852000E-13	 0.00000000E+00
	 0.00000000E+00	 0.00000000E+00	 4.64852000E-13

	 4.60425000E-13	 0.00000000E+00	 0.00000000E+00
	 0.00000000E+00	 4.60425000E-13	 0.00000000E+00
	 0.00000000E+00	 0.00000000E+00	 4.60425000E-13

	 4.47143000E-13	 0.00000000E+00	 0.00000000E+00
	 0.00000000E+00	 4.47143000E-13	 0.00000000E+00
	 0.00000000E+00	 0.00000000E+00	 4.47143000E-13

	 4.51570000E-13	 0.00000000E+00	 0.00000000E+00
	 0.00000000E+00	 4.51570000E-13	 0.00000000E+00
	 0.00000000E+00	 0.00000000E+00	 4.51570000E-13

	 4.40186000E-13	 0.00000000E+00	 0.00000000E+00
	 0.00000000E+00	 4.40186000E-13	 0.00000000E+00
	 0.00000000E+00	 0.00000000E+00	 4.40186000E-13

	 4.38289000E-13	 0.00000000E+00	 0.00000000E+00
	 0.00000000E+00	 4.38289000E-13	 0.00000000E+00
	 0.00000000E+00	 0.00000000E+00	 4.38289000E-13

	 4.38289000E-13	 0.00000000E+00	 0.00000000E+00
	 0.00000000E+00	 4.38289000E-13	 0.00000000E+00
	 0.00000000E+00	 0.00000000E+00	 4.38289000E-13

	 4.38289000E-13	 0.00000000E+00	 0.00000000E+00
	 0.00000000E+00	 4.38289000E-13	 0.00000000E+00
	 0.00000000E+00	 0.00000000E+00	 4.38289000E-13

	 4.38289000E-13	 0.00000000E+00	 0.00000000E+00
	 0.00000000E+00	 4.38289000E-13	 0.00000000E+00
	 0.00000000E+00	 0.00000000E+00	 4.38289000E-13

	 4.38289000E-13	 0.00000000E+00	 0.00000000E+00
	 0.00000000E+00	 4.38289000E-13	 0.00000000E+00
	 0.00000000E+00	 0.00000000E+00	 4.38289000E-13

	 4.38289000E-13	 0.00000000E+00	 0.00000000E+00
	 0.00000000E+00	 4.38289000E-13	 0.00000000E+00
	 0.00000000E+00	 0.00000000E+00	 4.38289000E-13

	 4.38289000E-13	 0.00000000E+00	 0.00000000E+00
	 0.00000000E+00	 4.38289000E-13	 0.00000000E+00
	 0.00000000E+00	 0.00000000E+00	 4.38289000E-13

	 4.64852000E-13	 0.00000000E+00	 0.00000000E+00
	 0.00000000E+00	 4.64852000E-13	 0.00000000E+00
	 0.00000000E+00	 0.00000000E+00	 4.64852000E-13

	 4.38289000E-13	 0.00000000E+00	 0.00000000E+00
	 0.00000000E+00	 4.38289000E-13	 0.00000000E+00
	 0.00000000E+00	 0.00000000E+00	 4.38289000E-13

	 4.38289000E-13	 0.00000000E+00	 0.00000000E+00
	 0.00000000E+00	 4.38289000E-13	 0.00000000E+00
	 0.00000000E+00	 0.00000000E+00	 4.38289000E-13

	 4.38289000E-13	 0.00000000E+00	 0.00000000E+00
	 0.00000000E+00	 4.38289000E-13	 0.00000000E+00
	 0.00000000E+00	 0.00000000E+00	 4.38289000E-13

	 4.40502000E-13	 0.00000000E+00	 0.00000000E+00
	 0.00000000E+00	 4.40502000E-13	 0.00000000E+00
	 0.00000000E+00	 0.00000000E+00	 4.40502000E-13

	 4.38289000E-13	 0.00000000E+00	 0.00000000E+00
	 0.00000000E+00	 4.38289000E-13	 0.00000000E+00
	 0.00000000E+00	 0.00000000E+00	 4.38289000E-13

	 4.38289000E-13	 0.00000000E+00	 0.00000000E+00
	 0.00000000E+00	 4.38289000E-13	 0.00000000E+00
	 0.00000000E+00	 0.00000000E+00	 4.38289000E-13

	 4.38289000E-13	 0.00000000E+00	 0.00000000E+00
	 0.00000000E+00	 4.38289000E-13	 0.00000000E+00
	 0.00000000E+00	 0.00000000E+00	 4.38289000E-13

	 4.38289000E-13	 0.00000000E+00	 0.00000000E+00
	 0.00000000E+00	 4.38289000E-13	 0.00000000E+00
	 0.00000000E+00	 0.00000000E+00	 4.38289000E-13

	 4.38289000E-13	 0.00000000E+00	 0.00000000E+00
	 0.00000000E+00	 4.38289000E-13	 0.00000000E+00
	 0.00000000E+00	 0.00000000E+00	 4.38289000E-13

	 4.64852000E-13	 0.00000000E+00	 0.00000000E+00
	 0.00000000E+00	 4.64852000E-13	 0.00000000E+00
	 0.00000000E+00	 0.00000000E+00	 4.64852000E-13

	 4.64852000E-13	 0.00000000E+00	 0.00000000E+00
	 0.00000000E+00	 4.64852000E-13	 0.00000000E+00
	 0.00000000E+00	 0.00000000E+00	 4.64852000E-13

	 4.64852000E-13	 0.00000000E+00	 0.00000000E+00
	 0.00000000E+00	 4.64852000E-13	 0.00000000E+00
	 0.00000000E+00	 0.00000000E+00	 4.64852000E-13

	 4.64852000E-13	 0.00000000E+00	 0.00000000E+00
	 0.00000000E+00	 4.64852000E-13	 0.00000000E+00
	 0.00000000E+00	 0.00000000E+00	 4.64852000E-13

	 4.64852000E-13	 0.00000000E+00	 0.00000000E+00
	 0.00000000E+00	 4.64852000E-13	 0.00000000E+00
	 0.00000000E+00	 0.00000000E+00	 4.64852000E-13

	 4.44929000E-13	 0.00000000E+00	 0.00000000E+00
	 0.00000000E+00	 4.44929000E-13	 0.00000000E+00
	 0.00000000E+00	 0.00000000E+00	 4.44929000E-13

	 4.44929000E-13	 0.00000000E+00	 0.00000000E+00
	 0.00000000E+00	 4.44929000E-13	 0.00000000E+00
	 0.00000000E+00	 0.00000000E+00	 4.44929000E-13

	 4.38289000E-13	 0.00000000E+00	 0.00000000E+00
	 0.00000000E+00	 4.38289000E-13	 0.00000000E+00
	 0.00000000E+00	 0.00000000E+00	 4.38289000E-13

	 4.38289000E-13	 0.00000000E+00	 0.00000000E+00
	 0.00000000E+00	 4.38289000E-13	 0.00000000E+00
	 0.00000000E+00	 0.00000000E+00	 4.38289000E-13

	 4.64852000E-13	 0.00000000E+00	 0.00000000E+00
	 0.00000000E+00	 4.64852000E-13	 0.00000000E+00
	 0.00000000E+00	 0.00000000E+00	 4.64852000E-13

	 4.64852000E-13	 0.00000000E+00	 0.00000000E+00
	 0.00000000E+00	 4.64852000E-13	 0.00000000E+00
	 0.00000000E+00	 0.00000000E+00	 4.64852000E-13

	 4.64852000E-13	 0.00000000E+00	 0.00000000E+00
	 0.00000000E+00	 4.64852000E-13	 0.00000000E+00
	 0.00000000E+00	 0.00000000E+00	 4.64852000E-13

	 4.62638000E-13	 0.00000000E+00	 0.00000000E+00
	 0.00000000E+00	 4.62638000E-13	 0.00000000E+00
	 0.00000000E+00	 0.00000000E+00	 4.62638000E-13

	 4.64852000E-13	 0.00000000E+00	 0.00000000E+00
	 0.00000000E+00	 4.64852000E-13	 0.00000000E+00
	 0.00000000E+00	 0.00000000E+00	 4.64852000E-13

	 4.38289000E-13	 0.00000000E+00	 0.00000000E+00
	 0.00000000E+00	 4.38289000E-13	 0.00000000E+00
	 0.00000000E+00	 0.00000000E+00	 4.38289000E-13

	 4.38289000E-13	 0.00000000E+00	 0.00000000E+00
	 0.00000000E+00	 4.38289000E-13	 0.00000000E+00
	 0.00000000E+00	 0.00000000E+00	 4.38289000E-13

	 4.38289000E-13	 0.00000000E+00	 0.00000000E+00
	 0.00000000E+00	 4.38289000E-13	 0.00000000E+00
	 0.00000000E+00	 0.00000000E+00	 4.38289000E-13

	 4.38289000E-13	 0.00000000E+00	 0.00000000E+00
	 0.00000000E+00	 4.38289000E-13	 0.00000000E+00
	 0.00000000E+00	 0.00000000E+00	 4.38289000E-13

	 4.62638000E-13	 0.00000000E+00	 0.00000000E+00
	 0.00000000E+00	 4.62638000E-13	 0.00000000E+00
	 0.00000000E+00	 0.00000000E+00	 4.62638000E-13

	 4.53784000E-13	 0.00000000E+00	 0.00000000E+00
	 0.00000000E+00	 4.53784000E-13	 0.00000000E+00
	 0.00000000E+00	 0.00000000E+00	 4.53784000E-13

	 4.47775000E-13	 0.00000000E+00	 0.00000000E+00
	 0.00000000E+00	 4.47775000E-13	 0.00000000E+00
	 0.00000000E+00	 0.00000000E+00	 4.47775000E-13

	 4.38289000E-13	 0.00000000E+00	 0.00000000E+00
	 0.00000000E+00	 4.38289000E-13	 0.00000000E+00
	 0.00000000E+00	 0.00000000E+00	 4.38289000E-13

	 4.38289000E-13	 0.00000000E+00	 0.00000000E+00
	 0.00000000E+00	 4.38289000E-13	 0.00000000E+00
	 0.00000000E+00	 0.00000000E+00	 4.38289000E-13

	 4.38289000E-13	 0.00000000E+00	 0.00000000E+00
	 0.00000000E+00	 4.38289000E-13	 0.00000000E+00
	 0.00000000E+00	 0.00000000E+00	 4.38289000E-13

	 4.62638000E-13	 0.00000000E+00	 0.00000000E+00
	 0.00000000E+00	 4.62638000E-13	 0.00000000E+00
	 0.00000000E+00	 0.00000000E+00	 4.62638000E-13

	 4.55997000E-13	 0.00000000E+00	 0.00000000E+00
	 0.00000000E+00	 4.55997000E-13	 0.00000000E+00
	 0.00000000E+00	 0.00000000E+00	 4.55997000E-13

	 4.62638000E-13	 0.00000000E+00	 0.00000000E+00
	 0.00000000E+00	 4.62638000E-13	 0.00000000E+00
	 0.00000000E+00	 0.00000000E+00	 4.62638000E-13

	 4.62638000E-13	 0.00000000E+00	 0.00000000E+00
	 0.00000000E+00	 4.62638000E-13	 0.00000000E+00
	 0.00000000E+00	 0.00000000E+00	 4.62638000E-13

	 4.62638000E-13	 0.00000000E+00	 0.00000000E+00
	 0.00000000E+00	 4.62638000E-13	 0.00000000E+00
	 0.00000000E+00	 0.00000000E+00	 4.62638000E-13

	 4.53784000E-13	 0.00000000E+00	 0.00000000E+00
	 0.00000000E+00	 4.53784000E-13	 0.00000000E+00
	 0.00000000E+00	 0.00000000E+00	 4.53784000E-13

	 4.40502000E-13	 0.00000000E+00	 0.00000000E+00
	 0.00000000E+00	 4.40502000E-13	 0.00000000E+00
	 0.00000000E+00	 0.00000000E+00	 4.40502000E-13

	 4.38289000E-13	 0.00000000E+00	 0.00000000E+00
	 0.00000000E+00	 4.38289000E-13	 0.00000000E+00
	 0.00000000E+00	 0.00000000E+00	 4.38289000E-13

	 4.62638000E-13	 0.00000000E+00	 0.00000000E+00
	 0.00000000E+00	 4.62638000E-13	 0.00000000E+00
	 0.00000000E+00	 0.00000000E+00	 4.62638000E-13

	 4.64852000E-13	 0.00000000E+00	 0.00000000E+00
	 0.00000000E+00	 4.64852000E-13	 0.00000000E+00
	 0.00000000E+00	 0.00000000E+00	 4.64852000E-13

	 4.64852000E-13	 0.00000000E+00	 0.00000000E+00
	 0.00000000E+00	 4.64852000E-13	 0.00000000E+00
	 0.00000000E+00	 0.00000000E+00	 4.64852000E-13

	 4.60425000E-13	 0.00000000E+00	 0.00000000E+00
	 0.00000000E+00	 4.60425000E-13	 0.00000000E+00
	 0.00000000E+00	 0.00000000E+00	 4.60425000E-13

	 4.43981000E-13	 0.00000000E+00	 0.00000000E+00
	 0.00000000E+00	 4.43981000E-13	 0.00000000E+00
	 0.00000000E+00	 0.00000000E+00	 4.43981000E-13

	 4.64852000E-13	 0.00000000E+00	 0.00000000E+00
	 0.00000000E+00	 4.64852000E-13	 0.00000000E+00
	 0.00000000E+00	 0.00000000E+00	 4.64852000E-13

	 4.60425000E-13	 0.00000000E+00	 0.00000000E+00
	 0.00000000E+00	 4.60425000E-13	 0.00000000E+00
	 0.00000000E+00	 0.00000000E+00	 4.60425000E-13

	 4.64852000E-13	 0.00000000E+00	 0.00000000E+00
	 0.00000000E+00	 4.64852000E-13	 0.00000000E+00
	 0.00000000E+00	 0.00000000E+00	 4.64852000E-13

	 4.60425000E-13	 0.00000000E+00	 0.00000000E+00
	 0.00000000E+00	 4.60425000E-13	 0.00000000E+00
	 0.00000000E+00	 0.00000000E+00	 4.60425000E-13

	 4.55997000E-13	 0.00000000E+00	 0.00000000E+00
	 0.00000000E+00	 4.55997000E-13	 0.00000000E+00
	 0.00000000E+00	 0.00000000E+00	 4.55997000E-13

	 4.64852000E-13	 0.00000000E+00	 0.00000000E+00
	 0.00000000E+00	 4.64852000E-13	 0.00000000E+00
	 0.00000000E+00	 0.00000000E+00	 4.64852000E-13

	 4.59539000E-13	 0.00000000E+00	 0.00000000E+00
	 0.00000000E+00	 4.59539000E-13	 0.00000000E+00
	 0.00000000E+00	 0.00000000E+00	 4.59539000E-13

	 4.38289000E-13	 0.00000000E+00	 0.00000000E+00
	 0.00000000E+00	 4.38289000E-13	 0.00000000E+00
	 0.00000000E+00	 0.00000000E+00	 4.38289000E-13

	 4.38289000E-13	 0.00000000E+00	 0.00000000E+00
	 0.00000000E+00	 4.38289000E-13	 0.00000000E+00
	 0.00000000E+00	 0.00000000E+00	 4.38289000E-13

	 4.38289000E-13	 0.00000000E+00	 0.00000000E+00
	 0.00000000E+00	 4.38289000E-13	 0.00000000E+00
	 0.00000000E+00	 0.00000000E+00	 4.38289000E-13

	 4.64852000E-13	 0.00000000E+00	 0.00000000E+00
	 0.00000000E+00	 4.64852000E-13	 0.00000000E+00
	 0.00000000E+00	 0.00000000E+00	 4.64852000E-13

	 4.38289000E-13	 0.00000000E+00	 0.00000000E+00
	 0.00000000E+00	 4.38289000E-13	 0.00000000E+00
	 0.00000000E+00	 0.00000000E+00	 4.38289000E-13

	 4.57262000E-13	 0.00000000E+00	 0.00000000E+00
	 0.00000000E+00	 4.57262000E-13	 0.00000000E+00
	 0.00000000E+00	 0.00000000E+00	 4.57262000E-13

	 4.58211000E-13	 0.00000000E+00	 0.00000000E+00
	 0.00000000E+00	 4.58211000E-13	 0.00000000E+00
	 0.00000000E+00	 0.00000000E+00	 4.58211000E-13

	 4.53784000E-13	 0.00000000E+00	 0.00000000E+00
	 0.00000000E+00	 4.53784000E-13	 0.00000000E+00
	 0.00000000E+00	 0.00000000E+00	 4.53784000E-13

	 4.40186000E-13	 0.00000000E+00	 0.00000000E+00
	 0.00000000E+00	 4.40186000E-13	 0.00000000E+00
	 0.00000000E+00	 0.00000000E+00	 4.40186000E-13

	 4.38289000E-13	 0.00000000E+00	 0.00000000E+00
	 0.00000000E+00	 4.38289000E-13	 0.00000000E+00
	 0.00000000E+00	 0.00000000E+00	 4.38289000E-13

	 4.38289000E-13	 0.00000000E+00	 0.00000000E+00
	 0.00000000E+00	 4.38289000E-13	 0.00000000E+00
	 0.00000000E+00	 0.00000000E+00	 4.38289000E-13

	 4.42716000E-13	 0.00000000E+00	 0.00000000E+00
	 0.00000000E+00	 4.42716000E-13	 0.00000000E+00
	 0.00000000E+00	 0.00000000E+00	 4.42716000E-13

	 4.40502000E-13	 0.00000000E+00	 0.00000000E+00
	 0.00000000E+00	 4.40502000E-13	 0.00000000E+00
	 0.00000000E+00	 0.00000000E+00	 4.40502000E-13

	 4.51570000E-13	 0.00000000E+00	 0.00000000E+00
	 0.00000000E+00	 4.51570000E-13	 0.00000000E+00
	 0.00000000E+00	 0.00000000E+00	 4.51570000E-13

	 4.38289000E-13	 0.00000000E+00	 0.00000000E+00
	 0.00000000E+00	 4.38289000E-13	 0.00000000E+00
	 0.00000000E+00	 0.00000000E+00	 4.38289000E-13

	 4.44929000E-13	 0.00000000E+00	 0.00000000E+00
	 0.00000000E+00	 4.44929000E-13	 0.00000000E+00
	 0.00000000E+00	 0.00000000E+00	 4.44929000E-13

	 4.38289000E-13	 0.00000000E+00	 0.00000000E+00
	 0.00000000E+00	 4.38289000E-13	 0.00000000E+00
	 0.00000000E+00	 0.00000000E+00	 4.38289000E-13

	 4.62638000E-13	 0.00000000E+00	 0.00000000E+00
	 0.00000000E+00	 4.62638000E-13	 0.00000000E+00
	 0.00000000E+00	 0.00000000E+00	 4.62638000E-13

	 4.64852000E-13	 0.00000000E+00	 0.00000000E+00
	 0.00000000E+00	 4.64852000E-13	 0.00000000E+00
	 0.00000000E+00	 0.00000000E+00	 4.64852000E-13

	 4.60425000E-13	 0.00000000E+00	 0.00000000E+00
	 0.00000000E+00	 4.60425000E-13	 0.00000000E+00
	 0.00000000E+00	 0.00000000E+00	 4.60425000E-13

	 4.55997000E-13	 0.00000000E+00	 0.00000000E+00
	 0.00000000E+00	 4.55997000E-13	 0.00000000E+00
	 0.00000000E+00	 0.00000000E+00	 4.55997000E-13

	 4.62638000E-13	 0.00000000E+00	 0.00000000E+00
	 0.00000000E+00	 4.62638000E-13	 0.00000000E+00
	 0.00000000E+00	 0.00000000E+00	 4.62638000E-13

	 4.55997000E-13	 0.00000000E+00	 0.00000000E+00
	 0.00000000E+00	 4.55997000E-13	 0.00000000E+00
	 0.00000000E+00	 0.00000000E+00	 4.55997000E-13

	 4.47143000E-13	 0.00000000E+00	 0.00000000E+00
	 0.00000000E+00	 4.47143000E-13	 0.00000000E+00
	 0.00000000E+00	 0.00000000E+00	 4.47143000E-13

	 4.38289000E-13	 0.00000000E+00	 0.00000000E+00
	 0.00000000E+00	 4.38289000E-13	 0.00000000E+00
	 0.00000000E+00	 0.00000000E+00	 4.38289000E-13

	 4.51570000E-13	 0.00000000E+00	 0.00000000E+00
	 0.00000000E+00	 4.51570000E-13	 0.00000000E+00
	 0.00000000E+00	 0.00000000E+00	 4.51570000E-13

	 4.58211000E-13	 0.00000000E+00	 0.00000000E+00
	 0.00000000E+00	 4.58211000E-13	 0.00000000E+00
	 0.00000000E+00	 0.00000000E+00	 4.58211000E-13

	 4.62638000E-13	 0.00000000E+00	 0.00000000E+00
	 0.00000000E+00	 4.62638000E-13	 0.00000000E+00
	 0.00000000E+00	 0.00000000E+00	 4.62638000E-13

	 4.53784000E-13	 0.00000000E+00	 0.00000000E+00
	 0.00000000E+00	 4.53784000E-13	 0.00000000E+00
	 0.00000000E+00	 0.00000000E+00	 4.53784000E-13

	 4.42083000E-13	 0.00000000E+00	 0.00000000E+00
	 0.00000000E+00	 4.42083000E-13	 0.00000000E+00
	 0.00000000E+00	 0.00000000E+00	 4.42083000E-13

	 4.38289000E-13	 0.00000000E+00	 0.00000000E+00
	 0.00000000E+00	 4.38289000E-13	 0.00000000E+00
	 0.00000000E+00	 0.00000000E+00	 4.38289000E-13

	 4.42716000E-13	 0.00000000E+00	 0.00000000E+00
	 0.00000000E+00	 4.42716000E-13	 0.00000000E+00
	 0.00000000E+00	 0.00000000E+00	 4.42716000E-13

	 4.38289000E-13	 0.00000000E+00	 0.00000000E+00
	 0.00000000E+00	 4.38289000E-13	 0.00000000E+00
	 0.00000000E+00	 0.00000000E+00	 4.38289000E-13

	 4.40502000E-13	 0.00000000E+00	 0.00000000E+00
	 0.00000000E+00	 4.40502000E-13	 0.00000000E+00
	 0.00000000E+00	 0.00000000E+00	 4.40502000E-13

	 4.51570000E-13	 0.00000000E+00	 0.00000000E+00
	 0.00000000E+00	 4.51570000E-13	 0.00000000E+00
	 0.00000000E+00	 0.00000000E+00	 4.51570000E-13

	 4.62954000E-13	 0.00000000E+00	 0.00000000E+00
	 0.00000000E+00	 4.62954000E-13	 0.00000000E+00
	 0.00000000E+00	 0.00000000E+00	 4.62954000E-13

	 4.43981000E-13	 0.00000000E+00	 0.00000000E+00
	 0.00000000E+00	 4.43981000E-13	 0.00000000E+00
	 0.00000000E+00	 0.00000000E+00	 4.43981000E-13

	 4.62638000E-13	 0.00000000E+00	 0.00000000E+00
	 0.00000000E+00	 4.62638000E-13	 0.00000000E+00
	 0.00000000E+00	 0.00000000E+00	 4.62638000E-13

	 4.58211000E-13	 0.00000000E+00	 0.00000000E+00
	 0.00000000E+00	 4.58211000E-13	 0.00000000E+00
	 0.00000000E+00	 0.00000000E+00	 4.58211000E-13

	 4.64852000E-13	 0.00000000E+00	 0.00000000E+00
	 0.00000000E+00	 4.64852000E-13	 0.00000000E+00
	 0.00000000E+00	 0.00000000E+00	 4.64852000E-13

	 4.62638000E-13	 0.00000000E+00	 0.00000000E+00
	 0.00000000E+00	 4.62638000E-13	 0.00000000E+00
	 0.00000000E+00	 0.00000000E+00	 4.62638000E-13

	 4.40502000E-13	 0.00000000E+00	 0.00000000E+00
	 0.00000000E+00	 4.40502000E-13	 0.00000000E+00
	 0.00000000E+00	 0.00000000E+00	 4.40502000E-13

	 4.47143000E-13	 0.00000000E+00	 0.00000000E+00
	 0.00000000E+00	 4.47143000E-13	 0.00000000E+00
	 0.00000000E+00	 0.00000000E+00	 4.47143000E-13

	 4.38289000E-13	 0.00000000E+00	 0.00000000E+00
	 0.00000000E+00	 4.38289000E-13	 0.00000000E+00
	 0.00000000E+00	 0.00000000E+00	 4.38289000E-13

	 4.38289000E-13	 0.00000000E+00	 0.00000000E+00
	 0.00000000E+00	 4.38289000E-13	 0.00000000E+00
	 0.00000000E+00	 0.00000000E+00	 4.38289000E-13

	 4.42716000E-13	 0.00000000E+00	 0.00000000E+00
	 0.00000000E+00	 4.42716000E-13	 0.00000000E+00
	 0.00000000E+00	 0.00000000E+00	 4.42716000E-13

	 4.42716000E-13	 0.00000000E+00	 0.00000000E+00
	 0.00000000E+00	 4.42716000E-13	 0.00000000E+00
	 0.00000000E+00	 0.00000000E+00	 4.42716000E-13

	 4.38289000E-13	 0.00000000E+00	 0.00000000E+00
	 0.00000000E+00	 4.38289000E-13	 0.00000000E+00
	 0.00000000E+00	 0.00000000E+00	 4.38289000E-13

	 4.53784000E-13	 0.00000000E+00	 0.00000000E+00
	 0.00000000E+00	 4.53784000E-13	 0.00000000E+00
	 0.00000000E+00	 0.00000000E+00	 4.53784000E-13

	 4.40186000E-13	 0.00000000E+00	 0.00000000E+00
	 0.00000000E+00	 4.40186000E-13	 0.00000000E+00
	 0.00000000E+00	 0.00000000E+00	 4.40186000E-13

	 4.38289000E-13	 0.00000000E+00	 0.00000000E+00
	 0.00000000E+00	 4.38289000E-13	 0.00000000E+00
	 0.00000000E+00	 0.00000000E+00	 4.38289000E-13

	 4.42083000E-13	 0.00000000E+00	 0.00000000E+00
	 0.00000000E+00	 4.42083000E-13	 0.00000000E+00
	 0.00000000E+00	 0.00000000E+00	 4.42083000E-13

	 4.47143000E-13	 0.00000000E+00	 0.00000000E+00
	 0.00000000E+00	 4.47143000E-13	 0.00000000E+00
	 0.00000000E+00	 0.00000000E+00	 4.47143000E-13

	 4.64852000E-13	 0.00000000E+00	 0.00000000E+00
	 0.00000000E+00	 4.64852000E-13	 0.00000000E+00
	 0.00000000E+00	 0.00000000E+00	 4.64852000E-13

	 4.42716000E-13	 0.00000000E+00	 0.00000000E+00
	 0.00000000E+00	 4.42716000E-13	 0.00000000E+00
	 0.00000000E+00	 0.00000000E+00	 4.42716000E-13

	 4.42716000E-13	 0.00000000E+00	 0.00000000E+00
	 0.00000000E+00	 4.42716000E-13	 0.00000000E+00
	 0.00000000E+00	 0.00000000E+00	 4.42716000E-13

	 4.64852000E-13	 0.00000000E+00	 0.00000000E+00
	 0.00000000E+00	 4.64852000E-13	 0.00000000E+00
	 0.00000000E+00	 0.00000000E+00	 4.64852000E-13

	 4.49357000E-13	 0.00000000E+00	 0.00000000E+00
	 0.00000000E+00	 4.49357000E-13	 0.00000000E+00
	 0.00000000E+00	 0.00000000E+00	 4.49357000E-13

	 4.60425000E-13	 0.00000000E+00	 0.00000000E+00
	 0.00000000E+00	 4.60425000E-13	 0.00000000E+00
	 0.00000000E+00	 0.00000000E+00	 4.60425000E-13

	 4.51570000E-13	 0.00000000E+00	 0.00000000E+00
	 0.00000000E+00	 4.51570000E-13	 0.00000000E+00
	 0.00000000E+00	 0.00000000E+00	 4.51570000E-13

	 4.42716000E-13	 0.00000000E+00	 0.00000000E+00
	 0.00000000E+00	 4.42716000E-13	 0.00000000E+00
	 0.00000000E+00	 0.00000000E+00	 4.42716000E-13

	 4.38289000E-13	 0.00000000E+00	 0.00000000E+00
	 0.00000000E+00	 4.38289000E-13	 0.00000000E+00
	 0.00000000E+00	 0.00000000E+00	 4.38289000E-13

	 4.38289000E-13	 0.00000000E+00	 0.00000000E+00
	 0.00000000E+00	 4.38289000E-13	 0.00000000E+00
	 0.00000000E+00	 0.00000000E+00	 4.38289000E-13

	 4.38289000E-13	 0.00000000E+00	 0.00000000E+00
	 0.00000000E+00	 4.38289000E-13	 0.00000000E+00
	 0.00000000E+00	 0.00000000E+00	 4.38289000E-13

	 4.47143000E-13	 0.00000000E+00	 0.00000000E+00
	 0.00000000E+00	 4.47143000E-13	 0.00000000E+00
	 0.00000000E+00	 0.00000000E+00	 4.47143000E-13

	 4.42716000E-13	 0.00000000E+00	 0.00000000E+00
	 0.00000000E+00	 4.42716000E-13	 0.00000000E+00
	 0.00000000E+00	 0.00000000E+00	 4.42716000E-13

	 4.38289000E-13	 0.00000000E+00	 0.00000000E+00
	 0.00000000E+00	 4.38289000E-13	 0.00000000E+00
	 0.00000000E+00	 0.00000000E+00	 4.38289000E-13

	 4.60425000E-13	 0.00000000E+00	 0.00000000E+00
	 0.00000000E+00	 4.60425000E-13	 0.00000000E+00
	 0.00000000E+00	 0.00000000E+00	 4.60425000E-13

	 4.51570000E-13	 0.00000000E+00	 0.00000000E+00
	 0.00000000E+00	 4.51570000E-13	 0.00000000E+00
	 0.00000000E+00	 0.00000000E+00	 4.51570000E-13

	 4.38289000E-13	 0.00000000E+00	 0.00000000E+00
	 0.00000000E+00	 4.38289000E-13	 0.00000000E+00
	 0.00000000E+00	 0.00000000E+00	 4.38289000E-13

	 4.38289000E-13	 0.00000000E+00	 0.00000000E+00
	 0.00000000E+00	 4.38289000E-13	 0.00000000E+00
	 0.00000000E+00	 0.00000000E+00	 4.38289000E-13

	 4.38289000E-13	 0.00000000E+00	 0.00000000E+00
	 0.00000000E+00	 4.38289000E-13	 0.00000000E+00
	 0.00000000E+00	 0.00000000E+00	 4.38289000E-13

	 4.58211000E-13	 0.00000000E+00	 0.00000000E+00
	 0.00000000E+00	 4.58211000E-13	 0.00000000E+00
	 0.00000000E+00	 0.00000000E+00	 4.58211000E-13

	 4.42716000E-13	 0.00000000E+00	 0.00000000E+00
	 0.00000000E+00	 4.42716000E-13	 0.00000000E+00
	 0.00000000E+00	 0.00000000E+00	 4.42716000E-13

	 4.55997000E-13	 0.00000000E+00	 0.00000000E+00
	 0.00000000E+00	 4.55997000E-13	 0.00000000E+00
	 0.00000000E+00	 0.00000000E+00	 4.55997000E-13

	 4.57262000E-13	 0.00000000E+00	 0.00000000E+00
	 0.00000000E+00	 4.57262000E-13	 0.00000000E+00
	 0.00000000E+00	 0.00000000E+00	 4.57262000E-13

	 4.42716000E-13	 0.00000000E+00	 0.00000000E+00
	 0.00000000E+00	 4.42716000E-13	 0.00000000E+00
	 0.00000000E+00	 0.00000000E+00	 4.42716000E-13

	 4.40502000E-13	 0.00000000E+00	 0.00000000E+00
	 0.00000000E+00	 4.40502000E-13	 0.00000000E+00
	 0.00000000E+00	 0.00000000E+00	 4.40502000E-13

	 4.53468000E-13	 0.00000000E+00	 0.00000000E+00
	 0.00000000E+00	 4.53468000E-13	 0.00000000E+00
	 0.00000000E+00	 0.00000000E+00	 4.53468000E-13

	 4.64852000E-13	 0.00000000E+00	 0.00000000E+00
	 0.00000000E+00	 4.64852000E-13	 0.00000000E+00
	 0.00000000E+00	 0.00000000E+00	 4.64852000E-13

	 4.64852000E-13	 0.00000000E+00	 0.00000000E+00
	 0.00000000E+00	 4.64852000E-13	 0.00000000E+00
	 0.00000000E+00	 0.00000000E+00	 4.64852000E-13

	 4.64852000E-13	 0.00000000E+00	 0.00000000E+00
	 0.00000000E+00	 4.64852000E-13	 0.00000000E+00
	 0.00000000E+00	 0.00000000E+00	 4.64852000E-13

	 4.64852000E-13	 0.00000000E+00	 0.00000000E+00
	 0.00000000E+00	 4.64852000E-13	 0.00000000E+00
	 0.00000000E+00	 0.00000000E+00	 4.64852000E-13

	 4.64852000E-13	 0.00000000E+00	 0.00000000E+00
	 0.00000000E+00	 4.64852000E-13	 0.00000000E+00
	 0.00000000E+00	 0.00000000E+00	 4.64852000E-13

	 4.64852000E-13	 0.00000000E+00	 0.00000000E+00
	 0.00000000E+00	 4.64852000E-13	 0.00000000E+00
	 0.00000000E+00	 0.00000000E+00	 4.64852000E-13

	 4.49357000E-13	 0.00000000E+00	 0.00000000E+00
	 0.00000000E+00	 4.49357000E-13	 0.00000000E+00
	 0.00000000E+00	 0.00000000E+00	 4.49357000E-13

	 4.64852000E-13	 0.00000000E+00	 0.00000000E+00
	 0.00000000E+00	 4.64852000E-13	 0.00000000E+00
	 0.00000000E+00	 0.00000000E+00	 4.64852000E-13

	 4.64852000E-13	 0.00000000E+00	 0.00000000E+00
	 0.00000000E+00	 4.64852000E-13	 0.00000000E+00
	 0.00000000E+00	 0.00000000E+00	 4.64852000E-13

	 4.64852000E-13	 0.00000000E+00	 0.00000000E+00
	 0.00000000E+00	 4.64852000E-13	 0.00000000E+00
	 0.00000000E+00	 0.00000000E+00	 4.64852000E-13

	 4.64852000E-13	 0.00000000E+00	 0.00000000E+00
	 0.00000000E+00	 4.64852000E-13	 0.00000000E+00
	 0.00000000E+00	 0.00000000E+00	 4.64852000E-13

	 4.42716000E-13	 0.00000000E+00	 0.00000000E+00
	 0.00000000E+00	 4.42716000E-13	 0.00000000E+00
	 0.00000000E+00	 0.00000000E+00	 4.42716000E-13

	 4.53784000E-13	 0.00000000E+00	 0.00000000E+00
	 0.00000000E+00	 4.53784000E-13	 0.00000000E+00
	 0.00000000E+00	 0.00000000E+00	 4.53784000E-13

	 4.62638000E-13	 0.00000000E+00	 0.00000000E+00
	 0.00000000E+00	 4.62638000E-13	 0.00000000E+00
	 0.00000000E+00	 0.00000000E+00	 4.62638000E-13

	 4.64852000E-13	 0.00000000E+00	 0.00000000E+00
	 0.00000000E+00	 4.64852000E-13	 0.00000000E+00
	 0.00000000E+00	 0.00000000E+00	 4.64852000E-13

	 4.38289000E-13	 0.00000000E+00	 0.00000000E+00
	 0.00000000E+00	 4.38289000E-13	 0.00000000E+00
	 0.00000000E+00	 0.00000000E+00	 4.38289000E-13

	 4.40502000E-13	 0.00000000E+00	 0.00000000E+00
	 0.00000000E+00	 4.40502000E-13	 0.00000000E+00
	 0.00000000E+00	 0.00000000E+00	 4.40502000E-13

	 4.49357000E-13	 0.00000000E+00	 0.00000000E+00
	 0.00000000E+00	 4.49357000E-13	 0.00000000E+00
	 0.00000000E+00	 0.00000000E+00	 4.49357000E-13

	 4.47143000E-13	 0.00000000E+00	 0.00000000E+00
	 0.00000000E+00	 4.47143000E-13	 0.00000000E+00
	 0.00000000E+00	 0.00000000E+00	 4.47143000E-13

	 4.49357000E-13	 0.00000000E+00	 0.00000000E+00
	 0.00000000E+00	 4.49357000E-13	 0.00000000E+00
	 0.00000000E+00	 0.00000000E+00	 4.49357000E-13

	 4.42716000E-13	 0.00000000E+00	 0.00000000E+00
	 0.00000000E+00	 4.42716000E-13	 0.00000000E+00
	 0.00000000E+00	 0.00000000E+00	 4.42716000E-13

	 4.55997000E-13	 0.00000000E+00	 0.00000000E+00
	 0.00000000E+00	 4.55997000E-13	 0.00000000E+00
	 0.00000000E+00	 0.00000000E+00	 4.55997000E-13

	 4.64852000E-13	 0.00000000E+00	 0.00000000E+00
	 0.00000000E+00	 4.64852000E-13	 0.00000000E+00
	 0.00000000E+00	 0.00000000E+00	 4.64852000E-13

	 4.42716000E-13	 0.00000000E+00	 0.00000000E+00
	 0.00000000E+00	 4.42716000E-13	 0.00000000E+00
	 0.00000000E+00	 0.00000000E+00	 4.42716000E-13

	 4.58211000E-13	 0.00000000E+00	 0.00000000E+00
	 0.00000000E+00	 4.58211000E-13	 0.00000000E+00
	 0.00000000E+00	 0.00000000E+00	 4.58211000E-13

	 4.64852000E-13	 0.00000000E+00	 0.00000000E+00
	 0.00000000E+00	 4.64852000E-13	 0.00000000E+00
	 0.00000000E+00	 0.00000000E+00	 4.64852000E-13

	 4.40186000E-13	 0.00000000E+00	 0.00000000E+00
	 0.00000000E+00	 4.40186000E-13	 0.00000000E+00
	 0.00000000E+00	 0.00000000E+00	 4.40186000E-13

	 4.40502000E-13	 0.00000000E+00	 0.00000000E+00
	 0.00000000E+00	 4.40502000E-13	 0.00000000E+00
	 0.00000000E+00	 0.00000000E+00	 4.40502000E-13

	 4.51570000E-13	 0.00000000E+00	 0.00000000E+00
	 0.00000000E+00	 4.51570000E-13	 0.00000000E+00
	 0.00000000E+00	 0.00000000E+00	 4.51570000E-13

	 4.44929000E-13	 0.00000000E+00	 0.00000000E+00
	 0.00000000E+00	 4.44929000E-13	 0.00000000E+00
	 0.00000000E+00	 0.00000000E+00	 4.44929000E-13

	 4.44929000E-13	 0.00000000E+00	 0.00000000E+00
	 0.00000000E+00	 4.44929000E-13	 0.00000000E+00
	 0.00000000E+00	 0.00000000E+00	 4.44929000E-13

	 4.42716000E-13	 0.00000000E+00	 0.00000000E+00
	 0.00000000E+00	 4.42716000E-13	 0.00000000E+00
	 0.00000000E+00	 0.00000000E+00	 4.42716000E-13

	 4.42716000E-13	 0.00000000E+00	 0.00000000E+00
	 0.00000000E+00	 4.42716000E-13	 0.00000000E+00
	 0.00000000E+00	 0.00000000E+00	 4.42716000E-13

	 4.42716000E-13	 0.00000000E+00	 0.00000000E+00
	 0.00000000E+00	 4.42716000E-13	 0.00000000E+00
	 0.00000000E+00	 0.00000000E+00	 4.42716000E-13

	 4.47775000E-13	 0.00000000E+00	 0.00000000E+00
	 0.00000000E+00	 4.47775000E-13	 0.00000000E+00
	 0.00000000E+00	 0.00000000E+00	 4.47775000E-13

	 4.45878000E-13	 0.00000000E+00	 0.00000000E+00
	 0.00000000E+00	 4.45878000E-13	 0.00000000E+00
	 0.00000000E+00	 0.00000000E+00	 4.45878000E-13

	 4.42716000E-13	 0.00000000E+00	 0.00000000E+00
	 0.00000000E+00	 4.42716000E-13	 0.00000000E+00
	 0.00000000E+00	 0.00000000E+00	 4.42716000E-13

	 4.62638000E-13	 0.00000000E+00	 0.00000000E+00
	 0.00000000E+00	 4.62638000E-13	 0.00000000E+00
	 0.00000000E+00	 0.00000000E+00	 4.62638000E-13

	 4.47143000E-13	 0.00000000E+00	 0.00000000E+00
	 0.00000000E+00	 4.47143000E-13	 0.00000000E+00
	 0.00000000E+00	 0.00000000E+00	 4.47143000E-13

	 4.38289000E-13	 0.00000000E+00	 0.00000000E+00
	 0.00000000E+00	 4.38289000E-13	 0.00000000E+00
	 0.00000000E+00	 0.00000000E+00	 4.38289000E-13

	 4.62638000E-13	 0.00000000E+00	 0.00000000E+00
	 0.00000000E+00	 4.62638000E-13	 0.00000000E+00
	 0.00000000E+00	 0.00000000E+00	 4.62638000E-13

	 4.38289000E-13	 0.00000000E+00	 0.00000000E+00
	 0.00000000E+00	 4.38289000E-13	 0.00000000E+00
	 0.00000000E+00	 0.00000000E+00	 4.38289000E-13

	 4.64852000E-13	 0.00000000E+00	 0.00000000E+00
	 0.00000000E+00	 4.64852000E-13	 0.00000000E+00
	 0.00000000E+00	 0.00000000E+00	 4.64852000E-13

	 4.44929000E-13	 0.00000000E+00	 0.00000000E+00
	 0.00000000E+00	 4.44929000E-13	 0.00000000E+00
	 0.00000000E+00	 0.00000000E+00	 4.44929000E-13

	 4.38289000E-13	 0.00000000E+00	 0.00000000E+00
	 0.00000000E+00	 4.38289000E-13	 0.00000000E+00
	 0.00000000E+00	 0.00000000E+00	 4.38289000E-13

	 4.42716000E-13	 0.00000000E+00	 0.00000000E+00
	 0.00000000E+00	 4.42716000E-13	 0.00000000E+00
	 0.00000000E+00	 0.00000000E+00	 4.42716000E-13

	 4.38289000E-13	 0.00000000E+00	 0.00000000E+00
	 0.00000000E+00	 4.38289000E-13	 0.00000000E+00
	 0.00000000E+00	 0.00000000E+00	 4.38289000E-13

	 4.51570000E-13	 0.00000000E+00	 0.00000000E+00
	 0.00000000E+00	 4.51570000E-13	 0.00000000E+00
	 0.00000000E+00	 0.00000000E+00	 4.51570000E-13

	 4.47775000E-13	 0.00000000E+00	 0.00000000E+00
	 0.00000000E+00	 4.47775000E-13	 0.00000000E+00
	 0.00000000E+00	 0.00000000E+00	 4.47775000E-13

	 4.38289000E-13	 0.00000000E+00	 0.00000000E+00
	 0.00000000E+00	 4.38289000E-13	 0.00000000E+00
	 0.00000000E+00	 0.00000000E+00	 4.38289000E-13

	 4.40502000E-13	 0.00000000E+00	 0.00000000E+00
	 0.00000000E+00	 4.40502000E-13	 0.00000000E+00
	 0.00000000E+00	 0.00000000E+00	 4.40502000E-13

	 4.40502000E-13	 0.00000000E+00	 0.00000000E+00
	 0.00000000E+00	 4.40502000E-13	 0.00000000E+00
	 0.00000000E+00	 0.00000000E+00	 4.40502000E-13

	 4.38289000E-13	 0.00000000E+00	 0.00000000E+00
	 0.00000000E+00	 4.38289000E-13	 0.00000000E+00
	 0.00000000E+00	 0.00000000E+00	 4.38289000E-13

	 4.47775000E-13	 0.00000000E+00	 0.00000000E+00
	 0.00000000E+00	 4.47775000E-13	 0.00000000E+00
	 0.00000000E+00	 0.00000000E+00	 4.47775000E-13

	 4.38289000E-13	 0.00000000E+00	 0.00000000E+00
	 0.00000000E+00	 4.38289000E-13	 0.00000000E+00
	 0.00000000E+00	 0.00000000E+00	 4.38289000E-13

	 4.60425000E-13	 0.00000000E+00	 0.00000000E+00
	 0.00000000E+00	 4.60425000E-13	 0.00000000E+00
	 0.00000000E+00	 0.00000000E+00	 4.60425000E-13

	 4.60425000E-13	 0.00000000E+00	 0.00000000E+00
	 0.00000000E+00	 4.60425000E-13	 0.00000000E+00
	 0.00000000E+00	 0.00000000E+00	 4.60425000E-13

	 4.38289000E-13	 0.00000000E+00	 0.00000000E+00
	 0.00000000E+00	 4.38289000E-13	 0.00000000E+00
	 0.00000000E+00	 0.00000000E+00	 4.38289000E-13

	 4.64852000E-13	 0.00000000E+00	 0.00000000E+00
	 0.00000000E+00	 4.64852000E-13	 0.00000000E+00
	 0.00000000E+00	 0.00000000E+00	 4.64852000E-13

	 4.38289000E-13	 0.00000000E+00	 0.00000000E+00
	 0.00000000E+00	 4.38289000E-13	 0.00000000E+00
	 0.00000000E+00	 0.00000000E+00	 4.38289000E-13

	 4.38289000E-13	 0.00000000E+00	 0.00000000E+00
	 0.00000000E+00	 4.38289000E-13	 0.00000000E+00
	 0.00000000E+00	 0.00000000E+00	 4.38289000E-13

	 4.64852000E-13	 0.00000000E+00	 0.00000000E+00
	 0.00000000E+00	 4.64852000E-13	 0.00000000E+00
	 0.00000000E+00	 0.00000000E+00	 4.64852000E-13

	 4.64852000E-13	 0.00000000E+00	 0.00000000E+00
	 0.00000000E+00	 4.64852000E-13	 0.00000000E+00
	 0.00000000E+00	 0.00000000E+00	 4.64852000E-13

	 4.64852000E-13	 0.00000000E+00	 0.00000000E+00
	 0.00000000E+00	 4.64852000E-13	 0.00000000E+00
	 0.00000000E+00	 0.00000000E+00	 4.64852000E-13

	 4.64852000E-13	 0.00000000E+00	 0.00000000E+00
	 0.00000000E+00	 4.64852000E-13	 0.00000000E+00
	 0.00000000E+00	 0.00000000E+00	 4.64852000E-13

	 4.38289000E-13	 0.00000000E+00	 0.00000000E+00
	 0.00000000E+00	 4.38289000E-13	 0.00000000E+00
	 0.00000000E+00	 0.00000000E+00	 4.38289000E-13

	 4.64852000E-13	 0.00000000E+00	 0.00000000E+00
	 0.00000000E+00	 4.64852000E-13	 0.00000000E+00
	 0.00000000E+00	 0.00000000E+00	 4.64852000E-13

	 4.64852000E-13	 0.00000000E+00	 0.00000000E+00
	 0.00000000E+00	 4.64852000E-13	 0.00000000E+00
	 0.00000000E+00	 0.00000000E+00	 4.64852000E-13

	 4.51570000E-13	 0.00000000E+00	 0.00000000E+00
	 0.00000000E+00	 4.51570000E-13	 0.00000000E+00
	 0.00000000E+00	 0.00000000E+00	 4.51570000E-13

	 4.64852000E-13	 0.00000000E+00	 0.00000000E+00
	 0.00000000E+00	 4.64852000E-13	 0.00000000E+00
	 0.00000000E+00	 0.00000000E+00	 4.64852000E-13

	 4.64852000E-13	 0.00000000E+00	 0.00000000E+00
	 0.00000000E+00	 4.64852000E-13	 0.00000000E+00
	 0.00000000E+00	 0.00000000E+00	 4.64852000E-13

	 4.64852000E-13	 0.00000000E+00	 0.00000000E+00
	 0.00000000E+00	 4.64852000E-13	 0.00000000E+00
	 0.00000000E+00	 0.00000000E+00	 4.64852000E-13

	 4.47143000E-13	 0.00000000E+00	 0.00000000E+00
	 0.00000000E+00	 4.47143000E-13	 0.00000000E+00
	 0.00000000E+00	 0.00000000E+00	 4.47143000E-13

	 4.42716000E-13	 0.00000000E+00	 0.00000000E+00
	 0.00000000E+00	 4.42716000E-13	 0.00000000E+00
	 0.00000000E+00	 0.00000000E+00	 4.42716000E-13

	 4.47143000E-13	 0.00000000E+00	 0.00000000E+00
	 0.00000000E+00	 4.47143000E-13	 0.00000000E+00
	 0.00000000E+00	 0.00000000E+00	 4.47143000E-13

	 4.64852000E-13	 0.00000000E+00	 0.00000000E+00
	 0.00000000E+00	 4.64852000E-13	 0.00000000E+00
	 0.00000000E+00	 0.00000000E+00	 4.64852000E-13

	 4.38289000E-13	 0.00000000E+00	 0.00000000E+00
	 0.00000000E+00	 4.38289000E-13	 0.00000000E+00
	 0.00000000E+00	 0.00000000E+00	 4.38289000E-13

	 4.38289000E-13	 0.00000000E+00	 0.00000000E+00
	 0.00000000E+00	 4.38289000E-13	 0.00000000E+00
	 0.00000000E+00	 0.00000000E+00	 4.38289000E-13

	 4.58211000E-13	 0.00000000E+00	 0.00000000E+00
	 0.00000000E+00	 4.58211000E-13	 0.00000000E+00
	 0.00000000E+00	 0.00000000E+00	 4.58211000E-13

	 4.38289000E-13	 0.00000000E+00	 0.00000000E+00
	 0.00000000E+00	 4.38289000E-13	 0.00000000E+00
	 0.00000000E+00	 0.00000000E+00	 4.38289000E-13

	 4.64852000E-13	 0.00000000E+00	 0.00000000E+00
	 0.00000000E+00	 4.64852000E-13	 0.00000000E+00
	 0.00000000E+00	 0.00000000E+00	 4.64852000E-13

	 4.64852000E-13	 0.00000000E+00	 0.00000000E+00
	 0.00000000E+00	 4.64852000E-13	 0.00000000E+00
	 0.00000000E+00	 0.00000000E+00	 4.64852000E-13

	 4.38289000E-13	 0.00000000E+00	 0.00000000E+00
	 0.00000000E+00	 4.38289000E-13	 0.00000000E+00
	 0.00000000E+00	 0.00000000E+00	 4.38289000E-13

	 4.38289000E-13	 0.00000000E+00	 0.00000000E+00
	 0.00000000E+00	 4.38289000E-13	 0.00000000E+00
	 0.00000000E+00	 0.00000000E+00	 4.38289000E-13

	 4.51570000E-13	 0.00000000E+00	 0.00000000E+00
	 0.00000000E+00	 4.51570000E-13	 0.00000000E+00
	 0.00000000E+00	 0.00000000E+00	 4.51570000E-13

	 4.64852000E-13	 0.00000000E+00	 0.00000000E+00
	 0.00000000E+00	 4.64852000E-13	 0.00000000E+00
	 0.00000000E+00	 0.00000000E+00	 4.64852000E-13

	 4.38289000E-13	 0.00000000E+00	 0.00000000E+00
	 0.00000000E+00	 4.38289000E-13	 0.00000000E+00
	 0.00000000E+00	 0.00000000E+00	 4.38289000E-13

	 4.38289000E-13	 0.00000000E+00	 0.00000000E+00
	 0.00000000E+00	 4.38289000E-13	 0.00000000E+00
	 0.00000000E+00	 0.00000000E+00	 4.38289000E-13

	 4.38289000E-13	 0.00000000E+00	 0.00000000E+00
	 0.00000000E+00	 4.38289000E-13	 0.00000000E+00
	 0.00000000E+00	 0.00000000E+00	 4.38289000E-13

	 4.42716000E-13	 0.00000000E+00	 0.00000000E+00
	 0.00000000E+00	 4.42716000E-13	 0.00000000E+00
	 0.00000000E+00	 0.00000000E+00	 4.42716000E-13

	 4.38289000E-13	 0.00000000E+00	 0.00000000E+00
	 0.00000000E+00	 4.38289000E-13	 0.00000000E+00
	 0.00000000E+00	 0.00000000E+00	 4.38289000E-13

	 4.53784000E-13	 0.00000000E+00	 0.00000000E+00
	 0.00000000E+00	 4.53784000E-13	 0.00000000E+00
	 0.00000000E+00	 0.00000000E+00	 4.53784000E-13

	 4.42716000E-13	 0.00000000E+00	 0.00000000E+00
	 0.00000000E+00	 4.42716000E-13	 0.00000000E+00
	 0.00000000E+00	 0.00000000E+00	 4.42716000E-13

	 4.60425000E-13	 0.00000000E+00	 0.00000000E+00
	 0.00000000E+00	 4.60425000E-13	 0.00000000E+00
	 0.00000000E+00	 0.00000000E+00	 4.60425000E-13

	 4.38289000E-13	 0.00000000E+00	 0.00000000E+00
	 0.00000000E+00	 4.38289000E-13	 0.00000000E+00
	 0.00000000E+00	 0.00000000E+00	 4.38289000E-13

	 4.38289000E-13	 0.00000000E+00	 0.00000000E+00
	 0.00000000E+00	 4.38289000E-13	 0.00000000E+00
	 0.00000000E+00	 0.00000000E+00	 4.38289000E-13

	 4.38289000E-13	 0.00000000E+00	 0.00000000E+00
	 0.00000000E+00	 4.38289000E-13	 0.00000000E+00
	 0.00000000E+00	 0.00000000E+00	 4.38289000E-13

	 4.51570000E-13	 0.00000000E+00	 0.00000000E+00
	 0.00000000E+00	 4.51570000E-13	 0.00000000E+00
	 0.00000000E+00	 0.00000000E+00	 4.51570000E-13

	 4.43269000E-13	 0.00000000E+00	 0.00000000E+00
	 0.00000000E+00	 4.43269000E-13	 0.00000000E+00
	 0.00000000E+00	 0.00000000E+00	 4.43269000E-13

	 4.64852000E-13	 0.00000000E+00	 0.00000000E+00
	 0.00000000E+00	 4.64852000E-13	 0.00000000E+00
	 0.00000000E+00	 0.00000000E+00	 4.64852000E-13

	 4.59539000E-13	 0.00000000E+00	 0.00000000E+00
	 0.00000000E+00	 4.59539000E-13	 0.00000000E+00
	 0.00000000E+00	 0.00000000E+00	 4.59539000E-13

	 4.38289000E-13	 0.00000000E+00	 0.00000000E+00
	 0.00000000E+00	 4.38289000E-13	 0.00000000E+00
	 0.00000000E+00	 0.00000000E+00	 4.38289000E-13

	 4.64852000E-13	 0.00000000E+00	 0.00000000E+00
	 0.00000000E+00	 4.64852000E-13	 0.00000000E+00
	 0.00000000E+00	 0.00000000E+00	 4.64852000E-13

	 4.64852000E-13	 0.00000000E+00	 0.00000000E+00
	 0.00000000E+00	 4.64852000E-13	 0.00000000E+00
	 0.00000000E+00	 0.00000000E+00	 4.64852000E-13

	 4.64852000E-13	 0.00000000E+00	 0.00000000E+00
	 0.00000000E+00	 4.64852000E-13	 0.00000000E+00
	 0.00000000E+00	 0.00000000E+00	 4.64852000E-13

	 4.38289000E-13	 0.00000000E+00	 0.00000000E+00
	 0.00000000E+00	 4.38289000E-13	 0.00000000E+00
	 0.00000000E+00	 0.00000000E+00	 4.38289000E-13

	 4.38289000E-13	 0.00000000E+00	 0.00000000E+00
	 0.00000000E+00	 4.38289000E-13	 0.00000000E+00
	 0.00000000E+00	 0.00000000E+00	 4.38289000E-13

	 4.49357000E-13	 0.00000000E+00	 0.00000000E+00
	 0.00000000E+00	 4.49357000E-13	 0.00000000E+00
	 0.00000000E+00	 0.00000000E+00	 4.49357000E-13

	 4.64852000E-13	 0.00000000E+00	 0.00000000E+00
	 0.00000000E+00	 4.64852000E-13	 0.00000000E+00
	 0.00000000E+00	 0.00000000E+00	 4.64852000E-13

	 4.47143000E-13	 0.00000000E+00	 0.00000000E+00
	 0.00000000E+00	 4.47143000E-13	 0.00000000E+00
	 0.00000000E+00	 0.00000000E+00	 4.47143000E-13

	 4.64852000E-13	 0.00000000E+00	 0.00000000E+00
	 0.00000000E+00	 4.64852000E-13	 0.00000000E+00
	 0.00000000E+00	 0.00000000E+00	 4.64852000E-13

	 4.38289000E-13	 0.00000000E+00	 0.00000000E+00
	 0.00000000E+00	 4.38289000E-13	 0.00000000E+00
	 0.00000000E+00	 0.00000000E+00	 4.38289000E-13

	 4.38289000E-13	 0.00000000E+00	 0.00000000E+00
	 0.00000000E+00	 4.38289000E-13	 0.00000000E+00
	 0.00000000E+00	 0.00000000E+00	 4.38289000E-13

	 4.47775000E-13	 0.00000000E+00	 0.00000000E+00
	 0.00000000E+00	 4.47775000E-13	 0.00000000E+00
	 0.00000000E+00	 0.00000000E+00	 4.47775000E-13

	 4.38289000E-13	 0.00000000E+00	 0.00000000E+00
	 0.00000000E+00	 4.38289000E-13	 0.00000000E+00
	 0.00000000E+00	 0.00000000E+00	 4.38289000E-13

	 4.38289000E-13	 0.00000000E+00	 0.00000000E+00
	 0.00000000E+00	 4.38289000E-13	 0.00000000E+00
	 0.00000000E+00	 0.00000000E+00	 4.38289000E-13

	 4.64852000E-13	 0.00000000E+00	 0.00000000E+00
	 0.00000000E+00	 4.64852000E-13	 0.00000000E+00
	 0.00000000E+00	 0.00000000E+00	 4.64852000E-13

	 4.64852000E-13	 0.00000000E+00	 0.00000000E+00
	 0.00000000E+00	 4.64852000E-13	 0.00000000E+00
	 0.00000000E+00	 0.00000000E+00	 4.64852000E-13

	 4.62638000E-13	 0.00000000E+00	 0.00000000E+00
	 0.00000000E+00	 4.62638000E-13	 0.00000000E+00
	 0.00000000E+00	 0.00000000E+00	 4.62638000E-13

	 4.64852000E-13	 0.00000000E+00	 0.00000000E+00
	 0.00000000E+00	 4.64852000E-13	 0.00000000E+00
	 0.00000000E+00	 0.00000000E+00	 4.64852000E-13

	 4.47143000E-13	 0.00000000E+00	 0.00000000E+00
	 0.00000000E+00	 4.47143000E-13	 0.00000000E+00
	 0.00000000E+00	 0.00000000E+00	 4.47143000E-13

	 4.38289000E-13	 0.00000000E+00	 0.00000000E+00
	 0.00000000E+00	 4.38289000E-13	 0.00000000E+00
	 0.00000000E+00	 0.00000000E+00	 4.38289000E-13

	 4.64852000E-13	 0.00000000E+00	 0.00000000E+00
	 0.00000000E+00	 4.64852000E-13	 0.00000000E+00
	 0.00000000E+00	 0.00000000E+00	 4.64852000E-13

	 4.64852000E-13	 0.00000000E+00	 0.00000000E+00
	 0.00000000E+00	 4.64852000E-13	 0.00000000E+00
	 0.00000000E+00	 0.00000000E+00	 4.64852000E-13

	 4.38289000E-13	 0.00000000E+00	 0.00000000E+00
	 0.00000000E+00	 4.38289000E-13	 0.00000000E+00
	 0.00000000E+00	 0.00000000E+00	 4.38289000E-13

	 4.38289000E-13	 0.00000000E+00	 0.00000000E+00
	 0.00000000E+00	 4.38289000E-13	 0.00000000E+00
	 0.00000000E+00	 0.00000000E+00	 4.38289000E-13

	 4.38289000E-13	 0.00000000E+00	 0.00000000E+00
	 0.00000000E+00	 4.38289000E-13	 0.00000000E+00
	 0.00000000E+00	 0.00000000E+00	 4.38289000E-13

	 4.64852000E-13	 0.00000000E+00	 0.00000000E+00
	 0.00000000E+00	 4.64852000E-13	 0.00000000E+00
	 0.00000000E+00	 0.00000000E+00	 4.64852000E-13

	 4.38289000E-13	 0.00000000E+00	 0.00000000E+00
	 0.00000000E+00	 4.38289000E-13	 0.00000000E+00
	 0.00000000E+00	 0.00000000E+00	 4.38289000E-13

	 4.64852000E-13	 0.00000000E+00	 0.00000000E+00
	 0.00000000E+00	 4.64852000E-13	 0.00000000E+00
	 0.00000000E+00	 0.00000000E+00	 4.64852000E-13

	 4.38289000E-13	 0.00000000E+00	 0.00000000E+00
	 0.00000000E+00	 4.38289000E-13	 0.00000000E+00
	 0.00000000E+00	 0.00000000E+00	 4.38289000E-13

	 4.64852000E-13	 0.00000000E+00	 0.00000000E+00
	 0.00000000E+00	 4.64852000E-13	 0.00000000E+00
	 0.00000000E+00	 0.00000000E+00	 4.64852000E-13

	 4.64852000E-13	 0.00000000E+00	 0.00000000E+00
	 0.00000000E+00	 4.64852000E-13	 0.00000000E+00
	 0.00000000E+00	 0.00000000E+00	 4.64852000E-13

	 4.64852000E-13	 0.00000000E+00	 0.00000000E+00
	 0.00000000E+00	 4.64852000E-13	 0.00000000E+00
	 0.00000000E+00	 0.00000000E+00	 4.64852000E-13

	 4.64852000E-13	 0.00000000E+00	 0.00000000E+00
	 0.00000000E+00	 4.64852000E-13	 0.00000000E+00
	 0.00000000E+00	 0.00000000E+00	 4.64852000E-13

	 4.64852000E-13	 0.00000000E+00	 0.00000000E+00
	 0.00000000E+00	 4.64852000E-13	 0.00000000E+00
	 0.00000000E+00	 0.00000000E+00	 4.64852000E-13

	 4.38289000E-13	 0.00000000E+00	 0.00000000E+00
	 0.00000000E+00	 4.38289000E-13	 0.00000000E+00
	 0.00000000E+00	 0.00000000E+00	 4.38289000E-13

	 4.38289000E-13	 0.00000000E+00	 0.00000000E+00
	 0.00000000E+00	 4.38289000E-13	 0.00000000E+00
	 0.00000000E+00	 0.00000000E+00	 4.38289000E-13

	 4.38289000E-13	 0.00000000E+00	 0.00000000E+00
	 0.00000000E+00	 4.38289000E-13	 0.00000000E+00
	 0.00000000E+00	 0.00000000E+00	 4.38289000E-13

	 4.47143000E-13	 0.00000000E+00	 0.00000000E+00
	 0.00000000E+00	 4.47143000E-13	 0.00000000E+00
	 0.00000000E+00	 0.00000000E+00	 4.47143000E-13

	 4.38289000E-13	 0.00000000E+00	 0.00000000E+00
	 0.00000000E+00	 4.38289000E-13	 0.00000000E+00
	 0.00000000E+00	 0.00000000E+00	 4.38289000E-13

	 4.64852000E-13	 0.00000000E+00	 0.00000000E+00
	 0.00000000E+00	 4.64852000E-13	 0.00000000E+00
	 0.00000000E+00	 0.00000000E+00	 4.64852000E-13

	 4.62638000E-13	 0.00000000E+00	 0.00000000E+00
	 0.00000000E+00	 4.62638000E-13	 0.00000000E+00
	 0.00000000E+00	 0.00000000E+00	 4.62638000E-13

	 4.55997000E-13	 0.00000000E+00	 0.00000000E+00
	 0.00000000E+00	 4.55997000E-13	 0.00000000E+00
	 0.00000000E+00	 0.00000000E+00	 4.55997000E-13

	 4.60425000E-13	 0.00000000E+00	 0.00000000E+00
	 0.00000000E+00	 4.60425000E-13	 0.00000000E+00
	 0.00000000E+00	 0.00000000E+00	 4.60425000E-13

	 4.38289000E-13	 0.00000000E+00	 0.00000000E+00
	 0.00000000E+00	 4.38289000E-13	 0.00000000E+00
	 0.00000000E+00	 0.00000000E+00	 4.38289000E-13

	 4.38289000E-13	 0.00000000E+00	 0.00000000E+00
	 0.00000000E+00	 4.38289000E-13	 0.00000000E+00
	 0.00000000E+00	 0.00000000E+00	 4.38289000E-13

	 4.38289000E-13	 0.00000000E+00	 0.00000000E+00
	 0.00000000E+00	 4.38289000E-13	 0.00000000E+00
	 0.00000000E+00	 0.00000000E+00	 4.38289000E-13

	 4.64852000E-13	 0.00000000E+00	 0.00000000E+00
	 0.00000000E+00	 4.64852000E-13	 0.00000000E+00
	 0.00000000E+00	 0.00000000E+00	 4.64852000E-13

	 4.60425000E-13	 0.00000000E+00	 0.00000000E+00
	 0.00000000E+00	 4.60425000E-13	 0.00000000E+00
	 0.00000000E+00	 0.00000000E+00	 4.60425000E-13

	 4.38289000E-13	 0.00000000E+00	 0.00000000E+00
	 0.00000000E+00	 4.38289000E-13	 0.00000000E+00
	 0.00000000E+00	 0.00000000E+00	 4.38289000E-13

	 4.64852000E-13	 0.00000000E+00	 0.00000000E+00
	 0.00000000E+00	 4.64852000E-13	 0.00000000E+00
	 0.00000000E+00	 0.00000000E+00	 4.64852000E-13

	 4.51570000E-13	 0.00000000E+00	 0.00000000E+00
	 0.00000000E+00	 4.51570000E-13	 0.00000000E+00
	 0.00000000E+00	 0.00000000E+00	 4.51570000E-13

	 4.64852000E-13	 0.00000000E+00	 0.00000000E+00
	 0.00000000E+00	 4.64852000E-13	 0.00000000E+00
	 0.00000000E+00	 0.00000000E+00	 4.64852000E-13

	 4.64852000E-13	 0.00000000E+00	 0.00000000E+00
	 0.00000000E+00	 4.64852000E-13	 0.00000000E+00
	 0.00000000E+00	 0.00000000E+00	 4.64852000E-13

	 4.64852000E-13	 0.00000000E+00	 0.00000000E+00
	 0.00000000E+00	 4.64852000E-13	 0.00000000E+00
	 0.00000000E+00	 0.00000000E+00	 4.64852000E-13

	 4.64852000E-13	 0.00000000E+00	 0.00000000E+00
	 0.00000000E+00	 4.64852000E-13	 0.00000000E+00
	 0.00000000E+00	 0.00000000E+00	 4.64852000E-13

	 4.59160000E-13	 0.00000000E+00	 0.00000000E+00
	 0.00000000E+00	 4.59160000E-13	 0.00000000E+00
	 0.00000000E+00	 0.00000000E+00	 4.59160000E-13

	 4.64852000E-13	 0.00000000E+00	 0.00000000E+00
	 0.00000000E+00	 4.64852000E-13	 0.00000000E+00
	 0.00000000E+00	 0.00000000E+00	 4.64852000E-13

	 4.40502000E-13	 0.00000000E+00	 0.00000000E+00
	 0.00000000E+00	 4.40502000E-13	 0.00000000E+00
	 0.00000000E+00	 0.00000000E+00	 4.40502000E-13

	 4.53784000E-13	 0.00000000E+00	 0.00000000E+00
	 0.00000000E+00	 4.53784000E-13	 0.00000000E+00
	 0.00000000E+00	 0.00000000E+00	 4.53784000E-13

	 4.38289000E-13	 0.00000000E+00	 0.00000000E+00
	 0.00000000E+00	 4.38289000E-13	 0.00000000E+00
	 0.00000000E+00	 0.00000000E+00	 4.38289000E-13

	 4.61057000E-13	 0.00000000E+00	 0.00000000E+00
	 0.00000000E+00	 4.61057000E-13	 0.00000000E+00
	 0.00000000E+00	 0.00000000E+00	 4.61057000E-13

	 4.47143000E-13	 0.00000000E+00	 0.00000000E+00
	 0.00000000E+00	 4.47143000E-13	 0.00000000E+00
	 0.00000000E+00	 0.00000000E+00	 4.47143000E-13

	 4.42716000E-13	 0.00000000E+00	 0.00000000E+00
	 0.00000000E+00	 4.42716000E-13	 0.00000000E+00
	 0.00000000E+00	 0.00000000E+00	 4.42716000E-13

	 4.43981000E-13	 0.00000000E+00	 0.00000000E+00
	 0.00000000E+00	 4.43981000E-13	 0.00000000E+00
	 0.00000000E+00	 0.00000000E+00	 4.43981000E-13

	 4.64852000E-13	 0.00000000E+00	 0.00000000E+00
	 0.00000000E+00	 4.64852000E-13	 0.00000000E+00
	 0.00000000E+00	 0.00000000E+00	 4.64852000E-13

	 4.38289000E-13	 0.00000000E+00	 0.00000000E+00
	 0.00000000E+00	 4.38289000E-13	 0.00000000E+00
	 0.00000000E+00	 0.00000000E+00	 4.38289000E-13

	 4.64852000E-13	 0.00000000E+00	 0.00000000E+00
	 0.00000000E+00	 4.64852000E-13	 0.00000000E+00
	 0.00000000E+00	 0.00000000E+00	 4.64852000E-13

	 4.64852000E-13	 0.00000000E+00	 0.00000000E+00
	 0.00000000E+00	 4.64852000E-13	 0.00000000E+00
	 0.00000000E+00	 0.00000000E+00	 4.64852000E-13

	 4.38289000E-13	 0.00000000E+00	 0.00000000E+00
	 0.00000000E+00	 4.38289000E-13	 0.00000000E+00
	 0.00000000E+00	 0.00000000E+00	 4.38289000E-13

	 4.64852000E-13	 0.00000000E+00	 0.00000000E+00
	 0.00000000E+00	 4.64852000E-13	 0.00000000E+00
	 0.00000000E+00	 0.00000000E+00	 4.64852000E-13

	 4.40502000E-13	 0.00000000E+00	 0.00000000E+00
	 0.00000000E+00	 4.40502000E-13	 0.00000000E+00
	 0.00000000E+00	 0.00000000E+00	 4.40502000E-13

	 4.38289000E-13	 0.00000000E+00	 0.00000000E+00
	 0.00000000E+00	 4.38289000E-13	 0.00000000E+00
	 0.00000000E+00	 0.00000000E+00	 4.38289000E-13

	 4.64852000E-13	 0.00000000E+00	 0.00000000E+00
	 0.00000000E+00	 4.64852000E-13	 0.00000000E+00
	 0.00000000E+00	 0.00000000E+00	 4.64852000E-13

	 4.62954000E-13	 0.00000000E+00	 0.00000000E+00
	 0.00000000E+00	 4.62954000E-13	 0.00000000E+00
	 0.00000000E+00	 0.00000000E+00	 4.62954000E-13

	 4.38289000E-13	 0.00000000E+00	 0.00000000E+00
	 0.00000000E+00	 4.38289000E-13	 0.00000000E+00
	 0.00000000E+00	 0.00000000E+00	 4.38289000E-13

	 4.64852000E-13	 0.00000000E+00	 0.00000000E+00
	 0.00000000E+00	 4.64852000E-13	 0.00000000E+00
	 0.00000000E+00	 0.00000000E+00	 4.64852000E-13

	 4.40186000E-13	 0.00000000E+00	 0.00000000E+00
	 0.00000000E+00	 4.40186000E-13	 0.00000000E+00
	 0.00000000E+00	 0.00000000E+00	 4.40186000E-13

	 4.42083000E-13	 0.00000000E+00	 0.00000000E+00
	 0.00000000E+00	 4.42083000E-13	 0.00000000E+00
	 0.00000000E+00	 0.00000000E+00	 4.42083000E-13

	 4.42716000E-13	 0.00000000E+00	 0.00000000E+00
	 0.00000000E+00	 4.42716000E-13	 0.00000000E+00
	 0.00000000E+00	 0.00000000E+00	 4.42716000E-13

	 4.47143000E-13	 0.00000000E+00	 0.00000000E+00
	 0.00000000E+00	 4.47143000E-13	 0.00000000E+00
	 0.00000000E+00	 0.00000000E+00	 4.47143000E-13

	 4.42716000E-13	 0.00000000E+00	 0.00000000E+00
	 0.00000000E+00	 4.42716000E-13	 0.00000000E+00
	 0.00000000E+00	 0.00000000E+00	 4.42716000E-13

	 4.38289000E-13	 0.00000000E+00	 0.00000000E+00
	 0.00000000E+00	 4.38289000E-13	 0.00000000E+00
	 0.00000000E+00	 0.00000000E+00	 4.38289000E-13

	 4.38289000E-13	 0.00000000E+00	 0.00000000E+00
	 0.00000000E+00	 4.38289000E-13	 0.00000000E+00
	 0.00000000E+00	 0.00000000E+00	 4.38289000E-13

	 4.64852000E-13	 0.00000000E+00	 0.00000000E+00
	 0.00000000E+00	 4.64852000E-13	 0.00000000E+00
	 0.00000000E+00	 0.00000000E+00	 4.64852000E-13

	 4.53468000E-13	 0.00000000E+00	 0.00000000E+00
	 0.00000000E+00	 4.53468000E-13	 0.00000000E+00
	 0.00000000E+00	 0.00000000E+00	 4.53468000E-13

	 4.62954000E-13	 0.00000000E+00	 0.00000000E+00
	 0.00000000E+00	 4.62954000E-13	 0.00000000E+00
	 0.00000000E+00	 0.00000000E+00	 4.62954000E-13

	 4.42083000E-13	 0.00000000E+00	 0.00000000E+00
	 0.00000000E+00	 4.42083000E-13	 0.00000000E+00
	 0.00000000E+00	 0.00000000E+00	 4.42083000E-13

	 4.49357000E-13	 0.00000000E+00	 0.00000000E+00
	 0.00000000E+00	 4.49357000E-13	 0.00000000E+00
	 0.00000000E+00	 0.00000000E+00	 4.49357000E-13

	 4.62954000E-13	 0.00000000E+00	 0.00000000E+00
	 0.00000000E+00	 4.62954000E-13	 0.00000000E+00
	 0.00000000E+00	 0.00000000E+00	 4.62954000E-13

	 4.51570000E-13	 0.00000000E+00	 0.00000000E+00
	 0.00000000E+00	 4.51570000E-13	 0.00000000E+00
	 0.00000000E+00	 0.00000000E+00	 4.51570000E-13

	 4.53784000E-13	 0.00000000E+00	 0.00000000E+00
	 0.00000000E+00	 4.53784000E-13	 0.00000000E+00
	 0.00000000E+00	 0.00000000E+00	 4.53784000E-13

	 4.62954000E-13	 0.00000000E+00	 0.00000000E+00
	 0.00000000E+00	 4.62954000E-13	 0.00000000E+00
	 0.00000000E+00	 0.00000000E+00	 4.62954000E-13

	 4.42083000E-13	 0.00000000E+00	 0.00000000E+00
	 0.00000000E+00	 4.42083000E-13	 0.00000000E+00
	 0.00000000E+00	 0.00000000E+00	 4.42083000E-13

	 4.38289000E-13	 0.00000000E+00	 0.00000000E+00
	 0.00000000E+00	 4.38289000E-13	 0.00000000E+00
	 0.00000000E+00	 0.00000000E+00	 4.38289000E-13

	 4.40186000E-13	 0.00000000E+00	 0.00000000E+00
	 0.00000000E+00	 4.40186000E-13	 0.00000000E+00
	 0.00000000E+00	 0.00000000E+00	 4.40186000E-13

	 4.53784000E-13	 0.00000000E+00	 0.00000000E+00
	 0.00000000E+00	 4.53784000E-13	 0.00000000E+00
	 0.00000000E+00	 0.00000000E+00	 4.53784000E-13

	 4.62954000E-13	 0.00000000E+00	 0.00000000E+00
	 0.00000000E+00	 4.62954000E-13	 0.00000000E+00
	 0.00000000E+00	 0.00000000E+00	 4.62954000E-13

	 4.53784000E-13	 0.00000000E+00	 0.00000000E+00
	 0.00000000E+00	 4.53784000E-13	 0.00000000E+00
	 0.00000000E+00	 0.00000000E+00	 4.53784000E-13

	 4.42716000E-13	 0.00000000E+00	 0.00000000E+00
	 0.00000000E+00	 4.42716000E-13	 0.00000000E+00
	 0.00000000E+00	 0.00000000E+00	 4.42716000E-13

	 4.40502000E-13	 0.00000000E+00	 0.00000000E+00
	 0.00000000E+00	 4.40502000E-13	 0.00000000E+00
	 0.00000000E+00	 0.00000000E+00	 4.40502000E-13

	 4.53784000E-13	 0.00000000E+00	 0.00000000E+00
	 0.00000000E+00	 4.53784000E-13	 0.00000000E+00
	 0.00000000E+00	 0.00000000E+00	 4.53784000E-13

	 4.64852000E-13	 0.00000000E+00	 0.00000000E+00
	 0.00000000E+00	 4.64852000E-13	 0.00000000E+00
	 0.00000000E+00	 0.00000000E+00	 4.64852000E-13

	 4.64852000E-13	 0.00000000E+00	 0.00000000E+00
	 0.00000000E+00	 4.64852000E-13	 0.00000000E+00
	 0.00000000E+00	 0.00000000E+00	 4.64852000E-13

	 4.64852000E-13	 0.00000000E+00	 0.00000000E+00
	 0.00000000E+00	 4.64852000E-13	 0.00000000E+00
	 0.00000000E+00	 0.00000000E+00	 4.64852000E-13

	 4.62638000E-13	 0.00000000E+00	 0.00000000E+00
	 0.00000000E+00	 4.62638000E-13	 0.00000000E+00
	 0.00000000E+00	 0.00000000E+00	 4.62638000E-13

	 4.62638000E-13	 0.00000000E+00	 0.00000000E+00
	 0.00000000E+00	 4.62638000E-13	 0.00000000E+00
	 0.00000000E+00	 0.00000000E+00	 4.62638000E-13

	 4.64852000E-13	 0.00000000E+00	 0.00000000E+00
	 0.00000000E+00	 4.64852000E-13	 0.00000000E+00
	 0.00000000E+00	 0.00000000E+00	 4.64852000E-13

	 4.64852000E-13	 0.00000000E+00	 0.00000000E+00
	 0.00000000E+00	 4.64852000E-13	 0.00000000E+00
	 0.00000000E+00	 0.00000000E+00	 4.64852000E-13

	 4.64852000E-13	 0.00000000E+00	 0.00000000E+00
	 0.00000000E+00	 4.64852000E-13	 0.00000000E+00
	 0.00000000E+00	 0.00000000E+00	 4.64852000E-13

	 4.62638000E-13	 0.00000000E+00	 0.00000000E+00
	 0.00000000E+00	 4.62638000E-13	 0.00000000E+00
	 0.00000000E+00	 0.00000000E+00	 4.62638000E-13

	 4.64852000E-13	 0.00000000E+00	 0.00000000E+00
	 0.00000000E+00	 4.64852000E-13	 0.00000000E+00
	 0.00000000E+00	 0.00000000E+00	 4.64852000E-13

	 4.64852000E-13	 0.00000000E+00	 0.00000000E+00
	 0.00000000E+00	 4.64852000E-13	 0.00000000E+00
	 0.00000000E+00	 0.00000000E+00	 4.64852000E-13

	 4.64852000E-13	 0.00000000E+00	 0.00000000E+00
	 0.00000000E+00	 4.64852000E-13	 0.00000000E+00
	 0.00000000E+00	 0.00000000E+00	 4.64852000E-13

	 4.64852000E-13	 0.00000000E+00	 0.00000000E+00
	 0.00000000E+00	 4.64852000E-13	 0.00000000E+00
	 0.00000000E+00	 0.00000000E+00	 4.64852000E-13

	 4.64852000E-13	 0.00000000E+00	 0.00000000E+00
	 0.00000000E+00	 4.64852000E-13	 0.00000000E+00
	 0.00000000E+00	 0.00000000E+00	 4.64852000E-13

	 4.64852000E-13	 0.00000000E+00	 0.00000000E+00
	 0.00000000E+00	 4.64852000E-13	 0.00000000E+00
	 0.00000000E+00	 0.00000000E+00	 4.64852000E-13

	 4.64852000E-13	 0.00000000E+00	 0.00000000E+00
	 0.00000000E+00	 4.64852000E-13	 0.00000000E+00
	 0.00000000E+00	 0.00000000E+00	 4.64852000E-13

	 4.64852000E-13	 0.00000000E+00	 0.00000000E+00
	 0.00000000E+00	 4.64852000E-13	 0.00000000E+00
	 0.00000000E+00	 0.00000000E+00	 4.64852000E-13

	 4.64852000E-13	 0.00000000E+00	 0.00000000E+00
	 0.00000000E+00	 4.64852000E-13	 0.00000000E+00
	 0.00000000E+00	 0.00000000E+00	 4.64852000E-13

	 4.64852000E-13	 0.00000000E+00	 0.00000000E+00
	 0.00000000E+00	 4.64852000E-13	 0.00000000E+00
	 0.00000000E+00	 0.00000000E+00	 4.64852000E-13

	 4.64852000E-13	 0.00000000E+00	 0.00000000E+00
	 0.00000000E+00	 4.64852000E-13	 0.00000000E+00
	 0.00000000E+00	 0.00000000E+00	 4.64852000E-13

	 4.64852000E-13	 0.00000000E+00	 0.00000000E+00
	 0.00000000E+00	 4.64852000E-13	 0.00000000E+00
	 0.00000000E+00	 0.00000000E+00	 4.64852000E-13

	 4.64852000E-13	 0.00000000E+00	 0.00000000E+00
	 0.00000000E+00	 4.64852000E-13	 0.00000000E+00
	 0.00000000E+00	 0.00000000E+00	 4.64852000E-13

	 4.64852000E-13	 0.00000000E+00	 0.00000000E+00
	 0.00000000E+00	 4.64852000E-13	 0.00000000E+00
	 0.00000000E+00	 0.00000000E+00	 4.64852000E-13

	 4.64852000E-13	 0.00000000E+00	 0.00000000E+00
	 0.00000000E+00	 4.64852000E-13	 0.00000000E+00
	 0.00000000E+00	 0.00000000E+00	 4.64852000E-13

	 4.64852000E-13	 0.00000000E+00	 0.00000000E+00
	 0.00000000E+00	 4.64852000E-13	 0.00000000E+00
	 0.00000000E+00	 0.00000000E+00	 4.64852000E-13

	 4.64852000E-13	 0.00000000E+00	 0.00000000E+00
	 0.00000000E+00	 4.64852000E-13	 0.00000000E+00
	 0.00000000E+00	 0.00000000E+00	 4.64852000E-13

	 4.64852000E-13	 0.00000000E+00	 0.00000000E+00
	 0.00000000E+00	 4.64852000E-13	 0.00000000E+00
	 0.00000000E+00	 0.00000000E+00	 4.64852000E-13

	 4.64852000E-13	 0.00000000E+00	 0.00000000E+00
	 0.00000000E+00	 4.64852000E-13	 0.00000000E+00
	 0.00000000E+00	 0.00000000E+00	 4.64852000E-13

	 4.64852000E-13	 0.00000000E+00	 0.00000000E+00
	 0.00000000E+00	 4.64852000E-13	 0.00000000E+00
	 0.00000000E+00	 0.00000000E+00	 4.64852000E-13

	 4.44929000E-13	 0.00000000E+00	 0.00000000E+00
	 0.00000000E+00	 4.44929000E-13	 0.00000000E+00
	 0.00000000E+00	 0.00000000E+00	 4.44929000E-13

	 4.42716000E-13	 0.00000000E+00	 0.00000000E+00
	 0.00000000E+00	 4.42716000E-13	 0.00000000E+00
	 0.00000000E+00	 0.00000000E+00	 4.42716000E-13

	 4.51570000E-13	 0.00000000E+00	 0.00000000E+00
	 0.00000000E+00	 4.51570000E-13	 0.00000000E+00
	 0.00000000E+00	 0.00000000E+00	 4.51570000E-13

	 4.38289000E-13	 0.00000000E+00	 0.00000000E+00
	 0.00000000E+00	 4.38289000E-13	 0.00000000E+00
	 0.00000000E+00	 0.00000000E+00	 4.38289000E-13

	 4.51570000E-13	 0.00000000E+00	 0.00000000E+00
	 0.00000000E+00	 4.51570000E-13	 0.00000000E+00
	 0.00000000E+00	 0.00000000E+00	 4.51570000E-13

	 4.62638000E-13	 0.00000000E+00	 0.00000000E+00
	 0.00000000E+00	 4.62638000E-13	 0.00000000E+00
	 0.00000000E+00	 0.00000000E+00	 4.62638000E-13

	 4.64852000E-13	 0.00000000E+00	 0.00000000E+00
	 0.00000000E+00	 4.64852000E-13	 0.00000000E+00
	 0.00000000E+00	 0.00000000E+00	 4.64852000E-13

	 4.38289000E-13	 0.00000000E+00	 0.00000000E+00
	 0.00000000E+00	 4.38289000E-13	 0.00000000E+00
	 0.00000000E+00	 0.00000000E+00	 4.38289000E-13

	 4.64852000E-13	 0.00000000E+00	 0.00000000E+00
	 0.00000000E+00	 4.64852000E-13	 0.00000000E+00
	 0.00000000E+00	 0.00000000E+00	 4.64852000E-13

	 4.64852000E-13	 0.00000000E+00	 0.00000000E+00
	 0.00000000E+00	 4.64852000E-13	 0.00000000E+00
	 0.00000000E+00	 0.00000000E+00	 4.64852000E-13

	 4.64852000E-13	 0.00000000E+00	 0.00000000E+00
	 0.00000000E+00	 4.64852000E-13	 0.00000000E+00
	 0.00000000E+00	 0.00000000E+00	 4.64852000E-13

	 4.64852000E-13	 0.00000000E+00	 0.00000000E+00
	 0.00000000E+00	 4.64852000E-13	 0.00000000E+00
	 0.00000000E+00	 0.00000000E+00	 4.64852000E-13

	 4.62638000E-13	 0.00000000E+00	 0.00000000E+00
	 0.00000000E+00	 4.62638000E-13	 0.00000000E+00
	 0.00000000E+00	 0.00000000E+00	 4.62638000E-13

	 4.51570000E-13	 0.00000000E+00	 0.00000000E+00
	 0.00000000E+00	 4.51570000E-13	 0.00000000E+00
	 0.00000000E+00	 0.00000000E+00	 4.51570000E-13

	 4.55997000E-13	 0.00000000E+00	 0.00000000E+00
	 0.00000000E+00	 4.55997000E-13	 0.00000000E+00
	 0.00000000E+00	 0.00000000E+00	 4.55997000E-13

	 4.58211000E-13	 0.00000000E+00	 0.00000000E+00
	 0.00000000E+00	 4.58211000E-13	 0.00000000E+00
	 0.00000000E+00	 0.00000000E+00	 4.58211000E-13

	 4.58211000E-13	 0.00000000E+00	 0.00000000E+00
	 0.00000000E+00	 4.58211000E-13	 0.00000000E+00
	 0.00000000E+00	 0.00000000E+00	 4.58211000E-13

	 4.60425000E-13	 0.00000000E+00	 0.00000000E+00
	 0.00000000E+00	 4.60425000E-13	 0.00000000E+00
	 0.00000000E+00	 0.00000000E+00	 4.60425000E-13

	 4.42716000E-13	 0.00000000E+00	 0.00000000E+00
	 0.00000000E+00	 4.42716000E-13	 0.00000000E+00
	 0.00000000E+00	 0.00000000E+00	 4.42716000E-13

	 4.51570000E-13	 0.00000000E+00	 0.00000000E+00
	 0.00000000E+00	 4.51570000E-13	 0.00000000E+00
	 0.00000000E+00	 0.00000000E+00	 4.51570000E-13

	 4.42083000E-13	 0.00000000E+00	 0.00000000E+00
	 0.00000000E+00	 4.42083000E-13	 0.00000000E+00
	 0.00000000E+00	 0.00000000E+00	 4.42083000E-13

	 4.64852000E-13	 0.00000000E+00	 0.00000000E+00
	 0.00000000E+00	 4.64852000E-13	 0.00000000E+00
	 0.00000000E+00	 0.00000000E+00	 4.64852000E-13

	 4.38289000E-13	 0.00000000E+00	 0.00000000E+00
	 0.00000000E+00	 4.38289000E-13	 0.00000000E+00
	 0.00000000E+00	 0.00000000E+00	 4.38289000E-13

	 4.38289000E-13	 0.00000000E+00	 0.00000000E+00
	 0.00000000E+00	 4.38289000E-13	 0.00000000E+00
	 0.00000000E+00	 0.00000000E+00	 4.38289000E-13

	 4.38289000E-13	 0.00000000E+00	 0.00000000E+00
	 0.00000000E+00	 4.38289000E-13	 0.00000000E+00
	 0.00000000E+00	 0.00000000E+00	 4.38289000E-13

	 4.38289000E-13	 0.00000000E+00	 0.00000000E+00
	 0.00000000E+00	 4.38289000E-13	 0.00000000E+00
	 0.00000000E+00	 0.00000000E+00	 4.38289000E-13

	 4.38289000E-13	 0.00000000E+00	 0.00000000E+00
	 0.00000000E+00	 4.38289000E-13	 0.00000000E+00
	 0.00000000E+00	 0.00000000E+00	 4.38289000E-13

	 4.38289000E-13	 0.00000000E+00	 0.00000000E+00
	 0.00000000E+00	 4.38289000E-13	 0.00000000E+00
	 0.00000000E+00	 0.00000000E+00	 4.38289000E-13

	 4.38289000E-13	 0.00000000E+00	 0.00000000E+00
	 0.00000000E+00	 4.38289000E-13	 0.00000000E+00
	 0.00000000E+00	 0.00000000E+00	 4.38289000E-13

	 4.38289000E-13	 0.00000000E+00	 0.00000000E+00
	 0.00000000E+00	 4.38289000E-13	 0.00000000E+00
	 0.00000000E+00	 0.00000000E+00	 4.38289000E-13

	 4.64852000E-13	 0.00000000E+00	 0.00000000E+00
	 0.00000000E+00	 4.64852000E-13	 0.00000000E+00
	 0.00000000E+00	 0.00000000E+00	 4.64852000E-13

	 4.64852000E-13	 0.00000000E+00	 0.00000000E+00
	 0.00000000E+00	 4.64852000E-13	 0.00000000E+00
	 0.00000000E+00	 0.00000000E+00	 4.64852000E-13

	 4.64852000E-13	 0.00000000E+00	 0.00000000E+00
	 0.00000000E+00	 4.64852000E-13	 0.00000000E+00
	 0.00000000E+00	 0.00000000E+00	 4.64852000E-13

	 4.64852000E-13	 0.00000000E+00	 0.00000000E+00
	 0.00000000E+00	 4.64852000E-13	 0.00000000E+00
	 0.00000000E+00	 0.00000000E+00	 4.64852000E-13

	 4.62638000E-13	 0.00000000E+00	 0.00000000E+00
	 0.00000000E+00	 4.62638000E-13	 0.00000000E+00
	 0.00000000E+00	 0.00000000E+00	 4.62638000E-13

	 4.38289000E-13	 0.00000000E+00	 0.00000000E+00
	 0.00000000E+00	 4.38289000E-13	 0.00000000E+00
	 0.00000000E+00	 0.00000000E+00	 4.38289000E-13

	 4.64852000E-13	 0.00000000E+00	 0.00000000E+00
	 0.00000000E+00	 4.64852000E-13	 0.00000000E+00
	 0.00000000E+00	 0.00000000E+00	 4.64852000E-13

	 4.64852000E-13	 0.00000000E+00	 0.00000000E+00
	 0.00000000E+00	 4.64852000E-13	 0.00000000E+00
	 0.00000000E+00	 0.00000000E+00	 4.64852000E-13

	 4.64852000E-13	 0.00000000E+00	 0.00000000E+00
	 0.00000000E+00	 4.64852000E-13	 0.00000000E+00
	 0.00000000E+00	 0.00000000E+00	 4.64852000E-13

	 4.38289000E-13	 0.00000000E+00	 0.00000000E+00
	 0.00000000E+00	 4.38289000E-13	 0.00000000E+00
	 0.00000000E+00	 0.00000000E+00	 4.38289000E-13

	 4.64852000E-13	 0.00000000E+00	 0.00000000E+00
	 0.00000000E+00	 4.64852000E-13	 0.00000000E+00
	 0.00000000E+00	 0.00000000E+00	 4.64852000E-13

	 4.38289000E-13	 0.00000000E+00	 0.00000000E+00
	 0.00000000E+00	 4.38289000E-13	 0.00000000E+00
	 0.00000000E+00	 0.00000000E+00	 4.38289000E-13

	 4.64852000E-13	 0.00000000E+00	 0.00000000E+00
	 0.00000000E+00	 4.64852000E-13	 0.00000000E+00
	 0.00000000E+00	 0.00000000E+00	 4.64852000E-13

	 4.64852000E-13	 0.00000000E+00	 0.00000000E+00
	 0.00000000E+00	 4.64852000E-13	 0.00000000E+00
	 0.00000000E+00	 0.00000000E+00	 4.64852000E-13

	 4.64852000E-13	 0.00000000E+00	 0.00000000E+00
	 0.00000000E+00	 4.64852000E-13	 0.00000000E+00
	 0.00000000E+00	 0.00000000E+00	 4.64852000E-13

	 4.64852000E-13	 0.00000000E+00	 0.00000000E+00
	 0.00000000E+00	 4.64852000E-13	 0.00000000E+00
	 0.00000000E+00	 0.00000000E+00	 4.64852000E-13

	 4.64852000E-13	 0.00000000E+00	 0.00000000E+00
	 0.00000000E+00	 4.64852000E-13	 0.00000000E+00
	 0.00000000E+00	 0.00000000E+00	 4.64852000E-13

	 4.64852000E-13	 0.00000000E+00	 0.00000000E+00
	 0.00000000E+00	 4.64852000E-13	 0.00000000E+00
	 0.00000000E+00	 0.00000000E+00	 4.64852000E-13

	 4.64852000E-13	 0.00000000E+00	 0.00000000E+00
	 0.00000000E+00	 4.64852000E-13	 0.00000000E+00
	 0.00000000E+00	 0.00000000E+00	 4.64852000E-13

	 4.64852000E-13	 0.00000000E+00	 0.00000000E+00
	 0.00000000E+00	 4.64852000E-13	 0.00000000E+00
	 0.00000000E+00	 0.00000000E+00	 4.64852000E-13

	 4.64852000E-13	 0.00000000E+00	 0.00000000E+00
	 0.00000000E+00	 4.64852000E-13	 0.00000000E+00
	 0.00000000E+00	 0.00000000E+00	 4.64852000E-13

	 4.62195000E-13	 0.00000000E+00	 0.00000000E+00
	 0.00000000E+00	 4.62195000E-13	 0.00000000E+00
	 0.00000000E+00	 0.00000000E+00	 4.62195000E-13

	 4.64852000E-13	 0.00000000E+00	 0.00000000E+00
	 0.00000000E+00	 4.64852000E-13	 0.00000000E+00
	 0.00000000E+00	 0.00000000E+00	 4.64852000E-13

	 4.64852000E-13	 0.00000000E+00	 0.00000000E+00
	 0.00000000E+00	 4.64852000E-13	 0.00000000E+00
	 0.00000000E+00	 0.00000000E+00	 4.64852000E-13

	 4.64852000E-13	 0.00000000E+00	 0.00000000E+00
	 0.00000000E+00	 4.64852000E-13	 0.00000000E+00
	 0.00000000E+00	 0.00000000E+00	 4.64852000E-13

	 4.38289000E-13	 0.00000000E+00	 0.00000000E+00
	 0.00000000E+00	 4.38289000E-13	 0.00000000E+00
	 0.00000000E+00	 0.00000000E+00	 4.38289000E-13

	 4.42716000E-13	 0.00000000E+00	 0.00000000E+00
	 0.00000000E+00	 4.42716000E-13	 0.00000000E+00
	 0.00000000E+00	 0.00000000E+00	 4.42716000E-13

	 4.55997000E-13	 0.00000000E+00	 0.00000000E+00
	 0.00000000E+00	 4.55997000E-13	 0.00000000E+00
	 0.00000000E+00	 0.00000000E+00	 4.55997000E-13

	 4.51570000E-13	 0.00000000E+00	 0.00000000E+00
	 0.00000000E+00	 4.51570000E-13	 0.00000000E+00
	 0.00000000E+00	 0.00000000E+00	 4.51570000E-13

	 4.51570000E-13	 0.00000000E+00	 0.00000000E+00
	 0.00000000E+00	 4.51570000E-13	 0.00000000E+00
	 0.00000000E+00	 0.00000000E+00	 4.51570000E-13

	 4.64852000E-13	 0.00000000E+00	 0.00000000E+00
	 0.00000000E+00	 4.64852000E-13	 0.00000000E+00
	 0.00000000E+00	 0.00000000E+00	 4.64852000E-13

	 4.64852000E-13	 0.00000000E+00	 0.00000000E+00
	 0.00000000E+00	 4.64852000E-13	 0.00000000E+00
	 0.00000000E+00	 0.00000000E+00	 4.64852000E-13

	 4.64852000E-13	 0.00000000E+00	 0.00000000E+00
	 0.00000000E+00	 4.64852000E-13	 0.00000000E+00
	 0.00000000E+00	 0.00000000E+00	 4.64852000E-13

	 4.64852000E-13	 0.00000000E+00	 0.00000000E+00
	 0.00000000E+00	 4.64852000E-13	 0.00000000E+00
	 0.00000000E+00	 0.00000000E+00	 4.64852000E-13

	 4.64852000E-13	 0.00000000E+00	 0.00000000E+00
	 0.00000000E+00	 4.64852000E-13	 0.00000000E+00
	 0.00000000E+00	 0.00000000E+00	 4.64852000E-13

	 4.64852000E-13	 0.00000000E+00	 0.00000000E+00
	 0.00000000E+00	 4.64852000E-13	 0.00000000E+00
	 0.00000000E+00	 0.00000000E+00	 4.64852000E-13

	 4.64852000E-13	 0.00000000E+00	 0.00000000E+00
	 0.00000000E+00	 4.64852000E-13	 0.00000000E+00
	 0.00000000E+00	 0.00000000E+00	 4.64852000E-13

	 4.64852000E-13	 0.00000000E+00	 0.00000000E+00
	 0.00000000E+00	 4.64852000E-13	 0.00000000E+00
	 0.00000000E+00	 0.00000000E+00	 4.64852000E-13

	 4.64852000E-13	 0.00000000E+00	 0.00000000E+00
	 0.00000000E+00	 4.64852000E-13	 0.00000000E+00
	 0.00000000E+00	 0.00000000E+00	 4.64852000E-13

	 4.64852000E-13	 0.00000000E+00	 0.00000000E+00
	 0.00000000E+00	 4.64852000E-13	 0.00000000E+00
	 0.00000000E+00	 0.00000000E+00	 4.64852000E-13

	 4.64852000E-13	 0.00000000E+00	 0.00000000E+00
	 0.00000000E+00	 4.64852000E-13	 0.00000000E+00
	 0.00000000E+00	 0.00000000E+00	 4.64852000E-13

	 4.64852000E-13	 0.00000000E+00	 0.00000000E+00
	 0.00000000E+00	 4.64852000E-13	 0.00000000E+00
	 0.00000000E+00	 0.00000000E+00	 4.64852000E-13

	 4.64852000E-13	 0.00000000E+00	 0.00000000E+00
	 0.00000000E+00	 4.64852000E-13	 0.00000000E+00
	 0.00000000E+00	 0.00000000E+00	 4.64852000E-13

	 4.64852000E-13	 0.00000000E+00	 0.00000000E+00
	 0.00000000E+00	 4.64852000E-13	 0.00000000E+00
	 0.00000000E+00	 0.00000000E+00	 4.64852000E-13

	 4.64852000E-13	 0.00000000E+00	 0.00000000E+00
	 0.00000000E+00	 4.64852000E-13	 0.00000000E+00
	 0.00000000E+00	 0.00000000E+00	 4.64852000E-13

	 4.64852000E-13	 0.00000000E+00	 0.00000000E+00
	 0.00000000E+00	 4.64852000E-13	 0.00000000E+00
	 0.00000000E+00	 0.00000000E+00	 4.64852000E-13

	 4.47143000E-13	 0.00000000E+00	 0.00000000E+00
	 0.00000000E+00	 4.47143000E-13	 0.00000000E+00
	 0.00000000E+00	 0.00000000E+00	 4.47143000E-13

	 4.38289000E-13	 0.00000000E+00	 0.00000000E+00
	 0.00000000E+00	 4.38289000E-13	 0.00000000E+00
	 0.00000000E+00	 0.00000000E+00	 4.38289000E-13

	 4.38289000E-13	 0.00000000E+00	 0.00000000E+00
	 0.00000000E+00	 4.38289000E-13	 0.00000000E+00
	 0.00000000E+00	 0.00000000E+00	 4.38289000E-13

	 4.38289000E-13	 0.00000000E+00	 0.00000000E+00
	 0.00000000E+00	 4.38289000E-13	 0.00000000E+00
	 0.00000000E+00	 0.00000000E+00	 4.38289000E-13

	 4.38289000E-13	 0.00000000E+00	 0.00000000E+00
	 0.00000000E+00	 4.38289000E-13	 0.00000000E+00
	 0.00000000E+00	 0.00000000E+00	 4.38289000E-13

	 4.64852000E-13	 0.00000000E+00	 0.00000000E+00
	 0.00000000E+00	 4.64852000E-13	 0.00000000E+00
	 0.00000000E+00	 0.00000000E+00	 4.64852000E-13

	 4.64852000E-13	 0.00000000E+00	 0.00000000E+00
	 0.00000000E+00	 4.64852000E-13	 0.00000000E+00
	 0.00000000E+00	 0.00000000E+00	 4.64852000E-13

	 4.64852000E-13	 0.00000000E+00	 0.00000000E+00
	 0.00000000E+00	 4.64852000E-13	 0.00000000E+00
	 0.00000000E+00	 0.00000000E+00	 4.64852000E-13

	 4.64852000E-13	 0.00000000E+00	 0.00000000E+00
	 0.00000000E+00	 4.64852000E-13	 0.00000000E+00
	 0.00000000E+00	 0.00000000E+00	 4.64852000E-13

	 4.51570000E-13	 0.00000000E+00	 0.00000000E+00
	 0.00000000E+00	 4.51570000E-13	 0.00000000E+00
	 0.00000000E+00	 0.00000000E+00	 4.51570000E-13

	 4.38289000E-13	 0.00000000E+00	 0.00000000E+00
	 0.00000000E+00	 4.38289000E-13	 0.00000000E+00
	 0.00000000E+00	 0.00000000E+00	 4.38289000E-13

	 4.64852000E-13	 0.00000000E+00	 0.00000000E+00
	 0.00000000E+00	 4.64852000E-13	 0.00000000E+00
	 0.00000000E+00	 0.00000000E+00	 4.64852000E-13

	 4.64852000E-13	 0.00000000E+00	 0.00000000E+00
	 0.00000000E+00	 4.64852000E-13	 0.00000000E+00
	 0.00000000E+00	 0.00000000E+00	 4.64852000E-13

	 4.59160000E-13	 0.00000000E+00	 0.00000000E+00
	 0.00000000E+00	 4.59160000E-13	 0.00000000E+00
	 0.00000000E+00	 0.00000000E+00	 4.59160000E-13

	 4.64852000E-13	 0.00000000E+00	 0.00000000E+00
	 0.00000000E+00	 4.64852000E-13	 0.00000000E+00
	 0.00000000E+00	 0.00000000E+00	 4.64852000E-13

	 4.64852000E-13	 0.00000000E+00	 0.00000000E+00
	 0.00000000E+00	 4.64852000E-13	 0.00000000E+00
	 0.00000000E+00	 0.00000000E+00	 4.64852000E-13

	 4.64852000E-13	 0.00000000E+00	 0.00000000E+00
	 0.00000000E+00	 4.64852000E-13	 0.00000000E+00
	 0.00000000E+00	 0.00000000E+00	 4.64852000E-13

	 4.64852000E-13	 0.00000000E+00	 0.00000000E+00
	 0.00000000E+00	 4.64852000E-13	 0.00000000E+00
	 0.00000000E+00	 0.00000000E+00	 4.64852000E-13

	 4.42716000E-13	 0.00000000E+00	 0.00000000E+00
	 0.00000000E+00	 4.42716000E-13	 0.00000000E+00
	 0.00000000E+00	 0.00000000E+00	 4.42716000E-13

	 4.64852000E-13	 0.00000000E+00	 0.00000000E+00
	 0.00000000E+00	 4.64852000E-13	 0.00000000E+00
	 0.00000000E+00	 0.00000000E+00	 4.64852000E-13

	 4.38289000E-13	 0.00000000E+00	 0.00000000E+00
	 0.00000000E+00	 4.38289000E-13	 0.00000000E+00
	 0.00000000E+00	 0.00000000E+00	 4.38289000E-13

	 4.64852000E-13	 0.00000000E+00	 0.00000000E+00
	 0.00000000E+00	 4.64852000E-13	 0.00000000E+00
	 0.00000000E+00	 0.00000000E+00	 4.64852000E-13

	 4.64852000E-13	 0.00000000E+00	 0.00000000E+00
	 0.00000000E+00	 4.64852000E-13	 0.00000000E+00
	 0.00000000E+00	 0.00000000E+00	 4.64852000E-13

	 4.58211000E-13	 0.00000000E+00	 0.00000000E+00
	 0.00000000E+00	 4.58211000E-13	 0.00000000E+00
	 0.00000000E+00	 0.00000000E+00	 4.58211000E-13

	 4.62195000E-13	 0.00000000E+00	 0.00000000E+00
	 0.00000000E+00	 4.62195000E-13	 0.00000000E+00
	 0.00000000E+00	 0.00000000E+00	 4.62195000E-13

	 4.38289000E-13	 0.00000000E+00	 0.00000000E+00
	 0.00000000E+00	 4.38289000E-13	 0.00000000E+00
	 0.00000000E+00	 0.00000000E+00	 4.38289000E-13

	 4.64852000E-13	 0.00000000E+00	 0.00000000E+00
	 0.00000000E+00	 4.64852000E-13	 0.00000000E+00
	 0.00000000E+00	 0.00000000E+00	 4.64852000E-13

	 4.40186000E-13	 0.00000000E+00	 0.00000000E+00
	 0.00000000E+00	 4.40186000E-13	 0.00000000E+00
	 0.00000000E+00	 0.00000000E+00	 4.40186000E-13

	 4.40186000E-13	 0.00000000E+00	 0.00000000E+00
	 0.00000000E+00	 4.40186000E-13	 0.00000000E+00
	 0.00000000E+00	 0.00000000E+00	 4.40186000E-13

	 4.64852000E-13	 0.00000000E+00	 0.00000000E+00
	 0.00000000E+00	 4.64852000E-13	 0.00000000E+00
	 0.00000000E+00	 0.00000000E+00	 4.64852000E-13

	 4.64852000E-13	 0.00000000E+00	 0.00000000E+00
	 0.00000000E+00	 4.64852000E-13	 0.00000000E+00
	 0.00000000E+00	 0.00000000E+00	 4.64852000E-13

	 4.43981000E-13	 0.00000000E+00	 0.00000000E+00
	 0.00000000E+00	 4.43981000E-13	 0.00000000E+00
	 0.00000000E+00	 0.00000000E+00	 4.43981000E-13

	 4.38289000E-13	 0.00000000E+00	 0.00000000E+00
	 0.00000000E+00	 4.38289000E-13	 0.00000000E+00
	 0.00000000E+00	 0.00000000E+00	 4.38289000E-13

	 4.42083000E-13	 0.00000000E+00	 0.00000000E+00
	 0.00000000E+00	 4.42083000E-13	 0.00000000E+00
	 0.00000000E+00	 0.00000000E+00	 4.42083000E-13

	 4.64852000E-13	 0.00000000E+00	 0.00000000E+00
	 0.00000000E+00	 4.64852000E-13	 0.00000000E+00
	 0.00000000E+00	 0.00000000E+00	 4.64852000E-13

	 4.64852000E-13	 0.00000000E+00	 0.00000000E+00
	 0.00000000E+00	 4.64852000E-13	 0.00000000E+00
	 0.00000000E+00	 0.00000000E+00	 4.64852000E-13

	 4.64852000E-13	 0.00000000E+00	 0.00000000E+00
	 0.00000000E+00	 4.64852000E-13	 0.00000000E+00
	 0.00000000E+00	 0.00000000E+00	 4.64852000E-13

	 4.64852000E-13	 0.00000000E+00	 0.00000000E+00
	 0.00000000E+00	 4.64852000E-13	 0.00000000E+00
	 0.00000000E+00	 0.00000000E+00	 4.64852000E-13

	 4.64852000E-13	 0.00000000E+00	 0.00000000E+00
	 0.00000000E+00	 4.64852000E-13	 0.00000000E+00
	 0.00000000E+00	 0.00000000E+00	 4.64852000E-13

	 4.64852000E-13	 0.00000000E+00	 0.00000000E+00
	 0.00000000E+00	 4.64852000E-13	 0.00000000E+00
	 0.00000000E+00	 0.00000000E+00	 4.64852000E-13

	 4.83825000E-13	 0.00000000E+00	 0.00000000E+00
	 0.00000000E+00	 4.83825000E-13	 0.00000000E+00
	 0.00000000E+00	 0.00000000E+00	 4.83825000E-13

	 4.73706000E-13	 0.00000000E+00	 0.00000000E+00
	 0.00000000E+00	 4.73706000E-13	 0.00000000E+00
	 0.00000000E+00	 0.00000000E+00	 4.73706000E-13

	 4.64852000E-13	 0.00000000E+00	 0.00000000E+00
	 0.00000000E+00	 4.64852000E-13	 0.00000000E+00
	 0.00000000E+00	 0.00000000E+00	 4.64852000E-13

	 4.64852000E-13	 0.00000000E+00	 0.00000000E+00
	 0.00000000E+00	 4.64852000E-13	 0.00000000E+00
	 0.00000000E+00	 0.00000000E+00	 4.64852000E-13

	 4.64852000E-13	 0.00000000E+00	 0.00000000E+00
	 0.00000000E+00	 4.64852000E-13	 0.00000000E+00
	 0.00000000E+00	 0.00000000E+00	 4.64852000E-13

	 4.64852000E-13	 0.00000000E+00	 0.00000000E+00
	 0.00000000E+00	 4.64852000E-13	 0.00000000E+00
	 0.00000000E+00	 0.00000000E+00	 4.64852000E-13

	 4.64852000E-13	 0.00000000E+00	 0.00000000E+00
	 0.00000000E+00	 4.64852000E-13	 0.00000000E+00
	 0.00000000E+00	 0.00000000E+00	 4.64852000E-13

	 4.58211000E-13	 0.00000000E+00	 0.00000000E+00
	 0.00000000E+00	 4.58211000E-13	 0.00000000E+00
	 0.00000000E+00	 0.00000000E+00	 4.58211000E-13

	 4.42083000E-13	 0.00000000E+00	 0.00000000E+00
	 0.00000000E+00	 4.42083000E-13	 0.00000000E+00
	 0.00000000E+00	 0.00000000E+00	 4.42083000E-13

	 4.42716000E-13	 0.00000000E+00	 0.00000000E+00
	 0.00000000E+00	 4.42716000E-13	 0.00000000E+00
	 0.00000000E+00	 0.00000000E+00	 4.42716000E-13

	 4.64852000E-13	 0.00000000E+00	 0.00000000E+00
	 0.00000000E+00	 4.64852000E-13	 0.00000000E+00
	 0.00000000E+00	 0.00000000E+00	 4.64852000E-13

	 4.40502000E-13	 0.00000000E+00	 0.00000000E+00
	 0.00000000E+00	 4.40502000E-13	 0.00000000E+00
	 0.00000000E+00	 0.00000000E+00	 4.40502000E-13

	 4.38289000E-13	 0.00000000E+00	 0.00000000E+00
	 0.00000000E+00	 4.38289000E-13	 0.00000000E+00
	 0.00000000E+00	 0.00000000E+00	 4.38289000E-13

	 4.51570000E-13	 0.00000000E+00	 0.00000000E+00
	 0.00000000E+00	 4.51570000E-13	 0.00000000E+00
	 0.00000000E+00	 0.00000000E+00	 4.51570000E-13

	 4.64852000E-13	 0.00000000E+00	 0.00000000E+00
	 0.00000000E+00	 4.64852000E-13	 0.00000000E+00
	 0.00000000E+00	 0.00000000E+00	 4.64852000E-13

	 4.42083000E-13	 0.00000000E+00	 0.00000000E+00
	 0.00000000E+00	 4.42083000E-13	 0.00000000E+00
	 0.00000000E+00	 0.00000000E+00	 4.42083000E-13

	 4.38289000E-13	 0.00000000E+00	 0.00000000E+00
	 0.00000000E+00	 4.38289000E-13	 0.00000000E+00
	 0.00000000E+00	 0.00000000E+00	 4.38289000E-13

	 4.38289000E-13	 0.00000000E+00	 0.00000000E+00
	 0.00000000E+00	 4.38289000E-13	 0.00000000E+00
	 0.00000000E+00	 0.00000000E+00	 4.38289000E-13

	 4.64852000E-13	 0.00000000E+00	 0.00000000E+00
	 0.00000000E+00	 4.64852000E-13	 0.00000000E+00
	 0.00000000E+00	 0.00000000E+00	 4.64852000E-13

	 4.64852000E-13	 0.00000000E+00	 0.00000000E+00
	 0.00000000E+00	 4.64852000E-13	 0.00000000E+00
	 0.00000000E+00	 0.00000000E+00	 4.64852000E-13

	 4.64852000E-13	 0.00000000E+00	 0.00000000E+00
	 0.00000000E+00	 4.64852000E-13	 0.00000000E+00
	 0.00000000E+00	 0.00000000E+00	 4.64852000E-13

	 4.64852000E-13	 0.00000000E+00	 0.00000000E+00
	 0.00000000E+00	 4.64852000E-13	 0.00000000E+00
	 0.00000000E+00	 0.00000000E+00	 4.64852000E-13

	 4.64852000E-13	 0.00000000E+00	 0.00000000E+00
	 0.00000000E+00	 4.64852000E-13	 0.00000000E+00
	 0.00000000E+00	 0.00000000E+00	 4.64852000E-13

	 4.64852000E-13	 0.00000000E+00	 0.00000000E+00
	 0.00000000E+00	 4.64852000E-13	 0.00000000E+00
	 0.00000000E+00	 0.00000000E+00	 4.64852000E-13

	 4.38289000E-13	 0.00000000E+00	 0.00000000E+00
	 0.00000000E+00	 4.38289000E-13	 0.00000000E+00
	 0.00000000E+00	 0.00000000E+00	 4.38289000E-13

	 4.45878000E-13	 0.00000000E+00	 0.00000000E+00
	 0.00000000E+00	 4.45878000E-13	 0.00000000E+00
	 0.00000000E+00	 0.00000000E+00	 4.45878000E-13

	 4.64852000E-13	 0.00000000E+00	 0.00000000E+00
	 0.00000000E+00	 4.64852000E-13	 0.00000000E+00
	 0.00000000E+00	 0.00000000E+00	 4.64852000E-13

	 4.44929000E-13	 0.00000000E+00	 0.00000000E+00
	 0.00000000E+00	 4.44929000E-13	 0.00000000E+00
	 0.00000000E+00	 0.00000000E+00	 4.44929000E-13

	 4.64852000E-13	 0.00000000E+00	 0.00000000E+00
	 0.00000000E+00	 4.64852000E-13	 0.00000000E+00
	 0.00000000E+00	 0.00000000E+00	 4.64852000E-13

	 4.64852000E-13	 0.00000000E+00	 0.00000000E+00
	 0.00000000E+00	 4.64852000E-13	 0.00000000E+00
	 0.00000000E+00	 0.00000000E+00	 4.64852000E-13

	 4.64852000E-13	 0.00000000E+00	 0.00000000E+00
	 0.00000000E+00	 4.64852000E-13	 0.00000000E+00
	 0.00000000E+00	 0.00000000E+00	 4.64852000E-13

	 4.38289000E-13	 0.00000000E+00	 0.00000000E+00
	 0.00000000E+00	 4.38289000E-13	 0.00000000E+00
	 0.00000000E+00	 0.00000000E+00	 4.38289000E-13

	 4.64852000E-13	 0.00000000E+00	 0.00000000E+00
	 0.00000000E+00	 4.64852000E-13	 0.00000000E+00
	 0.00000000E+00	 0.00000000E+00	 4.64852000E-13

	 4.38289000E-13	 0.00000000E+00	 0.00000000E+00
	 0.00000000E+00	 4.38289000E-13	 0.00000000E+00
	 0.00000000E+00	 0.00000000E+00	 4.38289000E-13

	 4.64852000E-13	 0.00000000E+00	 0.00000000E+00
	 0.00000000E+00	 4.64852000E-13	 0.00000000E+00
	 0.00000000E+00	 0.00000000E+00	 4.64852000E-13

	 4.42083000E-13	 0.00000000E+00	 0.00000000E+00
	 0.00000000E+00	 4.42083000E-13	 0.00000000E+00
	 0.00000000E+00	 0.00000000E+00	 4.42083000E-13

	 4.38289000E-13	 0.00000000E+00	 0.00000000E+00
	 0.00000000E+00	 4.38289000E-13	 0.00000000E+00
	 0.00000000E+00	 0.00000000E+00	 4.38289000E-13

	 4.64852000E-13	 0.00000000E+00	 0.00000000E+00
	 0.00000000E+00	 4.64852000E-13	 0.00000000E+00
	 0.00000000E+00	 0.00000000E+00	 4.64852000E-13

	 4.38289000E-13	 0.00000000E+00	 0.00000000E+00
	 0.00000000E+00	 4.38289000E-13	 0.00000000E+00
	 0.00000000E+00	 0.00000000E+00	 4.38289000E-13

	 4.53468000E-13	 0.00000000E+00	 0.00000000E+00
	 0.00000000E+00	 4.53468000E-13	 0.00000000E+00
	 0.00000000E+00	 0.00000000E+00	 4.53468000E-13

	 4.38289000E-13	 0.00000000E+00	 0.00000000E+00
	 0.00000000E+00	 4.38289000E-13	 0.00000000E+00
	 0.00000000E+00	 0.00000000E+00	 4.38289000E-13

	 4.38289000E-13	 0.00000000E+00	 0.00000000E+00
	 0.00000000E+00	 4.38289000E-13	 0.00000000E+00
	 0.00000000E+00	 0.00000000E+00	 4.38289000E-13

	 4.38289000E-13	 0.00000000E+00	 0.00000000E+00
	 0.00000000E+00	 4.38289000E-13	 0.00000000E+00
	 0.00000000E+00	 0.00000000E+00	 4.38289000E-13

	 4.64852000E-13	 0.00000000E+00	 0.00000000E+00
	 0.00000000E+00	 4.64852000E-13	 0.00000000E+00
	 0.00000000E+00	 0.00000000E+00	 4.64852000E-13

	 4.64852000E-13	 0.00000000E+00	 0.00000000E+00
	 0.00000000E+00	 4.64852000E-13	 0.00000000E+00
	 0.00000000E+00	 0.00000000E+00	 4.64852000E-13

	 4.38289000E-13	 0.00000000E+00	 0.00000000E+00
	 0.00000000E+00	 4.38289000E-13	 0.00000000E+00
	 0.00000000E+00	 0.00000000E+00	 4.38289000E-13

	 4.40502000E-13	 0.00000000E+00	 0.00000000E+00
	 0.00000000E+00	 4.40502000E-13	 0.00000000E+00
	 0.00000000E+00	 0.00000000E+00	 4.40502000E-13

	 4.64852000E-13	 0.00000000E+00	 0.00000000E+00
	 0.00000000E+00	 4.64852000E-13	 0.00000000E+00
	 0.00000000E+00	 0.00000000E+00	 4.64852000E-13

	 4.49673000E-13	 0.00000000E+00	 0.00000000E+00
	 0.00000000E+00	 4.49673000E-13	 0.00000000E+00
	 0.00000000E+00	 0.00000000E+00	 4.49673000E-13

	 4.60425000E-13	 0.00000000E+00	 0.00000000E+00
	 0.00000000E+00	 4.60425000E-13	 0.00000000E+00
	 0.00000000E+00	 0.00000000E+00	 4.60425000E-13

	 4.64852000E-13	 0.00000000E+00	 0.00000000E+00
	 0.00000000E+00	 4.64852000E-13	 0.00000000E+00
	 0.00000000E+00	 0.00000000E+00	 4.64852000E-13

	 4.64852000E-13	 0.00000000E+00	 0.00000000E+00
	 0.00000000E+00	 4.64852000E-13	 0.00000000E+00
	 0.00000000E+00	 0.00000000E+00	 4.64852000E-13

	 4.40502000E-13	 0.00000000E+00	 0.00000000E+00
	 0.00000000E+00	 4.40502000E-13	 0.00000000E+00
	 0.00000000E+00	 0.00000000E+00	 4.40502000E-13

	 4.38289000E-13	 0.00000000E+00	 0.00000000E+00
	 0.00000000E+00	 4.38289000E-13	 0.00000000E+00
	 0.00000000E+00	 0.00000000E+00	 4.38289000E-13

	 4.42716000E-13	 0.00000000E+00	 0.00000000E+00
	 0.00000000E+00	 4.42716000E-13	 0.00000000E+00
	 0.00000000E+00	 0.00000000E+00	 4.42716000E-13

	 4.38289000E-13	 0.00000000E+00	 0.00000000E+00
	 0.00000000E+00	 4.38289000E-13	 0.00000000E+00
	 0.00000000E+00	 0.00000000E+00	 4.38289000E-13

	 4.64852000E-13	 0.00000000E+00	 0.00000000E+00
	 0.00000000E+00	 4.64852000E-13	 0.00000000E+00
	 0.00000000E+00	 0.00000000E+00	 4.64852000E-13

	 4.64852000E-13	 0.00000000E+00	 0.00000000E+00
	 0.00000000E+00	 4.64852000E-13	 0.00000000E+00
	 0.00000000E+00	 0.00000000E+00	 4.64852000E-13

	 4.60425000E-13	 0.00000000E+00	 0.00000000E+00
	 0.00000000E+00	 4.60425000E-13	 0.00000000E+00
	 0.00000000E+00	 0.00000000E+00	 4.60425000E-13

	 4.60425000E-13	 0.00000000E+00	 0.00000000E+00
	 0.00000000E+00	 4.60425000E-13	 0.00000000E+00
	 0.00000000E+00	 0.00000000E+00	 4.60425000E-13

	 4.64852000E-13	 0.00000000E+00	 0.00000000E+00
	 0.00000000E+00	 4.64852000E-13	 0.00000000E+00
	 0.00000000E+00	 0.00000000E+00	 4.64852000E-13

	 4.64852000E-13	 0.00000000E+00	 0.00000000E+00
	 0.00000000E+00	 4.64852000E-13	 0.00000000E+00
	 0.00000000E+00	 0.00000000E+00	 4.64852000E-13

	 4.38289000E-13	 0.00000000E+00	 0.00000000E+00
	 0.00000000E+00	 4.38289000E-13	 0.00000000E+00
	 0.00000000E+00	 0.00000000E+00	 4.38289000E-13

	 4.51570000E-13	 0.00000000E+00	 0.00000000E+00
	 0.00000000E+00	 4.51570000E-13	 0.00000000E+00
	 0.00000000E+00	 0.00000000E+00	 4.51570000E-13

	 4.38289000E-13	 0.00000000E+00	 0.00000000E+00
	 0.00000000E+00	 4.38289000E-13	 0.00000000E+00
	 0.00000000E+00	 0.00000000E+00	 4.38289000E-13

	 4.64852000E-13	 0.00000000E+00	 0.00000000E+00
	 0.00000000E+00	 4.64852000E-13	 0.00000000E+00
	 0.00000000E+00	 0.00000000E+00	 4.64852000E-13

	 4.38289000E-13	 0.00000000E+00	 0.00000000E+00
	 0.00000000E+00	 4.38289000E-13	 0.00000000E+00
	 0.00000000E+00	 0.00000000E+00	 4.38289000E-13

	 4.64852000E-13	 0.00000000E+00	 0.00000000E+00
	 0.00000000E+00	 4.64852000E-13	 0.00000000E+00
	 0.00000000E+00	 0.00000000E+00	 4.64852000E-13

	 4.64852000E-13	 0.00000000E+00	 0.00000000E+00
	 0.00000000E+00	 4.64852000E-13	 0.00000000E+00
	 0.00000000E+00	 0.00000000E+00	 4.64852000E-13

	 4.64852000E-13	 0.00000000E+00	 0.00000000E+00
	 0.00000000E+00	 4.64852000E-13	 0.00000000E+00
	 0.00000000E+00	 0.00000000E+00	 4.64852000E-13

	 4.38289000E-13	 0.00000000E+00	 0.00000000E+00
	 0.00000000E+00	 4.38289000E-13	 0.00000000E+00
	 0.00000000E+00	 0.00000000E+00	 4.38289000E-13

	 4.38289000E-13	 0.00000000E+00	 0.00000000E+00
	 0.00000000E+00	 4.38289000E-13	 0.00000000E+00
	 0.00000000E+00	 0.00000000E+00	 4.38289000E-13

	 4.64852000E-13	 0.00000000E+00	 0.00000000E+00
	 0.00000000E+00	 4.64852000E-13	 0.00000000E+00
	 0.00000000E+00	 0.00000000E+00	 4.64852000E-13

	 4.64852000E-13	 0.00000000E+00	 0.00000000E+00
	 0.00000000E+00	 4.64852000E-13	 0.00000000E+00
	 0.00000000E+00	 0.00000000E+00	 4.64852000E-13

	 4.38289000E-13	 0.00000000E+00	 0.00000000E+00
	 0.00000000E+00	 4.38289000E-13	 0.00000000E+00
	 0.00000000E+00	 0.00000000E+00	 4.38289000E-13

	 4.64852000E-13	 0.00000000E+00	 0.00000000E+00
	 0.00000000E+00	 4.64852000E-13	 0.00000000E+00
	 0.00000000E+00	 0.00000000E+00	 4.64852000E-13

	 4.64852000E-13	 0.00000000E+00	 0.00000000E+00
	 0.00000000E+00	 4.64852000E-13	 0.00000000E+00
	 0.00000000E+00	 0.00000000E+00	 4.64852000E-13

	 4.62638000E-13	 0.00000000E+00	 0.00000000E+00
	 0.00000000E+00	 4.62638000E-13	 0.00000000E+00
	 0.00000000E+00	 0.00000000E+00	 4.62638000E-13

	 4.45878000E-13	 0.00000000E+00	 0.00000000E+00
	 0.00000000E+00	 4.45878000E-13	 0.00000000E+00
	 0.00000000E+00	 0.00000000E+00	 4.45878000E-13

	 4.62638000E-13	 0.00000000E+00	 0.00000000E+00
	 0.00000000E+00	 4.62638000E-13	 0.00000000E+00
	 0.00000000E+00	 0.00000000E+00	 4.62638000E-13

	 4.51570000E-13	 0.00000000E+00	 0.00000000E+00
	 0.00000000E+00	 4.51570000E-13	 0.00000000E+00
	 0.00000000E+00	 0.00000000E+00	 4.51570000E-13

	 4.64852000E-13	 0.00000000E+00	 0.00000000E+00
	 0.00000000E+00	 4.64852000E-13	 0.00000000E+00
	 0.00000000E+00	 0.00000000E+00	 4.64852000E-13

	 4.38289000E-13	 0.00000000E+00	 0.00000000E+00
	 0.00000000E+00	 4.38289000E-13	 0.00000000E+00
	 0.00000000E+00	 0.00000000E+00	 4.38289000E-13

	 4.64852000E-13	 0.00000000E+00	 0.00000000E+00
	 0.00000000E+00	 4.64852000E-13	 0.00000000E+00
	 0.00000000E+00	 0.00000000E+00	 4.64852000E-13

	 4.42083000E-13	 0.00000000E+00	 0.00000000E+00
	 0.00000000E+00	 4.42083000E-13	 0.00000000E+00
	 0.00000000E+00	 0.00000000E+00	 4.42083000E-13

	 4.38289000E-13	 0.00000000E+00	 0.00000000E+00
	 0.00000000E+00	 4.38289000E-13	 0.00000000E+00
	 0.00000000E+00	 0.00000000E+00	 4.38289000E-13

	 4.38289000E-13	 0.00000000E+00	 0.00000000E+00
	 0.00000000E+00	 4.38289000E-13	 0.00000000E+00
	 0.00000000E+00	 0.00000000E+00	 4.38289000E-13

	 4.38289000E-13	 0.00000000E+00	 0.00000000E+00
	 0.00000000E+00	 4.38289000E-13	 0.00000000E+00
	 0.00000000E+00	 0.00000000E+00	 4.38289000E-13

	 4.38289000E-13	 0.00000000E+00	 0.00000000E+00
	 0.00000000E+00	 4.38289000E-13	 0.00000000E+00
	 0.00000000E+00	 0.00000000E+00	 4.38289000E-13

	 4.38289000E-13	 0.00000000E+00	 0.00000000E+00
	 0.00000000E+00	 4.38289000E-13	 0.00000000E+00
	 0.00000000E+00	 0.00000000E+00	 4.38289000E-13

	 4.42716000E-13	 0.00000000E+00	 0.00000000E+00
	 0.00000000E+00	 4.42716000E-13	 0.00000000E+00
	 0.00000000E+00	 0.00000000E+00	 4.42716000E-13

	 4.47143000E-13	 0.00000000E+00	 0.00000000E+00
	 0.00000000E+00	 4.47143000E-13	 0.00000000E+00
	 0.00000000E+00	 0.00000000E+00	 4.47143000E-13

	 4.38289000E-13	 0.00000000E+00	 0.00000000E+00
	 0.00000000E+00	 4.38289000E-13	 0.00000000E+00
	 0.00000000E+00	 0.00000000E+00	 4.38289000E-13

	 4.64852000E-13	 0.00000000E+00	 0.00000000E+00
	 0.00000000E+00	 4.64852000E-13	 0.00000000E+00
	 0.00000000E+00	 0.00000000E+00	 4.64852000E-13

	 4.38289000E-13	 0.00000000E+00	 0.00000000E+00
	 0.00000000E+00	 4.38289000E-13	 0.00000000E+00
	 0.00000000E+00	 0.00000000E+00	 4.38289000E-13

	 4.38289000E-13	 0.00000000E+00	 0.00000000E+00
	 0.00000000E+00	 4.38289000E-13	 0.00000000E+00
	 0.00000000E+00	 0.00000000E+00	 4.38289000E-13

	 4.38289000E-13	 0.00000000E+00	 0.00000000E+00
	 0.00000000E+00	 4.38289000E-13	 0.00000000E+00
	 0.00000000E+00	 0.00000000E+00	 4.38289000E-13

	 4.38289000E-13	 0.00000000E+00	 0.00000000E+00
	 0.00000000E+00	 4.38289000E-13	 0.00000000E+00
	 0.00000000E+00	 0.00000000E+00	 4.38289000E-13

	 4.64852000E-13	 0.00000000E+00	 0.00000000E+00
	 0.00000000E+00	 4.64852000E-13	 0.00000000E+00
	 0.00000000E+00	 0.00000000E+00	 4.64852000E-13

	 4.38289000E-13	 0.00000000E+00	 0.00000000E+00
	 0.00000000E+00	 4.38289000E-13	 0.00000000E+00
	 0.00000000E+00	 0.00000000E+00	 4.38289000E-13

	 4.64852000E-13	 0.00000000E+00	 0.00000000E+00
	 0.00000000E+00	 4.64852000E-13	 0.00000000E+00
	 0.00000000E+00	 0.00000000E+00	 4.64852000E-13

	 4.47143000E-13	 0.00000000E+00	 0.00000000E+00
	 0.00000000E+00	 4.47143000E-13	 0.00000000E+00
	 0.00000000E+00	 0.00000000E+00	 4.47143000E-13

	 4.38289000E-13	 0.00000000E+00	 0.00000000E+00
	 0.00000000E+00	 4.38289000E-13	 0.00000000E+00
	 0.00000000E+00	 0.00000000E+00	 4.38289000E-13

	 4.38289000E-13	 0.00000000E+00	 0.00000000E+00
	 0.00000000E+00	 4.38289000E-13	 0.00000000E+00
	 0.00000000E+00	 0.00000000E+00	 4.38289000E-13

	 4.64852000E-13	 0.00000000E+00	 0.00000000E+00
	 0.00000000E+00	 4.64852000E-13	 0.00000000E+00
	 0.00000000E+00	 0.00000000E+00	 4.64852000E-13

	 4.38289000E-13	 0.00000000E+00	 0.00000000E+00
	 0.00000000E+00	 4.38289000E-13	 0.00000000E+00
	 0.00000000E+00	 0.00000000E+00	 4.38289000E-13

	 4.42083000E-13	 0.00000000E+00	 0.00000000E+00
	 0.00000000E+00	 4.42083000E-13	 0.00000000E+00
	 0.00000000E+00	 0.00000000E+00	 4.42083000E-13

	 4.64852000E-13	 0.00000000E+00	 0.00000000E+00
	 0.00000000E+00	 4.64852000E-13	 0.00000000E+00
	 0.00000000E+00	 0.00000000E+00	 4.64852000E-13

	 4.64852000E-13	 0.00000000E+00	 0.00000000E+00
	 0.00000000E+00	 4.64852000E-13	 0.00000000E+00
	 0.00000000E+00	 0.00000000E+00	 4.64852000E-13

	 4.38289000E-13	 0.00000000E+00	 0.00000000E+00
	 0.00000000E+00	 4.38289000E-13	 0.00000000E+00
	 0.00000000E+00	 0.00000000E+00	 4.38289000E-13

	 4.64852000E-13	 0.00000000E+00	 0.00000000E+00
	 0.00000000E+00	 4.64852000E-13	 0.00000000E+00
	 0.00000000E+00	 0.00000000E+00	 4.64852000E-13

	 4.38289000E-13	 0.00000000E+00	 0.00000000E+00
	 0.00000000E+00	 4.38289000E-13	 0.00000000E+00
	 0.00000000E+00	 0.00000000E+00	 4.38289000E-13

	 4.38289000E-13	 0.00000000E+00	 0.00000000E+00
	 0.00000000E+00	 4.38289000E-13	 0.00000000E+00
	 0.00000000E+00	 0.00000000E+00	 4.38289000E-13

	 4.38289000E-13	 0.00000000E+00	 0.00000000E+00
	 0.00000000E+00	 4.38289000E-13	 0.00000000E+00
	 0.00000000E+00	 0.00000000E+00	 4.38289000E-13

	 4.38289000E-13	 0.00000000E+00	 0.00000000E+00
	 0.00000000E+00	 4.38289000E-13	 0.00000000E+00
	 0.00000000E+00	 0.00000000E+00	 4.38289000E-13

	 4.38289000E-13	 0.00000000E+00	 0.00000000E+00
	 0.00000000E+00	 4.38289000E-13	 0.00000000E+00
	 0.00000000E+00	 0.00000000E+00	 4.38289000E-13

	 4.47143000E-13	 0.00000000E+00	 0.00000000E+00
	 0.00000000E+00	 4.47143000E-13	 0.00000000E+00
	 0.00000000E+00	 0.00000000E+00	 4.47143000E-13

	 4.40502000E-13	 0.00000000E+00	 0.00000000E+00
	 0.00000000E+00	 4.40502000E-13	 0.00000000E+00
	 0.00000000E+00	 0.00000000E+00	 4.40502000E-13

	 4.55997000E-13	 0.00000000E+00	 0.00000000E+00
	 0.00000000E+00	 4.55997000E-13	 0.00000000E+00
	 0.00000000E+00	 0.00000000E+00	 4.55997000E-13

	 4.49357000E-13	 0.00000000E+00	 0.00000000E+00
	 0.00000000E+00	 4.49357000E-13	 0.00000000E+00
	 0.00000000E+00	 0.00000000E+00	 4.49357000E-13

	 4.49357000E-13	 0.00000000E+00	 0.00000000E+00
	 0.00000000E+00	 4.49357000E-13	 0.00000000E+00
	 0.00000000E+00	 0.00000000E+00	 4.49357000E-13

	 4.47143000E-13	 0.00000000E+00	 0.00000000E+00
	 0.00000000E+00	 4.47143000E-13	 0.00000000E+00
	 0.00000000E+00	 0.00000000E+00	 4.47143000E-13

	 4.44929000E-13	 0.00000000E+00	 0.00000000E+00
	 0.00000000E+00	 4.44929000E-13	 0.00000000E+00
	 0.00000000E+00	 0.00000000E+00	 4.44929000E-13

	 4.44929000E-13	 0.00000000E+00	 0.00000000E+00
	 0.00000000E+00	 4.44929000E-13	 0.00000000E+00
	 0.00000000E+00	 0.00000000E+00	 4.44929000E-13

	 4.47143000E-13	 0.00000000E+00	 0.00000000E+00
	 0.00000000E+00	 4.47143000E-13	 0.00000000E+00
	 0.00000000E+00	 0.00000000E+00	 4.47143000E-13

	 4.44929000E-13	 0.00000000E+00	 0.00000000E+00
	 0.00000000E+00	 4.44929000E-13	 0.00000000E+00
	 0.00000000E+00	 0.00000000E+00	 4.44929000E-13

	 4.51570000E-13	 0.00000000E+00	 0.00000000E+00
	 0.00000000E+00	 4.51570000E-13	 0.00000000E+00
	 0.00000000E+00	 0.00000000E+00	 4.51570000E-13

	 4.44929000E-13	 0.00000000E+00	 0.00000000E+00
	 0.00000000E+00	 4.44929000E-13	 0.00000000E+00
	 0.00000000E+00	 0.00000000E+00	 4.44929000E-13

	 4.49357000E-13	 0.00000000E+00	 0.00000000E+00
	 0.00000000E+00	 4.49357000E-13	 0.00000000E+00
	 0.00000000E+00	 0.00000000E+00	 4.49357000E-13

	 4.38289000E-13	 0.00000000E+00	 0.00000000E+00
	 0.00000000E+00	 4.38289000E-13	 0.00000000E+00
	 0.00000000E+00	 0.00000000E+00	 4.38289000E-13

	 4.38289000E-13	 0.00000000E+00	 0.00000000E+00
	 0.00000000E+00	 4.38289000E-13	 0.00000000E+00
	 0.00000000E+00	 0.00000000E+00	 4.38289000E-13

	 4.42716000E-13	 0.00000000E+00	 0.00000000E+00
	 0.00000000E+00	 4.42716000E-13	 0.00000000E+00
	 0.00000000E+00	 0.00000000E+00	 4.42716000E-13

	 4.40502000E-13	 0.00000000E+00	 0.00000000E+00
	 0.00000000E+00	 4.40502000E-13	 0.00000000E+00
	 0.00000000E+00	 0.00000000E+00	 4.40502000E-13

	 4.42716000E-13	 0.00000000E+00	 0.00000000E+00
	 0.00000000E+00	 4.42716000E-13	 0.00000000E+00
	 0.00000000E+00	 0.00000000E+00	 4.42716000E-13

	 4.47143000E-13	 0.00000000E+00	 0.00000000E+00
	 0.00000000E+00	 4.47143000E-13	 0.00000000E+00
	 0.00000000E+00	 0.00000000E+00	 4.47143000E-13

	 4.38289000E-13	 0.00000000E+00	 0.00000000E+00
	 0.00000000E+00	 4.38289000E-13	 0.00000000E+00
	 0.00000000E+00	 0.00000000E+00	 4.38289000E-13

	 4.42716000E-13	 0.00000000E+00	 0.00000000E+00
	 0.00000000E+00	 4.42716000E-13	 0.00000000E+00
	 0.00000000E+00	 0.00000000E+00	 4.42716000E-13

	 4.40502000E-13	 0.00000000E+00	 0.00000000E+00
	 0.00000000E+00	 4.40502000E-13	 0.00000000E+00
	 0.00000000E+00	 0.00000000E+00	 4.40502000E-13

	 4.58211000E-13	 0.00000000E+00	 0.00000000E+00
	 0.00000000E+00	 4.58211000E-13	 0.00000000E+00
	 0.00000000E+00	 0.00000000E+00	 4.58211000E-13

	 4.47143000E-13	 0.00000000E+00	 0.00000000E+00
	 0.00000000E+00	 4.47143000E-13	 0.00000000E+00
	 0.00000000E+00	 0.00000000E+00	 4.47143000E-13

	 4.58211000E-13	 0.00000000E+00	 0.00000000E+00
	 0.00000000E+00	 4.58211000E-13	 0.00000000E+00
	 0.00000000E+00	 0.00000000E+00	 4.58211000E-13

	 4.38289000E-13	 0.00000000E+00	 0.00000000E+00
	 0.00000000E+00	 4.38289000E-13	 0.00000000E+00
	 0.00000000E+00	 0.00000000E+00	 4.38289000E-13

	 4.38289000E-13	 0.00000000E+00	 0.00000000E+00
	 0.00000000E+00	 4.38289000E-13	 0.00000000E+00
	 0.00000000E+00	 0.00000000E+00	 4.38289000E-13

	 4.38289000E-13	 0.00000000E+00	 0.00000000E+00
	 0.00000000E+00	 4.38289000E-13	 0.00000000E+00
	 0.00000000E+00	 0.00000000E+00	 4.38289000E-13

	 4.38289000E-13	 0.00000000E+00	 0.00000000E+00
	 0.00000000E+00	 4.38289000E-13	 0.00000000E+00
	 0.00000000E+00	 0.00000000E+00	 4.38289000E-13

	 4.38289000E-13	 0.00000000E+00	 0.00000000E+00
	 0.00000000E+00	 4.38289000E-13	 0.00000000E+00
	 0.00000000E+00	 0.00000000E+00	 4.38289000E-13

	 4.38289000E-13	 0.00000000E+00	 0.00000000E+00
	 0.00000000E+00	 4.38289000E-13	 0.00000000E+00
	 0.00000000E+00	 0.00000000E+00	 4.38289000E-13

	 4.64852000E-13	 0.00000000E+00	 0.00000000E+00
	 0.00000000E+00	 4.64852000E-13	 0.00000000E+00
	 0.00000000E+00	 0.00000000E+00	 4.64852000E-13

	 4.38289000E-13	 0.00000000E+00	 0.00000000E+00
	 0.00000000E+00	 4.38289000E-13	 0.00000000E+00
	 0.00000000E+00	 0.00000000E+00	 4.38289000E-13

	 4.60425000E-13	 0.00000000E+00	 0.00000000E+00
	 0.00000000E+00	 4.60425000E-13	 0.00000000E+00
	 0.00000000E+00	 0.00000000E+00	 4.60425000E-13

	 4.62638000E-13	 0.00000000E+00	 0.00000000E+00
	 0.00000000E+00	 4.62638000E-13	 0.00000000E+00
	 0.00000000E+00	 0.00000000E+00	 4.62638000E-13

	 4.64852000E-13	 0.00000000E+00	 0.00000000E+00
	 0.00000000E+00	 4.64852000E-13	 0.00000000E+00
	 0.00000000E+00	 0.00000000E+00	 4.64852000E-13

	 4.64852000E-13	 0.00000000E+00	 0.00000000E+00
	 0.00000000E+00	 4.64852000E-13	 0.00000000E+00
	 0.00000000E+00	 0.00000000E+00	 4.64852000E-13

	 4.62638000E-13	 0.00000000E+00	 0.00000000E+00
	 0.00000000E+00	 4.62638000E-13	 0.00000000E+00
	 0.00000000E+00	 0.00000000E+00	 4.62638000E-13

	 4.64852000E-13	 0.00000000E+00	 0.00000000E+00
	 0.00000000E+00	 4.64852000E-13	 0.00000000E+00
	 0.00000000E+00	 0.00000000E+00	 4.64852000E-13

	 4.64852000E-13	 0.00000000E+00	 0.00000000E+00
	 0.00000000E+00	 4.64852000E-13	 0.00000000E+00
	 0.00000000E+00	 0.00000000E+00	 4.64852000E-13

	 4.64852000E-13	 0.00000000E+00	 0.00000000E+00
	 0.00000000E+00	 4.64852000E-13	 0.00000000E+00
	 0.00000000E+00	 0.00000000E+00	 4.64852000E-13

	 4.64852000E-13	 0.00000000E+00	 0.00000000E+00
	 0.00000000E+00	 4.64852000E-13	 0.00000000E+00
	 0.00000000E+00	 0.00000000E+00	 4.64852000E-13

	 4.62638000E-13	 0.00000000E+00	 0.00000000E+00
	 0.00000000E+00	 4.62638000E-13	 0.00000000E+00
	 0.00000000E+00	 0.00000000E+00	 4.62638000E-13

	 4.62638000E-13	 0.00000000E+00	 0.00000000E+00
	 0.00000000E+00	 4.62638000E-13	 0.00000000E+00
	 0.00000000E+00	 0.00000000E+00	 4.62638000E-13

	 4.62638000E-13	 0.00000000E+00	 0.00000000E+00
	 0.00000000E+00	 4.62638000E-13	 0.00000000E+00
	 0.00000000E+00	 0.00000000E+00	 4.62638000E-13

	 4.64852000E-13	 0.00000000E+00	 0.00000000E+00
	 0.00000000E+00	 4.64852000E-13	 0.00000000E+00
	 0.00000000E+00	 0.00000000E+00	 4.64852000E-13

	 4.64852000E-13	 0.00000000E+00	 0.00000000E+00
	 0.00000000E+00	 4.64852000E-13	 0.00000000E+00
	 0.00000000E+00	 0.00000000E+00	 4.64852000E-13

	 4.62638000E-13	 0.00000000E+00	 0.00000000E+00
	 0.00000000E+00	 4.62638000E-13	 0.00000000E+00
	 0.00000000E+00	 0.00000000E+00	 4.62638000E-13

	 4.64852000E-13	 0.00000000E+00	 0.00000000E+00
	 0.00000000E+00	 4.64852000E-13	 0.00000000E+00
	 0.00000000E+00	 0.00000000E+00	 4.64852000E-13

	 4.64852000E-13	 0.00000000E+00	 0.00000000E+00
	 0.00000000E+00	 4.64852000E-13	 0.00000000E+00
	 0.00000000E+00	 0.00000000E+00	 4.64852000E-13

	 4.64852000E-13	 0.00000000E+00	 0.00000000E+00
	 0.00000000E+00	 4.64852000E-13	 0.00000000E+00
	 0.00000000E+00	 0.00000000E+00	 4.64852000E-13

	 4.64852000E-13	 0.00000000E+00	 0.00000000E+00
	 0.00000000E+00	 4.64852000E-13	 0.00000000E+00
	 0.00000000E+00	 0.00000000E+00	 4.64852000E-13

	 4.64852000E-13	 0.00000000E+00	 0.00000000E+00
	 0.00000000E+00	 4.64852000E-13	 0.00000000E+00
	 0.00000000E+00	 0.00000000E+00	 4.64852000E-13

	 4.64852000E-13	 0.00000000E+00	 0.00000000E+00
	 0.00000000E+00	 4.64852000E-13	 0.00000000E+00
	 0.00000000E+00	 0.00000000E+00	 4.64852000E-13

	 4.64852000E-13	 0.00000000E+00	 0.00000000E+00
	 0.00000000E+00	 4.64852000E-13	 0.00000000E+00
	 0.00000000E+00	 0.00000000E+00	 4.64852000E-13

	 4.64852000E-13	 0.00000000E+00	 0.00000000E+00
	 0.00000000E+00	 4.64852000E-13	 0.00000000E+00
	 0.00000000E+00	 0.00000000E+00	 4.64852000E-13

	 4.58211000E-13	 0.00000000E+00	 0.00000000E+00
	 0.00000000E+00	 4.58211000E-13	 0.00000000E+00
	 0.00000000E+00	 0.00000000E+00	 4.58211000E-13

	 4.58211000E-13	 0.00000000E+00	 0.00000000E+00
	 0.00000000E+00	 4.58211000E-13	 0.00000000E+00
	 0.00000000E+00	 0.00000000E+00	 4.58211000E-13

	 4.64852000E-13	 0.00000000E+00	 0.00000000E+00
	 0.00000000E+00	 4.64852000E-13	 0.00000000E+00
	 0.00000000E+00	 0.00000000E+00	 4.64852000E-13

	 4.64852000E-13	 0.00000000E+00	 0.00000000E+00
	 0.00000000E+00	 4.64852000E-13	 0.00000000E+00
	 0.00000000E+00	 0.00000000E+00	 4.64852000E-13

	 4.64852000E-13	 0.00000000E+00	 0.00000000E+00
	 0.00000000E+00	 4.64852000E-13	 0.00000000E+00
	 0.00000000E+00	 0.00000000E+00	 4.64852000E-13

	 4.64852000E-13	 0.00000000E+00	 0.00000000E+00
	 0.00000000E+00	 4.64852000E-13	 0.00000000E+00
	 0.00000000E+00	 0.00000000E+00	 4.64852000E-13

	 4.64852000E-13	 0.00000000E+00	 0.00000000E+00
	 0.00000000E+00	 4.64852000E-13	 0.00000000E+00
	 0.00000000E+00	 0.00000000E+00	 4.64852000E-13

	 4.64852000E-13	 0.00000000E+00	 0.00000000E+00
	 0.00000000E+00	 4.64852000E-13	 0.00000000E+00
	 0.00000000E+00	 0.00000000E+00	 4.64852000E-13

	 4.64852000E-13	 0.00000000E+00	 0.00000000E+00
	 0.00000000E+00	 4.64852000E-13	 0.00000000E+00
	 0.00000000E+00	 0.00000000E+00	 4.64852000E-13

	 4.64852000E-13	 0.00000000E+00	 0.00000000E+00
	 0.00000000E+00	 4.64852000E-13	 0.00000000E+00
	 0.00000000E+00	 0.00000000E+00	 4.64852000E-13

	 4.64852000E-13	 0.00000000E+00	 0.00000000E+00
	 0.00000000E+00	 4.64852000E-13	 0.00000000E+00
	 0.00000000E+00	 0.00000000E+00	 4.64852000E-13

	 4.64852000E-13	 0.00000000E+00	 0.00000000E+00
	 0.00000000E+00	 4.64852000E-13	 0.00000000E+00
	 0.00000000E+00	 0.00000000E+00	 4.64852000E-13

	 4.64852000E-13	 0.00000000E+00	 0.00000000E+00
	 0.00000000E+00	 4.64852000E-13	 0.00000000E+00
	 0.00000000E+00	 0.00000000E+00	 4.64852000E-13

	 4.64852000E-13	 0.00000000E+00	 0.00000000E+00
	 0.00000000E+00	 4.64852000E-13	 0.00000000E+00
	 0.00000000E+00	 0.00000000E+00	 4.64852000E-13

	 4.60425000E-13	 0.00000000E+00	 0.00000000E+00
	 0.00000000E+00	 4.60425000E-13	 0.00000000E+00
	 0.00000000E+00	 0.00000000E+00	 4.60425000E-13

	 4.38289000E-13	 0.00000000E+00	 0.00000000E+00
	 0.00000000E+00	 4.38289000E-13	 0.00000000E+00
	 0.00000000E+00	 0.00000000E+00	 4.38289000E-13

	 4.38289000E-13	 0.00000000E+00	 0.00000000E+00
	 0.00000000E+00	 4.38289000E-13	 0.00000000E+00
	 0.00000000E+00	 0.00000000E+00	 4.38289000E-13

	 4.38289000E-13	 0.00000000E+00	 0.00000000E+00
	 0.00000000E+00	 4.38289000E-13	 0.00000000E+00
	 0.00000000E+00	 0.00000000E+00	 4.38289000E-13

	 4.38289000E-13	 0.00000000E+00	 0.00000000E+00
	 0.00000000E+00	 4.38289000E-13	 0.00000000E+00
	 0.00000000E+00	 0.00000000E+00	 4.38289000E-13

	 4.40502000E-13	 0.00000000E+00	 0.00000000E+00
	 0.00000000E+00	 4.40502000E-13	 0.00000000E+00
	 0.00000000E+00	 0.00000000E+00	 4.40502000E-13

	 4.38289000E-13	 0.00000000E+00	 0.00000000E+00
	 0.00000000E+00	 4.38289000E-13	 0.00000000E+00
	 0.00000000E+00	 0.00000000E+00	 4.38289000E-13

	 4.42716000E-13	 0.00000000E+00	 0.00000000E+00
	 0.00000000E+00	 4.42716000E-13	 0.00000000E+00
	 0.00000000E+00	 0.00000000E+00	 4.42716000E-13

	 4.42716000E-13	 0.00000000E+00	 0.00000000E+00
	 0.00000000E+00	 4.42716000E-13	 0.00000000E+00
	 0.00000000E+00	 0.00000000E+00	 4.42716000E-13

	 4.64852000E-13	 0.00000000E+00	 0.00000000E+00
	 0.00000000E+00	 4.64852000E-13	 0.00000000E+00
	 0.00000000E+00	 0.00000000E+00	 4.64852000E-13

	 4.64852000E-13	 0.00000000E+00	 0.00000000E+00
	 0.00000000E+00	 4.64852000E-13	 0.00000000E+00
	 0.00000000E+00	 0.00000000E+00	 4.64852000E-13

	 4.38289000E-13	 0.00000000E+00	 0.00000000E+00
	 0.00000000E+00	 4.38289000E-13	 0.00000000E+00
	 0.00000000E+00	 0.00000000E+00	 4.38289000E-13

	 4.38289000E-13	 0.00000000E+00	 0.00000000E+00
	 0.00000000E+00	 4.38289000E-13	 0.00000000E+00
	 0.00000000E+00	 0.00000000E+00	 4.38289000E-13

	 4.62638000E-13	 0.00000000E+00	 0.00000000E+00
	 0.00000000E+00	 4.62638000E-13	 0.00000000E+00
	 0.00000000E+00	 0.00000000E+00	 4.62638000E-13

	 4.64852000E-13	 0.00000000E+00	 0.00000000E+00
	 0.00000000E+00	 4.64852000E-13	 0.00000000E+00
	 0.00000000E+00	 0.00000000E+00	 4.64852000E-13

	 4.64852000E-13	 0.00000000E+00	 0.00000000E+00
	 0.00000000E+00	 4.64852000E-13	 0.00000000E+00
	 0.00000000E+00	 0.00000000E+00	 4.64852000E-13

	 4.38289000E-13	 0.00000000E+00	 0.00000000E+00
	 0.00000000E+00	 4.38289000E-13	 0.00000000E+00
	 0.00000000E+00	 0.00000000E+00	 4.38289000E-13

	 4.42716000E-13	 0.00000000E+00	 0.00000000E+00
	 0.00000000E+00	 4.42716000E-13	 0.00000000E+00
	 0.00000000E+00	 0.00000000E+00	 4.42716000E-13

	 4.64852000E-13	 0.00000000E+00	 0.00000000E+00
	 0.00000000E+00	 4.64852000E-13	 0.00000000E+00
	 0.00000000E+00	 0.00000000E+00	 4.64852000E-13

	 4.42716000E-13	 0.00000000E+00	 0.00000000E+00
	 0.00000000E+00	 4.42716000E-13	 0.00000000E+00
	 0.00000000E+00	 0.00000000E+00	 4.42716000E-13

	 4.42716000E-13	 0.00000000E+00	 0.00000000E+00
	 0.00000000E+00	 4.42716000E-13	 0.00000000E+00
	 0.00000000E+00	 0.00000000E+00	 4.42716000E-13

	 4.47143000E-13	 0.00000000E+00	 0.00000000E+00
	 0.00000000E+00	 4.47143000E-13	 0.00000000E+00
	 0.00000000E+00	 0.00000000E+00	 4.47143000E-13

	 4.64852000E-13	 0.00000000E+00	 0.00000000E+00
	 0.00000000E+00	 4.64852000E-13	 0.00000000E+00
	 0.00000000E+00	 0.00000000E+00	 4.64852000E-13

	 4.38289000E-13	 0.00000000E+00	 0.00000000E+00
	 0.00000000E+00	 4.38289000E-13	 0.00000000E+00
	 0.00000000E+00	 0.00000000E+00	 4.38289000E-13

	 4.38289000E-13	 0.00000000E+00	 0.00000000E+00
	 0.00000000E+00	 4.38289000E-13	 0.00000000E+00
	 0.00000000E+00	 0.00000000E+00	 4.38289000E-13

	 4.53784000E-13	 0.00000000E+00	 0.00000000E+00
	 0.00000000E+00	 4.53784000E-13	 0.00000000E+00
	 0.00000000E+00	 0.00000000E+00	 4.53784000E-13

	 4.64852000E-13	 0.00000000E+00	 0.00000000E+00
	 0.00000000E+00	 4.64852000E-13	 0.00000000E+00
	 0.00000000E+00	 0.00000000E+00	 4.64852000E-13

	 4.64852000E-13	 0.00000000E+00	 0.00000000E+00
	 0.00000000E+00	 4.64852000E-13	 0.00000000E+00
	 0.00000000E+00	 0.00000000E+00	 4.64852000E-13

	 4.53784000E-13	 0.00000000E+00	 0.00000000E+00
	 0.00000000E+00	 4.53784000E-13	 0.00000000E+00
	 0.00000000E+00	 0.00000000E+00	 4.53784000E-13

	 4.53784000E-13	 0.00000000E+00	 0.00000000E+00
	 0.00000000E+00	 4.53784000E-13	 0.00000000E+00
	 0.00000000E+00	 0.00000000E+00	 4.53784000E-13

	 4.62638000E-13	 0.00000000E+00	 0.00000000E+00
	 0.00000000E+00	 4.62638000E-13	 0.00000000E+00
	 0.00000000E+00	 0.00000000E+00	 4.62638000E-13

	 4.64852000E-13	 0.00000000E+00	 0.00000000E+00
	 0.00000000E+00	 4.64852000E-13	 0.00000000E+00
	 0.00000000E+00	 0.00000000E+00	 4.64852000E-13

	 4.40502000E-13	 0.00000000E+00	 0.00000000E+00
	 0.00000000E+00	 4.40502000E-13	 0.00000000E+00
	 0.00000000E+00	 0.00000000E+00	 4.40502000E-13

	 4.53784000E-13	 0.00000000E+00	 0.00000000E+00
	 0.00000000E+00	 4.53784000E-13	 0.00000000E+00
	 0.00000000E+00	 0.00000000E+00	 4.53784000E-13

	 4.42716000E-13	 0.00000000E+00	 0.00000000E+00
	 0.00000000E+00	 4.42716000E-13	 0.00000000E+00
	 0.00000000E+00	 0.00000000E+00	 4.42716000E-13

	 4.55997000E-13	 0.00000000E+00	 0.00000000E+00
	 0.00000000E+00	 4.55997000E-13	 0.00000000E+00
	 0.00000000E+00	 0.00000000E+00	 4.55997000E-13

	 4.64852000E-13	 0.00000000E+00	 0.00000000E+00
	 0.00000000E+00	 4.64852000E-13	 0.00000000E+00
	 0.00000000E+00	 0.00000000E+00	 4.64852000E-13

	 4.64852000E-13	 0.00000000E+00	 0.00000000E+00
	 0.00000000E+00	 4.64852000E-13	 0.00000000E+00
	 0.00000000E+00	 0.00000000E+00	 4.64852000E-13

	 4.38289000E-13	 0.00000000E+00	 0.00000000E+00
	 0.00000000E+00	 4.38289000E-13	 0.00000000E+00
	 0.00000000E+00	 0.00000000E+00	 4.38289000E-13

	 4.38289000E-13	 0.00000000E+00	 0.00000000E+00
	 0.00000000E+00	 4.38289000E-13	 0.00000000E+00
	 0.00000000E+00	 0.00000000E+00	 4.38289000E-13

	 4.38289000E-13	 0.00000000E+00	 0.00000000E+00
	 0.00000000E+00	 4.38289000E-13	 0.00000000E+00
	 0.00000000E+00	 0.00000000E+00	 4.38289000E-13

	 4.42716000E-13	 0.00000000E+00	 0.00000000E+00
	 0.00000000E+00	 4.42716000E-13	 0.00000000E+00
	 0.00000000E+00	 0.00000000E+00	 4.42716000E-13

	 4.42716000E-13	 0.00000000E+00	 0.00000000E+00
	 0.00000000E+00	 4.42716000E-13	 0.00000000E+00
	 0.00000000E+00	 0.00000000E+00	 4.42716000E-13

	 4.58211000E-13	 0.00000000E+00	 0.00000000E+00
	 0.00000000E+00	 4.58211000E-13	 0.00000000E+00
	 0.00000000E+00	 0.00000000E+00	 4.58211000E-13

	 4.42716000E-13	 0.00000000E+00	 0.00000000E+00
	 0.00000000E+00	 4.42716000E-13	 0.00000000E+00
	 0.00000000E+00	 0.00000000E+00	 4.42716000E-13

	 4.64852000E-13	 0.00000000E+00	 0.00000000E+00
	 0.00000000E+00	 4.64852000E-13	 0.00000000E+00
	 0.00000000E+00	 0.00000000E+00	 4.64852000E-13

	 4.64852000E-13	 0.00000000E+00	 0.00000000E+00
	 0.00000000E+00	 4.64852000E-13	 0.00000000E+00
	 0.00000000E+00	 0.00000000E+00	 4.64852000E-13

	 4.64852000E-13	 0.00000000E+00	 0.00000000E+00
	 0.00000000E+00	 4.64852000E-13	 0.00000000E+00
	 0.00000000E+00	 0.00000000E+00	 4.64852000E-13

	 4.58211000E-13	 0.00000000E+00	 0.00000000E+00
	 0.00000000E+00	 4.58211000E-13	 0.00000000E+00
	 0.00000000E+00	 0.00000000E+00	 4.58211000E-13

	 4.62638000E-13	 0.00000000E+00	 0.00000000E+00
	 0.00000000E+00	 4.62638000E-13	 0.00000000E+00
	 0.00000000E+00	 0.00000000E+00	 4.62638000E-13

	 4.56883000E-13	 0.00000000E+00	 0.00000000E+00
	 0.00000000E+00	 4.56883000E-13	 0.00000000E+00
	 0.00000000E+00	 0.00000000E+00	 4.56883000E-13

	 4.38289000E-13	 0.00000000E+00	 0.00000000E+00
	 0.00000000E+00	 4.38289000E-13	 0.00000000E+00
	 0.00000000E+00	 0.00000000E+00	 4.38289000E-13

	 4.38289000E-13	 0.00000000E+00	 0.00000000E+00
	 0.00000000E+00	 4.38289000E-13	 0.00000000E+00
	 0.00000000E+00	 0.00000000E+00	 4.38289000E-13

	 4.64852000E-13	 0.00000000E+00	 0.00000000E+00
	 0.00000000E+00	 4.64852000E-13	 0.00000000E+00
	 0.00000000E+00	 0.00000000E+00	 4.64852000E-13

	 4.64852000E-13	 0.00000000E+00	 0.00000000E+00
	 0.00000000E+00	 4.64852000E-13	 0.00000000E+00
	 0.00000000E+00	 0.00000000E+00	 4.64852000E-13

	 4.64852000E-13	 0.00000000E+00	 0.00000000E+00
	 0.00000000E+00	 4.64852000E-13	 0.00000000E+00
	 0.00000000E+00	 0.00000000E+00	 4.64852000E-13

	 4.64852000E-13	 0.00000000E+00	 0.00000000E+00
	 0.00000000E+00	 4.64852000E-13	 0.00000000E+00
	 0.00000000E+00	 0.00000000E+00	 4.64852000E-13

	 4.47143000E-13	 0.00000000E+00	 0.00000000E+00
	 0.00000000E+00	 4.47143000E-13	 0.00000000E+00
	 0.00000000E+00	 0.00000000E+00	 4.47143000E-13

	 4.38289000E-13	 0.00000000E+00	 0.00000000E+00
	 0.00000000E+00	 4.38289000E-13	 0.00000000E+00
	 0.00000000E+00	 0.00000000E+00	 4.38289000E-13

	 4.38289000E-13	 0.00000000E+00	 0.00000000E+00
	 0.00000000E+00	 4.38289000E-13	 0.00000000E+00
	 0.00000000E+00	 0.00000000E+00	 4.38289000E-13

	 4.38289000E-13	 0.00000000E+00	 0.00000000E+00
	 0.00000000E+00	 4.38289000E-13	 0.00000000E+00
	 0.00000000E+00	 0.00000000E+00	 4.38289000E-13

	 4.38289000E-13	 0.00000000E+00	 0.00000000E+00
	 0.00000000E+00	 4.38289000E-13	 0.00000000E+00
	 0.00000000E+00	 0.00000000E+00	 4.38289000E-13

	 4.53784000E-13	 0.00000000E+00	 0.00000000E+00
	 0.00000000E+00	 4.53784000E-13	 0.00000000E+00
	 0.00000000E+00	 0.00000000E+00	 4.53784000E-13

	 4.62954000E-13	 0.00000000E+00	 0.00000000E+00
	 0.00000000E+00	 4.62954000E-13	 0.00000000E+00
	 0.00000000E+00	 0.00000000E+00	 4.62954000E-13

	 4.62638000E-13	 0.00000000E+00	 0.00000000E+00
	 0.00000000E+00	 4.62638000E-13	 0.00000000E+00
	 0.00000000E+00	 0.00000000E+00	 4.62638000E-13

	 4.64852000E-13	 0.00000000E+00	 0.00000000E+00
	 0.00000000E+00	 4.64852000E-13	 0.00000000E+00
	 0.00000000E+00	 0.00000000E+00	 4.64852000E-13

	 4.38289000E-13	 0.00000000E+00	 0.00000000E+00
	 0.00000000E+00	 4.38289000E-13	 0.00000000E+00
	 0.00000000E+00	 0.00000000E+00	 4.38289000E-13

	 4.62638000E-13	 0.00000000E+00	 0.00000000E+00
	 0.00000000E+00	 4.62638000E-13	 0.00000000E+00
	 0.00000000E+00	 0.00000000E+00	 4.62638000E-13

	 4.49357000E-13	 0.00000000E+00	 0.00000000E+00
	 0.00000000E+00	 4.49357000E-13	 0.00000000E+00
	 0.00000000E+00	 0.00000000E+00	 4.49357000E-13

	 4.64852000E-13	 0.00000000E+00	 0.00000000E+00
	 0.00000000E+00	 4.64852000E-13	 0.00000000E+00
	 0.00000000E+00	 0.00000000E+00	 4.64852000E-13

	 4.61057000E-13	 0.00000000E+00	 0.00000000E+00
	 0.00000000E+00	 4.61057000E-13	 0.00000000E+00
	 0.00000000E+00	 0.00000000E+00	 4.61057000E-13

	 4.64852000E-13	 0.00000000E+00	 0.00000000E+00
	 0.00000000E+00	 4.64852000E-13	 0.00000000E+00
	 0.00000000E+00	 0.00000000E+00	 4.64852000E-13

	 4.43601000E-13	 0.00000000E+00	 0.00000000E+00
	 0.00000000E+00	 4.43601000E-13	 0.00000000E+00
	 0.00000000E+00	 0.00000000E+00	 4.43601000E-13

	 4.43981000E-13	 0.00000000E+00	 0.00000000E+00
	 0.00000000E+00	 4.43981000E-13	 0.00000000E+00
	 0.00000000E+00	 0.00000000E+00	 4.43981000E-13

	 4.38289000E-13	 0.00000000E+00	 0.00000000E+00
	 0.00000000E+00	 4.38289000E-13	 0.00000000E+00
	 0.00000000E+00	 0.00000000E+00	 4.38289000E-13

	 4.49357000E-13	 0.00000000E+00	 0.00000000E+00
	 0.00000000E+00	 4.49357000E-13	 0.00000000E+00
	 0.00000000E+00	 0.00000000E+00	 4.49357000E-13

	 4.51570000E-13	 0.00000000E+00	 0.00000000E+00
	 0.00000000E+00	 4.51570000E-13	 0.00000000E+00
	 0.00000000E+00	 0.00000000E+00	 4.51570000E-13

	 4.58211000E-13	 0.00000000E+00	 0.00000000E+00
	 0.00000000E+00	 4.58211000E-13	 0.00000000E+00
	 0.00000000E+00	 0.00000000E+00	 4.58211000E-13

	 4.55997000E-13	 0.00000000E+00	 0.00000000E+00
	 0.00000000E+00	 4.55997000E-13	 0.00000000E+00
	 0.00000000E+00	 0.00000000E+00	 4.55997000E-13

	 4.55997000E-13	 0.00000000E+00	 0.00000000E+00
	 0.00000000E+00	 4.55997000E-13	 0.00000000E+00
	 0.00000000E+00	 0.00000000E+00	 4.55997000E-13

	 4.51570000E-13	 0.00000000E+00	 0.00000000E+00
	 0.00000000E+00	 4.51570000E-13	 0.00000000E+00
	 0.00000000E+00	 0.00000000E+00	 4.51570000E-13

	 4.51570000E-13	 0.00000000E+00	 0.00000000E+00
	 0.00000000E+00	 4.51570000E-13	 0.00000000E+00
	 0.00000000E+00	 0.00000000E+00	 4.51570000E-13

	 4.58211000E-13	 0.00000000E+00	 0.00000000E+00
	 0.00000000E+00	 4.58211000E-13	 0.00000000E+00
	 0.00000000E+00	 0.00000000E+00	 4.58211000E-13

	 4.62638000E-13	 0.00000000E+00	 0.00000000E+00
	 0.00000000E+00	 4.62638000E-13	 0.00000000E+00
	 0.00000000E+00	 0.00000000E+00	 4.62638000E-13

	 4.64852000E-13	 0.00000000E+00	 0.00000000E+00
	 0.00000000E+00	 4.64852000E-13	 0.00000000E+00
	 0.00000000E+00	 0.00000000E+00	 4.64852000E-13

	 4.64852000E-13	 0.00000000E+00	 0.00000000E+00
	 0.00000000E+00	 4.64852000E-13	 0.00000000E+00
	 0.00000000E+00	 0.00000000E+00	 4.64852000E-13

	 4.64852000E-13	 0.00000000E+00	 0.00000000E+00
	 0.00000000E+00	 4.64852000E-13	 0.00000000E+00
	 0.00000000E+00	 0.00000000E+00	 4.64852000E-13

	 4.64852000E-13	 0.00000000E+00	 0.00000000E+00
	 0.00000000E+00	 4.64852000E-13	 0.00000000E+00
	 0.00000000E+00	 0.00000000E+00	 4.64852000E-13

	 4.64852000E-13	 0.00000000E+00	 0.00000000E+00
	 0.00000000E+00	 4.64852000E-13	 0.00000000E+00
	 0.00000000E+00	 0.00000000E+00	 4.64852000E-13

	 4.60425000E-13	 0.00000000E+00	 0.00000000E+00
	 0.00000000E+00	 4.60425000E-13	 0.00000000E+00
	 0.00000000E+00	 0.00000000E+00	 4.60425000E-13

	 4.62638000E-13	 0.00000000E+00	 0.00000000E+00
	 0.00000000E+00	 4.62638000E-13	 0.00000000E+00
	 0.00000000E+00	 0.00000000E+00	 4.62638000E-13

	 4.58211000E-13	 0.00000000E+00	 0.00000000E+00
	 0.00000000E+00	 4.58211000E-13	 0.00000000E+00
	 0.00000000E+00	 0.00000000E+00	 4.58211000E-13

	 4.49357000E-13	 0.00000000E+00	 0.00000000E+00
	 0.00000000E+00	 4.49357000E-13	 0.00000000E+00
	 0.00000000E+00	 0.00000000E+00	 4.49357000E-13

	 4.47143000E-13	 0.00000000E+00	 0.00000000E+00
	 0.00000000E+00	 4.47143000E-13	 0.00000000E+00
	 0.00000000E+00	 0.00000000E+00	 4.47143000E-13

	 4.42716000E-13	 0.00000000E+00	 0.00000000E+00
	 0.00000000E+00	 4.42716000E-13	 0.00000000E+00
	 0.00000000E+00	 0.00000000E+00	 4.42716000E-13

	 4.62638000E-13	 0.00000000E+00	 0.00000000E+00
	 0.00000000E+00	 4.62638000E-13	 0.00000000E+00
	 0.00000000E+00	 0.00000000E+00	 4.62638000E-13

	 4.44929000E-13	 0.00000000E+00	 0.00000000E+00
	 0.00000000E+00	 4.44929000E-13	 0.00000000E+00
	 0.00000000E+00	 0.00000000E+00	 4.44929000E-13

	 4.49357000E-13	 0.00000000E+00	 0.00000000E+00
	 0.00000000E+00	 4.49357000E-13	 0.00000000E+00
	 0.00000000E+00	 0.00000000E+00	 4.49357000E-13

	 4.49357000E-13	 0.00000000E+00	 0.00000000E+00
	 0.00000000E+00	 4.49357000E-13	 0.00000000E+00
	 0.00000000E+00	 0.00000000E+00	 4.49357000E-13

	 4.51570000E-13	 0.00000000E+00	 0.00000000E+00
	 0.00000000E+00	 4.51570000E-13	 0.00000000E+00
	 0.00000000E+00	 0.00000000E+00	 4.51570000E-13

	 4.47143000E-13	 0.00000000E+00	 0.00000000E+00
	 0.00000000E+00	 4.47143000E-13	 0.00000000E+00
	 0.00000000E+00	 0.00000000E+00	 4.47143000E-13

	 4.58211000E-13	 0.00000000E+00	 0.00000000E+00
	 0.00000000E+00	 4.58211000E-13	 0.00000000E+00
	 0.00000000E+00	 0.00000000E+00	 4.58211000E-13

	 4.55997000E-13	 0.00000000E+00	 0.00000000E+00
	 0.00000000E+00	 4.55997000E-13	 0.00000000E+00
	 0.00000000E+00	 0.00000000E+00	 4.55997000E-13

	 4.64852000E-13	 0.00000000E+00	 0.00000000E+00
	 0.00000000E+00	 4.64852000E-13	 0.00000000E+00
	 0.00000000E+00	 0.00000000E+00	 4.64852000E-13

	 4.42716000E-13	 0.00000000E+00	 0.00000000E+00
	 0.00000000E+00	 4.42716000E-13	 0.00000000E+00
	 0.00000000E+00	 0.00000000E+00	 4.42716000E-13

	 4.38289000E-13	 0.00000000E+00	 0.00000000E+00
	 0.00000000E+00	 4.38289000E-13	 0.00000000E+00
	 0.00000000E+00	 0.00000000E+00	 4.38289000E-13

	 4.51570000E-13	 0.00000000E+00	 0.00000000E+00
	 0.00000000E+00	 4.51570000E-13	 0.00000000E+00
	 0.00000000E+00	 0.00000000E+00	 4.51570000E-13

	 4.40186000E-13	 0.00000000E+00	 0.00000000E+00
	 0.00000000E+00	 4.40186000E-13	 0.00000000E+00
	 0.00000000E+00	 0.00000000E+00	 4.40186000E-13

	 4.64852000E-13	 0.00000000E+00	 0.00000000E+00
	 0.00000000E+00	 4.64852000E-13	 0.00000000E+00
	 0.00000000E+00	 0.00000000E+00	 4.64852000E-13

	 4.57262000E-13	 0.00000000E+00	 0.00000000E+00
	 0.00000000E+00	 4.57262000E-13	 0.00000000E+00
	 0.00000000E+00	 0.00000000E+00	 4.57262000E-13

	 4.38289000E-13	 0.00000000E+00	 0.00000000E+00
	 0.00000000E+00	 4.38289000E-13	 0.00000000E+00
	 0.00000000E+00	 0.00000000E+00	 4.38289000E-13

	 4.38289000E-13	 0.00000000E+00	 0.00000000E+00
	 0.00000000E+00	 4.38289000E-13	 0.00000000E+00
	 0.00000000E+00	 0.00000000E+00	 4.38289000E-13

	 4.64852000E-13	 0.00000000E+00	 0.00000000E+00
	 0.00000000E+00	 4.64852000E-13	 0.00000000E+00
	 0.00000000E+00	 0.00000000E+00	 4.64852000E-13

	 4.44929000E-13	 0.00000000E+00	 0.00000000E+00
	 0.00000000E+00	 4.44929000E-13	 0.00000000E+00
	 0.00000000E+00	 0.00000000E+00	 4.44929000E-13

	 4.64852000E-13	 0.00000000E+00	 0.00000000E+00
	 0.00000000E+00	 4.64852000E-13	 0.00000000E+00
	 0.00000000E+00	 0.00000000E+00	 4.64852000E-13

	 4.44929000E-13	 0.00000000E+00	 0.00000000E+00
	 0.00000000E+00	 4.44929000E-13	 0.00000000E+00
	 0.00000000E+00	 0.00000000E+00	 4.44929000E-13

	 4.64852000E-13	 0.00000000E+00	 0.00000000E+00
	 0.00000000E+00	 4.64852000E-13	 0.00000000E+00
	 0.00000000E+00	 0.00000000E+00	 4.64852000E-13

	 4.55997000E-13	 0.00000000E+00	 0.00000000E+00
	 0.00000000E+00	 4.55997000E-13	 0.00000000E+00
	 0.00000000E+00	 0.00000000E+00	 4.55997000E-13

	 4.42716000E-13	 0.00000000E+00	 0.00000000E+00
	 0.00000000E+00	 4.42716000E-13	 0.00000000E+00
	 0.00000000E+00	 0.00000000E+00	 4.42716000E-13

	 4.38289000E-13	 0.00000000E+00	 0.00000000E+00
	 0.00000000E+00	 4.38289000E-13	 0.00000000E+00
	 0.00000000E+00	 0.00000000E+00	 4.38289000E-13

	 4.64852000E-13	 0.00000000E+00	 0.00000000E+00
	 0.00000000E+00	 4.64852000E-13	 0.00000000E+00
	 0.00000000E+00	 0.00000000E+00	 4.64852000E-13

	 4.38289000E-13	 0.00000000E+00	 0.00000000E+00
	 0.00000000E+00	 4.38289000E-13	 0.00000000E+00
	 0.00000000E+00	 0.00000000E+00	 4.38289000E-13

	 4.62954000E-13	 0.00000000E+00	 0.00000000E+00
	 0.00000000E+00	 4.62954000E-13	 0.00000000E+00
	 0.00000000E+00	 0.00000000E+00	 4.62954000E-13

	 4.38289000E-13	 0.00000000E+00	 0.00000000E+00
	 0.00000000E+00	 4.38289000E-13	 0.00000000E+00
	 0.00000000E+00	 0.00000000E+00	 4.38289000E-13

	 4.38289000E-13	 0.00000000E+00	 0.00000000E+00
	 0.00000000E+00	 4.38289000E-13	 0.00000000E+00
	 0.00000000E+00	 0.00000000E+00	 4.38289000E-13

	 4.64852000E-13	 0.00000000E+00	 0.00000000E+00
	 0.00000000E+00	 4.64852000E-13	 0.00000000E+00
	 0.00000000E+00	 0.00000000E+00	 4.64852000E-13

	 4.64852000E-13	 0.00000000E+00	 0.00000000E+00
	 0.00000000E+00	 4.64852000E-13	 0.00000000E+00
	 0.00000000E+00	 0.00000000E+00	 4.64852000E-13

	 4.64852000E-13	 0.00000000E+00	 0.00000000E+00
	 0.00000000E+00	 4.64852000E-13	 0.00000000E+00
	 0.00000000E+00	 0.00000000E+00	 4.64852000E-13

	 4.64852000E-13	 0.00000000E+00	 0.00000000E+00
	 0.00000000E+00	 4.64852000E-13	 0.00000000E+00
	 0.00000000E+00	 0.00000000E+00	 4.64852000E-13

	 4.64852000E-13	 0.00000000E+00	 0.00000000E+00
	 0.00000000E+00	 4.64852000E-13	 0.00000000E+00
	 0.00000000E+00	 0.00000000E+00	 4.64852000E-13

	 4.64852000E-13	 0.00000000E+00	 0.00000000E+00
	 0.00000000E+00	 4.64852000E-13	 0.00000000E+00
	 0.00000000E+00	 0.00000000E+00	 4.64852000E-13

	 4.64852000E-13	 0.00000000E+00	 0.00000000E+00
	 0.00000000E+00	 4.64852000E-13	 0.00000000E+00
	 0.00000000E+00	 0.00000000E+00	 4.64852000E-13

	 4.64852000E-13	 0.00000000E+00	 0.00000000E+00
	 0.00000000E+00	 4.64852000E-13	 0.00000000E+00
	 0.00000000E+00	 0.00000000E+00	 4.64852000E-13

	 4.38289000E-13	 0.00000000E+00	 0.00000000E+00
	 0.00000000E+00	 4.38289000E-13	 0.00000000E+00
	 0.00000000E+00	 0.00000000E+00	 4.38289000E-13

	 4.38289000E-13	 0.00000000E+00	 0.00000000E+00
	 0.00000000E+00	 4.38289000E-13	 0.00000000E+00
	 0.00000000E+00	 0.00000000E+00	 4.38289000E-13

	 4.40502000E-13	 0.00000000E+00	 0.00000000E+00
	 0.00000000E+00	 4.40502000E-13	 0.00000000E+00
	 0.00000000E+00	 0.00000000E+00	 4.40502000E-13

	 4.42716000E-13	 0.00000000E+00	 0.00000000E+00
	 0.00000000E+00	 4.42716000E-13	 0.00000000E+00
	 0.00000000E+00	 0.00000000E+00	 4.42716000E-13

	 4.64852000E-13	 0.00000000E+00	 0.00000000E+00
	 0.00000000E+00	 4.64852000E-13	 0.00000000E+00
	 0.00000000E+00	 0.00000000E+00	 4.64852000E-13

	 4.38289000E-13	 0.00000000E+00	 0.00000000E+00
	 0.00000000E+00	 4.38289000E-13	 0.00000000E+00
	 0.00000000E+00	 0.00000000E+00	 4.38289000E-13

	 4.40502000E-13	 0.00000000E+00	 0.00000000E+00
	 0.00000000E+00	 4.40502000E-13	 0.00000000E+00
	 0.00000000E+00	 0.00000000E+00	 4.40502000E-13

	 4.42716000E-13	 0.00000000E+00	 0.00000000E+00
	 0.00000000E+00	 4.42716000E-13	 0.00000000E+00
	 0.00000000E+00	 0.00000000E+00	 4.42716000E-13

	 4.44929000E-13	 0.00000000E+00	 0.00000000E+00
	 0.00000000E+00	 4.44929000E-13	 0.00000000E+00
	 0.00000000E+00	 0.00000000E+00	 4.44929000E-13

	 4.42716000E-13	 0.00000000E+00	 0.00000000E+00
	 0.00000000E+00	 4.42716000E-13	 0.00000000E+00
	 0.00000000E+00	 0.00000000E+00	 4.42716000E-13

	 4.38289000E-13	 0.00000000E+00	 0.00000000E+00
	 0.00000000E+00	 4.38289000E-13	 0.00000000E+00
	 0.00000000E+00	 0.00000000E+00	 4.38289000E-13

	 4.38289000E-13	 0.00000000E+00	 0.00000000E+00
	 0.00000000E+00	 4.38289000E-13	 0.00000000E+00
	 0.00000000E+00	 0.00000000E+00	 4.38289000E-13

	 4.38289000E-13	 0.00000000E+00	 0.00000000E+00
	 0.00000000E+00	 4.38289000E-13	 0.00000000E+00
	 0.00000000E+00	 0.00000000E+00	 4.38289000E-13

	 4.40502000E-13	 0.00000000E+00	 0.00000000E+00
	 0.00000000E+00	 4.40502000E-13	 0.00000000E+00
	 0.00000000E+00	 0.00000000E+00	 4.40502000E-13

	 4.47143000E-13	 0.00000000E+00	 0.00000000E+00
	 0.00000000E+00	 4.47143000E-13	 0.00000000E+00
	 0.00000000E+00	 0.00000000E+00	 4.47143000E-13

	 4.49357000E-13	 0.00000000E+00	 0.00000000E+00
	 0.00000000E+00	 4.49357000E-13	 0.00000000E+00
	 0.00000000E+00	 0.00000000E+00	 4.49357000E-13

	 4.38289000E-13	 0.00000000E+00	 0.00000000E+00
	 0.00000000E+00	 4.38289000E-13	 0.00000000E+00
	 0.00000000E+00	 0.00000000E+00	 4.38289000E-13

	 4.53784000E-13	 0.00000000E+00	 0.00000000E+00
	 0.00000000E+00	 4.53784000E-13	 0.00000000E+00
	 0.00000000E+00	 0.00000000E+00	 4.53784000E-13

	 4.64852000E-13	 0.00000000E+00	 0.00000000E+00
	 0.00000000E+00	 4.64852000E-13	 0.00000000E+00
	 0.00000000E+00	 0.00000000E+00	 4.64852000E-13

	 4.64852000E-13	 0.00000000E+00	 0.00000000E+00
	 0.00000000E+00	 4.64852000E-13	 0.00000000E+00
	 0.00000000E+00	 0.00000000E+00	 4.64852000E-13

	 4.64852000E-13	 0.00000000E+00	 0.00000000E+00
	 0.00000000E+00	 4.64852000E-13	 0.00000000E+00
	 0.00000000E+00	 0.00000000E+00	 4.64852000E-13

	 4.64852000E-13	 0.00000000E+00	 0.00000000E+00
	 0.00000000E+00	 4.64852000E-13	 0.00000000E+00
	 0.00000000E+00	 0.00000000E+00	 4.64852000E-13

	 4.60425000E-13	 0.00000000E+00	 0.00000000E+00
	 0.00000000E+00	 4.60425000E-13	 0.00000000E+00
	 0.00000000E+00	 0.00000000E+00	 4.60425000E-13

	 4.64852000E-13	 0.00000000E+00	 0.00000000E+00
	 0.00000000E+00	 4.64852000E-13	 0.00000000E+00
	 0.00000000E+00	 0.00000000E+00	 4.64852000E-13

	 4.64852000E-13	 0.00000000E+00	 0.00000000E+00
	 0.00000000E+00	 4.64852000E-13	 0.00000000E+00
	 0.00000000E+00	 0.00000000E+00	 4.64852000E-13

	 4.60425000E-13	 0.00000000E+00	 0.00000000E+00
	 0.00000000E+00	 4.60425000E-13	 0.00000000E+00
	 0.00000000E+00	 0.00000000E+00	 4.60425000E-13

	 4.64852000E-13	 0.00000000E+00	 0.00000000E+00
	 0.00000000E+00	 4.64852000E-13	 0.00000000E+00
	 0.00000000E+00	 0.00000000E+00	 4.64852000E-13

	 4.64852000E-13	 0.00000000E+00	 0.00000000E+00
	 0.00000000E+00	 4.64852000E-13	 0.00000000E+00
	 0.00000000E+00	 0.00000000E+00	 4.64852000E-13

	 4.64852000E-13	 0.00000000E+00	 0.00000000E+00
	 0.00000000E+00	 4.64852000E-13	 0.00000000E+00
	 0.00000000E+00	 0.00000000E+00	 4.64852000E-13

	 4.64852000E-13	 0.00000000E+00	 0.00000000E+00
	 0.00000000E+00	 4.64852000E-13	 0.00000000E+00
	 0.00000000E+00	 0.00000000E+00	 4.64852000E-13

	 4.38289000E-13	 0.00000000E+00	 0.00000000E+00
	 0.00000000E+00	 4.38289000E-13	 0.00000000E+00
	 0.00000000E+00	 0.00000000E+00	 4.38289000E-13

	 4.64852000E-13	 0.00000000E+00	 0.00000000E+00
	 0.00000000E+00	 4.64852000E-13	 0.00000000E+00
	 0.00000000E+00	 0.00000000E+00	 4.64852000E-13

	 4.64852000E-13	 0.00000000E+00	 0.00000000E+00
	 0.00000000E+00	 4.64852000E-13	 0.00000000E+00
	 0.00000000E+00	 0.00000000E+00	 4.64852000E-13

	 4.38289000E-13	 0.00000000E+00	 0.00000000E+00
	 0.00000000E+00	 4.38289000E-13	 0.00000000E+00
	 0.00000000E+00	 0.00000000E+00	 4.38289000E-13

	 4.64852000E-13	 0.00000000E+00	 0.00000000E+00
	 0.00000000E+00	 4.64852000E-13	 0.00000000E+00
	 0.00000000E+00	 0.00000000E+00	 4.64852000E-13

	 4.64852000E-13	 0.00000000E+00	 0.00000000E+00
	 0.00000000E+00	 4.64852000E-13	 0.00000000E+00
	 0.00000000E+00	 0.00000000E+00	 4.64852000E-13

	 4.64852000E-13	 0.00000000E+00	 0.00000000E+00
	 0.00000000E+00	 4.64852000E-13	 0.00000000E+00
	 0.00000000E+00	 0.00000000E+00	 4.64852000E-13

	 4.64852000E-13	 0.00000000E+00	 0.00000000E+00
	 0.00000000E+00	 4.64852000E-13	 0.00000000E+00
	 0.00000000E+00	 0.00000000E+00	 4.64852000E-13

	 4.40502000E-13	 0.00000000E+00	 0.00000000E+00
	 0.00000000E+00	 4.40502000E-13	 0.00000000E+00
	 0.00000000E+00	 0.00000000E+00	 4.40502000E-13

	 4.64852000E-13	 0.00000000E+00	 0.00000000E+00
	 0.00000000E+00	 4.64852000E-13	 0.00000000E+00
	 0.00000000E+00	 0.00000000E+00	 4.64852000E-13

	 4.38289000E-13	 0.00000000E+00	 0.00000000E+00
	 0.00000000E+00	 4.38289000E-13	 0.00000000E+00
	 0.00000000E+00	 0.00000000E+00	 4.38289000E-13

	 4.42716000E-13	 0.00000000E+00	 0.00000000E+00
	 0.00000000E+00	 4.42716000E-13	 0.00000000E+00
	 0.00000000E+00	 0.00000000E+00	 4.42716000E-13

	 4.64852000E-13	 0.00000000E+00	 0.00000000E+00
	 0.00000000E+00	 4.64852000E-13	 0.00000000E+00
	 0.00000000E+00	 0.00000000E+00	 4.64852000E-13

	 4.64852000E-13	 0.00000000E+00	 0.00000000E+00
	 0.00000000E+00	 4.64852000E-13	 0.00000000E+00
	 0.00000000E+00	 0.00000000E+00	 4.64852000E-13

	 4.60425000E-13	 0.00000000E+00	 0.00000000E+00
	 0.00000000E+00	 4.60425000E-13	 0.00000000E+00
	 0.00000000E+00	 0.00000000E+00	 4.60425000E-13

	 4.60425000E-13	 0.00000000E+00	 0.00000000E+00
	 0.00000000E+00	 4.60425000E-13	 0.00000000E+00
	 0.00000000E+00	 0.00000000E+00	 4.60425000E-13

	 4.64852000E-13	 0.00000000E+00	 0.00000000E+00
	 0.00000000E+00	 4.64852000E-13	 0.00000000E+00
	 0.00000000E+00	 0.00000000E+00	 4.64852000E-13

	 4.64852000E-13	 0.00000000E+00	 0.00000000E+00
	 0.00000000E+00	 4.64852000E-13	 0.00000000E+00
	 0.00000000E+00	 0.00000000E+00	 4.64852000E-13

	 4.64852000E-13	 0.00000000E+00	 0.00000000E+00
	 0.00000000E+00	 4.64852000E-13	 0.00000000E+00
	 0.00000000E+00	 0.00000000E+00	 4.64852000E-13

	 4.64852000E-13	 0.00000000E+00	 0.00000000E+00
	 0.00000000E+00	 4.64852000E-13	 0.00000000E+00
	 0.00000000E+00	 0.00000000E+00	 4.64852000E-13

	 4.38289000E-13	 0.00000000E+00	 0.00000000E+00
	 0.00000000E+00	 4.38289000E-13	 0.00000000E+00
	 0.00000000E+00	 0.00000000E+00	 4.38289000E-13

	 4.58211000E-13	 0.00000000E+00	 0.00000000E+00
	 0.00000000E+00	 4.58211000E-13	 0.00000000E+00
	 0.00000000E+00	 0.00000000E+00	 4.58211000E-13

	 4.64852000E-13	 0.00000000E+00	 0.00000000E+00
	 0.00000000E+00	 4.64852000E-13	 0.00000000E+00
	 0.00000000E+00	 0.00000000E+00	 4.64852000E-13

	 4.64852000E-13	 0.00000000E+00	 0.00000000E+00
	 0.00000000E+00	 4.64852000E-13	 0.00000000E+00
	 0.00000000E+00	 0.00000000E+00	 4.64852000E-13

	 4.64852000E-13	 0.00000000E+00	 0.00000000E+00
	 0.00000000E+00	 4.64852000E-13	 0.00000000E+00
	 0.00000000E+00	 0.00000000E+00	 4.64852000E-13

	 4.64852000E-13	 0.00000000E+00	 0.00000000E+00
	 0.00000000E+00	 4.64852000E-13	 0.00000000E+00
	 0.00000000E+00	 0.00000000E+00	 4.64852000E-13

	 4.64852000E-13	 0.00000000E+00	 0.00000000E+00
	 0.00000000E+00	 4.64852000E-13	 0.00000000E+00
	 0.00000000E+00	 0.00000000E+00	 4.64852000E-13

	 4.64852000E-13	 0.00000000E+00	 0.00000000E+00
	 0.00000000E+00	 4.64852000E-13	 0.00000000E+00
	 0.00000000E+00	 0.00000000E+00	 4.64852000E-13

	 4.64852000E-13	 0.00000000E+00	 0.00000000E+00
	 0.00000000E+00	 4.64852000E-13	 0.00000000E+00
	 0.00000000E+00	 0.00000000E+00	 4.64852000E-13

	 4.64852000E-13	 0.00000000E+00	 0.00000000E+00
	 0.00000000E+00	 4.64852000E-13	 0.00000000E+00
	 0.00000000E+00	 0.00000000E+00	 4.64852000E-13

	 4.64852000E-13	 0.00000000E+00	 0.00000000E+00
	 0.00000000E+00	 4.64852000E-13	 0.00000000E+00
	 0.00000000E+00	 0.00000000E+00	 4.64852000E-13

	 4.38289000E-13	 0.00000000E+00	 0.00000000E+00
	 0.00000000E+00	 4.38289000E-13	 0.00000000E+00
	 0.00000000E+00	 0.00000000E+00	 4.38289000E-13

	 4.38289000E-13	 0.00000000E+00	 0.00000000E+00
	 0.00000000E+00	 4.38289000E-13	 0.00000000E+00
	 0.00000000E+00	 0.00000000E+00	 4.38289000E-13

	 4.38289000E-13	 0.00000000E+00	 0.00000000E+00
	 0.00000000E+00	 4.38289000E-13	 0.00000000E+00
	 0.00000000E+00	 0.00000000E+00	 4.38289000E-13

	 4.38289000E-13	 0.00000000E+00	 0.00000000E+00
	 0.00000000E+00	 4.38289000E-13	 0.00000000E+00
	 0.00000000E+00	 0.00000000E+00	 4.38289000E-13

	 4.38289000E-13	 0.00000000E+00	 0.00000000E+00
	 0.00000000E+00	 4.38289000E-13	 0.00000000E+00
	 0.00000000E+00	 0.00000000E+00	 4.38289000E-13

	 4.38289000E-13	 0.00000000E+00	 0.00000000E+00
	 0.00000000E+00	 4.38289000E-13	 0.00000000E+00
	 0.00000000E+00	 0.00000000E+00	 4.38289000E-13

	 4.38289000E-13	 0.00000000E+00	 0.00000000E+00
	 0.00000000E+00	 4.38289000E-13	 0.00000000E+00
	 0.00000000E+00	 0.00000000E+00	 4.38289000E-13

	 4.38289000E-13	 0.00000000E+00	 0.00000000E+00
	 0.00000000E+00	 4.38289000E-13	 0.00000000E+00
	 0.00000000E+00	 0.00000000E+00	 4.38289000E-13

	 4.38289000E-13	 0.00000000E+00	 0.00000000E+00
	 0.00000000E+00	 4.38289000E-13	 0.00000000E+00
	 0.00000000E+00	 0.00000000E+00	 4.38289000E-13

	 4.64852000E-13	 0.00000000E+00	 0.00000000E+00
	 0.00000000E+00	 4.64852000E-13	 0.00000000E+00
	 0.00000000E+00	 0.00000000E+00	 4.64852000E-13

	 4.64852000E-13	 0.00000000E+00	 0.00000000E+00
	 0.00000000E+00	 4.64852000E-13	 0.00000000E+00
	 0.00000000E+00	 0.00000000E+00	 4.64852000E-13

	 4.64852000E-13	 0.00000000E+00	 0.00000000E+00
	 0.00000000E+00	 4.64852000E-13	 0.00000000E+00
	 0.00000000E+00	 0.00000000E+00	 4.64852000E-13

	 4.64852000E-13	 0.00000000E+00	 0.00000000E+00
	 0.00000000E+00	 4.64852000E-13	 0.00000000E+00
	 0.00000000E+00	 0.00000000E+00	 4.64852000E-13

	 4.64852000E-13	 0.00000000E+00	 0.00000000E+00
	 0.00000000E+00	 4.64852000E-13	 0.00000000E+00
	 0.00000000E+00	 0.00000000E+00	 4.64852000E-13

	 4.64852000E-13	 0.00000000E+00	 0.00000000E+00
	 0.00000000E+00	 4.64852000E-13	 0.00000000E+00
	 0.00000000E+00	 0.00000000E+00	 4.64852000E-13

	 4.64852000E-13	 0.00000000E+00	 0.00000000E+00
	 0.00000000E+00	 4.64852000E-13	 0.00000000E+00
	 0.00000000E+00	 0.00000000E+00	 4.64852000E-13

	 4.64852000E-13	 0.00000000E+00	 0.00000000E+00
	 0.00000000E+00	 4.64852000E-13	 0.00000000E+00
	 0.00000000E+00	 0.00000000E+00	 4.64852000E-13

	 4.64852000E-13	 0.00000000E+00	 0.00000000E+00
	 0.00000000E+00	 4.64852000E-13	 0.00000000E+00
	 0.00000000E+00	 0.00000000E+00	 4.64852000E-13

	 4.38289000E-13	 0.00000000E+00	 0.00000000E+00
	 0.00000000E+00	 4.38289000E-13	 0.00000000E+00
	 0.00000000E+00	 0.00000000E+00	 4.38289000E-13

	 4.38289000E-13	 0.00000000E+00	 0.00000000E+00
	 0.00000000E+00	 4.38289000E-13	 0.00000000E+00
	 0.00000000E+00	 0.00000000E+00	 4.38289000E-13

	 4.64852000E-13	 0.00000000E+00	 0.00000000E+00
	 0.00000000E+00	 4.64852000E-13	 0.00000000E+00
	 0.00000000E+00	 0.00000000E+00	 4.64852000E-13

	 4.64852000E-13	 0.00000000E+00	 0.00000000E+00
	 0.00000000E+00	 4.64852000E-13	 0.00000000E+00
	 0.00000000E+00	 0.00000000E+00	 4.64852000E-13

	 4.64852000E-13	 0.00000000E+00	 0.00000000E+00
	 0.00000000E+00	 4.64852000E-13	 0.00000000E+00
	 0.00000000E+00	 0.00000000E+00	 4.64852000E-13

	 4.64852000E-13	 0.00000000E+00	 0.00000000E+00
	 0.00000000E+00	 4.64852000E-13	 0.00000000E+00
	 0.00000000E+00	 0.00000000E+00	 4.64852000E-13

	 4.64852000E-13	 0.00000000E+00	 0.00000000E+00
	 0.00000000E+00	 4.64852000E-13	 0.00000000E+00
	 0.00000000E+00	 0.00000000E+00	 4.64852000E-13

	 4.64852000E-13	 0.00000000E+00	 0.00000000E+00
	 0.00000000E+00	 4.64852000E-13	 0.00000000E+00
	 0.00000000E+00	 0.00000000E+00	 4.64852000E-13

	 4.64852000E-13	 0.00000000E+00	 0.00000000E+00
	 0.00000000E+00	 4.64852000E-13	 0.00000000E+00
	 0.00000000E+00	 0.00000000E+00	 4.64852000E-13

	 4.64852000E-13	 0.00000000E+00	 0.00000000E+00
	 0.00000000E+00	 4.64852000E-13	 0.00000000E+00
	 0.00000000E+00	 0.00000000E+00	 4.64852000E-13

	 4.44929000E-13	 0.00000000E+00	 0.00000000E+00
	 0.00000000E+00	 4.44929000E-13	 0.00000000E+00
	 0.00000000E+00	 0.00000000E+00	 4.44929000E-13

	 4.60425000E-13	 0.00000000E+00	 0.00000000E+00
	 0.00000000E+00	 4.60425000E-13	 0.00000000E+00
	 0.00000000E+00	 0.00000000E+00	 4.60425000E-13

	 4.55997000E-13	 0.00000000E+00	 0.00000000E+00
	 0.00000000E+00	 4.55997000E-13	 0.00000000E+00
	 0.00000000E+00	 0.00000000E+00	 4.55997000E-13

	 4.62638000E-13	 0.00000000E+00	 0.00000000E+00
	 0.00000000E+00	 4.62638000E-13	 0.00000000E+00
	 0.00000000E+00	 0.00000000E+00	 4.62638000E-13

	 4.38289000E-13	 0.00000000E+00	 0.00000000E+00
	 0.00000000E+00	 4.38289000E-13	 0.00000000E+00
	 0.00000000E+00	 0.00000000E+00	 4.38289000E-13

	 4.64852000E-13	 0.00000000E+00	 0.00000000E+00
	 0.00000000E+00	 4.64852000E-13	 0.00000000E+00
	 0.00000000E+00	 0.00000000E+00	 4.64852000E-13

	 4.64852000E-13	 0.00000000E+00	 0.00000000E+00
	 0.00000000E+00	 4.64852000E-13	 0.00000000E+00
	 0.00000000E+00	 0.00000000E+00	 4.64852000E-13

	 4.64852000E-13	 0.00000000E+00	 0.00000000E+00
	 0.00000000E+00	 4.64852000E-13	 0.00000000E+00
	 0.00000000E+00	 0.00000000E+00	 4.64852000E-13

	 4.64852000E-13	 0.00000000E+00	 0.00000000E+00
	 0.00000000E+00	 4.64852000E-13	 0.00000000E+00
	 0.00000000E+00	 0.00000000E+00	 4.64852000E-13

	 4.64852000E-13	 0.00000000E+00	 0.00000000E+00
	 0.00000000E+00	 4.64852000E-13	 0.00000000E+00
	 0.00000000E+00	 0.00000000E+00	 4.64852000E-13

	 4.64852000E-13	 0.00000000E+00	 0.00000000E+00
	 0.00000000E+00	 4.64852000E-13	 0.00000000E+00
	 0.00000000E+00	 0.00000000E+00	 4.64852000E-13

	 4.64852000E-13	 0.00000000E+00	 0.00000000E+00
	 0.00000000E+00	 4.64852000E-13	 0.00000000E+00
	 0.00000000E+00	 0.00000000E+00	 4.64852000E-13

	 4.38289000E-13	 0.00000000E+00	 0.00000000E+00
	 0.00000000E+00	 4.38289000E-13	 0.00000000E+00
	 0.00000000E+00	 0.00000000E+00	 4.38289000E-13

	 4.38289000E-13	 0.00000000E+00	 0.00000000E+00
	 0.00000000E+00	 4.38289000E-13	 0.00000000E+00
	 0.00000000E+00	 0.00000000E+00	 4.38289000E-13

	 4.38289000E-13	 0.00000000E+00	 0.00000000E+00
	 0.00000000E+00	 4.38289000E-13	 0.00000000E+00
	 0.00000000E+00	 0.00000000E+00	 4.38289000E-13

	 4.38289000E-13	 0.00000000E+00	 0.00000000E+00
	 0.00000000E+00	 4.38289000E-13	 0.00000000E+00
	 0.00000000E+00	 0.00000000E+00	 4.38289000E-13

	 4.38289000E-13	 0.00000000E+00	 0.00000000E+00
	 0.00000000E+00	 4.38289000E-13	 0.00000000E+00
	 0.00000000E+00	 0.00000000E+00	 4.38289000E-13

	 4.38289000E-13	 0.00000000E+00	 0.00000000E+00
	 0.00000000E+00	 4.38289000E-13	 0.00000000E+00
	 0.00000000E+00	 0.00000000E+00	 4.38289000E-13

	 4.38289000E-13	 0.00000000E+00	 0.00000000E+00
	 0.00000000E+00	 4.38289000E-13	 0.00000000E+00
	 0.00000000E+00	 0.00000000E+00	 4.38289000E-13

	 4.64852000E-13	 0.00000000E+00	 0.00000000E+00
	 0.00000000E+00	 4.64852000E-13	 0.00000000E+00
	 0.00000000E+00	 0.00000000E+00	 4.64852000E-13

	 4.38289000E-13	 0.00000000E+00	 0.00000000E+00
	 0.00000000E+00	 4.38289000E-13	 0.00000000E+00
	 0.00000000E+00	 0.00000000E+00	 4.38289000E-13

	 4.38289000E-13	 0.00000000E+00	 0.00000000E+00
	 0.00000000E+00	 4.38289000E-13	 0.00000000E+00
	 0.00000000E+00	 0.00000000E+00	 4.38289000E-13

	 4.64852000E-13	 0.00000000E+00	 0.00000000E+00
	 0.00000000E+00	 4.64852000E-13	 0.00000000E+00
	 0.00000000E+00	 0.00000000E+00	 4.64852000E-13

	 4.64852000E-13	 0.00000000E+00	 0.00000000E+00
	 0.00000000E+00	 4.64852000E-13	 0.00000000E+00
	 0.00000000E+00	 0.00000000E+00	 4.64852000E-13

	 4.42716000E-13	 0.00000000E+00	 0.00000000E+00
	 0.00000000E+00	 4.42716000E-13	 0.00000000E+00
	 0.00000000E+00	 0.00000000E+00	 4.42716000E-13

	 4.49357000E-13	 0.00000000E+00	 0.00000000E+00
	 0.00000000E+00	 4.49357000E-13	 0.00000000E+00
	 0.00000000E+00	 0.00000000E+00	 4.49357000E-13

	 4.44929000E-13	 0.00000000E+00	 0.00000000E+00
	 0.00000000E+00	 4.44929000E-13	 0.00000000E+00
	 0.00000000E+00	 0.00000000E+00	 4.44929000E-13

	 4.64852000E-13	 0.00000000E+00	 0.00000000E+00
	 0.00000000E+00	 4.64852000E-13	 0.00000000E+00
	 0.00000000E+00	 0.00000000E+00	 4.64852000E-13

	 4.64852000E-13	 0.00000000E+00	 0.00000000E+00
	 0.00000000E+00	 4.64852000E-13	 0.00000000E+00
	 0.00000000E+00	 0.00000000E+00	 4.64852000E-13

	 4.64852000E-13	 0.00000000E+00	 0.00000000E+00
	 0.00000000E+00	 4.64852000E-13	 0.00000000E+00
	 0.00000000E+00	 0.00000000E+00	 4.64852000E-13

	 4.64852000E-13	 0.00000000E+00	 0.00000000E+00
	 0.00000000E+00	 4.64852000E-13	 0.00000000E+00
	 0.00000000E+00	 0.00000000E+00	 4.64852000E-13

	 4.64852000E-13	 0.00000000E+00	 0.00000000E+00
	 0.00000000E+00	 4.64852000E-13	 0.00000000E+00
	 0.00000000E+00	 0.00000000E+00	 4.64852000E-13

	 4.64852000E-13	 0.00000000E+00	 0.00000000E+00
	 0.00000000E+00	 4.64852000E-13	 0.00000000E+00
	 0.00000000E+00	 0.00000000E+00	 4.64852000E-13

	 4.38289000E-13	 0.00000000E+00	 0.00000000E+00
	 0.00000000E+00	 4.38289000E-13	 0.00000000E+00
	 0.00000000E+00	 0.00000000E+00	 4.38289000E-13

	 4.64852000E-13	 0.00000000E+00	 0.00000000E+00
	 0.00000000E+00	 4.64852000E-13	 0.00000000E+00
	 0.00000000E+00	 0.00000000E+00	 4.64852000E-13

	 4.64852000E-13	 0.00000000E+00	 0.00000000E+00
	 0.00000000E+00	 4.64852000E-13	 0.00000000E+00
	 0.00000000E+00	 0.00000000E+00	 4.64852000E-13

	 4.49357000E-13	 0.00000000E+00	 0.00000000E+00
	 0.00000000E+00	 4.49357000E-13	 0.00000000E+00
	 0.00000000E+00	 0.00000000E+00	 4.49357000E-13

	 4.64852000E-13	 0.00000000E+00	 0.00000000E+00
	 0.00000000E+00	 4.64852000E-13	 0.00000000E+00
	 0.00000000E+00	 0.00000000E+00	 4.64852000E-13

	 4.58211000E-13	 0.00000000E+00	 0.00000000E+00
	 0.00000000E+00	 4.58211000E-13	 0.00000000E+00
	 0.00000000E+00	 0.00000000E+00	 4.58211000E-13

	 4.64852000E-13	 0.00000000E+00	 0.00000000E+00
	 0.00000000E+00	 4.64852000E-13	 0.00000000E+00
	 0.00000000E+00	 0.00000000E+00	 4.64852000E-13

	 4.38289000E-13	 0.00000000E+00	 0.00000000E+00
	 0.00000000E+00	 4.38289000E-13	 0.00000000E+00
	 0.00000000E+00	 0.00000000E+00	 4.38289000E-13

	 4.47143000E-13	 0.00000000E+00	 0.00000000E+00
	 0.00000000E+00	 4.47143000E-13	 0.00000000E+00
	 0.00000000E+00	 0.00000000E+00	 4.47143000E-13

	 4.64852000E-13	 0.00000000E+00	 0.00000000E+00
	 0.00000000E+00	 4.64852000E-13	 0.00000000E+00
	 0.00000000E+00	 0.00000000E+00	 4.64852000E-13

	 4.64852000E-13	 0.00000000E+00	 0.00000000E+00
	 0.00000000E+00	 4.64852000E-13	 0.00000000E+00
	 0.00000000E+00	 0.00000000E+00	 4.64852000E-13

	 4.64852000E-13	 0.00000000E+00	 0.00000000E+00
	 0.00000000E+00	 4.64852000E-13	 0.00000000E+00
	 0.00000000E+00	 0.00000000E+00	 4.64852000E-13

	 4.64852000E-13	 0.00000000E+00	 0.00000000E+00
	 0.00000000E+00	 4.64852000E-13	 0.00000000E+00
	 0.00000000E+00	 0.00000000E+00	 4.64852000E-13

	 4.44929000E-13	 0.00000000E+00	 0.00000000E+00
	 0.00000000E+00	 4.44929000E-13	 0.00000000E+00
	 0.00000000E+00	 0.00000000E+00	 4.44929000E-13

	 4.38289000E-13	 0.00000000E+00	 0.00000000E+00
	 0.00000000E+00	 4.38289000E-13	 0.00000000E+00
	 0.00000000E+00	 0.00000000E+00	 4.38289000E-13

	 4.38289000E-13	 0.00000000E+00	 0.00000000E+00
	 0.00000000E+00	 4.38289000E-13	 0.00000000E+00
	 0.00000000E+00	 0.00000000E+00	 4.38289000E-13

	 4.40502000E-13	 0.00000000E+00	 0.00000000E+00
	 0.00000000E+00	 4.40502000E-13	 0.00000000E+00
	 0.00000000E+00	 0.00000000E+00	 4.40502000E-13

	 4.64852000E-13	 0.00000000E+00	 0.00000000E+00
	 0.00000000E+00	 4.64852000E-13	 0.00000000E+00
	 0.00000000E+00	 0.00000000E+00	 4.64852000E-13

	 4.58211000E-13	 0.00000000E+00	 0.00000000E+00
	 0.00000000E+00	 4.58211000E-13	 0.00000000E+00
	 0.00000000E+00	 0.00000000E+00	 4.58211000E-13

	 4.49357000E-13	 0.00000000E+00	 0.00000000E+00
	 0.00000000E+00	 4.49357000E-13	 0.00000000E+00
	 0.00000000E+00	 0.00000000E+00	 4.49357000E-13

	 4.40502000E-13	 0.00000000E+00	 0.00000000E+00
	 0.00000000E+00	 4.40502000E-13	 0.00000000E+00
	 0.00000000E+00	 0.00000000E+00	 4.40502000E-13

	 4.43981000E-13	 0.00000000E+00	 0.00000000E+00
	 0.00000000E+00	 4.43981000E-13	 0.00000000E+00
	 0.00000000E+00	 0.00000000E+00	 4.43981000E-13

	 4.53784000E-13	 0.00000000E+00	 0.00000000E+00
	 0.00000000E+00	 4.53784000E-13	 0.00000000E+00
	 0.00000000E+00	 0.00000000E+00	 4.53784000E-13

	 4.64852000E-13	 0.00000000E+00	 0.00000000E+00
	 0.00000000E+00	 4.64852000E-13	 0.00000000E+00
	 0.00000000E+00	 0.00000000E+00	 4.64852000E-13

	 4.62638000E-13	 0.00000000E+00	 0.00000000E+00
	 0.00000000E+00	 4.62638000E-13	 0.00000000E+00
	 0.00000000E+00	 0.00000000E+00	 4.62638000E-13

	 4.64852000E-13	 0.00000000E+00	 0.00000000E+00
	 0.00000000E+00	 4.64852000E-13	 0.00000000E+00
	 0.00000000E+00	 0.00000000E+00	 4.64852000E-13

	 4.62638000E-13	 0.00000000E+00	 0.00000000E+00
	 0.00000000E+00	 4.62638000E-13	 0.00000000E+00
	 0.00000000E+00	 0.00000000E+00	 4.62638000E-13

	 4.62954000E-13	 0.00000000E+00	 0.00000000E+00
	 0.00000000E+00	 4.62954000E-13	 0.00000000E+00
	 0.00000000E+00	 0.00000000E+00	 4.62954000E-13

	 4.64852000E-13	 0.00000000E+00	 0.00000000E+00
	 0.00000000E+00	 4.64852000E-13	 0.00000000E+00
	 0.00000000E+00	 0.00000000E+00	 4.64852000E-13

	 4.64852000E-13	 0.00000000E+00	 0.00000000E+00
	 0.00000000E+00	 4.64852000E-13	 0.00000000E+00
	 0.00000000E+00	 0.00000000E+00	 4.64852000E-13

	 4.62638000E-13	 0.00000000E+00	 0.00000000E+00
	 0.00000000E+00	 4.62638000E-13	 0.00000000E+00
	 0.00000000E+00	 0.00000000E+00	 4.62638000E-13

	 4.64852000E-13	 0.00000000E+00	 0.00000000E+00
	 0.00000000E+00	 4.64852000E-13	 0.00000000E+00
	 0.00000000E+00	 0.00000000E+00	 4.64852000E-13

	 4.60425000E-13	 0.00000000E+00	 0.00000000E+00
	 0.00000000E+00	 4.60425000E-13	 0.00000000E+00
	 0.00000000E+00	 0.00000000E+00	 4.60425000E-13

	 4.60425000E-13	 0.00000000E+00	 0.00000000E+00
	 0.00000000E+00	 4.60425000E-13	 0.00000000E+00
	 0.00000000E+00	 0.00000000E+00	 4.60425000E-13

	 4.64852000E-13	 0.00000000E+00	 0.00000000E+00
	 0.00000000E+00	 4.64852000E-13	 0.00000000E+00
	 0.00000000E+00	 0.00000000E+00	 4.64852000E-13

	 4.64852000E-13	 0.00000000E+00	 0.00000000E+00
	 0.00000000E+00	 4.64852000E-13	 0.00000000E+00
	 0.00000000E+00	 0.00000000E+00	 4.64852000E-13

	 4.64852000E-13	 0.00000000E+00	 0.00000000E+00
	 0.00000000E+00	 4.64852000E-13	 0.00000000E+00
	 0.00000000E+00	 0.00000000E+00	 4.64852000E-13

	 4.64852000E-13	 0.00000000E+00	 0.00000000E+00
	 0.00000000E+00	 4.64852000E-13	 0.00000000E+00
	 0.00000000E+00	 0.00000000E+00	 4.64852000E-13

	 4.64852000E-13	 0.00000000E+00	 0.00000000E+00
	 0.00000000E+00	 4.64852000E-13	 0.00000000E+00
	 0.00000000E+00	 0.00000000E+00	 4.64852000E-13

	 4.64852000E-13	 0.00000000E+00	 0.00000000E+00
	 0.00000000E+00	 4.64852000E-13	 0.00000000E+00
	 0.00000000E+00	 0.00000000E+00	 4.64852000E-13

	 4.64852000E-13	 0.00000000E+00	 0.00000000E+00
	 0.00000000E+00	 4.64852000E-13	 0.00000000E+00
	 0.00000000E+00	 0.00000000E+00	 4.64852000E-13

	 4.64852000E-13	 0.00000000E+00	 0.00000000E+00
	 0.00000000E+00	 4.64852000E-13	 0.00000000E+00
	 0.00000000E+00	 0.00000000E+00	 4.64852000E-13

	 4.64852000E-13	 0.00000000E+00	 0.00000000E+00
	 0.00000000E+00	 4.64852000E-13	 0.00000000E+00
	 0.00000000E+00	 0.00000000E+00	 4.64852000E-13

	 4.64852000E-13	 0.00000000E+00	 0.00000000E+00
	 0.00000000E+00	 4.64852000E-13	 0.00000000E+00
	 0.00000000E+00	 0.00000000E+00	 4.64852000E-13

	 4.64852000E-13	 0.00000000E+00	 0.00000000E+00
	 0.00000000E+00	 4.64852000E-13	 0.00000000E+00
	 0.00000000E+00	 0.00000000E+00	 4.64852000E-13

	 4.64852000E-13	 0.00000000E+00	 0.00000000E+00
	 0.00000000E+00	 4.64852000E-13	 0.00000000E+00
	 0.00000000E+00	 0.00000000E+00	 4.64852000E-13

	 4.64852000E-13	 0.00000000E+00	 0.00000000E+00
	 0.00000000E+00	 4.64852000E-13	 0.00000000E+00
	 0.00000000E+00	 0.00000000E+00	 4.64852000E-13

	 4.38289000E-13	 0.00000000E+00	 0.00000000E+00
	 0.00000000E+00	 4.38289000E-13	 0.00000000E+00
	 0.00000000E+00	 0.00000000E+00	 4.38289000E-13

	 4.38289000E-13	 0.00000000E+00	 0.00000000E+00
	 0.00000000E+00	 4.38289000E-13	 0.00000000E+00
	 0.00000000E+00	 0.00000000E+00	 4.38289000E-13

	 4.38289000E-13	 0.00000000E+00	 0.00000000E+00
	 0.00000000E+00	 4.38289000E-13	 0.00000000E+00
	 0.00000000E+00	 0.00000000E+00	 4.38289000E-13

	 4.42716000E-13	 0.00000000E+00	 0.00000000E+00
	 0.00000000E+00	 4.42716000E-13	 0.00000000E+00
	 0.00000000E+00	 0.00000000E+00	 4.42716000E-13

	 4.42083000E-13	 0.00000000E+00	 0.00000000E+00
	 0.00000000E+00	 4.42083000E-13	 0.00000000E+00
	 0.00000000E+00	 0.00000000E+00	 4.42083000E-13

	 4.38289000E-13	 0.00000000E+00	 0.00000000E+00
	 0.00000000E+00	 4.38289000E-13	 0.00000000E+00
	 0.00000000E+00	 0.00000000E+00	 4.38289000E-13

	 4.42716000E-13	 0.00000000E+00	 0.00000000E+00
	 0.00000000E+00	 4.42716000E-13	 0.00000000E+00
	 0.00000000E+00	 0.00000000E+00	 4.42716000E-13

	 4.38289000E-13	 0.00000000E+00	 0.00000000E+00
	 0.00000000E+00	 4.38289000E-13	 0.00000000E+00
	 0.00000000E+00	 0.00000000E+00	 4.38289000E-13

	 4.42083000E-13	 0.00000000E+00	 0.00000000E+00
	 0.00000000E+00	 4.42083000E-13	 0.00000000E+00
	 0.00000000E+00	 0.00000000E+00	 4.42083000E-13

	 4.42716000E-13	 0.00000000E+00	 0.00000000E+00
	 0.00000000E+00	 4.42716000E-13	 0.00000000E+00
	 0.00000000E+00	 0.00000000E+00	 4.42716000E-13

	 4.42716000E-13	 0.00000000E+00	 0.00000000E+00
	 0.00000000E+00	 4.42716000E-13	 0.00000000E+00
	 0.00000000E+00	 0.00000000E+00	 4.42716000E-13

	 4.42716000E-13	 0.00000000E+00	 0.00000000E+00
	 0.00000000E+00	 4.42716000E-13	 0.00000000E+00
	 0.00000000E+00	 0.00000000E+00	 4.42716000E-13

	 4.61057000E-13	 0.00000000E+00	 0.00000000E+00
	 0.00000000E+00	 4.61057000E-13	 0.00000000E+00
	 0.00000000E+00	 0.00000000E+00	 4.61057000E-13

	 4.64852000E-13	 0.00000000E+00	 0.00000000E+00
	 0.00000000E+00	 4.64852000E-13	 0.00000000E+00
	 0.00000000E+00	 0.00000000E+00	 4.64852000E-13

	 4.64852000E-13	 0.00000000E+00	 0.00000000E+00
	 0.00000000E+00	 4.64852000E-13	 0.00000000E+00
	 0.00000000E+00	 0.00000000E+00	 4.64852000E-13

	 4.64852000E-13	 0.00000000E+00	 0.00000000E+00
	 0.00000000E+00	 4.64852000E-13	 0.00000000E+00
	 0.00000000E+00	 0.00000000E+00	 4.64852000E-13

	 4.64852000E-13	 0.00000000E+00	 0.00000000E+00
	 0.00000000E+00	 4.64852000E-13	 0.00000000E+00
	 0.00000000E+00	 0.00000000E+00	 4.64852000E-13

	 4.64852000E-13	 0.00000000E+00	 0.00000000E+00
	 0.00000000E+00	 4.64852000E-13	 0.00000000E+00
	 0.00000000E+00	 0.00000000E+00	 4.64852000E-13

	 4.64852000E-13	 0.00000000E+00	 0.00000000E+00
	 0.00000000E+00	 4.64852000E-13	 0.00000000E+00
	 0.00000000E+00	 0.00000000E+00	 4.64852000E-13

	 4.64852000E-13	 0.00000000E+00	 0.00000000E+00
	 0.00000000E+00	 4.64852000E-13	 0.00000000E+00
	 0.00000000E+00	 0.00000000E+00	 4.64852000E-13

	 4.64852000E-13	 0.00000000E+00	 0.00000000E+00
	 0.00000000E+00	 4.64852000E-13	 0.00000000E+00
	 0.00000000E+00	 0.00000000E+00	 4.64852000E-13

	 4.64852000E-13	 0.00000000E+00	 0.00000000E+00
	 0.00000000E+00	 4.64852000E-13	 0.00000000E+00
	 0.00000000E+00	 0.00000000E+00	 4.64852000E-13

	 4.64852000E-13	 0.00000000E+00	 0.00000000E+00
	 0.00000000E+00	 4.64852000E-13	 0.00000000E+00
	 0.00000000E+00	 0.00000000E+00	 4.64852000E-13

	 4.64852000E-13	 0.00000000E+00	 0.00000000E+00
	 0.00000000E+00	 4.64852000E-13	 0.00000000E+00
	 0.00000000E+00	 0.00000000E+00	 4.64852000E-13

	 4.64852000E-13	 0.00000000E+00	 0.00000000E+00
	 0.00000000E+00	 4.64852000E-13	 0.00000000E+00
	 0.00000000E+00	 0.00000000E+00	 4.64852000E-13

	 4.64852000E-13	 0.00000000E+00	 0.00000000E+00
	 0.00000000E+00	 4.64852000E-13	 0.00000000E+00
	 0.00000000E+00	 0.00000000E+00	 4.64852000E-13

	 4.64852000E-13	 0.00000000E+00	 0.00000000E+00
	 0.00000000E+00	 4.64852000E-13	 0.00000000E+00
	 0.00000000E+00	 0.00000000E+00	 4.64852000E-13

	 4.64852000E-13	 0.00000000E+00	 0.00000000E+00
	 0.00000000E+00	 4.64852000E-13	 0.00000000E+00
	 0.00000000E+00	 0.00000000E+00	 4.64852000E-13

	 4.64852000E-13	 0.00000000E+00	 0.00000000E+00
	 0.00000000E+00	 4.64852000E-13	 0.00000000E+00
	 0.00000000E+00	 0.00000000E+00	 4.64852000E-13

	 4.64852000E-13	 0.00000000E+00	 0.00000000E+00
	 0.00000000E+00	 4.64852000E-13	 0.00000000E+00
	 0.00000000E+00	 0.00000000E+00	 4.64852000E-13

	 4.38289000E-13	 0.00000000E+00	 0.00000000E+00
	 0.00000000E+00	 4.38289000E-13	 0.00000000E+00
	 0.00000000E+00	 0.00000000E+00	 4.38289000E-13

	 4.38289000E-13	 0.00000000E+00	 0.00000000E+00
	 0.00000000E+00	 4.38289000E-13	 0.00000000E+00
	 0.00000000E+00	 0.00000000E+00	 4.38289000E-13

	 4.38289000E-13	 0.00000000E+00	 0.00000000E+00
	 0.00000000E+00	 4.38289000E-13	 0.00000000E+00
	 0.00000000E+00	 0.00000000E+00	 4.38289000E-13

	 4.38289000E-13	 0.00000000E+00	 0.00000000E+00
	 0.00000000E+00	 4.38289000E-13	 0.00000000E+00
	 0.00000000E+00	 0.00000000E+00	 4.38289000E-13

	 4.38289000E-13	 0.00000000E+00	 0.00000000E+00
	 0.00000000E+00	 4.38289000E-13	 0.00000000E+00
	 0.00000000E+00	 0.00000000E+00	 4.38289000E-13

	 4.38289000E-13	 0.00000000E+00	 0.00000000E+00
	 0.00000000E+00	 4.38289000E-13	 0.00000000E+00
	 0.00000000E+00	 0.00000000E+00	 4.38289000E-13

	 4.38289000E-13	 0.00000000E+00	 0.00000000E+00
	 0.00000000E+00	 4.38289000E-13	 0.00000000E+00
	 0.00000000E+00	 0.00000000E+00	 4.38289000E-13

	 4.64852000E-13	 0.00000000E+00	 0.00000000E+00
	 0.00000000E+00	 4.64852000E-13	 0.00000000E+00
	 0.00000000E+00	 0.00000000E+00	 4.64852000E-13

	 4.38289000E-13	 0.00000000E+00	 0.00000000E+00
	 0.00000000E+00	 4.38289000E-13	 0.00000000E+00
	 0.00000000E+00	 0.00000000E+00	 4.38289000E-13

	 4.60425000E-13	 0.00000000E+00	 0.00000000E+00
	 0.00000000E+00	 4.60425000E-13	 0.00000000E+00
	 0.00000000E+00	 0.00000000E+00	 4.60425000E-13

	 4.38289000E-13	 0.00000000E+00	 0.00000000E+00
	 0.00000000E+00	 4.38289000E-13	 0.00000000E+00
	 0.00000000E+00	 0.00000000E+00	 4.38289000E-13

	 4.64852000E-13	 0.00000000E+00	 0.00000000E+00
	 0.00000000E+00	 4.64852000E-13	 0.00000000E+00
	 0.00000000E+00	 0.00000000E+00	 4.64852000E-13

	 4.49357000E-13	 0.00000000E+00	 0.00000000E+00
	 0.00000000E+00	 4.49357000E-13	 0.00000000E+00
	 0.00000000E+00	 0.00000000E+00	 4.49357000E-13

	 4.44929000E-13	 0.00000000E+00	 0.00000000E+00
	 0.00000000E+00	 4.44929000E-13	 0.00000000E+00
	 0.00000000E+00	 0.00000000E+00	 4.44929000E-13

	 4.64852000E-13	 0.00000000E+00	 0.00000000E+00
	 0.00000000E+00	 4.64852000E-13	 0.00000000E+00
	 0.00000000E+00	 0.00000000E+00	 4.64852000E-13

	 4.64852000E-13	 0.00000000E+00	 0.00000000E+00
	 0.00000000E+00	 4.64852000E-13	 0.00000000E+00
	 0.00000000E+00	 0.00000000E+00	 4.64852000E-13

	 4.64852000E-13	 0.00000000E+00	 0.00000000E+00
	 0.00000000E+00	 4.64852000E-13	 0.00000000E+00
	 0.00000000E+00	 0.00000000E+00	 4.64852000E-13

	 4.64852000E-13	 0.00000000E+00	 0.00000000E+00
	 0.00000000E+00	 4.64852000E-13	 0.00000000E+00
	 0.00000000E+00	 0.00000000E+00	 4.64852000E-13

	 4.64852000E-13	 0.00000000E+00	 0.00000000E+00
	 0.00000000E+00	 4.64852000E-13	 0.00000000E+00
	 0.00000000E+00	 0.00000000E+00	 4.64852000E-13

	 4.64852000E-13	 0.00000000E+00	 0.00000000E+00
	 0.00000000E+00	 4.64852000E-13	 0.00000000E+00
	 0.00000000E+00	 0.00000000E+00	 4.64852000E-13

	 4.64852000E-13	 0.00000000E+00	 0.00000000E+00
	 0.00000000E+00	 4.64852000E-13	 0.00000000E+00
	 0.00000000E+00	 0.00000000E+00	 4.64852000E-13

	 4.60425000E-13	 0.00000000E+00	 0.00000000E+00
	 0.00000000E+00	 4.60425000E-13	 0.00000000E+00
	 0.00000000E+00	 0.00000000E+00	 4.60425000E-13

	 4.64852000E-13	 0.00000000E+00	 0.00000000E+00
	 0.00000000E+00	 4.64852000E-13	 0.00000000E+00
	 0.00000000E+00	 0.00000000E+00	 4.64852000E-13

	 4.62638000E-13	 0.00000000E+00	 0.00000000E+00
	 0.00000000E+00	 4.62638000E-13	 0.00000000E+00
	 0.00000000E+00	 0.00000000E+00	 4.62638000E-13

	 4.44929000E-13	 0.00000000E+00	 0.00000000E+00
	 0.00000000E+00	 4.44929000E-13	 0.00000000E+00
	 0.00000000E+00	 0.00000000E+00	 4.44929000E-13

	 4.55997000E-13	 0.00000000E+00	 0.00000000E+00
	 0.00000000E+00	 4.55997000E-13	 0.00000000E+00
	 0.00000000E+00	 0.00000000E+00	 4.55997000E-13

	 4.38289000E-13	 0.00000000E+00	 0.00000000E+00
	 0.00000000E+00	 4.38289000E-13	 0.00000000E+00
	 0.00000000E+00	 0.00000000E+00	 4.38289000E-13

	 4.38289000E-13	 0.00000000E+00	 0.00000000E+00
	 0.00000000E+00	 4.38289000E-13	 0.00000000E+00
	 0.00000000E+00	 0.00000000E+00	 4.38289000E-13

	 4.64852000E-13	 0.00000000E+00	 0.00000000E+00
	 0.00000000E+00	 4.64852000E-13	 0.00000000E+00
	 0.00000000E+00	 0.00000000E+00	 4.64852000E-13

	 4.64852000E-13	 0.00000000E+00	 0.00000000E+00
	 0.00000000E+00	 4.64852000E-13	 0.00000000E+00
	 0.00000000E+00	 0.00000000E+00	 4.64852000E-13

	 4.64852000E-13	 0.00000000E+00	 0.00000000E+00
	 0.00000000E+00	 4.64852000E-13	 0.00000000E+00
	 0.00000000E+00	 0.00000000E+00	 4.64852000E-13

	 4.64852000E-13	 0.00000000E+00	 0.00000000E+00
	 0.00000000E+00	 4.64852000E-13	 0.00000000E+00
	 0.00000000E+00	 0.00000000E+00	 4.64852000E-13

	 4.64852000E-13	 0.00000000E+00	 0.00000000E+00
	 0.00000000E+00	 4.64852000E-13	 0.00000000E+00
	 0.00000000E+00	 0.00000000E+00	 4.64852000E-13

	 4.64852000E-13	 0.00000000E+00	 0.00000000E+00
	 0.00000000E+00	 4.64852000E-13	 0.00000000E+00
	 0.00000000E+00	 0.00000000E+00	 4.64852000E-13

	 4.64852000E-13	 0.00000000E+00	 0.00000000E+00
	 0.00000000E+00	 4.64852000E-13	 0.00000000E+00
	 0.00000000E+00	 0.00000000E+00	 4.64852000E-13

	 4.64852000E-13	 0.00000000E+00	 0.00000000E+00
	 0.00000000E+00	 4.64852000E-13	 0.00000000E+00
	 0.00000000E+00	 0.00000000E+00	 4.64852000E-13

	 4.49357000E-13	 0.00000000E+00	 0.00000000E+00
	 0.00000000E+00	 4.49357000E-13	 0.00000000E+00
	 0.00000000E+00	 0.00000000E+00	 4.49357000E-13

	 4.40502000E-13	 0.00000000E+00	 0.00000000E+00
	 0.00000000E+00	 4.40502000E-13	 0.00000000E+00
	 0.00000000E+00	 0.00000000E+00	 4.40502000E-13

	 4.38289000E-13	 0.00000000E+00	 0.00000000E+00
	 0.00000000E+00	 4.38289000E-13	 0.00000000E+00
	 0.00000000E+00	 0.00000000E+00	 4.38289000E-13

	 4.40502000E-13	 0.00000000E+00	 0.00000000E+00
	 0.00000000E+00	 4.40502000E-13	 0.00000000E+00
	 0.00000000E+00	 0.00000000E+00	 4.40502000E-13

	 4.40502000E-13	 0.00000000E+00	 0.00000000E+00
	 0.00000000E+00	 4.40502000E-13	 0.00000000E+00
	 0.00000000E+00	 0.00000000E+00	 4.40502000E-13

	 4.38289000E-13	 0.00000000E+00	 0.00000000E+00
	 0.00000000E+00	 4.38289000E-13	 0.00000000E+00
	 0.00000000E+00	 0.00000000E+00	 4.38289000E-13

	 4.44929000E-13	 0.00000000E+00	 0.00000000E+00
	 0.00000000E+00	 4.44929000E-13	 0.00000000E+00
	 0.00000000E+00	 0.00000000E+00	 4.44929000E-13

	 4.42716000E-13	 0.00000000E+00	 0.00000000E+00
	 0.00000000E+00	 4.42716000E-13	 0.00000000E+00
	 0.00000000E+00	 0.00000000E+00	 4.42716000E-13

	 4.58211000E-13	 0.00000000E+00	 0.00000000E+00
	 0.00000000E+00	 4.58211000E-13	 0.00000000E+00
	 0.00000000E+00	 0.00000000E+00	 4.58211000E-13

	 4.42716000E-13	 0.00000000E+00	 0.00000000E+00
	 0.00000000E+00	 4.42716000E-13	 0.00000000E+00
	 0.00000000E+00	 0.00000000E+00	 4.42716000E-13

	 4.64852000E-13	 0.00000000E+00	 0.00000000E+00
	 0.00000000E+00	 4.64852000E-13	 0.00000000E+00
	 0.00000000E+00	 0.00000000E+00	 4.64852000E-13

	 4.64852000E-13	 0.00000000E+00	 0.00000000E+00
	 0.00000000E+00	 4.64852000E-13	 0.00000000E+00
	 0.00000000E+00	 0.00000000E+00	 4.64852000E-13

	 4.64852000E-13	 0.00000000E+00	 0.00000000E+00
	 0.00000000E+00	 4.64852000E-13	 0.00000000E+00
	 0.00000000E+00	 0.00000000E+00	 4.64852000E-13

	 4.64852000E-13	 0.00000000E+00	 0.00000000E+00
	 0.00000000E+00	 4.64852000E-13	 0.00000000E+00
	 0.00000000E+00	 0.00000000E+00	 4.64852000E-13

	 4.64852000E-13	 0.00000000E+00	 0.00000000E+00
	 0.00000000E+00	 4.64852000E-13	 0.00000000E+00
	 0.00000000E+00	 0.00000000E+00	 4.64852000E-13

	 4.38289000E-13	 0.00000000E+00	 0.00000000E+00
	 0.00000000E+00	 4.38289000E-13	 0.00000000E+00
	 0.00000000E+00	 0.00000000E+00	 4.38289000E-13

	 4.55997000E-13	 0.00000000E+00	 0.00000000E+00
	 0.00000000E+00	 4.55997000E-13	 0.00000000E+00
	 0.00000000E+00	 0.00000000E+00	 4.55997000E-13

	 4.64852000E-13	 0.00000000E+00	 0.00000000E+00
	 0.00000000E+00	 4.64852000E-13	 0.00000000E+00
	 0.00000000E+00	 0.00000000E+00	 4.64852000E-13

	 4.64852000E-13	 0.00000000E+00	 0.00000000E+00
	 0.00000000E+00	 4.64852000E-13	 0.00000000E+00
	 0.00000000E+00	 0.00000000E+00	 4.64852000E-13

	 4.38289000E-13	 0.00000000E+00	 0.00000000E+00
	 0.00000000E+00	 4.38289000E-13	 0.00000000E+00
	 0.00000000E+00	 0.00000000E+00	 4.38289000E-13

	 4.38289000E-13	 0.00000000E+00	 0.00000000E+00
	 0.00000000E+00	 4.38289000E-13	 0.00000000E+00
	 0.00000000E+00	 0.00000000E+00	 4.38289000E-13

	 4.40502000E-13	 0.00000000E+00	 0.00000000E+00
	 0.00000000E+00	 4.40502000E-13	 0.00000000E+00
	 0.00000000E+00	 0.00000000E+00	 4.40502000E-13

	 4.60425000E-13	 0.00000000E+00	 0.00000000E+00
	 0.00000000E+00	 4.60425000E-13	 0.00000000E+00
	 0.00000000E+00	 0.00000000E+00	 4.60425000E-13

	 4.55997000E-13	 0.00000000E+00	 0.00000000E+00
	 0.00000000E+00	 4.55997000E-13	 0.00000000E+00
	 0.00000000E+00	 0.00000000E+00	 4.55997000E-13

	 4.64852000E-13	 0.00000000E+00	 0.00000000E+00
	 0.00000000E+00	 4.64852000E-13	 0.00000000E+00
	 0.00000000E+00	 0.00000000E+00	 4.64852000E-13

	 4.64852000E-13	 0.00000000E+00	 0.00000000E+00
	 0.00000000E+00	 4.64852000E-13	 0.00000000E+00
	 0.00000000E+00	 0.00000000E+00	 4.64852000E-13

	 4.58211000E-13	 0.00000000E+00	 0.00000000E+00
	 0.00000000E+00	 4.58211000E-13	 0.00000000E+00
	 0.00000000E+00	 0.00000000E+00	 4.58211000E-13

	 4.38289000E-13	 0.00000000E+00	 0.00000000E+00
	 0.00000000E+00	 4.38289000E-13	 0.00000000E+00
	 0.00000000E+00	 0.00000000E+00	 4.38289000E-13

	 4.49357000E-13	 0.00000000E+00	 0.00000000E+00
	 0.00000000E+00	 4.49357000E-13	 0.00000000E+00
	 0.00000000E+00	 0.00000000E+00	 4.49357000E-13

	 4.42716000E-13	 0.00000000E+00	 0.00000000E+00
	 0.00000000E+00	 4.42716000E-13	 0.00000000E+00
	 0.00000000E+00	 0.00000000E+00	 4.42716000E-13

	 4.40502000E-13	 0.00000000E+00	 0.00000000E+00
	 0.00000000E+00	 4.40502000E-13	 0.00000000E+00
	 0.00000000E+00	 0.00000000E+00	 4.40502000E-13

	 4.49357000E-13	 0.00000000E+00	 0.00000000E+00
	 0.00000000E+00	 4.49357000E-13	 0.00000000E+00
	 0.00000000E+00	 0.00000000E+00	 4.49357000E-13

	 4.40502000E-13	 0.00000000E+00	 0.00000000E+00
	 0.00000000E+00	 4.40502000E-13	 0.00000000E+00
	 0.00000000E+00	 0.00000000E+00	 4.40502000E-13

	 4.55997000E-13	 0.00000000E+00	 0.00000000E+00
	 0.00000000E+00	 4.55997000E-13	 0.00000000E+00
	 0.00000000E+00	 0.00000000E+00	 4.55997000E-13

	 4.42716000E-13	 0.00000000E+00	 0.00000000E+00
	 0.00000000E+00	 4.42716000E-13	 0.00000000E+00
	 0.00000000E+00	 0.00000000E+00	 4.42716000E-13

	 4.64852000E-13	 0.00000000E+00	 0.00000000E+00
	 0.00000000E+00	 4.64852000E-13	 0.00000000E+00
	 0.00000000E+00	 0.00000000E+00	 4.64852000E-13

	 4.64852000E-13	 0.00000000E+00	 0.00000000E+00
	 0.00000000E+00	 4.64852000E-13	 0.00000000E+00
	 0.00000000E+00	 0.00000000E+00	 4.64852000E-13

	 4.44929000E-13	 0.00000000E+00	 0.00000000E+00
	 0.00000000E+00	 4.44929000E-13	 0.00000000E+00
	 0.00000000E+00	 0.00000000E+00	 4.44929000E-13

	 4.42716000E-13	 0.00000000E+00	 0.00000000E+00
	 0.00000000E+00	 4.42716000E-13	 0.00000000E+00
	 0.00000000E+00	 0.00000000E+00	 4.42716000E-13

	 4.38289000E-13	 0.00000000E+00	 0.00000000E+00
	 0.00000000E+00	 4.38289000E-13	 0.00000000E+00
	 0.00000000E+00	 0.00000000E+00	 4.38289000E-13

	 4.42716000E-13	 0.00000000E+00	 0.00000000E+00
	 0.00000000E+00	 4.42716000E-13	 0.00000000E+00
	 0.00000000E+00	 0.00000000E+00	 4.42716000E-13

	 4.38289000E-13	 0.00000000E+00	 0.00000000E+00
	 0.00000000E+00	 4.38289000E-13	 0.00000000E+00
	 0.00000000E+00	 0.00000000E+00	 4.38289000E-13

	 4.53784000E-13	 0.00000000E+00	 0.00000000E+00
	 0.00000000E+00	 4.53784000E-13	 0.00000000E+00
	 0.00000000E+00	 0.00000000E+00	 4.53784000E-13

	 4.64852000E-13	 0.00000000E+00	 0.00000000E+00
	 0.00000000E+00	 4.64852000E-13	 0.00000000E+00
	 0.00000000E+00	 0.00000000E+00	 4.64852000E-13

	 4.62638000E-13	 0.00000000E+00	 0.00000000E+00
	 0.00000000E+00	 4.62638000E-13	 0.00000000E+00
	 0.00000000E+00	 0.00000000E+00	 4.62638000E-13

	 4.64852000E-13	 0.00000000E+00	 0.00000000E+00
	 0.00000000E+00	 4.64852000E-13	 0.00000000E+00
	 0.00000000E+00	 0.00000000E+00	 4.64852000E-13

	 4.49357000E-13	 0.00000000E+00	 0.00000000E+00
	 0.00000000E+00	 4.49357000E-13	 0.00000000E+00
	 0.00000000E+00	 0.00000000E+00	 4.49357000E-13

	 4.44929000E-13	 0.00000000E+00	 0.00000000E+00
	 0.00000000E+00	 4.44929000E-13	 0.00000000E+00
	 0.00000000E+00	 0.00000000E+00	 4.44929000E-13

	 4.51570000E-13	 0.00000000E+00	 0.00000000E+00
	 0.00000000E+00	 4.51570000E-13	 0.00000000E+00
	 0.00000000E+00	 0.00000000E+00	 4.51570000E-13

	 4.55997000E-13	 0.00000000E+00	 0.00000000E+00
	 0.00000000E+00	 4.55997000E-13	 0.00000000E+00
	 0.00000000E+00	 0.00000000E+00	 4.55997000E-13

	 4.64852000E-13	 0.00000000E+00	 0.00000000E+00
	 0.00000000E+00	 4.64852000E-13	 0.00000000E+00
	 0.00000000E+00	 0.00000000E+00	 4.64852000E-13

	 4.60425000E-13	 0.00000000E+00	 0.00000000E+00
	 0.00000000E+00	 4.60425000E-13	 0.00000000E+00
	 0.00000000E+00	 0.00000000E+00	 4.60425000E-13

	 4.47143000E-13	 0.00000000E+00	 0.00000000E+00
	 0.00000000E+00	 4.47143000E-13	 0.00000000E+00
	 0.00000000E+00	 0.00000000E+00	 4.47143000E-13

	 4.47143000E-13	 0.00000000E+00	 0.00000000E+00
	 0.00000000E+00	 4.47143000E-13	 0.00000000E+00
	 0.00000000E+00	 0.00000000E+00	 4.47143000E-13

	 4.64852000E-13	 0.00000000E+00	 0.00000000E+00
	 0.00000000E+00	 4.64852000E-13	 0.00000000E+00
	 0.00000000E+00	 0.00000000E+00	 4.64852000E-13

	 4.38289000E-13	 0.00000000E+00	 0.00000000E+00
	 0.00000000E+00	 4.38289000E-13	 0.00000000E+00
	 0.00000000E+00	 0.00000000E+00	 4.38289000E-13

	 4.64852000E-13	 0.00000000E+00	 0.00000000E+00
	 0.00000000E+00	 4.64852000E-13	 0.00000000E+00
	 0.00000000E+00	 0.00000000E+00	 4.64852000E-13

	 4.47143000E-13	 0.00000000E+00	 0.00000000E+00
	 0.00000000E+00	 4.47143000E-13	 0.00000000E+00
	 0.00000000E+00	 0.00000000E+00	 4.47143000E-13

	 4.42716000E-13	 0.00000000E+00	 0.00000000E+00
	 0.00000000E+00	 4.42716000E-13	 0.00000000E+00
	 0.00000000E+00	 0.00000000E+00	 4.42716000E-13

	 4.61057000E-13	 0.00000000E+00	 0.00000000E+00
	 0.00000000E+00	 4.61057000E-13	 0.00000000E+00
	 0.00000000E+00	 0.00000000E+00	 4.61057000E-13

	 4.49357000E-13	 0.00000000E+00	 0.00000000E+00
	 0.00000000E+00	 4.49357000E-13	 0.00000000E+00
	 0.00000000E+00	 0.00000000E+00	 4.49357000E-13

	 4.38289000E-13	 0.00000000E+00	 0.00000000E+00
	 0.00000000E+00	 4.38289000E-13	 0.00000000E+00
	 0.00000000E+00	 0.00000000E+00	 4.38289000E-13

	 4.42716000E-13	 0.00000000E+00	 0.00000000E+00
	 0.00000000E+00	 4.42716000E-13	 0.00000000E+00
	 0.00000000E+00	 0.00000000E+00	 4.42716000E-13

	 4.38289000E-13	 0.00000000E+00	 0.00000000E+00
	 0.00000000E+00	 4.38289000E-13	 0.00000000E+00
	 0.00000000E+00	 0.00000000E+00	 4.38289000E-13

	 4.47143000E-13	 0.00000000E+00	 0.00000000E+00
	 0.00000000E+00	 4.47143000E-13	 0.00000000E+00
	 0.00000000E+00	 0.00000000E+00	 4.47143000E-13

	 4.64852000E-13	 0.00000000E+00	 0.00000000E+00
	 0.00000000E+00	 4.64852000E-13	 0.00000000E+00
	 0.00000000E+00	 0.00000000E+00	 4.64852000E-13

	 4.38289000E-13	 0.00000000E+00	 0.00000000E+00
	 0.00000000E+00	 4.38289000E-13	 0.00000000E+00
	 0.00000000E+00	 0.00000000E+00	 4.38289000E-13

	 4.42716000E-13	 0.00000000E+00	 0.00000000E+00
	 0.00000000E+00	 4.42716000E-13	 0.00000000E+00
	 0.00000000E+00	 0.00000000E+00	 4.42716000E-13

	 4.64852000E-13	 0.00000000E+00	 0.00000000E+00
	 0.00000000E+00	 4.64852000E-13	 0.00000000E+00
	 0.00000000E+00	 0.00000000E+00	 4.64852000E-13

	 4.64852000E-13	 0.00000000E+00	 0.00000000E+00
	 0.00000000E+00	 4.64852000E-13	 0.00000000E+00
	 0.00000000E+00	 0.00000000E+00	 4.64852000E-13

	 4.60425000E-13	 0.00000000E+00	 0.00000000E+00
	 0.00000000E+00	 4.60425000E-13	 0.00000000E+00
	 0.00000000E+00	 0.00000000E+00	 4.60425000E-13

	 4.62638000E-13	 0.00000000E+00	 0.00000000E+00
	 0.00000000E+00	 4.62638000E-13	 0.00000000E+00
	 0.00000000E+00	 0.00000000E+00	 4.62638000E-13

	 4.42716000E-13	 0.00000000E+00	 0.00000000E+00
	 0.00000000E+00	 4.42716000E-13	 0.00000000E+00
	 0.00000000E+00	 0.00000000E+00	 4.42716000E-13

	 4.47143000E-13	 0.00000000E+00	 0.00000000E+00
	 0.00000000E+00	 4.47143000E-13	 0.00000000E+00
	 0.00000000E+00	 0.00000000E+00	 4.47143000E-13

	 4.44929000E-13	 0.00000000E+00	 0.00000000E+00
	 0.00000000E+00	 4.44929000E-13	 0.00000000E+00
	 0.00000000E+00	 0.00000000E+00	 4.44929000E-13

	 4.38289000E-13	 0.00000000E+00	 0.00000000E+00
	 0.00000000E+00	 4.38289000E-13	 0.00000000E+00
	 0.00000000E+00	 0.00000000E+00	 4.38289000E-13

	 4.38289000E-13	 0.00000000E+00	 0.00000000E+00
	 0.00000000E+00	 4.38289000E-13	 0.00000000E+00
	 0.00000000E+00	 0.00000000E+00	 4.38289000E-13

	 4.51570000E-13	 0.00000000E+00	 0.00000000E+00
	 0.00000000E+00	 4.51570000E-13	 0.00000000E+00
	 0.00000000E+00	 0.00000000E+00	 4.51570000E-13

	 4.55997000E-13	 0.00000000E+00	 0.00000000E+00
	 0.00000000E+00	 4.55997000E-13	 0.00000000E+00
	 0.00000000E+00	 0.00000000E+00	 4.55997000E-13

	 4.64852000E-13	 0.00000000E+00	 0.00000000E+00
	 0.00000000E+00	 4.64852000E-13	 0.00000000E+00
	 0.00000000E+00	 0.00000000E+00	 4.64852000E-13

	 4.64852000E-13	 0.00000000E+00	 0.00000000E+00
	 0.00000000E+00	 4.64852000E-13	 0.00000000E+00
	 0.00000000E+00	 0.00000000E+00	 4.64852000E-13

	 4.64852000E-13	 0.00000000E+00	 0.00000000E+00
	 0.00000000E+00	 4.64852000E-13	 0.00000000E+00
	 0.00000000E+00	 0.00000000E+00	 4.64852000E-13

	 4.64852000E-13	 0.00000000E+00	 0.00000000E+00
	 0.00000000E+00	 4.64852000E-13	 0.00000000E+00
	 0.00000000E+00	 0.00000000E+00	 4.64852000E-13

	 4.64852000E-13	 0.00000000E+00	 0.00000000E+00
	 0.00000000E+00	 4.64852000E-13	 0.00000000E+00
	 0.00000000E+00	 0.00000000E+00	 4.64852000E-13

	 4.64852000E-13	 0.00000000E+00	 0.00000000E+00
	 0.00000000E+00	 4.64852000E-13	 0.00000000E+00
	 0.00000000E+00	 0.00000000E+00	 4.64852000E-13

	 4.44929000E-13	 0.00000000E+00	 0.00000000E+00
	 0.00000000E+00	 4.44929000E-13	 0.00000000E+00
	 0.00000000E+00	 0.00000000E+00	 4.44929000E-13

	 4.38289000E-13	 0.00000000E+00	 0.00000000E+00
	 0.00000000E+00	 4.38289000E-13	 0.00000000E+00
	 0.00000000E+00	 0.00000000E+00	 4.38289000E-13

	 4.64852000E-13	 0.00000000E+00	 0.00000000E+00
	 0.00000000E+00	 4.64852000E-13	 0.00000000E+00
	 0.00000000E+00	 0.00000000E+00	 4.64852000E-13

	 4.51570000E-13	 0.00000000E+00	 0.00000000E+00
	 0.00000000E+00	 4.51570000E-13	 0.00000000E+00
	 0.00000000E+00	 0.00000000E+00	 4.51570000E-13

	 4.38289000E-13	 0.00000000E+00	 0.00000000E+00
	 0.00000000E+00	 4.38289000E-13	 0.00000000E+00
	 0.00000000E+00	 0.00000000E+00	 4.38289000E-13

	 4.64852000E-13	 0.00000000E+00	 0.00000000E+00
	 0.00000000E+00	 4.64852000E-13	 0.00000000E+00
	 0.00000000E+00	 0.00000000E+00	 4.64852000E-13

	 4.42716000E-13	 0.00000000E+00	 0.00000000E+00
	 0.00000000E+00	 4.42716000E-13	 0.00000000E+00
	 0.00000000E+00	 0.00000000E+00	 4.42716000E-13

	 4.38289000E-13	 0.00000000E+00	 0.00000000E+00
	 0.00000000E+00	 4.38289000E-13	 0.00000000E+00
	 0.00000000E+00	 0.00000000E+00	 4.38289000E-13

	 4.64852000E-13	 0.00000000E+00	 0.00000000E+00
	 0.00000000E+00	 4.64852000E-13	 0.00000000E+00
	 0.00000000E+00	 0.00000000E+00	 4.64852000E-13

	 4.64852000E-13	 0.00000000E+00	 0.00000000E+00
	 0.00000000E+00	 4.64852000E-13	 0.00000000E+00
	 0.00000000E+00	 0.00000000E+00	 4.64852000E-13

	 4.49357000E-13	 0.00000000E+00	 0.00000000E+00
	 0.00000000E+00	 4.49357000E-13	 0.00000000E+00
	 0.00000000E+00	 0.00000000E+00	 4.49357000E-13

	 4.38289000E-13	 0.00000000E+00	 0.00000000E+00
	 0.00000000E+00	 4.38289000E-13	 0.00000000E+00
	 0.00000000E+00	 0.00000000E+00	 4.38289000E-13

	 4.53784000E-13	 0.00000000E+00	 0.00000000E+00
	 0.00000000E+00	 4.53784000E-13	 0.00000000E+00
	 0.00000000E+00	 0.00000000E+00	 4.53784000E-13

	 4.38289000E-13	 0.00000000E+00	 0.00000000E+00
	 0.00000000E+00	 4.38289000E-13	 0.00000000E+00
	 0.00000000E+00	 0.00000000E+00	 4.38289000E-13

	 4.47143000E-13	 0.00000000E+00	 0.00000000E+00
	 0.00000000E+00	 4.47143000E-13	 0.00000000E+00
	 0.00000000E+00	 0.00000000E+00	 4.47143000E-13

	 4.64852000E-13	 0.00000000E+00	 0.00000000E+00
	 0.00000000E+00	 4.64852000E-13	 0.00000000E+00
	 0.00000000E+00	 0.00000000E+00	 4.64852000E-13

	 4.53784000E-13	 0.00000000E+00	 0.00000000E+00
	 0.00000000E+00	 4.53784000E-13	 0.00000000E+00
	 0.00000000E+00	 0.00000000E+00	 4.53784000E-13

	 4.44929000E-13	 0.00000000E+00	 0.00000000E+00
	 0.00000000E+00	 4.44929000E-13	 0.00000000E+00
	 0.00000000E+00	 0.00000000E+00	 4.44929000E-13

	 4.62638000E-13	 0.00000000E+00	 0.00000000E+00
	 0.00000000E+00	 4.62638000E-13	 0.00000000E+00
	 0.00000000E+00	 0.00000000E+00	 4.62638000E-13

	 4.60425000E-13	 0.00000000E+00	 0.00000000E+00
	 0.00000000E+00	 4.60425000E-13	 0.00000000E+00
	 0.00000000E+00	 0.00000000E+00	 4.60425000E-13

	 4.55997000E-13	 0.00000000E+00	 0.00000000E+00
	 0.00000000E+00	 4.55997000E-13	 0.00000000E+00
	 0.00000000E+00	 0.00000000E+00	 4.55997000E-13

	 4.55997000E-13	 0.00000000E+00	 0.00000000E+00
	 0.00000000E+00	 4.55997000E-13	 0.00000000E+00
	 0.00000000E+00	 0.00000000E+00	 4.55997000E-13

	 4.60425000E-13	 0.00000000E+00	 0.00000000E+00
	 0.00000000E+00	 4.60425000E-13	 0.00000000E+00
	 0.00000000E+00	 0.00000000E+00	 4.60425000E-13

	 4.49357000E-13	 0.00000000E+00	 0.00000000E+00
	 0.00000000E+00	 4.49357000E-13	 0.00000000E+00
	 0.00000000E+00	 0.00000000E+00	 4.49357000E-13

	 4.38289000E-13	 0.00000000E+00	 0.00000000E+00
	 0.00000000E+00	 4.38289000E-13	 0.00000000E+00
	 0.00000000E+00	 0.00000000E+00	 4.38289000E-13

	 4.64852000E-13	 0.00000000E+00	 0.00000000E+00
	 0.00000000E+00	 4.64852000E-13	 0.00000000E+00
	 0.00000000E+00	 0.00000000E+00	 4.64852000E-13

	 4.55997000E-13	 0.00000000E+00	 0.00000000E+00
	 0.00000000E+00	 4.55997000E-13	 0.00000000E+00
	 0.00000000E+00	 0.00000000E+00	 4.55997000E-13

	 4.55997000E-13	 0.00000000E+00	 0.00000000E+00
	 0.00000000E+00	 4.55997000E-13	 0.00000000E+00
	 0.00000000E+00	 0.00000000E+00	 4.55997000E-13

	 4.62638000E-13	 0.00000000E+00	 0.00000000E+00
	 0.00000000E+00	 4.62638000E-13	 0.00000000E+00
	 0.00000000E+00	 0.00000000E+00	 4.62638000E-13

	 4.42716000E-13	 0.00000000E+00	 0.00000000E+00
	 0.00000000E+00	 4.42716000E-13	 0.00000000E+00
	 0.00000000E+00	 0.00000000E+00	 4.42716000E-13

	 4.38289000E-13	 0.00000000E+00	 0.00000000E+00
	 0.00000000E+00	 4.38289000E-13	 0.00000000E+00
	 0.00000000E+00	 0.00000000E+00	 4.38289000E-13

	 4.44929000E-13	 0.00000000E+00	 0.00000000E+00
	 0.00000000E+00	 4.44929000E-13	 0.00000000E+00
	 0.00000000E+00	 0.00000000E+00	 4.44929000E-13

	 4.38289000E-13	 0.00000000E+00	 0.00000000E+00
	 0.00000000E+00	 4.38289000E-13	 0.00000000E+00
	 0.00000000E+00	 0.00000000E+00	 4.38289000E-13

	 4.64852000E-13	 0.00000000E+00	 0.00000000E+00
	 0.00000000E+00	 4.64852000E-13	 0.00000000E+00
	 0.00000000E+00	 0.00000000E+00	 4.64852000E-13

	 4.49357000E-13	 0.00000000E+00	 0.00000000E+00
	 0.00000000E+00	 4.49357000E-13	 0.00000000E+00
	 0.00000000E+00	 0.00000000E+00	 4.49357000E-13

	 4.38289000E-13	 0.00000000E+00	 0.00000000E+00
	 0.00000000E+00	 4.38289000E-13	 0.00000000E+00
	 0.00000000E+00	 0.00000000E+00	 4.38289000E-13

	 4.53784000E-13	 0.00000000E+00	 0.00000000E+00
	 0.00000000E+00	 4.53784000E-13	 0.00000000E+00
	 0.00000000E+00	 0.00000000E+00	 4.53784000E-13

	 4.42716000E-13	 0.00000000E+00	 0.00000000E+00
	 0.00000000E+00	 4.42716000E-13	 0.00000000E+00
	 0.00000000E+00	 0.00000000E+00	 4.42716000E-13

	 4.44929000E-13	 0.00000000E+00	 0.00000000E+00
	 0.00000000E+00	 4.44929000E-13	 0.00000000E+00
	 0.00000000E+00	 0.00000000E+00	 4.44929000E-13

	 4.42716000E-13	 0.00000000E+00	 0.00000000E+00
	 0.00000000E+00	 4.42716000E-13	 0.00000000E+00
	 0.00000000E+00	 0.00000000E+00	 4.42716000E-13

	 4.62638000E-13	 0.00000000E+00	 0.00000000E+00
	 0.00000000E+00	 4.62638000E-13	 0.00000000E+00
	 0.00000000E+00	 0.00000000E+00	 4.62638000E-13

	 4.51570000E-13	 0.00000000E+00	 0.00000000E+00
	 0.00000000E+00	 4.51570000E-13	 0.00000000E+00
	 0.00000000E+00	 0.00000000E+00	 4.51570000E-13

	 4.38289000E-13	 0.00000000E+00	 0.00000000E+00
	 0.00000000E+00	 4.38289000E-13	 0.00000000E+00
	 0.00000000E+00	 0.00000000E+00	 4.38289000E-13

	 4.38289000E-13	 0.00000000E+00	 0.00000000E+00
	 0.00000000E+00	 4.38289000E-13	 0.00000000E+00
	 0.00000000E+00	 0.00000000E+00	 4.38289000E-13

	 4.40502000E-13	 0.00000000E+00	 0.00000000E+00
	 0.00000000E+00	 4.40502000E-13	 0.00000000E+00
	 0.00000000E+00	 0.00000000E+00	 4.40502000E-13

	 4.38289000E-13	 0.00000000E+00	 0.00000000E+00
	 0.00000000E+00	 4.38289000E-13	 0.00000000E+00
	 0.00000000E+00	 0.00000000E+00	 4.38289000E-13

	 4.60425000E-13	 0.00000000E+00	 0.00000000E+00
	 0.00000000E+00	 4.60425000E-13	 0.00000000E+00
	 0.00000000E+00	 0.00000000E+00	 4.60425000E-13

	 4.51570000E-13	 0.00000000E+00	 0.00000000E+00
	 0.00000000E+00	 4.51570000E-13	 0.00000000E+00
	 0.00000000E+00	 0.00000000E+00	 4.51570000E-13

	 4.49357000E-13	 0.00000000E+00	 0.00000000E+00
	 0.00000000E+00	 4.49357000E-13	 0.00000000E+00
	 0.00000000E+00	 0.00000000E+00	 4.49357000E-13

	 4.47143000E-13	 0.00000000E+00	 0.00000000E+00
	 0.00000000E+00	 4.47143000E-13	 0.00000000E+00
	 0.00000000E+00	 0.00000000E+00	 4.47143000E-13

	 4.51570000E-13	 0.00000000E+00	 0.00000000E+00
	 0.00000000E+00	 4.51570000E-13	 0.00000000E+00
	 0.00000000E+00	 0.00000000E+00	 4.51570000E-13

	 4.64852000E-13	 0.00000000E+00	 0.00000000E+00
	 0.00000000E+00	 4.64852000E-13	 0.00000000E+00
	 0.00000000E+00	 0.00000000E+00	 4.64852000E-13

	 4.62638000E-13	 0.00000000E+00	 0.00000000E+00
	 0.00000000E+00	 4.62638000E-13	 0.00000000E+00
	 0.00000000E+00	 0.00000000E+00	 4.62638000E-13

	 4.49357000E-13	 0.00000000E+00	 0.00000000E+00
	 0.00000000E+00	 4.49357000E-13	 0.00000000E+00
	 0.00000000E+00	 0.00000000E+00	 4.49357000E-13

	 4.49357000E-13	 0.00000000E+00	 0.00000000E+00
	 0.00000000E+00	 4.49357000E-13	 0.00000000E+00
	 0.00000000E+00	 0.00000000E+00	 4.49357000E-13

	 4.64852000E-13	 0.00000000E+00	 0.00000000E+00
	 0.00000000E+00	 4.64852000E-13	 0.00000000E+00
	 0.00000000E+00	 0.00000000E+00	 4.64852000E-13

	 4.38289000E-13	 0.00000000E+00	 0.00000000E+00
	 0.00000000E+00	 4.38289000E-13	 0.00000000E+00
	 0.00000000E+00	 0.00000000E+00	 4.38289000E-13

	 4.38289000E-13	 0.00000000E+00	 0.00000000E+00
	 0.00000000E+00	 4.38289000E-13	 0.00000000E+00
	 0.00000000E+00	 0.00000000E+00	 4.38289000E-13

	 4.51570000E-13	 0.00000000E+00	 0.00000000E+00
	 0.00000000E+00	 4.51570000E-13	 0.00000000E+00
	 0.00000000E+00	 0.00000000E+00	 4.51570000E-13

	 4.55997000E-13	 0.00000000E+00	 0.00000000E+00
	 0.00000000E+00	 4.55997000E-13	 0.00000000E+00
	 0.00000000E+00	 0.00000000E+00	 4.55997000E-13

	 4.57262000E-13	 0.00000000E+00	 0.00000000E+00
	 0.00000000E+00	 4.57262000E-13	 0.00000000E+00
	 0.00000000E+00	 0.00000000E+00	 4.57262000E-13

	 4.58211000E-13	 0.00000000E+00	 0.00000000E+00
	 0.00000000E+00	 4.58211000E-13	 0.00000000E+00
	 0.00000000E+00	 0.00000000E+00	 4.58211000E-13

	 4.64852000E-13	 0.00000000E+00	 0.00000000E+00
	 0.00000000E+00	 4.64852000E-13	 0.00000000E+00
	 0.00000000E+00	 0.00000000E+00	 4.64852000E-13

	 4.64852000E-13	 0.00000000E+00	 0.00000000E+00
	 0.00000000E+00	 4.64852000E-13	 0.00000000E+00
	 0.00000000E+00	 0.00000000E+00	 4.64852000E-13

	 4.64852000E-13	 0.00000000E+00	 0.00000000E+00
	 0.00000000E+00	 4.64852000E-13	 0.00000000E+00
	 0.00000000E+00	 0.00000000E+00	 4.64852000E-13

	 4.64852000E-13	 0.00000000E+00	 0.00000000E+00
	 0.00000000E+00	 4.64852000E-13	 0.00000000E+00
	 0.00000000E+00	 0.00000000E+00	 4.64852000E-13

	 4.64852000E-13	 0.00000000E+00	 0.00000000E+00
	 0.00000000E+00	 4.64852000E-13	 0.00000000E+00
	 0.00000000E+00	 0.00000000E+00	 4.64852000E-13

	 4.64852000E-13	 0.00000000E+00	 0.00000000E+00
	 0.00000000E+00	 4.64852000E-13	 0.00000000E+00
	 0.00000000E+00	 0.00000000E+00	 4.64852000E-13

	 4.64852000E-13	 0.00000000E+00	 0.00000000E+00
	 0.00000000E+00	 4.64852000E-13	 0.00000000E+00
	 0.00000000E+00	 0.00000000E+00	 4.64852000E-13

	 4.64852000E-13	 0.00000000E+00	 0.00000000E+00
	 0.00000000E+00	 4.64852000E-13	 0.00000000E+00
	 0.00000000E+00	 0.00000000E+00	 4.64852000E-13

	 4.59160000E-13	 0.00000000E+00	 0.00000000E+00
	 0.00000000E+00	 4.59160000E-13	 0.00000000E+00
	 0.00000000E+00	 0.00000000E+00	 4.59160000E-13

	 4.64852000E-13	 0.00000000E+00	 0.00000000E+00
	 0.00000000E+00	 4.64852000E-13	 0.00000000E+00
	 0.00000000E+00	 0.00000000E+00	 4.64852000E-13

	 4.64852000E-13	 0.00000000E+00	 0.00000000E+00
	 0.00000000E+00	 4.64852000E-13	 0.00000000E+00
	 0.00000000E+00	 0.00000000E+00	 4.64852000E-13

	 4.64852000E-13	 0.00000000E+00	 0.00000000E+00
	 0.00000000E+00	 4.64852000E-13	 0.00000000E+00
	 0.00000000E+00	 0.00000000E+00	 4.64852000E-13

	 4.42716000E-13	 0.00000000E+00	 0.00000000E+00
	 0.00000000E+00	 4.42716000E-13	 0.00000000E+00
	 0.00000000E+00	 0.00000000E+00	 4.42716000E-13

	 4.64852000E-13	 0.00000000E+00	 0.00000000E+00
	 0.00000000E+00	 4.64852000E-13	 0.00000000E+00
	 0.00000000E+00	 0.00000000E+00	 4.64852000E-13

	 4.38289000E-13	 0.00000000E+00	 0.00000000E+00
	 0.00000000E+00	 4.38289000E-13	 0.00000000E+00
	 0.00000000E+00	 0.00000000E+00	 4.38289000E-13

	 4.42716000E-13	 0.00000000E+00	 0.00000000E+00
	 0.00000000E+00	 4.42716000E-13	 0.00000000E+00
	 0.00000000E+00	 0.00000000E+00	 4.42716000E-13

	 4.64852000E-13	 0.00000000E+00	 0.00000000E+00
	 0.00000000E+00	 4.64852000E-13	 0.00000000E+00
	 0.00000000E+00	 0.00000000E+00	 4.64852000E-13

	 4.64852000E-13	 0.00000000E+00	 0.00000000E+00
	 0.00000000E+00	 4.64852000E-13	 0.00000000E+00
	 0.00000000E+00	 0.00000000E+00	 4.64852000E-13

	 4.64852000E-13	 0.00000000E+00	 0.00000000E+00
	 0.00000000E+00	 4.64852000E-13	 0.00000000E+00
	 0.00000000E+00	 0.00000000E+00	 4.64852000E-13

	 4.64852000E-13	 0.00000000E+00	 0.00000000E+00
	 0.00000000E+00	 4.64852000E-13	 0.00000000E+00
	 0.00000000E+00	 0.00000000E+00	 4.64852000E-13

	 4.38289000E-13	 0.00000000E+00	 0.00000000E+00
	 0.00000000E+00	 4.38289000E-13	 0.00000000E+00
	 0.00000000E+00	 0.00000000E+00	 4.38289000E-13

	 4.38289000E-13	 0.00000000E+00	 0.00000000E+00
	 0.00000000E+00	 4.38289000E-13	 0.00000000E+00
	 0.00000000E+00	 0.00000000E+00	 4.38289000E-13

	 4.62638000E-13	 0.00000000E+00	 0.00000000E+00
	 0.00000000E+00	 4.62638000E-13	 0.00000000E+00
	 0.00000000E+00	 0.00000000E+00	 4.62638000E-13

	 4.58211000E-13	 0.00000000E+00	 0.00000000E+00
	 0.00000000E+00	 4.58211000E-13	 0.00000000E+00
	 0.00000000E+00	 0.00000000E+00	 4.58211000E-13

	 4.53784000E-13	 0.00000000E+00	 0.00000000E+00
	 0.00000000E+00	 4.53784000E-13	 0.00000000E+00
	 0.00000000E+00	 0.00000000E+00	 4.53784000E-13

	 4.44929000E-13	 0.00000000E+00	 0.00000000E+00
	 0.00000000E+00	 4.44929000E-13	 0.00000000E+00
	 0.00000000E+00	 0.00000000E+00	 4.44929000E-13

	 4.40502000E-13	 0.00000000E+00	 0.00000000E+00
	 0.00000000E+00	 4.40502000E-13	 0.00000000E+00
	 0.00000000E+00	 0.00000000E+00	 4.40502000E-13

	 4.64852000E-13	 0.00000000E+00	 0.00000000E+00
	 0.00000000E+00	 4.64852000E-13	 0.00000000E+00
	 0.00000000E+00	 0.00000000E+00	 4.64852000E-13

	 4.47143000E-13	 0.00000000E+00	 0.00000000E+00
	 0.00000000E+00	 4.47143000E-13	 0.00000000E+00
	 0.00000000E+00	 0.00000000E+00	 4.47143000E-13

	 4.55997000E-13	 0.00000000E+00	 0.00000000E+00
	 0.00000000E+00	 4.55997000E-13	 0.00000000E+00
	 0.00000000E+00	 0.00000000E+00	 4.55997000E-13

	 4.38289000E-13	 0.00000000E+00	 0.00000000E+00
	 0.00000000E+00	 4.38289000E-13	 0.00000000E+00
	 0.00000000E+00	 0.00000000E+00	 4.38289000E-13

	 4.55997000E-13	 0.00000000E+00	 0.00000000E+00
	 0.00000000E+00	 4.55997000E-13	 0.00000000E+00
	 0.00000000E+00	 0.00000000E+00	 4.55997000E-13

	 4.44929000E-13	 0.00000000E+00	 0.00000000E+00
	 0.00000000E+00	 4.44929000E-13	 0.00000000E+00
	 0.00000000E+00	 0.00000000E+00	 4.44929000E-13

	 4.58211000E-13	 0.00000000E+00	 0.00000000E+00
	 0.00000000E+00	 4.58211000E-13	 0.00000000E+00
	 0.00000000E+00	 0.00000000E+00	 4.58211000E-13

	 4.38289000E-13	 0.00000000E+00	 0.00000000E+00
	 0.00000000E+00	 4.38289000E-13	 0.00000000E+00
	 0.00000000E+00	 0.00000000E+00	 4.38289000E-13

	 4.44929000E-13	 0.00000000E+00	 0.00000000E+00
	 0.00000000E+00	 4.44929000E-13	 0.00000000E+00
	 0.00000000E+00	 0.00000000E+00	 4.44929000E-13

	 4.38289000E-13	 0.00000000E+00	 0.00000000E+00
	 0.00000000E+00	 4.38289000E-13	 0.00000000E+00
	 0.00000000E+00	 0.00000000E+00	 4.38289000E-13

	 4.64852000E-13	 0.00000000E+00	 0.00000000E+00
	 0.00000000E+00	 4.64852000E-13	 0.00000000E+00
	 0.00000000E+00	 0.00000000E+00	 4.64852000E-13

	 4.55365000E-13	 0.00000000E+00	 0.00000000E+00
	 0.00000000E+00	 4.55365000E-13	 0.00000000E+00
	 0.00000000E+00	 0.00000000E+00	 4.55365000E-13

	 4.47143000E-13	 0.00000000E+00	 0.00000000E+00
	 0.00000000E+00	 4.47143000E-13	 0.00000000E+00
	 0.00000000E+00	 0.00000000E+00	 4.47143000E-13

	 4.64852000E-13	 0.00000000E+00	 0.00000000E+00
	 0.00000000E+00	 4.64852000E-13	 0.00000000E+00
	 0.00000000E+00	 0.00000000E+00	 4.64852000E-13

	 4.64852000E-13	 0.00000000E+00	 0.00000000E+00
	 0.00000000E+00	 4.64852000E-13	 0.00000000E+00
	 0.00000000E+00	 0.00000000E+00	 4.64852000E-13

	 4.38289000E-13	 0.00000000E+00	 0.00000000E+00
	 0.00000000E+00	 4.38289000E-13	 0.00000000E+00
	 0.00000000E+00	 0.00000000E+00	 4.38289000E-13

	 4.53784000E-13	 0.00000000E+00	 0.00000000E+00
	 0.00000000E+00	 4.53784000E-13	 0.00000000E+00
	 0.00000000E+00	 0.00000000E+00	 4.53784000E-13

	 4.53468000E-13	 0.00000000E+00	 0.00000000E+00
	 0.00000000E+00	 4.53468000E-13	 0.00000000E+00
	 0.00000000E+00	 0.00000000E+00	 4.53468000E-13

	 4.47143000E-13	 0.00000000E+00	 0.00000000E+00
	 0.00000000E+00	 4.47143000E-13	 0.00000000E+00
	 0.00000000E+00	 0.00000000E+00	 4.47143000E-13

	 4.38289000E-13	 0.00000000E+00	 0.00000000E+00
	 0.00000000E+00	 4.38289000E-13	 0.00000000E+00
	 0.00000000E+00	 0.00000000E+00	 4.38289000E-13

	 4.42716000E-13	 0.00000000E+00	 0.00000000E+00
	 0.00000000E+00	 4.42716000E-13	 0.00000000E+00
	 0.00000000E+00	 0.00000000E+00	 4.42716000E-13

	 4.42716000E-13	 0.00000000E+00	 0.00000000E+00
	 0.00000000E+00	 4.42716000E-13	 0.00000000E+00
	 0.00000000E+00	 0.00000000E+00	 4.42716000E-13

	 4.64852000E-13	 0.00000000E+00	 0.00000000E+00
	 0.00000000E+00	 4.64852000E-13	 0.00000000E+00
	 0.00000000E+00	 0.00000000E+00	 4.64852000E-13

	 4.64852000E-13	 0.00000000E+00	 0.00000000E+00
	 0.00000000E+00	 4.64852000E-13	 0.00000000E+00
	 0.00000000E+00	 0.00000000E+00	 4.64852000E-13

	 4.64852000E-13	 0.00000000E+00	 0.00000000E+00
	 0.00000000E+00	 4.64852000E-13	 0.00000000E+00
	 0.00000000E+00	 0.00000000E+00	 4.64852000E-13

	 4.64852000E-13	 0.00000000E+00	 0.00000000E+00
	 0.00000000E+00	 4.64852000E-13	 0.00000000E+00
	 0.00000000E+00	 0.00000000E+00	 4.64852000E-13

	 4.38289000E-13	 0.00000000E+00	 0.00000000E+00
	 0.00000000E+00	 4.38289000E-13	 0.00000000E+00
	 0.00000000E+00	 0.00000000E+00	 4.38289000E-13

	 4.64852000E-13	 0.00000000E+00	 0.00000000E+00
	 0.00000000E+00	 4.64852000E-13	 0.00000000E+00
	 0.00000000E+00	 0.00000000E+00	 4.64852000E-13

	 4.42716000E-13	 0.00000000E+00	 0.00000000E+00
	 0.00000000E+00	 4.42716000E-13	 0.00000000E+00
	 0.00000000E+00	 0.00000000E+00	 4.42716000E-13

	 4.42716000E-13	 0.00000000E+00	 0.00000000E+00
	 0.00000000E+00	 4.42716000E-13	 0.00000000E+00
	 0.00000000E+00	 0.00000000E+00	 4.42716000E-13

	 4.47143000E-13	 0.00000000E+00	 0.00000000E+00
	 0.00000000E+00	 4.47143000E-13	 0.00000000E+00
	 0.00000000E+00	 0.00000000E+00	 4.47143000E-13

	 4.38289000E-13	 0.00000000E+00	 0.00000000E+00
	 0.00000000E+00	 4.38289000E-13	 0.00000000E+00
	 0.00000000E+00	 0.00000000E+00	 4.38289000E-13

	 4.38289000E-13	 0.00000000E+00	 0.00000000E+00
	 0.00000000E+00	 4.38289000E-13	 0.00000000E+00
	 0.00000000E+00	 0.00000000E+00	 4.38289000E-13

	 4.64852000E-13	 0.00000000E+00	 0.00000000E+00
	 0.00000000E+00	 4.64852000E-13	 0.00000000E+00
	 0.00000000E+00	 0.00000000E+00	 4.64852000E-13

	 4.64852000E-13	 0.00000000E+00	 0.00000000E+00
	 0.00000000E+00	 4.64852000E-13	 0.00000000E+00
	 0.00000000E+00	 0.00000000E+00	 4.64852000E-13

	 4.47143000E-13	 0.00000000E+00	 0.00000000E+00
	 0.00000000E+00	 4.47143000E-13	 0.00000000E+00
	 0.00000000E+00	 0.00000000E+00	 4.47143000E-13

	 4.58211000E-13	 0.00000000E+00	 0.00000000E+00
	 0.00000000E+00	 4.58211000E-13	 0.00000000E+00
	 0.00000000E+00	 0.00000000E+00	 4.58211000E-13

	 4.47143000E-13	 0.00000000E+00	 0.00000000E+00
	 0.00000000E+00	 4.47143000E-13	 0.00000000E+00
	 0.00000000E+00	 0.00000000E+00	 4.47143000E-13

	 4.47143000E-13	 0.00000000E+00	 0.00000000E+00
	 0.00000000E+00	 4.47143000E-13	 0.00000000E+00
	 0.00000000E+00	 0.00000000E+00	 4.47143000E-13

	 4.58211000E-13	 0.00000000E+00	 0.00000000E+00
	 0.00000000E+00	 4.58211000E-13	 0.00000000E+00
	 0.00000000E+00	 0.00000000E+00	 4.58211000E-13

	 4.59160000E-13	 0.00000000E+00	 0.00000000E+00
	 0.00000000E+00	 4.59160000E-13	 0.00000000E+00
	 0.00000000E+00	 0.00000000E+00	 4.59160000E-13

	 4.64852000E-13	 0.00000000E+00	 0.00000000E+00
	 0.00000000E+00	 4.64852000E-13	 0.00000000E+00
	 0.00000000E+00	 0.00000000E+00	 4.64852000E-13

	 4.40502000E-13	 0.00000000E+00	 0.00000000E+00
	 0.00000000E+00	 4.40502000E-13	 0.00000000E+00
	 0.00000000E+00	 0.00000000E+00	 4.40502000E-13

	 4.38289000E-13	 0.00000000E+00	 0.00000000E+00
	 0.00000000E+00	 4.38289000E-13	 0.00000000E+00
	 0.00000000E+00	 0.00000000E+00	 4.38289000E-13

	 4.38289000E-13	 0.00000000E+00	 0.00000000E+00
	 0.00000000E+00	 4.38289000E-13	 0.00000000E+00
	 0.00000000E+00	 0.00000000E+00	 4.38289000E-13

	 4.38289000E-13	 0.00000000E+00	 0.00000000E+00
	 0.00000000E+00	 4.38289000E-13	 0.00000000E+00
	 0.00000000E+00	 0.00000000E+00	 4.38289000E-13

	 4.38289000E-13	 0.00000000E+00	 0.00000000E+00
	 0.00000000E+00	 4.38289000E-13	 0.00000000E+00
	 0.00000000E+00	 0.00000000E+00	 4.38289000E-13

	 4.44929000E-13	 0.00000000E+00	 0.00000000E+00
	 0.00000000E+00	 4.44929000E-13	 0.00000000E+00
	 0.00000000E+00	 0.00000000E+00	 4.44929000E-13

	 4.40502000E-13	 0.00000000E+00	 0.00000000E+00
	 0.00000000E+00	 4.40502000E-13	 0.00000000E+00
	 0.00000000E+00	 0.00000000E+00	 4.40502000E-13

	 4.40502000E-13	 0.00000000E+00	 0.00000000E+00
	 0.00000000E+00	 4.40502000E-13	 0.00000000E+00
	 0.00000000E+00	 0.00000000E+00	 4.40502000E-13

	 4.64852000E-13	 0.00000000E+00	 0.00000000E+00
	 0.00000000E+00	 4.64852000E-13	 0.00000000E+00
	 0.00000000E+00	 0.00000000E+00	 4.64852000E-13

	 4.58211000E-13	 0.00000000E+00	 0.00000000E+00
	 0.00000000E+00	 4.58211000E-13	 0.00000000E+00
	 0.00000000E+00	 0.00000000E+00	 4.58211000E-13

	 4.40502000E-13	 0.00000000E+00	 0.00000000E+00
	 0.00000000E+00	 4.40502000E-13	 0.00000000E+00
	 0.00000000E+00	 0.00000000E+00	 4.40502000E-13

	 4.64852000E-13	 0.00000000E+00	 0.00000000E+00
	 0.00000000E+00	 4.64852000E-13	 0.00000000E+00
	 0.00000000E+00	 0.00000000E+00	 4.64852000E-13

	 4.64852000E-13	 0.00000000E+00	 0.00000000E+00
	 0.00000000E+00	 4.64852000E-13	 0.00000000E+00
	 0.00000000E+00	 0.00000000E+00	 4.64852000E-13

	 4.64852000E-13	 0.00000000E+00	 0.00000000E+00
	 0.00000000E+00	 4.64852000E-13	 0.00000000E+00
	 0.00000000E+00	 0.00000000E+00	 4.64852000E-13

	 4.53784000E-13	 0.00000000E+00	 0.00000000E+00
	 0.00000000E+00	 4.53784000E-13	 0.00000000E+00
	 0.00000000E+00	 0.00000000E+00	 4.53784000E-13

	 4.64852000E-13	 0.00000000E+00	 0.00000000E+00
	 0.00000000E+00	 4.64852000E-13	 0.00000000E+00
	 0.00000000E+00	 0.00000000E+00	 4.64852000E-13

	 4.64852000E-13	 0.00000000E+00	 0.00000000E+00
	 0.00000000E+00	 4.64852000E-13	 0.00000000E+00
	 0.00000000E+00	 0.00000000E+00	 4.64852000E-13

	 4.64852000E-13	 0.00000000E+00	 0.00000000E+00
	 0.00000000E+00	 4.64852000E-13	 0.00000000E+00
	 0.00000000E+00	 0.00000000E+00	 4.64852000E-13

	 4.62638000E-13	 0.00000000E+00	 0.00000000E+00
	 0.00000000E+00	 4.62638000E-13	 0.00000000E+00
	 0.00000000E+00	 0.00000000E+00	 4.62638000E-13

	 4.55365000E-13	 0.00000000E+00	 0.00000000E+00
	 0.00000000E+00	 4.55365000E-13	 0.00000000E+00
	 0.00000000E+00	 0.00000000E+00	 4.55365000E-13

	 4.51570000E-13	 0.00000000E+00	 0.00000000E+00
	 0.00000000E+00	 4.51570000E-13	 0.00000000E+00
	 0.00000000E+00	 0.00000000E+00	 4.51570000E-13

	 4.62638000E-13	 0.00000000E+00	 0.00000000E+00
	 0.00000000E+00	 4.62638000E-13	 0.00000000E+00
	 0.00000000E+00	 0.00000000E+00	 4.62638000E-13

	 4.55997000E-13	 0.00000000E+00	 0.00000000E+00
	 0.00000000E+00	 4.55997000E-13	 0.00000000E+00
	 0.00000000E+00	 0.00000000E+00	 4.55997000E-13

	 4.40502000E-13	 0.00000000E+00	 0.00000000E+00
	 0.00000000E+00	 4.40502000E-13	 0.00000000E+00
	 0.00000000E+00	 0.00000000E+00	 4.40502000E-13

	 4.47143000E-13	 0.00000000E+00	 0.00000000E+00
	 0.00000000E+00	 4.47143000E-13	 0.00000000E+00
	 0.00000000E+00	 0.00000000E+00	 4.47143000E-13

	 4.64852000E-13	 0.00000000E+00	 0.00000000E+00
	 0.00000000E+00	 4.64852000E-13	 0.00000000E+00
	 0.00000000E+00	 0.00000000E+00	 4.64852000E-13

	 4.51570000E-13	 0.00000000E+00	 0.00000000E+00
	 0.00000000E+00	 4.51570000E-13	 0.00000000E+00
	 0.00000000E+00	 0.00000000E+00	 4.51570000E-13

	 4.42716000E-13	 0.00000000E+00	 0.00000000E+00
	 0.00000000E+00	 4.42716000E-13	 0.00000000E+00
	 0.00000000E+00	 0.00000000E+00	 4.42716000E-13

	 4.51570000E-13	 0.00000000E+00	 0.00000000E+00
	 0.00000000E+00	 4.51570000E-13	 0.00000000E+00
	 0.00000000E+00	 0.00000000E+00	 4.51570000E-13

	 4.51570000E-13	 0.00000000E+00	 0.00000000E+00
	 0.00000000E+00	 4.51570000E-13	 0.00000000E+00
	 0.00000000E+00	 0.00000000E+00	 4.51570000E-13

	 4.62638000E-13	 0.00000000E+00	 0.00000000E+00
	 0.00000000E+00	 4.62638000E-13	 0.00000000E+00
	 0.00000000E+00	 0.00000000E+00	 4.62638000E-13

	 4.64852000E-13	 0.00000000E+00	 0.00000000E+00
	 0.00000000E+00	 4.64852000E-13	 0.00000000E+00
	 0.00000000E+00	 0.00000000E+00	 4.64852000E-13

	 4.64852000E-13	 0.00000000E+00	 0.00000000E+00
	 0.00000000E+00	 4.64852000E-13	 0.00000000E+00
	 0.00000000E+00	 0.00000000E+00	 4.64852000E-13

	 4.64852000E-13	 0.00000000E+00	 0.00000000E+00
	 0.00000000E+00	 4.64852000E-13	 0.00000000E+00
	 0.00000000E+00	 0.00000000E+00	 4.64852000E-13

	 4.64852000E-13	 0.00000000E+00	 0.00000000E+00
	 0.00000000E+00	 4.64852000E-13	 0.00000000E+00
	 0.00000000E+00	 0.00000000E+00	 4.64852000E-13

	 4.64852000E-13	 0.00000000E+00	 0.00000000E+00
	 0.00000000E+00	 4.64852000E-13	 0.00000000E+00
	 0.00000000E+00	 0.00000000E+00	 4.64852000E-13

	 4.64852000E-13	 0.00000000E+00	 0.00000000E+00
	 0.00000000E+00	 4.64852000E-13	 0.00000000E+00
	 0.00000000E+00	 0.00000000E+00	 4.64852000E-13

	 4.64852000E-13	 0.00000000E+00	 0.00000000E+00
	 0.00000000E+00	 4.64852000E-13	 0.00000000E+00
	 0.00000000E+00	 0.00000000E+00	 4.64852000E-13

	 4.64852000E-13	 0.00000000E+00	 0.00000000E+00
	 0.00000000E+00	 4.64852000E-13	 0.00000000E+00
	 0.00000000E+00	 0.00000000E+00	 4.64852000E-13

	 4.64852000E-13	 0.00000000E+00	 0.00000000E+00
	 0.00000000E+00	 4.64852000E-13	 0.00000000E+00
	 0.00000000E+00	 0.00000000E+00	 4.64852000E-13

	 4.64852000E-13	 0.00000000E+00	 0.00000000E+00
	 0.00000000E+00	 4.64852000E-13	 0.00000000E+00
	 0.00000000E+00	 0.00000000E+00	 4.64852000E-13

	 4.64852000E-13	 0.00000000E+00	 0.00000000E+00
	 0.00000000E+00	 4.64852000E-13	 0.00000000E+00
	 0.00000000E+00	 0.00000000E+00	 4.64852000E-13

	 4.64852000E-13	 0.00000000E+00	 0.00000000E+00
	 0.00000000E+00	 4.64852000E-13	 0.00000000E+00
	 0.00000000E+00	 0.00000000E+00	 4.64852000E-13

	 4.64852000E-13	 0.00000000E+00	 0.00000000E+00
	 0.00000000E+00	 4.64852000E-13	 0.00000000E+00
	 0.00000000E+00	 0.00000000E+00	 4.64852000E-13

	 4.60425000E-13	 0.00000000E+00	 0.00000000E+00
	 0.00000000E+00	 4.60425000E-13	 0.00000000E+00
	 0.00000000E+00	 0.00000000E+00	 4.60425000E-13

	 4.60425000E-13	 0.00000000E+00	 0.00000000E+00
	 0.00000000E+00	 4.60425000E-13	 0.00000000E+00
	 0.00000000E+00	 0.00000000E+00	 4.60425000E-13

	 4.47143000E-13	 0.00000000E+00	 0.00000000E+00
	 0.00000000E+00	 4.47143000E-13	 0.00000000E+00
	 0.00000000E+00	 0.00000000E+00	 4.47143000E-13

	 4.53784000E-13	 0.00000000E+00	 0.00000000E+00
	 0.00000000E+00	 4.53784000E-13	 0.00000000E+00
	 0.00000000E+00	 0.00000000E+00	 4.53784000E-13

	 4.42716000E-13	 0.00000000E+00	 0.00000000E+00
	 0.00000000E+00	 4.42716000E-13	 0.00000000E+00
	 0.00000000E+00	 0.00000000E+00	 4.42716000E-13

	 4.64852000E-13	 0.00000000E+00	 0.00000000E+00
	 0.00000000E+00	 4.64852000E-13	 0.00000000E+00
	 0.00000000E+00	 0.00000000E+00	 4.64852000E-13

	 4.47143000E-13	 0.00000000E+00	 0.00000000E+00
	 0.00000000E+00	 4.47143000E-13	 0.00000000E+00
	 0.00000000E+00	 0.00000000E+00	 4.47143000E-13

	 4.55997000E-13	 0.00000000E+00	 0.00000000E+00
	 0.00000000E+00	 4.55997000E-13	 0.00000000E+00
	 0.00000000E+00	 0.00000000E+00	 4.55997000E-13

	 4.49357000E-13	 0.00000000E+00	 0.00000000E+00
	 0.00000000E+00	 4.49357000E-13	 0.00000000E+00
	 0.00000000E+00	 0.00000000E+00	 4.49357000E-13

	 4.64852000E-13	 0.00000000E+00	 0.00000000E+00
	 0.00000000E+00	 4.64852000E-13	 0.00000000E+00
	 0.00000000E+00	 0.00000000E+00	 4.64852000E-13

	 4.64852000E-13	 0.00000000E+00	 0.00000000E+00
	 0.00000000E+00	 4.64852000E-13	 0.00000000E+00
	 0.00000000E+00	 0.00000000E+00	 4.64852000E-13

	 4.64852000E-13	 0.00000000E+00	 0.00000000E+00
	 0.00000000E+00	 4.64852000E-13	 0.00000000E+00
	 0.00000000E+00	 0.00000000E+00	 4.64852000E-13

	 4.38289000E-13	 0.00000000E+00	 0.00000000E+00
	 0.00000000E+00	 4.38289000E-13	 0.00000000E+00
	 0.00000000E+00	 0.00000000E+00	 4.38289000E-13

	 4.42716000E-13	 0.00000000E+00	 0.00000000E+00
	 0.00000000E+00	 4.42716000E-13	 0.00000000E+00
	 0.00000000E+00	 0.00000000E+00	 4.42716000E-13

	 4.64852000E-13	 0.00000000E+00	 0.00000000E+00
	 0.00000000E+00	 4.64852000E-13	 0.00000000E+00
	 0.00000000E+00	 0.00000000E+00	 4.64852000E-13

	 4.60425000E-13	 0.00000000E+00	 0.00000000E+00
	 0.00000000E+00	 4.60425000E-13	 0.00000000E+00
	 0.00000000E+00	 0.00000000E+00	 4.60425000E-13

	 4.64852000E-13	 0.00000000E+00	 0.00000000E+00
	 0.00000000E+00	 4.64852000E-13	 0.00000000E+00
	 0.00000000E+00	 0.00000000E+00	 4.64852000E-13

	 4.64852000E-13	 0.00000000E+00	 0.00000000E+00
	 0.00000000E+00	 4.64852000E-13	 0.00000000E+00
	 0.00000000E+00	 0.00000000E+00	 4.64852000E-13

	 4.64852000E-13	 0.00000000E+00	 0.00000000E+00
	 0.00000000E+00	 4.64852000E-13	 0.00000000E+00
	 0.00000000E+00	 0.00000000E+00	 4.64852000E-13

	 4.60425000E-13	 0.00000000E+00	 0.00000000E+00
	 0.00000000E+00	 4.60425000E-13	 0.00000000E+00
	 0.00000000E+00	 0.00000000E+00	 4.60425000E-13

	 4.62954000E-13	 0.00000000E+00	 0.00000000E+00
	 0.00000000E+00	 4.62954000E-13	 0.00000000E+00
	 0.00000000E+00	 0.00000000E+00	 4.62954000E-13

	 4.64852000E-13	 0.00000000E+00	 0.00000000E+00
	 0.00000000E+00	 4.64852000E-13	 0.00000000E+00
	 0.00000000E+00	 0.00000000E+00	 4.64852000E-13

	 4.64852000E-13	 0.00000000E+00	 0.00000000E+00
	 0.00000000E+00	 4.64852000E-13	 0.00000000E+00
	 0.00000000E+00	 0.00000000E+00	 4.64852000E-13

	 4.64852000E-13	 0.00000000E+00	 0.00000000E+00
	 0.00000000E+00	 4.64852000E-13	 0.00000000E+00
	 0.00000000E+00	 0.00000000E+00	 4.64852000E-13

	 4.38289000E-13	 0.00000000E+00	 0.00000000E+00
	 0.00000000E+00	 4.38289000E-13	 0.00000000E+00
	 0.00000000E+00	 0.00000000E+00	 4.38289000E-13

	 4.55997000E-13	 0.00000000E+00	 0.00000000E+00
	 0.00000000E+00	 4.55997000E-13	 0.00000000E+00
	 0.00000000E+00	 0.00000000E+00	 4.55997000E-13

	 4.61057000E-13	 0.00000000E+00	 0.00000000E+00
	 0.00000000E+00	 4.61057000E-13	 0.00000000E+00
	 0.00000000E+00	 0.00000000E+00	 4.61057000E-13

	 4.64852000E-13	 0.00000000E+00	 0.00000000E+00
	 0.00000000E+00	 4.64852000E-13	 0.00000000E+00
	 0.00000000E+00	 0.00000000E+00	 4.64852000E-13

	 4.64852000E-13	 0.00000000E+00	 0.00000000E+00
	 0.00000000E+00	 4.64852000E-13	 0.00000000E+00
	 0.00000000E+00	 0.00000000E+00	 4.64852000E-13

	 4.40502000E-13	 0.00000000E+00	 0.00000000E+00
	 0.00000000E+00	 4.40502000E-13	 0.00000000E+00
	 0.00000000E+00	 0.00000000E+00	 4.40502000E-13

	 4.53784000E-13	 0.00000000E+00	 0.00000000E+00
	 0.00000000E+00	 4.53784000E-13	 0.00000000E+00
	 0.00000000E+00	 0.00000000E+00	 4.53784000E-13

	 4.44929000E-13	 0.00000000E+00	 0.00000000E+00
	 0.00000000E+00	 4.44929000E-13	 0.00000000E+00
	 0.00000000E+00	 0.00000000E+00	 4.44929000E-13

	 4.38289000E-13	 0.00000000E+00	 0.00000000E+00
	 0.00000000E+00	 4.38289000E-13	 0.00000000E+00
	 0.00000000E+00	 0.00000000E+00	 4.38289000E-13

	 4.44929000E-13	 0.00000000E+00	 0.00000000E+00
	 0.00000000E+00	 4.44929000E-13	 0.00000000E+00
	 0.00000000E+00	 0.00000000E+00	 4.44929000E-13

	 4.42716000E-13	 0.00000000E+00	 0.00000000E+00
	 0.00000000E+00	 4.42716000E-13	 0.00000000E+00
	 0.00000000E+00	 0.00000000E+00	 4.42716000E-13

	 4.60425000E-13	 0.00000000E+00	 0.00000000E+00
	 0.00000000E+00	 4.60425000E-13	 0.00000000E+00
	 0.00000000E+00	 0.00000000E+00	 4.60425000E-13

	 4.44929000E-13	 0.00000000E+00	 0.00000000E+00
	 0.00000000E+00	 4.44929000E-13	 0.00000000E+00
	 0.00000000E+00	 0.00000000E+00	 4.44929000E-13

	 4.64852000E-13	 0.00000000E+00	 0.00000000E+00
	 0.00000000E+00	 4.64852000E-13	 0.00000000E+00
	 0.00000000E+00	 0.00000000E+00	 4.64852000E-13

	 4.64852000E-13	 0.00000000E+00	 0.00000000E+00
	 0.00000000E+00	 4.64852000E-13	 0.00000000E+00
	 0.00000000E+00	 0.00000000E+00	 4.64852000E-13

	 4.51570000E-13	 0.00000000E+00	 0.00000000E+00
	 0.00000000E+00	 4.51570000E-13	 0.00000000E+00
	 0.00000000E+00	 0.00000000E+00	 4.51570000E-13

	 4.49357000E-13	 0.00000000E+00	 0.00000000E+00
	 0.00000000E+00	 4.49357000E-13	 0.00000000E+00
	 0.00000000E+00	 0.00000000E+00	 4.49357000E-13

	 4.64852000E-13	 0.00000000E+00	 0.00000000E+00
	 0.00000000E+00	 4.64852000E-13	 0.00000000E+00
	 0.00000000E+00	 0.00000000E+00	 4.64852000E-13

	 4.38289000E-13	 0.00000000E+00	 0.00000000E+00
	 0.00000000E+00	 4.38289000E-13	 0.00000000E+00
	 0.00000000E+00	 0.00000000E+00	 4.38289000E-13

	 4.64852000E-13	 0.00000000E+00	 0.00000000E+00
	 0.00000000E+00	 4.64852000E-13	 0.00000000E+00
	 0.00000000E+00	 0.00000000E+00	 4.64852000E-13

	 4.64852000E-13	 0.00000000E+00	 0.00000000E+00
	 0.00000000E+00	 4.64852000E-13	 0.00000000E+00
	 0.00000000E+00	 0.00000000E+00	 4.64852000E-13

	 4.64852000E-13	 0.00000000E+00	 0.00000000E+00
	 0.00000000E+00	 4.64852000E-13	 0.00000000E+00
	 0.00000000E+00	 0.00000000E+00	 4.64852000E-13

	 4.49357000E-13	 0.00000000E+00	 0.00000000E+00
	 0.00000000E+00	 4.49357000E-13	 0.00000000E+00
	 0.00000000E+00	 0.00000000E+00	 4.49357000E-13

	 4.64852000E-13	 0.00000000E+00	 0.00000000E+00
	 0.00000000E+00	 4.64852000E-13	 0.00000000E+00
	 0.00000000E+00	 0.00000000E+00	 4.64852000E-13

	 4.60425000E-13	 0.00000000E+00	 0.00000000E+00
	 0.00000000E+00	 4.60425000E-13	 0.00000000E+00
	 0.00000000E+00	 0.00000000E+00	 4.60425000E-13

	 4.38289000E-13	 0.00000000E+00	 0.00000000E+00
	 0.00000000E+00	 4.38289000E-13	 0.00000000E+00
	 0.00000000E+00	 0.00000000E+00	 4.38289000E-13

	 4.61057000E-13	 0.00000000E+00	 0.00000000E+00
	 0.00000000E+00	 4.61057000E-13	 0.00000000E+00
	 0.00000000E+00	 0.00000000E+00	 4.61057000E-13

	 4.58211000E-13	 0.00000000E+00	 0.00000000E+00
	 0.00000000E+00	 4.58211000E-13	 0.00000000E+00
	 0.00000000E+00	 0.00000000E+00	 4.58211000E-13

	 4.40502000E-13	 0.00000000E+00	 0.00000000E+00
	 0.00000000E+00	 4.40502000E-13	 0.00000000E+00
	 0.00000000E+00	 0.00000000E+00	 4.40502000E-13

	 4.62638000E-13	 0.00000000E+00	 0.00000000E+00
	 0.00000000E+00	 4.62638000E-13	 0.00000000E+00
	 0.00000000E+00	 0.00000000E+00	 4.62638000E-13

	 4.64852000E-13	 0.00000000E+00	 0.00000000E+00
	 0.00000000E+00	 4.64852000E-13	 0.00000000E+00
	 0.00000000E+00	 0.00000000E+00	 4.64852000E-13

	 4.64852000E-13	 0.00000000E+00	 0.00000000E+00
	 0.00000000E+00	 4.64852000E-13	 0.00000000E+00
	 0.00000000E+00	 0.00000000E+00	 4.64852000E-13

	 4.64852000E-13	 0.00000000E+00	 0.00000000E+00
	 0.00000000E+00	 4.64852000E-13	 0.00000000E+00
	 0.00000000E+00	 0.00000000E+00	 4.64852000E-13

	 4.38289000E-13	 0.00000000E+00	 0.00000000E+00
	 0.00000000E+00	 4.38289000E-13	 0.00000000E+00
	 0.00000000E+00	 0.00000000E+00	 4.38289000E-13

	 4.60425000E-13	 0.00000000E+00	 0.00000000E+00
	 0.00000000E+00	 4.60425000E-13	 0.00000000E+00
	 0.00000000E+00	 0.00000000E+00	 4.60425000E-13

	 4.60425000E-13	 0.00000000E+00	 0.00000000E+00
	 0.00000000E+00	 4.60425000E-13	 0.00000000E+00
	 0.00000000E+00	 0.00000000E+00	 4.60425000E-13

	 4.40502000E-13	 0.00000000E+00	 0.00000000E+00
	 0.00000000E+00	 4.40502000E-13	 0.00000000E+00
	 0.00000000E+00	 0.00000000E+00	 4.40502000E-13

	 4.58211000E-13	 0.00000000E+00	 0.00000000E+00
	 0.00000000E+00	 4.58211000E-13	 0.00000000E+00
	 0.00000000E+00	 0.00000000E+00	 4.58211000E-13

	 4.64852000E-13	 0.00000000E+00	 0.00000000E+00
	 0.00000000E+00	 4.64852000E-13	 0.00000000E+00
	 0.00000000E+00	 0.00000000E+00	 4.64852000E-13

	 4.55997000E-13	 0.00000000E+00	 0.00000000E+00
	 0.00000000E+00	 4.55997000E-13	 0.00000000E+00
	 0.00000000E+00	 0.00000000E+00	 4.55997000E-13

	 4.64852000E-13	 0.00000000E+00	 0.00000000E+00
	 0.00000000E+00	 4.64852000E-13	 0.00000000E+00
	 0.00000000E+00	 0.00000000E+00	 4.64852000E-13

	 4.64852000E-13	 0.00000000E+00	 0.00000000E+00
	 0.00000000E+00	 4.64852000E-13	 0.00000000E+00
	 0.00000000E+00	 0.00000000E+00	 4.64852000E-13

	 4.38289000E-13	 0.00000000E+00	 0.00000000E+00
	 0.00000000E+00	 4.38289000E-13	 0.00000000E+00
	 0.00000000E+00	 0.00000000E+00	 4.38289000E-13

	 4.42716000E-13	 0.00000000E+00	 0.00000000E+00
	 0.00000000E+00	 4.42716000E-13	 0.00000000E+00
	 0.00000000E+00	 0.00000000E+00	 4.42716000E-13

	 4.64852000E-13	 0.00000000E+00	 0.00000000E+00
	 0.00000000E+00	 4.64852000E-13	 0.00000000E+00
	 0.00000000E+00	 0.00000000E+00	 4.64852000E-13

	 4.62638000E-13	 0.00000000E+00	 0.00000000E+00
	 0.00000000E+00	 4.62638000E-13	 0.00000000E+00
	 0.00000000E+00	 0.00000000E+00	 4.62638000E-13

	 4.62638000E-13	 0.00000000E+00	 0.00000000E+00
	 0.00000000E+00	 4.62638000E-13	 0.00000000E+00
	 0.00000000E+00	 0.00000000E+00	 4.62638000E-13

	 4.47143000E-13	 0.00000000E+00	 0.00000000E+00
	 0.00000000E+00	 4.47143000E-13	 0.00000000E+00
	 0.00000000E+00	 0.00000000E+00	 4.47143000E-13

	 4.60425000E-13	 0.00000000E+00	 0.00000000E+00
	 0.00000000E+00	 4.60425000E-13	 0.00000000E+00
	 0.00000000E+00	 0.00000000E+00	 4.60425000E-13

	 4.40186000E-13	 0.00000000E+00	 0.00000000E+00
	 0.00000000E+00	 4.40186000E-13	 0.00000000E+00
	 0.00000000E+00	 0.00000000E+00	 4.40186000E-13

	 4.38289000E-13	 0.00000000E+00	 0.00000000E+00
	 0.00000000E+00	 4.38289000E-13	 0.00000000E+00
	 0.00000000E+00	 0.00000000E+00	 4.38289000E-13

	 4.62638000E-13	 0.00000000E+00	 0.00000000E+00
	 0.00000000E+00	 4.62638000E-13	 0.00000000E+00
	 0.00000000E+00	 0.00000000E+00	 4.62638000E-13

	 4.42716000E-13	 0.00000000E+00	 0.00000000E+00
	 0.00000000E+00	 4.42716000E-13	 0.00000000E+00
	 0.00000000E+00	 0.00000000E+00	 4.42716000E-13

	 4.55997000E-13	 0.00000000E+00	 0.00000000E+00
	 0.00000000E+00	 4.55997000E-13	 0.00000000E+00
	 0.00000000E+00	 0.00000000E+00	 4.55997000E-13

	 4.62638000E-13	 0.00000000E+00	 0.00000000E+00
	 0.00000000E+00	 4.62638000E-13	 0.00000000E+00
	 0.00000000E+00	 0.00000000E+00	 4.62638000E-13

	 4.51570000E-13	 0.00000000E+00	 0.00000000E+00
	 0.00000000E+00	 4.51570000E-13	 0.00000000E+00
	 0.00000000E+00	 0.00000000E+00	 4.51570000E-13

	 4.58211000E-13	 0.00000000E+00	 0.00000000E+00
	 0.00000000E+00	 4.58211000E-13	 0.00000000E+00
	 0.00000000E+00	 0.00000000E+00	 4.58211000E-13

	 4.38289000E-13	 0.00000000E+00	 0.00000000E+00
	 0.00000000E+00	 4.38289000E-13	 0.00000000E+00
	 0.00000000E+00	 0.00000000E+00	 4.38289000E-13

	 4.42716000E-13	 0.00000000E+00	 0.00000000E+00
	 0.00000000E+00	 4.42716000E-13	 0.00000000E+00
	 0.00000000E+00	 0.00000000E+00	 4.42716000E-13

	 4.40502000E-13	 0.00000000E+00	 0.00000000E+00
	 0.00000000E+00	 4.40502000E-13	 0.00000000E+00
	 0.00000000E+00	 0.00000000E+00	 4.40502000E-13

	 4.58211000E-13	 0.00000000E+00	 0.00000000E+00
	 0.00000000E+00	 4.58211000E-13	 0.00000000E+00
	 0.00000000E+00	 0.00000000E+00	 4.58211000E-13

	 4.64852000E-13	 0.00000000E+00	 0.00000000E+00
	 0.00000000E+00	 4.64852000E-13	 0.00000000E+00
	 0.00000000E+00	 0.00000000E+00	 4.64852000E-13

	 4.44929000E-13	 0.00000000E+00	 0.00000000E+00
	 0.00000000E+00	 4.44929000E-13	 0.00000000E+00
	 0.00000000E+00	 0.00000000E+00	 4.44929000E-13

	 4.40502000E-13	 0.00000000E+00	 0.00000000E+00
	 0.00000000E+00	 4.40502000E-13	 0.00000000E+00
	 0.00000000E+00	 0.00000000E+00	 4.40502000E-13

	 4.38289000E-13	 0.00000000E+00	 0.00000000E+00
	 0.00000000E+00	 4.38289000E-13	 0.00000000E+00
	 0.00000000E+00	 0.00000000E+00	 4.38289000E-13

	 4.49357000E-13	 0.00000000E+00	 0.00000000E+00
	 0.00000000E+00	 4.49357000E-13	 0.00000000E+00
	 0.00000000E+00	 0.00000000E+00	 4.49357000E-13

	 4.62638000E-13	 0.00000000E+00	 0.00000000E+00
	 0.00000000E+00	 4.62638000E-13	 0.00000000E+00
	 0.00000000E+00	 0.00000000E+00	 4.62638000E-13

	 4.44929000E-13	 0.00000000E+00	 0.00000000E+00
	 0.00000000E+00	 4.44929000E-13	 0.00000000E+00
	 0.00000000E+00	 0.00000000E+00	 4.44929000E-13

	 4.64852000E-13	 0.00000000E+00	 0.00000000E+00
	 0.00000000E+00	 4.64852000E-13	 0.00000000E+00
	 0.00000000E+00	 0.00000000E+00	 4.64852000E-13

	 4.62638000E-13	 0.00000000E+00	 0.00000000E+00
	 0.00000000E+00	 4.62638000E-13	 0.00000000E+00
	 0.00000000E+00	 0.00000000E+00	 4.62638000E-13

	 4.38289000E-13	 0.00000000E+00	 0.00000000E+00
	 0.00000000E+00	 4.38289000E-13	 0.00000000E+00
	 0.00000000E+00	 0.00000000E+00	 4.38289000E-13

	 4.60425000E-13	 0.00000000E+00	 0.00000000E+00
	 0.00000000E+00	 4.60425000E-13	 0.00000000E+00
	 0.00000000E+00	 0.00000000E+00	 4.60425000E-13

	 4.55997000E-13	 0.00000000E+00	 0.00000000E+00
	 0.00000000E+00	 4.55997000E-13	 0.00000000E+00
	 0.00000000E+00	 0.00000000E+00	 4.55997000E-13

	 4.64852000E-13	 0.00000000E+00	 0.00000000E+00
	 0.00000000E+00	 4.64852000E-13	 0.00000000E+00
	 0.00000000E+00	 0.00000000E+00	 4.64852000E-13

	 4.38289000E-13	 0.00000000E+00	 0.00000000E+00
	 0.00000000E+00	 4.38289000E-13	 0.00000000E+00
	 0.00000000E+00	 0.00000000E+00	 4.38289000E-13

	 4.55997000E-13	 0.00000000E+00	 0.00000000E+00
	 0.00000000E+00	 4.55997000E-13	 0.00000000E+00
	 0.00000000E+00	 0.00000000E+00	 4.55997000E-13

	 4.38289000E-13	 0.00000000E+00	 0.00000000E+00
	 0.00000000E+00	 4.38289000E-13	 0.00000000E+00
	 0.00000000E+00	 0.00000000E+00	 4.38289000E-13

	 4.38289000E-13	 0.00000000E+00	 0.00000000E+00
	 0.00000000E+00	 4.38289000E-13	 0.00000000E+00
	 0.00000000E+00	 0.00000000E+00	 4.38289000E-13

	 4.42716000E-13	 0.00000000E+00	 0.00000000E+00
	 0.00000000E+00	 4.42716000E-13	 0.00000000E+00
	 0.00000000E+00	 0.00000000E+00	 4.42716000E-13

	 4.64852000E-13	 0.00000000E+00	 0.00000000E+00
	 0.00000000E+00	 4.64852000E-13	 0.00000000E+00
	 0.00000000E+00	 0.00000000E+00	 4.64852000E-13

	 4.49673000E-13	 0.00000000E+00	 0.00000000E+00
	 0.00000000E+00	 4.49673000E-13	 0.00000000E+00
	 0.00000000E+00	 0.00000000E+00	 4.49673000E-13

	 4.38289000E-13	 0.00000000E+00	 0.00000000E+00
	 0.00000000E+00	 4.38289000E-13	 0.00000000E+00
	 0.00000000E+00	 0.00000000E+00	 4.38289000E-13

	 4.38289000E-13	 0.00000000E+00	 0.00000000E+00
	 0.00000000E+00	 4.38289000E-13	 0.00000000E+00
	 0.00000000E+00	 0.00000000E+00	 4.38289000E-13

	 4.64852000E-13	 0.00000000E+00	 0.00000000E+00
	 0.00000000E+00	 4.64852000E-13	 0.00000000E+00
	 0.00000000E+00	 0.00000000E+00	 4.64852000E-13

	 4.64852000E-13	 0.00000000E+00	 0.00000000E+00
	 0.00000000E+00	 4.64852000E-13	 0.00000000E+00
	 0.00000000E+00	 0.00000000E+00	 4.64852000E-13

	 4.38289000E-13	 0.00000000E+00	 0.00000000E+00
	 0.00000000E+00	 4.38289000E-13	 0.00000000E+00
	 0.00000000E+00	 0.00000000E+00	 4.38289000E-13

	 4.38289000E-13	 0.00000000E+00	 0.00000000E+00
	 0.00000000E+00	 4.38289000E-13	 0.00000000E+00
	 0.00000000E+00	 0.00000000E+00	 4.38289000E-13

	 4.44929000E-13	 0.00000000E+00	 0.00000000E+00
	 0.00000000E+00	 4.44929000E-13	 0.00000000E+00
	 0.00000000E+00	 0.00000000E+00	 4.44929000E-13

	 4.62638000E-13	 0.00000000E+00	 0.00000000E+00
	 0.00000000E+00	 4.62638000E-13	 0.00000000E+00
	 0.00000000E+00	 0.00000000E+00	 4.62638000E-13

	 4.42716000E-13	 0.00000000E+00	 0.00000000E+00
	 0.00000000E+00	 4.42716000E-13	 0.00000000E+00
	 0.00000000E+00	 0.00000000E+00	 4.42716000E-13

	 4.53784000E-13	 0.00000000E+00	 0.00000000E+00
	 0.00000000E+00	 4.53784000E-13	 0.00000000E+00
	 0.00000000E+00	 0.00000000E+00	 4.53784000E-13

	 4.42716000E-13	 0.00000000E+00	 0.00000000E+00
	 0.00000000E+00	 4.42716000E-13	 0.00000000E+00
	 0.00000000E+00	 0.00000000E+00	 4.42716000E-13

	 4.38289000E-13	 0.00000000E+00	 0.00000000E+00
	 0.00000000E+00	 4.38289000E-13	 0.00000000E+00
	 0.00000000E+00	 0.00000000E+00	 4.38289000E-13

	 4.38289000E-13	 0.00000000E+00	 0.00000000E+00
	 0.00000000E+00	 4.38289000E-13	 0.00000000E+00
	 0.00000000E+00	 0.00000000E+00	 4.38289000E-13

	 4.38289000E-13	 0.00000000E+00	 0.00000000E+00
	 0.00000000E+00	 4.38289000E-13	 0.00000000E+00
	 0.00000000E+00	 0.00000000E+00	 4.38289000E-13

	 4.60425000E-13	 0.00000000E+00	 0.00000000E+00
	 0.00000000E+00	 4.60425000E-13	 0.00000000E+00
	 0.00000000E+00	 0.00000000E+00	 4.60425000E-13

	 4.51570000E-13	 0.00000000E+00	 0.00000000E+00
	 0.00000000E+00	 4.51570000E-13	 0.00000000E+00
	 0.00000000E+00	 0.00000000E+00	 4.51570000E-13

	 4.55997000E-13	 0.00000000E+00	 0.00000000E+00
	 0.00000000E+00	 4.55997000E-13	 0.00000000E+00
	 0.00000000E+00	 0.00000000E+00	 4.55997000E-13

	 4.58211000E-13	 0.00000000E+00	 0.00000000E+00
	 0.00000000E+00	 4.58211000E-13	 0.00000000E+00
	 0.00000000E+00	 0.00000000E+00	 4.58211000E-13

	 4.51570000E-13	 0.00000000E+00	 0.00000000E+00
	 0.00000000E+00	 4.51570000E-13	 0.00000000E+00
	 0.00000000E+00	 0.00000000E+00	 4.51570000E-13

	 4.38289000E-13	 0.00000000E+00	 0.00000000E+00
	 0.00000000E+00	 4.38289000E-13	 0.00000000E+00
	 0.00000000E+00	 0.00000000E+00	 4.38289000E-13

	 4.42716000E-13	 0.00000000E+00	 0.00000000E+00
	 0.00000000E+00	 4.42716000E-13	 0.00000000E+00
	 0.00000000E+00	 0.00000000E+00	 4.42716000E-13

	 4.42716000E-13	 0.00000000E+00	 0.00000000E+00
	 0.00000000E+00	 4.42716000E-13	 0.00000000E+00
	 0.00000000E+00	 0.00000000E+00	 4.42716000E-13

	 4.38289000E-13	 0.00000000E+00	 0.00000000E+00
	 0.00000000E+00	 4.38289000E-13	 0.00000000E+00
	 0.00000000E+00	 0.00000000E+00	 4.38289000E-13

	 4.40502000E-13	 0.00000000E+00	 0.00000000E+00
	 0.00000000E+00	 4.40502000E-13	 0.00000000E+00
	 0.00000000E+00	 0.00000000E+00	 4.40502000E-13

	 4.55997000E-13	 0.00000000E+00	 0.00000000E+00
	 0.00000000E+00	 4.55997000E-13	 0.00000000E+00
	 0.00000000E+00	 0.00000000E+00	 4.55997000E-13

	 4.60425000E-13	 0.00000000E+00	 0.00000000E+00
	 0.00000000E+00	 4.60425000E-13	 0.00000000E+00
	 0.00000000E+00	 0.00000000E+00	 4.60425000E-13

	 4.49357000E-13	 0.00000000E+00	 0.00000000E+00
	 0.00000000E+00	 4.49357000E-13	 0.00000000E+00
	 0.00000000E+00	 0.00000000E+00	 4.49357000E-13

	 4.38289000E-13	 0.00000000E+00	 0.00000000E+00
	 0.00000000E+00	 4.38289000E-13	 0.00000000E+00
	 0.00000000E+00	 0.00000000E+00	 4.38289000E-13

	 4.38289000E-13	 0.00000000E+00	 0.00000000E+00
	 0.00000000E+00	 4.38289000E-13	 0.00000000E+00
	 0.00000000E+00	 0.00000000E+00	 4.38289000E-13

	 4.38289000E-13	 0.00000000E+00	 0.00000000E+00
	 0.00000000E+00	 4.38289000E-13	 0.00000000E+00
	 0.00000000E+00	 0.00000000E+00	 4.38289000E-13

	 4.38289000E-13	 0.00000000E+00	 0.00000000E+00
	 0.00000000E+00	 4.38289000E-13	 0.00000000E+00
	 0.00000000E+00	 0.00000000E+00	 4.38289000E-13

	 4.64852000E-13	 0.00000000E+00	 0.00000000E+00
	 0.00000000E+00	 4.64852000E-13	 0.00000000E+00
	 0.00000000E+00	 0.00000000E+00	 4.64852000E-13

	 4.38289000E-13	 0.00000000E+00	 0.00000000E+00
	 0.00000000E+00	 4.38289000E-13	 0.00000000E+00
	 0.00000000E+00	 0.00000000E+00	 4.38289000E-13

	 4.38289000E-13	 0.00000000E+00	 0.00000000E+00
	 0.00000000E+00	 4.38289000E-13	 0.00000000E+00
	 0.00000000E+00	 0.00000000E+00	 4.38289000E-13

	 4.47143000E-13	 0.00000000E+00	 0.00000000E+00
	 0.00000000E+00	 4.47143000E-13	 0.00000000E+00
	 0.00000000E+00	 0.00000000E+00	 4.47143000E-13

	 4.38289000E-13	 0.00000000E+00	 0.00000000E+00
	 0.00000000E+00	 4.38289000E-13	 0.00000000E+00
	 0.00000000E+00	 0.00000000E+00	 4.38289000E-13

	 4.62638000E-13	 0.00000000E+00	 0.00000000E+00
	 0.00000000E+00	 4.62638000E-13	 0.00000000E+00
	 0.00000000E+00	 0.00000000E+00	 4.62638000E-13

	 4.38289000E-13	 0.00000000E+00	 0.00000000E+00
	 0.00000000E+00	 4.38289000E-13	 0.00000000E+00
	 0.00000000E+00	 0.00000000E+00	 4.38289000E-13

	 4.60425000E-13	 0.00000000E+00	 0.00000000E+00
	 0.00000000E+00	 4.60425000E-13	 0.00000000E+00
	 0.00000000E+00	 0.00000000E+00	 4.60425000E-13

	 4.53784000E-13	 0.00000000E+00	 0.00000000E+00
	 0.00000000E+00	 4.53784000E-13	 0.00000000E+00
	 0.00000000E+00	 0.00000000E+00	 4.53784000E-13

	 4.58211000E-13	 0.00000000E+00	 0.00000000E+00
	 0.00000000E+00	 4.58211000E-13	 0.00000000E+00
	 0.00000000E+00	 0.00000000E+00	 4.58211000E-13

	 4.49357000E-13	 0.00000000E+00	 0.00000000E+00
	 0.00000000E+00	 4.49357000E-13	 0.00000000E+00
	 0.00000000E+00	 0.00000000E+00	 4.49357000E-13

	 4.38289000E-13	 0.00000000E+00	 0.00000000E+00
	 0.00000000E+00	 4.38289000E-13	 0.00000000E+00
	 0.00000000E+00	 0.00000000E+00	 4.38289000E-13

	 4.42716000E-13	 0.00000000E+00	 0.00000000E+00
	 0.00000000E+00	 4.42716000E-13	 0.00000000E+00
	 0.00000000E+00	 0.00000000E+00	 4.42716000E-13

	 4.55997000E-13	 0.00000000E+00	 0.00000000E+00
	 0.00000000E+00	 4.55997000E-13	 0.00000000E+00
	 0.00000000E+00	 0.00000000E+00	 4.55997000E-13

	 4.64852000E-13	 0.00000000E+00	 0.00000000E+00
	 0.00000000E+00	 4.64852000E-13	 0.00000000E+00
	 0.00000000E+00	 0.00000000E+00	 4.64852000E-13

	 4.38289000E-13	 0.00000000E+00	 0.00000000E+00
	 0.00000000E+00	 4.38289000E-13	 0.00000000E+00
	 0.00000000E+00	 0.00000000E+00	 4.38289000E-13

	 4.38289000E-13	 0.00000000E+00	 0.00000000E+00
	 0.00000000E+00	 4.38289000E-13	 0.00000000E+00
	 0.00000000E+00	 0.00000000E+00	 4.38289000E-13

	 4.64852000E-13	 0.00000000E+00	 0.00000000E+00
	 0.00000000E+00	 4.64852000E-13	 0.00000000E+00
	 0.00000000E+00	 0.00000000E+00	 4.64852000E-13

	 4.64852000E-13	 0.00000000E+00	 0.00000000E+00
	 0.00000000E+00	 4.64852000E-13	 0.00000000E+00
	 0.00000000E+00	 0.00000000E+00	 4.64852000E-13

	 4.44929000E-13	 0.00000000E+00	 0.00000000E+00
	 0.00000000E+00	 4.44929000E-13	 0.00000000E+00
	 0.00000000E+00	 0.00000000E+00	 4.44929000E-13

	 4.64852000E-13	 0.00000000E+00	 0.00000000E+00
	 0.00000000E+00	 4.64852000E-13	 0.00000000E+00
	 0.00000000E+00	 0.00000000E+00	 4.64852000E-13

	 4.62638000E-13	 0.00000000E+00	 0.00000000E+00
	 0.00000000E+00	 4.62638000E-13	 0.00000000E+00
	 0.00000000E+00	 0.00000000E+00	 4.62638000E-13

	 4.64852000E-13	 0.00000000E+00	 0.00000000E+00
	 0.00000000E+00	 4.64852000E-13	 0.00000000E+00
	 0.00000000E+00	 0.00000000E+00	 4.64852000E-13

	 4.38289000E-13	 0.00000000E+00	 0.00000000E+00
	 0.00000000E+00	 4.38289000E-13	 0.00000000E+00
	 0.00000000E+00	 0.00000000E+00	 4.38289000E-13

	 4.58211000E-13	 0.00000000E+00	 0.00000000E+00
	 0.00000000E+00	 4.58211000E-13	 0.00000000E+00
	 0.00000000E+00	 0.00000000E+00	 4.58211000E-13

	 4.38289000E-13	 0.00000000E+00	 0.00000000E+00
	 0.00000000E+00	 4.38289000E-13	 0.00000000E+00
	 0.00000000E+00	 0.00000000E+00	 4.38289000E-13

	 4.49357000E-13	 0.00000000E+00	 0.00000000E+00
	 0.00000000E+00	 4.49357000E-13	 0.00000000E+00
	 0.00000000E+00	 0.00000000E+00	 4.49357000E-13

	 4.38289000E-13	 0.00000000E+00	 0.00000000E+00
	 0.00000000E+00	 4.38289000E-13	 0.00000000E+00
	 0.00000000E+00	 0.00000000E+00	 4.38289000E-13

	 4.38289000E-13	 0.00000000E+00	 0.00000000E+00
	 0.00000000E+00	 4.38289000E-13	 0.00000000E+00
	 0.00000000E+00	 0.00000000E+00	 4.38289000E-13

	 4.40502000E-13	 0.00000000E+00	 0.00000000E+00
	 0.00000000E+00	 4.40502000E-13	 0.00000000E+00
	 0.00000000E+00	 0.00000000E+00	 4.40502000E-13

	 4.40502000E-13	 0.00000000E+00	 0.00000000E+00
	 0.00000000E+00	 4.40502000E-13	 0.00000000E+00
	 0.00000000E+00	 0.00000000E+00	 4.40502000E-13

	 4.40502000E-13	 0.00000000E+00	 0.00000000E+00
	 0.00000000E+00	 4.40502000E-13	 0.00000000E+00
	 0.00000000E+00	 0.00000000E+00	 4.40502000E-13

	 4.64852000E-13	 0.00000000E+00	 0.00000000E+00
	 0.00000000E+00	 4.64852000E-13	 0.00000000E+00
	 0.00000000E+00	 0.00000000E+00	 4.64852000E-13

	 4.64852000E-13	 0.00000000E+00	 0.00000000E+00
	 0.00000000E+00	 4.64852000E-13	 0.00000000E+00
	 0.00000000E+00	 0.00000000E+00	 4.64852000E-13

	 4.64852000E-13	 0.00000000E+00	 0.00000000E+00
	 0.00000000E+00	 4.64852000E-13	 0.00000000E+00
	 0.00000000E+00	 0.00000000E+00	 4.64852000E-13

	 4.38289000E-13	 0.00000000E+00	 0.00000000E+00
	 0.00000000E+00	 4.38289000E-13	 0.00000000E+00
	 0.00000000E+00	 0.00000000E+00	 4.38289000E-13

	 4.58211000E-13	 0.00000000E+00	 0.00000000E+00
	 0.00000000E+00	 4.58211000E-13	 0.00000000E+00
	 0.00000000E+00	 0.00000000E+00	 4.58211000E-13

	 4.64852000E-13	 0.00000000E+00	 0.00000000E+00
	 0.00000000E+00	 4.64852000E-13	 0.00000000E+00
	 0.00000000E+00	 0.00000000E+00	 4.64852000E-13

	 4.38289000E-13	 0.00000000E+00	 0.00000000E+00
	 0.00000000E+00	 4.38289000E-13	 0.00000000E+00
	 0.00000000E+00	 0.00000000E+00	 4.38289000E-13

	 4.44929000E-13	 0.00000000E+00	 0.00000000E+00
	 0.00000000E+00	 4.44929000E-13	 0.00000000E+00
	 0.00000000E+00	 0.00000000E+00	 4.44929000E-13

	 4.64852000E-13	 0.00000000E+00	 0.00000000E+00
	 0.00000000E+00	 4.64852000E-13	 0.00000000E+00
	 0.00000000E+00	 0.00000000E+00	 4.64852000E-13

	 4.38289000E-13	 0.00000000E+00	 0.00000000E+00
	 0.00000000E+00	 4.38289000E-13	 0.00000000E+00
	 0.00000000E+00	 0.00000000E+00	 4.38289000E-13

	 4.64852000E-13	 0.00000000E+00	 0.00000000E+00
	 0.00000000E+00	 4.64852000E-13	 0.00000000E+00
	 0.00000000E+00	 0.00000000E+00	 4.64852000E-13

	 4.64852000E-13	 0.00000000E+00	 0.00000000E+00
	 0.00000000E+00	 4.64852000E-13	 0.00000000E+00
	 0.00000000E+00	 0.00000000E+00	 4.64852000E-13

	 4.38289000E-13	 0.00000000E+00	 0.00000000E+00
	 0.00000000E+00	 4.38289000E-13	 0.00000000E+00
	 0.00000000E+00	 0.00000000E+00	 4.38289000E-13

	 4.38289000E-13	 0.00000000E+00	 0.00000000E+00
	 0.00000000E+00	 4.38289000E-13	 0.00000000E+00
	 0.00000000E+00	 0.00000000E+00	 4.38289000E-13

	 4.64852000E-13	 0.00000000E+00	 0.00000000E+00
	 0.00000000E+00	 4.64852000E-13	 0.00000000E+00
	 0.00000000E+00	 0.00000000E+00	 4.64852000E-13

	 4.62638000E-13	 0.00000000E+00	 0.00000000E+00
	 0.00000000E+00	 4.62638000E-13	 0.00000000E+00
	 0.00000000E+00	 0.00000000E+00	 4.62638000E-13

	 4.57262000E-13	 0.00000000E+00	 0.00000000E+00
	 0.00000000E+00	 4.57262000E-13	 0.00000000E+00
	 0.00000000E+00	 0.00000000E+00	 4.57262000E-13

	 4.64852000E-13	 0.00000000E+00	 0.00000000E+00
	 0.00000000E+00	 4.64852000E-13	 0.00000000E+00
	 0.00000000E+00	 0.00000000E+00	 4.64852000E-13

	 4.44929000E-13	 0.00000000E+00	 0.00000000E+00
	 0.00000000E+00	 4.44929000E-13	 0.00000000E+00
	 0.00000000E+00	 0.00000000E+00	 4.44929000E-13

	 4.38289000E-13	 0.00000000E+00	 0.00000000E+00
	 0.00000000E+00	 4.38289000E-13	 0.00000000E+00
	 0.00000000E+00	 0.00000000E+00	 4.38289000E-13

	 4.64852000E-13	 0.00000000E+00	 0.00000000E+00
	 0.00000000E+00	 4.64852000E-13	 0.00000000E+00
	 0.00000000E+00	 0.00000000E+00	 4.64852000E-13

	 4.38289000E-13	 0.00000000E+00	 0.00000000E+00
	 0.00000000E+00	 4.38289000E-13	 0.00000000E+00
	 0.00000000E+00	 0.00000000E+00	 4.38289000E-13

	 4.62638000E-13	 0.00000000E+00	 0.00000000E+00
	 0.00000000E+00	 4.62638000E-13	 0.00000000E+00
	 0.00000000E+00	 0.00000000E+00	 4.62638000E-13

	 4.57262000E-13	 0.00000000E+00	 0.00000000E+00
	 0.00000000E+00	 4.57262000E-13	 0.00000000E+00
	 0.00000000E+00	 0.00000000E+00	 4.57262000E-13

	 4.47775000E-13	 0.00000000E+00	 0.00000000E+00
	 0.00000000E+00	 4.47775000E-13	 0.00000000E+00
	 0.00000000E+00	 0.00000000E+00	 4.47775000E-13

	 4.40502000E-13	 0.00000000E+00	 0.00000000E+00
	 0.00000000E+00	 4.40502000E-13	 0.00000000E+00
	 0.00000000E+00	 0.00000000E+00	 4.40502000E-13

	 4.64852000E-13	 0.00000000E+00	 0.00000000E+00
	 0.00000000E+00	 4.64852000E-13	 0.00000000E+00
	 0.00000000E+00	 0.00000000E+00	 4.64852000E-13

	 4.64852000E-13	 0.00000000E+00	 0.00000000E+00
	 0.00000000E+00	 4.64852000E-13	 0.00000000E+00
	 0.00000000E+00	 0.00000000E+00	 4.64852000E-13

	 4.42716000E-13	 0.00000000E+00	 0.00000000E+00
	 0.00000000E+00	 4.42716000E-13	 0.00000000E+00
	 0.00000000E+00	 0.00000000E+00	 4.42716000E-13

	 4.64852000E-13	 0.00000000E+00	 0.00000000E+00
	 0.00000000E+00	 4.64852000E-13	 0.00000000E+00
	 0.00000000E+00	 0.00000000E+00	 4.64852000E-13

	 4.38289000E-13	 0.00000000E+00	 0.00000000E+00
	 0.00000000E+00	 4.38289000E-13	 0.00000000E+00
	 0.00000000E+00	 0.00000000E+00	 4.38289000E-13

	 4.47143000E-13	 0.00000000E+00	 0.00000000E+00
	 0.00000000E+00	 4.47143000E-13	 0.00000000E+00
	 0.00000000E+00	 0.00000000E+00	 4.47143000E-13

	 4.43981000E-13	 0.00000000E+00	 0.00000000E+00
	 0.00000000E+00	 4.43981000E-13	 0.00000000E+00
	 0.00000000E+00	 0.00000000E+00	 4.43981000E-13

	 4.64852000E-13	 0.00000000E+00	 0.00000000E+00
	 0.00000000E+00	 4.64852000E-13	 0.00000000E+00
	 0.00000000E+00	 0.00000000E+00	 4.64852000E-13

	 4.64852000E-13	 0.00000000E+00	 0.00000000E+00
	 0.00000000E+00	 4.64852000E-13	 0.00000000E+00
	 0.00000000E+00	 0.00000000E+00	 4.64852000E-13

	 4.64852000E-13	 0.00000000E+00	 0.00000000E+00
	 0.00000000E+00	 4.64852000E-13	 0.00000000E+00
	 0.00000000E+00	 0.00000000E+00	 4.64852000E-13

	 4.64852000E-13	 0.00000000E+00	 0.00000000E+00
	 0.00000000E+00	 4.64852000E-13	 0.00000000E+00
	 0.00000000E+00	 0.00000000E+00	 4.64852000E-13

	 4.64852000E-13	 0.00000000E+00	 0.00000000E+00
	 0.00000000E+00	 4.64852000E-13	 0.00000000E+00
	 0.00000000E+00	 0.00000000E+00	 4.64852000E-13

	 4.38289000E-13	 0.00000000E+00	 0.00000000E+00
	 0.00000000E+00	 4.38289000E-13	 0.00000000E+00
	 0.00000000E+00	 0.00000000E+00	 4.38289000E-13

	 4.73706000E-13	 0.00000000E+00	 0.00000000E+00
	 0.00000000E+00	 4.73706000E-13	 0.00000000E+00
	 0.00000000E+00	 0.00000000E+00	 4.73706000E-13

	 4.62638000E-13	 0.00000000E+00	 0.00000000E+00
	 0.00000000E+00	 4.62638000E-13	 0.00000000E+00
	 0.00000000E+00	 0.00000000E+00	 4.62638000E-13

	 4.64852000E-13	 0.00000000E+00	 0.00000000E+00
	 0.00000000E+00	 4.64852000E-13	 0.00000000E+00
	 0.00000000E+00	 0.00000000E+00	 4.64852000E-13

	 4.47143000E-13	 0.00000000E+00	 0.00000000E+00
	 0.00000000E+00	 4.47143000E-13	 0.00000000E+00
	 0.00000000E+00	 0.00000000E+00	 4.47143000E-13

	 4.38289000E-13	 0.00000000E+00	 0.00000000E+00
	 0.00000000E+00	 4.38289000E-13	 0.00000000E+00
	 0.00000000E+00	 0.00000000E+00	 4.38289000E-13

	 4.62638000E-13	 0.00000000E+00	 0.00000000E+00
	 0.00000000E+00	 4.62638000E-13	 0.00000000E+00
	 0.00000000E+00	 0.00000000E+00	 4.62638000E-13

	 4.42083000E-13	 0.00000000E+00	 0.00000000E+00
	 0.00000000E+00	 4.42083000E-13	 0.00000000E+00
	 0.00000000E+00	 0.00000000E+00	 4.42083000E-13

	 4.61057000E-13	 0.00000000E+00	 0.00000000E+00
	 0.00000000E+00	 4.61057000E-13	 0.00000000E+00
	 0.00000000E+00	 0.00000000E+00	 4.61057000E-13

	 4.38289000E-13	 0.00000000E+00	 0.00000000E+00
	 0.00000000E+00	 4.38289000E-13	 0.00000000E+00
	 0.00000000E+00	 0.00000000E+00	 4.38289000E-13

	 4.64852000E-13	 0.00000000E+00	 0.00000000E+00
	 0.00000000E+00	 4.64852000E-13	 0.00000000E+00
	 0.00000000E+00	 0.00000000E+00	 4.64852000E-13

	 4.40502000E-13	 0.00000000E+00	 0.00000000E+00
	 0.00000000E+00	 4.40502000E-13	 0.00000000E+00
	 0.00000000E+00	 0.00000000E+00	 4.40502000E-13

	 4.64852000E-13	 0.00000000E+00	 0.00000000E+00
	 0.00000000E+00	 4.64852000E-13	 0.00000000E+00
	 0.00000000E+00	 0.00000000E+00	 4.64852000E-13

	 4.44929000E-13	 0.00000000E+00	 0.00000000E+00
	 0.00000000E+00	 4.44929000E-13	 0.00000000E+00
	 0.00000000E+00	 0.00000000E+00	 4.44929000E-13

	 4.38289000E-13	 0.00000000E+00	 0.00000000E+00
	 0.00000000E+00	 4.38289000E-13	 0.00000000E+00
	 0.00000000E+00	 0.00000000E+00	 4.38289000E-13

	 4.60425000E-13	 0.00000000E+00	 0.00000000E+00
	 0.00000000E+00	 4.60425000E-13	 0.00000000E+00
	 0.00000000E+00	 0.00000000E+00	 4.60425000E-13

	 4.38289000E-13	 0.00000000E+00	 0.00000000E+00
	 0.00000000E+00	 4.38289000E-13	 0.00000000E+00
	 0.00000000E+00	 0.00000000E+00	 4.38289000E-13

	 4.64852000E-13	 0.00000000E+00	 0.00000000E+00
	 0.00000000E+00	 4.64852000E-13	 0.00000000E+00
	 0.00000000E+00	 0.00000000E+00	 4.64852000E-13

	 4.40502000E-13	 0.00000000E+00	 0.00000000E+00
	 0.00000000E+00	 4.40502000E-13	 0.00000000E+00
	 0.00000000E+00	 0.00000000E+00	 4.40502000E-13

	 4.64852000E-13	 0.00000000E+00	 0.00000000E+00
	 0.00000000E+00	 4.64852000E-13	 0.00000000E+00
	 0.00000000E+00	 0.00000000E+00	 4.64852000E-13

	 4.42716000E-13	 0.00000000E+00	 0.00000000E+00
	 0.00000000E+00	 4.42716000E-13	 0.00000000E+00
	 0.00000000E+00	 0.00000000E+00	 4.42716000E-13

	 4.64852000E-13	 0.00000000E+00	 0.00000000E+00
	 0.00000000E+00	 4.64852000E-13	 0.00000000E+00
	 0.00000000E+00	 0.00000000E+00	 4.64852000E-13

	 4.58211000E-13	 0.00000000E+00	 0.00000000E+00
	 0.00000000E+00	 4.58211000E-13	 0.00000000E+00
	 0.00000000E+00	 0.00000000E+00	 4.58211000E-13

	 4.42716000E-13	 0.00000000E+00	 0.00000000E+00
	 0.00000000E+00	 4.42716000E-13	 0.00000000E+00
	 0.00000000E+00	 0.00000000E+00	 4.42716000E-13

	 4.40502000E-13	 0.00000000E+00	 0.00000000E+00
	 0.00000000E+00	 4.40502000E-13	 0.00000000E+00
	 0.00000000E+00	 0.00000000E+00	 4.40502000E-13

	 4.38289000E-13	 0.00000000E+00	 0.00000000E+00
	 0.00000000E+00	 4.38289000E-13	 0.00000000E+00
	 0.00000000E+00	 0.00000000E+00	 4.38289000E-13

	 4.38289000E-13	 0.00000000E+00	 0.00000000E+00
	 0.00000000E+00	 4.38289000E-13	 0.00000000E+00
	 0.00000000E+00	 0.00000000E+00	 4.38289000E-13

	 4.64852000E-13	 0.00000000E+00	 0.00000000E+00
	 0.00000000E+00	 4.64852000E-13	 0.00000000E+00
	 0.00000000E+00	 0.00000000E+00	 4.64852000E-13

	 4.64852000E-13	 0.00000000E+00	 0.00000000E+00
	 0.00000000E+00	 4.64852000E-13	 0.00000000E+00
	 0.00000000E+00	 0.00000000E+00	 4.64852000E-13

	 4.64852000E-13	 0.00000000E+00	 0.00000000E+00
	 0.00000000E+00	 4.64852000E-13	 0.00000000E+00
	 0.00000000E+00	 0.00000000E+00	 4.64852000E-13

	 4.64852000E-13	 0.00000000E+00	 0.00000000E+00
	 0.00000000E+00	 4.64852000E-13	 0.00000000E+00
	 0.00000000E+00	 0.00000000E+00	 4.64852000E-13

	 4.40502000E-13	 0.00000000E+00	 0.00000000E+00
	 0.00000000E+00	 4.40502000E-13	 0.00000000E+00
	 0.00000000E+00	 0.00000000E+00	 4.40502000E-13

	 4.38289000E-13	 0.00000000E+00	 0.00000000E+00
	 0.00000000E+00	 4.38289000E-13	 0.00000000E+00
	 0.00000000E+00	 0.00000000E+00	 4.38289000E-13

	 4.60425000E-13	 0.00000000E+00	 0.00000000E+00
	 0.00000000E+00	 4.60425000E-13	 0.00000000E+00
	 0.00000000E+00	 0.00000000E+00	 4.60425000E-13

	 4.38289000E-13	 0.00000000E+00	 0.00000000E+00
	 0.00000000E+00	 4.38289000E-13	 0.00000000E+00
	 0.00000000E+00	 0.00000000E+00	 4.38289000E-13

	 4.64852000E-13	 0.00000000E+00	 0.00000000E+00
	 0.00000000E+00	 4.64852000E-13	 0.00000000E+00
	 0.00000000E+00	 0.00000000E+00	 4.64852000E-13

	 4.44929000E-13	 0.00000000E+00	 0.00000000E+00
	 0.00000000E+00	 4.44929000E-13	 0.00000000E+00
	 0.00000000E+00	 0.00000000E+00	 4.44929000E-13

	 4.64852000E-13	 0.00000000E+00	 0.00000000E+00
	 0.00000000E+00	 4.64852000E-13	 0.00000000E+00
	 0.00000000E+00	 0.00000000E+00	 4.64852000E-13

	 4.64852000E-13	 0.00000000E+00	 0.00000000E+00
	 0.00000000E+00	 4.64852000E-13	 0.00000000E+00
	 0.00000000E+00	 0.00000000E+00	 4.64852000E-13

	 4.38289000E-13	 0.00000000E+00	 0.00000000E+00
	 0.00000000E+00	 4.38289000E-13	 0.00000000E+00
	 0.00000000E+00	 0.00000000E+00	 4.38289000E-13

	 4.51570000E-13	 0.00000000E+00	 0.00000000E+00
	 0.00000000E+00	 4.51570000E-13	 0.00000000E+00
	 0.00000000E+00	 0.00000000E+00	 4.51570000E-13

	 4.60425000E-13	 0.00000000E+00	 0.00000000E+00
	 0.00000000E+00	 4.60425000E-13	 0.00000000E+00
	 0.00000000E+00	 0.00000000E+00	 4.60425000E-13

	 4.38289000E-13	 0.00000000E+00	 0.00000000E+00
	 0.00000000E+00	 4.38289000E-13	 0.00000000E+00
	 0.00000000E+00	 0.00000000E+00	 4.38289000E-13

	 4.64852000E-13	 0.00000000E+00	 0.00000000E+00
	 0.00000000E+00	 4.64852000E-13	 0.00000000E+00
	 0.00000000E+00	 0.00000000E+00	 4.64852000E-13

	 4.44929000E-13	 0.00000000E+00	 0.00000000E+00
	 0.00000000E+00	 4.44929000E-13	 0.00000000E+00
	 0.00000000E+00	 0.00000000E+00	 4.44929000E-13

	 4.64852000E-13	 0.00000000E+00	 0.00000000E+00
	 0.00000000E+00	 4.64852000E-13	 0.00000000E+00
	 0.00000000E+00	 0.00000000E+00	 4.64852000E-13

	 4.64852000E-13	 0.00000000E+00	 0.00000000E+00
	 0.00000000E+00	 4.64852000E-13	 0.00000000E+00
	 0.00000000E+00	 0.00000000E+00	 4.64852000E-13

	 4.44929000E-13	 0.00000000E+00	 0.00000000E+00
	 0.00000000E+00	 4.44929000E-13	 0.00000000E+00
	 0.00000000E+00	 0.00000000E+00	 4.44929000E-13

	 4.60425000E-13	 0.00000000E+00	 0.00000000E+00
	 0.00000000E+00	 4.60425000E-13	 0.00000000E+00
	 0.00000000E+00	 0.00000000E+00	 4.60425000E-13

	 4.42716000E-13	 0.00000000E+00	 0.00000000E+00
	 0.00000000E+00	 4.42716000E-13	 0.00000000E+00
	 0.00000000E+00	 0.00000000E+00	 4.42716000E-13

	 4.64852000E-13	 0.00000000E+00	 0.00000000E+00
	 0.00000000E+00	 4.64852000E-13	 0.00000000E+00
	 0.00000000E+00	 0.00000000E+00	 4.64852000E-13

	 4.64852000E-13	 0.00000000E+00	 0.00000000E+00
	 0.00000000E+00	 4.64852000E-13	 0.00000000E+00
	 0.00000000E+00	 0.00000000E+00	 4.64852000E-13

	 4.38289000E-13	 0.00000000E+00	 0.00000000E+00
	 0.00000000E+00	 4.38289000E-13	 0.00000000E+00
	 0.00000000E+00	 0.00000000E+00	 4.38289000E-13

	 4.38289000E-13	 0.00000000E+00	 0.00000000E+00
	 0.00000000E+00	 4.38289000E-13	 0.00000000E+00
	 0.00000000E+00	 0.00000000E+00	 4.38289000E-13

	 4.49357000E-13	 0.00000000E+00	 0.00000000E+00
	 0.00000000E+00	 4.49357000E-13	 0.00000000E+00
	 0.00000000E+00	 0.00000000E+00	 4.49357000E-13

	 4.40502000E-13	 0.00000000E+00	 0.00000000E+00
	 0.00000000E+00	 4.40502000E-13	 0.00000000E+00
	 0.00000000E+00	 0.00000000E+00	 4.40502000E-13

	 4.42716000E-13	 0.00000000E+00	 0.00000000E+00
	 0.00000000E+00	 4.42716000E-13	 0.00000000E+00
	 0.00000000E+00	 0.00000000E+00	 4.42716000E-13

	 4.64852000E-13	 0.00000000E+00	 0.00000000E+00
	 0.00000000E+00	 4.64852000E-13	 0.00000000E+00
	 0.00000000E+00	 0.00000000E+00	 4.64852000E-13

	 4.44929000E-13	 0.00000000E+00	 0.00000000E+00
	 0.00000000E+00	 4.44929000E-13	 0.00000000E+00
	 0.00000000E+00	 0.00000000E+00	 4.44929000E-13

	 4.64852000E-13	 0.00000000E+00	 0.00000000E+00
	 0.00000000E+00	 4.64852000E-13	 0.00000000E+00
	 0.00000000E+00	 0.00000000E+00	 4.64852000E-13

	 4.53784000E-13	 0.00000000E+00	 0.00000000E+00
	 0.00000000E+00	 4.53784000E-13	 0.00000000E+00
	 0.00000000E+00	 0.00000000E+00	 4.53784000E-13

	 4.42716000E-13	 0.00000000E+00	 0.00000000E+00
	 0.00000000E+00	 4.42716000E-13	 0.00000000E+00
	 0.00000000E+00	 0.00000000E+00	 4.42716000E-13

	 4.64852000E-13	 0.00000000E+00	 0.00000000E+00
	 0.00000000E+00	 4.64852000E-13	 0.00000000E+00
	 0.00000000E+00	 0.00000000E+00	 4.64852000E-13

	 4.64852000E-13	 0.00000000E+00	 0.00000000E+00
	 0.00000000E+00	 4.64852000E-13	 0.00000000E+00
	 0.00000000E+00	 0.00000000E+00	 4.64852000E-13

	 4.51570000E-13	 0.00000000E+00	 0.00000000E+00
	 0.00000000E+00	 4.51570000E-13	 0.00000000E+00
	 0.00000000E+00	 0.00000000E+00	 4.51570000E-13

	 4.55997000E-13	 0.00000000E+00	 0.00000000E+00
	 0.00000000E+00	 4.55997000E-13	 0.00000000E+00
	 0.00000000E+00	 0.00000000E+00	 4.55997000E-13

	 4.38289000E-13	 0.00000000E+00	 0.00000000E+00
	 0.00000000E+00	 4.38289000E-13	 0.00000000E+00
	 0.00000000E+00	 0.00000000E+00	 4.38289000E-13

	 4.42716000E-13	 0.00000000E+00	 0.00000000E+00
	 0.00000000E+00	 4.42716000E-13	 0.00000000E+00
	 0.00000000E+00	 0.00000000E+00	 4.42716000E-13

	 4.49357000E-13	 0.00000000E+00	 0.00000000E+00
	 0.00000000E+00	 4.49357000E-13	 0.00000000E+00
	 0.00000000E+00	 0.00000000E+00	 4.49357000E-13

	 4.58211000E-13	 0.00000000E+00	 0.00000000E+00
	 0.00000000E+00	 4.58211000E-13	 0.00000000E+00
	 0.00000000E+00	 0.00000000E+00	 4.58211000E-13

	 4.40502000E-13	 0.00000000E+00	 0.00000000E+00
	 0.00000000E+00	 4.40502000E-13	 0.00000000E+00
	 0.00000000E+00	 0.00000000E+00	 4.40502000E-13

	 4.47143000E-13	 0.00000000E+00	 0.00000000E+00
	 0.00000000E+00	 4.47143000E-13	 0.00000000E+00
	 0.00000000E+00	 0.00000000E+00	 4.47143000E-13

	 4.38289000E-13	 0.00000000E+00	 0.00000000E+00
	 0.00000000E+00	 4.38289000E-13	 0.00000000E+00
	 0.00000000E+00	 0.00000000E+00	 4.38289000E-13

	 4.64852000E-13	 0.00000000E+00	 0.00000000E+00
	 0.00000000E+00	 4.64852000E-13	 0.00000000E+00
	 0.00000000E+00	 0.00000000E+00	 4.64852000E-13

	 4.64852000E-13	 0.00000000E+00	 0.00000000E+00
	 0.00000000E+00	 4.64852000E-13	 0.00000000E+00
	 0.00000000E+00	 0.00000000E+00	 4.64852000E-13

	 4.64852000E-13	 0.00000000E+00	 0.00000000E+00
	 0.00000000E+00	 4.64852000E-13	 0.00000000E+00
	 0.00000000E+00	 0.00000000E+00	 4.64852000E-13

	 4.64852000E-13	 0.00000000E+00	 0.00000000E+00
	 0.00000000E+00	 4.64852000E-13	 0.00000000E+00
	 0.00000000E+00	 0.00000000E+00	 4.64852000E-13

	 4.60425000E-13	 0.00000000E+00	 0.00000000E+00
	 0.00000000E+00	 4.60425000E-13	 0.00000000E+00
	 0.00000000E+00	 0.00000000E+00	 4.60425000E-13

	 4.40502000E-13	 0.00000000E+00	 0.00000000E+00
	 0.00000000E+00	 4.40502000E-13	 0.00000000E+00
	 0.00000000E+00	 0.00000000E+00	 4.40502000E-13

	 4.38289000E-13	 0.00000000E+00	 0.00000000E+00
	 0.00000000E+00	 4.38289000E-13	 0.00000000E+00
	 0.00000000E+00	 0.00000000E+00	 4.38289000E-13

	 4.40502000E-13	 0.00000000E+00	 0.00000000E+00
	 0.00000000E+00	 4.40502000E-13	 0.00000000E+00
	 0.00000000E+00	 0.00000000E+00	 4.40502000E-13

	 4.38289000E-13	 0.00000000E+00	 0.00000000E+00
	 0.00000000E+00	 4.38289000E-13	 0.00000000E+00
	 0.00000000E+00	 0.00000000E+00	 4.38289000E-13

	 4.64852000E-13	 0.00000000E+00	 0.00000000E+00
	 0.00000000E+00	 4.64852000E-13	 0.00000000E+00
	 0.00000000E+00	 0.00000000E+00	 4.64852000E-13

	 4.40502000E-13	 0.00000000E+00	 0.00000000E+00
	 0.00000000E+00	 4.40502000E-13	 0.00000000E+00
	 0.00000000E+00	 0.00000000E+00	 4.40502000E-13

	 4.44929000E-13	 0.00000000E+00	 0.00000000E+00
	 0.00000000E+00	 4.44929000E-13	 0.00000000E+00
	 0.00000000E+00	 0.00000000E+00	 4.44929000E-13

	 4.38289000E-13	 0.00000000E+00	 0.00000000E+00
	 0.00000000E+00	 4.38289000E-13	 0.00000000E+00
	 0.00000000E+00	 0.00000000E+00	 4.38289000E-13

	 4.64852000E-13	 0.00000000E+00	 0.00000000E+00
	 0.00000000E+00	 4.64852000E-13	 0.00000000E+00
	 0.00000000E+00	 0.00000000E+00	 4.64852000E-13

	 4.62638000E-13	 0.00000000E+00	 0.00000000E+00
	 0.00000000E+00	 4.62638000E-13	 0.00000000E+00
	 0.00000000E+00	 0.00000000E+00	 4.62638000E-13

	 4.40502000E-13	 0.00000000E+00	 0.00000000E+00
	 0.00000000E+00	 4.40502000E-13	 0.00000000E+00
	 0.00000000E+00	 0.00000000E+00	 4.40502000E-13

	 4.60425000E-13	 0.00000000E+00	 0.00000000E+00
	 0.00000000E+00	 4.60425000E-13	 0.00000000E+00
	 0.00000000E+00	 0.00000000E+00	 4.60425000E-13

	 4.53784000E-13	 0.00000000E+00	 0.00000000E+00
	 0.00000000E+00	 4.53784000E-13	 0.00000000E+00
	 0.00000000E+00	 0.00000000E+00	 4.53784000E-13

	 4.58211000E-13	 0.00000000E+00	 0.00000000E+00
	 0.00000000E+00	 4.58211000E-13	 0.00000000E+00
	 0.00000000E+00	 0.00000000E+00	 4.58211000E-13

	 4.40502000E-13	 0.00000000E+00	 0.00000000E+00
	 0.00000000E+00	 4.40502000E-13	 0.00000000E+00
	 0.00000000E+00	 0.00000000E+00	 4.40502000E-13

	 4.42716000E-13	 0.00000000E+00	 0.00000000E+00
	 0.00000000E+00	 4.42716000E-13	 0.00000000E+00
	 0.00000000E+00	 0.00000000E+00	 4.42716000E-13

	 4.64852000E-13	 0.00000000E+00	 0.00000000E+00
	 0.00000000E+00	 4.64852000E-13	 0.00000000E+00
	 0.00000000E+00	 0.00000000E+00	 4.64852000E-13

	 4.64852000E-13	 0.00000000E+00	 0.00000000E+00
	 0.00000000E+00	 4.64852000E-13	 0.00000000E+00
	 0.00000000E+00	 0.00000000E+00	 4.64852000E-13

	 4.38289000E-13	 0.00000000E+00	 0.00000000E+00
	 0.00000000E+00	 4.38289000E-13	 0.00000000E+00
	 0.00000000E+00	 0.00000000E+00	 4.38289000E-13

	 4.38289000E-13	 0.00000000E+00	 0.00000000E+00
	 0.00000000E+00	 4.38289000E-13	 0.00000000E+00
	 0.00000000E+00	 0.00000000E+00	 4.38289000E-13

	 4.53784000E-13	 0.00000000E+00	 0.00000000E+00
	 0.00000000E+00	 4.53784000E-13	 0.00000000E+00
	 0.00000000E+00	 0.00000000E+00	 4.53784000E-13

	 4.55997000E-13	 0.00000000E+00	 0.00000000E+00
	 0.00000000E+00	 4.55997000E-13	 0.00000000E+00
	 0.00000000E+00	 0.00000000E+00	 4.55997000E-13

	 4.64852000E-13	 0.00000000E+00	 0.00000000E+00
	 0.00000000E+00	 4.64852000E-13	 0.00000000E+00
	 0.00000000E+00	 0.00000000E+00	 4.64852000E-13

	 4.47143000E-13	 0.00000000E+00	 0.00000000E+00
	 0.00000000E+00	 4.47143000E-13	 0.00000000E+00
	 0.00000000E+00	 0.00000000E+00	 4.47143000E-13

	 4.44929000E-13	 0.00000000E+00	 0.00000000E+00
	 0.00000000E+00	 4.44929000E-13	 0.00000000E+00
	 0.00000000E+00	 0.00000000E+00	 4.44929000E-13

	 4.38289000E-13	 0.00000000E+00	 0.00000000E+00
	 0.00000000E+00	 4.38289000E-13	 0.00000000E+00
	 0.00000000E+00	 0.00000000E+00	 4.38289000E-13

	 4.38289000E-13	 0.00000000E+00	 0.00000000E+00
	 0.00000000E+00	 4.38289000E-13	 0.00000000E+00
	 0.00000000E+00	 0.00000000E+00	 4.38289000E-13

	 4.64852000E-13	 0.00000000E+00	 0.00000000E+00
	 0.00000000E+00	 4.64852000E-13	 0.00000000E+00
	 0.00000000E+00	 0.00000000E+00	 4.64852000E-13

	 4.64852000E-13	 0.00000000E+00	 0.00000000E+00
	 0.00000000E+00	 4.64852000E-13	 0.00000000E+00
	 0.00000000E+00	 0.00000000E+00	 4.64852000E-13

	 4.42716000E-13	 0.00000000E+00	 0.00000000E+00
	 0.00000000E+00	 4.42716000E-13	 0.00000000E+00
	 0.00000000E+00	 0.00000000E+00	 4.42716000E-13

	 4.44929000E-13	 0.00000000E+00	 0.00000000E+00
	 0.00000000E+00	 4.44929000E-13	 0.00000000E+00
	 0.00000000E+00	 0.00000000E+00	 4.44929000E-13

	 4.64852000E-13	 0.00000000E+00	 0.00000000E+00
	 0.00000000E+00	 4.64852000E-13	 0.00000000E+00
	 0.00000000E+00	 0.00000000E+00	 4.64852000E-13

	 4.64852000E-13	 0.00000000E+00	 0.00000000E+00
	 0.00000000E+00	 4.64852000E-13	 0.00000000E+00
	 0.00000000E+00	 0.00000000E+00	 4.64852000E-13

	 4.64852000E-13	 0.00000000E+00	 0.00000000E+00
	 0.00000000E+00	 4.64852000E-13	 0.00000000E+00
	 0.00000000E+00	 0.00000000E+00	 4.64852000E-13

	 4.47143000E-13	 0.00000000E+00	 0.00000000E+00
	 0.00000000E+00	 4.47143000E-13	 0.00000000E+00
	 0.00000000E+00	 0.00000000E+00	 4.47143000E-13

	 4.38289000E-13	 0.00000000E+00	 0.00000000E+00
	 0.00000000E+00	 4.38289000E-13	 0.00000000E+00
	 0.00000000E+00	 0.00000000E+00	 4.38289000E-13

	 4.53784000E-13	 0.00000000E+00	 0.00000000E+00
	 0.00000000E+00	 4.53784000E-13	 0.00000000E+00
	 0.00000000E+00	 0.00000000E+00	 4.53784000E-13

	 4.42716000E-13	 0.00000000E+00	 0.00000000E+00
	 0.00000000E+00	 4.42716000E-13	 0.00000000E+00
	 0.00000000E+00	 0.00000000E+00	 4.42716000E-13

	 4.64852000E-13	 0.00000000E+00	 0.00000000E+00
	 0.00000000E+00	 4.64852000E-13	 0.00000000E+00
	 0.00000000E+00	 0.00000000E+00	 4.64852000E-13

	 4.64852000E-13	 0.00000000E+00	 0.00000000E+00
	 0.00000000E+00	 4.64852000E-13	 0.00000000E+00
	 0.00000000E+00	 0.00000000E+00	 4.64852000E-13

	 4.38289000E-13	 0.00000000E+00	 0.00000000E+00
	 0.00000000E+00	 4.38289000E-13	 0.00000000E+00
	 0.00000000E+00	 0.00000000E+00	 4.38289000E-13

	 4.44929000E-13	 0.00000000E+00	 0.00000000E+00
	 0.00000000E+00	 4.44929000E-13	 0.00000000E+00
	 0.00000000E+00	 0.00000000E+00	 4.44929000E-13

	 4.64852000E-13	 0.00000000E+00	 0.00000000E+00
	 0.00000000E+00	 4.64852000E-13	 0.00000000E+00
	 0.00000000E+00	 0.00000000E+00	 4.64852000E-13

	 4.38289000E-13	 0.00000000E+00	 0.00000000E+00
	 0.00000000E+00	 4.38289000E-13	 0.00000000E+00
	 0.00000000E+00	 0.00000000E+00	 4.38289000E-13

	 4.64852000E-13	 0.00000000E+00	 0.00000000E+00
	 0.00000000E+00	 4.64852000E-13	 0.00000000E+00
	 0.00000000E+00	 0.00000000E+00	 4.64852000E-13

	 4.44929000E-13	 0.00000000E+00	 0.00000000E+00
	 0.00000000E+00	 4.44929000E-13	 0.00000000E+00
	 0.00000000E+00	 0.00000000E+00	 4.44929000E-13

	 4.64852000E-13	 0.00000000E+00	 0.00000000E+00
	 0.00000000E+00	 4.64852000E-13	 0.00000000E+00
	 0.00000000E+00	 0.00000000E+00	 4.64852000E-13

	 4.38289000E-13	 0.00000000E+00	 0.00000000E+00
	 0.00000000E+00	 4.38289000E-13	 0.00000000E+00
	 0.00000000E+00	 0.00000000E+00	 4.38289000E-13

	 4.64852000E-13	 0.00000000E+00	 0.00000000E+00
	 0.00000000E+00	 4.64852000E-13	 0.00000000E+00
	 0.00000000E+00	 0.00000000E+00	 4.64852000E-13

	 4.53784000E-13	 0.00000000E+00	 0.00000000E+00
	 0.00000000E+00	 4.53784000E-13	 0.00000000E+00
	 0.00000000E+00	 0.00000000E+00	 4.53784000E-13

	 4.62638000E-13	 0.00000000E+00	 0.00000000E+00
	 0.00000000E+00	 4.62638000E-13	 0.00000000E+00
	 0.00000000E+00	 0.00000000E+00	 4.62638000E-13

	 4.64852000E-13	 0.00000000E+00	 0.00000000E+00
	 0.00000000E+00	 4.64852000E-13	 0.00000000E+00
	 0.00000000E+00	 0.00000000E+00	 4.64852000E-13

	 4.64852000E-13	 0.00000000E+00	 0.00000000E+00
	 0.00000000E+00	 4.64852000E-13	 0.00000000E+00
	 0.00000000E+00	 0.00000000E+00	 4.64852000E-13

	 4.60425000E-13	 0.00000000E+00	 0.00000000E+00
	 0.00000000E+00	 4.60425000E-13	 0.00000000E+00
	 0.00000000E+00	 0.00000000E+00	 4.60425000E-13

	 4.47143000E-13	 0.00000000E+00	 0.00000000E+00
	 0.00000000E+00	 4.47143000E-13	 0.00000000E+00
	 0.00000000E+00	 0.00000000E+00	 4.47143000E-13

	 4.40502000E-13	 0.00000000E+00	 0.00000000E+00
	 0.00000000E+00	 4.40502000E-13	 0.00000000E+00
	 0.00000000E+00	 0.00000000E+00	 4.40502000E-13

	 4.42083000E-13	 0.00000000E+00	 0.00000000E+00
	 0.00000000E+00	 4.42083000E-13	 0.00000000E+00
	 0.00000000E+00	 0.00000000E+00	 4.42083000E-13

	 4.38289000E-13	 0.00000000E+00	 0.00000000E+00
	 0.00000000E+00	 4.38289000E-13	 0.00000000E+00
	 0.00000000E+00	 0.00000000E+00	 4.38289000E-13

	 4.38289000E-13	 0.00000000E+00	 0.00000000E+00
	 0.00000000E+00	 4.38289000E-13	 0.00000000E+00
	 0.00000000E+00	 0.00000000E+00	 4.38289000E-13

	 4.64852000E-13	 0.00000000E+00	 0.00000000E+00
	 0.00000000E+00	 4.64852000E-13	 0.00000000E+00
	 0.00000000E+00	 0.00000000E+00	 4.64852000E-13

	 4.64852000E-13	 0.00000000E+00	 0.00000000E+00
	 0.00000000E+00	 4.64852000E-13	 0.00000000E+00
	 0.00000000E+00	 0.00000000E+00	 4.64852000E-13

	 4.38289000E-13	 0.00000000E+00	 0.00000000E+00
	 0.00000000E+00	 4.38289000E-13	 0.00000000E+00
	 0.00000000E+00	 0.00000000E+00	 4.38289000E-13

	 4.38289000E-13	 0.00000000E+00	 0.00000000E+00
	 0.00000000E+00	 4.38289000E-13	 0.00000000E+00
	 0.00000000E+00	 0.00000000E+00	 4.38289000E-13

	 4.64852000E-13	 0.00000000E+00	 0.00000000E+00
	 0.00000000E+00	 4.64852000E-13	 0.00000000E+00
	 0.00000000E+00	 0.00000000E+00	 4.64852000E-13

	 4.64852000E-13	 0.00000000E+00	 0.00000000E+00
	 0.00000000E+00	 4.64852000E-13	 0.00000000E+00
	 0.00000000E+00	 0.00000000E+00	 4.64852000E-13

	 4.44929000E-13	 0.00000000E+00	 0.00000000E+00
	 0.00000000E+00	 4.44929000E-13	 0.00000000E+00
	 0.00000000E+00	 0.00000000E+00	 4.44929000E-13

	 4.64852000E-13	 0.00000000E+00	 0.00000000E+00
	 0.00000000E+00	 4.64852000E-13	 0.00000000E+00
	 0.00000000E+00	 0.00000000E+00	 4.64852000E-13

	 4.64852000E-13	 0.00000000E+00	 0.00000000E+00
	 0.00000000E+00	 4.64852000E-13	 0.00000000E+00
	 0.00000000E+00	 0.00000000E+00	 4.64852000E-13

	 4.60425000E-13	 0.00000000E+00	 0.00000000E+00
	 0.00000000E+00	 4.60425000E-13	 0.00000000E+00
	 0.00000000E+00	 0.00000000E+00	 4.60425000E-13

	 4.60425000E-13	 0.00000000E+00	 0.00000000E+00
	 0.00000000E+00	 4.60425000E-13	 0.00000000E+00
	 0.00000000E+00	 0.00000000E+00	 4.60425000E-13

	 4.64852000E-13	 0.00000000E+00	 0.00000000E+00
	 0.00000000E+00	 4.64852000E-13	 0.00000000E+00
	 0.00000000E+00	 0.00000000E+00	 4.64852000E-13

	 4.38289000E-13	 0.00000000E+00	 0.00000000E+00
	 0.00000000E+00	 4.38289000E-13	 0.00000000E+00
	 0.00000000E+00	 0.00000000E+00	 4.38289000E-13

	 4.44929000E-13	 0.00000000E+00	 0.00000000E+00
	 0.00000000E+00	 4.44929000E-13	 0.00000000E+00
	 0.00000000E+00	 0.00000000E+00	 4.44929000E-13

	 4.64852000E-13	 0.00000000E+00	 0.00000000E+00
	 0.00000000E+00	 4.64852000E-13	 0.00000000E+00
	 0.00000000E+00	 0.00000000E+00	 4.64852000E-13

	 4.64852000E-13	 0.00000000E+00	 0.00000000E+00
	 0.00000000E+00	 4.64852000E-13	 0.00000000E+00
	 0.00000000E+00	 0.00000000E+00	 4.64852000E-13

	 4.40502000E-13	 0.00000000E+00	 0.00000000E+00
	 0.00000000E+00	 4.40502000E-13	 0.00000000E+00
	 0.00000000E+00	 0.00000000E+00	 4.40502000E-13

	 4.38289000E-13	 0.00000000E+00	 0.00000000E+00
	 0.00000000E+00	 4.38289000E-13	 0.00000000E+00
	 0.00000000E+00	 0.00000000E+00	 4.38289000E-13

	 4.53784000E-13	 0.00000000E+00	 0.00000000E+00
	 0.00000000E+00	 4.53784000E-13	 0.00000000E+00
	 0.00000000E+00	 0.00000000E+00	 4.53784000E-13

	 4.51570000E-13	 0.00000000E+00	 0.00000000E+00
	 0.00000000E+00	 4.51570000E-13	 0.00000000E+00
	 0.00000000E+00	 0.00000000E+00	 4.51570000E-13

	 4.51570000E-13	 0.00000000E+00	 0.00000000E+00
	 0.00000000E+00	 4.51570000E-13	 0.00000000E+00
	 0.00000000E+00	 0.00000000E+00	 4.51570000E-13

	 4.64852000E-13	 0.00000000E+00	 0.00000000E+00
	 0.00000000E+00	 4.64852000E-13	 0.00000000E+00
	 0.00000000E+00	 0.00000000E+00	 4.64852000E-13

	 4.64852000E-13	 0.00000000E+00	 0.00000000E+00
	 0.00000000E+00	 4.64852000E-13	 0.00000000E+00
	 0.00000000E+00	 0.00000000E+00	 4.64852000E-13

	 4.42716000E-13	 0.00000000E+00	 0.00000000E+00
	 0.00000000E+00	 4.42716000E-13	 0.00000000E+00
	 0.00000000E+00	 0.00000000E+00	 4.42716000E-13

	 4.64852000E-13	 0.00000000E+00	 0.00000000E+00
	 0.00000000E+00	 4.64852000E-13	 0.00000000E+00
	 0.00000000E+00	 0.00000000E+00	 4.64852000E-13

	 4.60425000E-13	 0.00000000E+00	 0.00000000E+00
	 0.00000000E+00	 4.60425000E-13	 0.00000000E+00
	 0.00000000E+00	 0.00000000E+00	 4.60425000E-13

	 4.42716000E-13	 0.00000000E+00	 0.00000000E+00
	 0.00000000E+00	 4.42716000E-13	 0.00000000E+00
	 0.00000000E+00	 0.00000000E+00	 4.42716000E-13

	 4.38289000E-13	 0.00000000E+00	 0.00000000E+00
	 0.00000000E+00	 4.38289000E-13	 0.00000000E+00
	 0.00000000E+00	 0.00000000E+00	 4.38289000E-13

	 4.38289000E-13	 0.00000000E+00	 0.00000000E+00
	 0.00000000E+00	 4.38289000E-13	 0.00000000E+00
	 0.00000000E+00	 0.00000000E+00	 4.38289000E-13

	 4.64852000E-13	 0.00000000E+00	 0.00000000E+00
	 0.00000000E+00	 4.64852000E-13	 0.00000000E+00
	 0.00000000E+00	 0.00000000E+00	 4.64852000E-13

	 4.38289000E-13	 0.00000000E+00	 0.00000000E+00
	 0.00000000E+00	 4.38289000E-13	 0.00000000E+00
	 0.00000000E+00	 0.00000000E+00	 4.38289000E-13

	 4.64852000E-13	 0.00000000E+00	 0.00000000E+00
	 0.00000000E+00	 4.64852000E-13	 0.00000000E+00
	 0.00000000E+00	 0.00000000E+00	 4.64852000E-13

	 4.38289000E-13	 0.00000000E+00	 0.00000000E+00
	 0.00000000E+00	 4.38289000E-13	 0.00000000E+00
	 0.00000000E+00	 0.00000000E+00	 4.38289000E-13

	 4.64852000E-13	 0.00000000E+00	 0.00000000E+00
	 0.00000000E+00	 4.64852000E-13	 0.00000000E+00
	 0.00000000E+00	 0.00000000E+00	 4.64852000E-13

	 4.64852000E-13	 0.00000000E+00	 0.00000000E+00
	 0.00000000E+00	 4.64852000E-13	 0.00000000E+00
	 0.00000000E+00	 0.00000000E+00	 4.64852000E-13

	 4.53784000E-13	 0.00000000E+00	 0.00000000E+00
	 0.00000000E+00	 4.53784000E-13	 0.00000000E+00
	 0.00000000E+00	 0.00000000E+00	 4.53784000E-13

	 4.64852000E-13	 0.00000000E+00	 0.00000000E+00
	 0.00000000E+00	 4.64852000E-13	 0.00000000E+00
	 0.00000000E+00	 0.00000000E+00	 4.64852000E-13

	 4.38289000E-13	 0.00000000E+00	 0.00000000E+00
	 0.00000000E+00	 4.38289000E-13	 0.00000000E+00
	 0.00000000E+00	 0.00000000E+00	 4.38289000E-13

	 4.64852000E-13	 0.00000000E+00	 0.00000000E+00
	 0.00000000E+00	 4.64852000E-13	 0.00000000E+00
	 0.00000000E+00	 0.00000000E+00	 4.64852000E-13

	 4.55997000E-13	 0.00000000E+00	 0.00000000E+00
	 0.00000000E+00	 4.55997000E-13	 0.00000000E+00
	 0.00000000E+00	 0.00000000E+00	 4.55997000E-13

	 4.64852000E-13	 0.00000000E+00	 0.00000000E+00
	 0.00000000E+00	 4.64852000E-13	 0.00000000E+00
	 0.00000000E+00	 0.00000000E+00	 4.64852000E-13

	 4.64852000E-13	 0.00000000E+00	 0.00000000E+00
	 0.00000000E+00	 4.64852000E-13	 0.00000000E+00
	 0.00000000E+00	 0.00000000E+00	 4.64852000E-13

	 4.64852000E-13	 0.00000000E+00	 0.00000000E+00
	 0.00000000E+00	 4.64852000E-13	 0.00000000E+00
	 0.00000000E+00	 0.00000000E+00	 4.64852000E-13

	 4.64852000E-13	 0.00000000E+00	 0.00000000E+00
	 0.00000000E+00	 4.64852000E-13	 0.00000000E+00
	 0.00000000E+00	 0.00000000E+00	 4.64852000E-13

	 4.38289000E-13	 0.00000000E+00	 0.00000000E+00
	 0.00000000E+00	 4.38289000E-13	 0.00000000E+00
	 0.00000000E+00	 0.00000000E+00	 4.38289000E-13

	 4.38289000E-13	 0.00000000E+00	 0.00000000E+00
	 0.00000000E+00	 4.38289000E-13	 0.00000000E+00
	 0.00000000E+00	 0.00000000E+00	 4.38289000E-13

	 4.38289000E-13	 0.00000000E+00	 0.00000000E+00
	 0.00000000E+00	 4.38289000E-13	 0.00000000E+00
	 0.00000000E+00	 0.00000000E+00	 4.38289000E-13

	 4.38289000E-13	 0.00000000E+00	 0.00000000E+00
	 0.00000000E+00	 4.38289000E-13	 0.00000000E+00
	 0.00000000E+00	 0.00000000E+00	 4.38289000E-13

	 4.59160000E-13	 0.00000000E+00	 0.00000000E+00
	 0.00000000E+00	 4.59160000E-13	 0.00000000E+00
	 0.00000000E+00	 0.00000000E+00	 4.59160000E-13

	 4.47775000E-13	 0.00000000E+00	 0.00000000E+00
	 0.00000000E+00	 4.47775000E-13	 0.00000000E+00
	 0.00000000E+00	 0.00000000E+00	 4.47775000E-13

	 4.44929000E-13	 0.00000000E+00	 0.00000000E+00
	 0.00000000E+00	 4.44929000E-13	 0.00000000E+00
	 0.00000000E+00	 0.00000000E+00	 4.44929000E-13

	 4.64852000E-13	 0.00000000E+00	 0.00000000E+00
	 0.00000000E+00	 4.64852000E-13	 0.00000000E+00
	 0.00000000E+00	 0.00000000E+00	 4.64852000E-13

	 4.51570000E-13	 0.00000000E+00	 0.00000000E+00
	 0.00000000E+00	 4.51570000E-13	 0.00000000E+00
	 0.00000000E+00	 0.00000000E+00	 4.51570000E-13

	 4.38289000E-13	 0.00000000E+00	 0.00000000E+00
	 0.00000000E+00	 4.38289000E-13	 0.00000000E+00
	 0.00000000E+00	 0.00000000E+00	 4.38289000E-13

	 4.38289000E-13	 0.00000000E+00	 0.00000000E+00
	 0.00000000E+00	 4.38289000E-13	 0.00000000E+00
	 0.00000000E+00	 0.00000000E+00	 4.38289000E-13

	 4.60425000E-13	 0.00000000E+00	 0.00000000E+00
	 0.00000000E+00	 4.60425000E-13	 0.00000000E+00
	 0.00000000E+00	 0.00000000E+00	 4.60425000E-13

	 4.64852000E-13	 0.00000000E+00	 0.00000000E+00
	 0.00000000E+00	 4.64852000E-13	 0.00000000E+00
	 0.00000000E+00	 0.00000000E+00	 4.64852000E-13

	 4.38289000E-13	 0.00000000E+00	 0.00000000E+00
	 0.00000000E+00	 4.38289000E-13	 0.00000000E+00
	 0.00000000E+00	 0.00000000E+00	 4.38289000E-13

	 4.64852000E-13	 0.00000000E+00	 0.00000000E+00
	 0.00000000E+00	 4.64852000E-13	 0.00000000E+00
	 0.00000000E+00	 0.00000000E+00	 4.64852000E-13

	 4.40502000E-13	 0.00000000E+00	 0.00000000E+00
	 0.00000000E+00	 4.40502000E-13	 0.00000000E+00
	 0.00000000E+00	 0.00000000E+00	 4.40502000E-13

	 4.64852000E-13	 0.00000000E+00	 0.00000000E+00
	 0.00000000E+00	 4.64852000E-13	 0.00000000E+00
	 0.00000000E+00	 0.00000000E+00	 4.64852000E-13

	 4.49357000E-13	 0.00000000E+00	 0.00000000E+00
	 0.00000000E+00	 4.49357000E-13	 0.00000000E+00
	 0.00000000E+00	 0.00000000E+00	 4.49357000E-13

	 4.38289000E-13	 0.00000000E+00	 0.00000000E+00
	 0.00000000E+00	 4.38289000E-13	 0.00000000E+00
	 0.00000000E+00	 0.00000000E+00	 4.38289000E-13

	 4.44929000E-13	 0.00000000E+00	 0.00000000E+00
	 0.00000000E+00	 4.44929000E-13	 0.00000000E+00
	 0.00000000E+00	 0.00000000E+00	 4.44929000E-13

	 4.64852000E-13	 0.00000000E+00	 0.00000000E+00
	 0.00000000E+00	 4.64852000E-13	 0.00000000E+00
	 0.00000000E+00	 0.00000000E+00	 4.64852000E-13

	 4.51570000E-13	 0.00000000E+00	 0.00000000E+00
	 0.00000000E+00	 4.51570000E-13	 0.00000000E+00
	 0.00000000E+00	 0.00000000E+00	 4.51570000E-13

	 4.64852000E-13	 0.00000000E+00	 0.00000000E+00
	 0.00000000E+00	 4.64852000E-13	 0.00000000E+00
	 0.00000000E+00	 0.00000000E+00	 4.64852000E-13

	 4.60425000E-13	 0.00000000E+00	 0.00000000E+00
	 0.00000000E+00	 4.60425000E-13	 0.00000000E+00
	 0.00000000E+00	 0.00000000E+00	 4.60425000E-13

	 4.64852000E-13	 0.00000000E+00	 0.00000000E+00
	 0.00000000E+00	 4.64852000E-13	 0.00000000E+00
	 0.00000000E+00	 0.00000000E+00	 4.64852000E-13

	 4.38289000E-13	 0.00000000E+00	 0.00000000E+00
	 0.00000000E+00	 4.38289000E-13	 0.00000000E+00
	 0.00000000E+00	 0.00000000E+00	 4.38289000E-13

	 4.49357000E-13	 0.00000000E+00	 0.00000000E+00
	 0.00000000E+00	 4.49357000E-13	 0.00000000E+00
	 0.00000000E+00	 0.00000000E+00	 4.49357000E-13

	 4.64852000E-13	 0.00000000E+00	 0.00000000E+00
	 0.00000000E+00	 4.64852000E-13	 0.00000000E+00
	 0.00000000E+00	 0.00000000E+00	 4.64852000E-13

	 4.53468000E-13	 0.00000000E+00	 0.00000000E+00
	 0.00000000E+00	 4.53468000E-13	 0.00000000E+00
	 0.00000000E+00	 0.00000000E+00	 4.53468000E-13

	 4.38289000E-13	 0.00000000E+00	 0.00000000E+00
	 0.00000000E+00	 4.38289000E-13	 0.00000000E+00
	 0.00000000E+00	 0.00000000E+00	 4.38289000E-13

	 4.38289000E-13	 0.00000000E+00	 0.00000000E+00
	 0.00000000E+00	 4.38289000E-13	 0.00000000E+00
	 0.00000000E+00	 0.00000000E+00	 4.38289000E-13

	 4.38289000E-13	 0.00000000E+00	 0.00000000E+00
	 0.00000000E+00	 4.38289000E-13	 0.00000000E+00
	 0.00000000E+00	 0.00000000E+00	 4.38289000E-13

	 4.64852000E-13	 0.00000000E+00	 0.00000000E+00
	 0.00000000E+00	 4.64852000E-13	 0.00000000E+00
	 0.00000000E+00	 0.00000000E+00	 4.64852000E-13

	 4.64852000E-13	 0.00000000E+00	 0.00000000E+00
	 0.00000000E+00	 4.64852000E-13	 0.00000000E+00
	 0.00000000E+00	 0.00000000E+00	 4.64852000E-13

	 4.40502000E-13	 0.00000000E+00	 0.00000000E+00
	 0.00000000E+00	 4.40502000E-13	 0.00000000E+00
	 0.00000000E+00	 0.00000000E+00	 4.40502000E-13

	 4.64852000E-13	 0.00000000E+00	 0.00000000E+00
	 0.00000000E+00	 4.64852000E-13	 0.00000000E+00
	 0.00000000E+00	 0.00000000E+00	 4.64852000E-13

	 4.64852000E-13	 0.00000000E+00	 0.00000000E+00
	 0.00000000E+00	 4.64852000E-13	 0.00000000E+00
	 0.00000000E+00	 0.00000000E+00	 4.64852000E-13

	 4.55997000E-13	 0.00000000E+00	 0.00000000E+00
	 0.00000000E+00	 4.55997000E-13	 0.00000000E+00
	 0.00000000E+00	 0.00000000E+00	 4.55997000E-13

	 4.64852000E-13	 0.00000000E+00	 0.00000000E+00
	 0.00000000E+00	 4.64852000E-13	 0.00000000E+00
	 0.00000000E+00	 0.00000000E+00	 4.64852000E-13

	 4.60425000E-13	 0.00000000E+00	 0.00000000E+00
	 0.00000000E+00	 4.60425000E-13	 0.00000000E+00
	 0.00000000E+00	 0.00000000E+00	 4.60425000E-13

	 4.55997000E-13	 0.00000000E+00	 0.00000000E+00
	 0.00000000E+00	 4.55997000E-13	 0.00000000E+00
	 0.00000000E+00	 0.00000000E+00	 4.55997000E-13

	 4.64852000E-13	 0.00000000E+00	 0.00000000E+00
	 0.00000000E+00	 4.64852000E-13	 0.00000000E+00
	 0.00000000E+00	 0.00000000E+00	 4.64852000E-13

	 4.64852000E-13	 0.00000000E+00	 0.00000000E+00
	 0.00000000E+00	 4.64852000E-13	 0.00000000E+00
	 0.00000000E+00	 0.00000000E+00	 4.64852000E-13

	 4.60425000E-13	 0.00000000E+00	 0.00000000E+00
	 0.00000000E+00	 4.60425000E-13	 0.00000000E+00
	 0.00000000E+00	 0.00000000E+00	 4.60425000E-13

	 4.60425000E-13	 0.00000000E+00	 0.00000000E+00
	 0.00000000E+00	 4.60425000E-13	 0.00000000E+00
	 0.00000000E+00	 0.00000000E+00	 4.60425000E-13

	 4.64852000E-13	 0.00000000E+00	 0.00000000E+00
	 0.00000000E+00	 4.64852000E-13	 0.00000000E+00
	 0.00000000E+00	 0.00000000E+00	 4.64852000E-13

	 4.53784000E-13	 0.00000000E+00	 0.00000000E+00
	 0.00000000E+00	 4.53784000E-13	 0.00000000E+00
	 0.00000000E+00	 0.00000000E+00	 4.53784000E-13

	 4.64852000E-13	 0.00000000E+00	 0.00000000E+00
	 0.00000000E+00	 4.64852000E-13	 0.00000000E+00
	 0.00000000E+00	 0.00000000E+00	 4.64852000E-13

	 4.51570000E-13	 0.00000000E+00	 0.00000000E+00
	 0.00000000E+00	 4.51570000E-13	 0.00000000E+00
	 0.00000000E+00	 0.00000000E+00	 4.51570000E-13

	 4.40502000E-13	 0.00000000E+00	 0.00000000E+00
	 0.00000000E+00	 4.40502000E-13	 0.00000000E+00
	 0.00000000E+00	 0.00000000E+00	 4.40502000E-13

	 4.38289000E-13	 0.00000000E+00	 0.00000000E+00
	 0.00000000E+00	 4.38289000E-13	 0.00000000E+00
	 0.00000000E+00	 0.00000000E+00	 4.38289000E-13

	 4.64852000E-13	 0.00000000E+00	 0.00000000E+00
	 0.00000000E+00	 4.64852000E-13	 0.00000000E+00
	 0.00000000E+00	 0.00000000E+00	 4.64852000E-13

	 4.64852000E-13	 0.00000000E+00	 0.00000000E+00
	 0.00000000E+00	 4.64852000E-13	 0.00000000E+00
	 0.00000000E+00	 0.00000000E+00	 4.64852000E-13

	 4.64852000E-13	 0.00000000E+00	 0.00000000E+00
	 0.00000000E+00	 4.64852000E-13	 0.00000000E+00
	 0.00000000E+00	 0.00000000E+00	 4.64852000E-13

	 4.40502000E-13	 0.00000000E+00	 0.00000000E+00
	 0.00000000E+00	 4.40502000E-13	 0.00000000E+00
	 0.00000000E+00	 0.00000000E+00	 4.40502000E-13

	 4.64852000E-13	 0.00000000E+00	 0.00000000E+00
	 0.00000000E+00	 4.64852000E-13	 0.00000000E+00
	 0.00000000E+00	 0.00000000E+00	 4.64852000E-13

	 4.64852000E-13	 0.00000000E+00	 0.00000000E+00
	 0.00000000E+00	 4.64852000E-13	 0.00000000E+00
	 0.00000000E+00	 0.00000000E+00	 4.64852000E-13

	 4.64852000E-13	 0.00000000E+00	 0.00000000E+00
	 0.00000000E+00	 4.64852000E-13	 0.00000000E+00
	 0.00000000E+00	 0.00000000E+00	 4.64852000E-13

	 4.64852000E-13	 0.00000000E+00	 0.00000000E+00
	 0.00000000E+00	 4.64852000E-13	 0.00000000E+00
	 0.00000000E+00	 0.00000000E+00	 4.64852000E-13

	 4.38289000E-13	 0.00000000E+00	 0.00000000E+00
	 0.00000000E+00	 4.38289000E-13	 0.00000000E+00
	 0.00000000E+00	 0.00000000E+00	 4.38289000E-13

	 4.64852000E-13	 0.00000000E+00	 0.00000000E+00
	 0.00000000E+00	 4.64852000E-13	 0.00000000E+00
	 0.00000000E+00	 0.00000000E+00	 4.64852000E-13

	 4.38289000E-13	 0.00000000E+00	 0.00000000E+00
	 0.00000000E+00	 4.38289000E-13	 0.00000000E+00
	 0.00000000E+00	 0.00000000E+00	 4.38289000E-13

	 4.64852000E-13	 0.00000000E+00	 0.00000000E+00
	 0.00000000E+00	 4.64852000E-13	 0.00000000E+00
	 0.00000000E+00	 0.00000000E+00	 4.64852000E-13

	 4.38289000E-13	 0.00000000E+00	 0.00000000E+00
	 0.00000000E+00	 4.38289000E-13	 0.00000000E+00
	 0.00000000E+00	 0.00000000E+00	 4.38289000E-13

	 4.64852000E-13	 0.00000000E+00	 0.00000000E+00
	 0.00000000E+00	 4.64852000E-13	 0.00000000E+00
	 0.00000000E+00	 0.00000000E+00	 4.64852000E-13

	 4.49357000E-13	 0.00000000E+00	 0.00000000E+00
	 0.00000000E+00	 4.49357000E-13	 0.00000000E+00
	 0.00000000E+00	 0.00000000E+00	 4.49357000E-13

	 4.51570000E-13	 0.00000000E+00	 0.00000000E+00
	 0.00000000E+00	 4.51570000E-13	 0.00000000E+00
	 0.00000000E+00	 0.00000000E+00	 4.51570000E-13

	 4.64852000E-13	 0.00000000E+00	 0.00000000E+00
	 0.00000000E+00	 4.64852000E-13	 0.00000000E+00
	 0.00000000E+00	 0.00000000E+00	 4.64852000E-13

	 4.53784000E-13	 0.00000000E+00	 0.00000000E+00
	 0.00000000E+00	 4.53784000E-13	 0.00000000E+00
	 0.00000000E+00	 0.00000000E+00	 4.53784000E-13

	 4.38289000E-13	 0.00000000E+00	 0.00000000E+00
	 0.00000000E+00	 4.38289000E-13	 0.00000000E+00
	 0.00000000E+00	 0.00000000E+00	 4.38289000E-13

	 4.38289000E-13	 0.00000000E+00	 0.00000000E+00
	 0.00000000E+00	 4.38289000E-13	 0.00000000E+00
	 0.00000000E+00	 0.00000000E+00	 4.38289000E-13

	 4.44929000E-13	 0.00000000E+00	 0.00000000E+00
	 0.00000000E+00	 4.44929000E-13	 0.00000000E+00
	 0.00000000E+00	 0.00000000E+00	 4.44929000E-13

	 4.62638000E-13	 0.00000000E+00	 0.00000000E+00
	 0.00000000E+00	 4.62638000E-13	 0.00000000E+00
	 0.00000000E+00	 0.00000000E+00	 4.62638000E-13

	 4.59160000E-13	 0.00000000E+00	 0.00000000E+00
	 0.00000000E+00	 4.59160000E-13	 0.00000000E+00
	 0.00000000E+00	 0.00000000E+00	 4.59160000E-13

	 4.64852000E-13	 0.00000000E+00	 0.00000000E+00
	 0.00000000E+00	 4.64852000E-13	 0.00000000E+00
	 0.00000000E+00	 0.00000000E+00	 4.64852000E-13

	 4.64852000E-13	 0.00000000E+00	 0.00000000E+00
	 0.00000000E+00	 4.64852000E-13	 0.00000000E+00
	 0.00000000E+00	 0.00000000E+00	 4.64852000E-13

	 4.64852000E-13	 0.00000000E+00	 0.00000000E+00
	 0.00000000E+00	 4.64852000E-13	 0.00000000E+00
	 0.00000000E+00	 0.00000000E+00	 4.64852000E-13

	 4.60425000E-13	 0.00000000E+00	 0.00000000E+00
	 0.00000000E+00	 4.60425000E-13	 0.00000000E+00
	 0.00000000E+00	 0.00000000E+00	 4.60425000E-13

	 4.42083000E-13	 0.00000000E+00	 0.00000000E+00
	 0.00000000E+00	 4.42083000E-13	 0.00000000E+00
	 0.00000000E+00	 0.00000000E+00	 4.42083000E-13

	 4.64852000E-13	 0.00000000E+00	 0.00000000E+00
	 0.00000000E+00	 4.64852000E-13	 0.00000000E+00
	 0.00000000E+00	 0.00000000E+00	 4.64852000E-13

	 4.64852000E-13	 0.00000000E+00	 0.00000000E+00
	 0.00000000E+00	 4.64852000E-13	 0.00000000E+00
	 0.00000000E+00	 0.00000000E+00	 4.64852000E-13

	 4.42716000E-13	 0.00000000E+00	 0.00000000E+00
	 0.00000000E+00	 4.42716000E-13	 0.00000000E+00
	 0.00000000E+00	 0.00000000E+00	 4.42716000E-13

	 4.38289000E-13	 0.00000000E+00	 0.00000000E+00
	 0.00000000E+00	 4.38289000E-13	 0.00000000E+00
	 0.00000000E+00	 0.00000000E+00	 4.38289000E-13

	 4.64852000E-13	 0.00000000E+00	 0.00000000E+00
	 0.00000000E+00	 4.64852000E-13	 0.00000000E+00
	 0.00000000E+00	 0.00000000E+00	 4.64852000E-13

	 4.38289000E-13	 0.00000000E+00	 0.00000000E+00
	 0.00000000E+00	 4.38289000E-13	 0.00000000E+00
	 0.00000000E+00	 0.00000000E+00	 4.38289000E-13

	 4.51570000E-13	 0.00000000E+00	 0.00000000E+00
	 0.00000000E+00	 4.51570000E-13	 0.00000000E+00
	 0.00000000E+00	 0.00000000E+00	 4.51570000E-13

	 4.40186000E-13	 0.00000000E+00	 0.00000000E+00
	 0.00000000E+00	 4.40186000E-13	 0.00000000E+00
	 0.00000000E+00	 0.00000000E+00	 4.40186000E-13

	 4.38289000E-13	 0.00000000E+00	 0.00000000E+00
	 0.00000000E+00	 4.38289000E-13	 0.00000000E+00
	 0.00000000E+00	 0.00000000E+00	 4.38289000E-13

	 4.38289000E-13	 0.00000000E+00	 0.00000000E+00
	 0.00000000E+00	 4.38289000E-13	 0.00000000E+00
	 0.00000000E+00	 0.00000000E+00	 4.38289000E-13

	 4.58211000E-13	 0.00000000E+00	 0.00000000E+00
	 0.00000000E+00	 4.58211000E-13	 0.00000000E+00
	 0.00000000E+00	 0.00000000E+00	 4.58211000E-13

	 4.64852000E-13	 0.00000000E+00	 0.00000000E+00
	 0.00000000E+00	 4.64852000E-13	 0.00000000E+00
	 0.00000000E+00	 0.00000000E+00	 4.64852000E-13

	 4.38289000E-13	 0.00000000E+00	 0.00000000E+00
	 0.00000000E+00	 4.38289000E-13	 0.00000000E+00
	 0.00000000E+00	 0.00000000E+00	 4.38289000E-13

	 4.38289000E-13	 0.00000000E+00	 0.00000000E+00
	 0.00000000E+00	 4.38289000E-13	 0.00000000E+00
	 0.00000000E+00	 0.00000000E+00	 4.38289000E-13

	 4.64852000E-13	 0.00000000E+00	 0.00000000E+00
	 0.00000000E+00	 4.64852000E-13	 0.00000000E+00
	 0.00000000E+00	 0.00000000E+00	 4.64852000E-13

	 4.64852000E-13	 0.00000000E+00	 0.00000000E+00
	 0.00000000E+00	 4.64852000E-13	 0.00000000E+00
	 0.00000000E+00	 0.00000000E+00	 4.64852000E-13

	 4.64852000E-13	 0.00000000E+00	 0.00000000E+00
	 0.00000000E+00	 4.64852000E-13	 0.00000000E+00
	 0.00000000E+00	 0.00000000E+00	 4.64852000E-13

	 4.40502000E-13	 0.00000000E+00	 0.00000000E+00
	 0.00000000E+00	 4.40502000E-13	 0.00000000E+00
	 0.00000000E+00	 0.00000000E+00	 4.40502000E-13

	 4.64852000E-13	 0.00000000E+00	 0.00000000E+00
	 0.00000000E+00	 4.64852000E-13	 0.00000000E+00
	 0.00000000E+00	 0.00000000E+00	 4.64852000E-13

	 4.40502000E-13	 0.00000000E+00	 0.00000000E+00
	 0.00000000E+00	 4.40502000E-13	 0.00000000E+00
	 0.00000000E+00	 0.00000000E+00	 4.40502000E-13

	 4.64852000E-13	 0.00000000E+00	 0.00000000E+00
	 0.00000000E+00	 4.64852000E-13	 0.00000000E+00
	 0.00000000E+00	 0.00000000E+00	 4.64852000E-13

	 4.58211000E-13	 0.00000000E+00	 0.00000000E+00
	 0.00000000E+00	 4.58211000E-13	 0.00000000E+00
	 0.00000000E+00	 0.00000000E+00	 4.58211000E-13

	 4.47143000E-13	 0.00000000E+00	 0.00000000E+00
	 0.00000000E+00	 4.47143000E-13	 0.00000000E+00
	 0.00000000E+00	 0.00000000E+00	 4.47143000E-13

	 4.64852000E-13	 0.00000000E+00	 0.00000000E+00
	 0.00000000E+00	 4.64852000E-13	 0.00000000E+00
	 0.00000000E+00	 0.00000000E+00	 4.64852000E-13

	 4.64852000E-13	 0.00000000E+00	 0.00000000E+00
	 0.00000000E+00	 4.64852000E-13	 0.00000000E+00
	 0.00000000E+00	 0.00000000E+00	 4.64852000E-13

	 4.64852000E-13	 0.00000000E+00	 0.00000000E+00
	 0.00000000E+00	 4.64852000E-13	 0.00000000E+00
	 0.00000000E+00	 0.00000000E+00	 4.64852000E-13

	 4.64852000E-13	 0.00000000E+00	 0.00000000E+00
	 0.00000000E+00	 4.64852000E-13	 0.00000000E+00
	 0.00000000E+00	 0.00000000E+00	 4.64852000E-13

	 4.64852000E-13	 0.00000000E+00	 0.00000000E+00
	 0.00000000E+00	 4.64852000E-13	 0.00000000E+00
	 0.00000000E+00	 0.00000000E+00	 4.64852000E-13

	 4.40502000E-13	 0.00000000E+00	 0.00000000E+00
	 0.00000000E+00	 4.40502000E-13	 0.00000000E+00
	 0.00000000E+00	 0.00000000E+00	 4.40502000E-13

	 4.53784000E-13	 0.00000000E+00	 0.00000000E+00
	 0.00000000E+00	 4.53784000E-13	 0.00000000E+00
	 0.00000000E+00	 0.00000000E+00	 4.53784000E-13

	 4.38289000E-13	 0.00000000E+00	 0.00000000E+00
	 0.00000000E+00	 4.38289000E-13	 0.00000000E+00
	 0.00000000E+00	 0.00000000E+00	 4.38289000E-13

	 4.64852000E-13	 0.00000000E+00	 0.00000000E+00
	 0.00000000E+00	 4.64852000E-13	 0.00000000E+00
	 0.00000000E+00	 0.00000000E+00	 4.64852000E-13

	 4.40502000E-13	 0.00000000E+00	 0.00000000E+00
	 0.00000000E+00	 4.40502000E-13	 0.00000000E+00
	 0.00000000E+00	 0.00000000E+00	 4.40502000E-13

	 4.58211000E-13	 0.00000000E+00	 0.00000000E+00
	 0.00000000E+00	 4.58211000E-13	 0.00000000E+00
	 0.00000000E+00	 0.00000000E+00	 4.58211000E-13

	 4.53784000E-13	 0.00000000E+00	 0.00000000E+00
	 0.00000000E+00	 4.53784000E-13	 0.00000000E+00
	 0.00000000E+00	 0.00000000E+00	 4.53784000E-13

	 4.58211000E-13	 0.00000000E+00	 0.00000000E+00
	 0.00000000E+00	 4.58211000E-13	 0.00000000E+00
	 0.00000000E+00	 0.00000000E+00	 4.58211000E-13

	 4.64852000E-13	 0.00000000E+00	 0.00000000E+00
	 0.00000000E+00	 4.64852000E-13	 0.00000000E+00
	 0.00000000E+00	 0.00000000E+00	 4.64852000E-13

	 4.38289000E-13	 0.00000000E+00	 0.00000000E+00
	 0.00000000E+00	 4.38289000E-13	 0.00000000E+00
	 0.00000000E+00	 0.00000000E+00	 4.38289000E-13

	 4.64852000E-13	 0.00000000E+00	 0.00000000E+00
	 0.00000000E+00	 4.64852000E-13	 0.00000000E+00
	 0.00000000E+00	 0.00000000E+00	 4.64852000E-13

	 4.38289000E-13	 0.00000000E+00	 0.00000000E+00
	 0.00000000E+00	 4.38289000E-13	 0.00000000E+00
	 0.00000000E+00	 0.00000000E+00	 4.38289000E-13

	 4.38289000E-13	 0.00000000E+00	 0.00000000E+00
	 0.00000000E+00	 4.38289000E-13	 0.00000000E+00
	 0.00000000E+00	 0.00000000E+00	 4.38289000E-13

	 4.64852000E-13	 0.00000000E+00	 0.00000000E+00
	 0.00000000E+00	 4.64852000E-13	 0.00000000E+00
	 0.00000000E+00	 0.00000000E+00	 4.64852000E-13

	 4.38289000E-13	 0.00000000E+00	 0.00000000E+00
	 0.00000000E+00	 4.38289000E-13	 0.00000000E+00
	 0.00000000E+00	 0.00000000E+00	 4.38289000E-13

	 4.44929000E-13	 0.00000000E+00	 0.00000000E+00
	 0.00000000E+00	 4.44929000E-13	 0.00000000E+00
	 0.00000000E+00	 0.00000000E+00	 4.44929000E-13

	 4.38289000E-13	 0.00000000E+00	 0.00000000E+00
	 0.00000000E+00	 4.38289000E-13	 0.00000000E+00
	 0.00000000E+00	 0.00000000E+00	 4.38289000E-13

	 4.64852000E-13	 0.00000000E+00	 0.00000000E+00
	 0.00000000E+00	 4.64852000E-13	 0.00000000E+00
	 0.00000000E+00	 0.00000000E+00	 4.64852000E-13

	 4.64852000E-13	 0.00000000E+00	 0.00000000E+00
	 0.00000000E+00	 4.64852000E-13	 0.00000000E+00
	 0.00000000E+00	 0.00000000E+00	 4.64852000E-13

	 4.60425000E-13	 0.00000000E+00	 0.00000000E+00
	 0.00000000E+00	 4.60425000E-13	 0.00000000E+00
	 0.00000000E+00	 0.00000000E+00	 4.60425000E-13

	 4.38289000E-13	 0.00000000E+00	 0.00000000E+00
	 0.00000000E+00	 4.38289000E-13	 0.00000000E+00
	 0.00000000E+00	 0.00000000E+00	 4.38289000E-13

	 4.57262000E-13	 0.00000000E+00	 0.00000000E+00
	 0.00000000E+00	 4.57262000E-13	 0.00000000E+00
	 0.00000000E+00	 0.00000000E+00	 4.57262000E-13

	 4.60425000E-13	 0.00000000E+00	 0.00000000E+00
	 0.00000000E+00	 4.60425000E-13	 0.00000000E+00
	 0.00000000E+00	 0.00000000E+00	 4.60425000E-13

	 4.62638000E-13	 0.00000000E+00	 0.00000000E+00
	 0.00000000E+00	 4.62638000E-13	 0.00000000E+00
	 0.00000000E+00	 0.00000000E+00	 4.62638000E-13

	 4.47143000E-13	 0.00000000E+00	 0.00000000E+00
	 0.00000000E+00	 4.47143000E-13	 0.00000000E+00
	 0.00000000E+00	 0.00000000E+00	 4.47143000E-13

	 4.38289000E-13	 0.00000000E+00	 0.00000000E+00
	 0.00000000E+00	 4.38289000E-13	 0.00000000E+00
	 0.00000000E+00	 0.00000000E+00	 4.38289000E-13

	 4.64852000E-13	 0.00000000E+00	 0.00000000E+00
	 0.00000000E+00	 4.64852000E-13	 0.00000000E+00
	 0.00000000E+00	 0.00000000E+00	 4.64852000E-13

	 4.38289000E-13	 0.00000000E+00	 0.00000000E+00
	 0.00000000E+00	 4.38289000E-13	 0.00000000E+00
	 0.00000000E+00	 0.00000000E+00	 4.38289000E-13

	 4.40502000E-13	 0.00000000E+00	 0.00000000E+00
	 0.00000000E+00	 4.40502000E-13	 0.00000000E+00
	 0.00000000E+00	 0.00000000E+00	 4.40502000E-13

	 4.64852000E-13	 0.00000000E+00	 0.00000000E+00
	 0.00000000E+00	 4.64852000E-13	 0.00000000E+00
	 0.00000000E+00	 0.00000000E+00	 4.64852000E-13

	 4.64852000E-13	 0.00000000E+00	 0.00000000E+00
	 0.00000000E+00	 4.64852000E-13	 0.00000000E+00
	 0.00000000E+00	 0.00000000E+00	 4.64852000E-13

	 4.42716000E-13	 0.00000000E+00	 0.00000000E+00
	 0.00000000E+00	 4.42716000E-13	 0.00000000E+00
	 0.00000000E+00	 0.00000000E+00	 4.42716000E-13

	 4.64852000E-13	 0.00000000E+00	 0.00000000E+00
	 0.00000000E+00	 4.64852000E-13	 0.00000000E+00
	 0.00000000E+00	 0.00000000E+00	 4.64852000E-13

	 4.47143000E-13	 0.00000000E+00	 0.00000000E+00
	 0.00000000E+00	 4.47143000E-13	 0.00000000E+00
	 0.00000000E+00	 0.00000000E+00	 4.47143000E-13

	 4.38289000E-13	 0.00000000E+00	 0.00000000E+00
	 0.00000000E+00	 4.38289000E-13	 0.00000000E+00
	 0.00000000E+00	 0.00000000E+00	 4.38289000E-13

	 4.44929000E-13	 0.00000000E+00	 0.00000000E+00
	 0.00000000E+00	 4.44929000E-13	 0.00000000E+00
	 0.00000000E+00	 0.00000000E+00	 4.44929000E-13

	 4.38289000E-13	 0.00000000E+00	 0.00000000E+00
	 0.00000000E+00	 4.38289000E-13	 0.00000000E+00
	 0.00000000E+00	 0.00000000E+00	 4.38289000E-13

	 4.64852000E-13	 0.00000000E+00	 0.00000000E+00
	 0.00000000E+00	 4.64852000E-13	 0.00000000E+00
	 0.00000000E+00	 0.00000000E+00	 4.64852000E-13

	 4.64852000E-13	 0.00000000E+00	 0.00000000E+00
	 0.00000000E+00	 4.64852000E-13	 0.00000000E+00
	 0.00000000E+00	 0.00000000E+00	 4.64852000E-13

	 4.40186000E-13	 0.00000000E+00	 0.00000000E+00
	 0.00000000E+00	 4.40186000E-13	 0.00000000E+00
	 0.00000000E+00	 0.00000000E+00	 4.40186000E-13

	 4.38289000E-13	 0.00000000E+00	 0.00000000E+00
	 0.00000000E+00	 4.38289000E-13	 0.00000000E+00
	 0.00000000E+00	 0.00000000E+00	 4.38289000E-13

	 4.60425000E-13	 0.00000000E+00	 0.00000000E+00
	 0.00000000E+00	 4.60425000E-13	 0.00000000E+00
	 0.00000000E+00	 0.00000000E+00	 4.60425000E-13

	 4.60425000E-13	 0.00000000E+00	 0.00000000E+00
	 0.00000000E+00	 4.60425000E-13	 0.00000000E+00
	 0.00000000E+00	 0.00000000E+00	 4.60425000E-13

	 4.38289000E-13	 0.00000000E+00	 0.00000000E+00
	 0.00000000E+00	 4.38289000E-13	 0.00000000E+00
	 0.00000000E+00	 0.00000000E+00	 4.38289000E-13

	 4.61057000E-13	 0.00000000E+00	 0.00000000E+00
	 0.00000000E+00	 4.61057000E-13	 0.00000000E+00
	 0.00000000E+00	 0.00000000E+00	 4.61057000E-13

	 4.40502000E-13	 0.00000000E+00	 0.00000000E+00
	 0.00000000E+00	 4.40502000E-13	 0.00000000E+00
	 0.00000000E+00	 0.00000000E+00	 4.40502000E-13

	 4.64852000E-13	 0.00000000E+00	 0.00000000E+00
	 0.00000000E+00	 4.64852000E-13	 0.00000000E+00
	 0.00000000E+00	 0.00000000E+00	 4.64852000E-13

	 4.40502000E-13	 0.00000000E+00	 0.00000000E+00
	 0.00000000E+00	 4.40502000E-13	 0.00000000E+00
	 0.00000000E+00	 0.00000000E+00	 4.40502000E-13

	 4.44929000E-13	 0.00000000E+00	 0.00000000E+00
	 0.00000000E+00	 4.44929000E-13	 0.00000000E+00
	 0.00000000E+00	 0.00000000E+00	 4.44929000E-13

	 4.64852000E-13	 0.00000000E+00	 0.00000000E+00
	 0.00000000E+00	 4.64852000E-13	 0.00000000E+00
	 0.00000000E+00	 0.00000000E+00	 4.64852000E-13

	 4.53468000E-13	 0.00000000E+00	 0.00000000E+00
	 0.00000000E+00	 4.53468000E-13	 0.00000000E+00
	 0.00000000E+00	 0.00000000E+00	 4.53468000E-13

	 4.64852000E-13	 0.00000000E+00	 0.00000000E+00
	 0.00000000E+00	 4.64852000E-13	 0.00000000E+00
	 0.00000000E+00	 0.00000000E+00	 4.64852000E-13

	 4.64852000E-13	 0.00000000E+00	 0.00000000E+00
	 0.00000000E+00	 4.64852000E-13	 0.00000000E+00
	 0.00000000E+00	 0.00000000E+00	 4.64852000E-13

	 4.38289000E-13	 0.00000000E+00	 0.00000000E+00
	 0.00000000E+00	 4.38289000E-13	 0.00000000E+00
	 0.00000000E+00	 0.00000000E+00	 4.38289000E-13

	 4.38289000E-13	 0.00000000E+00	 0.00000000E+00
	 0.00000000E+00	 4.38289000E-13	 0.00000000E+00
	 0.00000000E+00	 0.00000000E+00	 4.38289000E-13

	 4.64852000E-13	 0.00000000E+00	 0.00000000E+00
	 0.00000000E+00	 4.64852000E-13	 0.00000000E+00
	 0.00000000E+00	 0.00000000E+00	 4.64852000E-13

	 4.38289000E-13	 0.00000000E+00	 0.00000000E+00
	 0.00000000E+00	 4.38289000E-13	 0.00000000E+00
	 0.00000000E+00	 0.00000000E+00	 4.38289000E-13

	 4.44929000E-13	 0.00000000E+00	 0.00000000E+00
	 0.00000000E+00	 4.44929000E-13	 0.00000000E+00
	 0.00000000E+00	 0.00000000E+00	 4.44929000E-13

	 4.62638000E-13	 0.00000000E+00	 0.00000000E+00
	 0.00000000E+00	 4.62638000E-13	 0.00000000E+00
	 0.00000000E+00	 0.00000000E+00	 4.62638000E-13

	 4.38289000E-13	 0.00000000E+00	 0.00000000E+00
	 0.00000000E+00	 4.38289000E-13	 0.00000000E+00
	 0.00000000E+00	 0.00000000E+00	 4.38289000E-13

	 4.55997000E-13	 0.00000000E+00	 0.00000000E+00
	 0.00000000E+00	 4.55997000E-13	 0.00000000E+00
	 0.00000000E+00	 0.00000000E+00	 4.55997000E-13

	 4.51570000E-13	 0.00000000E+00	 0.00000000E+00
	 0.00000000E+00	 4.51570000E-13	 0.00000000E+00
	 0.00000000E+00	 0.00000000E+00	 4.51570000E-13

	 4.62638000E-13	 0.00000000E+00	 0.00000000E+00
	 0.00000000E+00	 4.62638000E-13	 0.00000000E+00
	 0.00000000E+00	 0.00000000E+00	 4.62638000E-13

	 4.62638000E-13	 0.00000000E+00	 0.00000000E+00
	 0.00000000E+00	 4.62638000E-13	 0.00000000E+00
	 0.00000000E+00	 0.00000000E+00	 4.62638000E-13

	 4.60425000E-13	 0.00000000E+00	 0.00000000E+00
	 0.00000000E+00	 4.60425000E-13	 0.00000000E+00
	 0.00000000E+00	 0.00000000E+00	 4.60425000E-13

	 4.42716000E-13	 0.00000000E+00	 0.00000000E+00
	 0.00000000E+00	 4.42716000E-13	 0.00000000E+00
	 0.00000000E+00	 0.00000000E+00	 4.42716000E-13

	 4.42716000E-13	 0.00000000E+00	 0.00000000E+00
	 0.00000000E+00	 4.42716000E-13	 0.00000000E+00
	 0.00000000E+00	 0.00000000E+00	 4.42716000E-13

	 4.60425000E-13	 0.00000000E+00	 0.00000000E+00
	 0.00000000E+00	 4.60425000E-13	 0.00000000E+00
	 0.00000000E+00	 0.00000000E+00	 4.60425000E-13

	 4.42716000E-13	 0.00000000E+00	 0.00000000E+00
	 0.00000000E+00	 4.42716000E-13	 0.00000000E+00
	 0.00000000E+00	 0.00000000E+00	 4.42716000E-13

	 4.53784000E-13	 0.00000000E+00	 0.00000000E+00
	 0.00000000E+00	 4.53784000E-13	 0.00000000E+00
	 0.00000000E+00	 0.00000000E+00	 4.53784000E-13

	 4.42716000E-13	 0.00000000E+00	 0.00000000E+00
	 0.00000000E+00	 4.42716000E-13	 0.00000000E+00
	 0.00000000E+00	 0.00000000E+00	 4.42716000E-13

	 4.42716000E-13	 0.00000000E+00	 0.00000000E+00
	 0.00000000E+00	 4.42716000E-13	 0.00000000E+00
	 0.00000000E+00	 0.00000000E+00	 4.42716000E-13

	 4.64852000E-13	 0.00000000E+00	 0.00000000E+00
	 0.00000000E+00	 4.64852000E-13	 0.00000000E+00
	 0.00000000E+00	 0.00000000E+00	 4.64852000E-13

	 4.38289000E-13	 0.00000000E+00	 0.00000000E+00
	 0.00000000E+00	 4.38289000E-13	 0.00000000E+00
	 0.00000000E+00	 0.00000000E+00	 4.38289000E-13

	 4.64852000E-13	 0.00000000E+00	 0.00000000E+00
	 0.00000000E+00	 4.64852000E-13	 0.00000000E+00
	 0.00000000E+00	 0.00000000E+00	 4.64852000E-13

	 4.64852000E-13	 0.00000000E+00	 0.00000000E+00
	 0.00000000E+00	 4.64852000E-13	 0.00000000E+00
	 0.00000000E+00	 0.00000000E+00	 4.64852000E-13

	 4.38289000E-13	 0.00000000E+00	 0.00000000E+00
	 0.00000000E+00	 4.38289000E-13	 0.00000000E+00
	 0.00000000E+00	 0.00000000E+00	 4.38289000E-13

	 4.64852000E-13	 0.00000000E+00	 0.00000000E+00
	 0.00000000E+00	 4.64852000E-13	 0.00000000E+00
	 0.00000000E+00	 0.00000000E+00	 4.64852000E-13

	 4.55997000E-13	 0.00000000E+00	 0.00000000E+00
	 0.00000000E+00	 4.55997000E-13	 0.00000000E+00
	 0.00000000E+00	 0.00000000E+00	 4.55997000E-13

	 4.40502000E-13	 0.00000000E+00	 0.00000000E+00
	 0.00000000E+00	 4.40502000E-13	 0.00000000E+00
	 0.00000000E+00	 0.00000000E+00	 4.40502000E-13

	 4.40502000E-13	 0.00000000E+00	 0.00000000E+00
	 0.00000000E+00	 4.40502000E-13	 0.00000000E+00
	 0.00000000E+00	 0.00000000E+00	 4.40502000E-13

	 4.64852000E-13	 0.00000000E+00	 0.00000000E+00
	 0.00000000E+00	 4.64852000E-13	 0.00000000E+00
	 0.00000000E+00	 0.00000000E+00	 4.64852000E-13

	 4.38289000E-13	 0.00000000E+00	 0.00000000E+00
	 0.00000000E+00	 4.38289000E-13	 0.00000000E+00
	 0.00000000E+00	 0.00000000E+00	 4.38289000E-13

	 4.38289000E-13	 0.00000000E+00	 0.00000000E+00
	 0.00000000E+00	 4.38289000E-13	 0.00000000E+00
	 0.00000000E+00	 0.00000000E+00	 4.38289000E-13

	 4.64852000E-13	 0.00000000E+00	 0.00000000E+00
	 0.00000000E+00	 4.64852000E-13	 0.00000000E+00
	 0.00000000E+00	 0.00000000E+00	 4.64852000E-13

	 4.38289000E-13	 0.00000000E+00	 0.00000000E+00
	 0.00000000E+00	 4.38289000E-13	 0.00000000E+00
	 0.00000000E+00	 0.00000000E+00	 4.38289000E-13

	 4.38289000E-13	 0.00000000E+00	 0.00000000E+00
	 0.00000000E+00	 4.38289000E-13	 0.00000000E+00
	 0.00000000E+00	 0.00000000E+00	 4.38289000E-13

	 4.40502000E-13	 0.00000000E+00	 0.00000000E+00
	 0.00000000E+00	 4.40502000E-13	 0.00000000E+00
	 0.00000000E+00	 0.00000000E+00	 4.40502000E-13

	 4.57262000E-13	 0.00000000E+00	 0.00000000E+00
	 0.00000000E+00	 4.57262000E-13	 0.00000000E+00
	 0.00000000E+00	 0.00000000E+00	 4.57262000E-13

	 4.38289000E-13	 0.00000000E+00	 0.00000000E+00
	 0.00000000E+00	 4.38289000E-13	 0.00000000E+00
	 0.00000000E+00	 0.00000000E+00	 4.38289000E-13

	 4.64852000E-13	 0.00000000E+00	 0.00000000E+00
	 0.00000000E+00	 4.64852000E-13	 0.00000000E+00
	 0.00000000E+00	 0.00000000E+00	 4.64852000E-13

	 4.64852000E-13	 0.00000000E+00	 0.00000000E+00
	 0.00000000E+00	 4.64852000E-13	 0.00000000E+00
	 0.00000000E+00	 0.00000000E+00	 4.64852000E-13

	 4.64852000E-13	 0.00000000E+00	 0.00000000E+00
	 0.00000000E+00	 4.64852000E-13	 0.00000000E+00
	 0.00000000E+00	 0.00000000E+00	 4.64852000E-13

	 4.40502000E-13	 0.00000000E+00	 0.00000000E+00
	 0.00000000E+00	 4.40502000E-13	 0.00000000E+00
	 0.00000000E+00	 0.00000000E+00	 4.40502000E-13

	 4.64852000E-13	 0.00000000E+00	 0.00000000E+00
	 0.00000000E+00	 4.64852000E-13	 0.00000000E+00
	 0.00000000E+00	 0.00000000E+00	 4.64852000E-13

	 4.55997000E-13	 0.00000000E+00	 0.00000000E+00
	 0.00000000E+00	 4.55997000E-13	 0.00000000E+00
	 0.00000000E+00	 0.00000000E+00	 4.55997000E-13

	 4.64852000E-13	 0.00000000E+00	 0.00000000E+00
	 0.00000000E+00	 4.64852000E-13	 0.00000000E+00
	 0.00000000E+00	 0.00000000E+00	 4.64852000E-13

	 4.58211000E-13	 0.00000000E+00	 0.00000000E+00
	 0.00000000E+00	 4.58211000E-13	 0.00000000E+00
	 0.00000000E+00	 0.00000000E+00	 4.58211000E-13

	 4.55365000E-13	 0.00000000E+00	 0.00000000E+00
	 0.00000000E+00	 4.55365000E-13	 0.00000000E+00
	 0.00000000E+00	 0.00000000E+00	 4.55365000E-13

	 4.38289000E-13	 0.00000000E+00	 0.00000000E+00
	 0.00000000E+00	 4.38289000E-13	 0.00000000E+00
	 0.00000000E+00	 0.00000000E+00	 4.38289000E-13

	 4.40502000E-13	 0.00000000E+00	 0.00000000E+00
	 0.00000000E+00	 4.40502000E-13	 0.00000000E+00
	 0.00000000E+00	 0.00000000E+00	 4.40502000E-13

	 4.64852000E-13	 0.00000000E+00	 0.00000000E+00
	 0.00000000E+00	 4.64852000E-13	 0.00000000E+00
	 0.00000000E+00	 0.00000000E+00	 4.64852000E-13

	 4.62638000E-13	 0.00000000E+00	 0.00000000E+00
	 0.00000000E+00	 4.62638000E-13	 0.00000000E+00
	 0.00000000E+00	 0.00000000E+00	 4.62638000E-13

	 4.38289000E-13	 0.00000000E+00	 0.00000000E+00
	 0.00000000E+00	 4.38289000E-13	 0.00000000E+00
	 0.00000000E+00	 0.00000000E+00	 4.38289000E-13

	 4.44929000E-13	 0.00000000E+00	 0.00000000E+00
	 0.00000000E+00	 4.44929000E-13	 0.00000000E+00
	 0.00000000E+00	 0.00000000E+00	 4.44929000E-13

	 4.58211000E-13	 0.00000000E+00	 0.00000000E+00
	 0.00000000E+00	 4.58211000E-13	 0.00000000E+00
	 0.00000000E+00	 0.00000000E+00	 4.58211000E-13

	 4.64852000E-13	 0.00000000E+00	 0.00000000E+00
	 0.00000000E+00	 4.64852000E-13	 0.00000000E+00
	 0.00000000E+00	 0.00000000E+00	 4.64852000E-13

	 4.64852000E-13	 0.00000000E+00	 0.00000000E+00
	 0.00000000E+00	 4.64852000E-13	 0.00000000E+00
	 0.00000000E+00	 0.00000000E+00	 4.64852000E-13

	 4.64852000E-13	 0.00000000E+00	 0.00000000E+00
	 0.00000000E+00	 4.64852000E-13	 0.00000000E+00
	 0.00000000E+00	 0.00000000E+00	 4.64852000E-13

	 4.47143000E-13	 0.00000000E+00	 0.00000000E+00
	 0.00000000E+00	 4.47143000E-13	 0.00000000E+00
	 0.00000000E+00	 0.00000000E+00	 4.47143000E-13

	 4.64852000E-13	 0.00000000E+00	 0.00000000E+00
	 0.00000000E+00	 4.64852000E-13	 0.00000000E+00
	 0.00000000E+00	 0.00000000E+00	 4.64852000E-13

	 4.38289000E-13	 0.00000000E+00	 0.00000000E+00
	 0.00000000E+00	 4.38289000E-13	 0.00000000E+00
	 0.00000000E+00	 0.00000000E+00	 4.38289000E-13

	 4.38289000E-13	 0.00000000E+00	 0.00000000E+00
	 0.00000000E+00	 4.38289000E-13	 0.00000000E+00
	 0.00000000E+00	 0.00000000E+00	 4.38289000E-13

	 4.64852000E-13	 0.00000000E+00	 0.00000000E+00
	 0.00000000E+00	 4.64852000E-13	 0.00000000E+00
	 0.00000000E+00	 0.00000000E+00	 4.64852000E-13

	 4.38289000E-13	 0.00000000E+00	 0.00000000E+00
	 0.00000000E+00	 4.38289000E-13	 0.00000000E+00
	 0.00000000E+00	 0.00000000E+00	 4.38289000E-13

	 4.38289000E-13	 0.00000000E+00	 0.00000000E+00
	 0.00000000E+00	 4.38289000E-13	 0.00000000E+00
	 0.00000000E+00	 0.00000000E+00	 4.38289000E-13

	 4.38289000E-13	 0.00000000E+00	 0.00000000E+00
	 0.00000000E+00	 4.38289000E-13	 0.00000000E+00
	 0.00000000E+00	 0.00000000E+00	 4.38289000E-13

	 4.38289000E-13	 0.00000000E+00	 0.00000000E+00
	 0.00000000E+00	 4.38289000E-13	 0.00000000E+00
	 0.00000000E+00	 0.00000000E+00	 4.38289000E-13

	 4.64852000E-13	 0.00000000E+00	 0.00000000E+00
	 0.00000000E+00	 4.64852000E-13	 0.00000000E+00
	 0.00000000E+00	 0.00000000E+00	 4.64852000E-13

	 4.38289000E-13	 0.00000000E+00	 0.00000000E+00
	 0.00000000E+00	 4.38289000E-13	 0.00000000E+00
	 0.00000000E+00	 0.00000000E+00	 4.38289000E-13

	 4.64852000E-13	 0.00000000E+00	 0.00000000E+00
	 0.00000000E+00	 4.64852000E-13	 0.00000000E+00
	 0.00000000E+00	 0.00000000E+00	 4.64852000E-13

	 4.42716000E-13	 0.00000000E+00	 0.00000000E+00
	 0.00000000E+00	 4.42716000E-13	 0.00000000E+00
	 0.00000000E+00	 0.00000000E+00	 4.42716000E-13

	 4.38289000E-13	 0.00000000E+00	 0.00000000E+00
	 0.00000000E+00	 4.38289000E-13	 0.00000000E+00
	 0.00000000E+00	 0.00000000E+00	 4.38289000E-13

	 4.64852000E-13	 0.00000000E+00	 0.00000000E+00
	 0.00000000E+00	 4.64852000E-13	 0.00000000E+00
	 0.00000000E+00	 0.00000000E+00	 4.64852000E-13

	 4.42716000E-13	 0.00000000E+00	 0.00000000E+00
	 0.00000000E+00	 4.42716000E-13	 0.00000000E+00
	 0.00000000E+00	 0.00000000E+00	 4.42716000E-13

	 4.64852000E-13	 0.00000000E+00	 0.00000000E+00
	 0.00000000E+00	 4.64852000E-13	 0.00000000E+00
	 0.00000000E+00	 0.00000000E+00	 4.64852000E-13

	 4.64852000E-13	 0.00000000E+00	 0.00000000E+00
	 0.00000000E+00	 4.64852000E-13	 0.00000000E+00
	 0.00000000E+00	 0.00000000E+00	 4.64852000E-13

	 4.64852000E-13	 0.00000000E+00	 0.00000000E+00
	 0.00000000E+00	 4.64852000E-13	 0.00000000E+00
	 0.00000000E+00	 0.00000000E+00	 4.64852000E-13

	 4.40502000E-13	 0.00000000E+00	 0.00000000E+00
	 0.00000000E+00	 4.40502000E-13	 0.00000000E+00
	 0.00000000E+00	 0.00000000E+00	 4.40502000E-13

	 4.38289000E-13	 0.00000000E+00	 0.00000000E+00
	 0.00000000E+00	 4.38289000E-13	 0.00000000E+00
	 0.00000000E+00	 0.00000000E+00	 4.38289000E-13

	 4.64852000E-13	 0.00000000E+00	 0.00000000E+00
	 0.00000000E+00	 4.64852000E-13	 0.00000000E+00
	 0.00000000E+00	 0.00000000E+00	 4.64852000E-13

	 4.42716000E-13	 0.00000000E+00	 0.00000000E+00
	 0.00000000E+00	 4.42716000E-13	 0.00000000E+00
	 0.00000000E+00	 0.00000000E+00	 4.42716000E-13

	 4.42716000E-13	 0.00000000E+00	 0.00000000E+00
	 0.00000000E+00	 4.42716000E-13	 0.00000000E+00
	 0.00000000E+00	 0.00000000E+00	 4.42716000E-13

	 4.60425000E-13	 0.00000000E+00	 0.00000000E+00
	 0.00000000E+00	 4.60425000E-13	 0.00000000E+00
	 0.00000000E+00	 0.00000000E+00	 4.60425000E-13

	 4.38289000E-13	 0.00000000E+00	 0.00000000E+00
	 0.00000000E+00	 4.38289000E-13	 0.00000000E+00
	 0.00000000E+00	 0.00000000E+00	 4.38289000E-13

	 4.64852000E-13	 0.00000000E+00	 0.00000000E+00
	 0.00000000E+00	 4.64852000E-13	 0.00000000E+00
	 0.00000000E+00	 0.00000000E+00	 4.64852000E-13

	 4.47143000E-13	 0.00000000E+00	 0.00000000E+00
	 0.00000000E+00	 4.47143000E-13	 0.00000000E+00
	 0.00000000E+00	 0.00000000E+00	 4.47143000E-13

	 4.53784000E-13	 0.00000000E+00	 0.00000000E+00
	 0.00000000E+00	 4.53784000E-13	 0.00000000E+00
	 0.00000000E+00	 0.00000000E+00	 4.53784000E-13

	 4.38289000E-13	 0.00000000E+00	 0.00000000E+00
	 0.00000000E+00	 4.38289000E-13	 0.00000000E+00
	 0.00000000E+00	 0.00000000E+00	 4.38289000E-13

	 4.64852000E-13	 0.00000000E+00	 0.00000000E+00
	 0.00000000E+00	 4.64852000E-13	 0.00000000E+00
	 0.00000000E+00	 0.00000000E+00	 4.64852000E-13

	 4.64852000E-13	 0.00000000E+00	 0.00000000E+00
	 0.00000000E+00	 4.64852000E-13	 0.00000000E+00
	 0.00000000E+00	 0.00000000E+00	 4.64852000E-13

	 4.64852000E-13	 0.00000000E+00	 0.00000000E+00
	 0.00000000E+00	 4.64852000E-13	 0.00000000E+00
	 0.00000000E+00	 0.00000000E+00	 4.64852000E-13

	 4.38289000E-13	 0.00000000E+00	 0.00000000E+00
	 0.00000000E+00	 4.38289000E-13	 0.00000000E+00
	 0.00000000E+00	 0.00000000E+00	 4.38289000E-13

	 4.47143000E-13	 0.00000000E+00	 0.00000000E+00
	 0.00000000E+00	 4.47143000E-13	 0.00000000E+00
	 0.00000000E+00	 0.00000000E+00	 4.47143000E-13

	 4.64852000E-13	 0.00000000E+00	 0.00000000E+00
	 0.00000000E+00	 4.64852000E-13	 0.00000000E+00
	 0.00000000E+00	 0.00000000E+00	 4.64852000E-13

	 4.38289000E-13	 0.00000000E+00	 0.00000000E+00
	 0.00000000E+00	 4.38289000E-13	 0.00000000E+00
	 0.00000000E+00	 0.00000000E+00	 4.38289000E-13

	 4.47143000E-13	 0.00000000E+00	 0.00000000E+00
	 0.00000000E+00	 4.47143000E-13	 0.00000000E+00
	 0.00000000E+00	 0.00000000E+00	 4.47143000E-13

	 4.64852000E-13	 0.00000000E+00	 0.00000000E+00
	 0.00000000E+00	 4.64852000E-13	 0.00000000E+00
	 0.00000000E+00	 0.00000000E+00	 4.64852000E-13

	 4.38289000E-13	 0.00000000E+00	 0.00000000E+00
	 0.00000000E+00	 4.38289000E-13	 0.00000000E+00
	 0.00000000E+00	 0.00000000E+00	 4.38289000E-13

	 4.64852000E-13	 0.00000000E+00	 0.00000000E+00
	 0.00000000E+00	 4.64852000E-13	 0.00000000E+00
	 0.00000000E+00	 0.00000000E+00	 4.64852000E-13

	 4.38289000E-13	 0.00000000E+00	 0.00000000E+00
	 0.00000000E+00	 4.38289000E-13	 0.00000000E+00
	 0.00000000E+00	 0.00000000E+00	 4.38289000E-13

	 4.44929000E-13	 0.00000000E+00	 0.00000000E+00
	 0.00000000E+00	 4.44929000E-13	 0.00000000E+00
	 0.00000000E+00	 0.00000000E+00	 4.44929000E-13

	 4.49357000E-13	 0.00000000E+00	 0.00000000E+00
	 0.00000000E+00	 4.49357000E-13	 0.00000000E+00
	 0.00000000E+00	 0.00000000E+00	 4.49357000E-13

	 4.55997000E-13	 0.00000000E+00	 0.00000000E+00
	 0.00000000E+00	 4.55997000E-13	 0.00000000E+00
	 0.00000000E+00	 0.00000000E+00	 4.55997000E-13

	 4.47143000E-13	 0.00000000E+00	 0.00000000E+00
	 0.00000000E+00	 4.47143000E-13	 0.00000000E+00
	 0.00000000E+00	 0.00000000E+00	 4.47143000E-13

	 4.38289000E-13	 0.00000000E+00	 0.00000000E+00
	 0.00000000E+00	 4.38289000E-13	 0.00000000E+00
	 0.00000000E+00	 0.00000000E+00	 4.38289000E-13

	 4.38289000E-13	 0.00000000E+00	 0.00000000E+00
	 0.00000000E+00	 4.38289000E-13	 0.00000000E+00
	 0.00000000E+00	 0.00000000E+00	 4.38289000E-13

	 4.38289000E-13	 0.00000000E+00	 0.00000000E+00
	 0.00000000E+00	 4.38289000E-13	 0.00000000E+00
	 0.00000000E+00	 0.00000000E+00	 4.38289000E-13

	 4.42716000E-13	 0.00000000E+00	 0.00000000E+00
	 0.00000000E+00	 4.42716000E-13	 0.00000000E+00
	 0.00000000E+00	 0.00000000E+00	 4.42716000E-13

	 4.44929000E-13	 0.00000000E+00	 0.00000000E+00
	 0.00000000E+00	 4.44929000E-13	 0.00000000E+00
	 0.00000000E+00	 0.00000000E+00	 4.44929000E-13

	 4.57262000E-13	 0.00000000E+00	 0.00000000E+00
	 0.00000000E+00	 4.57262000E-13	 0.00000000E+00
	 0.00000000E+00	 0.00000000E+00	 4.57262000E-13

	 4.64852000E-13	 0.00000000E+00	 0.00000000E+00
	 0.00000000E+00	 4.64852000E-13	 0.00000000E+00
	 0.00000000E+00	 0.00000000E+00	 4.64852000E-13

	 4.64852000E-13	 0.00000000E+00	 0.00000000E+00
	 0.00000000E+00	 4.64852000E-13	 0.00000000E+00
	 0.00000000E+00	 0.00000000E+00	 4.64852000E-13

	 4.38289000E-13	 0.00000000E+00	 0.00000000E+00
	 0.00000000E+00	 4.38289000E-13	 0.00000000E+00
	 0.00000000E+00	 0.00000000E+00	 4.38289000E-13

	 4.64852000E-13	 0.00000000E+00	 0.00000000E+00
	 0.00000000E+00	 4.64852000E-13	 0.00000000E+00
	 0.00000000E+00	 0.00000000E+00	 4.64852000E-13

	 4.60425000E-13	 0.00000000E+00	 0.00000000E+00
	 0.00000000E+00	 4.60425000E-13	 0.00000000E+00
	 0.00000000E+00	 0.00000000E+00	 4.60425000E-13

	 4.64852000E-13	 0.00000000E+00	 0.00000000E+00
	 0.00000000E+00	 4.64852000E-13	 0.00000000E+00
	 0.00000000E+00	 0.00000000E+00	 4.64852000E-13

	 4.58211000E-13	 0.00000000E+00	 0.00000000E+00
	 0.00000000E+00	 4.58211000E-13	 0.00000000E+00
	 0.00000000E+00	 0.00000000E+00	 4.58211000E-13

	 4.59160000E-13	 0.00000000E+00	 0.00000000E+00
	 0.00000000E+00	 4.59160000E-13	 0.00000000E+00
	 0.00000000E+00	 0.00000000E+00	 4.59160000E-13

	 4.64852000E-13	 0.00000000E+00	 0.00000000E+00
	 0.00000000E+00	 4.64852000E-13	 0.00000000E+00
	 0.00000000E+00	 0.00000000E+00	 4.64852000E-13

	 4.60425000E-13	 0.00000000E+00	 0.00000000E+00
	 0.00000000E+00	 4.60425000E-13	 0.00000000E+00
	 0.00000000E+00	 0.00000000E+00	 4.60425000E-13

	 4.64852000E-13	 0.00000000E+00	 0.00000000E+00
	 0.00000000E+00	 4.64852000E-13	 0.00000000E+00
	 0.00000000E+00	 0.00000000E+00	 4.64852000E-13

	 4.57262000E-13	 0.00000000E+00	 0.00000000E+00
	 0.00000000E+00	 4.57262000E-13	 0.00000000E+00
	 0.00000000E+00	 0.00000000E+00	 4.57262000E-13

	 4.40502000E-13	 0.00000000E+00	 0.00000000E+00
	 0.00000000E+00	 4.40502000E-13	 0.00000000E+00
	 0.00000000E+00	 0.00000000E+00	 4.40502000E-13

	 4.64852000E-13	 0.00000000E+00	 0.00000000E+00
	 0.00000000E+00	 4.64852000E-13	 0.00000000E+00
	 0.00000000E+00	 0.00000000E+00	 4.64852000E-13

	 4.38289000E-13	 0.00000000E+00	 0.00000000E+00
	 0.00000000E+00	 4.38289000E-13	 0.00000000E+00
	 0.00000000E+00	 0.00000000E+00	 4.38289000E-13

	 4.38289000E-13	 0.00000000E+00	 0.00000000E+00
	 0.00000000E+00	 4.38289000E-13	 0.00000000E+00
	 0.00000000E+00	 0.00000000E+00	 4.38289000E-13

	 4.38289000E-13	 0.00000000E+00	 0.00000000E+00
	 0.00000000E+00	 4.38289000E-13	 0.00000000E+00
	 0.00000000E+00	 0.00000000E+00	 4.38289000E-13

	 4.53784000E-13	 0.00000000E+00	 0.00000000E+00
	 0.00000000E+00	 4.53784000E-13	 0.00000000E+00
	 0.00000000E+00	 0.00000000E+00	 4.53784000E-13

	 4.64852000E-13	 0.00000000E+00	 0.00000000E+00
	 0.00000000E+00	 4.64852000E-13	 0.00000000E+00
	 0.00000000E+00	 0.00000000E+00	 4.64852000E-13

	 4.64852000E-13	 0.00000000E+00	 0.00000000E+00
	 0.00000000E+00	 4.64852000E-13	 0.00000000E+00
	 0.00000000E+00	 0.00000000E+00	 4.64852000E-13

	 4.64852000E-13	 0.00000000E+00	 0.00000000E+00
	 0.00000000E+00	 4.64852000E-13	 0.00000000E+00
	 0.00000000E+00	 0.00000000E+00	 4.64852000E-13

	 4.64852000E-13	 0.00000000E+00	 0.00000000E+00
	 0.00000000E+00	 4.64852000E-13	 0.00000000E+00
	 0.00000000E+00	 0.00000000E+00	 4.64852000E-13

	 4.64852000E-13	 0.00000000E+00	 0.00000000E+00
	 0.00000000E+00	 4.64852000E-13	 0.00000000E+00
	 0.00000000E+00	 0.00000000E+00	 4.64852000E-13

	 4.38289000E-13	 0.00000000E+00	 0.00000000E+00
	 0.00000000E+00	 4.38289000E-13	 0.00000000E+00
	 0.00000000E+00	 0.00000000E+00	 4.38289000E-13

	 4.64852000E-13	 0.00000000E+00	 0.00000000E+00
	 0.00000000E+00	 4.64852000E-13	 0.00000000E+00
	 0.00000000E+00	 0.00000000E+00	 4.64852000E-13

	 4.38289000E-13	 0.00000000E+00	 0.00000000E+00
	 0.00000000E+00	 4.38289000E-13	 0.00000000E+00
	 0.00000000E+00	 0.00000000E+00	 4.38289000E-13

	 4.44929000E-13	 0.00000000E+00	 0.00000000E+00
	 0.00000000E+00	 4.44929000E-13	 0.00000000E+00
	 0.00000000E+00	 0.00000000E+00	 4.44929000E-13

	 4.38289000E-13	 0.00000000E+00	 0.00000000E+00
	 0.00000000E+00	 4.38289000E-13	 0.00000000E+00
	 0.00000000E+00	 0.00000000E+00	 4.38289000E-13

	 4.64852000E-13	 0.00000000E+00	 0.00000000E+00
	 0.00000000E+00	 4.64852000E-13	 0.00000000E+00
	 0.00000000E+00	 0.00000000E+00	 4.64852000E-13

	 4.64852000E-13	 0.00000000E+00	 0.00000000E+00
	 0.00000000E+00	 4.64852000E-13	 0.00000000E+00
	 0.00000000E+00	 0.00000000E+00	 4.64852000E-13

	 4.53784000E-13	 0.00000000E+00	 0.00000000E+00
	 0.00000000E+00	 4.53784000E-13	 0.00000000E+00
	 0.00000000E+00	 0.00000000E+00	 4.53784000E-13

	 4.64852000E-13	 0.00000000E+00	 0.00000000E+00
	 0.00000000E+00	 4.64852000E-13	 0.00000000E+00
	 0.00000000E+00	 0.00000000E+00	 4.64852000E-13

	 4.60425000E-13	 0.00000000E+00	 0.00000000E+00
	 0.00000000E+00	 4.60425000E-13	 0.00000000E+00
	 0.00000000E+00	 0.00000000E+00	 4.60425000E-13

	 4.38289000E-13	 0.00000000E+00	 0.00000000E+00
	 0.00000000E+00	 4.38289000E-13	 0.00000000E+00
	 0.00000000E+00	 0.00000000E+00	 4.38289000E-13

	 4.64852000E-13	 0.00000000E+00	 0.00000000E+00
	 0.00000000E+00	 4.64852000E-13	 0.00000000E+00
	 0.00000000E+00	 0.00000000E+00	 4.64852000E-13

	 4.64852000E-13	 0.00000000E+00	 0.00000000E+00
	 0.00000000E+00	 4.64852000E-13	 0.00000000E+00
	 0.00000000E+00	 0.00000000E+00	 4.64852000E-13

	 4.64852000E-13	 0.00000000E+00	 0.00000000E+00
	 0.00000000E+00	 4.64852000E-13	 0.00000000E+00
	 0.00000000E+00	 0.00000000E+00	 4.64852000E-13

	 4.51570000E-13	 0.00000000E+00	 0.00000000E+00
	 0.00000000E+00	 4.51570000E-13	 0.00000000E+00
	 0.00000000E+00	 0.00000000E+00	 4.51570000E-13

	 4.40502000E-13	 0.00000000E+00	 0.00000000E+00
	 0.00000000E+00	 4.40502000E-13	 0.00000000E+00
	 0.00000000E+00	 0.00000000E+00	 4.40502000E-13

	 4.38289000E-13	 0.00000000E+00	 0.00000000E+00
	 0.00000000E+00	 4.38289000E-13	 0.00000000E+00
	 0.00000000E+00	 0.00000000E+00	 4.38289000E-13

	 4.49357000E-13	 0.00000000E+00	 0.00000000E+00
	 0.00000000E+00	 4.49357000E-13	 0.00000000E+00
	 0.00000000E+00	 0.00000000E+00	 4.49357000E-13

	 4.38289000E-13	 0.00000000E+00	 0.00000000E+00
	 0.00000000E+00	 4.38289000E-13	 0.00000000E+00
	 0.00000000E+00	 0.00000000E+00	 4.38289000E-13

	 4.38289000E-13	 0.00000000E+00	 0.00000000E+00
	 0.00000000E+00	 4.38289000E-13	 0.00000000E+00
	 0.00000000E+00	 0.00000000E+00	 4.38289000E-13

	 4.64852000E-13	 0.00000000E+00	 0.00000000E+00
	 0.00000000E+00	 4.64852000E-13	 0.00000000E+00
	 0.00000000E+00	 0.00000000E+00	 4.64852000E-13

	 4.64852000E-13	 0.00000000E+00	 0.00000000E+00
	 0.00000000E+00	 4.64852000E-13	 0.00000000E+00
	 0.00000000E+00	 0.00000000E+00	 4.64852000E-13

	 4.64852000E-13	 0.00000000E+00	 0.00000000E+00
	 0.00000000E+00	 4.64852000E-13	 0.00000000E+00
	 0.00000000E+00	 0.00000000E+00	 4.64852000E-13

	 4.64852000E-13	 0.00000000E+00	 0.00000000E+00
	 0.00000000E+00	 4.64852000E-13	 0.00000000E+00
	 0.00000000E+00	 0.00000000E+00	 4.64852000E-13

	 4.38289000E-13	 0.00000000E+00	 0.00000000E+00
	 0.00000000E+00	 4.38289000E-13	 0.00000000E+00
	 0.00000000E+00	 0.00000000E+00	 4.38289000E-13

	 4.38289000E-13	 0.00000000E+00	 0.00000000E+00
	 0.00000000E+00	 4.38289000E-13	 0.00000000E+00
	 0.00000000E+00	 0.00000000E+00	 4.38289000E-13

	 4.64852000E-13	 0.00000000E+00	 0.00000000E+00
	 0.00000000E+00	 4.64852000E-13	 0.00000000E+00
	 0.00000000E+00	 0.00000000E+00	 4.64852000E-13

	 4.58211000E-13	 0.00000000E+00	 0.00000000E+00
	 0.00000000E+00	 4.58211000E-13	 0.00000000E+00
	 0.00000000E+00	 0.00000000E+00	 4.58211000E-13

	 4.47775000E-13	 0.00000000E+00	 0.00000000E+00
	 0.00000000E+00	 4.47775000E-13	 0.00000000E+00
	 0.00000000E+00	 0.00000000E+00	 4.47775000E-13

	 4.49357000E-13	 0.00000000E+00	 0.00000000E+00
	 0.00000000E+00	 4.49357000E-13	 0.00000000E+00
	 0.00000000E+00	 0.00000000E+00	 4.49357000E-13

	 4.53784000E-13	 0.00000000E+00	 0.00000000E+00
	 0.00000000E+00	 4.53784000E-13	 0.00000000E+00
	 0.00000000E+00	 0.00000000E+00	 4.53784000E-13

	 4.58211000E-13	 0.00000000E+00	 0.00000000E+00
	 0.00000000E+00	 4.58211000E-13	 0.00000000E+00
	 0.00000000E+00	 0.00000000E+00	 4.58211000E-13

	 4.64852000E-13	 0.00000000E+00	 0.00000000E+00
	 0.00000000E+00	 4.64852000E-13	 0.00000000E+00
	 0.00000000E+00	 0.00000000E+00	 4.64852000E-13

	 4.40186000E-13	 0.00000000E+00	 0.00000000E+00
	 0.00000000E+00	 4.40186000E-13	 0.00000000E+00
	 0.00000000E+00	 0.00000000E+00	 4.40186000E-13

	 4.64852000E-13	 0.00000000E+00	 0.00000000E+00
	 0.00000000E+00	 4.64852000E-13	 0.00000000E+00
	 0.00000000E+00	 0.00000000E+00	 4.64852000E-13

	 4.64852000E-13	 0.00000000E+00	 0.00000000E+00
	 0.00000000E+00	 4.64852000E-13	 0.00000000E+00
	 0.00000000E+00	 0.00000000E+00	 4.64852000E-13

	 4.64852000E-13	 0.00000000E+00	 0.00000000E+00
	 0.00000000E+00	 4.64852000E-13	 0.00000000E+00
	 0.00000000E+00	 0.00000000E+00	 4.64852000E-13

	 4.64852000E-13	 0.00000000E+00	 0.00000000E+00
	 0.00000000E+00	 4.64852000E-13	 0.00000000E+00
	 0.00000000E+00	 0.00000000E+00	 4.64852000E-13

	 4.44929000E-13	 0.00000000E+00	 0.00000000E+00
	 0.00000000E+00	 4.44929000E-13	 0.00000000E+00
	 0.00000000E+00	 0.00000000E+00	 4.44929000E-13

	 4.44929000E-13	 0.00000000E+00	 0.00000000E+00
	 0.00000000E+00	 4.44929000E-13	 0.00000000E+00
	 0.00000000E+00	 0.00000000E+00	 4.44929000E-13

	 4.64852000E-13	 0.00000000E+00	 0.00000000E+00
	 0.00000000E+00	 4.64852000E-13	 0.00000000E+00
	 0.00000000E+00	 0.00000000E+00	 4.64852000E-13

	 4.64852000E-13	 0.00000000E+00	 0.00000000E+00
	 0.00000000E+00	 4.64852000E-13	 0.00000000E+00
	 0.00000000E+00	 0.00000000E+00	 4.64852000E-13

	 4.62638000E-13	 0.00000000E+00	 0.00000000E+00
	 0.00000000E+00	 4.62638000E-13	 0.00000000E+00
	 0.00000000E+00	 0.00000000E+00	 4.62638000E-13

	 4.38289000E-13	 0.00000000E+00	 0.00000000E+00
	 0.00000000E+00	 4.38289000E-13	 0.00000000E+00
	 0.00000000E+00	 0.00000000E+00	 4.38289000E-13

	 4.42716000E-13	 0.00000000E+00	 0.00000000E+00
	 0.00000000E+00	 4.42716000E-13	 0.00000000E+00
	 0.00000000E+00	 0.00000000E+00	 4.42716000E-13

	 4.40502000E-13	 0.00000000E+00	 0.00000000E+00
	 0.00000000E+00	 4.40502000E-13	 0.00000000E+00
	 0.00000000E+00	 0.00000000E+00	 4.40502000E-13

	 4.38289000E-13	 0.00000000E+00	 0.00000000E+00
	 0.00000000E+00	 4.38289000E-13	 0.00000000E+00
	 0.00000000E+00	 0.00000000E+00	 4.38289000E-13

	 4.64852000E-13	 0.00000000E+00	 0.00000000E+00
	 0.00000000E+00	 4.64852000E-13	 0.00000000E+00
	 0.00000000E+00	 0.00000000E+00	 4.64852000E-13

	 4.49673000E-13	 0.00000000E+00	 0.00000000E+00
	 0.00000000E+00	 4.49673000E-13	 0.00000000E+00
	 0.00000000E+00	 0.00000000E+00	 4.49673000E-13

	 4.38289000E-13	 0.00000000E+00	 0.00000000E+00
	 0.00000000E+00	 4.38289000E-13	 0.00000000E+00
	 0.00000000E+00	 0.00000000E+00	 4.38289000E-13

	 4.38289000E-13	 0.00000000E+00	 0.00000000E+00
	 0.00000000E+00	 4.38289000E-13	 0.00000000E+00
	 0.00000000E+00	 0.00000000E+00	 4.38289000E-13

	 4.64852000E-13	 0.00000000E+00	 0.00000000E+00
	 0.00000000E+00	 4.64852000E-13	 0.00000000E+00
	 0.00000000E+00	 0.00000000E+00	 4.64852000E-13

	 4.38289000E-13	 0.00000000E+00	 0.00000000E+00
	 0.00000000E+00	 4.38289000E-13	 0.00000000E+00
	 0.00000000E+00	 0.00000000E+00	 4.38289000E-13

	 4.38289000E-13	 0.00000000E+00	 0.00000000E+00
	 0.00000000E+00	 4.38289000E-13	 0.00000000E+00
	 0.00000000E+00	 0.00000000E+00	 4.38289000E-13

	 4.38289000E-13	 0.00000000E+00	 0.00000000E+00
	 0.00000000E+00	 4.38289000E-13	 0.00000000E+00
	 0.00000000E+00	 0.00000000E+00	 4.38289000E-13

	 4.42716000E-13	 0.00000000E+00	 0.00000000E+00
	 0.00000000E+00	 4.42716000E-13	 0.00000000E+00
	 0.00000000E+00	 0.00000000E+00	 4.42716000E-13

	 4.64852000E-13	 0.00000000E+00	 0.00000000E+00
	 0.00000000E+00	 4.64852000E-13	 0.00000000E+00
	 0.00000000E+00	 0.00000000E+00	 4.64852000E-13

	 4.69279000E-13	 0.00000000E+00	 0.00000000E+00
	 0.00000000E+00	 4.69279000E-13	 0.00000000E+00
	 0.00000000E+00	 0.00000000E+00	 4.69279000E-13

	 4.40186000E-13	 0.00000000E+00	 0.00000000E+00
	 0.00000000E+00	 4.40186000E-13	 0.00000000E+00
	 0.00000000E+00	 0.00000000E+00	 4.40186000E-13

	 4.38289000E-13	 0.00000000E+00	 0.00000000E+00
	 0.00000000E+00	 4.38289000E-13	 0.00000000E+00
	 0.00000000E+00	 0.00000000E+00	 4.38289000E-13

	 4.60425000E-13	 0.00000000E+00	 0.00000000E+00
	 0.00000000E+00	 4.60425000E-13	 0.00000000E+00
	 0.00000000E+00	 0.00000000E+00	 4.60425000E-13

	 4.64852000E-13	 0.00000000E+00	 0.00000000E+00
	 0.00000000E+00	 4.64852000E-13	 0.00000000E+00
	 0.00000000E+00	 0.00000000E+00	 4.64852000E-13

	 4.53784000E-13	 0.00000000E+00	 0.00000000E+00
	 0.00000000E+00	 4.53784000E-13	 0.00000000E+00
	 0.00000000E+00	 0.00000000E+00	 4.53784000E-13

	 4.38289000E-13	 0.00000000E+00	 0.00000000E+00
	 0.00000000E+00	 4.38289000E-13	 0.00000000E+00
	 0.00000000E+00	 0.00000000E+00	 4.38289000E-13

	 4.40186000E-13	 0.00000000E+00	 0.00000000E+00
	 0.00000000E+00	 4.40186000E-13	 0.00000000E+00
	 0.00000000E+00	 0.00000000E+00	 4.40186000E-13

	 4.60425000E-13	 0.00000000E+00	 0.00000000E+00
	 0.00000000E+00	 4.60425000E-13	 0.00000000E+00
	 0.00000000E+00	 0.00000000E+00	 4.60425000E-13

	 4.38289000E-13	 0.00000000E+00	 0.00000000E+00
	 0.00000000E+00	 4.38289000E-13	 0.00000000E+00
	 0.00000000E+00	 0.00000000E+00	 4.38289000E-13

	 4.64852000E-13	 0.00000000E+00	 0.00000000E+00
	 0.00000000E+00	 4.64852000E-13	 0.00000000E+00
	 0.00000000E+00	 0.00000000E+00	 4.64852000E-13

	 4.38289000E-13	 0.00000000E+00	 0.00000000E+00
	 0.00000000E+00	 4.38289000E-13	 0.00000000E+00
	 0.00000000E+00	 0.00000000E+00	 4.38289000E-13

	 4.64852000E-13	 0.00000000E+00	 0.00000000E+00
	 0.00000000E+00	 4.64852000E-13	 0.00000000E+00
	 0.00000000E+00	 0.00000000E+00	 4.64852000E-13

	 4.53784000E-13	 0.00000000E+00	 0.00000000E+00
	 0.00000000E+00	 4.53784000E-13	 0.00000000E+00
	 0.00000000E+00	 0.00000000E+00	 4.53784000E-13

	 4.53784000E-13	 0.00000000E+00	 0.00000000E+00
	 0.00000000E+00	 4.53784000E-13	 0.00000000E+00
	 0.00000000E+00	 0.00000000E+00	 4.53784000E-13

	 4.38289000E-13	 0.00000000E+00	 0.00000000E+00
	 0.00000000E+00	 4.38289000E-13	 0.00000000E+00
	 0.00000000E+00	 0.00000000E+00	 4.38289000E-13

	 4.38289000E-13	 0.00000000E+00	 0.00000000E+00
	 0.00000000E+00	 4.38289000E-13	 0.00000000E+00
	 0.00000000E+00	 0.00000000E+00	 4.38289000E-13

	 4.64852000E-13	 0.00000000E+00	 0.00000000E+00
	 0.00000000E+00	 4.64852000E-13	 0.00000000E+00
	 0.00000000E+00	 0.00000000E+00	 4.64852000E-13

	 4.64852000E-13	 0.00000000E+00	 0.00000000E+00
	 0.00000000E+00	 4.64852000E-13	 0.00000000E+00
	 0.00000000E+00	 0.00000000E+00	 4.64852000E-13

	 4.64852000E-13	 0.00000000E+00	 0.00000000E+00
	 0.00000000E+00	 4.64852000E-13	 0.00000000E+00
	 0.00000000E+00	 0.00000000E+00	 4.64852000E-13

	 4.44929000E-13	 0.00000000E+00	 0.00000000E+00
	 0.00000000E+00	 4.44929000E-13	 0.00000000E+00
	 0.00000000E+00	 0.00000000E+00	 4.44929000E-13

	 4.64852000E-13	 0.00000000E+00	 0.00000000E+00
	 0.00000000E+00	 4.64852000E-13	 0.00000000E+00
	 0.00000000E+00	 0.00000000E+00	 4.64852000E-13

	 4.38289000E-13	 0.00000000E+00	 0.00000000E+00
	 0.00000000E+00	 4.38289000E-13	 0.00000000E+00
	 0.00000000E+00	 0.00000000E+00	 4.38289000E-13

	 4.47143000E-13	 0.00000000E+00	 0.00000000E+00
	 0.00000000E+00	 4.47143000E-13	 0.00000000E+00
	 0.00000000E+00	 0.00000000E+00	 4.47143000E-13

	 4.42716000E-13	 0.00000000E+00	 0.00000000E+00
	 0.00000000E+00	 4.42716000E-13	 0.00000000E+00
	 0.00000000E+00	 0.00000000E+00	 4.42716000E-13

	 4.42716000E-13	 0.00000000E+00	 0.00000000E+00
	 0.00000000E+00	 4.42716000E-13	 0.00000000E+00
	 0.00000000E+00	 0.00000000E+00	 4.42716000E-13

	 4.51570000E-13	 0.00000000E+00	 0.00000000E+00
	 0.00000000E+00	 4.51570000E-13	 0.00000000E+00
	 0.00000000E+00	 0.00000000E+00	 4.51570000E-13

	 4.42716000E-13	 0.00000000E+00	 0.00000000E+00
	 0.00000000E+00	 4.42716000E-13	 0.00000000E+00
	 0.00000000E+00	 0.00000000E+00	 4.42716000E-13

	 4.59160000E-13	 0.00000000E+00	 0.00000000E+00
	 0.00000000E+00	 4.59160000E-13	 0.00000000E+00
	 0.00000000E+00	 0.00000000E+00	 4.59160000E-13

	 4.38289000E-13	 0.00000000E+00	 0.00000000E+00
	 0.00000000E+00	 4.38289000E-13	 0.00000000E+00
	 0.00000000E+00	 0.00000000E+00	 4.38289000E-13

	 4.64852000E-13	 0.00000000E+00	 0.00000000E+00
	 0.00000000E+00	 4.64852000E-13	 0.00000000E+00
	 0.00000000E+00	 0.00000000E+00	 4.64852000E-13

	 4.58211000E-13	 0.00000000E+00	 0.00000000E+00
	 0.00000000E+00	 4.58211000E-13	 0.00000000E+00
	 0.00000000E+00	 0.00000000E+00	 4.58211000E-13

	 4.64852000E-13	 0.00000000E+00	 0.00000000E+00
	 0.00000000E+00	 4.64852000E-13	 0.00000000E+00
	 0.00000000E+00	 0.00000000E+00	 4.64852000E-13

	 4.38289000E-13	 0.00000000E+00	 0.00000000E+00
	 0.00000000E+00	 4.38289000E-13	 0.00000000E+00
	 0.00000000E+00	 0.00000000E+00	 4.38289000E-13

	 4.38289000E-13	 0.00000000E+00	 0.00000000E+00
	 0.00000000E+00	 4.38289000E-13	 0.00000000E+00
	 0.00000000E+00	 0.00000000E+00	 4.38289000E-13

	 4.64852000E-13	 0.00000000E+00	 0.00000000E+00
	 0.00000000E+00	 4.64852000E-13	 0.00000000E+00
	 0.00000000E+00	 0.00000000E+00	 4.64852000E-13

	 4.59160000E-13	 0.00000000E+00	 0.00000000E+00
	 0.00000000E+00	 4.59160000E-13	 0.00000000E+00
	 0.00000000E+00	 0.00000000E+00	 4.59160000E-13

	 4.38289000E-13	 0.00000000E+00	 0.00000000E+00
	 0.00000000E+00	 4.38289000E-13	 0.00000000E+00
	 0.00000000E+00	 0.00000000E+00	 4.38289000E-13

	 4.42716000E-13	 0.00000000E+00	 0.00000000E+00
	 0.00000000E+00	 4.42716000E-13	 0.00000000E+00
	 0.00000000E+00	 0.00000000E+00	 4.42716000E-13

	 4.64852000E-13	 0.00000000E+00	 0.00000000E+00
	 0.00000000E+00	 4.64852000E-13	 0.00000000E+00
	 0.00000000E+00	 0.00000000E+00	 4.64852000E-13

	 4.64852000E-13	 0.00000000E+00	 0.00000000E+00
	 0.00000000E+00	 4.64852000E-13	 0.00000000E+00
	 0.00000000E+00	 0.00000000E+00	 4.64852000E-13

	 4.53784000E-13	 0.00000000E+00	 0.00000000E+00
	 0.00000000E+00	 4.53784000E-13	 0.00000000E+00
	 0.00000000E+00	 0.00000000E+00	 4.53784000E-13

	 4.44929000E-13	 0.00000000E+00	 0.00000000E+00
	 0.00000000E+00	 4.44929000E-13	 0.00000000E+00
	 0.00000000E+00	 0.00000000E+00	 4.44929000E-13

	 4.38289000E-13	 0.00000000E+00	 0.00000000E+00
	 0.00000000E+00	 4.38289000E-13	 0.00000000E+00
	 0.00000000E+00	 0.00000000E+00	 4.38289000E-13

	 4.64852000E-13	 0.00000000E+00	 0.00000000E+00
	 0.00000000E+00	 4.64852000E-13	 0.00000000E+00
	 0.00000000E+00	 0.00000000E+00	 4.64852000E-13

	 4.64852000E-13	 0.00000000E+00	 0.00000000E+00
	 0.00000000E+00	 4.64852000E-13	 0.00000000E+00
	 0.00000000E+00	 0.00000000E+00	 4.64852000E-13

	 4.64852000E-13	 0.00000000E+00	 0.00000000E+00
	 0.00000000E+00	 4.64852000E-13	 0.00000000E+00
	 0.00000000E+00	 0.00000000E+00	 4.64852000E-13

	 4.38289000E-13	 0.00000000E+00	 0.00000000E+00
	 0.00000000E+00	 4.38289000E-13	 0.00000000E+00
	 0.00000000E+00	 0.00000000E+00	 4.38289000E-13

	 4.42716000E-13	 0.00000000E+00	 0.00000000E+00
	 0.00000000E+00	 4.42716000E-13	 0.00000000E+00
	 0.00000000E+00	 0.00000000E+00	 4.42716000E-13

	 4.60425000E-13	 0.00000000E+00	 0.00000000E+00
	 0.00000000E+00	 4.60425000E-13	 0.00000000E+00
	 0.00000000E+00	 0.00000000E+00	 4.60425000E-13

	 4.64852000E-13	 0.00000000E+00	 0.00000000E+00
	 0.00000000E+00	 4.64852000E-13	 0.00000000E+00
	 0.00000000E+00	 0.00000000E+00	 4.64852000E-13

	 4.49357000E-13	 0.00000000E+00	 0.00000000E+00
	 0.00000000E+00	 4.49357000E-13	 0.00000000E+00
	 0.00000000E+00	 0.00000000E+00	 4.49357000E-13

	 4.64852000E-13	 0.00000000E+00	 0.00000000E+00
	 0.00000000E+00	 4.64852000E-13	 0.00000000E+00
	 0.00000000E+00	 0.00000000E+00	 4.64852000E-13

	 4.64852000E-13	 0.00000000E+00	 0.00000000E+00
	 0.00000000E+00	 4.64852000E-13	 0.00000000E+00
	 0.00000000E+00	 0.00000000E+00	 4.64852000E-13

	 4.51570000E-13	 0.00000000E+00	 0.00000000E+00
	 0.00000000E+00	 4.51570000E-13	 0.00000000E+00
	 0.00000000E+00	 0.00000000E+00	 4.51570000E-13

	 4.53784000E-13	 0.00000000E+00	 0.00000000E+00
	 0.00000000E+00	 4.53784000E-13	 0.00000000E+00
	 0.00000000E+00	 0.00000000E+00	 4.53784000E-13

	 4.38289000E-13	 0.00000000E+00	 0.00000000E+00
	 0.00000000E+00	 4.38289000E-13	 0.00000000E+00
	 0.00000000E+00	 0.00000000E+00	 4.38289000E-13

	 4.64852000E-13	 0.00000000E+00	 0.00000000E+00
	 0.00000000E+00	 4.64852000E-13	 0.00000000E+00
	 0.00000000E+00	 0.00000000E+00	 4.64852000E-13

	 4.64852000E-13	 0.00000000E+00	 0.00000000E+00
	 0.00000000E+00	 4.64852000E-13	 0.00000000E+00
	 0.00000000E+00	 0.00000000E+00	 4.64852000E-13

	 4.64852000E-13	 0.00000000E+00	 0.00000000E+00
	 0.00000000E+00	 4.64852000E-13	 0.00000000E+00
	 0.00000000E+00	 0.00000000E+00	 4.64852000E-13

	 4.49357000E-13	 0.00000000E+00	 0.00000000E+00
	 0.00000000E+00	 4.49357000E-13	 0.00000000E+00
	 0.00000000E+00	 0.00000000E+00	 4.49357000E-13

	 4.40502000E-13	 0.00000000E+00	 0.00000000E+00
	 0.00000000E+00	 4.40502000E-13	 0.00000000E+00
	 0.00000000E+00	 0.00000000E+00	 4.40502000E-13

	 4.38289000E-13	 0.00000000E+00	 0.00000000E+00
	 0.00000000E+00	 4.38289000E-13	 0.00000000E+00
	 0.00000000E+00	 0.00000000E+00	 4.38289000E-13

	 4.64852000E-13	 0.00000000E+00	 0.00000000E+00
	 0.00000000E+00	 4.64852000E-13	 0.00000000E+00
	 0.00000000E+00	 0.00000000E+00	 4.64852000E-13

	 4.64852000E-13	 0.00000000E+00	 0.00000000E+00
	 0.00000000E+00	 4.64852000E-13	 0.00000000E+00
	 0.00000000E+00	 0.00000000E+00	 4.64852000E-13

	 4.42716000E-13	 0.00000000E+00	 0.00000000E+00
	 0.00000000E+00	 4.42716000E-13	 0.00000000E+00
	 0.00000000E+00	 0.00000000E+00	 4.42716000E-13

	 4.38289000E-13	 0.00000000E+00	 0.00000000E+00
	 0.00000000E+00	 4.38289000E-13	 0.00000000E+00
	 0.00000000E+00	 0.00000000E+00	 4.38289000E-13

	 4.38289000E-13	 0.00000000E+00	 0.00000000E+00
	 0.00000000E+00	 4.38289000E-13	 0.00000000E+00
	 0.00000000E+00	 0.00000000E+00	 4.38289000E-13

	 4.38289000E-13	 0.00000000E+00	 0.00000000E+00
	 0.00000000E+00	 4.38289000E-13	 0.00000000E+00
	 0.00000000E+00	 0.00000000E+00	 4.38289000E-13

	 4.42083000E-13	 0.00000000E+00	 0.00000000E+00
	 0.00000000E+00	 4.42083000E-13	 0.00000000E+00
	 0.00000000E+00	 0.00000000E+00	 4.42083000E-13

	 4.38289000E-13	 0.00000000E+00	 0.00000000E+00
	 0.00000000E+00	 4.38289000E-13	 0.00000000E+00
	 0.00000000E+00	 0.00000000E+00	 4.38289000E-13

	 4.58211000E-13	 0.00000000E+00	 0.00000000E+00
	 0.00000000E+00	 4.58211000E-13	 0.00000000E+00
	 0.00000000E+00	 0.00000000E+00	 4.58211000E-13

	 4.42716000E-13	 0.00000000E+00	 0.00000000E+00
	 0.00000000E+00	 4.42716000E-13	 0.00000000E+00
	 0.00000000E+00	 0.00000000E+00	 4.42716000E-13

	 4.40502000E-13	 0.00000000E+00	 0.00000000E+00
	 0.00000000E+00	 4.40502000E-13	 0.00000000E+00
	 0.00000000E+00	 0.00000000E+00	 4.40502000E-13

	 4.38289000E-13	 0.00000000E+00	 0.00000000E+00
	 0.00000000E+00	 4.38289000E-13	 0.00000000E+00
	 0.00000000E+00	 0.00000000E+00	 4.38289000E-13

	 4.64852000E-13	 0.00000000E+00	 0.00000000E+00
	 0.00000000E+00	 4.64852000E-13	 0.00000000E+00
	 0.00000000E+00	 0.00000000E+00	 4.64852000E-13

	 4.64852000E-13	 0.00000000E+00	 0.00000000E+00
	 0.00000000E+00	 4.64852000E-13	 0.00000000E+00
	 0.00000000E+00	 0.00000000E+00	 4.64852000E-13

	 4.64852000E-13	 0.00000000E+00	 0.00000000E+00
	 0.00000000E+00	 4.64852000E-13	 0.00000000E+00
	 0.00000000E+00	 0.00000000E+00	 4.64852000E-13

	 4.64852000E-13	 0.00000000E+00	 0.00000000E+00
	 0.00000000E+00	 4.64852000E-13	 0.00000000E+00
	 0.00000000E+00	 0.00000000E+00	 4.64852000E-13

	 4.75920000E-13	 0.00000000E+00	 0.00000000E+00
	 0.00000000E+00	 4.75920000E-13	 0.00000000E+00
	 0.00000000E+00	 0.00000000E+00	 4.75920000E-13

	 4.53784000E-13	 0.00000000E+00	 0.00000000E+00
	 0.00000000E+00	 4.53784000E-13	 0.00000000E+00
	 0.00000000E+00	 0.00000000E+00	 4.53784000E-13

	 4.40502000E-13	 0.00000000E+00	 0.00000000E+00
	 0.00000000E+00	 4.40502000E-13	 0.00000000E+00
	 0.00000000E+00	 0.00000000E+00	 4.40502000E-13

	 4.64852000E-13	 0.00000000E+00	 0.00000000E+00
	 0.00000000E+00	 4.64852000E-13	 0.00000000E+00
	 0.00000000E+00	 0.00000000E+00	 4.64852000E-13

	 4.64852000E-13	 0.00000000E+00	 0.00000000E+00
	 0.00000000E+00	 4.64852000E-13	 0.00000000E+00
	 0.00000000E+00	 0.00000000E+00	 4.64852000E-13

	 4.49673000E-13	 0.00000000E+00	 0.00000000E+00
	 0.00000000E+00	 4.49673000E-13	 0.00000000E+00
	 0.00000000E+00	 0.00000000E+00	 4.49673000E-13

	 4.62954000E-13	 0.00000000E+00	 0.00000000E+00
	 0.00000000E+00	 4.62954000E-13	 0.00000000E+00
	 0.00000000E+00	 0.00000000E+00	 4.62954000E-13

	 4.64852000E-13	 0.00000000E+00	 0.00000000E+00
	 0.00000000E+00	 4.64852000E-13	 0.00000000E+00
	 0.00000000E+00	 0.00000000E+00	 4.64852000E-13

	 4.38289000E-13	 0.00000000E+00	 0.00000000E+00
	 0.00000000E+00	 4.38289000E-13	 0.00000000E+00
	 0.00000000E+00	 0.00000000E+00	 4.38289000E-13

	 4.64852000E-13	 0.00000000E+00	 0.00000000E+00
	 0.00000000E+00	 4.64852000E-13	 0.00000000E+00
	 0.00000000E+00	 0.00000000E+00	 4.64852000E-13

	 4.44929000E-13	 0.00000000E+00	 0.00000000E+00
	 0.00000000E+00	 4.44929000E-13	 0.00000000E+00
	 0.00000000E+00	 0.00000000E+00	 4.44929000E-13

	 4.38289000E-13	 0.00000000E+00	 0.00000000E+00
	 0.00000000E+00	 4.38289000E-13	 0.00000000E+00
	 0.00000000E+00	 0.00000000E+00	 4.38289000E-13

	 4.55365000E-13	 0.00000000E+00	 0.00000000E+00
	 0.00000000E+00	 4.55365000E-13	 0.00000000E+00
	 0.00000000E+00	 0.00000000E+00	 4.55365000E-13

	 4.64852000E-13	 0.00000000E+00	 0.00000000E+00
	 0.00000000E+00	 4.64852000E-13	 0.00000000E+00
	 0.00000000E+00	 0.00000000E+00	 4.64852000E-13

	 4.40502000E-13	 0.00000000E+00	 0.00000000E+00
	 0.00000000E+00	 4.40502000E-13	 0.00000000E+00
	 0.00000000E+00	 0.00000000E+00	 4.40502000E-13

	 4.38289000E-13	 0.00000000E+00	 0.00000000E+00
	 0.00000000E+00	 4.38289000E-13	 0.00000000E+00
	 0.00000000E+00	 0.00000000E+00	 4.38289000E-13

	 4.55997000E-13	 0.00000000E+00	 0.00000000E+00
	 0.00000000E+00	 4.55997000E-13	 0.00000000E+00
	 0.00000000E+00	 0.00000000E+00	 4.55997000E-13

	 4.64852000E-13	 0.00000000E+00	 0.00000000E+00
	 0.00000000E+00	 4.64852000E-13	 0.00000000E+00
	 0.00000000E+00	 0.00000000E+00	 4.64852000E-13

	 4.64852000E-13	 0.00000000E+00	 0.00000000E+00
	 0.00000000E+00	 4.64852000E-13	 0.00000000E+00
	 0.00000000E+00	 0.00000000E+00	 4.64852000E-13

	 4.64852000E-13	 0.00000000E+00	 0.00000000E+00
	 0.00000000E+00	 4.64852000E-13	 0.00000000E+00
	 0.00000000E+00	 0.00000000E+00	 4.64852000E-13

	 4.38289000E-13	 0.00000000E+00	 0.00000000E+00
	 0.00000000E+00	 4.38289000E-13	 0.00000000E+00
	 0.00000000E+00	 0.00000000E+00	 4.38289000E-13

	 4.64852000E-13	 0.00000000E+00	 0.00000000E+00
	 0.00000000E+00	 4.64852000E-13	 0.00000000E+00
	 0.00000000E+00	 0.00000000E+00	 4.64852000E-13

	 4.40502000E-13	 0.00000000E+00	 0.00000000E+00
	 0.00000000E+00	 4.40502000E-13	 0.00000000E+00
	 0.00000000E+00	 0.00000000E+00	 4.40502000E-13

	 4.49357000E-13	 0.00000000E+00	 0.00000000E+00
	 0.00000000E+00	 4.49357000E-13	 0.00000000E+00
	 0.00000000E+00	 0.00000000E+00	 4.49357000E-13

	 4.38289000E-13	 0.00000000E+00	 0.00000000E+00
	 0.00000000E+00	 4.38289000E-13	 0.00000000E+00
	 0.00000000E+00	 0.00000000E+00	 4.38289000E-13

	 4.64852000E-13	 0.00000000E+00	 0.00000000E+00
	 0.00000000E+00	 4.64852000E-13	 0.00000000E+00
	 0.00000000E+00	 0.00000000E+00	 4.64852000E-13

	 4.42716000E-13	 0.00000000E+00	 0.00000000E+00
	 0.00000000E+00	 4.42716000E-13	 0.00000000E+00
	 0.00000000E+00	 0.00000000E+00	 4.42716000E-13

	 4.38289000E-13	 0.00000000E+00	 0.00000000E+00
	 0.00000000E+00	 4.38289000E-13	 0.00000000E+00
	 0.00000000E+00	 0.00000000E+00	 4.38289000E-13

	 4.44929000E-13	 0.00000000E+00	 0.00000000E+00
	 0.00000000E+00	 4.44929000E-13	 0.00000000E+00
	 0.00000000E+00	 0.00000000E+00	 4.44929000E-13

	 4.55997000E-13	 0.00000000E+00	 0.00000000E+00
	 0.00000000E+00	 4.55997000E-13	 0.00000000E+00
	 0.00000000E+00	 0.00000000E+00	 4.55997000E-13

	 4.64852000E-13	 0.00000000E+00	 0.00000000E+00
	 0.00000000E+00	 4.64852000E-13	 0.00000000E+00
	 0.00000000E+00	 0.00000000E+00	 4.64852000E-13

	 4.38289000E-13	 0.00000000E+00	 0.00000000E+00
	 0.00000000E+00	 4.38289000E-13	 0.00000000E+00
	 0.00000000E+00	 0.00000000E+00	 4.38289000E-13

	 4.64852000E-13	 0.00000000E+00	 0.00000000E+00
	 0.00000000E+00	 4.64852000E-13	 0.00000000E+00
	 0.00000000E+00	 0.00000000E+00	 4.64852000E-13

	 4.38289000E-13	 0.00000000E+00	 0.00000000E+00
	 0.00000000E+00	 4.38289000E-13	 0.00000000E+00
	 0.00000000E+00	 0.00000000E+00	 4.38289000E-13

	 4.43981000E-13	 0.00000000E+00	 0.00000000E+00
	 0.00000000E+00	 4.43981000E-13	 0.00000000E+00
	 0.00000000E+00	 0.00000000E+00	 4.43981000E-13

	 4.38289000E-13	 0.00000000E+00	 0.00000000E+00
	 0.00000000E+00	 4.38289000E-13	 0.00000000E+00
	 0.00000000E+00	 0.00000000E+00	 4.38289000E-13

	 4.42716000E-13	 0.00000000E+00	 0.00000000E+00
	 0.00000000E+00	 4.42716000E-13	 0.00000000E+00
	 0.00000000E+00	 0.00000000E+00	 4.42716000E-13

	 4.64852000E-13	 0.00000000E+00	 0.00000000E+00
	 0.00000000E+00	 4.64852000E-13	 0.00000000E+00
	 0.00000000E+00	 0.00000000E+00	 4.64852000E-13

	 4.64852000E-13	 0.00000000E+00	 0.00000000E+00
	 0.00000000E+00	 4.64852000E-13	 0.00000000E+00
	 0.00000000E+00	 0.00000000E+00	 4.64852000E-13

	 4.64852000E-13	 0.00000000E+00	 0.00000000E+00
	 0.00000000E+00	 4.64852000E-13	 0.00000000E+00
	 0.00000000E+00	 0.00000000E+00	 4.64852000E-13

	 4.64852000E-13	 0.00000000E+00	 0.00000000E+00
	 0.00000000E+00	 4.64852000E-13	 0.00000000E+00
	 0.00000000E+00	 0.00000000E+00	 4.64852000E-13

	 4.40502000E-13	 0.00000000E+00	 0.00000000E+00
	 0.00000000E+00	 4.40502000E-13	 0.00000000E+00
	 0.00000000E+00	 0.00000000E+00	 4.40502000E-13

	 4.62638000E-13	 0.00000000E+00	 0.00000000E+00
	 0.00000000E+00	 4.62638000E-13	 0.00000000E+00
	 0.00000000E+00	 0.00000000E+00	 4.62638000E-13

	 4.64852000E-13	 0.00000000E+00	 0.00000000E+00
	 0.00000000E+00	 4.64852000E-13	 0.00000000E+00
	 0.00000000E+00	 0.00000000E+00	 4.64852000E-13

	 4.62638000E-13	 0.00000000E+00	 0.00000000E+00
	 0.00000000E+00	 4.62638000E-13	 0.00000000E+00
	 0.00000000E+00	 0.00000000E+00	 4.62638000E-13

	 4.40502000E-13	 0.00000000E+00	 0.00000000E+00
	 0.00000000E+00	 4.40502000E-13	 0.00000000E+00
	 0.00000000E+00	 0.00000000E+00	 4.40502000E-13

	 4.64852000E-13	 0.00000000E+00	 0.00000000E+00
	 0.00000000E+00	 4.64852000E-13	 0.00000000E+00
	 0.00000000E+00	 0.00000000E+00	 4.64852000E-13

	 4.62638000E-13	 0.00000000E+00	 0.00000000E+00
	 0.00000000E+00	 4.62638000E-13	 0.00000000E+00
	 0.00000000E+00	 0.00000000E+00	 4.62638000E-13

	 4.62638000E-13	 0.00000000E+00	 0.00000000E+00
	 0.00000000E+00	 4.62638000E-13	 0.00000000E+00
	 0.00000000E+00	 0.00000000E+00	 4.62638000E-13

	 4.38289000E-13	 0.00000000E+00	 0.00000000E+00
	 0.00000000E+00	 4.38289000E-13	 0.00000000E+00
	 0.00000000E+00	 0.00000000E+00	 4.38289000E-13

	 4.38289000E-13	 0.00000000E+00	 0.00000000E+00
	 0.00000000E+00	 4.38289000E-13	 0.00000000E+00
	 0.00000000E+00	 0.00000000E+00	 4.38289000E-13

	 4.64852000E-13	 0.00000000E+00	 0.00000000E+00
	 0.00000000E+00	 4.64852000E-13	 0.00000000E+00
	 0.00000000E+00	 0.00000000E+00	 4.64852000E-13

	 4.58211000E-13	 0.00000000E+00	 0.00000000E+00
	 0.00000000E+00	 4.58211000E-13	 0.00000000E+00
	 0.00000000E+00	 0.00000000E+00	 4.58211000E-13

	 4.58211000E-13	 0.00000000E+00	 0.00000000E+00
	 0.00000000E+00	 4.58211000E-13	 0.00000000E+00
	 0.00000000E+00	 0.00000000E+00	 4.58211000E-13

	 4.64852000E-13	 0.00000000E+00	 0.00000000E+00
	 0.00000000E+00	 4.64852000E-13	 0.00000000E+00
	 0.00000000E+00	 0.00000000E+00	 4.64852000E-13

	 4.64852000E-13	 0.00000000E+00	 0.00000000E+00
	 0.00000000E+00	 4.64852000E-13	 0.00000000E+00
	 0.00000000E+00	 0.00000000E+00	 4.64852000E-13

	 4.64852000E-13	 0.00000000E+00	 0.00000000E+00
	 0.00000000E+00	 4.64852000E-13	 0.00000000E+00
	 0.00000000E+00	 0.00000000E+00	 4.64852000E-13

	 4.57262000E-13	 0.00000000E+00	 0.00000000E+00
	 0.00000000E+00	 4.57262000E-13	 0.00000000E+00
	 0.00000000E+00	 0.00000000E+00	 4.57262000E-13

	 4.59160000E-13	 0.00000000E+00	 0.00000000E+00
	 0.00000000E+00	 4.59160000E-13	 0.00000000E+00
	 0.00000000E+00	 0.00000000E+00	 4.59160000E-13

	 4.64852000E-13	 0.00000000E+00	 0.00000000E+00
	 0.00000000E+00	 4.64852000E-13	 0.00000000E+00
	 0.00000000E+00	 0.00000000E+00	 4.64852000E-13

	 4.64852000E-13	 0.00000000E+00	 0.00000000E+00
	 0.00000000E+00	 4.64852000E-13	 0.00000000E+00
	 0.00000000E+00	 0.00000000E+00	 4.64852000E-13

	 4.64852000E-13	 0.00000000E+00	 0.00000000E+00
	 0.00000000E+00	 4.64852000E-13	 0.00000000E+00
	 0.00000000E+00	 0.00000000E+00	 4.64852000E-13

	 4.38289000E-13	 0.00000000E+00	 0.00000000E+00
	 0.00000000E+00	 4.38289000E-13	 0.00000000E+00
	 0.00000000E+00	 0.00000000E+00	 4.38289000E-13

	 4.57262000E-13	 0.00000000E+00	 0.00000000E+00
	 0.00000000E+00	 4.57262000E-13	 0.00000000E+00
	 0.00000000E+00	 0.00000000E+00	 4.57262000E-13

	 4.64852000E-13	 0.00000000E+00	 0.00000000E+00
	 0.00000000E+00	 4.64852000E-13	 0.00000000E+00
	 0.00000000E+00	 0.00000000E+00	 4.64852000E-13

	 4.58211000E-13	 0.00000000E+00	 0.00000000E+00
	 0.00000000E+00	 4.58211000E-13	 0.00000000E+00
	 0.00000000E+00	 0.00000000E+00	 4.58211000E-13

	 4.64852000E-13	 0.00000000E+00	 0.00000000E+00
	 0.00000000E+00	 4.64852000E-13	 0.00000000E+00
	 0.00000000E+00	 0.00000000E+00	 4.64852000E-13

	 4.58211000E-13	 0.00000000E+00	 0.00000000E+00
	 0.00000000E+00	 4.58211000E-13	 0.00000000E+00
	 0.00000000E+00	 0.00000000E+00	 4.58211000E-13

	 4.64852000E-13	 0.00000000E+00	 0.00000000E+00
	 0.00000000E+00	 4.64852000E-13	 0.00000000E+00
	 0.00000000E+00	 0.00000000E+00	 4.64852000E-13

	 4.51570000E-13	 0.00000000E+00	 0.00000000E+00
	 0.00000000E+00	 4.51570000E-13	 0.00000000E+00
	 0.00000000E+00	 0.00000000E+00	 4.51570000E-13

	 4.43601000E-13	 0.00000000E+00	 0.00000000E+00
	 0.00000000E+00	 4.43601000E-13	 0.00000000E+00
	 0.00000000E+00	 0.00000000E+00	 4.43601000E-13

	 4.64852000E-13	 0.00000000E+00	 0.00000000E+00
	 0.00000000E+00	 4.64852000E-13	 0.00000000E+00
	 0.00000000E+00	 0.00000000E+00	 4.64852000E-13

	 4.38289000E-13	 0.00000000E+00	 0.00000000E+00
	 0.00000000E+00	 4.38289000E-13	 0.00000000E+00
	 0.00000000E+00	 0.00000000E+00	 4.38289000E-13

	 4.64852000E-13	 0.00000000E+00	 0.00000000E+00
	 0.00000000E+00	 4.64852000E-13	 0.00000000E+00
	 0.00000000E+00	 0.00000000E+00	 4.64852000E-13

	 4.64852000E-13	 0.00000000E+00	 0.00000000E+00
	 0.00000000E+00	 4.64852000E-13	 0.00000000E+00
	 0.00000000E+00	 0.00000000E+00	 4.64852000E-13

	 4.64852000E-13	 0.00000000E+00	 0.00000000E+00
	 0.00000000E+00	 4.64852000E-13	 0.00000000E+00
	 0.00000000E+00	 0.00000000E+00	 4.64852000E-13

	 4.38289000E-13	 0.00000000E+00	 0.00000000E+00
	 0.00000000E+00	 4.38289000E-13	 0.00000000E+00
	 0.00000000E+00	 0.00000000E+00	 4.38289000E-13

	 4.38289000E-13	 0.00000000E+00	 0.00000000E+00
	 0.00000000E+00	 4.38289000E-13	 0.00000000E+00
	 0.00000000E+00	 0.00000000E+00	 4.38289000E-13

	 4.62638000E-13	 0.00000000E+00	 0.00000000E+00
	 0.00000000E+00	 4.62638000E-13	 0.00000000E+00
	 0.00000000E+00	 0.00000000E+00	 4.62638000E-13

	 4.64852000E-13	 0.00000000E+00	 0.00000000E+00
	 0.00000000E+00	 4.64852000E-13	 0.00000000E+00
	 0.00000000E+00	 0.00000000E+00	 4.64852000E-13

	 4.60425000E-13	 0.00000000E+00	 0.00000000E+00
	 0.00000000E+00	 4.60425000E-13	 0.00000000E+00
	 0.00000000E+00	 0.00000000E+00	 4.60425000E-13

	 4.64852000E-13	 0.00000000E+00	 0.00000000E+00
	 0.00000000E+00	 4.64852000E-13	 0.00000000E+00
	 0.00000000E+00	 0.00000000E+00	 4.64852000E-13

	 4.64852000E-13	 0.00000000E+00	 0.00000000E+00
	 0.00000000E+00	 4.64852000E-13	 0.00000000E+00
	 0.00000000E+00	 0.00000000E+00	 4.64852000E-13

	 4.64852000E-13	 0.00000000E+00	 0.00000000E+00
	 0.00000000E+00	 4.64852000E-13	 0.00000000E+00
	 0.00000000E+00	 0.00000000E+00	 4.64852000E-13

	 4.62638000E-13	 0.00000000E+00	 0.00000000E+00
	 0.00000000E+00	 4.62638000E-13	 0.00000000E+00
	 0.00000000E+00	 0.00000000E+00	 4.62638000E-13

	 4.58211000E-13	 0.00000000E+00	 0.00000000E+00
	 0.00000000E+00	 4.58211000E-13	 0.00000000E+00
	 0.00000000E+00	 0.00000000E+00	 4.58211000E-13

	 4.60425000E-13	 0.00000000E+00	 0.00000000E+00
	 0.00000000E+00	 4.60425000E-13	 0.00000000E+00
	 0.00000000E+00	 0.00000000E+00	 4.60425000E-13

	 4.53784000E-13	 0.00000000E+00	 0.00000000E+00
	 0.00000000E+00	 4.53784000E-13	 0.00000000E+00
	 0.00000000E+00	 0.00000000E+00	 4.53784000E-13

	 4.49357000E-13	 0.00000000E+00	 0.00000000E+00
	 0.00000000E+00	 4.49357000E-13	 0.00000000E+00
	 0.00000000E+00	 0.00000000E+00	 4.49357000E-13

	 4.64852000E-13	 0.00000000E+00	 0.00000000E+00
	 0.00000000E+00	 4.64852000E-13	 0.00000000E+00
	 0.00000000E+00	 0.00000000E+00	 4.64852000E-13

	 4.64852000E-13	 0.00000000E+00	 0.00000000E+00
	 0.00000000E+00	 4.64852000E-13	 0.00000000E+00
	 0.00000000E+00	 0.00000000E+00	 4.64852000E-13

	 4.64852000E-13	 0.00000000E+00	 0.00000000E+00
	 0.00000000E+00	 4.64852000E-13	 0.00000000E+00
	 0.00000000E+00	 0.00000000E+00	 4.64852000E-13

	 4.64852000E-13	 0.00000000E+00	 0.00000000E+00
	 0.00000000E+00	 4.64852000E-13	 0.00000000E+00
	 0.00000000E+00	 0.00000000E+00	 4.64852000E-13

	 4.64852000E-13	 0.00000000E+00	 0.00000000E+00
	 0.00000000E+00	 4.64852000E-13	 0.00000000E+00
	 0.00000000E+00	 0.00000000E+00	 4.64852000E-13

	 4.64852000E-13	 0.00000000E+00	 0.00000000E+00
	 0.00000000E+00	 4.64852000E-13	 0.00000000E+00
	 0.00000000E+00	 0.00000000E+00	 4.64852000E-13

	 4.47143000E-13	 0.00000000E+00	 0.00000000E+00
	 0.00000000E+00	 4.47143000E-13	 0.00000000E+00
	 0.00000000E+00	 0.00000000E+00	 4.47143000E-13

	 4.64852000E-13	 0.00000000E+00	 0.00000000E+00
	 0.00000000E+00	 4.64852000E-13	 0.00000000E+00
	 0.00000000E+00	 0.00000000E+00	 4.64852000E-13

	 4.51570000E-13	 0.00000000E+00	 0.00000000E+00
	 0.00000000E+00	 4.51570000E-13	 0.00000000E+00
	 0.00000000E+00	 0.00000000E+00	 4.51570000E-13

	 4.38289000E-13	 0.00000000E+00	 0.00000000E+00
	 0.00000000E+00	 4.38289000E-13	 0.00000000E+00
	 0.00000000E+00	 0.00000000E+00	 4.38289000E-13

	 4.38289000E-13	 0.00000000E+00	 0.00000000E+00
	 0.00000000E+00	 4.38289000E-13	 0.00000000E+00
	 0.00000000E+00	 0.00000000E+00	 4.38289000E-13

	 4.64852000E-13	 0.00000000E+00	 0.00000000E+00
	 0.00000000E+00	 4.64852000E-13	 0.00000000E+00
	 0.00000000E+00	 0.00000000E+00	 4.64852000E-13

	 4.64852000E-13	 0.00000000E+00	 0.00000000E+00
	 0.00000000E+00	 4.64852000E-13	 0.00000000E+00
	 0.00000000E+00	 0.00000000E+00	 4.64852000E-13

	 4.64852000E-13	 0.00000000E+00	 0.00000000E+00
	 0.00000000E+00	 4.64852000E-13	 0.00000000E+00
	 0.00000000E+00	 0.00000000E+00	 4.64852000E-13

	 4.38289000E-13	 0.00000000E+00	 0.00000000E+00
	 0.00000000E+00	 4.38289000E-13	 0.00000000E+00
	 0.00000000E+00	 0.00000000E+00	 4.38289000E-13

	 4.64852000E-13	 0.00000000E+00	 0.00000000E+00
	 0.00000000E+00	 4.64852000E-13	 0.00000000E+00
	 0.00000000E+00	 0.00000000E+00	 4.64852000E-13

	 4.53784000E-13	 0.00000000E+00	 0.00000000E+00
	 0.00000000E+00	 4.53784000E-13	 0.00000000E+00
	 0.00000000E+00	 0.00000000E+00	 4.53784000E-13

	 4.60425000E-13	 0.00000000E+00	 0.00000000E+00
	 0.00000000E+00	 4.60425000E-13	 0.00000000E+00
	 0.00000000E+00	 0.00000000E+00	 4.60425000E-13

	 4.58211000E-13	 0.00000000E+00	 0.00000000E+00
	 0.00000000E+00	 4.58211000E-13	 0.00000000E+00
	 0.00000000E+00	 0.00000000E+00	 4.58211000E-13

	 4.64852000E-13	 0.00000000E+00	 0.00000000E+00
	 0.00000000E+00	 4.64852000E-13	 0.00000000E+00
	 0.00000000E+00	 0.00000000E+00	 4.64852000E-13

	 4.64852000E-13	 0.00000000E+00	 0.00000000E+00
	 0.00000000E+00	 4.64852000E-13	 0.00000000E+00
	 0.00000000E+00	 0.00000000E+00	 4.64852000E-13

	 4.60425000E-13	 0.00000000E+00	 0.00000000E+00
	 0.00000000E+00	 4.60425000E-13	 0.00000000E+00
	 0.00000000E+00	 0.00000000E+00	 4.60425000E-13

	 4.64852000E-13	 0.00000000E+00	 0.00000000E+00
	 0.00000000E+00	 4.64852000E-13	 0.00000000E+00
	 0.00000000E+00	 0.00000000E+00	 4.64852000E-13

	 4.44929000E-13	 0.00000000E+00	 0.00000000E+00
	 0.00000000E+00	 4.44929000E-13	 0.00000000E+00
	 0.00000000E+00	 0.00000000E+00	 4.44929000E-13

	 4.40502000E-13	 0.00000000E+00	 0.00000000E+00
	 0.00000000E+00	 4.40502000E-13	 0.00000000E+00
	 0.00000000E+00	 0.00000000E+00	 4.40502000E-13

	 4.64852000E-13	 0.00000000E+00	 0.00000000E+00
	 0.00000000E+00	 4.64852000E-13	 0.00000000E+00
	 0.00000000E+00	 0.00000000E+00	 4.64852000E-13

	 4.38289000E-13	 0.00000000E+00	 0.00000000E+00
	 0.00000000E+00	 4.38289000E-13	 0.00000000E+00
	 0.00000000E+00	 0.00000000E+00	 4.38289000E-13

	 4.64852000E-13	 0.00000000E+00	 0.00000000E+00
	 0.00000000E+00	 4.64852000E-13	 0.00000000E+00
	 0.00000000E+00	 0.00000000E+00	 4.64852000E-13

	 4.40186000E-13	 0.00000000E+00	 0.00000000E+00
	 0.00000000E+00	 4.40186000E-13	 0.00000000E+00
	 0.00000000E+00	 0.00000000E+00	 4.40186000E-13

	 4.42716000E-13	 0.00000000E+00	 0.00000000E+00
	 0.00000000E+00	 4.42716000E-13	 0.00000000E+00
	 0.00000000E+00	 0.00000000E+00	 4.42716000E-13

	 4.62195000E-13	 0.00000000E+00	 0.00000000E+00
	 0.00000000E+00	 4.62195000E-13	 0.00000000E+00
	 0.00000000E+00	 0.00000000E+00	 4.62195000E-13

	 4.40945000E-13	 0.00000000E+00	 0.00000000E+00
	 0.00000000E+00	 4.40945000E-13	 0.00000000E+00
	 0.00000000E+00	 0.00000000E+00	 4.40945000E-13

	 4.42716000E-13	 0.00000000E+00	 0.00000000E+00
	 0.00000000E+00	 4.42716000E-13	 0.00000000E+00
	 0.00000000E+00	 0.00000000E+00	 4.42716000E-13

	 4.38289000E-13	 0.00000000E+00	 0.00000000E+00
	 0.00000000E+00	 4.38289000E-13	 0.00000000E+00
	 0.00000000E+00	 0.00000000E+00	 4.38289000E-13

	 4.64852000E-13	 0.00000000E+00	 0.00000000E+00
	 0.00000000E+00	 4.64852000E-13	 0.00000000E+00
	 0.00000000E+00	 0.00000000E+00	 4.64852000E-13

	 4.64852000E-13	 0.00000000E+00	 0.00000000E+00
	 0.00000000E+00	 4.64852000E-13	 0.00000000E+00
	 0.00000000E+00	 0.00000000E+00	 4.64852000E-13

	 4.42716000E-13	 0.00000000E+00	 0.00000000E+00
	 0.00000000E+00	 4.42716000E-13	 0.00000000E+00
	 0.00000000E+00	 0.00000000E+00	 4.42716000E-13

	 4.64852000E-13	 0.00000000E+00	 0.00000000E+00
	 0.00000000E+00	 4.64852000E-13	 0.00000000E+00
	 0.00000000E+00	 0.00000000E+00	 4.64852000E-13

	 4.53784000E-13	 0.00000000E+00	 0.00000000E+00
	 0.00000000E+00	 4.53784000E-13	 0.00000000E+00
	 0.00000000E+00	 0.00000000E+00	 4.53784000E-13

	 4.57262000E-13	 0.00000000E+00	 0.00000000E+00
	 0.00000000E+00	 4.57262000E-13	 0.00000000E+00
	 0.00000000E+00	 0.00000000E+00	 4.57262000E-13

	 4.38289000E-13	 0.00000000E+00	 0.00000000E+00
	 0.00000000E+00	 4.38289000E-13	 0.00000000E+00
	 0.00000000E+00	 0.00000000E+00	 4.38289000E-13

	 4.38289000E-13	 0.00000000E+00	 0.00000000E+00
	 0.00000000E+00	 4.38289000E-13	 0.00000000E+00
	 0.00000000E+00	 0.00000000E+00	 4.38289000E-13

	 4.64852000E-13	 0.00000000E+00	 0.00000000E+00
	 0.00000000E+00	 4.64852000E-13	 0.00000000E+00
	 0.00000000E+00	 0.00000000E+00	 4.64852000E-13

	 4.64852000E-13	 0.00000000E+00	 0.00000000E+00
	 0.00000000E+00	 4.64852000E-13	 0.00000000E+00
	 0.00000000E+00	 0.00000000E+00	 4.64852000E-13

	 4.51570000E-13	 0.00000000E+00	 0.00000000E+00
	 0.00000000E+00	 4.51570000E-13	 0.00000000E+00
	 0.00000000E+00	 0.00000000E+00	 4.51570000E-13

	 4.64852000E-13	 0.00000000E+00	 0.00000000E+00
	 0.00000000E+00	 4.64852000E-13	 0.00000000E+00
	 0.00000000E+00	 0.00000000E+00	 4.64852000E-13

	 4.64852000E-13	 0.00000000E+00	 0.00000000E+00
	 0.00000000E+00	 4.64852000E-13	 0.00000000E+00
	 0.00000000E+00	 0.00000000E+00	 4.64852000E-13

	 4.64852000E-13	 0.00000000E+00	 0.00000000E+00
	 0.00000000E+00	 4.64852000E-13	 0.00000000E+00
	 0.00000000E+00	 0.00000000E+00	 4.64852000E-13

	 4.40502000E-13	 0.00000000E+00	 0.00000000E+00
	 0.00000000E+00	 4.40502000E-13	 0.00000000E+00
	 0.00000000E+00	 0.00000000E+00	 4.40502000E-13

	 4.62638000E-13	 0.00000000E+00	 0.00000000E+00
	 0.00000000E+00	 4.62638000E-13	 0.00000000E+00
	 0.00000000E+00	 0.00000000E+00	 4.62638000E-13

	 4.42716000E-13	 0.00000000E+00	 0.00000000E+00
	 0.00000000E+00	 4.42716000E-13	 0.00000000E+00
	 0.00000000E+00	 0.00000000E+00	 4.42716000E-13

	 4.64852000E-13	 0.00000000E+00	 0.00000000E+00
	 0.00000000E+00	 4.64852000E-13	 0.00000000E+00
	 0.00000000E+00	 0.00000000E+00	 4.64852000E-13

	 4.40502000E-13	 0.00000000E+00	 0.00000000E+00
	 0.00000000E+00	 4.40502000E-13	 0.00000000E+00
	 0.00000000E+00	 0.00000000E+00	 4.40502000E-13

	 4.64852000E-13	 0.00000000E+00	 0.00000000E+00
	 0.00000000E+00	 4.64852000E-13	 0.00000000E+00
	 0.00000000E+00	 0.00000000E+00	 4.64852000E-13

	 4.38289000E-13	 0.00000000E+00	 0.00000000E+00
	 0.00000000E+00	 4.38289000E-13	 0.00000000E+00
	 0.00000000E+00	 0.00000000E+00	 4.38289000E-13

	 4.64852000E-13	 0.00000000E+00	 0.00000000E+00
	 0.00000000E+00	 4.64852000E-13	 0.00000000E+00
	 0.00000000E+00	 0.00000000E+00	 4.64852000E-13

	 4.61057000E-13	 0.00000000E+00	 0.00000000E+00
	 0.00000000E+00	 4.61057000E-13	 0.00000000E+00
	 0.00000000E+00	 0.00000000E+00	 4.61057000E-13

	 4.64852000E-13	 0.00000000E+00	 0.00000000E+00
	 0.00000000E+00	 4.64852000E-13	 0.00000000E+00
	 0.00000000E+00	 0.00000000E+00	 4.64852000E-13

	 4.47143000E-13	 0.00000000E+00	 0.00000000E+00
	 0.00000000E+00	 4.47143000E-13	 0.00000000E+00
	 0.00000000E+00	 0.00000000E+00	 4.47143000E-13

	 4.42716000E-13	 0.00000000E+00	 0.00000000E+00
	 0.00000000E+00	 4.42716000E-13	 0.00000000E+00
	 0.00000000E+00	 0.00000000E+00	 4.42716000E-13

	 4.38289000E-13	 0.00000000E+00	 0.00000000E+00
	 0.00000000E+00	 4.38289000E-13	 0.00000000E+00
	 0.00000000E+00	 0.00000000E+00	 4.38289000E-13

	 4.40502000E-13	 0.00000000E+00	 0.00000000E+00
	 0.00000000E+00	 4.40502000E-13	 0.00000000E+00
	 0.00000000E+00	 0.00000000E+00	 4.40502000E-13

	 4.49357000E-13	 0.00000000E+00	 0.00000000E+00
	 0.00000000E+00	 4.49357000E-13	 0.00000000E+00
	 0.00000000E+00	 0.00000000E+00	 4.49357000E-13

	 4.64852000E-13	 0.00000000E+00	 0.00000000E+00
	 0.00000000E+00	 4.64852000E-13	 0.00000000E+00
	 0.00000000E+00	 0.00000000E+00	 4.64852000E-13

	 4.38289000E-13	 0.00000000E+00	 0.00000000E+00
	 0.00000000E+00	 4.38289000E-13	 0.00000000E+00
	 0.00000000E+00	 0.00000000E+00	 4.38289000E-13

	 4.64852000E-13	 0.00000000E+00	 0.00000000E+00
	 0.00000000E+00	 4.64852000E-13	 0.00000000E+00
	 0.00000000E+00	 0.00000000E+00	 4.64852000E-13

	 4.40502000E-13	 0.00000000E+00	 0.00000000E+00
	 0.00000000E+00	 4.40502000E-13	 0.00000000E+00
	 0.00000000E+00	 0.00000000E+00	 4.40502000E-13

	 4.38289000E-13	 0.00000000E+00	 0.00000000E+00
	 0.00000000E+00	 4.38289000E-13	 0.00000000E+00
	 0.00000000E+00	 0.00000000E+00	 4.38289000E-13

	 4.47143000E-13	 0.00000000E+00	 0.00000000E+00
	 0.00000000E+00	 4.47143000E-13	 0.00000000E+00
	 0.00000000E+00	 0.00000000E+00	 4.47143000E-13

	 4.64852000E-13	 0.00000000E+00	 0.00000000E+00
	 0.00000000E+00	 4.64852000E-13	 0.00000000E+00
	 0.00000000E+00	 0.00000000E+00	 4.64852000E-13

	 4.40502000E-13	 0.00000000E+00	 0.00000000E+00
	 0.00000000E+00	 4.40502000E-13	 0.00000000E+00
	 0.00000000E+00	 0.00000000E+00	 4.40502000E-13

	 4.58211000E-13	 0.00000000E+00	 0.00000000E+00
	 0.00000000E+00	 4.58211000E-13	 0.00000000E+00
	 0.00000000E+00	 0.00000000E+00	 4.58211000E-13

	 4.64852000E-13	 0.00000000E+00	 0.00000000E+00
	 0.00000000E+00	 4.64852000E-13	 0.00000000E+00
	 0.00000000E+00	 0.00000000E+00	 4.64852000E-13

	 4.38289000E-13	 0.00000000E+00	 0.00000000E+00
	 0.00000000E+00	 4.38289000E-13	 0.00000000E+00
	 0.00000000E+00	 0.00000000E+00	 4.38289000E-13

	 4.40502000E-13	 0.00000000E+00	 0.00000000E+00
	 0.00000000E+00	 4.40502000E-13	 0.00000000E+00
	 0.00000000E+00	 0.00000000E+00	 4.40502000E-13

	 4.38289000E-13	 0.00000000E+00	 0.00000000E+00
	 0.00000000E+00	 4.38289000E-13	 0.00000000E+00
	 0.00000000E+00	 0.00000000E+00	 4.38289000E-13

	 4.64852000E-13	 0.00000000E+00	 0.00000000E+00
	 0.00000000E+00	 4.64852000E-13	 0.00000000E+00
	 0.00000000E+00	 0.00000000E+00	 4.64852000E-13

	 4.64852000E-13	 0.00000000E+00	 0.00000000E+00
	 0.00000000E+00	 4.64852000E-13	 0.00000000E+00
	 0.00000000E+00	 0.00000000E+00	 4.64852000E-13

	 4.38289000E-13	 0.00000000E+00	 0.00000000E+00
	 0.00000000E+00	 4.38289000E-13	 0.00000000E+00
	 0.00000000E+00	 0.00000000E+00	 4.38289000E-13

	 4.40186000E-13	 0.00000000E+00	 0.00000000E+00
	 0.00000000E+00	 4.40186000E-13	 0.00000000E+00
	 0.00000000E+00	 0.00000000E+00	 4.40186000E-13

	 4.64852000E-13	 0.00000000E+00	 0.00000000E+00
	 0.00000000E+00	 4.64852000E-13	 0.00000000E+00
	 0.00000000E+00	 0.00000000E+00	 4.64852000E-13

	 4.42716000E-13	 0.00000000E+00	 0.00000000E+00
	 0.00000000E+00	 4.42716000E-13	 0.00000000E+00
	 0.00000000E+00	 0.00000000E+00	 4.42716000E-13

	 4.38289000E-13	 0.00000000E+00	 0.00000000E+00
	 0.00000000E+00	 4.38289000E-13	 0.00000000E+00
	 0.00000000E+00	 0.00000000E+00	 4.38289000E-13

	 4.38289000E-13	 0.00000000E+00	 0.00000000E+00
	 0.00000000E+00	 4.38289000E-13	 0.00000000E+00
	 0.00000000E+00	 0.00000000E+00	 4.38289000E-13

	 4.64852000E-13	 0.00000000E+00	 0.00000000E+00
	 0.00000000E+00	 4.64852000E-13	 0.00000000E+00
	 0.00000000E+00	 0.00000000E+00	 4.64852000E-13

	 4.64852000E-13	 0.00000000E+00	 0.00000000E+00
	 0.00000000E+00	 4.64852000E-13	 0.00000000E+00
	 0.00000000E+00	 0.00000000E+00	 4.64852000E-13

	 4.64852000E-13	 0.00000000E+00	 0.00000000E+00
	 0.00000000E+00	 4.64852000E-13	 0.00000000E+00
	 0.00000000E+00	 0.00000000E+00	 4.64852000E-13

	 4.47143000E-13	 0.00000000E+00	 0.00000000E+00
	 0.00000000E+00	 4.47143000E-13	 0.00000000E+00
	 0.00000000E+00	 0.00000000E+00	 4.47143000E-13

	 4.38289000E-13	 0.00000000E+00	 0.00000000E+00
	 0.00000000E+00	 4.38289000E-13	 0.00000000E+00
	 0.00000000E+00	 0.00000000E+00	 4.38289000E-13

	 4.40502000E-13	 0.00000000E+00	 0.00000000E+00
	 0.00000000E+00	 4.40502000E-13	 0.00000000E+00
	 0.00000000E+00	 0.00000000E+00	 4.40502000E-13

	 4.58211000E-13	 0.00000000E+00	 0.00000000E+00
	 0.00000000E+00	 4.58211000E-13	 0.00000000E+00
	 0.00000000E+00	 0.00000000E+00	 4.58211000E-13

	 4.38289000E-13	 0.00000000E+00	 0.00000000E+00
	 0.00000000E+00	 4.38289000E-13	 0.00000000E+00
	 0.00000000E+00	 0.00000000E+00	 4.38289000E-13

	 4.64852000E-13	 0.00000000E+00	 0.00000000E+00
	 0.00000000E+00	 4.64852000E-13	 0.00000000E+00
	 0.00000000E+00	 0.00000000E+00	 4.64852000E-13

	 4.64852000E-13	 0.00000000E+00	 0.00000000E+00
	 0.00000000E+00	 4.64852000E-13	 0.00000000E+00
	 0.00000000E+00	 0.00000000E+00	 4.64852000E-13

	 4.38289000E-13	 0.00000000E+00	 0.00000000E+00
	 0.00000000E+00	 4.38289000E-13	 0.00000000E+00
	 0.00000000E+00	 0.00000000E+00	 4.38289000E-13

	 4.64852000E-13	 0.00000000E+00	 0.00000000E+00
	 0.00000000E+00	 4.64852000E-13	 0.00000000E+00
	 0.00000000E+00	 0.00000000E+00	 4.64852000E-13

	 4.64852000E-13	 0.00000000E+00	 0.00000000E+00
	 0.00000000E+00	 4.64852000E-13	 0.00000000E+00
	 0.00000000E+00	 0.00000000E+00	 4.64852000E-13

	 4.64852000E-13	 0.00000000E+00	 0.00000000E+00
	 0.00000000E+00	 4.64852000E-13	 0.00000000E+00
	 0.00000000E+00	 0.00000000E+00	 4.64852000E-13

	 4.64852000E-13	 0.00000000E+00	 0.00000000E+00
	 0.00000000E+00	 4.64852000E-13	 0.00000000E+00
	 0.00000000E+00	 0.00000000E+00	 4.64852000E-13

	 4.38289000E-13	 0.00000000E+00	 0.00000000E+00
	 0.00000000E+00	 4.38289000E-13	 0.00000000E+00
	 0.00000000E+00	 0.00000000E+00	 4.38289000E-13

	 4.49357000E-13	 0.00000000E+00	 0.00000000E+00
	 0.00000000E+00	 4.49357000E-13	 0.00000000E+00
	 0.00000000E+00	 0.00000000E+00	 4.49357000E-13

	 4.38289000E-13	 0.00000000E+00	 0.00000000E+00
	 0.00000000E+00	 4.38289000E-13	 0.00000000E+00
	 0.00000000E+00	 0.00000000E+00	 4.38289000E-13

	 4.62638000E-13	 0.00000000E+00	 0.00000000E+00
	 0.00000000E+00	 4.62638000E-13	 0.00000000E+00
	 0.00000000E+00	 0.00000000E+00	 4.62638000E-13

	 4.64852000E-13	 0.00000000E+00	 0.00000000E+00
	 0.00000000E+00	 4.64852000E-13	 0.00000000E+00
	 0.00000000E+00	 0.00000000E+00	 4.64852000E-13

	 4.47143000E-13	 0.00000000E+00	 0.00000000E+00
	 0.00000000E+00	 4.47143000E-13	 0.00000000E+00
	 0.00000000E+00	 0.00000000E+00	 4.47143000E-13

	 4.44929000E-13	 0.00000000E+00	 0.00000000E+00
	 0.00000000E+00	 4.44929000E-13	 0.00000000E+00
	 0.00000000E+00	 0.00000000E+00	 4.44929000E-13

	 4.64852000E-13	 0.00000000E+00	 0.00000000E+00
	 0.00000000E+00	 4.64852000E-13	 0.00000000E+00
	 0.00000000E+00	 0.00000000E+00	 4.64852000E-13

	 4.64852000E-13	 0.00000000E+00	 0.00000000E+00
	 0.00000000E+00	 4.64852000E-13	 0.00000000E+00
	 0.00000000E+00	 0.00000000E+00	 4.64852000E-13

	 4.42716000E-13	 0.00000000E+00	 0.00000000E+00
	 0.00000000E+00	 4.42716000E-13	 0.00000000E+00
	 0.00000000E+00	 0.00000000E+00	 4.42716000E-13

	 4.49357000E-13	 0.00000000E+00	 0.00000000E+00
	 0.00000000E+00	 4.49357000E-13	 0.00000000E+00
	 0.00000000E+00	 0.00000000E+00	 4.49357000E-13

	 4.64852000E-13	 0.00000000E+00	 0.00000000E+00
	 0.00000000E+00	 4.64852000E-13	 0.00000000E+00
	 0.00000000E+00	 0.00000000E+00	 4.64852000E-13

	 4.60425000E-13	 0.00000000E+00	 0.00000000E+00
	 0.00000000E+00	 4.60425000E-13	 0.00000000E+00
	 0.00000000E+00	 0.00000000E+00	 4.60425000E-13

	 4.64852000E-13	 0.00000000E+00	 0.00000000E+00
	 0.00000000E+00	 4.64852000E-13	 0.00000000E+00
	 0.00000000E+00	 0.00000000E+00	 4.64852000E-13

	 4.38289000E-13	 0.00000000E+00	 0.00000000E+00
	 0.00000000E+00	 4.38289000E-13	 0.00000000E+00
	 0.00000000E+00	 0.00000000E+00	 4.38289000E-13

	 4.38289000E-13	 0.00000000E+00	 0.00000000E+00
	 0.00000000E+00	 4.38289000E-13	 0.00000000E+00
	 0.00000000E+00	 0.00000000E+00	 4.38289000E-13

	 4.64852000E-13	 0.00000000E+00	 0.00000000E+00
	 0.00000000E+00	 4.64852000E-13	 0.00000000E+00
	 0.00000000E+00	 0.00000000E+00	 4.64852000E-13

	 4.51570000E-13	 0.00000000E+00	 0.00000000E+00
	 0.00000000E+00	 4.51570000E-13	 0.00000000E+00
	 0.00000000E+00	 0.00000000E+00	 4.51570000E-13

	 4.64852000E-13	 0.00000000E+00	 0.00000000E+00
	 0.00000000E+00	 4.64852000E-13	 0.00000000E+00
	 0.00000000E+00	 0.00000000E+00	 4.64852000E-13

	 4.40502000E-13	 0.00000000E+00	 0.00000000E+00
	 0.00000000E+00	 4.40502000E-13	 0.00000000E+00
	 0.00000000E+00	 0.00000000E+00	 4.40502000E-13

	 4.38289000E-13	 0.00000000E+00	 0.00000000E+00
	 0.00000000E+00	 4.38289000E-13	 0.00000000E+00
	 0.00000000E+00	 0.00000000E+00	 4.38289000E-13

	 4.40502000E-13	 0.00000000E+00	 0.00000000E+00
	 0.00000000E+00	 4.40502000E-13	 0.00000000E+00
	 0.00000000E+00	 0.00000000E+00	 4.40502000E-13

	 4.64852000E-13	 0.00000000E+00	 0.00000000E+00
	 0.00000000E+00	 4.64852000E-13	 0.00000000E+00
	 0.00000000E+00	 0.00000000E+00	 4.64852000E-13

	 4.38289000E-13	 0.00000000E+00	 0.00000000E+00
	 0.00000000E+00	 4.38289000E-13	 0.00000000E+00
	 0.00000000E+00	 0.00000000E+00	 4.38289000E-13

	 4.64852000E-13	 0.00000000E+00	 0.00000000E+00
	 0.00000000E+00	 4.64852000E-13	 0.00000000E+00
	 0.00000000E+00	 0.00000000E+00	 4.64852000E-13

	 4.64852000E-13	 0.00000000E+00	 0.00000000E+00
	 0.00000000E+00	 4.64852000E-13	 0.00000000E+00
	 0.00000000E+00	 0.00000000E+00	 4.64852000E-13

	 4.64852000E-13	 0.00000000E+00	 0.00000000E+00
	 0.00000000E+00	 4.64852000E-13	 0.00000000E+00
	 0.00000000E+00	 0.00000000E+00	 4.64852000E-13

	 4.38289000E-13	 0.00000000E+00	 0.00000000E+00
	 0.00000000E+00	 4.38289000E-13	 0.00000000E+00
	 0.00000000E+00	 0.00000000E+00	 4.38289000E-13

	 4.55997000E-13	 0.00000000E+00	 0.00000000E+00
	 0.00000000E+00	 4.55997000E-13	 0.00000000E+00
	 0.00000000E+00	 0.00000000E+00	 4.55997000E-13

	 4.47143000E-13	 0.00000000E+00	 0.00000000E+00
	 0.00000000E+00	 4.47143000E-13	 0.00000000E+00
	 0.00000000E+00	 0.00000000E+00	 4.47143000E-13

	 4.64852000E-13	 0.00000000E+00	 0.00000000E+00
	 0.00000000E+00	 4.64852000E-13	 0.00000000E+00
	 0.00000000E+00	 0.00000000E+00	 4.64852000E-13

	 4.64852000E-13	 0.00000000E+00	 0.00000000E+00
	 0.00000000E+00	 4.64852000E-13	 0.00000000E+00
	 0.00000000E+00	 0.00000000E+00	 4.64852000E-13

	 4.47143000E-13	 0.00000000E+00	 0.00000000E+00
	 0.00000000E+00	 4.47143000E-13	 0.00000000E+00
	 0.00000000E+00	 0.00000000E+00	 4.47143000E-13

	 4.64852000E-13	 0.00000000E+00	 0.00000000E+00
	 0.00000000E+00	 4.64852000E-13	 0.00000000E+00
	 0.00000000E+00	 0.00000000E+00	 4.64852000E-13

	 4.38289000E-13	 0.00000000E+00	 0.00000000E+00
	 0.00000000E+00	 4.38289000E-13	 0.00000000E+00
	 0.00000000E+00	 0.00000000E+00	 4.38289000E-13

	 4.64852000E-13	 0.00000000E+00	 0.00000000E+00
	 0.00000000E+00	 4.64852000E-13	 0.00000000E+00
	 0.00000000E+00	 0.00000000E+00	 4.64852000E-13

	 4.38289000E-13	 0.00000000E+00	 0.00000000E+00
	 0.00000000E+00	 4.38289000E-13	 0.00000000E+00
	 0.00000000E+00	 0.00000000E+00	 4.38289000E-13

	 4.64852000E-13	 0.00000000E+00	 0.00000000E+00
	 0.00000000E+00	 4.64852000E-13	 0.00000000E+00
	 0.00000000E+00	 0.00000000E+00	 4.64852000E-13

	 4.38289000E-13	 0.00000000E+00	 0.00000000E+00
	 0.00000000E+00	 4.38289000E-13	 0.00000000E+00
	 0.00000000E+00	 0.00000000E+00	 4.38289000E-13

	 4.62195000E-13	 0.00000000E+00	 0.00000000E+00
	 0.00000000E+00	 4.62195000E-13	 0.00000000E+00
	 0.00000000E+00	 0.00000000E+00	 4.62195000E-13

	 4.64852000E-13	 0.00000000E+00	 0.00000000E+00
	 0.00000000E+00	 4.64852000E-13	 0.00000000E+00
	 0.00000000E+00	 0.00000000E+00	 4.64852000E-13

	 4.58211000E-13	 0.00000000E+00	 0.00000000E+00
	 0.00000000E+00	 4.58211000E-13	 0.00000000E+00
	 0.00000000E+00	 0.00000000E+00	 4.58211000E-13

	 4.64852000E-13	 0.00000000E+00	 0.00000000E+00
	 0.00000000E+00	 4.64852000E-13	 0.00000000E+00
	 0.00000000E+00	 0.00000000E+00	 4.64852000E-13

	 4.57262000E-13	 0.00000000E+00	 0.00000000E+00
	 0.00000000E+00	 4.57262000E-13	 0.00000000E+00
	 0.00000000E+00	 0.00000000E+00	 4.57262000E-13

	 4.38289000E-13	 0.00000000E+00	 0.00000000E+00
	 0.00000000E+00	 4.38289000E-13	 0.00000000E+00
	 0.00000000E+00	 0.00000000E+00	 4.38289000E-13

	 4.38289000E-13	 0.00000000E+00	 0.00000000E+00
	 0.00000000E+00	 4.38289000E-13	 0.00000000E+00
	 0.00000000E+00	 0.00000000E+00	 4.38289000E-13

	 4.64852000E-13	 0.00000000E+00	 0.00000000E+00
	 0.00000000E+00	 4.64852000E-13	 0.00000000E+00
	 0.00000000E+00	 0.00000000E+00	 4.64852000E-13

	 4.64852000E-13	 0.00000000E+00	 0.00000000E+00
	 0.00000000E+00	 4.64852000E-13	 0.00000000E+00
	 0.00000000E+00	 0.00000000E+00	 4.64852000E-13

	 4.64852000E-13	 0.00000000E+00	 0.00000000E+00
	 0.00000000E+00	 4.64852000E-13	 0.00000000E+00
	 0.00000000E+00	 0.00000000E+00	 4.64852000E-13

	 4.64852000E-13	 0.00000000E+00	 0.00000000E+00
	 0.00000000E+00	 4.64852000E-13	 0.00000000E+00
	 0.00000000E+00	 0.00000000E+00	 4.64852000E-13

	 4.64852000E-13	 0.00000000E+00	 0.00000000E+00
	 0.00000000E+00	 4.64852000E-13	 0.00000000E+00
	 0.00000000E+00	 0.00000000E+00	 4.64852000E-13

	 4.64852000E-13	 0.00000000E+00	 0.00000000E+00
	 0.00000000E+00	 4.64852000E-13	 0.00000000E+00
	 0.00000000E+00	 0.00000000E+00	 4.64852000E-13

	 4.40502000E-13	 0.00000000E+00	 0.00000000E+00
	 0.00000000E+00	 4.40502000E-13	 0.00000000E+00
	 0.00000000E+00	 0.00000000E+00	 4.40502000E-13

	 4.38289000E-13	 0.00000000E+00	 0.00000000E+00
	 0.00000000E+00	 4.38289000E-13	 0.00000000E+00
	 0.00000000E+00	 0.00000000E+00	 4.38289000E-13

	 4.64852000E-13	 0.00000000E+00	 0.00000000E+00
	 0.00000000E+00	 4.64852000E-13	 0.00000000E+00
	 0.00000000E+00	 0.00000000E+00	 4.64852000E-13

	 4.38289000E-13	 0.00000000E+00	 0.00000000E+00
	 0.00000000E+00	 4.38289000E-13	 0.00000000E+00
	 0.00000000E+00	 0.00000000E+00	 4.38289000E-13

	 4.64852000E-13	 0.00000000E+00	 0.00000000E+00
	 0.00000000E+00	 4.64852000E-13	 0.00000000E+00
	 0.00000000E+00	 0.00000000E+00	 4.64852000E-13

	 4.64852000E-13	 0.00000000E+00	 0.00000000E+00
	 0.00000000E+00	 4.64852000E-13	 0.00000000E+00
	 0.00000000E+00	 0.00000000E+00	 4.64852000E-13

	 4.64852000E-13	 0.00000000E+00	 0.00000000E+00
	 0.00000000E+00	 4.64852000E-13	 0.00000000E+00
	 0.00000000E+00	 0.00000000E+00	 4.64852000E-13

	 4.56883000E-13	 0.00000000E+00	 0.00000000E+00
	 0.00000000E+00	 4.56883000E-13	 0.00000000E+00
	 0.00000000E+00	 0.00000000E+00	 4.56883000E-13

	 4.58211000E-13	 0.00000000E+00	 0.00000000E+00
	 0.00000000E+00	 4.58211000E-13	 0.00000000E+00
	 0.00000000E+00	 0.00000000E+00	 4.58211000E-13

	 4.40502000E-13	 0.00000000E+00	 0.00000000E+00
	 0.00000000E+00	 4.40502000E-13	 0.00000000E+00
	 0.00000000E+00	 0.00000000E+00	 4.40502000E-13

	 4.64852000E-13	 0.00000000E+00	 0.00000000E+00
	 0.00000000E+00	 4.64852000E-13	 0.00000000E+00
	 0.00000000E+00	 0.00000000E+00	 4.64852000E-13

	 4.38289000E-13	 0.00000000E+00	 0.00000000E+00
	 0.00000000E+00	 4.38289000E-13	 0.00000000E+00
	 0.00000000E+00	 0.00000000E+00	 4.38289000E-13

	 4.38289000E-13	 0.00000000E+00	 0.00000000E+00
	 0.00000000E+00	 4.38289000E-13	 0.00000000E+00
	 0.00000000E+00	 0.00000000E+00	 4.38289000E-13

	 4.64852000E-13	 0.00000000E+00	 0.00000000E+00
	 0.00000000E+00	 4.64852000E-13	 0.00000000E+00
	 0.00000000E+00	 0.00000000E+00	 4.64852000E-13

	 4.42716000E-13	 0.00000000E+00	 0.00000000E+00
	 0.00000000E+00	 4.42716000E-13	 0.00000000E+00
	 0.00000000E+00	 0.00000000E+00	 4.42716000E-13

	 4.64852000E-13	 0.00000000E+00	 0.00000000E+00
	 0.00000000E+00	 4.64852000E-13	 0.00000000E+00
	 0.00000000E+00	 0.00000000E+00	 4.64852000E-13

	 4.64852000E-13	 0.00000000E+00	 0.00000000E+00
	 0.00000000E+00	 4.64852000E-13	 0.00000000E+00
	 0.00000000E+00	 0.00000000E+00	 4.64852000E-13

	 4.64852000E-13	 0.00000000E+00	 0.00000000E+00
	 0.00000000E+00	 4.64852000E-13	 0.00000000E+00
	 0.00000000E+00	 0.00000000E+00	 4.64852000E-13

	 4.38289000E-13	 0.00000000E+00	 0.00000000E+00
	 0.00000000E+00	 4.38289000E-13	 0.00000000E+00
	 0.00000000E+00	 0.00000000E+00	 4.38289000E-13

	 4.38289000E-13	 0.00000000E+00	 0.00000000E+00
	 0.00000000E+00	 4.38289000E-13	 0.00000000E+00
	 0.00000000E+00	 0.00000000E+00	 4.38289000E-13

	 4.38289000E-13	 0.00000000E+00	 0.00000000E+00
	 0.00000000E+00	 4.38289000E-13	 0.00000000E+00
	 0.00000000E+00	 0.00000000E+00	 4.38289000E-13

	 4.64852000E-13	 0.00000000E+00	 0.00000000E+00
	 0.00000000E+00	 4.64852000E-13	 0.00000000E+00
	 0.00000000E+00	 0.00000000E+00	 4.64852000E-13

	 4.64852000E-13	 0.00000000E+00	 0.00000000E+00
	 0.00000000E+00	 4.64852000E-13	 0.00000000E+00
	 0.00000000E+00	 0.00000000E+00	 4.64852000E-13

	 4.55997000E-13	 0.00000000E+00	 0.00000000E+00
	 0.00000000E+00	 4.55997000E-13	 0.00000000E+00
	 0.00000000E+00	 0.00000000E+00	 4.55997000E-13

	 4.64852000E-13	 0.00000000E+00	 0.00000000E+00
	 0.00000000E+00	 4.64852000E-13	 0.00000000E+00
	 0.00000000E+00	 0.00000000E+00	 4.64852000E-13

	 4.64852000E-13	 0.00000000E+00	 0.00000000E+00
	 0.00000000E+00	 4.64852000E-13	 0.00000000E+00
	 0.00000000E+00	 0.00000000E+00	 4.64852000E-13

	 4.38289000E-13	 0.00000000E+00	 0.00000000E+00
	 0.00000000E+00	 4.38289000E-13	 0.00000000E+00
	 0.00000000E+00	 0.00000000E+00	 4.38289000E-13

	 4.38289000E-13	 0.00000000E+00	 0.00000000E+00
	 0.00000000E+00	 4.38289000E-13	 0.00000000E+00
	 0.00000000E+00	 0.00000000E+00	 4.38289000E-13

	 4.58211000E-13	 0.00000000E+00	 0.00000000E+00
	 0.00000000E+00	 4.58211000E-13	 0.00000000E+00
	 0.00000000E+00	 0.00000000E+00	 4.58211000E-13

	 4.38289000E-13	 0.00000000E+00	 0.00000000E+00
	 0.00000000E+00	 4.38289000E-13	 0.00000000E+00
	 0.00000000E+00	 0.00000000E+00	 4.38289000E-13

	 4.64852000E-13	 0.00000000E+00	 0.00000000E+00
	 0.00000000E+00	 4.64852000E-13	 0.00000000E+00
	 0.00000000E+00	 0.00000000E+00	 4.64852000E-13

	 4.38289000E-13	 0.00000000E+00	 0.00000000E+00
	 0.00000000E+00	 4.38289000E-13	 0.00000000E+00
	 0.00000000E+00	 0.00000000E+00	 4.38289000E-13

	 4.64852000E-13	 0.00000000E+00	 0.00000000E+00
	 0.00000000E+00	 4.64852000E-13	 0.00000000E+00
	 0.00000000E+00	 0.00000000E+00	 4.64852000E-13

	 4.38289000E-13	 0.00000000E+00	 0.00000000E+00
	 0.00000000E+00	 4.38289000E-13	 0.00000000E+00
	 0.00000000E+00	 0.00000000E+00	 4.38289000E-13

	 4.38289000E-13	 0.00000000E+00	 0.00000000E+00
	 0.00000000E+00	 4.38289000E-13	 0.00000000E+00
	 0.00000000E+00	 0.00000000E+00	 4.38289000E-13

	 4.38289000E-13	 0.00000000E+00	 0.00000000E+00
	 0.00000000E+00	 4.38289000E-13	 0.00000000E+00
	 0.00000000E+00	 0.00000000E+00	 4.38289000E-13

	 4.64852000E-13	 0.00000000E+00	 0.00000000E+00
	 0.00000000E+00	 4.64852000E-13	 0.00000000E+00
	 0.00000000E+00	 0.00000000E+00	 4.64852000E-13

	 4.60425000E-13	 0.00000000E+00	 0.00000000E+00
	 0.00000000E+00	 4.60425000E-13	 0.00000000E+00
	 0.00000000E+00	 0.00000000E+00	 4.60425000E-13

	 4.44929000E-13	 0.00000000E+00	 0.00000000E+00
	 0.00000000E+00	 4.44929000E-13	 0.00000000E+00
	 0.00000000E+00	 0.00000000E+00	 4.44929000E-13

	 4.58211000E-13	 0.00000000E+00	 0.00000000E+00
	 0.00000000E+00	 4.58211000E-13	 0.00000000E+00
	 0.00000000E+00	 0.00000000E+00	 4.58211000E-13

	 4.38289000E-13	 0.00000000E+00	 0.00000000E+00
	 0.00000000E+00	 4.38289000E-13	 0.00000000E+00
	 0.00000000E+00	 0.00000000E+00	 4.38289000E-13

	 4.64852000E-13	 0.00000000E+00	 0.00000000E+00
	 0.00000000E+00	 4.64852000E-13	 0.00000000E+00
	 0.00000000E+00	 0.00000000E+00	 4.64852000E-13

	 4.38289000E-13	 0.00000000E+00	 0.00000000E+00
	 0.00000000E+00	 4.38289000E-13	 0.00000000E+00
	 0.00000000E+00	 0.00000000E+00	 4.38289000E-13

	 4.64852000E-13	 0.00000000E+00	 0.00000000E+00
	 0.00000000E+00	 4.64852000E-13	 0.00000000E+00
	 0.00000000E+00	 0.00000000E+00	 4.64852000E-13

	 4.62638000E-13	 0.00000000E+00	 0.00000000E+00
	 0.00000000E+00	 4.62638000E-13	 0.00000000E+00
	 0.00000000E+00	 0.00000000E+00	 4.62638000E-13

	 4.64852000E-13	 0.00000000E+00	 0.00000000E+00
	 0.00000000E+00	 4.64852000E-13	 0.00000000E+00
	 0.00000000E+00	 0.00000000E+00	 4.64852000E-13

	 4.44929000E-13	 0.00000000E+00	 0.00000000E+00
	 0.00000000E+00	 4.44929000E-13	 0.00000000E+00
	 0.00000000E+00	 0.00000000E+00	 4.44929000E-13

	 4.43601000E-13	 0.00000000E+00	 0.00000000E+00
	 0.00000000E+00	 4.43601000E-13	 0.00000000E+00
	 0.00000000E+00	 0.00000000E+00	 4.43601000E-13

	 4.64852000E-13	 0.00000000E+00	 0.00000000E+00
	 0.00000000E+00	 4.64852000E-13	 0.00000000E+00
	 0.00000000E+00	 0.00000000E+00	 4.64852000E-13

	 4.42716000E-13	 0.00000000E+00	 0.00000000E+00
	 0.00000000E+00	 4.42716000E-13	 0.00000000E+00
	 0.00000000E+00	 0.00000000E+00	 4.42716000E-13

	 4.64852000E-13	 0.00000000E+00	 0.00000000E+00
	 0.00000000E+00	 4.64852000E-13	 0.00000000E+00
	 0.00000000E+00	 0.00000000E+00	 4.64852000E-13

	 4.64852000E-13	 0.00000000E+00	 0.00000000E+00
	 0.00000000E+00	 4.64852000E-13	 0.00000000E+00
	 0.00000000E+00	 0.00000000E+00	 4.64852000E-13

	 4.64852000E-13	 0.00000000E+00	 0.00000000E+00
	 0.00000000E+00	 4.64852000E-13	 0.00000000E+00
	 0.00000000E+00	 0.00000000E+00	 4.64852000E-13

	 4.38289000E-13	 0.00000000E+00	 0.00000000E+00
	 0.00000000E+00	 4.38289000E-13	 0.00000000E+00
	 0.00000000E+00	 0.00000000E+00	 4.38289000E-13

	 4.51570000E-13	 0.00000000E+00	 0.00000000E+00
	 0.00000000E+00	 4.51570000E-13	 0.00000000E+00
	 0.00000000E+00	 0.00000000E+00	 4.51570000E-13

	 4.38289000E-13	 0.00000000E+00	 0.00000000E+00
	 0.00000000E+00	 4.38289000E-13	 0.00000000E+00
	 0.00000000E+00	 0.00000000E+00	 4.38289000E-13

	 4.47143000E-13	 0.00000000E+00	 0.00000000E+00
	 0.00000000E+00	 4.47143000E-13	 0.00000000E+00
	 0.00000000E+00	 0.00000000E+00	 4.47143000E-13

	 4.58211000E-13	 0.00000000E+00	 0.00000000E+00
	 0.00000000E+00	 4.58211000E-13	 0.00000000E+00
	 0.00000000E+00	 0.00000000E+00	 4.58211000E-13

	 4.43601000E-13	 0.00000000E+00	 0.00000000E+00
	 0.00000000E+00	 4.43601000E-13	 0.00000000E+00
	 0.00000000E+00	 0.00000000E+00	 4.43601000E-13

	 4.64852000E-13	 0.00000000E+00	 0.00000000E+00
	 0.00000000E+00	 4.64852000E-13	 0.00000000E+00
	 0.00000000E+00	 0.00000000E+00	 4.64852000E-13

	 4.40502000E-13	 0.00000000E+00	 0.00000000E+00
	 0.00000000E+00	 4.40502000E-13	 0.00000000E+00
	 0.00000000E+00	 0.00000000E+00	 4.40502000E-13

	 4.64852000E-13	 0.00000000E+00	 0.00000000E+00
	 0.00000000E+00	 4.64852000E-13	 0.00000000E+00
	 0.00000000E+00	 0.00000000E+00	 4.64852000E-13

	 4.64852000E-13	 0.00000000E+00	 0.00000000E+00
	 0.00000000E+00	 4.64852000E-13	 0.00000000E+00
	 0.00000000E+00	 0.00000000E+00	 4.64852000E-13

	 4.40502000E-13	 0.00000000E+00	 0.00000000E+00
	 0.00000000E+00	 4.40502000E-13	 0.00000000E+00
	 0.00000000E+00	 0.00000000E+00	 4.40502000E-13

	 4.38289000E-13	 0.00000000E+00	 0.00000000E+00
	 0.00000000E+00	 4.38289000E-13	 0.00000000E+00
	 0.00000000E+00	 0.00000000E+00	 4.38289000E-13

	 4.64852000E-13	 0.00000000E+00	 0.00000000E+00
	 0.00000000E+00	 4.64852000E-13	 0.00000000E+00
	 0.00000000E+00	 0.00000000E+00	 4.64852000E-13

	 4.42083000E-13	 0.00000000E+00	 0.00000000E+00
	 0.00000000E+00	 4.42083000E-13	 0.00000000E+00
	 0.00000000E+00	 0.00000000E+00	 4.42083000E-13

	 4.64852000E-13	 0.00000000E+00	 0.00000000E+00
	 0.00000000E+00	 4.64852000E-13	 0.00000000E+00
	 0.00000000E+00	 0.00000000E+00	 4.64852000E-13

	 4.46258000E-13	 0.00000000E+00	 0.00000000E+00
	 0.00000000E+00	 4.46258000E-13	 0.00000000E+00
	 0.00000000E+00	 0.00000000E+00	 4.46258000E-13

	 4.64852000E-13	 0.00000000E+00	 0.00000000E+00
	 0.00000000E+00	 4.64852000E-13	 0.00000000E+00
	 0.00000000E+00	 0.00000000E+00	 4.64852000E-13

	 4.64852000E-13	 0.00000000E+00	 0.00000000E+00
	 0.00000000E+00	 4.64852000E-13	 0.00000000E+00
	 0.00000000E+00	 0.00000000E+00	 4.64852000E-13

	 4.38289000E-13	 0.00000000E+00	 0.00000000E+00
	 0.00000000E+00	 4.38289000E-13	 0.00000000E+00
	 0.00000000E+00	 0.00000000E+00	 4.38289000E-13

	 4.64852000E-13	 0.00000000E+00	 0.00000000E+00
	 0.00000000E+00	 4.64852000E-13	 0.00000000E+00
	 0.00000000E+00	 0.00000000E+00	 4.64852000E-13

	 4.49357000E-13	 0.00000000E+00	 0.00000000E+00
	 0.00000000E+00	 4.49357000E-13	 0.00000000E+00
	 0.00000000E+00	 0.00000000E+00	 4.49357000E-13

	 4.38289000E-13	 0.00000000E+00	 0.00000000E+00
	 0.00000000E+00	 4.38289000E-13	 0.00000000E+00
	 0.00000000E+00	 0.00000000E+00	 4.38289000E-13

	 4.60425000E-13	 0.00000000E+00	 0.00000000E+00
	 0.00000000E+00	 4.60425000E-13	 0.00000000E+00
	 0.00000000E+00	 0.00000000E+00	 4.60425000E-13

	 4.38289000E-13	 0.00000000E+00	 0.00000000E+00
	 0.00000000E+00	 4.38289000E-13	 0.00000000E+00
	 0.00000000E+00	 0.00000000E+00	 4.38289000E-13

	 4.55997000E-13	 0.00000000E+00	 0.00000000E+00
	 0.00000000E+00	 4.55997000E-13	 0.00000000E+00
	 0.00000000E+00	 0.00000000E+00	 4.55997000E-13

	 4.64852000E-13	 0.00000000E+00	 0.00000000E+00
	 0.00000000E+00	 4.64852000E-13	 0.00000000E+00
	 0.00000000E+00	 0.00000000E+00	 4.64852000E-13

	 4.40502000E-13	 0.00000000E+00	 0.00000000E+00
	 0.00000000E+00	 4.40502000E-13	 0.00000000E+00
	 0.00000000E+00	 0.00000000E+00	 4.40502000E-13

	 4.62638000E-13	 0.00000000E+00	 0.00000000E+00
	 0.00000000E+00	 4.62638000E-13	 0.00000000E+00
	 0.00000000E+00	 0.00000000E+00	 4.62638000E-13

	 4.64852000E-13	 0.00000000E+00	 0.00000000E+00
	 0.00000000E+00	 4.64852000E-13	 0.00000000E+00
	 0.00000000E+00	 0.00000000E+00	 4.64852000E-13

	 4.38289000E-13	 0.00000000E+00	 0.00000000E+00
	 0.00000000E+00	 4.38289000E-13	 0.00000000E+00
	 0.00000000E+00	 0.00000000E+00	 4.38289000E-13

	 4.42716000E-13	 0.00000000E+00	 0.00000000E+00
	 0.00000000E+00	 4.42716000E-13	 0.00000000E+00
	 0.00000000E+00	 0.00000000E+00	 4.42716000E-13

	 4.57262000E-13	 0.00000000E+00	 0.00000000E+00
	 0.00000000E+00	 4.57262000E-13	 0.00000000E+00
	 0.00000000E+00	 0.00000000E+00	 4.57262000E-13

	 4.46258000E-13	 0.00000000E+00	 0.00000000E+00
	 0.00000000E+00	 4.46258000E-13	 0.00000000E+00
	 0.00000000E+00	 0.00000000E+00	 4.46258000E-13

	 4.38289000E-13	 0.00000000E+00	 0.00000000E+00
	 0.00000000E+00	 4.38289000E-13	 0.00000000E+00
	 0.00000000E+00	 0.00000000E+00	 4.38289000E-13

	 4.38289000E-13	 0.00000000E+00	 0.00000000E+00
	 0.00000000E+00	 4.38289000E-13	 0.00000000E+00
	 0.00000000E+00	 0.00000000E+00	 4.38289000E-13

	 4.60425000E-13	 0.00000000E+00	 0.00000000E+00
	 0.00000000E+00	 4.60425000E-13	 0.00000000E+00
	 0.00000000E+00	 0.00000000E+00	 4.60425000E-13

	 4.38289000E-13	 0.00000000E+00	 0.00000000E+00
	 0.00000000E+00	 4.38289000E-13	 0.00000000E+00
	 0.00000000E+00	 0.00000000E+00	 4.38289000E-13

	 4.44929000E-13	 0.00000000E+00	 0.00000000E+00
	 0.00000000E+00	 4.44929000E-13	 0.00000000E+00
	 0.00000000E+00	 0.00000000E+00	 4.44929000E-13

	 4.64852000E-13	 0.00000000E+00	 0.00000000E+00
	 0.00000000E+00	 4.64852000E-13	 0.00000000E+00
	 0.00000000E+00	 0.00000000E+00	 4.64852000E-13

	 4.38289000E-13	 0.00000000E+00	 0.00000000E+00
	 0.00000000E+00	 4.38289000E-13	 0.00000000E+00
	 0.00000000E+00	 0.00000000E+00	 4.38289000E-13

	 4.64852000E-13	 0.00000000E+00	 0.00000000E+00
	 0.00000000E+00	 4.64852000E-13	 0.00000000E+00
	 0.00000000E+00	 0.00000000E+00	 4.64852000E-13

	 4.64852000E-13	 0.00000000E+00	 0.00000000E+00
	 0.00000000E+00	 4.64852000E-13	 0.00000000E+00
	 0.00000000E+00	 0.00000000E+00	 4.64852000E-13

	 4.64852000E-13	 0.00000000E+00	 0.00000000E+00
	 0.00000000E+00	 4.64852000E-13	 0.00000000E+00
	 0.00000000E+00	 0.00000000E+00	 4.64852000E-13

	 4.64852000E-13	 0.00000000E+00	 0.00000000E+00
	 0.00000000E+00	 4.64852000E-13	 0.00000000E+00
	 0.00000000E+00	 0.00000000E+00	 4.64852000E-13

	 4.64852000E-13	 0.00000000E+00	 0.00000000E+00
	 0.00000000E+00	 4.64852000E-13	 0.00000000E+00
	 0.00000000E+00	 0.00000000E+00	 4.64852000E-13

	 4.38289000E-13	 0.00000000E+00	 0.00000000E+00
	 0.00000000E+00	 4.38289000E-13	 0.00000000E+00
	 0.00000000E+00	 0.00000000E+00	 4.38289000E-13

	 4.64852000E-13	 0.00000000E+00	 0.00000000E+00
	 0.00000000E+00	 4.64852000E-13	 0.00000000E+00
	 0.00000000E+00	 0.00000000E+00	 4.64852000E-13

	 4.53784000E-13	 0.00000000E+00	 0.00000000E+00
	 0.00000000E+00	 4.53784000E-13	 0.00000000E+00
	 0.00000000E+00	 0.00000000E+00	 4.53784000E-13

	 4.64852000E-13	 0.00000000E+00	 0.00000000E+00
	 0.00000000E+00	 4.64852000E-13	 0.00000000E+00
	 0.00000000E+00	 0.00000000E+00	 4.64852000E-13

	 4.38289000E-13	 0.00000000E+00	 0.00000000E+00
	 0.00000000E+00	 4.38289000E-13	 0.00000000E+00
	 0.00000000E+00	 0.00000000E+00	 4.38289000E-13

	 4.40502000E-13	 0.00000000E+00	 0.00000000E+00
	 0.00000000E+00	 4.40502000E-13	 0.00000000E+00
	 0.00000000E+00	 0.00000000E+00	 4.40502000E-13

	 4.38289000E-13	 0.00000000E+00	 0.00000000E+00
	 0.00000000E+00	 4.38289000E-13	 0.00000000E+00
	 0.00000000E+00	 0.00000000E+00	 4.38289000E-13

	 4.64852000E-13	 0.00000000E+00	 0.00000000E+00
	 0.00000000E+00	 4.64852000E-13	 0.00000000E+00
	 0.00000000E+00	 0.00000000E+00	 4.64852000E-13

	 4.64852000E-13	 0.00000000E+00	 0.00000000E+00
	 0.00000000E+00	 4.64852000E-13	 0.00000000E+00
	 0.00000000E+00	 0.00000000E+00	 4.64852000E-13

	 4.64852000E-13	 0.00000000E+00	 0.00000000E+00
	 0.00000000E+00	 4.64852000E-13	 0.00000000E+00
	 0.00000000E+00	 0.00000000E+00	 4.64852000E-13

	 4.64852000E-13	 0.00000000E+00	 0.00000000E+00
	 0.00000000E+00	 4.64852000E-13	 0.00000000E+00
	 0.00000000E+00	 0.00000000E+00	 4.64852000E-13

	 4.64852000E-13	 0.00000000E+00	 0.00000000E+00
	 0.00000000E+00	 4.64852000E-13	 0.00000000E+00
	 0.00000000E+00	 0.00000000E+00	 4.64852000E-13

	 4.64852000E-13	 0.00000000E+00	 0.00000000E+00
	 0.00000000E+00	 4.64852000E-13	 0.00000000E+00
	 0.00000000E+00	 0.00000000E+00	 4.64852000E-13

	 4.64852000E-13	 0.00000000E+00	 0.00000000E+00
	 0.00000000E+00	 4.64852000E-13	 0.00000000E+00
	 0.00000000E+00	 0.00000000E+00	 4.64852000E-13

	 4.64852000E-13	 0.00000000E+00	 0.00000000E+00
	 0.00000000E+00	 4.64852000E-13	 0.00000000E+00
	 0.00000000E+00	 0.00000000E+00	 4.64852000E-13

	 4.64852000E-13	 0.00000000E+00	 0.00000000E+00
	 0.00000000E+00	 4.64852000E-13	 0.00000000E+00
	 0.00000000E+00	 0.00000000E+00	 4.64852000E-13

	 4.46258000E-13	 0.00000000E+00	 0.00000000E+00
	 0.00000000E+00	 4.46258000E-13	 0.00000000E+00
	 0.00000000E+00	 0.00000000E+00	 4.46258000E-13

	 4.64852000E-13	 0.00000000E+00	 0.00000000E+00
	 0.00000000E+00	 4.64852000E-13	 0.00000000E+00
	 0.00000000E+00	 0.00000000E+00	 4.64852000E-13

	 4.62638000E-13	 0.00000000E+00	 0.00000000E+00
	 0.00000000E+00	 4.62638000E-13	 0.00000000E+00
	 0.00000000E+00	 0.00000000E+00	 4.62638000E-13

	 4.46258000E-13	 0.00000000E+00	 0.00000000E+00
	 0.00000000E+00	 4.46258000E-13	 0.00000000E+00
	 0.00000000E+00	 0.00000000E+00	 4.46258000E-13

	 4.64852000E-13	 0.00000000E+00	 0.00000000E+00
	 0.00000000E+00	 4.64852000E-13	 0.00000000E+00
	 0.00000000E+00	 0.00000000E+00	 4.64852000E-13

	 4.38289000E-13	 0.00000000E+00	 0.00000000E+00
	 0.00000000E+00	 4.38289000E-13	 0.00000000E+00
	 0.00000000E+00	 0.00000000E+00	 4.38289000E-13

	 4.64852000E-13	 0.00000000E+00	 0.00000000E+00
	 0.00000000E+00	 4.64852000E-13	 0.00000000E+00
	 0.00000000E+00	 0.00000000E+00	 4.64852000E-13

	 4.64852000E-13	 0.00000000E+00	 0.00000000E+00
	 0.00000000E+00	 4.64852000E-13	 0.00000000E+00
	 0.00000000E+00	 0.00000000E+00	 4.64852000E-13

	 4.64852000E-13	 0.00000000E+00	 0.00000000E+00
	 0.00000000E+00	 4.64852000E-13	 0.00000000E+00
	 0.00000000E+00	 0.00000000E+00	 4.64852000E-13

	 4.58211000E-13	 0.00000000E+00	 0.00000000E+00
	 0.00000000E+00	 4.58211000E-13	 0.00000000E+00
	 0.00000000E+00	 0.00000000E+00	 4.58211000E-13

	 4.49357000E-13	 0.00000000E+00	 0.00000000E+00
	 0.00000000E+00	 4.49357000E-13	 0.00000000E+00
	 0.00000000E+00	 0.00000000E+00	 4.49357000E-13

	 4.64852000E-13	 0.00000000E+00	 0.00000000E+00
	 0.00000000E+00	 4.64852000E-13	 0.00000000E+00
	 0.00000000E+00	 0.00000000E+00	 4.64852000E-13

	 4.64852000E-13	 0.00000000E+00	 0.00000000E+00
	 0.00000000E+00	 4.64852000E-13	 0.00000000E+00
	 0.00000000E+00	 0.00000000E+00	 4.64852000E-13

	 4.42716000E-13	 0.00000000E+00	 0.00000000E+00
	 0.00000000E+00	 4.42716000E-13	 0.00000000E+00
	 0.00000000E+00	 0.00000000E+00	 4.42716000E-13

	 4.64852000E-13	 0.00000000E+00	 0.00000000E+00
	 0.00000000E+00	 4.64852000E-13	 0.00000000E+00
	 0.00000000E+00	 0.00000000E+00	 4.64852000E-13

	 4.44929000E-13	 0.00000000E+00	 0.00000000E+00
	 0.00000000E+00	 4.44929000E-13	 0.00000000E+00
	 0.00000000E+00	 0.00000000E+00	 4.44929000E-13

	 4.64852000E-13	 0.00000000E+00	 0.00000000E+00
	 0.00000000E+00	 4.64852000E-13	 0.00000000E+00
	 0.00000000E+00	 0.00000000E+00	 4.64852000E-13

	 4.44929000E-13	 0.00000000E+00	 0.00000000E+00
	 0.00000000E+00	 4.44929000E-13	 0.00000000E+00
	 0.00000000E+00	 0.00000000E+00	 4.44929000E-13

	 4.40502000E-13	 0.00000000E+00	 0.00000000E+00
	 0.00000000E+00	 4.40502000E-13	 0.00000000E+00
	 0.00000000E+00	 0.00000000E+00	 4.40502000E-13

	 4.64852000E-13	 0.00000000E+00	 0.00000000E+00
	 0.00000000E+00	 4.64852000E-13	 0.00000000E+00
	 0.00000000E+00	 0.00000000E+00	 4.64852000E-13

	 4.64852000E-13	 0.00000000E+00	 0.00000000E+00
	 0.00000000E+00	 4.64852000E-13	 0.00000000E+00
	 0.00000000E+00	 0.00000000E+00	 4.64852000E-13

	 4.64852000E-13	 0.00000000E+00	 0.00000000E+00
	 0.00000000E+00	 4.64852000E-13	 0.00000000E+00
	 0.00000000E+00	 0.00000000E+00	 4.64852000E-13

	 4.64852000E-13	 0.00000000E+00	 0.00000000E+00
	 0.00000000E+00	 4.64852000E-13	 0.00000000E+00
	 0.00000000E+00	 0.00000000E+00	 4.64852000E-13

	 4.64852000E-13	 0.00000000E+00	 0.00000000E+00
	 0.00000000E+00	 4.64852000E-13	 0.00000000E+00
	 0.00000000E+00	 0.00000000E+00	 4.64852000E-13

	 4.38289000E-13	 0.00000000E+00	 0.00000000E+00
	 0.00000000E+00	 4.38289000E-13	 0.00000000E+00
	 0.00000000E+00	 0.00000000E+00	 4.38289000E-13

	 4.64852000E-13	 0.00000000E+00	 0.00000000E+00
	 0.00000000E+00	 4.64852000E-13	 0.00000000E+00
	 0.00000000E+00	 0.00000000E+00	 4.64852000E-13

	 4.64852000E-13	 0.00000000E+00	 0.00000000E+00
	 0.00000000E+00	 4.64852000E-13	 0.00000000E+00
	 0.00000000E+00	 0.00000000E+00	 4.64852000E-13

	 4.53784000E-13	 0.00000000E+00	 0.00000000E+00
	 0.00000000E+00	 4.53784000E-13	 0.00000000E+00
	 0.00000000E+00	 0.00000000E+00	 4.53784000E-13

	 4.38289000E-13	 0.00000000E+00	 0.00000000E+00
	 0.00000000E+00	 4.38289000E-13	 0.00000000E+00
	 0.00000000E+00	 0.00000000E+00	 4.38289000E-13

	 4.38289000E-13	 0.00000000E+00	 0.00000000E+00
	 0.00000000E+00	 4.38289000E-13	 0.00000000E+00
	 0.00000000E+00	 0.00000000E+00	 4.38289000E-13

	 4.38289000E-13	 0.00000000E+00	 0.00000000E+00
	 0.00000000E+00	 4.38289000E-13	 0.00000000E+00
	 0.00000000E+00	 0.00000000E+00	 4.38289000E-13

	 4.38289000E-13	 0.00000000E+00	 0.00000000E+00
	 0.00000000E+00	 4.38289000E-13	 0.00000000E+00
	 0.00000000E+00	 0.00000000E+00	 4.38289000E-13

	 4.64852000E-13	 0.00000000E+00	 0.00000000E+00
	 0.00000000E+00	 4.64852000E-13	 0.00000000E+00
	 0.00000000E+00	 0.00000000E+00	 4.64852000E-13

	 4.38289000E-13	 0.00000000E+00	 0.00000000E+00
	 0.00000000E+00	 4.38289000E-13	 0.00000000E+00
	 0.00000000E+00	 0.00000000E+00	 4.38289000E-13

	 4.42083000E-13	 0.00000000E+00	 0.00000000E+00
	 0.00000000E+00	 4.42083000E-13	 0.00000000E+00
	 0.00000000E+00	 0.00000000E+00	 4.42083000E-13

	 4.64852000E-13	 0.00000000E+00	 0.00000000E+00
	 0.00000000E+00	 4.64852000E-13	 0.00000000E+00
	 0.00000000E+00	 0.00000000E+00	 4.64852000E-13

	 4.38289000E-13	 0.00000000E+00	 0.00000000E+00
	 0.00000000E+00	 4.38289000E-13	 0.00000000E+00
	 0.00000000E+00	 0.00000000E+00	 4.38289000E-13

	 4.64852000E-13	 0.00000000E+00	 0.00000000E+00
	 0.00000000E+00	 4.64852000E-13	 0.00000000E+00
	 0.00000000E+00	 0.00000000E+00	 4.64852000E-13

	 4.64852000E-13	 0.00000000E+00	 0.00000000E+00
	 0.00000000E+00	 4.64852000E-13	 0.00000000E+00
	 0.00000000E+00	 0.00000000E+00	 4.64852000E-13

	 4.64852000E-13	 0.00000000E+00	 0.00000000E+00
	 0.00000000E+00	 4.64852000E-13	 0.00000000E+00
	 0.00000000E+00	 0.00000000E+00	 4.64852000E-13

	 4.55997000E-13	 0.00000000E+00	 0.00000000E+00
	 0.00000000E+00	 4.55997000E-13	 0.00000000E+00
	 0.00000000E+00	 0.00000000E+00	 4.55997000E-13

	 4.47143000E-13	 0.00000000E+00	 0.00000000E+00
	 0.00000000E+00	 4.47143000E-13	 0.00000000E+00
	 0.00000000E+00	 0.00000000E+00	 4.47143000E-13

	 4.64852000E-13	 0.00000000E+00	 0.00000000E+00
	 0.00000000E+00	 4.64852000E-13	 0.00000000E+00
	 0.00000000E+00	 0.00000000E+00	 4.64852000E-13

	 4.42716000E-13	 0.00000000E+00	 0.00000000E+00
	 0.00000000E+00	 4.42716000E-13	 0.00000000E+00
	 0.00000000E+00	 0.00000000E+00	 4.42716000E-13

	 4.42716000E-13	 0.00000000E+00	 0.00000000E+00
	 0.00000000E+00	 4.42716000E-13	 0.00000000E+00
	 0.00000000E+00	 0.00000000E+00	 4.42716000E-13

	 4.62195000E-13	 0.00000000E+00	 0.00000000E+00
	 0.00000000E+00	 4.62195000E-13	 0.00000000E+00
	 0.00000000E+00	 0.00000000E+00	 4.62195000E-13

	 4.38289000E-13	 0.00000000E+00	 0.00000000E+00
	 0.00000000E+00	 4.38289000E-13	 0.00000000E+00
	 0.00000000E+00	 0.00000000E+00	 4.38289000E-13

	 4.38289000E-13	 0.00000000E+00	 0.00000000E+00
	 0.00000000E+00	 4.38289000E-13	 0.00000000E+00
	 0.00000000E+00	 0.00000000E+00	 4.38289000E-13

	 4.64852000E-13	 0.00000000E+00	 0.00000000E+00
	 0.00000000E+00	 4.64852000E-13	 0.00000000E+00
	 0.00000000E+00	 0.00000000E+00	 4.64852000E-13

	 4.64852000E-13	 0.00000000E+00	 0.00000000E+00
	 0.00000000E+00	 4.64852000E-13	 0.00000000E+00
	 0.00000000E+00	 0.00000000E+00	 4.64852000E-13

	 4.51570000E-13	 0.00000000E+00	 0.00000000E+00
	 0.00000000E+00	 4.51570000E-13	 0.00000000E+00
	 0.00000000E+00	 0.00000000E+00	 4.51570000E-13

	 4.38289000E-13	 0.00000000E+00	 0.00000000E+00
	 0.00000000E+00	 4.38289000E-13	 0.00000000E+00
	 0.00000000E+00	 0.00000000E+00	 4.38289000E-13

	 4.64852000E-13	 0.00000000E+00	 0.00000000E+00
	 0.00000000E+00	 4.64852000E-13	 0.00000000E+00
	 0.00000000E+00	 0.00000000E+00	 4.64852000E-13

	 4.64852000E-13	 0.00000000E+00	 0.00000000E+00
	 0.00000000E+00	 4.64852000E-13	 0.00000000E+00
	 0.00000000E+00	 0.00000000E+00	 4.64852000E-13

	 4.38289000E-13	 0.00000000E+00	 0.00000000E+00
	 0.00000000E+00	 4.38289000E-13	 0.00000000E+00
	 0.00000000E+00	 0.00000000E+00	 4.38289000E-13

	 4.64852000E-13	 0.00000000E+00	 0.00000000E+00
	 0.00000000E+00	 4.64852000E-13	 0.00000000E+00
	 0.00000000E+00	 0.00000000E+00	 4.64852000E-13

	 4.64852000E-13	 0.00000000E+00	 0.00000000E+00
	 0.00000000E+00	 4.64852000E-13	 0.00000000E+00
	 0.00000000E+00	 0.00000000E+00	 4.64852000E-13

	 4.64852000E-13	 0.00000000E+00	 0.00000000E+00
	 0.00000000E+00	 4.64852000E-13	 0.00000000E+00
	 0.00000000E+00	 0.00000000E+00	 4.64852000E-13

	 4.64852000E-13	 0.00000000E+00	 0.00000000E+00
	 0.00000000E+00	 4.64852000E-13	 0.00000000E+00
	 0.00000000E+00	 0.00000000E+00	 4.64852000E-13

	 4.64852000E-13	 0.00000000E+00	 0.00000000E+00
	 0.00000000E+00	 4.64852000E-13	 0.00000000E+00
	 0.00000000E+00	 0.00000000E+00	 4.64852000E-13

	 4.53784000E-13	 0.00000000E+00	 0.00000000E+00
	 0.00000000E+00	 4.53784000E-13	 0.00000000E+00
	 0.00000000E+00	 0.00000000E+00	 4.53784000E-13

	 4.64852000E-13	 0.00000000E+00	 0.00000000E+00
	 0.00000000E+00	 4.64852000E-13	 0.00000000E+00
	 0.00000000E+00	 0.00000000E+00	 4.64852000E-13

	 4.38289000E-13	 0.00000000E+00	 0.00000000E+00
	 0.00000000E+00	 4.38289000E-13	 0.00000000E+00
	 0.00000000E+00	 0.00000000E+00	 4.38289000E-13

	 4.60425000E-13	 0.00000000E+00	 0.00000000E+00
	 0.00000000E+00	 4.60425000E-13	 0.00000000E+00
	 0.00000000E+00	 0.00000000E+00	 4.60425000E-13

	 4.64852000E-13	 0.00000000E+00	 0.00000000E+00
	 0.00000000E+00	 4.64852000E-13	 0.00000000E+00
	 0.00000000E+00	 0.00000000E+00	 4.64852000E-13

	 4.38289000E-13	 0.00000000E+00	 0.00000000E+00
	 0.00000000E+00	 4.38289000E-13	 0.00000000E+00
	 0.00000000E+00	 0.00000000E+00	 4.38289000E-13

	 4.64852000E-13	 0.00000000E+00	 0.00000000E+00
	 0.00000000E+00	 4.64852000E-13	 0.00000000E+00
	 0.00000000E+00	 0.00000000E+00	 4.64852000E-13

	 4.64852000E-13	 0.00000000E+00	 0.00000000E+00
	 0.00000000E+00	 4.64852000E-13	 0.00000000E+00
	 0.00000000E+00	 0.00000000E+00	 4.64852000E-13

	 4.38289000E-13	 0.00000000E+00	 0.00000000E+00
	 0.00000000E+00	 4.38289000E-13	 0.00000000E+00
	 0.00000000E+00	 0.00000000E+00	 4.38289000E-13

	 4.64852000E-13	 0.00000000E+00	 0.00000000E+00
	 0.00000000E+00	 4.64852000E-13	 0.00000000E+00
	 0.00000000E+00	 0.00000000E+00	 4.64852000E-13

	 4.44929000E-13	 0.00000000E+00	 0.00000000E+00
	 0.00000000E+00	 4.44929000E-13	 0.00000000E+00
	 0.00000000E+00	 0.00000000E+00	 4.44929000E-13

	 4.38289000E-13	 0.00000000E+00	 0.00000000E+00
	 0.00000000E+00	 4.38289000E-13	 0.00000000E+00
	 0.00000000E+00	 0.00000000E+00	 4.38289000E-13

	 4.42716000E-13	 0.00000000E+00	 0.00000000E+00
	 0.00000000E+00	 4.42716000E-13	 0.00000000E+00
	 0.00000000E+00	 0.00000000E+00	 4.42716000E-13

	 4.60425000E-13	 0.00000000E+00	 0.00000000E+00
	 0.00000000E+00	 4.60425000E-13	 0.00000000E+00
	 0.00000000E+00	 0.00000000E+00	 4.60425000E-13

	 4.51570000E-13	 0.00000000E+00	 0.00000000E+00
	 0.00000000E+00	 4.51570000E-13	 0.00000000E+00
	 0.00000000E+00	 0.00000000E+00	 4.51570000E-13

	 4.58211000E-13	 0.00000000E+00	 0.00000000E+00
	 0.00000000E+00	 4.58211000E-13	 0.00000000E+00
	 0.00000000E+00	 0.00000000E+00	 4.58211000E-13

	 4.49357000E-13	 0.00000000E+00	 0.00000000E+00
	 0.00000000E+00	 4.49357000E-13	 0.00000000E+00
	 0.00000000E+00	 0.00000000E+00	 4.49357000E-13

	 4.55997000E-13	 0.00000000E+00	 0.00000000E+00
	 0.00000000E+00	 4.55997000E-13	 0.00000000E+00
	 0.00000000E+00	 0.00000000E+00	 4.55997000E-13

	 4.40945000E-13	 0.00000000E+00	 0.00000000E+00
	 0.00000000E+00	 4.40945000E-13	 0.00000000E+00
	 0.00000000E+00	 0.00000000E+00	 4.40945000E-13

	 4.43601000E-13	 0.00000000E+00	 0.00000000E+00
	 0.00000000E+00	 4.43601000E-13	 0.00000000E+00
	 0.00000000E+00	 0.00000000E+00	 4.43601000E-13

	 4.38289000E-13	 0.00000000E+00	 0.00000000E+00
	 0.00000000E+00	 4.38289000E-13	 0.00000000E+00
	 0.00000000E+00	 0.00000000E+00	 4.38289000E-13

	 4.64852000E-13	 0.00000000E+00	 0.00000000E+00
	 0.00000000E+00	 4.64852000E-13	 0.00000000E+00
	 0.00000000E+00	 0.00000000E+00	 4.64852000E-13

	 4.42716000E-13	 0.00000000E+00	 0.00000000E+00
	 0.00000000E+00	 4.42716000E-13	 0.00000000E+00
	 0.00000000E+00	 0.00000000E+00	 4.42716000E-13

	 4.64852000E-13	 0.00000000E+00	 0.00000000E+00
	 0.00000000E+00	 4.64852000E-13	 0.00000000E+00
	 0.00000000E+00	 0.00000000E+00	 4.64852000E-13

	 4.38289000E-13	 0.00000000E+00	 0.00000000E+00
	 0.00000000E+00	 4.38289000E-13	 0.00000000E+00
	 0.00000000E+00	 0.00000000E+00	 4.38289000E-13

	 4.38289000E-13	 0.00000000E+00	 0.00000000E+00
	 0.00000000E+00	 4.38289000E-13	 0.00000000E+00
	 0.00000000E+00	 0.00000000E+00	 4.38289000E-13

	 4.44929000E-13	 0.00000000E+00	 0.00000000E+00
	 0.00000000E+00	 4.44929000E-13	 0.00000000E+00
	 0.00000000E+00	 0.00000000E+00	 4.44929000E-13

	 4.64852000E-13	 0.00000000E+00	 0.00000000E+00
	 0.00000000E+00	 4.64852000E-13	 0.00000000E+00
	 0.00000000E+00	 0.00000000E+00	 4.64852000E-13

	 4.64852000E-13	 0.00000000E+00	 0.00000000E+00
	 0.00000000E+00	 4.64852000E-13	 0.00000000E+00
	 0.00000000E+00	 0.00000000E+00	 4.64852000E-13

	 4.38289000E-13	 0.00000000E+00	 0.00000000E+00
	 0.00000000E+00	 4.38289000E-13	 0.00000000E+00
	 0.00000000E+00	 0.00000000E+00	 4.38289000E-13

	 4.64852000E-13	 0.00000000E+00	 0.00000000E+00
	 0.00000000E+00	 4.64852000E-13	 0.00000000E+00
	 0.00000000E+00	 0.00000000E+00	 4.64852000E-13

	 4.64852000E-13	 0.00000000E+00	 0.00000000E+00
	 0.00000000E+00	 4.64852000E-13	 0.00000000E+00
	 0.00000000E+00	 0.00000000E+00	 4.64852000E-13

	 4.64852000E-13	 0.00000000E+00	 0.00000000E+00
	 0.00000000E+00	 4.64852000E-13	 0.00000000E+00
	 0.00000000E+00	 0.00000000E+00	 4.64852000E-13

	 4.38289000E-13	 0.00000000E+00	 0.00000000E+00
	 0.00000000E+00	 4.38289000E-13	 0.00000000E+00
	 0.00000000E+00	 0.00000000E+00	 4.38289000E-13

	 4.64852000E-13	 0.00000000E+00	 0.00000000E+00
	 0.00000000E+00	 4.64852000E-13	 0.00000000E+00
	 0.00000000E+00	 0.00000000E+00	 4.64852000E-13

	 4.38289000E-13	 0.00000000E+00	 0.00000000E+00
	 0.00000000E+00	 4.38289000E-13	 0.00000000E+00
	 0.00000000E+00	 0.00000000E+00	 4.38289000E-13

	 4.64852000E-13	 0.00000000E+00	 0.00000000E+00
	 0.00000000E+00	 4.64852000E-13	 0.00000000E+00
	 0.00000000E+00	 0.00000000E+00	 4.64852000E-13

	 4.38289000E-13	 0.00000000E+00	 0.00000000E+00
	 0.00000000E+00	 4.38289000E-13	 0.00000000E+00
	 0.00000000E+00	 0.00000000E+00	 4.38289000E-13

	 4.40502000E-13	 0.00000000E+00	 0.00000000E+00
	 0.00000000E+00	 4.40502000E-13	 0.00000000E+00
	 0.00000000E+00	 0.00000000E+00	 4.40502000E-13

	 4.64852000E-13	 0.00000000E+00	 0.00000000E+00
	 0.00000000E+00	 4.64852000E-13	 0.00000000E+00
	 0.00000000E+00	 0.00000000E+00	 4.64852000E-13

	 4.38289000E-13	 0.00000000E+00	 0.00000000E+00
	 0.00000000E+00	 4.38289000E-13	 0.00000000E+00
	 0.00000000E+00	 0.00000000E+00	 4.38289000E-13

	 4.64852000E-13	 0.00000000E+00	 0.00000000E+00
	 0.00000000E+00	 4.64852000E-13	 0.00000000E+00
	 0.00000000E+00	 0.00000000E+00	 4.64852000E-13

	 4.38289000E-13	 0.00000000E+00	 0.00000000E+00
	 0.00000000E+00	 4.38289000E-13	 0.00000000E+00
	 0.00000000E+00	 0.00000000E+00	 4.38289000E-13

	 4.64852000E-13	 0.00000000E+00	 0.00000000E+00
	 0.00000000E+00	 4.64852000E-13	 0.00000000E+00
	 0.00000000E+00	 0.00000000E+00	 4.64852000E-13

	 4.38289000E-13	 0.00000000E+00	 0.00000000E+00
	 0.00000000E+00	 4.38289000E-13	 0.00000000E+00
	 0.00000000E+00	 0.00000000E+00	 4.38289000E-13

	 4.51570000E-13	 0.00000000E+00	 0.00000000E+00
	 0.00000000E+00	 4.51570000E-13	 0.00000000E+00
	 0.00000000E+00	 0.00000000E+00	 4.51570000E-13

	 4.64852000E-13	 0.00000000E+00	 0.00000000E+00
	 0.00000000E+00	 4.64852000E-13	 0.00000000E+00
	 0.00000000E+00	 0.00000000E+00	 4.64852000E-13

	 4.38289000E-13	 0.00000000E+00	 0.00000000E+00
	 0.00000000E+00	 4.38289000E-13	 0.00000000E+00
	 0.00000000E+00	 0.00000000E+00	 4.38289000E-13

	 4.64852000E-13	 0.00000000E+00	 0.00000000E+00
	 0.00000000E+00	 4.64852000E-13	 0.00000000E+00
	 0.00000000E+00	 0.00000000E+00	 4.64852000E-13

	 4.38289000E-13	 0.00000000E+00	 0.00000000E+00
	 0.00000000E+00	 4.38289000E-13	 0.00000000E+00
	 0.00000000E+00	 0.00000000E+00	 4.38289000E-13

	 4.44929000E-13	 0.00000000E+00	 0.00000000E+00
	 0.00000000E+00	 4.44929000E-13	 0.00000000E+00
	 0.00000000E+00	 0.00000000E+00	 4.44929000E-13

	 4.49357000E-13	 0.00000000E+00	 0.00000000E+00
	 0.00000000E+00	 4.49357000E-13	 0.00000000E+00
	 0.00000000E+00	 0.00000000E+00	 4.49357000E-13

	 4.56883000E-13	 0.00000000E+00	 0.00000000E+00
	 0.00000000E+00	 4.56883000E-13	 0.00000000E+00
	 0.00000000E+00	 0.00000000E+00	 4.56883000E-13

	 4.64852000E-13	 0.00000000E+00	 0.00000000E+00
	 0.00000000E+00	 4.64852000E-13	 0.00000000E+00
	 0.00000000E+00	 0.00000000E+00	 4.64852000E-13

	 4.56883000E-13	 0.00000000E+00	 0.00000000E+00
	 0.00000000E+00	 4.56883000E-13	 0.00000000E+00
	 0.00000000E+00	 0.00000000E+00	 4.56883000E-13

	 4.64852000E-13	 0.00000000E+00	 0.00000000E+00
	 0.00000000E+00	 4.64852000E-13	 0.00000000E+00
	 0.00000000E+00	 0.00000000E+00	 4.64852000E-13

	 4.40502000E-13	 0.00000000E+00	 0.00000000E+00
	 0.00000000E+00	 4.40502000E-13	 0.00000000E+00
	 0.00000000E+00	 0.00000000E+00	 4.40502000E-13

	 4.62638000E-13	 0.00000000E+00	 0.00000000E+00
	 0.00000000E+00	 4.62638000E-13	 0.00000000E+00
	 0.00000000E+00	 0.00000000E+00	 4.62638000E-13

	 4.38289000E-13	 0.00000000E+00	 0.00000000E+00
	 0.00000000E+00	 4.38289000E-13	 0.00000000E+00
	 0.00000000E+00	 0.00000000E+00	 4.38289000E-13

	 4.64852000E-13	 0.00000000E+00	 0.00000000E+00
	 0.00000000E+00	 4.64852000E-13	 0.00000000E+00
	 0.00000000E+00	 0.00000000E+00	 4.64852000E-13

	 4.40945000E-13	 0.00000000E+00	 0.00000000E+00
	 0.00000000E+00	 4.40945000E-13	 0.00000000E+00
	 0.00000000E+00	 0.00000000E+00	 4.40945000E-13

	 4.38289000E-13	 0.00000000E+00	 0.00000000E+00
	 0.00000000E+00	 4.38289000E-13	 0.00000000E+00
	 0.00000000E+00	 0.00000000E+00	 4.38289000E-13

	 4.43601000E-13	 0.00000000E+00	 0.00000000E+00
	 0.00000000E+00	 4.43601000E-13	 0.00000000E+00
	 0.00000000E+00	 0.00000000E+00	 4.43601000E-13

	 4.62195000E-13	 0.00000000E+00	 0.00000000E+00
	 0.00000000E+00	 4.62195000E-13	 0.00000000E+00
	 0.00000000E+00	 0.00000000E+00	 4.62195000E-13

	 4.38289000E-13	 0.00000000E+00	 0.00000000E+00
	 0.00000000E+00	 4.38289000E-13	 0.00000000E+00
	 0.00000000E+00	 0.00000000E+00	 4.38289000E-13

	 4.38289000E-13	 0.00000000E+00	 0.00000000E+00
	 0.00000000E+00	 4.38289000E-13	 0.00000000E+00
	 0.00000000E+00	 0.00000000E+00	 4.38289000E-13

	 4.38289000E-13	 0.00000000E+00	 0.00000000E+00
	 0.00000000E+00	 4.38289000E-13	 0.00000000E+00
	 0.00000000E+00	 0.00000000E+00	 4.38289000E-13

	 4.62638000E-13	 0.00000000E+00	 0.00000000E+00
	 0.00000000E+00	 4.62638000E-13	 0.00000000E+00
	 0.00000000E+00	 0.00000000E+00	 4.62638000E-13

	 4.62195000E-13	 0.00000000E+00	 0.00000000E+00
	 0.00000000E+00	 4.62195000E-13	 0.00000000E+00
	 0.00000000E+00	 0.00000000E+00	 4.62195000E-13

	 4.64852000E-13	 0.00000000E+00	 0.00000000E+00
	 0.00000000E+00	 4.64852000E-13	 0.00000000E+00
	 0.00000000E+00	 0.00000000E+00	 4.64852000E-13

	 4.64852000E-13	 0.00000000E+00	 0.00000000E+00
	 0.00000000E+00	 4.64852000E-13	 0.00000000E+00
	 0.00000000E+00	 0.00000000E+00	 4.64852000E-13

	 4.38289000E-13	 0.00000000E+00	 0.00000000E+00
	 0.00000000E+00	 4.38289000E-13	 0.00000000E+00
	 0.00000000E+00	 0.00000000E+00	 4.38289000E-13

	 4.64852000E-13	 0.00000000E+00	 0.00000000E+00
	 0.00000000E+00	 4.64852000E-13	 0.00000000E+00
	 0.00000000E+00	 0.00000000E+00	 4.64852000E-13

	 4.64852000E-13	 0.00000000E+00	 0.00000000E+00
	 0.00000000E+00	 4.64852000E-13	 0.00000000E+00
	 0.00000000E+00	 0.00000000E+00	 4.64852000E-13

	 4.56883000E-13	 0.00000000E+00	 0.00000000E+00
	 0.00000000E+00	 4.56883000E-13	 0.00000000E+00
	 0.00000000E+00	 0.00000000E+00	 4.56883000E-13

	 4.64852000E-13	 0.00000000E+00	 0.00000000E+00
	 0.00000000E+00	 4.64852000E-13	 0.00000000E+00
	 0.00000000E+00	 0.00000000E+00	 4.64852000E-13

	 4.42716000E-13	 0.00000000E+00	 0.00000000E+00
	 0.00000000E+00	 4.42716000E-13	 0.00000000E+00
	 0.00000000E+00	 0.00000000E+00	 4.42716000E-13

	 4.42716000E-13	 0.00000000E+00	 0.00000000E+00
	 0.00000000E+00	 4.42716000E-13	 0.00000000E+00
	 0.00000000E+00	 0.00000000E+00	 4.42716000E-13

	 4.38289000E-13	 0.00000000E+00	 0.00000000E+00
	 0.00000000E+00	 4.38289000E-13	 0.00000000E+00
	 0.00000000E+00	 0.00000000E+00	 4.38289000E-13

	 4.38289000E-13	 0.00000000E+00	 0.00000000E+00
	 0.00000000E+00	 4.38289000E-13	 0.00000000E+00
	 0.00000000E+00	 0.00000000E+00	 4.38289000E-13

	 4.38289000E-13	 0.00000000E+00	 0.00000000E+00
	 0.00000000E+00	 4.38289000E-13	 0.00000000E+00
	 0.00000000E+00	 0.00000000E+00	 4.38289000E-13

	 4.64852000E-13	 0.00000000E+00	 0.00000000E+00
	 0.00000000E+00	 4.64852000E-13	 0.00000000E+00
	 0.00000000E+00	 0.00000000E+00	 4.64852000E-13

	 4.64852000E-13	 0.00000000E+00	 0.00000000E+00
	 0.00000000E+00	 4.64852000E-13	 0.00000000E+00
	 0.00000000E+00	 0.00000000E+00	 4.64852000E-13

	 4.47143000E-13	 0.00000000E+00	 0.00000000E+00
	 0.00000000E+00	 4.47143000E-13	 0.00000000E+00
	 0.00000000E+00	 0.00000000E+00	 4.47143000E-13

	 4.64852000E-13	 0.00000000E+00	 0.00000000E+00
	 0.00000000E+00	 4.64852000E-13	 0.00000000E+00
	 0.00000000E+00	 0.00000000E+00	 4.64852000E-13

	 4.62638000E-13	 0.00000000E+00	 0.00000000E+00
	 0.00000000E+00	 4.62638000E-13	 0.00000000E+00
	 0.00000000E+00	 0.00000000E+00	 4.62638000E-13

	 4.64852000E-13	 0.00000000E+00	 0.00000000E+00
	 0.00000000E+00	 4.64852000E-13	 0.00000000E+00
	 0.00000000E+00	 0.00000000E+00	 4.64852000E-13

	 4.64852000E-13	 0.00000000E+00	 0.00000000E+00
	 0.00000000E+00	 4.64852000E-13	 0.00000000E+00
	 0.00000000E+00	 0.00000000E+00	 4.64852000E-13

	 4.38289000E-13	 0.00000000E+00	 0.00000000E+00
	 0.00000000E+00	 4.38289000E-13	 0.00000000E+00
	 0.00000000E+00	 0.00000000E+00	 4.38289000E-13

	 4.64852000E-13	 0.00000000E+00	 0.00000000E+00
	 0.00000000E+00	 4.64852000E-13	 0.00000000E+00
	 0.00000000E+00	 0.00000000E+00	 4.64852000E-13

	 4.64852000E-13	 0.00000000E+00	 0.00000000E+00
	 0.00000000E+00	 4.64852000E-13	 0.00000000E+00
	 0.00000000E+00	 0.00000000E+00	 4.64852000E-13

	 4.64852000E-13	 0.00000000E+00	 0.00000000E+00
	 0.00000000E+00	 4.64852000E-13	 0.00000000E+00
	 0.00000000E+00	 0.00000000E+00	 4.64852000E-13

	 4.64852000E-13	 0.00000000E+00	 0.00000000E+00
	 0.00000000E+00	 4.64852000E-13	 0.00000000E+00
	 0.00000000E+00	 0.00000000E+00	 4.64852000E-13

	 4.38289000E-13	 0.00000000E+00	 0.00000000E+00
	 0.00000000E+00	 4.38289000E-13	 0.00000000E+00
	 0.00000000E+00	 0.00000000E+00	 4.38289000E-13

	 4.64852000E-13	 0.00000000E+00	 0.00000000E+00
	 0.00000000E+00	 4.64852000E-13	 0.00000000E+00
	 0.00000000E+00	 0.00000000E+00	 4.64852000E-13

	 4.38289000E-13	 0.00000000E+00	 0.00000000E+00
	 0.00000000E+00	 4.38289000E-13	 0.00000000E+00
	 0.00000000E+00	 0.00000000E+00	 4.38289000E-13

	 4.64852000E-13	 0.00000000E+00	 0.00000000E+00
	 0.00000000E+00	 4.64852000E-13	 0.00000000E+00
	 0.00000000E+00	 0.00000000E+00	 4.64852000E-13

	 4.62638000E-13	 0.00000000E+00	 0.00000000E+00
	 0.00000000E+00	 4.62638000E-13	 0.00000000E+00
	 0.00000000E+00	 0.00000000E+00	 4.62638000E-13

	 4.64852000E-13	 0.00000000E+00	 0.00000000E+00
	 0.00000000E+00	 4.64852000E-13	 0.00000000E+00
	 0.00000000E+00	 0.00000000E+00	 4.64852000E-13

	 4.64852000E-13	 0.00000000E+00	 0.00000000E+00
	 0.00000000E+00	 4.64852000E-13	 0.00000000E+00
	 0.00000000E+00	 0.00000000E+00	 4.64852000E-13

	 4.38289000E-13	 0.00000000E+00	 0.00000000E+00
	 0.00000000E+00	 4.38289000E-13	 0.00000000E+00
	 0.00000000E+00	 0.00000000E+00	 4.38289000E-13

	 4.64852000E-13	 0.00000000E+00	 0.00000000E+00
	 0.00000000E+00	 4.64852000E-13	 0.00000000E+00
	 0.00000000E+00	 0.00000000E+00	 4.64852000E-13

	 4.38289000E-13	 0.00000000E+00	 0.00000000E+00
	 0.00000000E+00	 4.38289000E-13	 0.00000000E+00
	 0.00000000E+00	 0.00000000E+00	 4.38289000E-13

	 4.43601000E-13	 0.00000000E+00	 0.00000000E+00
	 0.00000000E+00	 4.43601000E-13	 0.00000000E+00
	 0.00000000E+00	 0.00000000E+00	 4.43601000E-13

	 4.64852000E-13	 0.00000000E+00	 0.00000000E+00
	 0.00000000E+00	 4.64852000E-13	 0.00000000E+00
	 0.00000000E+00	 0.00000000E+00	 4.64852000E-13

	 4.64852000E-13	 0.00000000E+00	 0.00000000E+00
	 0.00000000E+00	 4.64852000E-13	 0.00000000E+00
	 0.00000000E+00	 0.00000000E+00	 4.64852000E-13

	 4.42716000E-13	 0.00000000E+00	 0.00000000E+00
	 0.00000000E+00	 4.42716000E-13	 0.00000000E+00
	 0.00000000E+00	 0.00000000E+00	 4.42716000E-13

	 4.43601000E-13	 0.00000000E+00	 0.00000000E+00
	 0.00000000E+00	 4.43601000E-13	 0.00000000E+00
	 0.00000000E+00	 0.00000000E+00	 4.43601000E-13

	 4.64852000E-13	 0.00000000E+00	 0.00000000E+00
	 0.00000000E+00	 4.64852000E-13	 0.00000000E+00
	 0.00000000E+00	 0.00000000E+00	 4.64852000E-13

	 4.38289000E-13	 0.00000000E+00	 0.00000000E+00
	 0.00000000E+00	 4.38289000E-13	 0.00000000E+00
	 0.00000000E+00	 0.00000000E+00	 4.38289000E-13

	 4.64852000E-13	 0.00000000E+00	 0.00000000E+00
	 0.00000000E+00	 4.64852000E-13	 0.00000000E+00
	 0.00000000E+00	 0.00000000E+00	 4.64852000E-13

	 4.64852000E-13	 0.00000000E+00	 0.00000000E+00
	 0.00000000E+00	 4.64852000E-13	 0.00000000E+00
	 0.00000000E+00	 0.00000000E+00	 4.64852000E-13

	 4.64852000E-13	 0.00000000E+00	 0.00000000E+00
	 0.00000000E+00	 4.64852000E-13	 0.00000000E+00
	 0.00000000E+00	 0.00000000E+00	 4.64852000E-13

	 4.64852000E-13	 0.00000000E+00	 0.00000000E+00
	 0.00000000E+00	 4.64852000E-13	 0.00000000E+00
	 0.00000000E+00	 0.00000000E+00	 4.64852000E-13

	 4.64852000E-13	 0.00000000E+00	 0.00000000E+00
	 0.00000000E+00	 4.64852000E-13	 0.00000000E+00
	 0.00000000E+00	 0.00000000E+00	 4.64852000E-13

	 4.38289000E-13	 0.00000000E+00	 0.00000000E+00
	 0.00000000E+00	 4.38289000E-13	 0.00000000E+00
	 0.00000000E+00	 0.00000000E+00	 4.38289000E-13

	 4.64852000E-13	 0.00000000E+00	 0.00000000E+00
	 0.00000000E+00	 4.64852000E-13	 0.00000000E+00
	 0.00000000E+00	 0.00000000E+00	 4.64852000E-13

	 4.64852000E-13	 0.00000000E+00	 0.00000000E+00
	 0.00000000E+00	 4.64852000E-13	 0.00000000E+00
	 0.00000000E+00	 0.00000000E+00	 4.64852000E-13

	 4.62195000E-13	 0.00000000E+00	 0.00000000E+00
	 0.00000000E+00	 4.62195000E-13	 0.00000000E+00
	 0.00000000E+00	 0.00000000E+00	 4.62195000E-13

	 4.40502000E-13	 0.00000000E+00	 0.00000000E+00
	 0.00000000E+00	 4.40502000E-13	 0.00000000E+00
	 0.00000000E+00	 0.00000000E+00	 4.40502000E-13

	 4.64852000E-13	 0.00000000E+00	 0.00000000E+00
	 0.00000000E+00	 4.64852000E-13	 0.00000000E+00
	 0.00000000E+00	 0.00000000E+00	 4.64852000E-13

	 4.38289000E-13	 0.00000000E+00	 0.00000000E+00
	 0.00000000E+00	 4.38289000E-13	 0.00000000E+00
	 0.00000000E+00	 0.00000000E+00	 4.38289000E-13

	 4.43601000E-13	 0.00000000E+00	 0.00000000E+00
	 0.00000000E+00	 4.43601000E-13	 0.00000000E+00
	 0.00000000E+00	 0.00000000E+00	 4.43601000E-13

	 4.64852000E-13	 0.00000000E+00	 0.00000000E+00
	 0.00000000E+00	 4.64852000E-13	 0.00000000E+00
	 0.00000000E+00	 0.00000000E+00	 4.64852000E-13

	 4.62638000E-13	 0.00000000E+00	 0.00000000E+00
	 0.00000000E+00	 4.62638000E-13	 0.00000000E+00
	 0.00000000E+00	 0.00000000E+00	 4.62638000E-13

	 4.38289000E-13	 0.00000000E+00	 0.00000000E+00
	 0.00000000E+00	 4.38289000E-13	 0.00000000E+00
	 0.00000000E+00	 0.00000000E+00	 4.38289000E-13

	 4.58211000E-13	 0.00000000E+00	 0.00000000E+00
	 0.00000000E+00	 4.58211000E-13	 0.00000000E+00
	 0.00000000E+00	 0.00000000E+00	 4.58211000E-13

	 4.64852000E-13	 0.00000000E+00	 0.00000000E+00
	 0.00000000E+00	 4.64852000E-13	 0.00000000E+00
	 0.00000000E+00	 0.00000000E+00	 4.64852000E-13

	 4.51570000E-13	 0.00000000E+00	 0.00000000E+00
	 0.00000000E+00	 4.51570000E-13	 0.00000000E+00
	 0.00000000E+00	 0.00000000E+00	 4.51570000E-13

	 4.40502000E-13	 0.00000000E+00	 0.00000000E+00
	 0.00000000E+00	 4.40502000E-13	 0.00000000E+00
	 0.00000000E+00	 0.00000000E+00	 4.40502000E-13

	 4.64852000E-13	 0.00000000E+00	 0.00000000E+00
	 0.00000000E+00	 4.64852000E-13	 0.00000000E+00
	 0.00000000E+00	 0.00000000E+00	 4.64852000E-13

	 4.64852000E-13	 0.00000000E+00	 0.00000000E+00
	 0.00000000E+00	 4.64852000E-13	 0.00000000E+00
	 0.00000000E+00	 0.00000000E+00	 4.64852000E-13

	 4.38289000E-13	 0.00000000E+00	 0.00000000E+00
	 0.00000000E+00	 4.38289000E-13	 0.00000000E+00
	 0.00000000E+00	 0.00000000E+00	 4.38289000E-13

	 4.42716000E-13	 0.00000000E+00	 0.00000000E+00
	 0.00000000E+00	 4.42716000E-13	 0.00000000E+00
	 0.00000000E+00	 0.00000000E+00	 4.42716000E-13

	 4.64852000E-13	 0.00000000E+00	 0.00000000E+00
	 0.00000000E+00	 4.64852000E-13	 0.00000000E+00
	 0.00000000E+00	 0.00000000E+00	 4.64852000E-13

	 4.64852000E-13	 0.00000000E+00	 0.00000000E+00
	 0.00000000E+00	 4.64852000E-13	 0.00000000E+00
	 0.00000000E+00	 0.00000000E+00	 4.64852000E-13

	 4.64852000E-13	 0.00000000E+00	 0.00000000E+00
	 0.00000000E+00	 4.64852000E-13	 0.00000000E+00
	 0.00000000E+00	 0.00000000E+00	 4.64852000E-13

	 4.38289000E-13	 0.00000000E+00	 0.00000000E+00
	 0.00000000E+00	 4.38289000E-13	 0.00000000E+00
	 0.00000000E+00	 0.00000000E+00	 4.38289000E-13

	 4.60425000E-13	 0.00000000E+00	 0.00000000E+00
	 0.00000000E+00	 4.60425000E-13	 0.00000000E+00
	 0.00000000E+00	 0.00000000E+00	 4.60425000E-13

	 4.64852000E-13	 0.00000000E+00	 0.00000000E+00
	 0.00000000E+00	 4.64852000E-13	 0.00000000E+00
	 0.00000000E+00	 0.00000000E+00	 4.64852000E-13

	 4.64852000E-13	 0.00000000E+00	 0.00000000E+00
	 0.00000000E+00	 4.64852000E-13	 0.00000000E+00
	 0.00000000E+00	 0.00000000E+00	 4.64852000E-13

	 4.64852000E-13	 0.00000000E+00	 0.00000000E+00
	 0.00000000E+00	 4.64852000E-13	 0.00000000E+00
	 0.00000000E+00	 0.00000000E+00	 4.64852000E-13

	 4.38289000E-13	 0.00000000E+00	 0.00000000E+00
	 0.00000000E+00	 4.38289000E-13	 0.00000000E+00
	 0.00000000E+00	 0.00000000E+00	 4.38289000E-13

	 4.48914000E-13	 0.00000000E+00	 0.00000000E+00
	 0.00000000E+00	 4.48914000E-13	 0.00000000E+00
	 0.00000000E+00	 0.00000000E+00	 4.48914000E-13

	 4.53784000E-13	 0.00000000E+00	 0.00000000E+00
	 0.00000000E+00	 4.53784000E-13	 0.00000000E+00
	 0.00000000E+00	 0.00000000E+00	 4.53784000E-13

	 4.51570000E-13	 0.00000000E+00	 0.00000000E+00
	 0.00000000E+00	 4.51570000E-13	 0.00000000E+00
	 0.00000000E+00	 0.00000000E+00	 4.51570000E-13

	 4.64852000E-13	 0.00000000E+00	 0.00000000E+00
	 0.00000000E+00	 4.64852000E-13	 0.00000000E+00
	 0.00000000E+00	 0.00000000E+00	 4.64852000E-13

	 4.64852000E-13	 0.00000000E+00	 0.00000000E+00
	 0.00000000E+00	 4.64852000E-13	 0.00000000E+00
	 0.00000000E+00	 0.00000000E+00	 4.64852000E-13

	 4.38289000E-13	 0.00000000E+00	 0.00000000E+00
	 0.00000000E+00	 4.38289000E-13	 0.00000000E+00
	 0.00000000E+00	 0.00000000E+00	 4.38289000E-13

	 4.64852000E-13	 0.00000000E+00	 0.00000000E+00
	 0.00000000E+00	 4.64852000E-13	 0.00000000E+00
	 0.00000000E+00	 0.00000000E+00	 4.64852000E-13

	 4.38289000E-13	 0.00000000E+00	 0.00000000E+00
	 0.00000000E+00	 4.38289000E-13	 0.00000000E+00
	 0.00000000E+00	 0.00000000E+00	 4.38289000E-13

	 4.64852000E-13	 0.00000000E+00	 0.00000000E+00
	 0.00000000E+00	 4.64852000E-13	 0.00000000E+00
	 0.00000000E+00	 0.00000000E+00	 4.64852000E-13

	 4.64852000E-13	 0.00000000E+00	 0.00000000E+00
	 0.00000000E+00	 4.64852000E-13	 0.00000000E+00
	 0.00000000E+00	 0.00000000E+00	 4.64852000E-13

	 4.59539000E-13	 0.00000000E+00	 0.00000000E+00
	 0.00000000E+00	 4.59539000E-13	 0.00000000E+00
	 0.00000000E+00	 0.00000000E+00	 4.59539000E-13

	 4.38289000E-13	 0.00000000E+00	 0.00000000E+00
	 0.00000000E+00	 4.38289000E-13	 0.00000000E+00
	 0.00000000E+00	 0.00000000E+00	 4.38289000E-13

	 4.38289000E-13	 0.00000000E+00	 0.00000000E+00
	 0.00000000E+00	 4.38289000E-13	 0.00000000E+00
	 0.00000000E+00	 0.00000000E+00	 4.38289000E-13

	 4.64852000E-13	 0.00000000E+00	 0.00000000E+00
	 0.00000000E+00	 4.64852000E-13	 0.00000000E+00
	 0.00000000E+00	 0.00000000E+00	 4.64852000E-13

	 4.43601000E-13	 0.00000000E+00	 0.00000000E+00
	 0.00000000E+00	 4.43601000E-13	 0.00000000E+00
	 0.00000000E+00	 0.00000000E+00	 4.43601000E-13

	 4.58211000E-13	 0.00000000E+00	 0.00000000E+00
	 0.00000000E+00	 4.58211000E-13	 0.00000000E+00
	 0.00000000E+00	 0.00000000E+00	 4.58211000E-13

	 4.38289000E-13	 0.00000000E+00	 0.00000000E+00
	 0.00000000E+00	 4.38289000E-13	 0.00000000E+00
	 0.00000000E+00	 0.00000000E+00	 4.38289000E-13

	 4.64852000E-13	 0.00000000E+00	 0.00000000E+00
	 0.00000000E+00	 4.64852000E-13	 0.00000000E+00
	 0.00000000E+00	 0.00000000E+00	 4.64852000E-13

	 4.40945000E-13	 0.00000000E+00	 0.00000000E+00
	 0.00000000E+00	 4.40945000E-13	 0.00000000E+00
	 0.00000000E+00	 0.00000000E+00	 4.40945000E-13

	 4.38289000E-13	 0.00000000E+00	 0.00000000E+00
	 0.00000000E+00	 4.38289000E-13	 0.00000000E+00
	 0.00000000E+00	 0.00000000E+00	 4.38289000E-13

	 4.38289000E-13	 0.00000000E+00	 0.00000000E+00
	 0.00000000E+00	 4.38289000E-13	 0.00000000E+00
	 0.00000000E+00	 0.00000000E+00	 4.38289000E-13

	 4.48914000E-13	 0.00000000E+00	 0.00000000E+00
	 0.00000000E+00	 4.48914000E-13	 0.00000000E+00
	 0.00000000E+00	 0.00000000E+00	 4.48914000E-13

	 4.64852000E-13	 0.00000000E+00	 0.00000000E+00
	 0.00000000E+00	 4.64852000E-13	 0.00000000E+00
	 0.00000000E+00	 0.00000000E+00	 4.64852000E-13

	 4.64852000E-13	 0.00000000E+00	 0.00000000E+00
	 0.00000000E+00	 4.64852000E-13	 0.00000000E+00
	 0.00000000E+00	 0.00000000E+00	 4.64852000E-13

	 4.40945000E-13	 0.00000000E+00	 0.00000000E+00
	 0.00000000E+00	 4.40945000E-13	 0.00000000E+00
	 0.00000000E+00	 0.00000000E+00	 4.40945000E-13

	 4.64852000E-13	 0.00000000E+00	 0.00000000E+00
	 0.00000000E+00	 4.64852000E-13	 0.00000000E+00
	 0.00000000E+00	 0.00000000E+00	 4.64852000E-13

	 4.64852000E-13	 0.00000000E+00	 0.00000000E+00
	 0.00000000E+00	 4.64852000E-13	 0.00000000E+00
	 0.00000000E+00	 0.00000000E+00	 4.64852000E-13

	 4.38289000E-13	 0.00000000E+00	 0.00000000E+00
	 0.00000000E+00	 4.38289000E-13	 0.00000000E+00
	 0.00000000E+00	 0.00000000E+00	 4.38289000E-13

	 4.64852000E-13	 0.00000000E+00	 0.00000000E+00
	 0.00000000E+00	 4.64852000E-13	 0.00000000E+00
	 0.00000000E+00	 0.00000000E+00	 4.64852000E-13

	 4.64852000E-13	 0.00000000E+00	 0.00000000E+00
	 0.00000000E+00	 4.64852000E-13	 0.00000000E+00
	 0.00000000E+00	 0.00000000E+00	 4.64852000E-13

	 4.38289000E-13	 0.00000000E+00	 0.00000000E+00
	 0.00000000E+00	 4.38289000E-13	 0.00000000E+00
	 0.00000000E+00	 0.00000000E+00	 4.38289000E-13

	 4.38289000E-13	 0.00000000E+00	 0.00000000E+00
	 0.00000000E+00	 4.38289000E-13	 0.00000000E+00
	 0.00000000E+00	 0.00000000E+00	 4.38289000E-13

	 4.64852000E-13	 0.00000000E+00	 0.00000000E+00
	 0.00000000E+00	 4.64852000E-13	 0.00000000E+00
	 0.00000000E+00	 0.00000000E+00	 4.64852000E-13

	 4.64852000E-13	 0.00000000E+00	 0.00000000E+00
	 0.00000000E+00	 4.64852000E-13	 0.00000000E+00
	 0.00000000E+00	 0.00000000E+00	 4.64852000E-13

	 4.64852000E-13	 0.00000000E+00	 0.00000000E+00
	 0.00000000E+00	 4.64852000E-13	 0.00000000E+00
	 0.00000000E+00	 0.00000000E+00	 4.64852000E-13

	 4.64852000E-13	 0.00000000E+00	 0.00000000E+00
	 0.00000000E+00	 4.64852000E-13	 0.00000000E+00
	 0.00000000E+00	 0.00000000E+00	 4.64852000E-13

	 4.38289000E-13	 0.00000000E+00	 0.00000000E+00
	 0.00000000E+00	 4.38289000E-13	 0.00000000E+00
	 0.00000000E+00	 0.00000000E+00	 4.38289000E-13

	 4.64852000E-13	 0.00000000E+00	 0.00000000E+00
	 0.00000000E+00	 4.64852000E-13	 0.00000000E+00
	 0.00000000E+00	 0.00000000E+00	 4.64852000E-13

	 4.56883000E-13	 0.00000000E+00	 0.00000000E+00
	 0.00000000E+00	 4.56883000E-13	 0.00000000E+00
	 0.00000000E+00	 0.00000000E+00	 4.56883000E-13

	 4.40945000E-13	 0.00000000E+00	 0.00000000E+00
	 0.00000000E+00	 4.40945000E-13	 0.00000000E+00
	 0.00000000E+00	 0.00000000E+00	 4.40945000E-13

	 4.38289000E-13	 0.00000000E+00	 0.00000000E+00
	 0.00000000E+00	 4.38289000E-13	 0.00000000E+00
	 0.00000000E+00	 0.00000000E+00	 4.38289000E-13

	 4.64852000E-13	 0.00000000E+00	 0.00000000E+00
	 0.00000000E+00	 4.64852000E-13	 0.00000000E+00
	 0.00000000E+00	 0.00000000E+00	 4.64852000E-13

	 4.46258000E-13	 0.00000000E+00	 0.00000000E+00
	 0.00000000E+00	 4.46258000E-13	 0.00000000E+00
	 0.00000000E+00	 0.00000000E+00	 4.46258000E-13

	 4.64852000E-13	 0.00000000E+00	 0.00000000E+00
	 0.00000000E+00	 4.64852000E-13	 0.00000000E+00
	 0.00000000E+00	 0.00000000E+00	 4.64852000E-13

	 4.49357000E-13	 0.00000000E+00	 0.00000000E+00
	 0.00000000E+00	 4.49357000E-13	 0.00000000E+00
	 0.00000000E+00	 0.00000000E+00	 4.49357000E-13

	 4.64852000E-13	 0.00000000E+00	 0.00000000E+00
	 0.00000000E+00	 4.64852000E-13	 0.00000000E+00
	 0.00000000E+00	 0.00000000E+00	 4.64852000E-13

	 4.42716000E-13	 0.00000000E+00	 0.00000000E+00
	 0.00000000E+00	 4.42716000E-13	 0.00000000E+00
	 0.00000000E+00	 0.00000000E+00	 4.42716000E-13

	 4.64852000E-13	 0.00000000E+00	 0.00000000E+00
	 0.00000000E+00	 4.64852000E-13	 0.00000000E+00
	 0.00000000E+00	 0.00000000E+00	 4.64852000E-13

	 4.64852000E-13	 0.00000000E+00	 0.00000000E+00
	 0.00000000E+00	 4.64852000E-13	 0.00000000E+00
	 0.00000000E+00	 0.00000000E+00	 4.64852000E-13

	 4.64852000E-13	 0.00000000E+00	 0.00000000E+00
	 0.00000000E+00	 4.64852000E-13	 0.00000000E+00
	 0.00000000E+00	 0.00000000E+00	 4.64852000E-13

	 4.38289000E-13	 0.00000000E+00	 0.00000000E+00
	 0.00000000E+00	 4.38289000E-13	 0.00000000E+00
	 0.00000000E+00	 0.00000000E+00	 4.38289000E-13

	 4.64852000E-13	 0.00000000E+00	 0.00000000E+00
	 0.00000000E+00	 4.64852000E-13	 0.00000000E+00
	 0.00000000E+00	 0.00000000E+00	 4.64852000E-13

	 4.38289000E-13	 0.00000000E+00	 0.00000000E+00
	 0.00000000E+00	 4.38289000E-13	 0.00000000E+00
	 0.00000000E+00	 0.00000000E+00	 4.38289000E-13

	 4.62638000E-13	 0.00000000E+00	 0.00000000E+00
	 0.00000000E+00	 4.62638000E-13	 0.00000000E+00
	 0.00000000E+00	 0.00000000E+00	 4.62638000E-13

	 4.64852000E-13	 0.00000000E+00	 0.00000000E+00
	 0.00000000E+00	 4.64852000E-13	 0.00000000E+00
	 0.00000000E+00	 0.00000000E+00	 4.64852000E-13

	 4.64852000E-13	 0.00000000E+00	 0.00000000E+00
	 0.00000000E+00	 4.64852000E-13	 0.00000000E+00
	 0.00000000E+00	 0.00000000E+00	 4.64852000E-13

	 4.64852000E-13	 0.00000000E+00	 0.00000000E+00
	 0.00000000E+00	 4.64852000E-13	 0.00000000E+00
	 0.00000000E+00	 0.00000000E+00	 4.64852000E-13

	 4.38289000E-13	 0.00000000E+00	 0.00000000E+00
	 0.00000000E+00	 4.38289000E-13	 0.00000000E+00
	 0.00000000E+00	 0.00000000E+00	 4.38289000E-13

	 4.64852000E-13	 0.00000000E+00	 0.00000000E+00
	 0.00000000E+00	 4.64852000E-13	 0.00000000E+00
	 0.00000000E+00	 0.00000000E+00	 4.64852000E-13

	 4.62638000E-13	 0.00000000E+00	 0.00000000E+00
	 0.00000000E+00	 4.62638000E-13	 0.00000000E+00
	 0.00000000E+00	 0.00000000E+00	 4.62638000E-13

	 4.58211000E-13	 0.00000000E+00	 0.00000000E+00
	 0.00000000E+00	 4.58211000E-13	 0.00000000E+00
	 0.00000000E+00	 0.00000000E+00	 4.58211000E-13

	 4.40502000E-13	 0.00000000E+00	 0.00000000E+00
	 0.00000000E+00	 4.40502000E-13	 0.00000000E+00
	 0.00000000E+00	 0.00000000E+00	 4.40502000E-13

	 4.40502000E-13	 0.00000000E+00	 0.00000000E+00
	 0.00000000E+00	 4.40502000E-13	 0.00000000E+00
	 0.00000000E+00	 0.00000000E+00	 4.40502000E-13

	 4.64852000E-13	 0.00000000E+00	 0.00000000E+00
	 0.00000000E+00	 4.64852000E-13	 0.00000000E+00
	 0.00000000E+00	 0.00000000E+00	 4.64852000E-13

	 4.64852000E-13	 0.00000000E+00	 0.00000000E+00
	 0.00000000E+00	 4.64852000E-13	 0.00000000E+00
	 0.00000000E+00	 0.00000000E+00	 4.64852000E-13

	 4.38289000E-13	 0.00000000E+00	 0.00000000E+00
	 0.00000000E+00	 4.38289000E-13	 0.00000000E+00
	 0.00000000E+00	 0.00000000E+00	 4.38289000E-13

	 4.38289000E-13	 0.00000000E+00	 0.00000000E+00
	 0.00000000E+00	 4.38289000E-13	 0.00000000E+00
	 0.00000000E+00	 0.00000000E+00	 4.38289000E-13

	 4.38289000E-13	 0.00000000E+00	 0.00000000E+00
	 0.00000000E+00	 4.38289000E-13	 0.00000000E+00
	 0.00000000E+00	 0.00000000E+00	 4.38289000E-13

	 4.64852000E-13	 0.00000000E+00	 0.00000000E+00
	 0.00000000E+00	 4.64852000E-13	 0.00000000E+00
	 0.00000000E+00	 0.00000000E+00	 4.64852000E-13

	 4.64852000E-13	 0.00000000E+00	 0.00000000E+00
	 0.00000000E+00	 4.64852000E-13	 0.00000000E+00
	 0.00000000E+00	 0.00000000E+00	 4.64852000E-13

	 4.64852000E-13	 0.00000000E+00	 0.00000000E+00
	 0.00000000E+00	 4.64852000E-13	 0.00000000E+00
	 0.00000000E+00	 0.00000000E+00	 4.64852000E-13

	 4.70164000E-13	 0.00000000E+00	 0.00000000E+00
	 0.00000000E+00	 4.70164000E-13	 0.00000000E+00
	 0.00000000E+00	 0.00000000E+00	 4.70164000E-13

	 4.64852000E-13	 0.00000000E+00	 0.00000000E+00
	 0.00000000E+00	 4.64852000E-13	 0.00000000E+00
	 0.00000000E+00	 0.00000000E+00	 4.64852000E-13

	 4.64852000E-13	 0.00000000E+00	 0.00000000E+00
	 0.00000000E+00	 4.64852000E-13	 0.00000000E+00
	 0.00000000E+00	 0.00000000E+00	 4.64852000E-13

	 4.38289000E-13	 0.00000000E+00	 0.00000000E+00
	 0.00000000E+00	 4.38289000E-13	 0.00000000E+00
	 0.00000000E+00	 0.00000000E+00	 4.38289000E-13

	 4.38289000E-13	 0.00000000E+00	 0.00000000E+00
	 0.00000000E+00	 4.38289000E-13	 0.00000000E+00
	 0.00000000E+00	 0.00000000E+00	 4.38289000E-13

	 4.40945000E-13	 0.00000000E+00	 0.00000000E+00
	 0.00000000E+00	 4.40945000E-13	 0.00000000E+00
	 0.00000000E+00	 0.00000000E+00	 4.40945000E-13

	 4.38289000E-13	 0.00000000E+00	 0.00000000E+00
	 0.00000000E+00	 4.38289000E-13	 0.00000000E+00
	 0.00000000E+00	 0.00000000E+00	 4.38289000E-13

	 4.64852000E-13	 0.00000000E+00	 0.00000000E+00
	 0.00000000E+00	 4.64852000E-13	 0.00000000E+00
	 0.00000000E+00	 0.00000000E+00	 4.64852000E-13

	 4.64852000E-13	 0.00000000E+00	 0.00000000E+00
	 0.00000000E+00	 4.64852000E-13	 0.00000000E+00
	 0.00000000E+00	 0.00000000E+00	 4.64852000E-13

	 4.59539000E-13	 0.00000000E+00	 0.00000000E+00
	 0.00000000E+00	 4.59539000E-13	 0.00000000E+00
	 0.00000000E+00	 0.00000000E+00	 4.59539000E-13

	 4.40945000E-13	 0.00000000E+00	 0.00000000E+00
	 0.00000000E+00	 4.40945000E-13	 0.00000000E+00
	 0.00000000E+00	 0.00000000E+00	 4.40945000E-13

	 4.38289000E-13	 0.00000000E+00	 0.00000000E+00
	 0.00000000E+00	 4.38289000E-13	 0.00000000E+00
	 0.00000000E+00	 0.00000000E+00	 4.38289000E-13

	 4.64852000E-13	 0.00000000E+00	 0.00000000E+00
	 0.00000000E+00	 4.64852000E-13	 0.00000000E+00
	 0.00000000E+00	 0.00000000E+00	 4.64852000E-13

	 4.64852000E-13	 0.00000000E+00	 0.00000000E+00
	 0.00000000E+00	 4.64852000E-13	 0.00000000E+00
	 0.00000000E+00	 0.00000000E+00	 4.64852000E-13

	 4.38289000E-13	 0.00000000E+00	 0.00000000E+00
	 0.00000000E+00	 4.38289000E-13	 0.00000000E+00
	 0.00000000E+00	 0.00000000E+00	 4.38289000E-13

	 4.64852000E-13	 0.00000000E+00	 0.00000000E+00
	 0.00000000E+00	 4.64852000E-13	 0.00000000E+00
	 0.00000000E+00	 0.00000000E+00	 4.64852000E-13

	 4.38289000E-13	 0.00000000E+00	 0.00000000E+00
	 0.00000000E+00	 4.38289000E-13	 0.00000000E+00
	 0.00000000E+00	 0.00000000E+00	 4.38289000E-13

	 4.40945000E-13	 0.00000000E+00	 0.00000000E+00
	 0.00000000E+00	 4.40945000E-13	 0.00000000E+00
	 0.00000000E+00	 0.00000000E+00	 4.40945000E-13

	 4.64852000E-13	 0.00000000E+00	 0.00000000E+00
	 0.00000000E+00	 4.64852000E-13	 0.00000000E+00
	 0.00000000E+00	 0.00000000E+00	 4.64852000E-13

	 4.38289000E-13	 0.00000000E+00	 0.00000000E+00
	 0.00000000E+00	 4.38289000E-13	 0.00000000E+00
	 0.00000000E+00	 0.00000000E+00	 4.38289000E-13

	 4.43601000E-13	 0.00000000E+00	 0.00000000E+00
	 0.00000000E+00	 4.43601000E-13	 0.00000000E+00
	 0.00000000E+00	 0.00000000E+00	 4.43601000E-13

	 4.43601000E-13	 0.00000000E+00	 0.00000000E+00
	 0.00000000E+00	 4.43601000E-13	 0.00000000E+00
	 0.00000000E+00	 0.00000000E+00	 4.43601000E-13

	 4.51570000E-13	 0.00000000E+00	 0.00000000E+00
	 0.00000000E+00	 4.51570000E-13	 0.00000000E+00
	 0.00000000E+00	 0.00000000E+00	 4.51570000E-13

	 4.47143000E-13	 0.00000000E+00	 0.00000000E+00
	 0.00000000E+00	 4.47143000E-13	 0.00000000E+00
	 0.00000000E+00	 0.00000000E+00	 4.47143000E-13

	 4.40502000E-13	 0.00000000E+00	 0.00000000E+00
	 0.00000000E+00	 4.40502000E-13	 0.00000000E+00
	 0.00000000E+00	 0.00000000E+00	 4.40502000E-13

	 4.64852000E-13	 0.00000000E+00	 0.00000000E+00
	 0.00000000E+00	 4.64852000E-13	 0.00000000E+00
	 0.00000000E+00	 0.00000000E+00	 4.64852000E-13

	 4.38289000E-13	 0.00000000E+00	 0.00000000E+00
	 0.00000000E+00	 4.38289000E-13	 0.00000000E+00
	 0.00000000E+00	 0.00000000E+00	 4.38289000E-13

	 4.64852000E-13	 0.00000000E+00	 0.00000000E+00
	 0.00000000E+00	 4.64852000E-13	 0.00000000E+00
	 0.00000000E+00	 0.00000000E+00	 4.64852000E-13

	 4.40502000E-13	 0.00000000E+00	 0.00000000E+00
	 0.00000000E+00	 4.40502000E-13	 0.00000000E+00
	 0.00000000E+00	 0.00000000E+00	 4.40502000E-13

	 4.38289000E-13	 0.00000000E+00	 0.00000000E+00
	 0.00000000E+00	 4.38289000E-13	 0.00000000E+00
	 0.00000000E+00	 0.00000000E+00	 4.38289000E-13

	 4.46258000E-13	 0.00000000E+00	 0.00000000E+00
	 0.00000000E+00	 4.46258000E-13	 0.00000000E+00
	 0.00000000E+00	 0.00000000E+00	 4.46258000E-13

	 4.62195000E-13	 0.00000000E+00	 0.00000000E+00
	 0.00000000E+00	 4.62195000E-13	 0.00000000E+00
	 0.00000000E+00	 0.00000000E+00	 4.62195000E-13

	 4.42716000E-13	 0.00000000E+00	 0.00000000E+00
	 0.00000000E+00	 4.42716000E-13	 0.00000000E+00
	 0.00000000E+00	 0.00000000E+00	 4.42716000E-13

	 4.38289000E-13	 0.00000000E+00	 0.00000000E+00
	 0.00000000E+00	 4.38289000E-13	 0.00000000E+00
	 0.00000000E+00	 0.00000000E+00	 4.38289000E-13

	 4.64852000E-13	 0.00000000E+00	 0.00000000E+00
	 0.00000000E+00	 4.64852000E-13	 0.00000000E+00
	 0.00000000E+00	 0.00000000E+00	 4.64852000E-13

	 4.64852000E-13	 0.00000000E+00	 0.00000000E+00
	 0.00000000E+00	 4.64852000E-13	 0.00000000E+00
	 0.00000000E+00	 0.00000000E+00	 4.64852000E-13

	 4.64852000E-13	 0.00000000E+00	 0.00000000E+00
	 0.00000000E+00	 4.64852000E-13	 0.00000000E+00
	 0.00000000E+00	 0.00000000E+00	 4.64852000E-13

	 4.48914000E-13	 0.00000000E+00	 0.00000000E+00
	 0.00000000E+00	 4.48914000E-13	 0.00000000E+00
	 0.00000000E+00	 0.00000000E+00	 4.48914000E-13

	 4.40945000E-13	 0.00000000E+00	 0.00000000E+00
	 0.00000000E+00	 4.40945000E-13	 0.00000000E+00
	 0.00000000E+00	 0.00000000E+00	 4.40945000E-13

	 4.38289000E-13	 0.00000000E+00	 0.00000000E+00
	 0.00000000E+00	 4.38289000E-13	 0.00000000E+00
	 0.00000000E+00	 0.00000000E+00	 4.38289000E-13

	 4.62195000E-13	 0.00000000E+00	 0.00000000E+00
	 0.00000000E+00	 4.62195000E-13	 0.00000000E+00
	 0.00000000E+00	 0.00000000E+00	 4.62195000E-13

	 4.59539000E-13	 0.00000000E+00	 0.00000000E+00
	 0.00000000E+00	 4.59539000E-13	 0.00000000E+00
	 0.00000000E+00	 0.00000000E+00	 4.59539000E-13

	 4.38289000E-13	 0.00000000E+00	 0.00000000E+00
	 0.00000000E+00	 4.38289000E-13	 0.00000000E+00
	 0.00000000E+00	 0.00000000E+00	 4.38289000E-13

	 4.62195000E-13	 0.00000000E+00	 0.00000000E+00
	 0.00000000E+00	 4.62195000E-13	 0.00000000E+00
	 0.00000000E+00	 0.00000000E+00	 4.62195000E-13

	 4.42716000E-13	 0.00000000E+00	 0.00000000E+00
	 0.00000000E+00	 4.42716000E-13	 0.00000000E+00
	 0.00000000E+00	 0.00000000E+00	 4.42716000E-13

	 4.64852000E-13	 0.00000000E+00	 0.00000000E+00
	 0.00000000E+00	 4.64852000E-13	 0.00000000E+00
	 0.00000000E+00	 0.00000000E+00	 4.64852000E-13

	 4.38289000E-13	 0.00000000E+00	 0.00000000E+00
	 0.00000000E+00	 4.38289000E-13	 0.00000000E+00
	 0.00000000E+00	 0.00000000E+00	 4.38289000E-13

	 4.60425000E-13	 0.00000000E+00	 0.00000000E+00
	 0.00000000E+00	 4.60425000E-13	 0.00000000E+00
	 0.00000000E+00	 0.00000000E+00	 4.60425000E-13

	 4.38289000E-13	 0.00000000E+00	 0.00000000E+00
	 0.00000000E+00	 4.38289000E-13	 0.00000000E+00
	 0.00000000E+00	 0.00000000E+00	 4.38289000E-13

	 4.59539000E-13	 0.00000000E+00	 0.00000000E+00
	 0.00000000E+00	 4.59539000E-13	 0.00000000E+00
	 0.00000000E+00	 0.00000000E+00	 4.59539000E-13

	 4.48914000E-13	 0.00000000E+00	 0.00000000E+00
	 0.00000000E+00	 4.48914000E-13	 0.00000000E+00
	 0.00000000E+00	 0.00000000E+00	 4.48914000E-13

	 4.64852000E-13	 0.00000000E+00	 0.00000000E+00
	 0.00000000E+00	 4.64852000E-13	 0.00000000E+00
	 0.00000000E+00	 0.00000000E+00	 4.64852000E-13

	 4.64852000E-13	 0.00000000E+00	 0.00000000E+00
	 0.00000000E+00	 4.64852000E-13	 0.00000000E+00
	 0.00000000E+00	 0.00000000E+00	 4.64852000E-13

	 4.64852000E-13	 0.00000000E+00	 0.00000000E+00
	 0.00000000E+00	 4.64852000E-13	 0.00000000E+00
	 0.00000000E+00	 0.00000000E+00	 4.64852000E-13

	 4.64852000E-13	 0.00000000E+00	 0.00000000E+00
	 0.00000000E+00	 4.64852000E-13	 0.00000000E+00
	 0.00000000E+00	 0.00000000E+00	 4.64852000E-13

	 4.38289000E-13	 0.00000000E+00	 0.00000000E+00
	 0.00000000E+00	 4.38289000E-13	 0.00000000E+00
	 0.00000000E+00	 0.00000000E+00	 4.38289000E-13

	 4.38289000E-13	 0.00000000E+00	 0.00000000E+00
	 0.00000000E+00	 4.38289000E-13	 0.00000000E+00
	 0.00000000E+00	 0.00000000E+00	 4.38289000E-13

	 4.64852000E-13	 0.00000000E+00	 0.00000000E+00
	 0.00000000E+00	 4.64852000E-13	 0.00000000E+00
	 0.00000000E+00	 0.00000000E+00	 4.64852000E-13

	 4.59539000E-13	 0.00000000E+00	 0.00000000E+00
	 0.00000000E+00	 4.59539000E-13	 0.00000000E+00
	 0.00000000E+00	 0.00000000E+00	 4.59539000E-13

	 4.64852000E-13	 0.00000000E+00	 0.00000000E+00
	 0.00000000E+00	 4.64852000E-13	 0.00000000E+00
	 0.00000000E+00	 0.00000000E+00	 4.64852000E-13

	 4.64852000E-13	 0.00000000E+00	 0.00000000E+00
	 0.00000000E+00	 4.64852000E-13	 0.00000000E+00
	 0.00000000E+00	 0.00000000E+00	 4.64852000E-13

	 4.38289000E-13	 0.00000000E+00	 0.00000000E+00
	 0.00000000E+00	 4.38289000E-13	 0.00000000E+00
	 0.00000000E+00	 0.00000000E+00	 4.38289000E-13

	 4.38289000E-13	 0.00000000E+00	 0.00000000E+00
	 0.00000000E+00	 4.38289000E-13	 0.00000000E+00
	 0.00000000E+00	 0.00000000E+00	 4.38289000E-13

	 4.64852000E-13	 0.00000000E+00	 0.00000000E+00
	 0.00000000E+00	 4.64852000E-13	 0.00000000E+00
	 0.00000000E+00	 0.00000000E+00	 4.64852000E-13

	 4.62195000E-13	 0.00000000E+00	 0.00000000E+00
	 0.00000000E+00	 4.62195000E-13	 0.00000000E+00
	 0.00000000E+00	 0.00000000E+00	 4.62195000E-13

	 4.40502000E-13	 0.00000000E+00	 0.00000000E+00
	 0.00000000E+00	 4.40502000E-13	 0.00000000E+00
	 0.00000000E+00	 0.00000000E+00	 4.40502000E-13

	 4.38289000E-13	 0.00000000E+00	 0.00000000E+00
	 0.00000000E+00	 4.38289000E-13	 0.00000000E+00
	 0.00000000E+00	 0.00000000E+00	 4.38289000E-13

	 4.64852000E-13	 0.00000000E+00	 0.00000000E+00
	 0.00000000E+00	 4.64852000E-13	 0.00000000E+00
	 0.00000000E+00	 0.00000000E+00	 4.64852000E-13

	 4.64852000E-13	 0.00000000E+00	 0.00000000E+00
	 0.00000000E+00	 4.64852000E-13	 0.00000000E+00
	 0.00000000E+00	 0.00000000E+00	 4.64852000E-13

	 4.38289000E-13	 0.00000000E+00	 0.00000000E+00
	 0.00000000E+00	 4.38289000E-13	 0.00000000E+00
	 0.00000000E+00	 0.00000000E+00	 4.38289000E-13

	 4.43601000E-13	 0.00000000E+00	 0.00000000E+00
	 0.00000000E+00	 4.43601000E-13	 0.00000000E+00
	 0.00000000E+00	 0.00000000E+00	 4.43601000E-13

	 4.62638000E-13	 0.00000000E+00	 0.00000000E+00
	 0.00000000E+00	 4.62638000E-13	 0.00000000E+00
	 0.00000000E+00	 0.00000000E+00	 4.62638000E-13

	 4.43601000E-13	 0.00000000E+00	 0.00000000E+00
	 0.00000000E+00	 4.43601000E-13	 0.00000000E+00
	 0.00000000E+00	 0.00000000E+00	 4.43601000E-13

	 4.38289000E-13	 0.00000000E+00	 0.00000000E+00
	 0.00000000E+00	 4.38289000E-13	 0.00000000E+00
	 0.00000000E+00	 0.00000000E+00	 4.38289000E-13

	 4.38289000E-13	 0.00000000E+00	 0.00000000E+00
	 0.00000000E+00	 4.38289000E-13	 0.00000000E+00
	 0.00000000E+00	 0.00000000E+00	 4.38289000E-13

	 4.38289000E-13	 0.00000000E+00	 0.00000000E+00
	 0.00000000E+00	 4.38289000E-13	 0.00000000E+00
	 0.00000000E+00	 0.00000000E+00	 4.38289000E-13

	 4.64852000E-13	 0.00000000E+00	 0.00000000E+00
	 0.00000000E+00	 4.64852000E-13	 0.00000000E+00
	 0.00000000E+00	 0.00000000E+00	 4.64852000E-13

	 4.64852000E-13	 0.00000000E+00	 0.00000000E+00
	 0.00000000E+00	 4.64852000E-13	 0.00000000E+00
	 0.00000000E+00	 0.00000000E+00	 4.64852000E-13

	 4.64852000E-13	 0.00000000E+00	 0.00000000E+00
	 0.00000000E+00	 4.64852000E-13	 0.00000000E+00
	 0.00000000E+00	 0.00000000E+00	 4.64852000E-13

	 4.64852000E-13	 0.00000000E+00	 0.00000000E+00
	 0.00000000E+00	 4.64852000E-13	 0.00000000E+00
	 0.00000000E+00	 0.00000000E+00	 4.64852000E-13

	 4.38289000E-13	 0.00000000E+00	 0.00000000E+00
	 0.00000000E+00	 4.38289000E-13	 0.00000000E+00
	 0.00000000E+00	 0.00000000E+00	 4.38289000E-13

	 4.46258000E-13	 0.00000000E+00	 0.00000000E+00
	 0.00000000E+00	 4.46258000E-13	 0.00000000E+00
	 0.00000000E+00	 0.00000000E+00	 4.46258000E-13

	 4.64852000E-13	 0.00000000E+00	 0.00000000E+00
	 0.00000000E+00	 4.64852000E-13	 0.00000000E+00
	 0.00000000E+00	 0.00000000E+00	 4.64852000E-13

	 4.38289000E-13	 0.00000000E+00	 0.00000000E+00
	 0.00000000E+00	 4.38289000E-13	 0.00000000E+00
	 0.00000000E+00	 0.00000000E+00	 4.38289000E-13

	 4.40945000E-13	 0.00000000E+00	 0.00000000E+00
	 0.00000000E+00	 4.40945000E-13	 0.00000000E+00
	 0.00000000E+00	 0.00000000E+00	 4.40945000E-13

	 4.38289000E-13	 0.00000000E+00	 0.00000000E+00
	 0.00000000E+00	 4.38289000E-13	 0.00000000E+00
	 0.00000000E+00	 0.00000000E+00	 4.38289000E-13

	 4.38289000E-13	 0.00000000E+00	 0.00000000E+00
	 0.00000000E+00	 4.38289000E-13	 0.00000000E+00
	 0.00000000E+00	 0.00000000E+00	 4.38289000E-13

	 4.38289000E-13	 0.00000000E+00	 0.00000000E+00
	 0.00000000E+00	 4.38289000E-13	 0.00000000E+00
	 0.00000000E+00	 0.00000000E+00	 4.38289000E-13

	 4.64852000E-13	 0.00000000E+00	 0.00000000E+00
	 0.00000000E+00	 4.64852000E-13	 0.00000000E+00
	 0.00000000E+00	 0.00000000E+00	 4.64852000E-13

	 4.64852000E-13	 0.00000000E+00	 0.00000000E+00
	 0.00000000E+00	 4.64852000E-13	 0.00000000E+00
	 0.00000000E+00	 0.00000000E+00	 4.64852000E-13

	 4.59539000E-13	 0.00000000E+00	 0.00000000E+00
	 0.00000000E+00	 4.59539000E-13	 0.00000000E+00
	 0.00000000E+00	 0.00000000E+00	 4.59539000E-13

	 4.62195000E-13	 0.00000000E+00	 0.00000000E+00
	 0.00000000E+00	 4.62195000E-13	 0.00000000E+00
	 0.00000000E+00	 0.00000000E+00	 4.62195000E-13

	 4.64852000E-13	 0.00000000E+00	 0.00000000E+00
	 0.00000000E+00	 4.64852000E-13	 0.00000000E+00
	 0.00000000E+00	 0.00000000E+00	 4.64852000E-13

	 4.38289000E-13	 0.00000000E+00	 0.00000000E+00
	 0.00000000E+00	 4.38289000E-13	 0.00000000E+00
	 0.00000000E+00	 0.00000000E+00	 4.38289000E-13

	 4.64852000E-13	 0.00000000E+00	 0.00000000E+00
	 0.00000000E+00	 4.64852000E-13	 0.00000000E+00
	 0.00000000E+00	 0.00000000E+00	 4.64852000E-13

	 4.64852000E-13	 0.00000000E+00	 0.00000000E+00
	 0.00000000E+00	 4.64852000E-13	 0.00000000E+00
	 0.00000000E+00	 0.00000000E+00	 4.64852000E-13

	 4.64852000E-13	 0.00000000E+00	 0.00000000E+00
	 0.00000000E+00	 4.64852000E-13	 0.00000000E+00
	 0.00000000E+00	 0.00000000E+00	 4.64852000E-13

	 4.38289000E-13	 0.00000000E+00	 0.00000000E+00
	 0.00000000E+00	 4.38289000E-13	 0.00000000E+00
	 0.00000000E+00	 0.00000000E+00	 4.38289000E-13

	 4.40502000E-13	 0.00000000E+00	 0.00000000E+00
	 0.00000000E+00	 4.40502000E-13	 0.00000000E+00
	 0.00000000E+00	 0.00000000E+00	 4.40502000E-13

	 4.38289000E-13	 0.00000000E+00	 0.00000000E+00
	 0.00000000E+00	 4.38289000E-13	 0.00000000E+00
	 0.00000000E+00	 0.00000000E+00	 4.38289000E-13

	 4.64852000E-13	 0.00000000E+00	 0.00000000E+00
	 0.00000000E+00	 4.64852000E-13	 0.00000000E+00
	 0.00000000E+00	 0.00000000E+00	 4.64852000E-13

	 4.64852000E-13	 0.00000000E+00	 0.00000000E+00
	 0.00000000E+00	 4.64852000E-13	 0.00000000E+00
	 0.00000000E+00	 0.00000000E+00	 4.64852000E-13

	 4.64852000E-13	 0.00000000E+00	 0.00000000E+00
	 0.00000000E+00	 4.64852000E-13	 0.00000000E+00
	 0.00000000E+00	 0.00000000E+00	 4.64852000E-13

	 4.64852000E-13	 0.00000000E+00	 0.00000000E+00
	 0.00000000E+00	 4.64852000E-13	 0.00000000E+00
	 0.00000000E+00	 0.00000000E+00	 4.64852000E-13

	 4.64852000E-13	 0.00000000E+00	 0.00000000E+00
	 0.00000000E+00	 4.64852000E-13	 0.00000000E+00
	 0.00000000E+00	 0.00000000E+00	 4.64852000E-13

	 4.38289000E-13	 0.00000000E+00	 0.00000000E+00
	 0.00000000E+00	 4.38289000E-13	 0.00000000E+00
	 0.00000000E+00	 0.00000000E+00	 4.38289000E-13

	 4.38289000E-13	 0.00000000E+00	 0.00000000E+00
	 0.00000000E+00	 4.38289000E-13	 0.00000000E+00
	 0.00000000E+00	 0.00000000E+00	 4.38289000E-13

	 4.64852000E-13	 0.00000000E+00	 0.00000000E+00
	 0.00000000E+00	 4.64852000E-13	 0.00000000E+00
	 0.00000000E+00	 0.00000000E+00	 4.64852000E-13

	 4.48914000E-13	 0.00000000E+00	 0.00000000E+00
	 0.00000000E+00	 4.48914000E-13	 0.00000000E+00
	 0.00000000E+00	 0.00000000E+00	 4.48914000E-13

	 4.64852000E-13	 0.00000000E+00	 0.00000000E+00
	 0.00000000E+00	 4.64852000E-13	 0.00000000E+00
	 0.00000000E+00	 0.00000000E+00	 4.64852000E-13

	 4.64852000E-13	 0.00000000E+00	 0.00000000E+00
	 0.00000000E+00	 4.64852000E-13	 0.00000000E+00
	 0.00000000E+00	 0.00000000E+00	 4.64852000E-13

	 4.38289000E-13	 0.00000000E+00	 0.00000000E+00
	 0.00000000E+00	 4.38289000E-13	 0.00000000E+00
	 0.00000000E+00	 0.00000000E+00	 4.38289000E-13

	 4.64852000E-13	 0.00000000E+00	 0.00000000E+00
	 0.00000000E+00	 4.64852000E-13	 0.00000000E+00
	 0.00000000E+00	 0.00000000E+00	 4.64852000E-13

	 4.38289000E-13	 0.00000000E+00	 0.00000000E+00
	 0.00000000E+00	 4.38289000E-13	 0.00000000E+00
	 0.00000000E+00	 0.00000000E+00	 4.38289000E-13

	 4.64852000E-13	 0.00000000E+00	 0.00000000E+00
	 0.00000000E+00	 4.64852000E-13	 0.00000000E+00
	 0.00000000E+00	 0.00000000E+00	 4.64852000E-13

	 4.64852000E-13	 0.00000000E+00	 0.00000000E+00
	 0.00000000E+00	 4.64852000E-13	 0.00000000E+00
	 0.00000000E+00	 0.00000000E+00	 4.64852000E-13

	 4.56883000E-13	 0.00000000E+00	 0.00000000E+00
	 0.00000000E+00	 4.56883000E-13	 0.00000000E+00
	 0.00000000E+00	 0.00000000E+00	 4.56883000E-13

	 4.38289000E-13	 0.00000000E+00	 0.00000000E+00
	 0.00000000E+00	 4.38289000E-13	 0.00000000E+00
	 0.00000000E+00	 0.00000000E+00	 4.38289000E-13

	 4.64852000E-13	 0.00000000E+00	 0.00000000E+00
	 0.00000000E+00	 4.64852000E-13	 0.00000000E+00
	 0.00000000E+00	 0.00000000E+00	 4.64852000E-13

	 4.38289000E-13	 0.00000000E+00	 0.00000000E+00
	 0.00000000E+00	 4.38289000E-13	 0.00000000E+00
	 0.00000000E+00	 0.00000000E+00	 4.38289000E-13

	 4.64852000E-13	 0.00000000E+00	 0.00000000E+00
	 0.00000000E+00	 4.64852000E-13	 0.00000000E+00
	 0.00000000E+00	 0.00000000E+00	 4.64852000E-13

	 4.38289000E-13	 0.00000000E+00	 0.00000000E+00
	 0.00000000E+00	 4.38289000E-13	 0.00000000E+00
	 0.00000000E+00	 0.00000000E+00	 4.38289000E-13

	 4.64852000E-13	 0.00000000E+00	 0.00000000E+00
	 0.00000000E+00	 4.64852000E-13	 0.00000000E+00
	 0.00000000E+00	 0.00000000E+00	 4.64852000E-13

	 4.64852000E-13	 0.00000000E+00	 0.00000000E+00
	 0.00000000E+00	 4.64852000E-13	 0.00000000E+00
	 0.00000000E+00	 0.00000000E+00	 4.64852000E-13

	 4.62195000E-13	 0.00000000E+00	 0.00000000E+00
	 0.00000000E+00	 4.62195000E-13	 0.00000000E+00
	 0.00000000E+00	 0.00000000E+00	 4.62195000E-13

	 4.56883000E-13	 0.00000000E+00	 0.00000000E+00
	 0.00000000E+00	 4.56883000E-13	 0.00000000E+00
	 0.00000000E+00	 0.00000000E+00	 4.56883000E-13

	 4.38289000E-13	 0.00000000E+00	 0.00000000E+00
	 0.00000000E+00	 4.38289000E-13	 0.00000000E+00
	 0.00000000E+00	 0.00000000E+00	 4.38289000E-13

	 4.64852000E-13	 0.00000000E+00	 0.00000000E+00
	 0.00000000E+00	 4.64852000E-13	 0.00000000E+00
	 0.00000000E+00	 0.00000000E+00	 4.64852000E-13

	 4.38289000E-13	 0.00000000E+00	 0.00000000E+00
	 0.00000000E+00	 4.38289000E-13	 0.00000000E+00
	 0.00000000E+00	 0.00000000E+00	 4.38289000E-13

	 4.55997000E-13	 0.00000000E+00	 0.00000000E+00
	 0.00000000E+00	 4.55997000E-13	 0.00000000E+00
	 0.00000000E+00	 0.00000000E+00	 4.55997000E-13

	 4.38289000E-13	 0.00000000E+00	 0.00000000E+00
	 0.00000000E+00	 4.38289000E-13	 0.00000000E+00
	 0.00000000E+00	 0.00000000E+00	 4.38289000E-13

	 4.38289000E-13	 0.00000000E+00	 0.00000000E+00
	 0.00000000E+00	 4.38289000E-13	 0.00000000E+00
	 0.00000000E+00	 0.00000000E+00	 4.38289000E-13

	 4.64852000E-13	 0.00000000E+00	 0.00000000E+00
	 0.00000000E+00	 4.64852000E-13	 0.00000000E+00
	 0.00000000E+00	 0.00000000E+00	 4.64852000E-13

	 4.64852000E-13	 0.00000000E+00	 0.00000000E+00
	 0.00000000E+00	 4.64852000E-13	 0.00000000E+00
	 0.00000000E+00	 0.00000000E+00	 4.64852000E-13

	 4.40502000E-13	 0.00000000E+00	 0.00000000E+00
	 0.00000000E+00	 4.40502000E-13	 0.00000000E+00
	 0.00000000E+00	 0.00000000E+00	 4.40502000E-13

	 4.64852000E-13	 0.00000000E+00	 0.00000000E+00
	 0.00000000E+00	 4.64852000E-13	 0.00000000E+00
	 0.00000000E+00	 0.00000000E+00	 4.64852000E-13

	 4.59539000E-13	 0.00000000E+00	 0.00000000E+00
	 0.00000000E+00	 4.59539000E-13	 0.00000000E+00
	 0.00000000E+00	 0.00000000E+00	 4.59539000E-13

	 4.38289000E-13	 0.00000000E+00	 0.00000000E+00
	 0.00000000E+00	 4.38289000E-13	 0.00000000E+00
	 0.00000000E+00	 0.00000000E+00	 4.38289000E-13

	 4.38289000E-13	 0.00000000E+00	 0.00000000E+00
	 0.00000000E+00	 4.38289000E-13	 0.00000000E+00
	 0.00000000E+00	 0.00000000E+00	 4.38289000E-13

	 4.62195000E-13	 0.00000000E+00	 0.00000000E+00
	 0.00000000E+00	 4.62195000E-13	 0.00000000E+00
	 0.00000000E+00	 0.00000000E+00	 4.62195000E-13

	 4.38289000E-13	 0.00000000E+00	 0.00000000E+00
	 0.00000000E+00	 4.38289000E-13	 0.00000000E+00
	 0.00000000E+00	 0.00000000E+00	 4.38289000E-13

	 4.38289000E-13	 0.00000000E+00	 0.00000000E+00
	 0.00000000E+00	 4.38289000E-13	 0.00000000E+00
	 0.00000000E+00	 0.00000000E+00	 4.38289000E-13

	 4.64852000E-13	 0.00000000E+00	 0.00000000E+00
	 0.00000000E+00	 4.64852000E-13	 0.00000000E+00
	 0.00000000E+00	 0.00000000E+00	 4.64852000E-13

	 4.64852000E-13	 0.00000000E+00	 0.00000000E+00
	 0.00000000E+00	 4.64852000E-13	 0.00000000E+00
	 0.00000000E+00	 0.00000000E+00	 4.64852000E-13

	 4.64852000E-13	 0.00000000E+00	 0.00000000E+00
	 0.00000000E+00	 4.64852000E-13	 0.00000000E+00
	 0.00000000E+00	 0.00000000E+00	 4.64852000E-13

	 4.64852000E-13	 0.00000000E+00	 0.00000000E+00
	 0.00000000E+00	 4.64852000E-13	 0.00000000E+00
	 0.00000000E+00	 0.00000000E+00	 4.64852000E-13

	 4.38289000E-13	 0.00000000E+00	 0.00000000E+00
	 0.00000000E+00	 4.38289000E-13	 0.00000000E+00
	 0.00000000E+00	 0.00000000E+00	 4.38289000E-13

	 4.64852000E-13	 0.00000000E+00	 0.00000000E+00
	 0.00000000E+00	 4.64852000E-13	 0.00000000E+00
	 0.00000000E+00	 0.00000000E+00	 4.64852000E-13

	 4.64852000E-13	 0.00000000E+00	 0.00000000E+00
	 0.00000000E+00	 4.64852000E-13	 0.00000000E+00
	 0.00000000E+00	 0.00000000E+00	 4.64852000E-13

	 4.56883000E-13	 0.00000000E+00	 0.00000000E+00
	 0.00000000E+00	 4.56883000E-13	 0.00000000E+00
	 0.00000000E+00	 0.00000000E+00	 4.56883000E-13

	 4.64852000E-13	 0.00000000E+00	 0.00000000E+00
	 0.00000000E+00	 4.64852000E-13	 0.00000000E+00
	 0.00000000E+00	 0.00000000E+00	 4.64852000E-13

	 4.38289000E-13	 0.00000000E+00	 0.00000000E+00
	 0.00000000E+00	 4.38289000E-13	 0.00000000E+00
	 0.00000000E+00	 0.00000000E+00	 4.38289000E-13

	 4.64852000E-13	 0.00000000E+00	 0.00000000E+00
	 0.00000000E+00	 4.64852000E-13	 0.00000000E+00
	 0.00000000E+00	 0.00000000E+00	 4.64852000E-13

	 4.38289000E-13	 0.00000000E+00	 0.00000000E+00
	 0.00000000E+00	 4.38289000E-13	 0.00000000E+00
	 0.00000000E+00	 0.00000000E+00	 4.38289000E-13

	 4.64852000E-13	 0.00000000E+00	 0.00000000E+00
	 0.00000000E+00	 4.64852000E-13	 0.00000000E+00
	 0.00000000E+00	 0.00000000E+00	 4.64852000E-13

	 4.62195000E-13	 0.00000000E+00	 0.00000000E+00
	 0.00000000E+00	 4.62195000E-13	 0.00000000E+00
	 0.00000000E+00	 0.00000000E+00	 4.62195000E-13

	 4.42716000E-13	 0.00000000E+00	 0.00000000E+00
	 0.00000000E+00	 4.42716000E-13	 0.00000000E+00
	 0.00000000E+00	 0.00000000E+00	 4.42716000E-13

	 4.64852000E-13	 0.00000000E+00	 0.00000000E+00
	 0.00000000E+00	 4.64852000E-13	 0.00000000E+00
	 0.00000000E+00	 0.00000000E+00	 4.64852000E-13

	 4.64852000E-13	 0.00000000E+00	 0.00000000E+00
	 0.00000000E+00	 4.64852000E-13	 0.00000000E+00
	 0.00000000E+00	 0.00000000E+00	 4.64852000E-13

	 4.38289000E-13	 0.00000000E+00	 0.00000000E+00
	 0.00000000E+00	 4.38289000E-13	 0.00000000E+00
	 0.00000000E+00	 0.00000000E+00	 4.38289000E-13

	 4.38289000E-13	 0.00000000E+00	 0.00000000E+00
	 0.00000000E+00	 4.38289000E-13	 0.00000000E+00
	 0.00000000E+00	 0.00000000E+00	 4.38289000E-13

	 4.38289000E-13	 0.00000000E+00	 0.00000000E+00
	 0.00000000E+00	 4.38289000E-13	 0.00000000E+00
	 0.00000000E+00	 0.00000000E+00	 4.38289000E-13

	 4.64852000E-13	 0.00000000E+00	 0.00000000E+00
	 0.00000000E+00	 4.64852000E-13	 0.00000000E+00
	 0.00000000E+00	 0.00000000E+00	 4.64852000E-13

	 4.64852000E-13	 0.00000000E+00	 0.00000000E+00
	 0.00000000E+00	 4.64852000E-13	 0.00000000E+00
	 0.00000000E+00	 0.00000000E+00	 4.64852000E-13

	 4.64852000E-13	 0.00000000E+00	 0.00000000E+00
	 0.00000000E+00	 4.64852000E-13	 0.00000000E+00
	 0.00000000E+00	 0.00000000E+00	 4.64852000E-13

	 4.46258000E-13	 0.00000000E+00	 0.00000000E+00
	 0.00000000E+00	 4.46258000E-13	 0.00000000E+00
	 0.00000000E+00	 0.00000000E+00	 4.46258000E-13

	 4.64852000E-13	 0.00000000E+00	 0.00000000E+00
	 0.00000000E+00	 4.64852000E-13	 0.00000000E+00
	 0.00000000E+00	 0.00000000E+00	 4.64852000E-13

	 4.40945000E-13	 0.00000000E+00	 0.00000000E+00
	 0.00000000E+00	 4.40945000E-13	 0.00000000E+00
	 0.00000000E+00	 0.00000000E+00	 4.40945000E-13

	 4.64852000E-13	 0.00000000E+00	 0.00000000E+00
	 0.00000000E+00	 4.64852000E-13	 0.00000000E+00
	 0.00000000E+00	 0.00000000E+00	 4.64852000E-13

	 4.43601000E-13	 0.00000000E+00	 0.00000000E+00
	 0.00000000E+00	 4.43601000E-13	 0.00000000E+00
	 0.00000000E+00	 0.00000000E+00	 4.43601000E-13

	 4.38289000E-13	 0.00000000E+00	 0.00000000E+00
	 0.00000000E+00	 4.38289000E-13	 0.00000000E+00
	 0.00000000E+00	 0.00000000E+00	 4.38289000E-13

	 4.62195000E-13	 0.00000000E+00	 0.00000000E+00
	 0.00000000E+00	 4.62195000E-13	 0.00000000E+00
	 0.00000000E+00	 0.00000000E+00	 4.62195000E-13

	 4.40945000E-13	 0.00000000E+00	 0.00000000E+00
	 0.00000000E+00	 4.40945000E-13	 0.00000000E+00
	 0.00000000E+00	 0.00000000E+00	 4.40945000E-13

	 4.64852000E-13	 0.00000000E+00	 0.00000000E+00
	 0.00000000E+00	 4.64852000E-13	 0.00000000E+00
	 0.00000000E+00	 0.00000000E+00	 4.64852000E-13

	 4.64852000E-13	 0.00000000E+00	 0.00000000E+00
	 0.00000000E+00	 4.64852000E-13	 0.00000000E+00
	 0.00000000E+00	 0.00000000E+00	 4.64852000E-13

	 4.38289000E-13	 0.00000000E+00	 0.00000000E+00
	 0.00000000E+00	 4.38289000E-13	 0.00000000E+00
	 0.00000000E+00	 0.00000000E+00	 4.38289000E-13

	 4.64852000E-13	 0.00000000E+00	 0.00000000E+00
	 0.00000000E+00	 4.64852000E-13	 0.00000000E+00
	 0.00000000E+00	 0.00000000E+00	 4.64852000E-13

	 4.46258000E-13	 0.00000000E+00	 0.00000000E+00
	 0.00000000E+00	 4.46258000E-13	 0.00000000E+00
	 0.00000000E+00	 0.00000000E+00	 4.46258000E-13

	 4.64852000E-13	 0.00000000E+00	 0.00000000E+00
	 0.00000000E+00	 4.64852000E-13	 0.00000000E+00
	 0.00000000E+00	 0.00000000E+00	 4.64852000E-13

	 4.64852000E-13	 0.00000000E+00	 0.00000000E+00
	 0.00000000E+00	 4.64852000E-13	 0.00000000E+00
	 0.00000000E+00	 0.00000000E+00	 4.64852000E-13

	 4.40945000E-13	 0.00000000E+00	 0.00000000E+00
	 0.00000000E+00	 4.40945000E-13	 0.00000000E+00
	 0.00000000E+00	 0.00000000E+00	 4.40945000E-13

	 4.62195000E-13	 0.00000000E+00	 0.00000000E+00
	 0.00000000E+00	 4.62195000E-13	 0.00000000E+00
	 0.00000000E+00	 0.00000000E+00	 4.62195000E-13

	 4.59539000E-13	 0.00000000E+00	 0.00000000E+00
	 0.00000000E+00	 4.59539000E-13	 0.00000000E+00
	 0.00000000E+00	 0.00000000E+00	 4.59539000E-13

	 4.64852000E-13	 0.00000000E+00	 0.00000000E+00
	 0.00000000E+00	 4.64852000E-13	 0.00000000E+00
	 0.00000000E+00	 0.00000000E+00	 4.64852000E-13

	 4.43601000E-13	 0.00000000E+00	 0.00000000E+00
	 0.00000000E+00	 4.43601000E-13	 0.00000000E+00
	 0.00000000E+00	 0.00000000E+00	 4.43601000E-13

	 4.38289000E-13	 0.00000000E+00	 0.00000000E+00
	 0.00000000E+00	 4.38289000E-13	 0.00000000E+00
	 0.00000000E+00	 0.00000000E+00	 4.38289000E-13

	 4.40945000E-13	 0.00000000E+00	 0.00000000E+00
	 0.00000000E+00	 4.40945000E-13	 0.00000000E+00
	 0.00000000E+00	 0.00000000E+00	 4.40945000E-13

	 4.64852000E-13	 0.00000000E+00	 0.00000000E+00
	 0.00000000E+00	 4.64852000E-13	 0.00000000E+00
	 0.00000000E+00	 0.00000000E+00	 4.64852000E-13

	 4.43601000E-13	 0.00000000E+00	 0.00000000E+00
	 0.00000000E+00	 4.43601000E-13	 0.00000000E+00
	 0.00000000E+00	 0.00000000E+00	 4.43601000E-13

	 4.64852000E-13	 0.00000000E+00	 0.00000000E+00
	 0.00000000E+00	 4.64852000E-13	 0.00000000E+00
	 0.00000000E+00	 0.00000000E+00	 4.64852000E-13

	 4.40945000E-13	 0.00000000E+00	 0.00000000E+00
	 0.00000000E+00	 4.40945000E-13	 0.00000000E+00
	 0.00000000E+00	 0.00000000E+00	 4.40945000E-13

	 4.64852000E-13	 0.00000000E+00	 0.00000000E+00
	 0.00000000E+00	 4.64852000E-13	 0.00000000E+00
	 0.00000000E+00	 0.00000000E+00	 4.64852000E-13

	 4.38289000E-13	 0.00000000E+00	 0.00000000E+00
	 0.00000000E+00	 4.38289000E-13	 0.00000000E+00
	 0.00000000E+00	 0.00000000E+00	 4.38289000E-13

	 4.64852000E-13	 0.00000000E+00	 0.00000000E+00
	 0.00000000E+00	 4.64852000E-13	 0.00000000E+00
	 0.00000000E+00	 0.00000000E+00	 4.64852000E-13

	 4.64852000E-13	 0.00000000E+00	 0.00000000E+00
	 0.00000000E+00	 4.64852000E-13	 0.00000000E+00
	 0.00000000E+00	 0.00000000E+00	 4.64852000E-13

	 4.38289000E-13	 0.00000000E+00	 0.00000000E+00
	 0.00000000E+00	 4.38289000E-13	 0.00000000E+00
	 0.00000000E+00	 0.00000000E+00	 4.38289000E-13

	 4.38289000E-13	 0.00000000E+00	 0.00000000E+00
	 0.00000000E+00	 4.38289000E-13	 0.00000000E+00
	 0.00000000E+00	 0.00000000E+00	 4.38289000E-13

	 4.49357000E-13	 0.00000000E+00	 0.00000000E+00
	 0.00000000E+00	 4.49357000E-13	 0.00000000E+00
	 0.00000000E+00	 0.00000000E+00	 4.49357000E-13

	 4.64852000E-13	 0.00000000E+00	 0.00000000E+00
	 0.00000000E+00	 4.64852000E-13	 0.00000000E+00
	 0.00000000E+00	 0.00000000E+00	 4.64852000E-13

	 5.02040000E-13	 0.00000000E+00	 0.00000000E+00
	 0.00000000E+00	 5.02040000E-13	 0.00000000E+00
	 0.00000000E+00	 0.00000000E+00	 5.02040000E-13

	 4.40945000E-13	 0.00000000E+00	 0.00000000E+00
	 0.00000000E+00	 4.40945000E-13	 0.00000000E+00
	 0.00000000E+00	 0.00000000E+00	 4.40945000E-13

	 4.64852000E-13	 0.00000000E+00	 0.00000000E+00
	 0.00000000E+00	 4.64852000E-13	 0.00000000E+00
	 0.00000000E+00	 0.00000000E+00	 4.64852000E-13

	 4.64852000E-13	 0.00000000E+00	 0.00000000E+00
	 0.00000000E+00	 4.64852000E-13	 0.00000000E+00
	 0.00000000E+00	 0.00000000E+00	 4.64852000E-13

	 4.38289000E-13	 0.00000000E+00	 0.00000000E+00
	 0.00000000E+00	 4.38289000E-13	 0.00000000E+00
	 0.00000000E+00	 0.00000000E+00	 4.38289000E-13

	 4.64852000E-13	 0.00000000E+00	 0.00000000E+00
	 0.00000000E+00	 4.64852000E-13	 0.00000000E+00
	 0.00000000E+00	 0.00000000E+00	 4.64852000E-13

	 4.64852000E-13	 0.00000000E+00	 0.00000000E+00
	 0.00000000E+00	 4.64852000E-13	 0.00000000E+00
	 0.00000000E+00	 0.00000000E+00	 4.64852000E-13

	 4.38289000E-13	 0.00000000E+00	 0.00000000E+00
	 0.00000000E+00	 4.38289000E-13	 0.00000000E+00
	 0.00000000E+00	 0.00000000E+00	 4.38289000E-13

	 4.38289000E-13	 0.00000000E+00	 0.00000000E+00
	 0.00000000E+00	 4.38289000E-13	 0.00000000E+00
	 0.00000000E+00	 0.00000000E+00	 4.38289000E-13

	 4.42716000E-13	 0.00000000E+00	 0.00000000E+00
	 0.00000000E+00	 4.42716000E-13	 0.00000000E+00
	 0.00000000E+00	 0.00000000E+00	 4.42716000E-13

	 4.64852000E-13	 0.00000000E+00	 0.00000000E+00
	 0.00000000E+00	 4.64852000E-13	 0.00000000E+00
	 0.00000000E+00	 0.00000000E+00	 4.64852000E-13

	 4.44929000E-13	 0.00000000E+00	 0.00000000E+00
	 0.00000000E+00	 4.44929000E-13	 0.00000000E+00
	 0.00000000E+00	 0.00000000E+00	 4.44929000E-13

	 4.46258000E-13	 0.00000000E+00	 0.00000000E+00
	 0.00000000E+00	 4.46258000E-13	 0.00000000E+00
	 0.00000000E+00	 0.00000000E+00	 4.46258000E-13

	 4.38289000E-13	 0.00000000E+00	 0.00000000E+00
	 0.00000000E+00	 4.38289000E-13	 0.00000000E+00
	 0.00000000E+00	 0.00000000E+00	 4.38289000E-13

	 4.64852000E-13	 0.00000000E+00	 0.00000000E+00
	 0.00000000E+00	 4.64852000E-13	 0.00000000E+00
	 0.00000000E+00	 0.00000000E+00	 4.64852000E-13

	 4.64852000E-13	 0.00000000E+00	 0.00000000E+00
	 0.00000000E+00	 4.64852000E-13	 0.00000000E+00
	 0.00000000E+00	 0.00000000E+00	 4.64852000E-13

	 4.43601000E-13	 0.00000000E+00	 0.00000000E+00
	 0.00000000E+00	 4.43601000E-13	 0.00000000E+00
	 0.00000000E+00	 0.00000000E+00	 4.43601000E-13

	 4.64852000E-13	 0.00000000E+00	 0.00000000E+00
	 0.00000000E+00	 4.64852000E-13	 0.00000000E+00
	 0.00000000E+00	 0.00000000E+00	 4.64852000E-13

	 4.43601000E-13	 0.00000000E+00	 0.00000000E+00
	 0.00000000E+00	 4.43601000E-13	 0.00000000E+00
	 0.00000000E+00	 0.00000000E+00	 4.43601000E-13

	 4.38289000E-13	 0.00000000E+00	 0.00000000E+00
	 0.00000000E+00	 4.38289000E-13	 0.00000000E+00
	 0.00000000E+00	 0.00000000E+00	 4.38289000E-13

	 4.64852000E-13	 0.00000000E+00	 0.00000000E+00
	 0.00000000E+00	 4.64852000E-13	 0.00000000E+00
	 0.00000000E+00	 0.00000000E+00	 4.64852000E-13

	 4.64852000E-13	 0.00000000E+00	 0.00000000E+00
	 0.00000000E+00	 4.64852000E-13	 0.00000000E+00
	 0.00000000E+00	 0.00000000E+00	 4.64852000E-13

	 4.46258000E-13	 0.00000000E+00	 0.00000000E+00
	 0.00000000E+00	 4.46258000E-13	 0.00000000E+00
	 0.00000000E+00	 0.00000000E+00	 4.46258000E-13

	 4.64852000E-13	 0.00000000E+00	 0.00000000E+00
	 0.00000000E+00	 4.64852000E-13	 0.00000000E+00
	 0.00000000E+00	 0.00000000E+00	 4.64852000E-13

	 4.38289000E-13	 0.00000000E+00	 0.00000000E+00
	 0.00000000E+00	 4.38289000E-13	 0.00000000E+00
	 0.00000000E+00	 0.00000000E+00	 4.38289000E-13

	 4.64852000E-13	 0.00000000E+00	 0.00000000E+00
	 0.00000000E+00	 4.64852000E-13	 0.00000000E+00
	 0.00000000E+00	 0.00000000E+00	 4.64852000E-13

	 4.59539000E-13	 0.00000000E+00	 0.00000000E+00
	 0.00000000E+00	 4.59539000E-13	 0.00000000E+00
	 0.00000000E+00	 0.00000000E+00	 4.59539000E-13

	 4.56883000E-13	 0.00000000E+00	 0.00000000E+00
	 0.00000000E+00	 4.56883000E-13	 0.00000000E+00
	 0.00000000E+00	 0.00000000E+00	 4.56883000E-13

	 4.40945000E-13	 0.00000000E+00	 0.00000000E+00
	 0.00000000E+00	 4.40945000E-13	 0.00000000E+00
	 0.00000000E+00	 0.00000000E+00	 4.40945000E-13

	 4.40945000E-13	 0.00000000E+00	 0.00000000E+00
	 0.00000000E+00	 4.40945000E-13	 0.00000000E+00
	 0.00000000E+00	 0.00000000E+00	 4.40945000E-13

	 4.64852000E-13	 0.00000000E+00	 0.00000000E+00
	 0.00000000E+00	 4.64852000E-13	 0.00000000E+00
	 0.00000000E+00	 0.00000000E+00	 4.64852000E-13

	 4.38289000E-13	 0.00000000E+00	 0.00000000E+00
	 0.00000000E+00	 4.38289000E-13	 0.00000000E+00
	 0.00000000E+00	 0.00000000E+00	 4.38289000E-13

	 4.64852000E-13	 0.00000000E+00	 0.00000000E+00
	 0.00000000E+00	 4.64852000E-13	 0.00000000E+00
	 0.00000000E+00	 0.00000000E+00	 4.64852000E-13

	 4.38289000E-13	 0.00000000E+00	 0.00000000E+00
	 0.00000000E+00	 4.38289000E-13	 0.00000000E+00
	 0.00000000E+00	 0.00000000E+00	 4.38289000E-13

	 4.38289000E-13	 0.00000000E+00	 0.00000000E+00
	 0.00000000E+00	 4.38289000E-13	 0.00000000E+00
	 0.00000000E+00	 0.00000000E+00	 4.38289000E-13

	 4.64852000E-13	 0.00000000E+00	 0.00000000E+00
	 0.00000000E+00	 4.64852000E-13	 0.00000000E+00
	 0.00000000E+00	 0.00000000E+00	 4.64852000E-13

	 4.64852000E-13	 0.00000000E+00	 0.00000000E+00
	 0.00000000E+00	 4.64852000E-13	 0.00000000E+00
	 0.00000000E+00	 0.00000000E+00	 4.64852000E-13

	 4.64852000E-13	 0.00000000E+00	 0.00000000E+00
	 0.00000000E+00	 4.64852000E-13	 0.00000000E+00
	 0.00000000E+00	 0.00000000E+00	 4.64852000E-13

	 4.64852000E-13	 0.00000000E+00	 0.00000000E+00
	 0.00000000E+00	 4.64852000E-13	 0.00000000E+00
	 0.00000000E+00	 0.00000000E+00	 4.64852000E-13

	 4.64852000E-13	 0.00000000E+00	 0.00000000E+00
	 0.00000000E+00	 4.64852000E-13	 0.00000000E+00
	 0.00000000E+00	 0.00000000E+00	 4.64852000E-13

	 4.38289000E-13	 0.00000000E+00	 0.00000000E+00
	 0.00000000E+00	 4.38289000E-13	 0.00000000E+00
	 0.00000000E+00	 0.00000000E+00	 4.38289000E-13

	 4.38289000E-13	 0.00000000E+00	 0.00000000E+00
	 0.00000000E+00	 4.38289000E-13	 0.00000000E+00
	 0.00000000E+00	 0.00000000E+00	 4.38289000E-13

	 4.64852000E-13	 0.00000000E+00	 0.00000000E+00
	 0.00000000E+00	 4.64852000E-13	 0.00000000E+00
	 0.00000000E+00	 0.00000000E+00	 4.64852000E-13

	 4.64852000E-13	 0.00000000E+00	 0.00000000E+00
	 0.00000000E+00	 4.64852000E-13	 0.00000000E+00
	 0.00000000E+00	 0.00000000E+00	 4.64852000E-13

	 4.38289000E-13	 0.00000000E+00	 0.00000000E+00
	 0.00000000E+00	 4.38289000E-13	 0.00000000E+00
	 0.00000000E+00	 0.00000000E+00	 4.38289000E-13

	 4.64852000E-13	 0.00000000E+00	 0.00000000E+00
	 0.00000000E+00	 4.64852000E-13	 0.00000000E+00
	 0.00000000E+00	 0.00000000E+00	 4.64852000E-13

	 4.40502000E-13	 0.00000000E+00	 0.00000000E+00
	 0.00000000E+00	 4.40502000E-13	 0.00000000E+00
	 0.00000000E+00	 0.00000000E+00	 4.40502000E-13

	 4.62195000E-13	 0.00000000E+00	 0.00000000E+00
	 0.00000000E+00	 4.62195000E-13	 0.00000000E+00
	 0.00000000E+00	 0.00000000E+00	 4.62195000E-13

	 4.64852000E-13	 0.00000000E+00	 0.00000000E+00
	 0.00000000E+00	 4.64852000E-13	 0.00000000E+00
	 0.00000000E+00	 0.00000000E+00	 4.64852000E-13

	 4.38289000E-13	 0.00000000E+00	 0.00000000E+00
	 0.00000000E+00	 4.38289000E-13	 0.00000000E+00
	 0.00000000E+00	 0.00000000E+00	 4.38289000E-13

	 4.62195000E-13	 0.00000000E+00	 0.00000000E+00
	 0.00000000E+00	 4.62195000E-13	 0.00000000E+00
	 0.00000000E+00	 0.00000000E+00	 4.62195000E-13

	 4.40945000E-13	 0.00000000E+00	 0.00000000E+00
	 0.00000000E+00	 4.40945000E-13	 0.00000000E+00
	 0.00000000E+00	 0.00000000E+00	 4.40945000E-13

	 4.64852000E-13	 0.00000000E+00	 0.00000000E+00
	 0.00000000E+00	 4.64852000E-13	 0.00000000E+00
	 0.00000000E+00	 0.00000000E+00	 4.64852000E-13

	 4.64852000E-13	 0.00000000E+00	 0.00000000E+00
	 0.00000000E+00	 4.64852000E-13	 0.00000000E+00
	 0.00000000E+00	 0.00000000E+00	 4.64852000E-13

	 4.64852000E-13	 0.00000000E+00	 0.00000000E+00
	 0.00000000E+00	 4.64852000E-13	 0.00000000E+00
	 0.00000000E+00	 0.00000000E+00	 4.64852000E-13

	 4.38289000E-13	 0.00000000E+00	 0.00000000E+00
	 0.00000000E+00	 4.38289000E-13	 0.00000000E+00
	 0.00000000E+00	 0.00000000E+00	 4.38289000E-13

	 4.40945000E-13	 0.00000000E+00	 0.00000000E+00
	 0.00000000E+00	 4.40945000E-13	 0.00000000E+00
	 0.00000000E+00	 0.00000000E+00	 4.40945000E-13

	 4.64852000E-13	 0.00000000E+00	 0.00000000E+00
	 0.00000000E+00	 4.64852000E-13	 0.00000000E+00
	 0.00000000E+00	 0.00000000E+00	 4.64852000E-13

	 4.64852000E-13	 0.00000000E+00	 0.00000000E+00
	 0.00000000E+00	 4.64852000E-13	 0.00000000E+00
	 0.00000000E+00	 0.00000000E+00	 4.64852000E-13

	 4.38289000E-13	 0.00000000E+00	 0.00000000E+00
	 0.00000000E+00	 4.38289000E-13	 0.00000000E+00
	 0.00000000E+00	 0.00000000E+00	 4.38289000E-13

	 4.38289000E-13	 0.00000000E+00	 0.00000000E+00
	 0.00000000E+00	 4.38289000E-13	 0.00000000E+00
	 0.00000000E+00	 0.00000000E+00	 4.38289000E-13

	 4.38289000E-13	 0.00000000E+00	 0.00000000E+00
	 0.00000000E+00	 4.38289000E-13	 0.00000000E+00
	 0.00000000E+00	 0.00000000E+00	 4.38289000E-13

	 4.64852000E-13	 0.00000000E+00	 0.00000000E+00
	 0.00000000E+00	 4.64852000E-13	 0.00000000E+00
	 0.00000000E+00	 0.00000000E+00	 4.64852000E-13

	 4.38289000E-13	 0.00000000E+00	 0.00000000E+00
	 0.00000000E+00	 4.38289000E-13	 0.00000000E+00
	 0.00000000E+00	 0.00000000E+00	 4.38289000E-13

	 4.53784000E-13	 0.00000000E+00	 0.00000000E+00
	 0.00000000E+00	 4.53784000E-13	 0.00000000E+00
	 0.00000000E+00	 0.00000000E+00	 4.53784000E-13

	 4.38289000E-13	 0.00000000E+00	 0.00000000E+00
	 0.00000000E+00	 4.38289000E-13	 0.00000000E+00
	 0.00000000E+00	 0.00000000E+00	 4.38289000E-13

	 4.38289000E-13	 0.00000000E+00	 0.00000000E+00
	 0.00000000E+00	 4.38289000E-13	 0.00000000E+00
	 0.00000000E+00	 0.00000000E+00	 4.38289000E-13

	 4.64852000E-13	 0.00000000E+00	 0.00000000E+00
	 0.00000000E+00	 4.64852000E-13	 0.00000000E+00
	 0.00000000E+00	 0.00000000E+00	 4.64852000E-13

	 4.40945000E-13	 0.00000000E+00	 0.00000000E+00
	 0.00000000E+00	 4.40945000E-13	 0.00000000E+00
	 0.00000000E+00	 0.00000000E+00	 4.40945000E-13

	 4.64852000E-13	 0.00000000E+00	 0.00000000E+00
	 0.00000000E+00	 4.64852000E-13	 0.00000000E+00
	 0.00000000E+00	 0.00000000E+00	 4.64852000E-13

	 4.64852000E-13	 0.00000000E+00	 0.00000000E+00
	 0.00000000E+00	 4.64852000E-13	 0.00000000E+00
	 0.00000000E+00	 0.00000000E+00	 4.64852000E-13

	 4.38289000E-13	 0.00000000E+00	 0.00000000E+00
	 0.00000000E+00	 4.38289000E-13	 0.00000000E+00
	 0.00000000E+00	 0.00000000E+00	 4.38289000E-13

	 4.64852000E-13	 0.00000000E+00	 0.00000000E+00
	 0.00000000E+00	 4.64852000E-13	 0.00000000E+00
	 0.00000000E+00	 0.00000000E+00	 4.64852000E-13

	 4.38289000E-13	 0.00000000E+00	 0.00000000E+00
	 0.00000000E+00	 4.38289000E-13	 0.00000000E+00
	 0.00000000E+00	 0.00000000E+00	 4.38289000E-13

	 4.64852000E-13	 0.00000000E+00	 0.00000000E+00
	 0.00000000E+00	 4.64852000E-13	 0.00000000E+00
	 0.00000000E+00	 0.00000000E+00	 4.64852000E-13

	 4.40945000E-13	 0.00000000E+00	 0.00000000E+00
	 0.00000000E+00	 4.40945000E-13	 0.00000000E+00
	 0.00000000E+00	 0.00000000E+00	 4.40945000E-13

	 4.42716000E-13	 0.00000000E+00	 0.00000000E+00
	 0.00000000E+00	 4.42716000E-13	 0.00000000E+00
	 0.00000000E+00	 0.00000000E+00	 4.42716000E-13

	 4.38289000E-13	 0.00000000E+00	 0.00000000E+00
	 0.00000000E+00	 4.38289000E-13	 0.00000000E+00
	 0.00000000E+00	 0.00000000E+00	 4.38289000E-13

	 4.64852000E-13	 0.00000000E+00	 0.00000000E+00
	 0.00000000E+00	 4.64852000E-13	 0.00000000E+00
	 0.00000000E+00	 0.00000000E+00	 4.64852000E-13

	 4.64852000E-13	 0.00000000E+00	 0.00000000E+00
	 0.00000000E+00	 4.64852000E-13	 0.00000000E+00
	 0.00000000E+00	 0.00000000E+00	 4.64852000E-13

	 4.64852000E-13	 0.00000000E+00	 0.00000000E+00
	 0.00000000E+00	 4.64852000E-13	 0.00000000E+00
	 0.00000000E+00	 0.00000000E+00	 4.64852000E-13

	 4.40945000E-13	 0.00000000E+00	 0.00000000E+00
	 0.00000000E+00	 4.40945000E-13	 0.00000000E+00
	 0.00000000E+00	 0.00000000E+00	 4.40945000E-13

	 4.43601000E-13	 0.00000000E+00	 0.00000000E+00
	 0.00000000E+00	 4.43601000E-13	 0.00000000E+00
	 0.00000000E+00	 0.00000000E+00	 4.43601000E-13

	 4.38289000E-13	 0.00000000E+00	 0.00000000E+00
	 0.00000000E+00	 4.38289000E-13	 0.00000000E+00
	 0.00000000E+00	 0.00000000E+00	 4.38289000E-13

	 4.38289000E-13	 0.00000000E+00	 0.00000000E+00
	 0.00000000E+00	 4.38289000E-13	 0.00000000E+00
	 0.00000000E+00	 0.00000000E+00	 4.38289000E-13

	 4.43601000E-13	 0.00000000E+00	 0.00000000E+00
	 0.00000000E+00	 4.43601000E-13	 0.00000000E+00
	 0.00000000E+00	 0.00000000E+00	 4.43601000E-13

	 4.64852000E-13	 0.00000000E+00	 0.00000000E+00
	 0.00000000E+00	 4.64852000E-13	 0.00000000E+00
	 0.00000000E+00	 0.00000000E+00	 4.64852000E-13

	 4.38289000E-13	 0.00000000E+00	 0.00000000E+00
	 0.00000000E+00	 4.38289000E-13	 0.00000000E+00
	 0.00000000E+00	 0.00000000E+00	 4.38289000E-13

	 4.64852000E-13	 0.00000000E+00	 0.00000000E+00
	 0.00000000E+00	 4.64852000E-13	 0.00000000E+00
	 0.00000000E+00	 0.00000000E+00	 4.64852000E-13

	 4.64852000E-13	 0.00000000E+00	 0.00000000E+00
	 0.00000000E+00	 4.64852000E-13	 0.00000000E+00
	 0.00000000E+00	 0.00000000E+00	 4.64852000E-13

	 4.64852000E-13	 0.00000000E+00	 0.00000000E+00
	 0.00000000E+00	 4.64852000E-13	 0.00000000E+00
	 0.00000000E+00	 0.00000000E+00	 4.64852000E-13

	 4.64852000E-13	 0.00000000E+00	 0.00000000E+00
	 0.00000000E+00	 4.64852000E-13	 0.00000000E+00
	 0.00000000E+00	 0.00000000E+00	 4.64852000E-13

	 4.64852000E-13	 0.00000000E+00	 0.00000000E+00
	 0.00000000E+00	 4.64852000E-13	 0.00000000E+00
	 0.00000000E+00	 0.00000000E+00	 4.64852000E-13

	 4.38289000E-13	 0.00000000E+00	 0.00000000E+00
	 0.00000000E+00	 4.38289000E-13	 0.00000000E+00
	 0.00000000E+00	 0.00000000E+00	 4.38289000E-13

	 4.38289000E-13	 0.00000000E+00	 0.00000000E+00
	 0.00000000E+00	 4.38289000E-13	 0.00000000E+00
	 0.00000000E+00	 0.00000000E+00	 4.38289000E-13

	 4.64852000E-13	 0.00000000E+00	 0.00000000E+00
	 0.00000000E+00	 4.64852000E-13	 0.00000000E+00
	 0.00000000E+00	 0.00000000E+00	 4.64852000E-13

	 4.38289000E-13	 0.00000000E+00	 0.00000000E+00
	 0.00000000E+00	 4.38289000E-13	 0.00000000E+00
	 0.00000000E+00	 0.00000000E+00	 4.38289000E-13

	 4.43601000E-13	 0.00000000E+00	 0.00000000E+00
	 0.00000000E+00	 4.43601000E-13	 0.00000000E+00
	 0.00000000E+00	 0.00000000E+00	 4.43601000E-13

	 4.64852000E-13	 0.00000000E+00	 0.00000000E+00
	 0.00000000E+00	 4.64852000E-13	 0.00000000E+00
	 0.00000000E+00	 0.00000000E+00	 4.64852000E-13

	 4.64852000E-13	 0.00000000E+00	 0.00000000E+00
	 0.00000000E+00	 4.64852000E-13	 0.00000000E+00
	 0.00000000E+00	 0.00000000E+00	 4.64852000E-13

	 4.64852000E-13	 0.00000000E+00	 0.00000000E+00
	 0.00000000E+00	 4.64852000E-13	 0.00000000E+00
	 0.00000000E+00	 0.00000000E+00	 4.64852000E-13

	 4.64852000E-13	 0.00000000E+00	 0.00000000E+00
	 0.00000000E+00	 4.64852000E-13	 0.00000000E+00
	 0.00000000E+00	 0.00000000E+00	 4.64852000E-13

	 4.62638000E-13	 0.00000000E+00	 0.00000000E+00
	 0.00000000E+00	 4.62638000E-13	 0.00000000E+00
	 0.00000000E+00	 0.00000000E+00	 4.62638000E-13

	 4.64852000E-13	 0.00000000E+00	 0.00000000E+00
	 0.00000000E+00	 4.64852000E-13	 0.00000000E+00
	 0.00000000E+00	 0.00000000E+00	 4.64852000E-13

	 4.64852000E-13	 0.00000000E+00	 0.00000000E+00
	 0.00000000E+00	 4.64852000E-13	 0.00000000E+00
	 0.00000000E+00	 0.00000000E+00	 4.64852000E-13

	 4.38289000E-13	 0.00000000E+00	 0.00000000E+00
	 0.00000000E+00	 4.38289000E-13	 0.00000000E+00
	 0.00000000E+00	 0.00000000E+00	 4.38289000E-13

	 4.64852000E-13	 0.00000000E+00	 0.00000000E+00
	 0.00000000E+00	 4.64852000E-13	 0.00000000E+00
	 0.00000000E+00	 0.00000000E+00	 4.64852000E-13

	 4.38289000E-13	 0.00000000E+00	 0.00000000E+00
	 0.00000000E+00	 4.38289000E-13	 0.00000000E+00
	 0.00000000E+00	 0.00000000E+00	 4.38289000E-13

	 4.64852000E-13	 0.00000000E+00	 0.00000000E+00
	 0.00000000E+00	 4.64852000E-13	 0.00000000E+00
	 0.00000000E+00	 0.00000000E+00	 4.64852000E-13

	 4.64852000E-13	 0.00000000E+00	 0.00000000E+00
	 0.00000000E+00	 4.64852000E-13	 0.00000000E+00
	 0.00000000E+00	 0.00000000E+00	 4.64852000E-13

	 4.64852000E-13	 0.00000000E+00	 0.00000000E+00
	 0.00000000E+00	 4.64852000E-13	 0.00000000E+00
	 0.00000000E+00	 0.00000000E+00	 4.64852000E-13

	 4.64852000E-13	 0.00000000E+00	 0.00000000E+00
	 0.00000000E+00	 4.64852000E-13	 0.00000000E+00
	 0.00000000E+00	 0.00000000E+00	 4.64852000E-13

	 4.64852000E-13	 0.00000000E+00	 0.00000000E+00
	 0.00000000E+00	 4.64852000E-13	 0.00000000E+00
	 0.00000000E+00	 0.00000000E+00	 4.64852000E-13

	 4.64852000E-13	 0.00000000E+00	 0.00000000E+00
	 0.00000000E+00	 4.64852000E-13	 0.00000000E+00
	 0.00000000E+00	 0.00000000E+00	 4.64852000E-13

	 4.40945000E-13	 0.00000000E+00	 0.00000000E+00
	 0.00000000E+00	 4.40945000E-13	 0.00000000E+00
	 0.00000000E+00	 0.00000000E+00	 4.40945000E-13

	 4.64852000E-13	 0.00000000E+00	 0.00000000E+00
	 0.00000000E+00	 4.64852000E-13	 0.00000000E+00
	 0.00000000E+00	 0.00000000E+00	 4.64852000E-13

	 4.48914000E-13	 0.00000000E+00	 0.00000000E+00
	 0.00000000E+00	 4.48914000E-13	 0.00000000E+00
	 0.00000000E+00	 0.00000000E+00	 4.48914000E-13

	 4.64852000E-13	 0.00000000E+00	 0.00000000E+00
	 0.00000000E+00	 4.64852000E-13	 0.00000000E+00
	 0.00000000E+00	 0.00000000E+00	 4.64852000E-13

	 4.38289000E-13	 0.00000000E+00	 0.00000000E+00
	 0.00000000E+00	 4.38289000E-13	 0.00000000E+00
	 0.00000000E+00	 0.00000000E+00	 4.38289000E-13

	 4.47143000E-13	 0.00000000E+00	 0.00000000E+00
	 0.00000000E+00	 4.47143000E-13	 0.00000000E+00
	 0.00000000E+00	 0.00000000E+00	 4.47143000E-13

	 4.64852000E-13	 0.00000000E+00	 0.00000000E+00
	 0.00000000E+00	 4.64852000E-13	 0.00000000E+00
	 0.00000000E+00	 0.00000000E+00	 4.64852000E-13

	 4.38289000E-13	 0.00000000E+00	 0.00000000E+00
	 0.00000000E+00	 4.38289000E-13	 0.00000000E+00
	 0.00000000E+00	 0.00000000E+00	 4.38289000E-13

	 4.64852000E-13	 0.00000000E+00	 0.00000000E+00
	 0.00000000E+00	 4.64852000E-13	 0.00000000E+00
	 0.00000000E+00	 0.00000000E+00	 4.64852000E-13

	 4.38289000E-13	 0.00000000E+00	 0.00000000E+00
	 0.00000000E+00	 4.38289000E-13	 0.00000000E+00
	 0.00000000E+00	 0.00000000E+00	 4.38289000E-13

	 4.64852000E-13	 0.00000000E+00	 0.00000000E+00
	 0.00000000E+00	 4.64852000E-13	 0.00000000E+00
	 0.00000000E+00	 0.00000000E+00	 4.64852000E-13

	 4.64852000E-13	 0.00000000E+00	 0.00000000E+00
	 0.00000000E+00	 4.64852000E-13	 0.00000000E+00
	 0.00000000E+00	 0.00000000E+00	 4.64852000E-13

	 4.46258000E-13	 0.00000000E+00	 0.00000000E+00
	 0.00000000E+00	 4.46258000E-13	 0.00000000E+00
	 0.00000000E+00	 0.00000000E+00	 4.46258000E-13

	 4.64852000E-13	 0.00000000E+00	 0.00000000E+00
	 0.00000000E+00	 4.64852000E-13	 0.00000000E+00
	 0.00000000E+00	 0.00000000E+00	 4.64852000E-13

	 4.64852000E-13	 0.00000000E+00	 0.00000000E+00
	 0.00000000E+00	 4.64852000E-13	 0.00000000E+00
	 0.00000000E+00	 0.00000000E+00	 4.64852000E-13

	 4.64852000E-13	 0.00000000E+00	 0.00000000E+00
	 0.00000000E+00	 4.64852000E-13	 0.00000000E+00
	 0.00000000E+00	 0.00000000E+00	 4.64852000E-13

	 4.64852000E-13	 0.00000000E+00	 0.00000000E+00
	 0.00000000E+00	 4.64852000E-13	 0.00000000E+00
	 0.00000000E+00	 0.00000000E+00	 4.64852000E-13

	 4.38289000E-13	 0.00000000E+00	 0.00000000E+00
	 0.00000000E+00	 4.38289000E-13	 0.00000000E+00
	 0.00000000E+00	 0.00000000E+00	 4.38289000E-13

	 4.38289000E-13	 0.00000000E+00	 0.00000000E+00
	 0.00000000E+00	 4.38289000E-13	 0.00000000E+00
	 0.00000000E+00	 0.00000000E+00	 4.38289000E-13

	 4.48914000E-13	 0.00000000E+00	 0.00000000E+00
	 0.00000000E+00	 4.48914000E-13	 0.00000000E+00
	 0.00000000E+00	 0.00000000E+00	 4.48914000E-13

	 4.62195000E-13	 0.00000000E+00	 0.00000000E+00
	 0.00000000E+00	 4.62195000E-13	 0.00000000E+00
	 0.00000000E+00	 0.00000000E+00	 4.62195000E-13

	 4.70164000E-13	 0.00000000E+00	 0.00000000E+00
	 0.00000000E+00	 4.70164000E-13	 0.00000000E+00
	 0.00000000E+00	 0.00000000E+00	 4.70164000E-13

	 4.64852000E-13	 0.00000000E+00	 0.00000000E+00
	 0.00000000E+00	 4.64852000E-13	 0.00000000E+00
	 0.00000000E+00	 0.00000000E+00	 4.64852000E-13

	 4.64852000E-13	 0.00000000E+00	 0.00000000E+00
	 0.00000000E+00	 4.64852000E-13	 0.00000000E+00
	 0.00000000E+00	 0.00000000E+00	 4.64852000E-13

	 4.64852000E-13	 0.00000000E+00	 0.00000000E+00
	 0.00000000E+00	 4.64852000E-13	 0.00000000E+00
	 0.00000000E+00	 0.00000000E+00	 4.64852000E-13

	 4.64852000E-13	 0.00000000E+00	 0.00000000E+00
	 0.00000000E+00	 4.64852000E-13	 0.00000000E+00
	 0.00000000E+00	 0.00000000E+00	 4.64852000E-13

	 4.38289000E-13	 0.00000000E+00	 0.00000000E+00
	 0.00000000E+00	 4.38289000E-13	 0.00000000E+00
	 0.00000000E+00	 0.00000000E+00	 4.38289000E-13

	 4.40945000E-13	 0.00000000E+00	 0.00000000E+00
	 0.00000000E+00	 4.40945000E-13	 0.00000000E+00
	 0.00000000E+00	 0.00000000E+00	 4.40945000E-13

	 4.38289000E-13	 0.00000000E+00	 0.00000000E+00
	 0.00000000E+00	 4.38289000E-13	 0.00000000E+00
	 0.00000000E+00	 0.00000000E+00	 4.38289000E-13

	 4.64852000E-13	 0.00000000E+00	 0.00000000E+00
	 0.00000000E+00	 4.64852000E-13	 0.00000000E+00
	 0.00000000E+00	 0.00000000E+00	 4.64852000E-13

	 4.62638000E-13	 0.00000000E+00	 0.00000000E+00
	 0.00000000E+00	 4.62638000E-13	 0.00000000E+00
	 0.00000000E+00	 0.00000000E+00	 4.62638000E-13

	 4.64852000E-13	 0.00000000E+00	 0.00000000E+00
	 0.00000000E+00	 4.64852000E-13	 0.00000000E+00
	 0.00000000E+00	 0.00000000E+00	 4.64852000E-13

	 4.64852000E-13	 0.00000000E+00	 0.00000000E+00
	 0.00000000E+00	 4.64852000E-13	 0.00000000E+00
	 0.00000000E+00	 0.00000000E+00	 4.64852000E-13

	 4.64852000E-13	 0.00000000E+00	 0.00000000E+00
	 0.00000000E+00	 4.64852000E-13	 0.00000000E+00
	 0.00000000E+00	 0.00000000E+00	 4.64852000E-13

	 4.38289000E-13	 0.00000000E+00	 0.00000000E+00
	 0.00000000E+00	 4.38289000E-13	 0.00000000E+00
	 0.00000000E+00	 0.00000000E+00	 4.38289000E-13

	 4.64852000E-13	 0.00000000E+00	 0.00000000E+00
	 0.00000000E+00	 4.64852000E-13	 0.00000000E+00
	 0.00000000E+00	 0.00000000E+00	 4.64852000E-13

	 4.38289000E-13	 0.00000000E+00	 0.00000000E+00
	 0.00000000E+00	 4.38289000E-13	 0.00000000E+00
	 0.00000000E+00	 0.00000000E+00	 4.38289000E-13

	 4.64852000E-13	 0.00000000E+00	 0.00000000E+00
	 0.00000000E+00	 4.64852000E-13	 0.00000000E+00
	 0.00000000E+00	 0.00000000E+00	 4.64852000E-13

	 4.38289000E-13	 0.00000000E+00	 0.00000000E+00
	 0.00000000E+00	 4.38289000E-13	 0.00000000E+00
	 0.00000000E+00	 0.00000000E+00	 4.38289000E-13

	 4.59539000E-13	 0.00000000E+00	 0.00000000E+00
	 0.00000000E+00	 4.59539000E-13	 0.00000000E+00
	 0.00000000E+00	 0.00000000E+00	 4.59539000E-13

	 4.64852000E-13	 0.00000000E+00	 0.00000000E+00
	 0.00000000E+00	 4.64852000E-13	 0.00000000E+00
	 0.00000000E+00	 0.00000000E+00	 4.64852000E-13

	 4.38289000E-13	 0.00000000E+00	 0.00000000E+00
	 0.00000000E+00	 4.38289000E-13	 0.00000000E+00
	 0.00000000E+00	 0.00000000E+00	 4.38289000E-13

	 4.46258000E-13	 0.00000000E+00	 0.00000000E+00
	 0.00000000E+00	 4.46258000E-13	 0.00000000E+00
	 0.00000000E+00	 0.00000000E+00	 4.46258000E-13

	 4.38289000E-13	 0.00000000E+00	 0.00000000E+00
	 0.00000000E+00	 4.38289000E-13	 0.00000000E+00
	 0.00000000E+00	 0.00000000E+00	 4.38289000E-13

	 4.64852000E-13	 0.00000000E+00	 0.00000000E+00
	 0.00000000E+00	 4.64852000E-13	 0.00000000E+00
	 0.00000000E+00	 0.00000000E+00	 4.64852000E-13

	 4.38289000E-13	 0.00000000E+00	 0.00000000E+00
	 0.00000000E+00	 4.38289000E-13	 0.00000000E+00
	 0.00000000E+00	 0.00000000E+00	 4.38289000E-13

	 4.38289000E-13	 0.00000000E+00	 0.00000000E+00
	 0.00000000E+00	 4.38289000E-13	 0.00000000E+00
	 0.00000000E+00	 0.00000000E+00	 4.38289000E-13

	 4.64852000E-13	 0.00000000E+00	 0.00000000E+00
	 0.00000000E+00	 4.64852000E-13	 0.00000000E+00
	 0.00000000E+00	 0.00000000E+00	 4.64852000E-13

	 4.64852000E-13	 0.00000000E+00	 0.00000000E+00
	 0.00000000E+00	 4.64852000E-13	 0.00000000E+00
	 0.00000000E+00	 0.00000000E+00	 4.64852000E-13

	 4.38289000E-13	 0.00000000E+00	 0.00000000E+00
	 0.00000000E+00	 4.38289000E-13	 0.00000000E+00
	 0.00000000E+00	 0.00000000E+00	 4.38289000E-13

	 4.64852000E-13	 0.00000000E+00	 0.00000000E+00
	 0.00000000E+00	 4.64852000E-13	 0.00000000E+00
	 0.00000000E+00	 0.00000000E+00	 4.64852000E-13

	 4.62638000E-13	 0.00000000E+00	 0.00000000E+00
	 0.00000000E+00	 4.62638000E-13	 0.00000000E+00
	 0.00000000E+00	 0.00000000E+00	 4.62638000E-13

	 4.38289000E-13	 0.00000000E+00	 0.00000000E+00
	 0.00000000E+00	 4.38289000E-13	 0.00000000E+00
	 0.00000000E+00	 0.00000000E+00	 4.38289000E-13

	 4.38289000E-13	 0.00000000E+00	 0.00000000E+00
	 0.00000000E+00	 4.38289000E-13	 0.00000000E+00
	 0.00000000E+00	 0.00000000E+00	 4.38289000E-13

	 4.46258000E-13	 0.00000000E+00	 0.00000000E+00
	 0.00000000E+00	 4.46258000E-13	 0.00000000E+00
	 0.00000000E+00	 0.00000000E+00	 4.46258000E-13

	 4.38289000E-13	 0.00000000E+00	 0.00000000E+00
	 0.00000000E+00	 4.38289000E-13	 0.00000000E+00
	 0.00000000E+00	 0.00000000E+00	 4.38289000E-13

	 4.64852000E-13	 0.00000000E+00	 0.00000000E+00
	 0.00000000E+00	 4.64852000E-13	 0.00000000E+00
	 0.00000000E+00	 0.00000000E+00	 4.64852000E-13

	 4.38289000E-13	 0.00000000E+00	 0.00000000E+00
	 0.00000000E+00	 4.38289000E-13	 0.00000000E+00
	 0.00000000E+00	 0.00000000E+00	 4.38289000E-13

	 4.38289000E-13	 0.00000000E+00	 0.00000000E+00
	 0.00000000E+00	 4.38289000E-13	 0.00000000E+00
	 0.00000000E+00	 0.00000000E+00	 4.38289000E-13

	 4.64852000E-13	 0.00000000E+00	 0.00000000E+00
	 0.00000000E+00	 4.64852000E-13	 0.00000000E+00
	 0.00000000E+00	 0.00000000E+00	 4.64852000E-13

	 4.40945000E-13	 0.00000000E+00	 0.00000000E+00
	 0.00000000E+00	 4.40945000E-13	 0.00000000E+00
	 0.00000000E+00	 0.00000000E+00	 4.40945000E-13

	 4.38289000E-13	 0.00000000E+00	 0.00000000E+00
	 0.00000000E+00	 4.38289000E-13	 0.00000000E+00
	 0.00000000E+00	 0.00000000E+00	 4.38289000E-13

	 4.40502000E-13	 0.00000000E+00	 0.00000000E+00
	 0.00000000E+00	 4.40502000E-13	 0.00000000E+00
	 0.00000000E+00	 0.00000000E+00	 4.40502000E-13

	 4.40945000E-13	 0.00000000E+00	 0.00000000E+00
	 0.00000000E+00	 4.40945000E-13	 0.00000000E+00
	 0.00000000E+00	 0.00000000E+00	 4.40945000E-13

	 4.38289000E-13	 0.00000000E+00	 0.00000000E+00
	 0.00000000E+00	 4.38289000E-13	 0.00000000E+00
	 0.00000000E+00	 0.00000000E+00	 4.38289000E-13

	 4.62195000E-13	 0.00000000E+00	 0.00000000E+00
	 0.00000000E+00	 4.62195000E-13	 0.00000000E+00
	 0.00000000E+00	 0.00000000E+00	 4.62195000E-13

	 4.38289000E-13	 0.00000000E+00	 0.00000000E+00
	 0.00000000E+00	 4.38289000E-13	 0.00000000E+00
	 0.00000000E+00	 0.00000000E+00	 4.38289000E-13

	 4.64852000E-13	 0.00000000E+00	 0.00000000E+00
	 0.00000000E+00	 4.64852000E-13	 0.00000000E+00
	 0.00000000E+00	 0.00000000E+00	 4.64852000E-13

	 4.38289000E-13	 0.00000000E+00	 0.00000000E+00
	 0.00000000E+00	 4.38289000E-13	 0.00000000E+00
	 0.00000000E+00	 0.00000000E+00	 4.38289000E-13

	 4.64852000E-13	 0.00000000E+00	 0.00000000E+00
	 0.00000000E+00	 4.64852000E-13	 0.00000000E+00
	 0.00000000E+00	 0.00000000E+00	 4.64852000E-13

	 4.64852000E-13	 0.00000000E+00	 0.00000000E+00
	 0.00000000E+00	 4.64852000E-13	 0.00000000E+00
	 0.00000000E+00	 0.00000000E+00	 4.64852000E-13

	 4.64852000E-13	 0.00000000E+00	 0.00000000E+00
	 0.00000000E+00	 4.64852000E-13	 0.00000000E+00
	 0.00000000E+00	 0.00000000E+00	 4.64852000E-13

	 4.42716000E-13	 0.00000000E+00	 0.00000000E+00
	 0.00000000E+00	 4.42716000E-13	 0.00000000E+00
	 0.00000000E+00	 0.00000000E+00	 4.42716000E-13

	 4.38289000E-13	 0.00000000E+00	 0.00000000E+00
	 0.00000000E+00	 4.38289000E-13	 0.00000000E+00
	 0.00000000E+00	 0.00000000E+00	 4.38289000E-13

	 4.51570000E-13	 0.00000000E+00	 0.00000000E+00
	 0.00000000E+00	 4.51570000E-13	 0.00000000E+00
	 0.00000000E+00	 0.00000000E+00	 4.51570000E-13

	 4.38289000E-13	 0.00000000E+00	 0.00000000E+00
	 0.00000000E+00	 4.38289000E-13	 0.00000000E+00
	 0.00000000E+00	 0.00000000E+00	 4.38289000E-13

	 4.40945000E-13	 0.00000000E+00	 0.00000000E+00
	 0.00000000E+00	 4.40945000E-13	 0.00000000E+00
	 0.00000000E+00	 0.00000000E+00	 4.40945000E-13

	 4.64852000E-13	 0.00000000E+00	 0.00000000E+00
	 0.00000000E+00	 4.64852000E-13	 0.00000000E+00
	 0.00000000E+00	 0.00000000E+00	 4.64852000E-13

	 4.56883000E-13	 0.00000000E+00	 0.00000000E+00
	 0.00000000E+00	 4.56883000E-13	 0.00000000E+00
	 0.00000000E+00	 0.00000000E+00	 4.56883000E-13

	 4.38289000E-13	 0.00000000E+00	 0.00000000E+00
	 0.00000000E+00	 4.38289000E-13	 0.00000000E+00
	 0.00000000E+00	 0.00000000E+00	 4.38289000E-13

	 4.40945000E-13	 0.00000000E+00	 0.00000000E+00
	 0.00000000E+00	 4.40945000E-13	 0.00000000E+00
	 0.00000000E+00	 0.00000000E+00	 4.40945000E-13

	 4.46258000E-13	 0.00000000E+00	 0.00000000E+00
	 0.00000000E+00	 4.46258000E-13	 0.00000000E+00
	 0.00000000E+00	 0.00000000E+00	 4.46258000E-13

	 4.64852000E-13	 0.00000000E+00	 0.00000000E+00
	 0.00000000E+00	 4.64852000E-13	 0.00000000E+00
	 0.00000000E+00	 0.00000000E+00	 4.64852000E-13

	 4.64852000E-13	 0.00000000E+00	 0.00000000E+00
	 0.00000000E+00	 4.64852000E-13	 0.00000000E+00
	 0.00000000E+00	 0.00000000E+00	 4.64852000E-13

	 4.38289000E-13	 0.00000000E+00	 0.00000000E+00
	 0.00000000E+00	 4.38289000E-13	 0.00000000E+00
	 0.00000000E+00	 0.00000000E+00	 4.38289000E-13

	 4.61531000E-13	 0.00000000E+00	 0.00000000E+00
	 0.00000000E+00	 4.61531000E-13	 0.00000000E+00
	 0.00000000E+00	 0.00000000E+00	 4.61531000E-13

	 4.64852000E-13	 0.00000000E+00	 0.00000000E+00
	 0.00000000E+00	 4.64852000E-13	 0.00000000E+00
	 0.00000000E+00	 0.00000000E+00	 4.64852000E-13

	 4.38289000E-13	 0.00000000E+00	 0.00000000E+00
	 0.00000000E+00	 4.38289000E-13	 0.00000000E+00
	 0.00000000E+00	 0.00000000E+00	 4.38289000E-13

	 4.38289000E-13	 0.00000000E+00	 0.00000000E+00
	 0.00000000E+00	 4.38289000E-13	 0.00000000E+00
	 0.00000000E+00	 0.00000000E+00	 4.38289000E-13

	 4.38289000E-13	 0.00000000E+00	 0.00000000E+00
	 0.00000000E+00	 4.38289000E-13	 0.00000000E+00
	 0.00000000E+00	 0.00000000E+00	 4.38289000E-13

	 4.64852000E-13	 0.00000000E+00	 0.00000000E+00
	 0.00000000E+00	 4.64852000E-13	 0.00000000E+00
	 0.00000000E+00	 0.00000000E+00	 4.64852000E-13

	 4.38289000E-13	 0.00000000E+00	 0.00000000E+00
	 0.00000000E+00	 4.38289000E-13	 0.00000000E+00
	 0.00000000E+00	 0.00000000E+00	 4.38289000E-13

	 4.38289000E-13	 0.00000000E+00	 0.00000000E+00
	 0.00000000E+00	 4.38289000E-13	 0.00000000E+00
	 0.00000000E+00	 0.00000000E+00	 4.38289000E-13

	 4.64852000E-13	 0.00000000E+00	 0.00000000E+00
	 0.00000000E+00	 4.64852000E-13	 0.00000000E+00
	 0.00000000E+00	 0.00000000E+00	 4.64852000E-13

	 4.38289000E-13	 0.00000000E+00	 0.00000000E+00
	 0.00000000E+00	 4.38289000E-13	 0.00000000E+00
	 0.00000000E+00	 0.00000000E+00	 4.38289000E-13

	 4.64852000E-13	 0.00000000E+00	 0.00000000E+00
	 0.00000000E+00	 4.64852000E-13	 0.00000000E+00
	 0.00000000E+00	 0.00000000E+00	 4.64852000E-13

	 4.64852000E-13	 0.00000000E+00	 0.00000000E+00
	 0.00000000E+00	 4.64852000E-13	 0.00000000E+00
	 0.00000000E+00	 0.00000000E+00	 4.64852000E-13

	 4.38289000E-13	 0.00000000E+00	 0.00000000E+00
	 0.00000000E+00	 4.38289000E-13	 0.00000000E+00
	 0.00000000E+00	 0.00000000E+00	 4.38289000E-13

	 4.64852000E-13	 0.00000000E+00	 0.00000000E+00
	 0.00000000E+00	 4.64852000E-13	 0.00000000E+00
	 0.00000000E+00	 0.00000000E+00	 4.64852000E-13

	 4.64852000E-13	 0.00000000E+00	 0.00000000E+00
	 0.00000000E+00	 4.64852000E-13	 0.00000000E+00
	 0.00000000E+00	 0.00000000E+00	 4.64852000E-13

	 4.59539000E-13	 0.00000000E+00	 0.00000000E+00
	 0.00000000E+00	 4.59539000E-13	 0.00000000E+00
	 0.00000000E+00	 0.00000000E+00	 4.59539000E-13

	 4.38289000E-13	 0.00000000E+00	 0.00000000E+00
	 0.00000000E+00	 4.38289000E-13	 0.00000000E+00
	 0.00000000E+00	 0.00000000E+00	 4.38289000E-13

	 4.64852000E-13	 0.00000000E+00	 0.00000000E+00
	 0.00000000E+00	 4.64852000E-13	 0.00000000E+00
	 0.00000000E+00	 0.00000000E+00	 4.64852000E-13

	 4.64852000E-13	 0.00000000E+00	 0.00000000E+00
	 0.00000000E+00	 4.64852000E-13	 0.00000000E+00
	 0.00000000E+00	 0.00000000E+00	 4.64852000E-13

	 4.38289000E-13	 0.00000000E+00	 0.00000000E+00
	 0.00000000E+00	 4.38289000E-13	 0.00000000E+00
	 0.00000000E+00	 0.00000000E+00	 4.38289000E-13

	 4.38289000E-13	 0.00000000E+00	 0.00000000E+00
	 0.00000000E+00	 4.38289000E-13	 0.00000000E+00
	 0.00000000E+00	 0.00000000E+00	 4.38289000E-13

	 4.38289000E-13	 0.00000000E+00	 0.00000000E+00
	 0.00000000E+00	 4.38289000E-13	 0.00000000E+00
	 0.00000000E+00	 0.00000000E+00	 4.38289000E-13

	 4.64852000E-13	 0.00000000E+00	 0.00000000E+00
	 0.00000000E+00	 4.64852000E-13	 0.00000000E+00
	 0.00000000E+00	 0.00000000E+00	 4.64852000E-13

	 4.64852000E-13	 0.00000000E+00	 0.00000000E+00
	 0.00000000E+00	 4.64852000E-13	 0.00000000E+00
	 0.00000000E+00	 0.00000000E+00	 4.64852000E-13

	 4.64852000E-13	 0.00000000E+00	 0.00000000E+00
	 0.00000000E+00	 4.64852000E-13	 0.00000000E+00
	 0.00000000E+00	 0.00000000E+00	 4.64852000E-13

	 4.64852000E-13	 0.00000000E+00	 0.00000000E+00
	 0.00000000E+00	 4.64852000E-13	 0.00000000E+00
	 0.00000000E+00	 0.00000000E+00	 4.64852000E-13

	 4.41609000E-13	 0.00000000E+00	 0.00000000E+00
	 0.00000000E+00	 4.41609000E-13	 0.00000000E+00
	 0.00000000E+00	 0.00000000E+00	 4.41609000E-13

	 4.62195000E-13	 0.00000000E+00	 0.00000000E+00
	 0.00000000E+00	 4.62195000E-13	 0.00000000E+00
	 0.00000000E+00	 0.00000000E+00	 4.62195000E-13

	 4.64852000E-13	 0.00000000E+00	 0.00000000E+00
	 0.00000000E+00	 4.64852000E-13	 0.00000000E+00
	 0.00000000E+00	 0.00000000E+00	 4.64852000E-13

	 4.38289000E-13	 0.00000000E+00	 0.00000000E+00
	 0.00000000E+00	 4.38289000E-13	 0.00000000E+00
	 0.00000000E+00	 0.00000000E+00	 4.38289000E-13

	 4.64852000E-13	 0.00000000E+00	 0.00000000E+00
	 0.00000000E+00	 4.64852000E-13	 0.00000000E+00
	 0.00000000E+00	 0.00000000E+00	 4.64852000E-13

	 4.44929000E-13	 0.00000000E+00	 0.00000000E+00
	 0.00000000E+00	 4.44929000E-13	 0.00000000E+00
	 0.00000000E+00	 0.00000000E+00	 4.44929000E-13

	 4.40945000E-13	 0.00000000E+00	 0.00000000E+00
	 0.00000000E+00	 4.40945000E-13	 0.00000000E+00
	 0.00000000E+00	 0.00000000E+00	 4.40945000E-13

	 4.42716000E-13	 0.00000000E+00	 0.00000000E+00
	 0.00000000E+00	 4.42716000E-13	 0.00000000E+00
	 0.00000000E+00	 0.00000000E+00	 4.42716000E-13

	 4.38289000E-13	 0.00000000E+00	 0.00000000E+00
	 0.00000000E+00	 4.38289000E-13	 0.00000000E+00
	 0.00000000E+00	 0.00000000E+00	 4.38289000E-13

	 4.64852000E-13	 0.00000000E+00	 0.00000000E+00
	 0.00000000E+00	 4.64852000E-13	 0.00000000E+00
	 0.00000000E+00	 0.00000000E+00	 4.64852000E-13

	 4.64852000E-13	 0.00000000E+00	 0.00000000E+00
	 0.00000000E+00	 4.64852000E-13	 0.00000000E+00
	 0.00000000E+00	 0.00000000E+00	 4.64852000E-13

	 4.64852000E-13	 0.00000000E+00	 0.00000000E+00
	 0.00000000E+00	 4.64852000E-13	 0.00000000E+00
	 0.00000000E+00	 0.00000000E+00	 4.64852000E-13

	 4.64852000E-13	 0.00000000E+00	 0.00000000E+00
	 0.00000000E+00	 4.64852000E-13	 0.00000000E+00
	 0.00000000E+00	 0.00000000E+00	 4.64852000E-13

	 4.64852000E-13	 0.00000000E+00	 0.00000000E+00
	 0.00000000E+00	 4.64852000E-13	 0.00000000E+00
	 0.00000000E+00	 0.00000000E+00	 4.64852000E-13

	 4.59539000E-13	 0.00000000E+00	 0.00000000E+00
	 0.00000000E+00	 4.59539000E-13	 0.00000000E+00
	 0.00000000E+00	 0.00000000E+00	 4.59539000E-13

	 4.64852000E-13	 0.00000000E+00	 0.00000000E+00
	 0.00000000E+00	 4.64852000E-13	 0.00000000E+00
	 0.00000000E+00	 0.00000000E+00	 4.64852000E-13

	 4.43601000E-13	 0.00000000E+00	 0.00000000E+00
	 0.00000000E+00	 4.43601000E-13	 0.00000000E+00
	 0.00000000E+00	 0.00000000E+00	 4.43601000E-13

	 4.56883000E-13	 0.00000000E+00	 0.00000000E+00
	 0.00000000E+00	 4.56883000E-13	 0.00000000E+00
	 0.00000000E+00	 0.00000000E+00	 4.56883000E-13

	 4.64852000E-13	 0.00000000E+00	 0.00000000E+00
	 0.00000000E+00	 4.64852000E-13	 0.00000000E+00
	 0.00000000E+00	 0.00000000E+00	 4.64852000E-13

	 4.38289000E-13	 0.00000000E+00	 0.00000000E+00
	 0.00000000E+00	 4.38289000E-13	 0.00000000E+00
	 0.00000000E+00	 0.00000000E+00	 4.38289000E-13

	 4.40945000E-13	 0.00000000E+00	 0.00000000E+00
	 0.00000000E+00	 4.40945000E-13	 0.00000000E+00
	 0.00000000E+00	 0.00000000E+00	 4.40945000E-13

	 4.62195000E-13	 0.00000000E+00	 0.00000000E+00
	 0.00000000E+00	 4.62195000E-13	 0.00000000E+00
	 0.00000000E+00	 0.00000000E+00	 4.62195000E-13

	 4.64852000E-13	 0.00000000E+00	 0.00000000E+00
	 0.00000000E+00	 4.64852000E-13	 0.00000000E+00
	 0.00000000E+00	 0.00000000E+00	 4.64852000E-13

	 4.40945000E-13	 0.00000000E+00	 0.00000000E+00
	 0.00000000E+00	 4.40945000E-13	 0.00000000E+00
	 0.00000000E+00	 0.00000000E+00	 4.40945000E-13

	 4.38289000E-13	 0.00000000E+00	 0.00000000E+00
	 0.00000000E+00	 4.38289000E-13	 0.00000000E+00
	 0.00000000E+00	 0.00000000E+00	 4.38289000E-13

	 4.64852000E-13	 0.00000000E+00	 0.00000000E+00
	 0.00000000E+00	 4.64852000E-13	 0.00000000E+00
	 0.00000000E+00	 0.00000000E+00	 4.64852000E-13

	 4.38289000E-13	 0.00000000E+00	 0.00000000E+00
	 0.00000000E+00	 4.38289000E-13	 0.00000000E+00
	 0.00000000E+00	 0.00000000E+00	 4.38289000E-13

	 4.64852000E-13	 0.00000000E+00	 0.00000000E+00
	 0.00000000E+00	 4.64852000E-13	 0.00000000E+00
	 0.00000000E+00	 0.00000000E+00	 4.64852000E-13

	 4.64852000E-13	 0.00000000E+00	 0.00000000E+00
	 0.00000000E+00	 4.64852000E-13	 0.00000000E+00
	 0.00000000E+00	 0.00000000E+00	 4.64852000E-13

	 4.56883000E-13	 0.00000000E+00	 0.00000000E+00
	 0.00000000E+00	 4.56883000E-13	 0.00000000E+00
	 0.00000000E+00	 0.00000000E+00	 4.56883000E-13

	 4.64852000E-13	 0.00000000E+00	 0.00000000E+00
	 0.00000000E+00	 4.64852000E-13	 0.00000000E+00
	 0.00000000E+00	 0.00000000E+00	 4.64852000E-13

	 4.40945000E-13	 0.00000000E+00	 0.00000000E+00
	 0.00000000E+00	 4.40945000E-13	 0.00000000E+00
	 0.00000000E+00	 0.00000000E+00	 4.40945000E-13

	 4.38289000E-13	 0.00000000E+00	 0.00000000E+00
	 0.00000000E+00	 4.38289000E-13	 0.00000000E+00
	 0.00000000E+00	 0.00000000E+00	 4.38289000E-13

	 4.64852000E-13	 0.00000000E+00	 0.00000000E+00
	 0.00000000E+00	 4.64852000E-13	 0.00000000E+00
	 0.00000000E+00	 0.00000000E+00	 4.64852000E-13

	 4.64852000E-13	 0.00000000E+00	 0.00000000E+00
	 0.00000000E+00	 4.64852000E-13	 0.00000000E+00
	 0.00000000E+00	 0.00000000E+00	 4.64852000E-13

	 4.48914000E-13	 0.00000000E+00	 0.00000000E+00
	 0.00000000E+00	 4.48914000E-13	 0.00000000E+00
	 0.00000000E+00	 0.00000000E+00	 4.48914000E-13

	 4.40945000E-13	 0.00000000E+00	 0.00000000E+00
	 0.00000000E+00	 4.40945000E-13	 0.00000000E+00
	 0.00000000E+00	 0.00000000E+00	 4.40945000E-13

	 4.64852000E-13	 0.00000000E+00	 0.00000000E+00
	 0.00000000E+00	 4.64852000E-13	 0.00000000E+00
	 0.00000000E+00	 0.00000000E+00	 4.64852000E-13

	 4.64852000E-13	 0.00000000E+00	 0.00000000E+00
	 0.00000000E+00	 4.64852000E-13	 0.00000000E+00
	 0.00000000E+00	 0.00000000E+00	 4.64852000E-13

	 4.40945000E-13	 0.00000000E+00	 0.00000000E+00
	 0.00000000E+00	 4.40945000E-13	 0.00000000E+00
	 0.00000000E+00	 0.00000000E+00	 4.40945000E-13

	 4.64852000E-13	 0.00000000E+00	 0.00000000E+00
	 0.00000000E+00	 4.64852000E-13	 0.00000000E+00
	 0.00000000E+00	 0.00000000E+00	 4.64852000E-13

	 4.64852000E-13	 0.00000000E+00	 0.00000000E+00
	 0.00000000E+00	 4.64852000E-13	 0.00000000E+00
	 0.00000000E+00	 0.00000000E+00	 4.64852000E-13

	 4.38289000E-13	 0.00000000E+00	 0.00000000E+00
	 0.00000000E+00	 4.38289000E-13	 0.00000000E+00
	 0.00000000E+00	 0.00000000E+00	 4.38289000E-13

	 4.64852000E-13	 0.00000000E+00	 0.00000000E+00
	 0.00000000E+00	 4.64852000E-13	 0.00000000E+00
	 0.00000000E+00	 0.00000000E+00	 4.64852000E-13

	 4.64852000E-13	 0.00000000E+00	 0.00000000E+00
	 0.00000000E+00	 4.64852000E-13	 0.00000000E+00
	 0.00000000E+00	 0.00000000E+00	 4.64852000E-13

	 4.38289000E-13	 0.00000000E+00	 0.00000000E+00
	 0.00000000E+00	 4.38289000E-13	 0.00000000E+00
	 0.00000000E+00	 0.00000000E+00	 4.38289000E-13

	 4.64852000E-13	 0.00000000E+00	 0.00000000E+00
	 0.00000000E+00	 4.64852000E-13	 0.00000000E+00
	 0.00000000E+00	 0.00000000E+00	 4.64852000E-13

	 4.64852000E-13	 0.00000000E+00	 0.00000000E+00
	 0.00000000E+00	 4.64852000E-13	 0.00000000E+00
	 0.00000000E+00	 0.00000000E+00	 4.64852000E-13

	 4.64852000E-13	 0.00000000E+00	 0.00000000E+00
	 0.00000000E+00	 4.64852000E-13	 0.00000000E+00
	 0.00000000E+00	 0.00000000E+00	 4.64852000E-13

	 4.38289000E-13	 0.00000000E+00	 0.00000000E+00
	 0.00000000E+00	 4.38289000E-13	 0.00000000E+00
	 0.00000000E+00	 0.00000000E+00	 4.38289000E-13

	 4.64852000E-13	 0.00000000E+00	 0.00000000E+00
	 0.00000000E+00	 4.64852000E-13	 0.00000000E+00
	 0.00000000E+00	 0.00000000E+00	 4.64852000E-13

	 4.64852000E-13	 0.00000000E+00	 0.00000000E+00
	 0.00000000E+00	 4.64852000E-13	 0.00000000E+00
	 0.00000000E+00	 0.00000000E+00	 4.64852000E-13

	 4.64852000E-13	 0.00000000E+00	 0.00000000E+00
	 0.00000000E+00	 4.64852000E-13	 0.00000000E+00
	 0.00000000E+00	 0.00000000E+00	 4.64852000E-13

	 4.64852000E-13	 0.00000000E+00	 0.00000000E+00
	 0.00000000E+00	 4.64852000E-13	 0.00000000E+00
	 0.00000000E+00	 0.00000000E+00	 4.64852000E-13

	 4.38289000E-13	 0.00000000E+00	 0.00000000E+00
	 0.00000000E+00	 4.38289000E-13	 0.00000000E+00
	 0.00000000E+00	 0.00000000E+00	 4.38289000E-13

	 4.64852000E-13	 0.00000000E+00	 0.00000000E+00
	 0.00000000E+00	 4.64852000E-13	 0.00000000E+00
	 0.00000000E+00	 0.00000000E+00	 4.64852000E-13

	 4.64852000E-13	 0.00000000E+00	 0.00000000E+00
	 0.00000000E+00	 4.64852000E-13	 0.00000000E+00
	 0.00000000E+00	 0.00000000E+00	 4.64852000E-13

	 4.43601000E-13	 0.00000000E+00	 0.00000000E+00
	 0.00000000E+00	 4.43601000E-13	 0.00000000E+00
	 0.00000000E+00	 0.00000000E+00	 4.43601000E-13

	 4.64852000E-13	 0.00000000E+00	 0.00000000E+00
	 0.00000000E+00	 4.64852000E-13	 0.00000000E+00
	 0.00000000E+00	 0.00000000E+00	 4.64852000E-13

	 4.38289000E-13	 0.00000000E+00	 0.00000000E+00
	 0.00000000E+00	 4.38289000E-13	 0.00000000E+00
	 0.00000000E+00	 0.00000000E+00	 4.38289000E-13

	 4.64852000E-13	 0.00000000E+00	 0.00000000E+00
	 0.00000000E+00	 4.64852000E-13	 0.00000000E+00
	 0.00000000E+00	 0.00000000E+00	 4.64852000E-13

	 4.64852000E-13	 0.00000000E+00	 0.00000000E+00
	 0.00000000E+00	 4.64852000E-13	 0.00000000E+00
	 0.00000000E+00	 0.00000000E+00	 4.64852000E-13

TENSORS 1_1.0_TOSTRAIN double
	 0.00000000E+00	 0.00000000E+00	 0.00000000E+00
	 0.00000000E+00	 0.00000000E+00	 0.00000000E+00
	 0.00000000E+00	 0.00000000E+00	 0.00000000E+00

	 0.00000000E+00	 0.00000000E+00	 0.00000000E+00
	 0.00000000E+00	 0.00000000E+00	 0.00000000E+00
	 0.00000000E+00	 0.00000000E+00	 0.00000000E+00

	 0.00000000E+00	 0.00000000E+00	 0.00000000E+00
	 0.00000000E+00	 0.00000000E+00	 0.00000000E+00
	 0.00000000E+00	 0.00000000E+00	 0.00000000E+00

	 0.00000000E+00	 0.00000000E+00	 0.00000000E+00
	 0.00000000E+00	 0.00000000E+00	 0.00000000E+00
	 0.00000000E+00	 0.00000000E+00	 0.00000000E+00

	 0.00000000E+00	 0.00000000E+00	 0.00000000E+00
	 0.00000000E+00	 0.00000000E+00	 0.00000000E+00
	 0.00000000E+00	 0.00000000E+00	 0.00000000E+00

	 0.00000000E+00	 0.00000000E+00	 0.00000000E+00
	 0.00000000E+00	 0.00000000E+00	 0.00000000E+00
	 0.00000000E+00	 0.00000000E+00	 0.00000000E+00

	 0.00000000E+00	 0.00000000E+00	 0.00000000E+00
	 0.00000000E+00	 0.00000000E+00	 0.00000000E+00
	 0.00000000E+00	 0.00000000E+00	 0.00000000E+00

	 0.00000000E+00	 0.00000000E+00	 0.00000000E+00
	 0.00000000E+00	 0.00000000E+00	 0.00000000E+00
	 0.00000000E+00	 0.00000000E+00	 0.00000000E+00

	 0.00000000E+00	 0.00000000E+00	 0.00000000E+00
	 0.00000000E+00	 0.00000000E+00	 0.00000000E+00
	 0.00000000E+00	 0.00000000E+00	 0.00000000E+00

	 0.00000000E+00	 0.00000000E+00	 0.00000000E+00
	 0.00000000E+00	 0.00000000E+00	 0.00000000E+00
	 0.00000000E+00	 0.00000000E+00	 0.00000000E+00

	 0.00000000E+00	 0.00000000E+00	 0.00000000E+00
	 0.00000000E+00	 0.00000000E+00	 0.00000000E+00
	 0.00000000E+00	 0.00000000E+00	 0.00000000E+00

	 0.00000000E+00	 0.00000000E+00	 0.00000000E+00
	 0.00000000E+00	 0.00000000E+00	 0.00000000E+00
	 0.00000000E+00	 0.00000000E+00	 0.00000000E+00

	 0.00000000E+00	 0.00000000E+00	 0.00000000E+00
	 0.00000000E+00	 0.00000000E+00	 0.00000000E+00
	 0.00000000E+00	 0.00000000E+00	 0.00000000E+00

	 0.00000000E+00	 0.00000000E+00	 0.00000000E+00
	 0.00000000E+00	 0.00000000E+00	 0.00000000E+00
	 0.00000000E+00	 0.00000000E+00	 0.00000000E+00

	 0.00000000E+00	 0.00000000E+00	 0.00000000E+00
	 0.00000000E+00	 0.00000000E+00	 0.00000000E+00
	 0.00000000E+00	 0.00000000E+00	 0.00000000E+00

	 0.00000000E+00	 0.00000000E+00	 0.00000000E+00
	 0.00000000E+00	 0.00000000E+00	 0.00000000E+00
	 0.00000000E+00	 0.00000000E+00	 0.00000000E+00

	 0.00000000E+00	 0.00000000E+00	 0.00000000E+00
	 0.00000000E+00	 0.00000000E+00	 0.00000000E+00
	 0.00000000E+00	 0.00000000E+00	 0.00000000E+00

	 0.00000000E+00	 0.00000000E+00	 0.00000000E+00
	 0.00000000E+00	 0.00000000E+00	 0.00000000E+00
	 0.00000000E+00	 0.00000000E+00	 0.00000000E+00

	 0.00000000E+00	 0.00000000E+00	 0.00000000E+00
	 0.00000000E+00	 0.00000000E+00	 0.00000000E+00
	 0.00000000E+00	 0.00000000E+00	 0.00000000E+00

	 0.00000000E+00	 0.00000000E+00	 0.00000000E+00
	 0.00000000E+00	 0.00000000E+00	 0.00000000E+00
	 0.00000000E+00	 0.00000000E+00	 0.00000000E+00

	 0.00000000E+00	 0.00000000E+00	 0.00000000E+00
	 0.00000000E+00	 0.00000000E+00	 0.00000000E+00
	 0.00000000E+00	 0.00000000E+00	 0.00000000E+00

	 0.00000000E+00	 0.00000000E+00	 0.00000000E+00
	 0.00000000E+00	 0.00000000E+00	 0.00000000E+00
	 0.00000000E+00	 0.00000000E+00	 0.00000000E+00

	 0.00000000E+00	 0.00000000E+00	 0.00000000E+00
	 0.00000000E+00	 0.00000000E+00	 0.00000000E+00
	 0.00000000E+00	 0.00000000E+00	 0.00000000E+00

	 0.00000000E+00	 0.00000000E+00	 0.00000000E+00
	 0.00000000E+00	 0.00000000E+00	 0.00000000E+00
	 0.00000000E+00	 0.00000000E+00	 0.00000000E+00

	 0.00000000E+00	 0.00000000E+00	 0.00000000E+00
	 0.00000000E+00	 0.00000000E+00	 0.00000000E+00
	 0.00000000E+00	 0.00000000E+00	 0.00000000E+00

	 0.00000000E+00	 0.00000000E+00	 0.00000000E+00
	 0.00000000E+00	 0.00000000E+00	 0.00000000E+00
	 0.00000000E+00	 0.00000000E+00	 0.00000000E+00

	 0.00000000E+00	 0.00000000E+00	 0.00000000E+00
	 0.00000000E+00	 0.00000000E+00	 0.00000000E+00
	 0.00000000E+00	 0.00000000E+00	 0.00000000E+00

	 0.00000000E+00	 0.00000000E+00	 0.00000000E+00
	 0.00000000E+00	 0.00000000E+00	 0.00000000E+00
	 0.00000000E+00	 0.00000000E+00	 0.00000000E+00

	 0.00000000E+00	 0.00000000E+00	 0.00000000E+00
	 0.00000000E+00	 0.00000000E+00	 0.00000000E+00
	 0.00000000E+00	 0.00000000E+00	 0.00000000E+00

	 0.00000000E+00	 0.00000000E+00	 0.00000000E+00
	 0.00000000E+00	 0.00000000E+00	 0.00000000E+00
	 0.00000000E+00	 0.00000000E+00	 0.00000000E+00

	 0.00000000E+00	 0.00000000E+00	 0.00000000E+00
	 0.00000000E+00	 0.00000000E+00	 0.00000000E+00
	 0.00000000E+00	 0.00000000E+00	 0.00000000E+00

	 0.00000000E+00	 0.00000000E+00	 0.00000000E+00
	 0.00000000E+00	 0.00000000E+00	 0.00000000E+00
	 0.00000000E+00	 0.00000000E+00	 0.00000000E+00

	 0.00000000E+00	 0.00000000E+00	 0.00000000E+00
	 0.00000000E+00	 0.00000000E+00	 0.00000000E+00
	 0.00000000E+00	 0.00000000E+00	 0.00000000E+00

	 0.00000000E+00	 0.00000000E+00	 0.00000000E+00
	 0.00000000E+00	 0.00000000E+00	 0.00000000E+00
	 0.00000000E+00	 0.00000000E+00	 0.00000000E+00

	 0.00000000E+00	 0.00000000E+00	 0.00000000E+00
	 0.00000000E+00	 0.00000000E+00	 0.00000000E+00
	 0.00000000E+00	 0.00000000E+00	 0.00000000E+00

	 0.00000000E+00	 0.00000000E+00	 0.00000000E+00
	 0.00000000E+00	 0.00000000E+00	 0.00000000E+00
	 0.00000000E+00	 0.00000000E+00	 0.00000000E+00

	 0.00000000E+00	 0.00000000E+00	 0.00000000E+00
	 0.00000000E+00	 0.00000000E+00	 0.00000000E+00
	 0.00000000E+00	 0.00000000E+00	 0.00000000E+00

	 0.00000000E+00	 0.00000000E+00	 0.00000000E+00
	 0.00000000E+00	 0.00000000E+00	 0.00000000E+00
	 0.00000000E+00	 0.00000000E+00	 0.00000000E+00

	 0.00000000E+00	 0.00000000E+00	 0.00000000E+00
	 0.00000000E+00	 0.00000000E+00	 0.00000000E+00
	 0.00000000E+00	 0.00000000E+00	 0.00000000E+00

	 0.00000000E+00	 0.00000000E+00	 0.00000000E+00
	 0.00000000E+00	 0.00000000E+00	 0.00000000E+00
	 0.00000000E+00	 0.00000000E+00	 0.00000000E+00

	 0.00000000E+00	 0.00000000E+00	 0.00000000E+00
	 0.00000000E+00	 0.00000000E+00	 0.00000000E+00
	 0.00000000E+00	 0.00000000E+00	 0.00000000E+00

	 0.00000000E+00	 0.00000000E+00	 0.00000000E+00
	 0.00000000E+00	 0.00000000E+00	 0.00000000E+00
	 0.00000000E+00	 0.00000000E+00	 0.00000000E+00

	 0.00000000E+00	 0.00000000E+00	 0.00000000E+00
	 0.00000000E+00	 0.00000000E+00	 0.00000000E+00
	 0.00000000E+00	 0.00000000E+00	 0.00000000E+00

	 0.00000000E+00	 0.00000000E+00	 0.00000000E+00
	 0.00000000E+00	 0.00000000E+00	 0.00000000E+00
	 0.00000000E+00	 0.00000000E+00	 0.00000000E+00

	 0.00000000E+00	 0.00000000E+00	 0.00000000E+00
	 0.00000000E+00	 0.00000000E+00	 0.00000000E+00
	 0.00000000E+00	 0.00000000E+00	 0.00000000E+00

	 0.00000000E+00	 0.00000000E+00	 0.00000000E+00
	 0.00000000E+00	 0.00000000E+00	 0.00000000E+00
	 0.00000000E+00	 0.00000000E+00	 0.00000000E+00

	 0.00000000E+00	 0.00000000E+00	 0.00000000E+00
	 0.00000000E+00	 0.00000000E+00	 0.00000000E+00
	 0.00000000E+00	 0.00000000E+00	 0.00000000E+00

	 0.00000000E+00	 0.00000000E+00	 0.00000000E+00
	 0.00000000E+00	 0.00000000E+00	 0.00000000E+00
	 0.00000000E+00	 0.00000000E+00	 0.00000000E+00

	 0.00000000E+00	 0.00000000E+00	 0.00000000E+00
	 0.00000000E+00	 0.00000000E+00	 0.00000000E+00
	 0.00000000E+00	 0.00000000E+00	 0.00000000E+00

	 0.00000000E+00	 0.00000000E+00	 0.00000000E+00
	 0.00000000E+00	 0.00000000E+00	 0.00000000E+00
	 0.00000000E+00	 0.00000000E+00	 0.00000000E+00

	 0.00000000E+00	 0.00000000E+00	 0.00000000E+00
	 0.00000000E+00	 0.00000000E+00	 0.00000000E+00
	 0.00000000E+00	 0.00000000E+00	 0.00000000E+00

	 0.00000000E+00	 0.00000000E+00	 0.00000000E+00
	 0.00000000E+00	 0.00000000E+00	 0.00000000E+00
	 0.00000000E+00	 0.00000000E+00	 0.00000000E+00

	 0.00000000E+00	 0.00000000E+00	 0.00000000E+00
	 0.00000000E+00	 0.00000000E+00	 0.00000000E+00
	 0.00000000E+00	 0.00000000E+00	 0.00000000E+00

	 0.00000000E+00	 0.00000000E+00	 0.00000000E+00
	 0.00000000E+00	 0.00000000E+00	 0.00000000E+00
	 0.00000000E+00	 0.00000000E+00	 0.00000000E+00

	 0.00000000E+00	 0.00000000E+00	 0.00000000E+00
	 0.00000000E+00	 0.00000000E+00	 0.00000000E+00
	 0.00000000E+00	 0.00000000E+00	 0.00000000E+00

	 0.00000000E+00	 0.00000000E+00	 0.00000000E+00
	 0.00000000E+00	 0.00000000E+00	 0.00000000E+00
	 0.00000000E+00	 0.00000000E+00	 0.00000000E+00

	 0.00000000E+00	 0.00000000E+00	 0.00000000E+00
	 0.00000000E+00	 0.00000000E+00	 0.00000000E+00
	 0.00000000E+00	 0.00000000E+00	 0.00000000E+00

	 0.00000000E+00	 0.00000000E+00	 0.00000000E+00
	 0.00000000E+00	 0.00000000E+00	 0.00000000E+00
	 0.00000000E+00	 0.00000000E+00	 0.00000000E+00

	 0.00000000E+00	 0.00000000E+00	 0.00000000E+00
	 0.00000000E+00	 0.00000000E+00	 0.00000000E+00
	 0.00000000E+00	 0.00000000E+00	 0.00000000E+00

	 0.00000000E+00	 0.00000000E+00	 0.00000000E+00
	 0.00000000E+00	 0.00000000E+00	 0.00000000E+00
	 0.00000000E+00	 0.00000000E+00	 0.00000000E+00

	 0.00000000E+00	 0.00000000E+00	 0.00000000E+00
	 0.00000000E+00	 0.00000000E+00	 0.00000000E+00
	 0.00000000E+00	 0.00000000E+00	 0.00000000E+00

	 0.00000000E+00	 0.00000000E+00	 0.00000000E+00
	 0.00000000E+00	 0.00000000E+00	 0.00000000E+00
	 0.00000000E+00	 0.00000000E+00	 0.00000000E+00

	 0.00000000E+00	 0.00000000E+00	 0.00000000E+00
	 0.00000000E+00	 0.00000000E+00	 0.00000000E+00
	 0.00000000E+00	 0.00000000E+00	 0.00000000E+00

	 0.00000000E+00	 0.00000000E+00	 0.00000000E+00
	 0.00000000E+00	 0.00000000E+00	 0.00000000E+00
	 0.00000000E+00	 0.00000000E+00	 0.00000000E+00

	 0.00000000E+00	 0.00000000E+00	 0.00000000E+00
	 0.00000000E+00	 0.00000000E+00	 0.00000000E+00
	 0.00000000E+00	 0.00000000E+00	 0.00000000E+00

	 0.00000000E+00	 0.00000000E+00	 0.00000000E+00
	 0.00000000E+00	 0.00000000E+00	 0.00000000E+00
	 0.00000000E+00	 0.00000000E+00	 0.00000000E+00

	 0.00000000E+00	 0.00000000E+00	 0.00000000E+00
	 0.00000000E+00	 0.00000000E+00	 0.00000000E+00
	 0.00000000E+00	 0.00000000E+00	 0.00000000E+00

	 0.00000000E+00	 0.00000000E+00	 0.00000000E+00
	 0.00000000E+00	 0.00000000E+00	 0.00000000E+00
	 0.00000000E+00	 0.00000000E+00	 0.00000000E+00

	 0.00000000E+00	 0.00000000E+00	 0.00000000E+00
	 0.00000000E+00	 0.00000000E+00	 0.00000000E+00
	 0.00000000E+00	 0.00000000E+00	 0.00000000E+00

	 0.00000000E+00	 0.00000000E+00	 0.00000000E+00
	 0.00000000E+00	 0.00000000E+00	 0.00000000E+00
	 0.00000000E+00	 0.00000000E+00	 0.00000000E+00

	 0.00000000E+00	 0.00000000E+00	 0.00000000E+00
	 0.00000000E+00	 0.00000000E+00	 0.00000000E+00
	 0.00000000E+00	 0.00000000E+00	 0.00000000E+00

	 0.00000000E+00	 0.00000000E+00	 0.00000000E+00
	 0.00000000E+00	 0.00000000E+00	 0.00000000E+00
	 0.00000000E+00	 0.00000000E+00	 0.00000000E+00

	 0.00000000E+00	 0.00000000E+00	 0.00000000E+00
	 0.00000000E+00	 0.00000000E+00	 0.00000000E+00
	 0.00000000E+00	 0.00000000E+00	 0.00000000E+00

	 0.00000000E+00	 0.00000000E+00	 0.00000000E+00
	 0.00000000E+00	 0.00000000E+00	 0.00000000E+00
	 0.00000000E+00	 0.00000000E+00	 0.00000000E+00

	 0.00000000E+00	 0.00000000E+00	 0.00000000E+00
	 0.00000000E+00	 0.00000000E+00	 0.00000000E+00
	 0.00000000E+00	 0.00000000E+00	 0.00000000E+00

	 0.00000000E+00	 0.00000000E+00	 0.00000000E+00
	 0.00000000E+00	 0.00000000E+00	 0.00000000E+00
	 0.00000000E+00	 0.00000000E+00	 0.00000000E+00

	 0.00000000E+00	 0.00000000E+00	 0.00000000E+00
	 0.00000000E+00	 0.00000000E+00	 0.00000000E+00
	 0.00000000E+00	 0.00000000E+00	 0.00000000E+00

	 0.00000000E+00	 0.00000000E+00	 0.00000000E+00
	 0.00000000E+00	 0.00000000E+00	 0.00000000E+00
	 0.00000000E+00	 0.00000000E+00	 0.00000000E+00

	 0.00000000E+00	 0.00000000E+00	 0.00000000E+00
	 0.00000000E+00	 0.00000000E+00	 0.00000000E+00
	 0.00000000E+00	 0.00000000E+00	 0.00000000E+00

	 0.00000000E+00	 0.00000000E+00	 0.00000000E+00
	 0.00000000E+00	 0.00000000E+00	 0.00000000E+00
	 0.00000000E+00	 0.00000000E+00	 0.00000000E+00

	 0.00000000E+00	 0.00000000E+00	 0.00000000E+00
	 0.00000000E+00	 0.00000000E+00	 0.00000000E+00
	 0.00000000E+00	 0.00000000E+00	 0.00000000E+00

	 0.00000000E+00	 0.00000000E+00	 0.00000000E+00
	 0.00000000E+00	 0.00000000E+00	 0.00000000E+00
	 0.00000000E+00	 0.00000000E+00	 0.00000000E+00

	 0.00000000E+00	 0.00000000E+00	 0.00000000E+00
	 0.00000000E+00	 0.00000000E+00	 0.00000000E+00
	 0.00000000E+00	 0.00000000E+00	 0.00000000E+00

	 0.00000000E+00	 0.00000000E+00	 0.00000000E+00
	 0.00000000E+00	 0.00000000E+00	 0.00000000E+00
	 0.00000000E+00	 0.00000000E+00	 0.00000000E+00

	 0.00000000E+00	 0.00000000E+00	 0.00000000E+00
	 0.00000000E+00	 0.00000000E+00	 0.00000000E+00
	 0.00000000E+00	 0.00000000E+00	 0.00000000E+00

	 0.00000000E+00	 0.00000000E+00	 0.00000000E+00
	 0.00000000E+00	 0.00000000E+00	 0.00000000E+00
	 0.00000000E+00	 0.00000000E+00	 0.00000000E+00

	 0.00000000E+00	 0.00000000E+00	 0.00000000E+00
	 0.00000000E+00	 0.00000000E+00	 0.00000000E+00
	 0.00000000E+00	 0.00000000E+00	 0.00000000E+00

	 0.00000000E+00	 0.00000000E+00	 0.00000000E+00
	 0.00000000E+00	 0.00000000E+00	 0.00000000E+00
	 0.00000000E+00	 0.00000000E+00	 0.00000000E+00

	 0.00000000E+00	 0.00000000E+00	 0.00000000E+00
	 0.00000000E+00	 0.00000000E+00	 0.00000000E+00
	 0.00000000E+00	 0.00000000E+00	 0.00000000E+00

	 0.00000000E+00	 0.00000000E+00	 0.00000000E+00
	 0.00000000E+00	 0.00000000E+00	 0.00000000E+00
	 0.00000000E+00	 0.00000000E+00	 0.00000000E+00

	 0.00000000E+00	 0.00000000E+00	 0.00000000E+00
	 0.00000000E+00	 0.00000000E+00	 0.00000000E+00
	 0.00000000E+00	 0.00000000E+00	 0.00000000E+00

	 0.00000000E+00	 0.00000000E+00	 0.00000000E+00
	 0.00000000E+00	 0.00000000E+00	 0.00000000E+00
	 0.00000000E+00	 0.00000000E+00	 0.00000000E+00

	 0.00000000E+00	 0.00000000E+00	 0.00000000E+00
	 0.00000000E+00	 0.00000000E+00	 0.00000000E+00
	 0.00000000E+00	 0.00000000E+00	 0.00000000E+00

	 0.00000000E+00	 0.00000000E+00	 0.00000000E+00
	 0.00000000E+00	 0.00000000E+00	 0.00000000E+00
	 0.00000000E+00	 0.00000000E+00	 0.00000000E+00

	 0.00000000E+00	 0.00000000E+00	 0.00000000E+00
	 0.00000000E+00	 0.00000000E+00	 0.00000000E+00
	 0.00000000E+00	 0.00000000E+00	 0.00000000E+00

	 0.00000000E+00	 0.00000000E+00	 0.00000000E+00
	 0.00000000E+00	 0.00000000E+00	 0.00000000E+00
	 0.00000000E+00	 0.00000000E+00	 0.00000000E+00

	 0.00000000E+00	 0.00000000E+00	 0.00000000E+00
	 0.00000000E+00	 0.00000000E+00	 0.00000000E+00
	 0.00000000E+00	 0.00000000E+00	 0.00000000E+00

	 0.00000000E+00	 0.00000000E+00	 0.00000000E+00
	 0.00000000E+00	 0.00000000E+00	 0.00000000E+00
	 0.00000000E+00	 0.00000000E+00	 0.00000000E+00

	 0.00000000E+00	 0.00000000E+00	 0.00000000E+00
	 0.00000000E+00	 0.00000000E+00	 0.00000000E+00
	 0.00000000E+00	 0.00000000E+00	 0.00000000E+00

	 0.00000000E+00	 0.00000000E+00	 0.00000000E+00
	 0.00000000E+00	 0.00000000E+00	 0.00000000E+00
	 0.00000000E+00	 0.00000000E+00	 0.00000000E+00

	 0.00000000E+00	 0.00000000E+00	 0.00000000E+00
	 0.00000000E+00	 0.00000000E+00	 0.00000000E+00
	 0.00000000E+00	 0.00000000E+00	 0.00000000E+00

	 0.00000000E+00	 0.00000000E+00	 0.00000000E+00
	 0.00000000E+00	 0.00000000E+00	 0.00000000E+00
	 0.00000000E+00	 0.00000000E+00	 0.00000000E+00

	 0.00000000E+00	 0.00000000E+00	 0.00000000E+00
	 0.00000000E+00	 0.00000000E+00	 0.00000000E+00
	 0.00000000E+00	 0.00000000E+00	 0.00000000E+00

	 0.00000000E+00	 0.00000000E+00	 0.00000000E+00
	 0.00000000E+00	 0.00000000E+00	 0.00000000E+00
	 0.00000000E+00	 0.00000000E+00	 0.00000000E+00

	 0.00000000E+00	 0.00000000E+00	 0.00000000E+00
	 0.00000000E+00	 0.00000000E+00	 0.00000000E+00
	 0.00000000E+00	 0.00000000E+00	 0.00000000E+00

	 0.00000000E+00	 0.00000000E+00	 0.00000000E+00
	 0.00000000E+00	 0.00000000E+00	 0.00000000E+00
	 0.00000000E+00	 0.00000000E+00	 0.00000000E+00

	 0.00000000E+00	 0.00000000E+00	 0.00000000E+00
	 0.00000000E+00	 0.00000000E+00	 0.00000000E+00
	 0.00000000E+00	 0.00000000E+00	 0.00000000E+00

	 0.00000000E+00	 0.00000000E+00	 0.00000000E+00
	 0.00000000E+00	 0.00000000E+00	 0.00000000E+00
	 0.00000000E+00	 0.00000000E+00	 0.00000000E+00

	 0.00000000E+00	 0.00000000E+00	 0.00000000E+00
	 0.00000000E+00	 0.00000000E+00	 0.00000000E+00
	 0.00000000E+00	 0.00000000E+00	 0.00000000E+00

	 0.00000000E+00	 0.00000000E+00	 0.00000000E+00
	 0.00000000E+00	 0.00000000E+00	 0.00000000E+00
	 0.00000000E+00	 0.00000000E+00	 0.00000000E+00

	 0.00000000E+00	 0.00000000E+00	 0.00000000E+00
	 0.00000000E+00	 0.00000000E+00	 0.00000000E+00
	 0.00000000E+00	 0.00000000E+00	 0.00000000E+00

	 0.00000000E+00	 0.00000000E+00	 0.00000000E+00
	 0.00000000E+00	 0.00000000E+00	 0.00000000E+00
	 0.00000000E+00	 0.00000000E+00	 0.00000000E+00

	 0.00000000E+00	 0.00000000E+00	 0.00000000E+00
	 0.00000000E+00	 0.00000000E+00	 0.00000000E+00
	 0.00000000E+00	 0.00000000E+00	 0.00000000E+00

	 0.00000000E+00	 0.00000000E+00	 0.00000000E+00
	 0.00000000E+00	 0.00000000E+00	 0.00000000E+00
	 0.00000000E+00	 0.00000000E+00	 0.00000000E+00

	 0.00000000E+00	 0.00000000E+00	 0.00000000E+00
	 0.00000000E+00	 0.00000000E+00	 0.00000000E+00
	 0.00000000E+00	 0.00000000E+00	 0.00000000E+00

	 0.00000000E+00	 0.00000000E+00	 0.00000000E+00
	 0.00000000E+00	 0.00000000E+00	 0.00000000E+00
	 0.00000000E+00	 0.00000000E+00	 0.00000000E+00

	 0.00000000E+00	 0.00000000E+00	 0.00000000E+00
	 0.00000000E+00	 0.00000000E+00	 0.00000000E+00
	 0.00000000E+00	 0.00000000E+00	 0.00000000E+00

	 0.00000000E+00	 0.00000000E+00	 0.00000000E+00
	 0.00000000E+00	 0.00000000E+00	 0.00000000E+00
	 0.00000000E+00	 0.00000000E+00	 0.00000000E+00

	 0.00000000E+00	 0.00000000E+00	 0.00000000E+00
	 0.00000000E+00	 0.00000000E+00	 0.00000000E+00
	 0.00000000E+00	 0.00000000E+00	 0.00000000E+00

	 0.00000000E+00	 0.00000000E+00	 0.00000000E+00
	 0.00000000E+00	 0.00000000E+00	 0.00000000E+00
	 0.00000000E+00	 0.00000000E+00	 0.00000000E+00

	 0.00000000E+00	 0.00000000E+00	 0.00000000E+00
	 0.00000000E+00	 0.00000000E+00	 0.00000000E+00
	 0.00000000E+00	 0.00000000E+00	 0.00000000E+00

	 0.00000000E+00	 0.00000000E+00	 0.00000000E+00
	 0.00000000E+00	 0.00000000E+00	 0.00000000E+00
	 0.00000000E+00	 0.00000000E+00	 0.00000000E+00

	 0.00000000E+00	 0.00000000E+00	 0.00000000E+00
	 0.00000000E+00	 0.00000000E+00	 0.00000000E+00
	 0.00000000E+00	 0.00000000E+00	 0.00000000E+00

	 0.00000000E+00	 0.00000000E+00	 0.00000000E+00
	 0.00000000E+00	 0.00000000E+00	 0.00000000E+00
	 0.00000000E+00	 0.00000000E+00	 0.00000000E+00

	 0.00000000E+00	 0.00000000E+00	 0.00000000E+00
	 0.00000000E+00	 0.00000000E+00	 0.00000000E+00
	 0.00000000E+00	 0.00000000E+00	 0.00000000E+00

	 0.00000000E+00	 0.00000000E+00	 0.00000000E+00
	 0.00000000E+00	 0.00000000E+00	 0.00000000E+00
	 0.00000000E+00	 0.00000000E+00	 0.00000000E+00

	 0.00000000E+00	 0.00000000E+00	 0.00000000E+00
	 0.00000000E+00	 0.00000000E+00	 0.00000000E+00
	 0.00000000E+00	 0.00000000E+00	 0.00000000E+00

	 0.00000000E+00	 0.00000000E+00	 0.00000000E+00
	 0.00000000E+00	 0.00000000E+00	 0.00000000E+00
	 0.00000000E+00	 0.00000000E+00	 0.00000000E+00

	 0.00000000E+00	 0.00000000E+00	 0.00000000E+00
	 0.00000000E+00	 0.00000000E+00	 0.00000000E+00
	 0.00000000E+00	 0.00000000E+00	 0.00000000E+00

	 0.00000000E+00	 0.00000000E+00	 0.00000000E+00
	 0.00000000E+00	 0.00000000E+00	 0.00000000E+00
	 0.00000000E+00	 0.00000000E+00	 0.00000000E+00

	 0.00000000E+00	 0.00000000E+00	 0.00000000E+00
	 0.00000000E+00	 0.00000000E+00	 0.00000000E+00
	 0.00000000E+00	 0.00000000E+00	 0.00000000E+00

	 0.00000000E+00	 0.00000000E+00	 0.00000000E+00
	 0.00000000E+00	 0.00000000E+00	 0.00000000E+00
	 0.00000000E+00	 0.00000000E+00	 0.00000000E+00

	 0.00000000E+00	 0.00000000E+00	 0.00000000E+00
	 0.00000000E+00	 0.00000000E+00	 0.00000000E+00
	 0.00000000E+00	 0.00000000E+00	 0.00000000E+00

	 0.00000000E+00	 0.00000000E+00	 0.00000000E+00
	 0.00000000E+00	 0.00000000E+00	 0.00000000E+00
	 0.00000000E+00	 0.00000000E+00	 0.00000000E+00

	 0.00000000E+00	 0.00000000E+00	 0.00000000E+00
	 0.00000000E+00	 0.00000000E+00	 0.00000000E+00
	 0.00000000E+00	 0.00000000E+00	 0.00000000E+00

	 0.00000000E+00	 0.00000000E+00	 0.00000000E+00
	 0.00000000E+00	 0.00000000E+00	 0.00000000E+00
	 0.00000000E+00	 0.00000000E+00	 0.00000000E+00

	 0.00000000E+00	 0.00000000E+00	 0.00000000E+00
	 0.00000000E+00	 0.00000000E+00	 0.00000000E+00
	 0.00000000E+00	 0.00000000E+00	 0.00000000E+00

	 0.00000000E+00	 0.00000000E+00	 0.00000000E+00
	 0.00000000E+00	 0.00000000E+00	 0.00000000E+00
	 0.00000000E+00	 0.00000000E+00	 0.00000000E+00

	 0.00000000E+00	 0.00000000E+00	 0.00000000E+00
	 0.00000000E+00	 0.00000000E+00	 0.00000000E+00
	 0.00000000E+00	 0.00000000E+00	 0.00000000E+00

	 0.00000000E+00	 0.00000000E+00	 0.00000000E+00
	 0.00000000E+00	 0.00000000E+00	 0.00000000E+00
	 0.00000000E+00	 0.00000000E+00	 0.00000000E+00

	 0.00000000E+00	 0.00000000E+00	 0.00000000E+00
	 0.00000000E+00	 0.00000000E+00	 0.00000000E+00
	 0.00000000E+00	 0.00000000E+00	 0.00000000E+00

	 0.00000000E+00	 0.00000000E+00	 0.00000000E+00
	 0.00000000E+00	 0.00000000E+00	 0.00000000E+00
	 0.00000000E+00	 0.00000000E+00	 0.00000000E+00

	 0.00000000E+00	 0.00000000E+00	 0.00000000E+00
	 0.00000000E+00	 0.00000000E+00	 0.00000000E+00
	 0.00000000E+00	 0.00000000E+00	 0.00000000E+00

	 0.00000000E+00	 0.00000000E+00	 0.00000000E+00
	 0.00000000E+00	 0.00000000E+00	 0.00000000E+00
	 0.00000000E+00	 0.00000000E+00	 0.00000000E+00

	 0.00000000E+00	 0.00000000E+00	 0.00000000E+00
	 0.00000000E+00	 0.00000000E+00	 0.00000000E+00
	 0.00000000E+00	 0.00000000E+00	 0.00000000E+00

	 0.00000000E+00	 0.00000000E+00	 0.00000000E+00
	 0.00000000E+00	 0.00000000E+00	 0.00000000E+00
	 0.00000000E+00	 0.00000000E+00	 0.00000000E+00

	 0.00000000E+00	 0.00000000E+00	 0.00000000E+00
	 0.00000000E+00	 0.00000000E+00	 0.00000000E+00
	 0.00000000E+00	 0.00000000E+00	 0.00000000E+00

	 0.00000000E+00	 0.00000000E+00	 0.00000000E+00
	 0.00000000E+00	 0.00000000E+00	 0.00000000E+00
	 0.00000000E+00	 0.00000000E+00	 0.00000000E+00

	 0.00000000E+00	 0.00000000E+00	 0.00000000E+00
	 0.00000000E+00	 0.00000000E+00	 0.00000000E+00
	 0.00000000E+00	 0.00000000E+00	 0.00000000E+00

	 0.00000000E+00	 0.00000000E+00	 0.00000000E+00
	 0.00000000E+00	 0.00000000E+00	 0.00000000E+00
	 0.00000000E+00	 0.00000000E+00	 0.00000000E+00

	 0.00000000E+00	 0.00000000E+00	 0.00000000E+00
	 0.00000000E+00	 0.00000000E+00	 0.00000000E+00
	 0.00000000E+00	 0.00000000E+00	 0.00000000E+00

	 0.00000000E+00	 0.00000000E+00	 0.00000000E+00
	 0.00000000E+00	 0.00000000E+00	 0.00000000E+00
	 0.00000000E+00	 0.00000000E+00	 0.00000000E+00

	 0.00000000E+00	 0.00000000E+00	 0.00000000E+00
	 0.00000000E+00	 0.00000000E+00	 0.00000000E+00
	 0.00000000E+00	 0.00000000E+00	 0.00000000E+00

	 0.00000000E+00	 0.00000000E+00	 0.00000000E+00
	 0.00000000E+00	 0.00000000E+00	 0.00000000E+00
	 0.00000000E+00	 0.00000000E+00	 0.00000000E+00

	 0.00000000E+00	 0.00000000E+00	 0.00000000E+00
	 0.00000000E+00	 0.00000000E+00	 0.00000000E+00
	 0.00000000E+00	 0.00000000E+00	 0.00000000E+00

	 0.00000000E+00	 0.00000000E+00	 0.00000000E+00
	 0.00000000E+00	 0.00000000E+00	 0.00000000E+00
	 0.00000000E+00	 0.00000000E+00	 0.00000000E+00

	 0.00000000E+00	 0.00000000E+00	 0.00000000E+00
	 0.00000000E+00	 0.00000000E+00	 0.00000000E+00
	 0.00000000E+00	 0.00000000E+00	 0.00000000E+00

	 0.00000000E+00	 0.00000000E+00	 0.00000000E+00
	 0.00000000E+00	 0.00000000E+00	 0.00000000E+00
	 0.00000000E+00	 0.00000000E+00	 0.00000000E+00

	 0.00000000E+00	 0.00000000E+00	 0.00000000E+00
	 0.00000000E+00	 0.00000000E+00	 0.00000000E+00
	 0.00000000E+00	 0.00000000E+00	 0.00000000E+00

	 0.00000000E+00	 0.00000000E+00	 0.00000000E+00
	 0.00000000E+00	 0.00000000E+00	 0.00000000E+00
	 0.00000000E+00	 0.00000000E+00	 0.00000000E+00

	 0.00000000E+00	 0.00000000E+00	 0.00000000E+00
	 0.00000000E+00	 0.00000000E+00	 0.00000000E+00
	 0.00000000E+00	 0.00000000E+00	 0.00000000E+00

	 0.00000000E+00	 0.00000000E+00	 0.00000000E+00
	 0.00000000E+00	 0.00000000E+00	 0.00000000E+00
	 0.00000000E+00	 0.00000000E+00	 0.00000000E+00

	 0.00000000E+00	 0.00000000E+00	 0.00000000E+00
	 0.00000000E+00	 0.00000000E+00	 0.00000000E+00
	 0.00000000E+00	 0.00000000E+00	 0.00000000E+00

	 0.00000000E+00	 0.00000000E+00	 0.00000000E+00
	 0.00000000E+00	 0.00000000E+00	 0.00000000E+00
	 0.00000000E+00	 0.00000000E+00	 0.00000000E+00

	 0.00000000E+00	 0.00000000E+00	 0.00000000E+00
	 0.00000000E+00	 0.00000000E+00	 0.00000000E+00
	 0.00000000E+00	 0.00000000E+00	 0.00000000E+00

	 0.00000000E+00	 0.00000000E+00	 0.00000000E+00
	 0.00000000E+00	 0.00000000E+00	 0.00000000E+00
	 0.00000000E+00	 0.00000000E+00	 0.00000000E+00

	 0.00000000E+00	 0.00000000E+00	 0.00000000E+00
	 0.00000000E+00	 0.00000000E+00	 0.00000000E+00
	 0.00000000E+00	 0.00000000E+00	 0.00000000E+00

	 0.00000000E+00	 0.00000000E+00	 0.00000000E+00
	 0.00000000E+00	 0.00000000E+00	 0.00000000E+00
	 0.00000000E+00	 0.00000000E+00	 0.00000000E+00

	 0.00000000E+00	 0.00000000E+00	 0.00000000E+00
	 0.00000000E+00	 0.00000000E+00	 0.00000000E+00
	 0.00000000E+00	 0.00000000E+00	 0.00000000E+00

	 0.00000000E+00	 0.00000000E+00	 0.00000000E+00
	 0.00000000E+00	 0.00000000E+00	 0.00000000E+00
	 0.00000000E+00	 0.00000000E+00	 0.00000000E+00

	 0.00000000E+00	 0.00000000E+00	 0.00000000E+00
	 0.00000000E+00	 0.00000000E+00	 0.00000000E+00
	 0.00000000E+00	 0.00000000E+00	 0.00000000E+00

	 0.00000000E+00	 0.00000000E+00	 0.00000000E+00
	 0.00000000E+00	 0.00000000E+00	 0.00000000E+00
	 0.00000000E+00	 0.00000000E+00	 0.00000000E+00

	 0.00000000E+00	 0.00000000E+00	 0.00000000E+00
	 0.00000000E+00	 0.00000000E+00	 0.00000000E+00
	 0.00000000E+00	 0.00000000E+00	 0.00000000E+00

	 0.00000000E+00	 0.00000000E+00	 0.00000000E+00
	 0.00000000E+00	 0.00000000E+00	 0.00000000E+00
	 0.00000000E+00	 0.00000000E+00	 0.00000000E+00

	 0.00000000E+00	 0.00000000E+00	 0.00000000E+00
	 0.00000000E+00	 0.00000000E+00	 0.00000000E+00
	 0.00000000E+00	 0.00000000E+00	 0.00000000E+00

	 0.00000000E+00	 0.00000000E+00	 0.00000000E+00
	 0.00000000E+00	 0.00000000E+00	 0.00000000E+00
	 0.00000000E+00	 0.00000000E+00	 0.00000000E+00

	 0.00000000E+00	 0.00000000E+00	 0.00000000E+00
	 0.00000000E+00	 0.00000000E+00	 0.00000000E+00
	 0.00000000E+00	 0.00000000E+00	 0.00000000E+00

	 0.00000000E+00	 0.00000000E+00	 0.00000000E+00
	 0.00000000E+00	 0.00000000E+00	 0.00000000E+00
	 0.00000000E+00	 0.00000000E+00	 0.00000000E+00

	 0.00000000E+00	 0.00000000E+00	 0.00000000E+00
	 0.00000000E+00	 0.00000000E+00	 0.00000000E+00
	 0.00000000E+00	 0.00000000E+00	 0.00000000E+00

	 0.00000000E+00	 0.00000000E+00	 0.00000000E+00
	 0.00000000E+00	 0.00000000E+00	 0.00000000E+00
	 0.00000000E+00	 0.00000000E+00	 0.00000000E+00

	 0.00000000E+00	 0.00000000E+00	 0.00000000E+00
	 0.00000000E+00	 0.00000000E+00	 0.00000000E+00
	 0.00000000E+00	 0.00000000E+00	 0.00000000E+00

	 0.00000000E+00	 0.00000000E+00	 0.00000000E+00
	 0.00000000E+00	 0.00000000E+00	 0.00000000E+00
	 0.00000000E+00	 0.00000000E+00	 0.00000000E+00

	 0.00000000E+00	 0.00000000E+00	 0.00000000E+00
	 0.00000000E+00	 0.00000000E+00	 0.00000000E+00
	 0.00000000E+00	 0.00000000E+00	 0.00000000E+00

	 0.00000000E+00	 0.00000000E+00	 0.00000000E+00
	 0.00000000E+00	 0.00000000E+00	 0.00000000E+00
	 0.00000000E+00	 0.00000000E+00	 0.00000000E+00

	 0.00000000E+00	 0.00000000E+00	 0.00000000E+00
	 0.00000000E+00	 0.00000000E+00	 0.00000000E+00
	 0.00000000E+00	 0.00000000E+00	 0.00000000E+00

	 0.00000000E+00	 0.00000000E+00	 0.00000000E+00
	 0.00000000E+00	 0.00000000E+00	 0.00000000E+00
	 0.00000000E+00	 0.00000000E+00	 0.00000000E+00

	 0.00000000E+00	 0.00000000E+00	 0.00000000E+00
	 0.00000000E+00	 0.00000000E+00	 0.00000000E+00
	 0.00000000E+00	 0.00000000E+00	 0.00000000E+00

	 0.00000000E+00	 0.00000000E+00	 0.00000000E+00
	 0.00000000E+00	 0.00000000E+00	 0.00000000E+00
	 0.00000000E+00	 0.00000000E+00	 0.00000000E+00

	 0.00000000E+00	 0.00000000E+00	 0.00000000E+00
	 0.00000000E+00	 0.00000000E+00	 0.00000000E+00
	 0.00000000E+00	 0.00000000E+00	 0.00000000E+00

	 0.00000000E+00	 0.00000000E+00	 0.00000000E+00
	 0.00000000E+00	 0.00000000E+00	 0.00000000E+00
	 0.00000000E+00	 0.00000000E+00	 0.00000000E+00

	 0.00000000E+00	 0.00000000E+00	 0.00000000E+00
	 0.00000000E+00	 0.00000000E+00	 0.00000000E+00
	 0.00000000E+00	 0.00000000E+00	 0.00000000E+00

	 0.00000000E+00	 0.00000000E+00	 0.00000000E+00
	 0.00000000E+00	 0.00000000E+00	 0.00000000E+00
	 0.00000000E+00	 0.00000000E+00	 0.00000000E+00

	 0.00000000E+00	 0.00000000E+00	 0.00000000E+00
	 0.00000000E+00	 0.00000000E+00	 0.00000000E+00
	 0.00000000E+00	 0.00000000E+00	 0.00000000E+00

	 0.00000000E+00	 0.00000000E+00	 0.00000000E+00
	 0.00000000E+00	 0.00000000E+00	 0.00000000E+00
	 0.00000000E+00	 0.00000000E+00	 0.00000000E+00

	 0.00000000E+00	 0.00000000E+00	 0.00000000E+00
	 0.00000000E+00	 0.00000000E+00	 0.00000000E+00
	 0.00000000E+00	 0.00000000E+00	 0.00000000E+00

	 0.00000000E+00	 0.00000000E+00	 0.00000000E+00
	 0.00000000E+00	 0.00000000E+00	 0.00000000E+00
	 0.00000000E+00	 0.00000000E+00	 0.00000000E+00

	 0.00000000E+00	 0.00000000E+00	 0.00000000E+00
	 0.00000000E+00	 0.00000000E+00	 0.00000000E+00
	 0.00000000E+00	 0.00000000E+00	 0.00000000E+00

	 0.00000000E+00	 0.00000000E+00	 0.00000000E+00
	 0.00000000E+00	 0.00000000E+00	 0.00000000E+00
	 0.00000000E+00	 0.00000000E+00	 0.00000000E+00

	 0.00000000E+00	 0.00000000E+00	 0.00000000E+00
	 0.00000000E+00	 0.00000000E+00	 0.00000000E+00
	 0.00000000E+00	 0.00000000E+00	 0.00000000E+00

	 0.00000000E+00	 0.00000000E+00	 0.00000000E+00
	 0.00000000E+00	 0.00000000E+00	 0.00000000E+00
	 0.00000000E+00	 0.00000000E+00	 0.00000000E+00

	 0.00000000E+00	 0.00000000E+00	 0.00000000E+00
	 0.00000000E+00	 0.00000000E+00	 0.00000000E+00
	 0.00000000E+00	 0.00000000E+00	 0.00000000E+00

	 0.00000000E+00	 0.00000000E+00	 0.00000000E+00
	 0.00000000E+00	 0.00000000E+00	 0.00000000E+00
	 0.00000000E+00	 0.00000000E+00	 0.00000000E+00

	 0.00000000E+00	 0.00000000E+00	 0.00000000E+00
	 0.00000000E+00	 0.00000000E+00	 0.00000000E+00
	 0.00000000E+00	 0.00000000E+00	 0.00000000E+00

	 0.00000000E+00	 0.00000000E+00	 0.00000000E+00
	 0.00000000E+00	 0.00000000E+00	 0.00000000E+00
	 0.00000000E+00	 0.00000000E+00	 0.00000000E+00

	 0.00000000E+00	 0.00000000E+00	 0.00000000E+00
	 0.00000000E+00	 0.00000000E+00	 0.00000000E+00
	 0.00000000E+00	 0.00000000E+00	 0.00000000E+00

	 0.00000000E+00	 0.00000000E+00	 0.00000000E+00
	 0.00000000E+00	 0.00000000E+00	 0.00000000E+00
	 0.00000000E+00	 0.00000000E+00	 0.00000000E+00

	 0.00000000E+00	 0.00000000E+00	 0.00000000E+00
	 0.00000000E+00	 0.00000000E+00	 0.00000000E+00
	 0.00000000E+00	 0.00000000E+00	 0.00000000E+00

	 0.00000000E+00	 0.00000000E+00	 0.00000000E+00
	 0.00000000E+00	 0.00000000E+00	 0.00000000E+00
	 0.00000000E+00	 0.00000000E+00	 0.00000000E+00

	 0.00000000E+00	 0.00000000E+00	 0.00000000E+00
	 0.00000000E+00	 0.00000000E+00	 0.00000000E+00
	 0.00000000E+00	 0.00000000E+00	 0.00000000E+00

	 0.00000000E+00	 0.00000000E+00	 0.00000000E+00
	 0.00000000E+00	 0.00000000E+00	 0.00000000E+00
	 0.00000000E+00	 0.00000000E+00	 0.00000000E+00

	 0.00000000E+00	 0.00000000E+00	 0.00000000E+00
	 0.00000000E+00	 0.00000000E+00	 0.00000000E+00
	 0.00000000E+00	 0.00000000E+00	 0.00000000E+00

	 0.00000000E+00	 0.00000000E+00	 0.00000000E+00
	 0.00000000E+00	 0.00000000E+00	 0.00000000E+00
	 0.00000000E+00	 0.00000000E+00	 0.00000000E+00

	 0.00000000E+00	 0.00000000E+00	 0.00000000E+00
	 0.00000000E+00	 0.00000000E+00	 0.00000000E+00
	 0.00000000E+00	 0.00000000E+00	 0.00000000E+00

	 0.00000000E+00	 0.00000000E+00	 0.00000000E+00
	 0.00000000E+00	 0.00000000E+00	 0.00000000E+00
	 0.00000000E+00	 0.00000000E+00	 0.00000000E+00

	 0.00000000E+00	 0.00000000E+00	 0.00000000E+00
	 0.00000000E+00	 0.00000000E+00	 0.00000000E+00
	 0.00000000E+00	 0.00000000E+00	 0.00000000E+00

	 0.00000000E+00	 0.00000000E+00	 0.00000000E+00
	 0.00000000E+00	 0.00000000E+00	 0.00000000E+00
	 0.00000000E+00	 0.00000000E+00	 0.00000000E+00

	 0.00000000E+00	 0.00000000E+00	 0.00000000E+00
	 0.00000000E+00	 0.00000000E+00	 0.00000000E+00
	 0.00000000E+00	 0.00000000E+00	 0.00000000E+00

	 0.00000000E+00	 0.00000000E+00	 0.00000000E+00
	 0.00000000E+00	 0.00000000E+00	 0.00000000E+00
	 0.00000000E+00	 0.00000000E+00	 0.00000000E+00

	 0.00000000E+00	 0.00000000E+00	 0.00000000E+00
	 0.00000000E+00	 0.00000000E+00	 0.00000000E+00
	 0.00000000E+00	 0.00000000E+00	 0.00000000E+00

	 0.00000000E+00	 0.00000000E+00	 0.00000000E+00
	 0.00000000E+00	 0.00000000E+00	 0.00000000E+00
	 0.00000000E+00	 0.00000000E+00	 0.00000000E+00

	 0.00000000E+00	 0.00000000E+00	 0.00000000E+00
	 0.00000000E+00	 0.00000000E+00	 0.00000000E+00
	 0.00000000E+00	 0.00000000E+00	 0.00000000E+00

	 0.00000000E+00	 0.00000000E+00	 0.00000000E+00
	 0.00000000E+00	 0.00000000E+00	 0.00000000E+00
	 0.00000000E+00	 0.00000000E+00	 0.00000000E+00

	 0.00000000E+00	 0.00000000E+00	 0.00000000E+00
	 0.00000000E+00	 0.00000000E+00	 0.00000000E+00
	 0.00000000E+00	 0.00000000E+00	 0.00000000E+00

	 0.00000000E+00	 0.00000000E+00	 0.00000000E+00
	 0.00000000E+00	 0.00000000E+00	 0.00000000E+00
	 0.00000000E+00	 0.00000000E+00	 0.00000000E+00

	 0.00000000E+00	 0.00000000E+00	 0.00000000E+00
	 0.00000000E+00	 0.00000000E+00	 0.00000000E+00
	 0.00000000E+00	 0.00000000E+00	 0.00000000E+00

	 0.00000000E+00	 0.00000000E+00	 0.00000000E+00
	 0.00000000E+00	 0.00000000E+00	 0.00000000E+00
	 0.00000000E+00	 0.00000000E+00	 0.00000000E+00

	 0.00000000E+00	 0.00000000E+00	 0.00000000E+00
	 0.00000000E+00	 0.00000000E+00	 0.00000000E+00
	 0.00000000E+00	 0.00000000E+00	 0.00000000E+00

	 0.00000000E+00	 0.00000000E+00	 0.00000000E+00
	 0.00000000E+00	 0.00000000E+00	 0.00000000E+00
	 0.00000000E+00	 0.00000000E+00	 0.00000000E+00

	 0.00000000E+00	 0.00000000E+00	 0.00000000E+00
	 0.00000000E+00	 0.00000000E+00	 0.00000000E+00
	 0.00000000E+00	 0.00000000E+00	 0.00000000E+00

	 0.00000000E+00	 0.00000000E+00	 0.00000000E+00
	 0.00000000E+00	 0.00000000E+00	 0.00000000E+00
	 0.00000000E+00	 0.00000000E+00	 0.00000000E+00

	 0.00000000E+00	 0.00000000E+00	 0.00000000E+00
	 0.00000000E+00	 0.00000000E+00	 0.00000000E+00
	 0.00000000E+00	 0.00000000E+00	 0.00000000E+00

	 0.00000000E+00	 0.00000000E+00	 0.00000000E+00
	 0.00000000E+00	 0.00000000E+00	 0.00000000E+00
	 0.00000000E+00	 0.00000000E+00	 0.00000000E+00

	 0.00000000E+00	 0.00000000E+00	 0.00000000E+00
	 0.00000000E+00	 0.00000000E+00	 0.00000000E+00
	 0.00000000E+00	 0.00000000E+00	 0.00000000E+00

	 0.00000000E+00	 0.00000000E+00	 0.00000000E+00
	 0.00000000E+00	 0.00000000E+00	 0.00000000E+00
	 0.00000000E+00	 0.00000000E+00	 0.00000000E+00

	 0.00000000E+00	 0.00000000E+00	 0.00000000E+00
	 0.00000000E+00	 0.00000000E+00	 0.00000000E+00
	 0.00000000E+00	 0.00000000E+00	 0.00000000E+00

	 0.00000000E+00	 0.00000000E+00	 0.00000000E+00
	 0.00000000E+00	 0.00000000E+00	 0.00000000E+00
	 0.00000000E+00	 0.00000000E+00	 0.00000000E+00

	 0.00000000E+00	 0.00000000E+00	 0.00000000E+00
	 0.00000000E+00	 0.00000000E+00	 0.00000000E+00
	 0.00000000E+00	 0.00000000E+00	 0.00000000E+00

	 0.00000000E+00	 0.00000000E+00	 0.00000000E+00
	 0.00000000E+00	 0.00000000E+00	 0.00000000E+00
	 0.00000000E+00	 0.00000000E+00	 0.00000000E+00

	 0.00000000E+00	 0.00000000E+00	 0.00000000E+00
	 0.00000000E+00	 0.00000000E+00	 0.00000000E+00
	 0.00000000E+00	 0.00000000E+00	 0.00000000E+00

	 0.00000000E+00	 0.00000000E+00	 0.00000000E+00
	 0.00000000E+00	 0.00000000E+00	 0.00000000E+00
	 0.00000000E+00	 0.00000000E+00	 0.00000000E+00

	 0.00000000E+00	 0.00000000E+00	 0.00000000E+00
	 0.00000000E+00	 0.00000000E+00	 0.00000000E+00
	 0.00000000E+00	 0.00000000E+00	 0.00000000E+00

	 0.00000000E+00	 0.00000000E+00	 0.00000000E+00
	 0.00000000E+00	 0.00000000E+00	 0.00000000E+00
	 0.00000000E+00	 0.00000000E+00	 0.00000000E+00

	 0.00000000E+00	 0.00000000E+00	 0.00000000E+00
	 0.00000000E+00	 0.00000000E+00	 0.00000000E+00
	 0.00000000E+00	 0.00000000E+00	 0.00000000E+00

	 0.00000000E+00	 0.00000000E+00	 0.00000000E+00
	 0.00000000E+00	 0.00000000E+00	 0.00000000E+00
	 0.00000000E+00	 0.00000000E+00	 0.00000000E+00

	 0.00000000E+00	 0.00000000E+00	 0.00000000E+00
	 0.00000000E+00	 0.00000000E+00	 0.00000000E+00
	 0.00000000E+00	 0.00000000E+00	 0.00000000E+00

	 0.00000000E+00	 0.00000000E+00	 0.00000000E+00
	 0.00000000E+00	 0.00000000E+00	 0.00000000E+00
	 0.00000000E+00	 0.00000000E+00	 0.00000000E+00

	 0.00000000E+00	 0.00000000E+00	 0.00000000E+00
	 0.00000000E+00	 0.00000000E+00	 0.00000000E+00
	 0.00000000E+00	 0.00000000E+00	 0.00000000E+00

	 0.00000000E+00	 0.00000000E+00	 0.00000000E+00
	 0.00000000E+00	 0.00000000E+00	 0.00000000E+00
	 0.00000000E+00	 0.00000000E+00	 0.00000000E+00

	 0.00000000E+00	 0.00000000E+00	 0.00000000E+00
	 0.00000000E+00	 0.00000000E+00	 0.00000000E+00
	 0.00000000E+00	 0.00000000E+00	 0.00000000E+00

	 0.00000000E+00	 0.00000000E+00	 0.00000000E+00
	 0.00000000E+00	 0.00000000E+00	 0.00000000E+00
	 0.00000000E+00	 0.00000000E+00	 0.00000000E+00

	 0.00000000E+00	 0.00000000E+00	 0.00000000E+00
	 0.00000000E+00	 0.00000000E+00	 0.00000000E+00
	 0.00000000E+00	 0.00000000E+00	 0.00000000E+00

	 0.00000000E+00	 0.00000000E+00	 0.00000000E+00
	 0.00000000E+00	 0.00000000E+00	 0.00000000E+00
	 0.00000000E+00	 0.00000000E+00	 0.00000000E+00

	 0.00000000E+00	 0.00000000E+00	 0.00000000E+00
	 0.00000000E+00	 0.00000000E+00	 0.00000000E+00
	 0.00000000E+00	 0.00000000E+00	 0.00000000E+00

	 0.00000000E+00	 0.00000000E+00	 0.00000000E+00
	 0.00000000E+00	 0.00000000E+00	 0.00000000E+00
	 0.00000000E+00	 0.00000000E+00	 0.00000000E+00

	 0.00000000E+00	 0.00000000E+00	 0.00000000E+00
	 0.00000000E+00	 0.00000000E+00	 0.00000000E+00
	 0.00000000E+00	 0.00000000E+00	 0.00000000E+00

	 0.00000000E+00	 0.00000000E+00	 0.00000000E+00
	 0.00000000E+00	 0.00000000E+00	 0.00000000E+00
	 0.00000000E+00	 0.00000000E+00	 0.00000000E+00

	 0.00000000E+00	 0.00000000E+00	 0.00000000E+00
	 0.00000000E+00	 0.00000000E+00	 0.00000000E+00
	 0.00000000E+00	 0.00000000E+00	 0.00000000E+00

	 0.00000000E+00	 0.00000000E+00	 0.00000000E+00
	 0.00000000E+00	 0.00000000E+00	 0.00000000E+00
	 0.00000000E+00	 0.00000000E+00	 0.00000000E+00

	 0.00000000E+00	 0.00000000E+00	 0.00000000E+00
	 0.00000000E+00	 0.00000000E+00	 0.00000000E+00
	 0.00000000E+00	 0.00000000E+00	 0.00000000E+00

	 0.00000000E+00	 0.00000000E+00	 0.00000000E+00
	 0.00000000E+00	 0.00000000E+00	 0.00000000E+00
	 0.00000000E+00	 0.00000000E+00	 0.00000000E+00

	 0.00000000E+00	 0.00000000E+00	 0.00000000E+00
	 0.00000000E+00	 0.00000000E+00	 0.00000000E+00
	 0.00000000E+00	 0.00000000E+00	 0.00000000E+00

	 0.00000000E+00	 0.00000000E+00	 0.00000000E+00
	 0.00000000E+00	 0.00000000E+00	 0.00000000E+00
	 0.00000000E+00	 0.00000000E+00	 0.00000000E+00

	 0.00000000E+00	 0.00000000E+00	 0.00000000E+00
	 0.00000000E+00	 0.00000000E+00	 0.00000000E+00
	 0.00000000E+00	 0.00000000E+00	 0.00000000E+00

	 0.00000000E+00	 0.00000000E+00	 0.00000000E+00
	 0.00000000E+00	 0.00000000E+00	 0.00000000E+00
	 0.00000000E+00	 0.00000000E+00	 0.00000000E+00

	 0.00000000E+00	 0.00000000E+00	 0.00000000E+00
	 0.00000000E+00	 0.00000000E+00	 0.00000000E+00
	 0.00000000E+00	 0.00000000E+00	 0.00000000E+00

	 0.00000000E+00	 0.00000000E+00	 0.00000000E+00
	 0.00000000E+00	 0.00000000E+00	 0.00000000E+00
	 0.00000000E+00	 0.00000000E+00	 0.00000000E+00

	 0.00000000E+00	 0.00000000E+00	 0.00000000E+00
	 0.00000000E+00	 0.00000000E+00	 0.00000000E+00
	 0.00000000E+00	 0.00000000E+00	 0.00000000E+00

	 0.00000000E+00	 0.00000000E+00	 0.00000000E+00
	 0.00000000E+00	 0.00000000E+00	 0.00000000E+00
	 0.00000000E+00	 0.00000000E+00	 0.00000000E+00

	 0.00000000E+00	 0.00000000E+00	 0.00000000E+00
	 0.00000000E+00	 0.00000000E+00	 0.00000000E+00
	 0.00000000E+00	 0.00000000E+00	 0.00000000E+00

	 0.00000000E+00	 0.00000000E+00	 0.00000000E+00
	 0.00000000E+00	 0.00000000E+00	 0.00000000E+00
	 0.00000000E+00	 0.00000000E+00	 0.00000000E+00

	 0.00000000E+00	 0.00000000E+00	 0.00000000E+00
	 0.00000000E+00	 0.00000000E+00	 0.00000000E+00
	 0.00000000E+00	 0.00000000E+00	 0.00000000E+00

	 0.00000000E+00	 0.00000000E+00	 0.00000000E+00
	 0.00000000E+00	 0.00000000E+00	 0.00000000E+00
	 0.00000000E+00	 0.00000000E+00	 0.00000000E+00

	 0.00000000E+00	 0.00000000E+00	 0.00000000E+00
	 0.00000000E+00	 0.00000000E+00	 0.00000000E+00
	 0.00000000E+00	 0.00000000E+00	 0.00000000E+00

	 0.00000000E+00	 0.00000000E+00	 0.00000000E+00
	 0.00000000E+00	 0.00000000E+00	 0.00000000E+00
	 0.00000000E+00	 0.00000000E+00	 0.00000000E+00

	 0.00000000E+00	 0.00000000E+00	 0.00000000E+00
	 0.00000000E+00	 0.00000000E+00	 0.00000000E+00
	 0.00000000E+00	 0.00000000E+00	 0.00000000E+00

	 0.00000000E+00	 0.00000000E+00	 0.00000000E+00
	 0.00000000E+00	 0.00000000E+00	 0.00000000E+00
	 0.00000000E+00	 0.00000000E+00	 0.00000000E+00

	 0.00000000E+00	 0.00000000E+00	 0.00000000E+00
	 0.00000000E+00	 0.00000000E+00	 0.00000000E+00
	 0.00000000E+00	 0.00000000E+00	 0.00000000E+00

	 0.00000000E+00	 0.00000000E+00	 0.00000000E+00
	 0.00000000E+00	 0.00000000E+00	 0.00000000E+00
	 0.00000000E+00	 0.00000000E+00	 0.00000000E+00

	 0.00000000E+00	 0.00000000E+00	 0.00000000E+00
	 0.00000000E+00	 0.00000000E+00	 0.00000000E+00
	 0.00000000E+00	 0.00000000E+00	 0.00000000E+00

	 0.00000000E+00	 0.00000000E+00	 0.00000000E+00
	 0.00000000E+00	 0.00000000E+00	 0.00000000E+00
	 0.00000000E+00	 0.00000000E+00	 0.00000000E+00

	 0.00000000E+00	 0.00000000E+00	 0.00000000E+00
	 0.00000000E+00	 0.00000000E+00	 0.00000000E+00
	 0.00000000E+00	 0.00000000E+00	 0.00000000E+00

	 0.00000000E+00	 0.00000000E+00	 0.00000000E+00
	 0.00000000E+00	 0.00000000E+00	 0.00000000E+00
	 0.00000000E+00	 0.00000000E+00	 0.00000000E+00

	 0.00000000E+00	 0.00000000E+00	 0.00000000E+00
	 0.00000000E+00	 0.00000000E+00	 0.00000000E+00
	 0.00000000E+00	 0.00000000E+00	 0.00000000E+00

	 0.00000000E+00	 0.00000000E+00	 0.00000000E+00
	 0.00000000E+00	 0.00000000E+00	 0.00000000E+00
	 0.00000000E+00	 0.00000000E+00	 0.00000000E+00

	 0.00000000E+00	 0.00000000E+00	 0.00000000E+00
	 0.00000000E+00	 0.00000000E+00	 0.00000000E+00
	 0.00000000E+00	 0.00000000E+00	 0.00000000E+00

	 0.00000000E+00	 0.00000000E+00	 0.00000000E+00
	 0.00000000E+00	 0.00000000E+00	 0.00000000E+00
	 0.00000000E+00	 0.00000000E+00	 0.00000000E+00

	 0.00000000E+00	 0.00000000E+00	 0.00000000E+00
	 0.00000000E+00	 0.00000000E+00	 0.00000000E+00
	 0.00000000E+00	 0.00000000E+00	 0.00000000E+00

	 0.00000000E+00	 0.00000000E+00	 0.00000000E+00
	 0.00000000E+00	 0.00000000E+00	 0.00000000E+00
	 0.00000000E+00	 0.00000000E+00	 0.00000000E+00

	 0.00000000E+00	 0.00000000E+00	 0.00000000E+00
	 0.00000000E+00	 0.00000000E+00	 0.00000000E+00
	 0.00000000E+00	 0.00000000E+00	 0.00000000E+00

	 0.00000000E+00	 0.00000000E+00	 0.00000000E+00
	 0.00000000E+00	 0.00000000E+00	 0.00000000E+00
	 0.00000000E+00	 0.00000000E+00	 0.00000000E+00

	 0.00000000E+00	 0.00000000E+00	 0.00000000E+00
	 0.00000000E+00	 0.00000000E+00	 0.00000000E+00
	 0.00000000E+00	 0.00000000E+00	 0.00000000E+00

	 0.00000000E+00	 0.00000000E+00	 0.00000000E+00
	 0.00000000E+00	 0.00000000E+00	 0.00000000E+00
	 0.00000000E+00	 0.00000000E+00	 0.00000000E+00

	 0.00000000E+00	 0.00000000E+00	 0.00000000E+00
	 0.00000000E+00	 0.00000000E+00	 0.00000000E+00
	 0.00000000E+00	 0.00000000E+00	 0.00000000E+00

	 0.00000000E+00	 0.00000000E+00	 0.00000000E+00
	 0.00000000E+00	 0.00000000E+00	 0.00000000E+00
	 0.00000000E+00	 0.00000000E+00	 0.00000000E+00

	 0.00000000E+00	 0.00000000E+00	 0.00000000E+00
	 0.00000000E+00	 0.00000000E+00	 0.00000000E+00
	 0.00000000E+00	 0.00000000E+00	 0.00000000E+00

	 0.00000000E+00	 0.00000000E+00	 0.00000000E+00
	 0.00000000E+00	 0.00000000E+00	 0.00000000E+00
	 0.00000000E+00	 0.00000000E+00	 0.00000000E+00

	 0.00000000E+00	 0.00000000E+00	 0.00000000E+00
	 0.00000000E+00	 0.00000000E+00	 0.00000000E+00
	 0.00000000E+00	 0.00000000E+00	 0.00000000E+00

	 0.00000000E+00	 0.00000000E+00	 0.00000000E+00
	 0.00000000E+00	 0.00000000E+00	 0.00000000E+00
	 0.00000000E+00	 0.00000000E+00	 0.00000000E+00

	 0.00000000E+00	 0.00000000E+00	 0.00000000E+00
	 0.00000000E+00	 0.00000000E+00	 0.00000000E+00
	 0.00000000E+00	 0.00000000E+00	 0.00000000E+00

	 0.00000000E+00	 0.00000000E+00	 0.00000000E+00
	 0.00000000E+00	 0.00000000E+00	 0.00000000E+00
	 0.00000000E+00	 0.00000000E+00	 0.00000000E+00

	 0.00000000E+00	 0.00000000E+00	 0.00000000E+00
	 0.00000000E+00	 0.00000000E+00	 0.00000000E+00
	 0.00000000E+00	 0.00000000E+00	 0.00000000E+00

	 0.00000000E+00	 0.00000000E+00	 0.00000000E+00
	 0.00000000E+00	 0.00000000E+00	 0.00000000E+00
	 0.00000000E+00	 0.00000000E+00	 0.00000000E+00

	 0.00000000E+00	 0.00000000E+00	 0.00000000E+00
	 0.00000000E+00	 0.00000000E+00	 0.00000000E+00
	 0.00000000E+00	 0.00000000E+00	 0.00000000E+00

	 0.00000000E+00	 0.00000000E+00	 0.00000000E+00
	 0.00000000E+00	 0.00000000E+00	 0.00000000E+00
	 0.00000000E+00	 0.00000000E+00	 0.00000000E+00

	 0.00000000E+00	 0.00000000E+00	 0.00000000E+00
	 0.00000000E+00	 0.00000000E+00	 0.00000000E+00
	 0.00000000E+00	 0.00000000E+00	 0.00000000E+00

	 0.00000000E+00	 0.00000000E+00	 0.00000000E+00
	 0.00000000E+00	 0.00000000E+00	 0.00000000E+00
	 0.00000000E+00	 0.00000000E+00	 0.00000000E+00

	 0.00000000E+00	 0.00000000E+00	 0.00000000E+00
	 0.00000000E+00	 0.00000000E+00	 0.00000000E+00
	 0.00000000E+00	 0.00000000E+00	 0.00000000E+00

	 0.00000000E+00	 0.00000000E+00	 0.00000000E+00
	 0.00000000E+00	 0.00000000E+00	 0.00000000E+00
	 0.00000000E+00	 0.00000000E+00	 0.00000000E+00

	 0.00000000E+00	 0.00000000E+00	 0.00000000E+00
	 0.00000000E+00	 0.00000000E+00	 0.00000000E+00
	 0.00000000E+00	 0.00000000E+00	 0.00000000E+00

	 0.00000000E+00	 0.00000000E+00	 0.00000000E+00
	 0.00000000E+00	 0.00000000E+00	 0.00000000E+00
	 0.00000000E+00	 0.00000000E+00	 0.00000000E+00

	 0.00000000E+00	 0.00000000E+00	 0.00000000E+00
	 0.00000000E+00	 0.00000000E+00	 0.00000000E+00
	 0.00000000E+00	 0.00000000E+00	 0.00000000E+00

	 0.00000000E+00	 0.00000000E+00	 0.00000000E+00
	 0.00000000E+00	 0.00000000E+00	 0.00000000E+00
	 0.00000000E+00	 0.00000000E+00	 0.00000000E+00

	 0.00000000E+00	 0.00000000E+00	 0.00000000E+00
	 0.00000000E+00	 0.00000000E+00	 0.00000000E+00
	 0.00000000E+00	 0.00000000E+00	 0.00000000E+00

	 0.00000000E+00	 0.00000000E+00	 0.00000000E+00
	 0.00000000E+00	 0.00000000E+00	 0.00000000E+00
	 0.00000000E+00	 0.00000000E+00	 0.00000000E+00

	 0.00000000E+00	 0.00000000E+00	 0.00000000E+00
	 0.00000000E+00	 0.00000000E+00	 0.00000000E+00
	 0.00000000E+00	 0.00000000E+00	 0.00000000E+00

	 0.00000000E+00	 0.00000000E+00	 0.00000000E+00
	 0.00000000E+00	 0.00000000E+00	 0.00000000E+00
	 0.00000000E+00	 0.00000000E+00	 0.00000000E+00

	 0.00000000E+00	 0.00000000E+00	 0.00000000E+00
	 0.00000000E+00	 0.00000000E+00	 0.00000000E+00
	 0.00000000E+00	 0.00000000E+00	 0.00000000E+00

	 0.00000000E+00	 0.00000000E+00	 0.00000000E+00
	 0.00000000E+00	 0.00000000E+00	 0.00000000E+00
	 0.00000000E+00	 0.00000000E+00	 0.00000000E+00

	 0.00000000E+00	 0.00000000E+00	 0.00000000E+00
	 0.00000000E+00	 0.00000000E+00	 0.00000000E+00
	 0.00000000E+00	 0.00000000E+00	 0.00000000E+00

	 0.00000000E+00	 0.00000000E+00	 0.00000000E+00
	 0.00000000E+00	 0.00000000E+00	 0.00000000E+00
	 0.00000000E+00	 0.00000000E+00	 0.00000000E+00

	 0.00000000E+00	 0.00000000E+00	 0.00000000E+00
	 0.00000000E+00	 0.00000000E+00	 0.00000000E+00
	 0.00000000E+00	 0.00000000E+00	 0.00000000E+00

	 0.00000000E+00	 0.00000000E+00	 0.00000000E+00
	 0.00000000E+00	 0.00000000E+00	 0.00000000E+00
	 0.00000000E+00	 0.00000000E+00	 0.00000000E+00

	 0.00000000E+00	 0.00000000E+00	 0.00000000E+00
	 0.00000000E+00	 0.00000000E+00	 0.00000000E+00
	 0.00000000E+00	 0.00000000E+00	 0.00000000E+00

	 0.00000000E+00	 0.00000000E+00	 0.00000000E+00
	 0.00000000E+00	 0.00000000E+00	 0.00000000E+00
	 0.00000000E+00	 0.00000000E+00	 0.00000000E+00

	 0.00000000E+00	 0.00000000E+00	 0.00000000E+00
	 0.00000000E+00	 0.00000000E+00	 0.00000000E+00
	 0.00000000E+00	 0.00000000E+00	 0.00000000E+00

	 0.00000000E+00	 0.00000000E+00	 0.00000000E+00
	 0.00000000E+00	 0.00000000E+00	 0.00000000E+00
	 0.00000000E+00	 0.00000000E+00	 0.00000000E+00

	 0.00000000E+00	 0.00000000E+00	 0.00000000E+00
	 0.00000000E+00	 0.00000000E+00	 0.00000000E+00
	 0.00000000E+00	 0.00000000E+00	 0.00000000E+00

	 0.00000000E+00	 0.00000000E+00	 0.00000000E+00
	 0.00000000E+00	 0.00000000E+00	 0.00000000E+00
	 0.00000000E+00	 0.00000000E+00	 0.00000000E+00

	 0.00000000E+00	 0.00000000E+00	 0.00000000E+00
	 0.00000000E+00	 0.00000000E+00	 0.00000000E+00
	 0.00000000E+00	 0.00000000E+00	 0.00000000E+00

	 0.00000000E+00	 0.00000000E+00	 0.00000000E+00
	 0.00000000E+00	 0.00000000E+00	 0.00000000E+00
	 0.00000000E+00	 0.00000000E+00	 0.00000000E+00

	 0.00000000E+00	 0.00000000E+00	 0.00000000E+00
	 0.00000000E+00	 0.00000000E+00	 0.00000000E+00
	 0.00000000E+00	 0.00000000E+00	 0.00000000E+00

	 0.00000000E+00	 0.00000000E+00	 0.00000000E+00
	 0.00000000E+00	 0.00000000E+00	 0.00000000E+00
	 0.00000000E+00	 0.00000000E+00	 0.00000000E+00

	 0.00000000E+00	 0.00000000E+00	 0.00000000E+00
	 0.00000000E+00	 0.00000000E+00	 0.00000000E+00
	 0.00000000E+00	 0.00000000E+00	 0.00000000E+00

	 0.00000000E+00	 0.00000000E+00	 0.00000000E+00
	 0.00000000E+00	 0.00000000E+00	 0.00000000E+00
	 0.00000000E+00	 0.00000000E+00	 0.00000000E+00

	 0.00000000E+00	 0.00000000E+00	 0.00000000E+00
	 0.00000000E+00	 0.00000000E+00	 0.00000000E+00
	 0.00000000E+00	 0.00000000E+00	 0.00000000E+00

	 0.00000000E+00	 0.00000000E+00	 0.00000000E+00
	 0.00000000E+00	 0.00000000E+00	 0.00000000E+00
	 0.00000000E+00	 0.00000000E+00	 0.00000000E+00

	 0.00000000E+00	 0.00000000E+00	 0.00000000E+00
	 0.00000000E+00	 0.00000000E+00	 0.00000000E+00
	 0.00000000E+00	 0.00000000E+00	 0.00000000E+00

	 0.00000000E+00	 0.00000000E+00	 0.00000000E+00
	 0.00000000E+00	 0.00000000E+00	 0.00000000E+00
	 0.00000000E+00	 0.00000000E+00	 0.00000000E+00

	 0.00000000E+00	 0.00000000E+00	 0.00000000E+00
	 0.00000000E+00	 0.00000000E+00	 0.00000000E+00
	 0.00000000E+00	 0.00000000E+00	 0.00000000E+00

	 0.00000000E+00	 0.00000000E+00	 0.00000000E+00
	 0.00000000E+00	 0.00000000E+00	 0.00000000E+00
	 0.00000000E+00	 0.00000000E+00	 0.00000000E+00

	 0.00000000E+00	 0.00000000E+00	 0.00000000E+00
	 0.00000000E+00	 0.00000000E+00	 0.00000000E+00
	 0.00000000E+00	 0.00000000E+00	 0.00000000E+00

	 0.00000000E+00	 0.00000000E+00	 0.00000000E+00
	 0.00000000E+00	 0.00000000E+00	 0.00000000E+00
	 0.00000000E+00	 0.00000000E+00	 0.00000000E+00

	 0.00000000E+00	 0.00000000E+00	 0.00000000E+00
	 0.00000000E+00	 0.00000000E+00	 0.00000000E+00
	 0.00000000E+00	 0.00000000E+00	 0.00000000E+00

	 0.00000000E+00	 0.00000000E+00	 0.00000000E+00
	 0.00000000E+00	 0.00000000E+00	 0.00000000E+00
	 0.00000000E+00	 0.00000000E+00	 0.00000000E+00

	 0.00000000E+00	 0.00000000E+00	 0.00000000E+00
	 0.00000000E+00	 0.00000000E+00	 0.00000000E+00
	 0.00000000E+00	 0.00000000E+00	 0.00000000E+00

	 0.00000000E+00	 0.00000000E+00	 0.00000000E+00
	 0.00000000E+00	 0.00000000E+00	 0.00000000E+00
	 0.00000000E+00	 0.00000000E+00	 0.00000000E+00

	 0.00000000E+00	 0.00000000E+00	 0.00000000E+00
	 0.00000000E+00	 0.00000000E+00	 0.00000000E+00
	 0.00000000E+00	 0.00000000E+00	 0.00000000E+00

	 0.00000000E+00	 0.00000000E+00	 0.00000000E+00
	 0.00000000E+00	 0.00000000E+00	 0.00000000E+00
	 0.00000000E+00	 0.00000000E+00	 0.00000000E+00

	 0.00000000E+00	 0.00000000E+00	 0.00000000E+00
	 0.00000000E+00	 0.00000000E+00	 0.00000000E+00
	 0.00000000E+00	 0.00000000E+00	 0.00000000E+00

	 0.00000000E+00	 0.00000000E+00	 0.00000000E+00
	 0.00000000E+00	 0.00000000E+00	 0.00000000E+00
	 0.00000000E+00	 0.00000000E+00	 0.00000000E+00

	 0.00000000E+00	 0.00000000E+00	 0.00000000E+00
	 0.00000000E+00	 0.00000000E+00	 0.00000000E+00
	 0.00000000E+00	 0.00000000E+00	 0.00000000E+00

	 0.00000000E+00	 0.00000000E+00	 0.00000000E+00
	 0.00000000E+00	 0.00000000E+00	 0.00000000E+00
	 0.00000000E+00	 0.00000000E+00	 0.00000000E+00

	 0.00000000E+00	 0.00000000E+00	 0.00000000E+00
	 0.00000000E+00	 0.00000000E+00	 0.00000000E+00
	 0.00000000E+00	 0.00000000E+00	 0.00000000E+00

	 0.00000000E+00	 0.00000000E+00	 0.00000000E+00
	 0.00000000E+00	 0.00000000E+00	 0.00000000E+00
	 0.00000000E+00	 0.00000000E+00	 0.00000000E+00

	 0.00000000E+00	 0.00000000E+00	 0.00000000E+00
	 0.00000000E+00	 0.00000000E+00	 0.00000000E+00
	 0.00000000E+00	 0.00000000E+00	 0.00000000E+00

	 0.00000000E+00	 0.00000000E+00	 0.00000000E+00
	 0.00000000E+00	 0.00000000E+00	 0.00000000E+00
	 0.00000000E+00	 0.00000000E+00	 0.00000000E+00

	 0.00000000E+00	 0.00000000E+00	 0.00000000E+00
	 0.00000000E+00	 0.00000000E+00	 0.00000000E+00
	 0.00000000E+00	 0.00000000E+00	 0.00000000E+00

	 0.00000000E+00	 0.00000000E+00	 0.00000000E+00
	 0.00000000E+00	 0.00000000E+00	 0.00000000E+00
	 0.00000000E+00	 0.00000000E+00	 0.00000000E+00

	 0.00000000E+00	 0.00000000E+00	 0.00000000E+00
	 0.00000000E+00	 0.00000000E+00	 0.00000000E+00
	 0.00000000E+00	 0.00000000E+00	 0.00000000E+00

	 0.00000000E+00	 0.00000000E+00	 0.00000000E+00
	 0.00000000E+00	 0.00000000E+00	 0.00000000E+00
	 0.00000000E+00	 0.00000000E+00	 0.00000000E+00

	 0.00000000E+00	 0.00000000E+00	 0.00000000E+00
	 0.00000000E+00	 0.00000000E+00	 0.00000000E+00
	 0.00000000E+00	 0.00000000E+00	 0.00000000E+00

	 0.00000000E+00	 0.00000000E+00	 0.00000000E+00
	 0.00000000E+00	 0.00000000E+00	 0.00000000E+00
	 0.00000000E+00	 0.00000000E+00	 0.00000000E+00

	 0.00000000E+00	 0.00000000E+00	 0.00000000E+00
	 0.00000000E+00	 0.00000000E+00	 0.00000000E+00
	 0.00000000E+00	 0.00000000E+00	 0.00000000E+00

	 0.00000000E+00	 0.00000000E+00	 0.00000000E+00
	 0.00000000E+00	 0.00000000E+00	 0.00000000E+00
	 0.00000000E+00	 0.00000000E+00	 0.00000000E+00

	 0.00000000E+00	 0.00000000E+00	 0.00000000E+00
	 0.00000000E+00	 0.00000000E+00	 0.00000000E+00
	 0.00000000E+00	 0.00000000E+00	 0.00000000E+00

	 0.00000000E+00	 0.00000000E+00	 0.00000000E+00
	 0.00000000E+00	 0.00000000E+00	 0.00000000E+00
	 0.00000000E+00	 0.00000000E+00	 0.00000000E+00

	 0.00000000E+00	 0.00000000E+00	 0.00000000E+00
	 0.00000000E+00	 0.00000000E+00	 0.00000000E+00
	 0.00000000E+00	 0.00000000E+00	 0.00000000E+00

	 0.00000000E+00	 0.00000000E+00	 0.00000000E+00
	 0.00000000E+00	 0.00000000E+00	 0.00000000E+00
	 0.00000000E+00	 0.00000000E+00	 0.00000000E+00

	 0.00000000E+00	 0.00000000E+00	 0.00000000E+00
	 0.00000000E+00	 0.00000000E+00	 0.00000000E+00
	 0.00000000E+00	 0.00000000E+00	 0.00000000E+00

	 0.00000000E+00	 0.00000000E+00	 0.00000000E+00
	 0.00000000E+00	 0.00000000E+00	 0.00000000E+00
	 0.00000000E+00	 0.00000000E+00	 0.00000000E+00

	 0.00000000E+00	 0.00000000E+00	 0.00000000E+00
	 0.00000000E+00	 0.00000000E+00	 0.00000000E+00
	 0.00000000E+00	 0.00000000E+00	 0.00000000E+00

	 0.00000000E+00	 0.00000000E+00	 0.00000000E+00
	 0.00000000E+00	 0.00000000E+00	 0.00000000E+00
	 0.00000000E+00	 0.00000000E+00	 0.00000000E+00

	 0.00000000E+00	 0.00000000E+00	 0.00000000E+00
	 0.00000000E+00	 0.00000000E+00	 0.00000000E+00
	 0.00000000E+00	 0.00000000E+00	 0.00000000E+00

	 0.00000000E+00	 0.00000000E+00	 0.00000000E+00
	 0.00000000E+00	 0.00000000E+00	 0.00000000E+00
	 0.00000000E+00	 0.00000000E+00	 0.00000000E+00

	 0.00000000E+00	 0.00000000E+00	 0.00000000E+00
	 0.00000000E+00	 0.00000000E+00	 0.00000000E+00
	 0.00000000E+00	 0.00000000E+00	 0.00000000E+00

	 0.00000000E+00	 0.00000000E+00	 0.00000000E+00
	 0.00000000E+00	 0.00000000E+00	 0.00000000E+00
	 0.00000000E+00	 0.00000000E+00	 0.00000000E+00

	 0.00000000E+00	 0.00000000E+00	 0.00000000E+00
	 0.00000000E+00	 0.00000000E+00	 0.00000000E+00
	 0.00000000E+00	 0.00000000E+00	 0.00000000E+00

	 0.00000000E+00	 0.00000000E+00	 0.00000000E+00
	 0.00000000E+00	 0.00000000E+00	 0.00000000E+00
	 0.00000000E+00	 0.00000000E+00	 0.00000000E+00

	 0.00000000E+00	 0.00000000E+00	 0.00000000E+00
	 0.00000000E+00	 0.00000000E+00	 0.00000000E+00
	 0.00000000E+00	 0.00000000E+00	 0.00000000E+00

	 0.00000000E+00	 0.00000000E+00	 0.00000000E+00
	 0.00000000E+00	 0.00000000E+00	 0.00000000E+00
	 0.00000000E+00	 0.00000000E+00	 0.00000000E+00

	 0.00000000E+00	 0.00000000E+00	 0.00000000E+00
	 0.00000000E+00	 0.00000000E+00	 0.00000000E+00
	 0.00000000E+00	 0.00000000E+00	 0.00000000E+00

	 0.00000000E+00	 0.00000000E+00	 0.00000000E+00
	 0.00000000E+00	 0.00000000E+00	 0.00000000E+00
	 0.00000000E+00	 0.00000000E+00	 0.00000000E+00

	 0.00000000E+00	 0.00000000E+00	 0.00000000E+00
	 0.00000000E+00	 0.00000000E+00	 0.00000000E+00
	 0.00000000E+00	 0.00000000E+00	 0.00000000E+00

	 0.00000000E+00	 0.00000000E+00	 0.00000000E+00
	 0.00000000E+00	 0.00000000E+00	 0.00000000E+00
	 0.00000000E+00	 0.00000000E+00	 0.00000000E+00

	 0.00000000E+00	 0.00000000E+00	 0.00000000E+00
	 0.00000000E+00	 0.00000000E+00	 0.00000000E+00
	 0.00000000E+00	 0.00000000E+00	 0.00000000E+00

	 0.00000000E+00	 0.00000000E+00	 0.00000000E+00
	 0.00000000E+00	 0.00000000E+00	 0.00000000E+00
	 0.00000000E+00	 0.00000000E+00	 0.00000000E+00

	 0.00000000E+00	 0.00000000E+00	 0.00000000E+00
	 0.00000000E+00	 0.00000000E+00	 0.00000000E+00
	 0.00000000E+00	 0.00000000E+00	 0.00000000E+00

	 0.00000000E+00	 0.00000000E+00	 0.00000000E+00
	 0.00000000E+00	 0.00000000E+00	 0.00000000E+00
	 0.00000000E+00	 0.00000000E+00	 0.00000000E+00

	 0.00000000E+00	 0.00000000E+00	 0.00000000E+00
	 0.00000000E+00	 0.00000000E+00	 0.00000000E+00
	 0.00000000E+00	 0.00000000E+00	 0.00000000E+00

	 0.00000000E+00	 0.00000000E+00	 0.00000000E+00
	 0.00000000E+00	 0.00000000E+00	 0.00000000E+00
	 0.00000000E+00	 0.00000000E+00	 0.00000000E+00

	 0.00000000E+00	 0.00000000E+00	 0.00000000E+00
	 0.00000000E+00	 0.00000000E+00	 0.00000000E+00
	 0.00000000E+00	 0.00000000E+00	 0.00000000E+00

	 0.00000000E+00	 0.00000000E+00	 0.00000000E+00
	 0.00000000E+00	 0.00000000E+00	 0.00000000E+00
	 0.00000000E+00	 0.00000000E+00	 0.00000000E+00

	 0.00000000E+00	 0.00000000E+00	 0.00000000E+00
	 0.00000000E+00	 0.00000000E+00	 0.00000000E+00
	 0.00000000E+00	 0.00000000E+00	 0.00000000E+00

	 0.00000000E+00	 0.00000000E+00	 0.00000000E+00
	 0.00000000E+00	 0.00000000E+00	 0.00000000E+00
	 0.00000000E+00	 0.00000000E+00	 0.00000000E+00

	 0.00000000E+00	 0.00000000E+00	 0.00000000E+00
	 0.00000000E+00	 0.00000000E+00	 0.00000000E+00
	 0.00000000E+00	 0.00000000E+00	 0.00000000E+00

	 0.00000000E+00	 0.00000000E+00	 0.00000000E+00
	 0.00000000E+00	 0.00000000E+00	 0.00000000E+00
	 0.00000000E+00	 0.00000000E+00	 0.00000000E+00

	 0.00000000E+00	 0.00000000E+00	 0.00000000E+00
	 0.00000000E+00	 0.00000000E+00	 0.00000000E+00
	 0.00000000E+00	 0.00000000E+00	 0.00000000E+00

	 0.00000000E+00	 0.00000000E+00	 0.00000000E+00
	 0.00000000E+00	 0.00000000E+00	 0.00000000E+00
	 0.00000000E+00	 0.00000000E+00	 0.00000000E+00

	 0.00000000E+00	 0.00000000E+00	 0.00000000E+00
	 0.00000000E+00	 0.00000000E+00	 0.00000000E+00
	 0.00000000E+00	 0.00000000E+00	 0.00000000E+00

	 0.00000000E+00	 0.00000000E+00	 0.00000000E+00
	 0.00000000E+00	 0.00000000E+00	 0.00000000E+00
	 0.00000000E+00	 0.00000000E+00	 0.00000000E+00

	 0.00000000E+00	 0.00000000E+00	 0.00000000E+00
	 0.00000000E+00	 0.00000000E+00	 0.00000000E+00
	 0.00000000E+00	 0.00000000E+00	 0.00000000E+00

	 0.00000000E+00	 0.00000000E+00	 0.00000000E+00
	 0.00000000E+00	 0.00000000E+00	 0.00000000E+00
	 0.00000000E+00	 0.00000000E+00	 0.00000000E+00

	 0.00000000E+00	 0.00000000E+00	 0.00000000E+00
	 0.00000000E+00	 0.00000000E+00	 0.00000000E+00
	 0.00000000E+00	 0.00000000E+00	 0.00000000E+00

	 0.00000000E+00	 0.00000000E+00	 0.00000000E+00
	 0.00000000E+00	 0.00000000E+00	 0.00000000E+00
	 0.00000000E+00	 0.00000000E+00	 0.00000000E+00

	 0.00000000E+00	 0.00000000E+00	 0.00000000E+00
	 0.00000000E+00	 0.00000000E+00	 0.00000000E+00
	 0.00000000E+00	 0.00000000E+00	 0.00000000E+00

	 0.00000000E+00	 0.00000000E+00	 0.00000000E+00
	 0.00000000E+00	 0.00000000E+00	 0.00000000E+00
	 0.00000000E+00	 0.00000000E+00	 0.00000000E+00

	 0.00000000E+00	 0.00000000E+00	 0.00000000E+00
	 0.00000000E+00	 0.00000000E+00	 0.00000000E+00
	 0.00000000E+00	 0.00000000E+00	 0.00000000E+00

	 0.00000000E+00	 0.00000000E+00	 0.00000000E+00
	 0.00000000E+00	 0.00000000E+00	 0.00000000E+00
	 0.00000000E+00	 0.00000000E+00	 0.00000000E+00

	 0.00000000E+00	 0.00000000E+00	 0.00000000E+00
	 0.00000000E+00	 0.00000000E+00	 0.00000000E+00
	 0.00000000E+00	 0.00000000E+00	 0.00000000E+00

	 0.00000000E+00	 0.00000000E+00	 0.00000000E+00
	 0.00000000E+00	 0.00000000E+00	 0.00000000E+00
	 0.00000000E+00	 0.00000000E+00	 0.00000000E+00

	 0.00000000E+00	 0.00000000E+00	 0.00000000E+00
	 0.00000000E+00	 0.00000000E+00	 0.00000000E+00
	 0.00000000E+00	 0.00000000E+00	 0.00000000E+00

	 0.00000000E+00	 0.00000000E+00	 0.00000000E+00
	 0.00000000E+00	 0.00000000E+00	 0.00000000E+00
	 0.00000000E+00	 0.00000000E+00	 0.00000000E+00

	 0.00000000E+00	 0.00000000E+00	 0.00000000E+00
	 0.00000000E+00	 0.00000000E+00	 0.00000000E+00
	 0.00000000E+00	 0.00000000E+00	 0.00000000E+00

	 0.00000000E+00	 0.00000000E+00	 0.00000000E+00
	 0.00000000E+00	 0.00000000E+00	 0.00000000E+00
	 0.00000000E+00	 0.00000000E+00	 0.00000000E+00

	 0.00000000E+00	 0.00000000E+00	 0.00000000E+00
	 0.00000000E+00	 0.00000000E+00	 0.00000000E+00
	 0.00000000E+00	 0.00000000E+00	 0.00000000E+00

	 0.00000000E+00	 0.00000000E+00	 0.00000000E+00
	 0.00000000E+00	 0.00000000E+00	 0.00000000E+00
	 0.00000000E+00	 0.00000000E+00	 0.00000000E+00

	 0.00000000E+00	 0.00000000E+00	 0.00000000E+00
	 0.00000000E+00	 0.00000000E+00	 0.00000000E+00
	 0.00000000E+00	 0.00000000E+00	 0.00000000E+00

	 0.00000000E+00	 0.00000000E+00	 0.00000000E+00
	 0.00000000E+00	 0.00000000E+00	 0.00000000E+00
	 0.00000000E+00	 0.00000000E+00	 0.00000000E+00

	 0.00000000E+00	 0.00000000E+00	 0.00000000E+00
	 0.00000000E+00	 0.00000000E+00	 0.00000000E+00
	 0.00000000E+00	 0.00000000E+00	 0.00000000E+00

	 0.00000000E+00	 0.00000000E+00	 0.00000000E+00
	 0.00000000E+00	 0.00000000E+00	 0.00000000E+00
	 0.00000000E+00	 0.00000000E+00	 0.00000000E+00

	 0.00000000E+00	 0.00000000E+00	 0.00000000E+00
	 0.00000000E+00	 0.00000000E+00	 0.00000000E+00
	 0.00000000E+00	 0.00000000E+00	 0.00000000E+00

	 0.00000000E+00	 0.00000000E+00	 0.00000000E+00
	 0.00000000E+00	 0.00000000E+00	 0.00000000E+00
	 0.00000000E+00	 0.00000000E+00	 0.00000000E+00

	 0.00000000E+00	 0.00000000E+00	 0.00000000E+00
	 0.00000000E+00	 0.00000000E+00	 0.00000000E+00
	 0.00000000E+00	 0.00000000E+00	 0.00000000E+00

	 0.00000000E+00	 0.00000000E+00	 0.00000000E+00
	 0.00000000E+00	 0.00000000E+00	 0.00000000E+00
	 0.00000000E+00	 0.00000000E+00	 0.00000000E+00

	 0.00000000E+00	 0.00000000E+00	 0.00000000E+00
	 0.00000000E+00	 0.00000000E+00	 0.00000000E+00
	 0.00000000E+00	 0.00000000E+00	 0.00000000E+00

	 0.00000000E+00	 0.00000000E+00	 0.00000000E+00
	 0.00000000E+00	 0.00000000E+00	 0.00000000E+00
	 0.00000000E+00	 0.00000000E+00	 0.00000000E+00

	 0.00000000E+00	 0.00000000E+00	 0.00000000E+00
	 0.00000000E+00	 0.00000000E+00	 0.00000000E+00
	 0.00000000E+00	 0.00000000E+00	 0.00000000E+00

	 0.00000000E+00	 0.00000000E+00	 0.00000000E+00
	 0.00000000E+00	 0.00000000E+00	 0.00000000E+00
	 0.00000000E+00	 0.00000000E+00	 0.00000000E+00

	 0.00000000E+00	 0.00000000E+00	 0.00000000E+00
	 0.00000000E+00	 0.00000000E+00	 0.00000000E+00
	 0.00000000E+00	 0.00000000E+00	 0.00000000E+00

	 0.00000000E+00	 0.00000000E+00	 0.00000000E+00
	 0.00000000E+00	 0.00000000E+00	 0.00000000E+00
	 0.00000000E+00	 0.00000000E+00	 0.00000000E+00

	 0.00000000E+00	 0.00000000E+00	 0.00000000E+00
	 0.00000000E+00	 0.00000000E+00	 0.00000000E+00
	 0.00000000E+00	 0.00000000E+00	 0.00000000E+00

	 0.00000000E+00	 0.00000000E+00	 0.00000000E+00
	 0.00000000E+00	 0.00000000E+00	 0.00000000E+00
	 0.00000000E+00	 0.00000000E+00	 0.00000000E+00

	 0.00000000E+00	 0.00000000E+00	 0.00000000E+00
	 0.00000000E+00	 0.00000000E+00	 0.00000000E+00
	 0.00000000E+00	 0.00000000E+00	 0.00000000E+00

	 0.00000000E+00	 0.00000000E+00	 0.00000000E+00
	 0.00000000E+00	 0.00000000E+00	 0.00000000E+00
	 0.00000000E+00	 0.00000000E+00	 0.00000000E+00

	 0.00000000E+00	 0.00000000E+00	 0.00000000E+00
	 0.00000000E+00	 0.00000000E+00	 0.00000000E+00
	 0.00000000E+00	 0.00000000E+00	 0.00000000E+00

	 0.00000000E+00	 0.00000000E+00	 0.00000000E+00
	 0.00000000E+00	 0.00000000E+00	 0.00000000E+00
	 0.00000000E+00	 0.00000000E+00	 0.00000000E+00

	 0.00000000E+00	 0.00000000E+00	 0.00000000E+00
	 0.00000000E+00	 0.00000000E+00	 0.00000000E+00
	 0.00000000E+00	 0.00000000E+00	 0.00000000E+00

	 0.00000000E+00	 0.00000000E+00	 0.00000000E+00
	 0.00000000E+00	 0.00000000E+00	 0.00000000E+00
	 0.00000000E+00	 0.00000000E+00	 0.00000000E+00

	 0.00000000E+00	 0.00000000E+00	 0.00000000E+00
	 0.00000000E+00	 0.00000000E+00	 0.00000000E+00
	 0.00000000E+00	 0.00000000E+00	 0.00000000E+00

	 0.00000000E+00	 0.00000000E+00	 0.00000000E+00
	 0.00000000E+00	 0.00000000E+00	 0.00000000E+00
	 0.00000000E+00	 0.00000000E+00	 0.00000000E+00

	 0.00000000E+00	 0.00000000E+00	 0.00000000E+00
	 0.00000000E+00	 0.00000000E+00	 0.00000000E+00
	 0.00000000E+00	 0.00000000E+00	 0.00000000E+00

	 0.00000000E+00	 0.00000000E+00	 0.00000000E+00
	 0.00000000E+00	 0.00000000E+00	 0.00000000E+00
	 0.00000000E+00	 0.00000000E+00	 0.00000000E+00

	 0.00000000E+00	 0.00000000E+00	 0.00000000E+00
	 0.00000000E+00	 0.00000000E+00	 0.00000000E+00
	 0.00000000E+00	 0.00000000E+00	 0.00000000E+00

	 0.00000000E+00	 0.00000000E+00	 0.00000000E+00
	 0.00000000E+00	 0.00000000E+00	 0.00000000E+00
	 0.00000000E+00	 0.00000000E+00	 0.00000000E+00

	 0.00000000E+00	 0.00000000E+00	 0.00000000E+00
	 0.00000000E+00	 0.00000000E+00	 0.00000000E+00
	 0.00000000E+00	 0.00000000E+00	 0.00000000E+00

	 0.00000000E+00	 0.00000000E+00	 0.00000000E+00
	 0.00000000E+00	 0.00000000E+00	 0.00000000E+00
	 0.00000000E+00	 0.00000000E+00	 0.00000000E+00

	 0.00000000E+00	 0.00000000E+00	 0.00000000E+00
	 0.00000000E+00	 0.00000000E+00	 0.00000000E+00
	 0.00000000E+00	 0.00000000E+00	 0.00000000E+00

	 0.00000000E+00	 0.00000000E+00	 0.00000000E+00
	 0.00000000E+00	 0.00000000E+00	 0.00000000E+00
	 0.00000000E+00	 0.00000000E+00	 0.00000000E+00

	 0.00000000E+00	 0.00000000E+00	 0.00000000E+00
	 0.00000000E+00	 0.00000000E+00	 0.00000000E+00
	 0.00000000E+00	 0.00000000E+00	 0.00000000E+00

	 0.00000000E+00	 0.00000000E+00	 0.00000000E+00
	 0.00000000E+00	 0.00000000E+00	 0.00000000E+00
	 0.00000000E+00	 0.00000000E+00	 0.00000000E+00

	 0.00000000E+00	 0.00000000E+00	 0.00000000E+00
	 0.00000000E+00	 0.00000000E+00	 0.00000000E+00
	 0.00000000E+00	 0.00000000E+00	 0.00000000E+00

	 0.00000000E+00	 0.00000000E+00	 0.00000000E+00
	 0.00000000E+00	 0.00000000E+00	 0.00000000E+00
	 0.00000000E+00	 0.00000000E+00	 0.00000000E+00

	 0.00000000E+00	 0.00000000E+00	 0.00000000E+00
	 0.00000000E+00	 0.00000000E+00	 0.00000000E+00
	 0.00000000E+00	 0.00000000E+00	 0.00000000E+00

	 0.00000000E+00	 0.00000000E+00	 0.00000000E+00
	 0.00000000E+00	 0.00000000E+00	 0.00000000E+00
	 0.00000000E+00	 0.00000000E+00	 0.00000000E+00

	 0.00000000E+00	 0.00000000E+00	 0.00000000E+00
	 0.00000000E+00	 0.00000000E+00	 0.00000000E+00
	 0.00000000E+00	 0.00000000E+00	 0.00000000E+00

	 0.00000000E+00	 0.00000000E+00	 0.00000000E+00
	 0.00000000E+00	 0.00000000E+00	 0.00000000E+00
	 0.00000000E+00	 0.00000000E+00	 0.00000000E+00

	 0.00000000E+00	 0.00000000E+00	 0.00000000E+00
	 0.00000000E+00	 0.00000000E+00	 0.00000000E+00
	 0.00000000E+00	 0.00000000E+00	 0.00000000E+00

	 0.00000000E+00	 0.00000000E+00	 0.00000000E+00
	 0.00000000E+00	 0.00000000E+00	 0.00000000E+00
	 0.00000000E+00	 0.00000000E+00	 0.00000000E+00

	 0.00000000E+00	 0.00000000E+00	 0.00000000E+00
	 0.00000000E+00	 0.00000000E+00	 0.00000000E+00
	 0.00000000E+00	 0.00000000E+00	 0.00000000E+00

	 0.00000000E+00	 0.00000000E+00	 0.00000000E+00
	 0.00000000E+00	 0.00000000E+00	 0.00000000E+00
	 0.00000000E+00	 0.00000000E+00	 0.00000000E+00

	 0.00000000E+00	 0.00000000E+00	 0.00000000E+00
	 0.00000000E+00	 0.00000000E+00	 0.00000000E+00
	 0.00000000E+00	 0.00000000E+00	 0.00000000E+00

	 0.00000000E+00	 0.00000000E+00	 0.00000000E+00
	 0.00000000E+00	 0.00000000E+00	 0.00000000E+00
	 0.00000000E+00	 0.00000000E+00	 0.00000000E+00

	 0.00000000E+00	 0.00000000E+00	 0.00000000E+00
	 0.00000000E+00	 0.00000000E+00	 0.00000000E+00
	 0.00000000E+00	 0.00000000E+00	 0.00000000E+00

	 0.00000000E+00	 0.00000000E+00	 0.00000000E+00
	 0.00000000E+00	 0.00000000E+00	 0.00000000E+00
	 0.00000000E+00	 0.00000000E+00	 0.00000000E+00

	 0.00000000E+00	 0.00000000E+00	 0.00000000E+00
	 0.00000000E+00	 0.00000000E+00	 0.00000000E+00
	 0.00000000E+00	 0.00000000E+00	 0.00000000E+00

	 0.00000000E+00	 0.00000000E+00	 0.00000000E+00
	 0.00000000E+00	 0.00000000E+00	 0.00000000E+00
	 0.00000000E+00	 0.00000000E+00	 0.00000000E+00

	 0.00000000E+00	 0.00000000E+00	 0.00000000E+00
	 0.00000000E+00	 0.00000000E+00	 0.00000000E+00
	 0.00000000E+00	 0.00000000E+00	 0.00000000E+00

	 0.00000000E+00	 0.00000000E+00	 0.00000000E+00
	 0.00000000E+00	 0.00000000E+00	 0.00000000E+00
	 0.00000000E+00	 0.00000000E+00	 0.00000000E+00

	 0.00000000E+00	 0.00000000E+00	 0.00000000E+00
	 0.00000000E+00	 0.00000000E+00	 0.00000000E+00
	 0.00000000E+00	 0.00000000E+00	 0.00000000E+00

	 0.00000000E+00	 0.00000000E+00	 0.00000000E+00
	 0.00000000E+00	 0.00000000E+00	 0.00000000E+00
	 0.00000000E+00	 0.00000000E+00	 0.00000000E+00

	 0.00000000E+00	 0.00000000E+00	 0.00000000E+00
	 0.00000000E+00	 0.00000000E+00	 0.00000000E+00
	 0.00000000E+00	 0.00000000E+00	 0.00000000E+00

	 0.00000000E+00	 0.00000000E+00	 0.00000000E+00
	 0.00000000E+00	 0.00000000E+00	 0.00000000E+00
	 0.00000000E+00	 0.00000000E+00	 0.00000000E+00

	 0.00000000E+00	 0.00000000E+00	 0.00000000E+00
	 0.00000000E+00	 0.00000000E+00	 0.00000000E+00
	 0.00000000E+00	 0.00000000E+00	 0.00000000E+00

	 0.00000000E+00	 0.00000000E+00	 0.00000000E+00
	 0.00000000E+00	 0.00000000E+00	 0.00000000E+00
	 0.00000000E+00	 0.00000000E+00	 0.00000000E+00

	 0.00000000E+00	 0.00000000E+00	 0.00000000E+00
	 0.00000000E+00	 0.00000000E+00	 0.00000000E+00
	 0.00000000E+00	 0.00000000E+00	 0.00000000E+00

	 0.00000000E+00	 0.00000000E+00	 0.00000000E+00
	 0.00000000E+00	 0.00000000E+00	 0.00000000E+00
	 0.00000000E+00	 0.00000000E+00	 0.00000000E+00

	 0.00000000E+00	 0.00000000E+00	 0.00000000E+00
	 0.00000000E+00	 0.00000000E+00	 0.00000000E+00
	 0.00000000E+00	 0.00000000E+00	 0.00000000E+00

	 0.00000000E+00	 0.00000000E+00	 0.00000000E+00
	 0.00000000E+00	 0.00000000E+00	 0.00000000E+00
	 0.00000000E+00	 0.00000000E+00	 0.00000000E+00

	 0.00000000E+00	 0.00000000E+00	 0.00000000E+00
	 0.00000000E+00	 0.00000000E+00	 0.00000000E+00
	 0.00000000E+00	 0.00000000E+00	 0.00000000E+00

	 0.00000000E+00	 0.00000000E+00	 0.00000000E+00
	 0.00000000E+00	 0.00000000E+00	 0.00000000E+00
	 0.00000000E+00	 0.00000000E+00	 0.00000000E+00

	 0.00000000E+00	 0.00000000E+00	 0.00000000E+00
	 0.00000000E+00	 0.00000000E+00	 0.00000000E+00
	 0.00000000E+00	 0.00000000E+00	 0.00000000E+00

	 0.00000000E+00	 0.00000000E+00	 0.00000000E+00
	 0.00000000E+00	 0.00000000E+00	 0.00000000E+00
	 0.00000000E+00	 0.00000000E+00	 0.00000000E+00

	 0.00000000E+00	 0.00000000E+00	 0.00000000E+00
	 0.00000000E+00	 0.00000000E+00	 0.00000000E+00
	 0.00000000E+00	 0.00000000E+00	 0.00000000E+00

	 0.00000000E+00	 0.00000000E+00	 0.00000000E+00
	 0.00000000E+00	 0.00000000E+00	 0.00000000E+00
	 0.00000000E+00	 0.00000000E+00	 0.00000000E+00

	 0.00000000E+00	 0.00000000E+00	 0.00000000E+00
	 0.00000000E+00	 0.00000000E+00	 0.00000000E+00
	 0.00000000E+00	 0.00000000E+00	 0.00000000E+00

	 0.00000000E+00	 0.00000000E+00	 0.00000000E+00
	 0.00000000E+00	 0.00000000E+00	 0.00000000E+00
	 0.00000000E+00	 0.00000000E+00	 0.00000000E+00

	 0.00000000E+00	 0.00000000E+00	 0.00000000E+00
	 0.00000000E+00	 0.00000000E+00	 0.00000000E+00
	 0.00000000E+00	 0.00000000E+00	 0.00000000E+00

	 0.00000000E+00	 0.00000000E+00	 0.00000000E+00
	 0.00000000E+00	 0.00000000E+00	 0.00000000E+00
	 0.00000000E+00	 0.00000000E+00	 0.00000000E+00

	 0.00000000E+00	 0.00000000E+00	 0.00000000E+00
	 0.00000000E+00	 0.00000000E+00	 0.00000000E+00
	 0.00000000E+00	 0.00000000E+00	 0.00000000E+00

	 0.00000000E+00	 0.00000000E+00	 0.00000000E+00
	 0.00000000E+00	 0.00000000E+00	 0.00000000E+00
	 0.00000000E+00	 0.00000000E+00	 0.00000000E+00

	 0.00000000E+00	 0.00000000E+00	 0.00000000E+00
	 0.00000000E+00	 0.00000000E+00	 0.00000000E+00
	 0.00000000E+00	 0.00000000E+00	 0.00000000E+00

	 0.00000000E+00	 0.00000000E+00	 0.00000000E+00
	 0.00000000E+00	 0.00000000E+00	 0.00000000E+00
	 0.00000000E+00	 0.00000000E+00	 0.00000000E+00

	 0.00000000E+00	 0.00000000E+00	 0.00000000E+00
	 0.00000000E+00	 0.00000000E+00	 0.00000000E+00
	 0.00000000E+00	 0.00000000E+00	 0.00000000E+00

	 0.00000000E+00	 0.00000000E+00	 0.00000000E+00
	 0.00000000E+00	 0.00000000E+00	 0.00000000E+00
	 0.00000000E+00	 0.00000000E+00	 0.00000000E+00

	 0.00000000E+00	 0.00000000E+00	 0.00000000E+00
	 0.00000000E+00	 0.00000000E+00	 0.00000000E+00
	 0.00000000E+00	 0.00000000E+00	 0.00000000E+00

	 0.00000000E+00	 0.00000000E+00	 0.00000000E+00
	 0.00000000E+00	 0.00000000E+00	 0.00000000E+00
	 0.00000000E+00	 0.00000000E+00	 0.00000000E+00

	 0.00000000E+00	 0.00000000E+00	 0.00000000E+00
	 0.00000000E+00	 0.00000000E+00	 0.00000000E+00
	 0.00000000E+00	 0.00000000E+00	 0.00000000E+00

	 0.00000000E+00	 0.00000000E+00	 0.00000000E+00
	 0.00000000E+00	 0.00000000E+00	 0.00000000E+00
	 0.00000000E+00	 0.00000000E+00	 0.00000000E+00

	 0.00000000E+00	 0.00000000E+00	 0.00000000E+00
	 0.00000000E+00	 0.00000000E+00	 0.00000000E+00
	 0.00000000E+00	 0.00000000E+00	 0.00000000E+00

	 0.00000000E+00	 0.00000000E+00	 0.00000000E+00
	 0.00000000E+00	 0.00000000E+00	 0.00000000E+00
	 0.00000000E+00	 0.00000000E+00	 0.00000000E+00

	 0.00000000E+00	 0.00000000E+00	 0.00000000E+00
	 0.00000000E+00	 0.00000000E+00	 0.00000000E+00
	 0.00000000E+00	 0.00000000E+00	 0.00000000E+00

	 0.00000000E+00	 0.00000000E+00	 0.00000000E+00
	 0.00000000E+00	 0.00000000E+00	 0.00000000E+00
	 0.00000000E+00	 0.00000000E+00	 0.00000000E+00

	 0.00000000E+00	 0.00000000E+00	 0.00000000E+00
	 0.00000000E+00	 0.00000000E+00	 0.00000000E+00
	 0.00000000E+00	 0.00000000E+00	 0.00000000E+00

	 0.00000000E+00	 0.00000000E+00	 0.00000000E+00
	 0.00000000E+00	 0.00000000E+00	 0.00000000E+00
	 0.00000000E+00	 0.00000000E+00	 0.00000000E+00

	 0.00000000E+00	 0.00000000E+00	 0.00000000E+00
	 0.00000000E+00	 0.00000000E+00	 0.00000000E+00
	 0.00000000E+00	 0.00000000E+00	 0.00000000E+00

	 0.00000000E+00	 0.00000000E+00	 0.00000000E+00
	 0.00000000E+00	 0.00000000E+00	 0.00000000E+00
	 0.00000000E+00	 0.00000000E+00	 0.00000000E+00

	 0.00000000E+00	 0.00000000E+00	 0.00000000E+00
	 0.00000000E+00	 0.00000000E+00	 0.00000000E+00
	 0.00000000E+00	 0.00000000E+00	 0.00000000E+00

	 0.00000000E+00	 0.00000000E+00	 0.00000000E+00
	 0.00000000E+00	 0.00000000E+00	 0.00000000E+00
	 0.00000000E+00	 0.00000000E+00	 0.00000000E+00

	 0.00000000E+00	 0.00000000E+00	 0.00000000E+00
	 0.00000000E+00	 0.00000000E+00	 0.00000000E+00
	 0.00000000E+00	 0.00000000E+00	 0.00000000E+00

	 0.00000000E+00	 0.00000000E+00	 0.00000000E+00
	 0.00000000E+00	 0.00000000E+00	 0.00000000E+00
	 0.00000000E+00	 0.00000000E+00	 0.00000000E+00

	 0.00000000E+00	 0.00000000E+00	 0.00000000E+00
	 0.00000000E+00	 0.00000000E+00	 0.00000000E+00
	 0.00000000E+00	 0.00000000E+00	 0.00000000E+00

	 0.00000000E+00	 0.00000000E+00	 0.00000000E+00
	 0.00000000E+00	 0.00000000E+00	 0.00000000E+00
	 0.00000000E+00	 0.00000000E+00	 0.00000000E+00

	 0.00000000E+00	 0.00000000E+00	 0.00000000E+00
	 0.00000000E+00	 0.00000000E+00	 0.00000000E+00
	 0.00000000E+00	 0.00000000E+00	 0.00000000E+00

	 0.00000000E+00	 0.00000000E+00	 0.00000000E+00
	 0.00000000E+00	 0.00000000E+00	 0.00000000E+00
	 0.00000000E+00	 0.00000000E+00	 0.00000000E+00

	 0.00000000E+00	 0.00000000E+00	 0.00000000E+00
	 0.00000000E+00	 0.00000000E+00	 0.00000000E+00
	 0.00000000E+00	 0.00000000E+00	 0.00000000E+00

	 0.00000000E+00	 0.00000000E+00	 0.00000000E+00
	 0.00000000E+00	 0.00000000E+00	 0.00000000E+00
	 0.00000000E+00	 0.00000000E+00	 0.00000000E+00

	 0.00000000E+00	 0.00000000E+00	 0.00000000E+00
	 0.00000000E+00	 0.00000000E+00	 0.00000000E+00
	 0.00000000E+00	 0.00000000E+00	 0.00000000E+00

	 0.00000000E+00	 0.00000000E+00	 0.00000000E+00
	 0.00000000E+00	 0.00000000E+00	 0.00000000E+00
	 0.00000000E+00	 0.00000000E+00	 0.00000000E+00

	 0.00000000E+00	 0.00000000E+00	 0.00000000E+00
	 0.00000000E+00	 0.00000000E+00	 0.00000000E+00
	 0.00000000E+00	 0.00000000E+00	 0.00000000E+00

	 0.00000000E+00	 0.00000000E+00	 0.00000000E+00
	 0.00000000E+00	 0.00000000E+00	 0.00000000E+00
	 0.00000000E+00	 0.00000000E+00	 0.00000000E+00

	 0.00000000E+00	 0.00000000E+00	 0.00000000E+00
	 0.00000000E+00	 0.00000000E+00	 0.00000000E+00
	 0.00000000E+00	 0.00000000E+00	 0.00000000E+00

	 0.00000000E+00	 0.00000000E+00	 0.00000000E+00
	 0.00000000E+00	 0.00000000E+00	 0.00000000E+00
	 0.00000000E+00	 0.00000000E+00	 0.00000000E+00

	 0.00000000E+00	 0.00000000E+00	 0.00000000E+00
	 0.00000000E+00	 0.00000000E+00	 0.00000000E+00
	 0.00000000E+00	 0.00000000E+00	 0.00000000E+00

	 0.00000000E+00	 0.00000000E+00	 0.00000000E+00
	 0.00000000E+00	 0.00000000E+00	 0.00000000E+00
	 0.00000000E+00	 0.00000000E+00	 0.00000000E+00

	 0.00000000E+00	 0.00000000E+00	 0.00000000E+00
	 0.00000000E+00	 0.00000000E+00	 0.00000000E+00
	 0.00000000E+00	 0.00000000E+00	 0.00000000E+00

	 0.00000000E+00	 0.00000000E+00	 0.00000000E+00
	 0.00000000E+00	 0.00000000E+00	 0.00000000E+00
	 0.00000000E+00	 0.00000000E+00	 0.00000000E+00

	 0.00000000E+00	 0.00000000E+00	 0.00000000E+00
	 0.00000000E+00	 0.00000000E+00	 0.00000000E+00
	 0.00000000E+00	 0.00000000E+00	 0.00000000E+00

	 0.00000000E+00	 0.00000000E+00	 0.00000000E+00
	 0.00000000E+00	 0.00000000E+00	 0.00000000E+00
	 0.00000000E+00	 0.00000000E+00	 0.00000000E+00

	 0.00000000E+00	 0.00000000E+00	 0.00000000E+00
	 0.00000000E+00	 0.00000000E+00	 0.00000000E+00
	 0.00000000E+00	 0.00000000E+00	 0.00000000E+00

	 0.00000000E+00	 0.00000000E+00	 0.00000000E+00
	 0.00000000E+00	 0.00000000E+00	 0.00000000E+00
	 0.00000000E+00	 0.00000000E+00	 0.00000000E+00

	 0.00000000E+00	 0.00000000E+00	 0.00000000E+00
	 0.00000000E+00	 0.00000000E+00	 0.00000000E+00
	 0.00000000E+00	 0.00000000E+00	 0.00000000E+00

	 0.00000000E+00	 0.00000000E+00	 0.00000000E+00
	 0.00000000E+00	 0.00000000E+00	 0.00000000E+00
	 0.00000000E+00	 0.00000000E+00	 0.00000000E+00

	 0.00000000E+00	 0.00000000E+00	 0.00000000E+00
	 0.00000000E+00	 0.00000000E+00	 0.00000000E+00
	 0.00000000E+00	 0.00000000E+00	 0.00000000E+00

	 0.00000000E+00	 0.00000000E+00	 0.00000000E+00
	 0.00000000E+00	 0.00000000E+00	 0.00000000E+00
	 0.00000000E+00	 0.00000000E+00	 0.00000000E+00

	 0.00000000E+00	 0.00000000E+00	 0.00000000E+00
	 0.00000000E+00	 0.00000000E+00	 0.00000000E+00
	 0.00000000E+00	 0.00000000E+00	 0.00000000E+00

	 0.00000000E+00	 0.00000000E+00	 0.00000000E+00
	 0.00000000E+00	 0.00000000E+00	 0.00000000E+00
	 0.00000000E+00	 0.00000000E+00	 0.00000000E+00

	 0.00000000E+00	 0.00000000E+00	 0.00000000E+00
	 0.00000000E+00	 0.00000000E+00	 0.00000000E+00
	 0.00000000E+00	 0.00000000E+00	 0.00000000E+00

	 0.00000000E+00	 0.00000000E+00	 0.00000000E+00
	 0.00000000E+00	 0.00000000E+00	 0.00000000E+00
	 0.00000000E+00	 0.00000000E+00	 0.00000000E+00

	 0.00000000E+00	 0.00000000E+00	 0.00000000E+00
	 0.00000000E+00	 0.00000000E+00	 0.00000000E+00
	 0.00000000E+00	 0.00000000E+00	 0.00000000E+00

	 0.00000000E+00	 0.00000000E+00	 0.00000000E+00
	 0.00000000E+00	 0.00000000E+00	 0.00000000E+00
	 0.00000000E+00	 0.00000000E+00	 0.00000000E+00

	 0.00000000E+00	 0.00000000E+00	 0.00000000E+00
	 0.00000000E+00	 0.00000000E+00	 0.00000000E+00
	 0.00000000E+00	 0.00000000E+00	 0.00000000E+00

	 0.00000000E+00	 0.00000000E+00	 0.00000000E+00
	 0.00000000E+00	 0.00000000E+00	 0.00000000E+00
	 0.00000000E+00	 0.00000000E+00	 0.00000000E+00

	 0.00000000E+00	 0.00000000E+00	 0.00000000E+00
	 0.00000000E+00	 0.00000000E+00	 0.00000000E+00
	 0.00000000E+00	 0.00000000E+00	 0.00000000E+00

	 0.00000000E+00	 0.00000000E+00	 0.00000000E+00
	 0.00000000E+00	 0.00000000E+00	 0.00000000E+00
	 0.00000000E+00	 0.00000000E+00	 0.00000000E+00

	 0.00000000E+00	 0.00000000E+00	 0.00000000E+00
	 0.00000000E+00	 0.00000000E+00	 0.00000000E+00
	 0.00000000E+00	 0.00000000E+00	 0.00000000E+00

	 0.00000000E+00	 0.00000000E+00	 0.00000000E+00
	 0.00000000E+00	 0.00000000E+00	 0.00000000E+00
	 0.00000000E+00	 0.00000000E+00	 0.00000000E+00

	 0.00000000E+00	 0.00000000E+00	 0.00000000E+00
	 0.00000000E+00	 0.00000000E+00	 0.00000000E+00
	 0.00000000E+00	 0.00000000E+00	 0.00000000E+00

	 0.00000000E+00	 0.00000000E+00	 0.00000000E+00
	 0.00000000E+00	 0.00000000E+00	 0.00000000E+00
	 0.00000000E+00	 0.00000000E+00	 0.00000000E+00

	 0.00000000E+00	 0.00000000E+00	 0.00000000E+00
	 0.00000000E+00	 0.00000000E+00	 0.00000000E+00
	 0.00000000E+00	 0.00000000E+00	 0.00000000E+00

	 0.00000000E+00	 0.00000000E+00	 0.00000000E+00
	 0.00000000E+00	 0.00000000E+00	 0.00000000E+00
	 0.00000000E+00	 0.00000000E+00	 0.00000000E+00

	 0.00000000E+00	 0.00000000E+00	 0.00000000E+00
	 0.00000000E+00	 0.00000000E+00	 0.00000000E+00
	 0.00000000E+00	 0.00000000E+00	 0.00000000E+00

	 0.00000000E+00	 0.00000000E+00	 0.00000000E+00
	 0.00000000E+00	 0.00000000E+00	 0.00000000E+00
	 0.00000000E+00	 0.00000000E+00	 0.00000000E+00

	 0.00000000E+00	 0.00000000E+00	 0.00000000E+00
	 0.00000000E+00	 0.00000000E+00	 0.00000000E+00
	 0.00000000E+00	 0.00000000E+00	 0.00000000E+00

	 0.00000000E+00	 0.00000000E+00	 0.00000000E+00
	 0.00000000E+00	 0.00000000E+00	 0.00000000E+00
	 0.00000000E+00	 0.00000000E+00	 0.00000000E+00

	 0.00000000E+00	 0.00000000E+00	 0.00000000E+00
	 0.00000000E+00	 0.00000000E+00	 0.00000000E+00
	 0.00000000E+00	 0.00000000E+00	 0.00000000E+00

	 0.00000000E+00	 0.00000000E+00	 0.00000000E+00
	 0.00000000E+00	 0.00000000E+00	 0.00000000E+00
	 0.00000000E+00	 0.00000000E+00	 0.00000000E+00

	 0.00000000E+00	 0.00000000E+00	 0.00000000E+00
	 0.00000000E+00	 0.00000000E+00	 0.00000000E+00
	 0.00000000E+00	 0.00000000E+00	 0.00000000E+00

	 0.00000000E+00	 0.00000000E+00	 0.00000000E+00
	 0.00000000E+00	 0.00000000E+00	 0.00000000E+00
	 0.00000000E+00	 0.00000000E+00	 0.00000000E+00

	 0.00000000E+00	 0.00000000E+00	 0.00000000E+00
	 0.00000000E+00	 0.00000000E+00	 0.00000000E+00
	 0.00000000E+00	 0.00000000E+00	 0.00000000E+00

	 0.00000000E+00	 0.00000000E+00	 0.00000000E+00
	 0.00000000E+00	 0.00000000E+00	 0.00000000E+00
	 0.00000000E+00	 0.00000000E+00	 0.00000000E+00

	 0.00000000E+00	 0.00000000E+00	 0.00000000E+00
	 0.00000000E+00	 0.00000000E+00	 0.00000000E+00
	 0.00000000E+00	 0.00000000E+00	 0.00000000E+00

	 0.00000000E+00	 0.00000000E+00	 0.00000000E+00
	 0.00000000E+00	 0.00000000E+00	 0.00000000E+00
	 0.00000000E+00	 0.00000000E+00	 0.00000000E+00

	 0.00000000E+00	 0.00000000E+00	 0.00000000E+00
	 0.00000000E+00	 0.00000000E+00	 0.00000000E+00
	 0.00000000E+00	 0.00000000E+00	 0.00000000E+00

	 0.00000000E+00	 0.00000000E+00	 0.00000000E+00
	 0.00000000E+00	 0.00000000E+00	 0.00000000E+00
	 0.00000000E+00	 0.00000000E+00	 0.00000000E+00

	 0.00000000E+00	 0.00000000E+00	 0.00000000E+00
	 0.00000000E+00	 0.00000000E+00	 0.00000000E+00
	 0.00000000E+00	 0.00000000E+00	 0.00000000E+00

	 0.00000000E+00	 0.00000000E+00	 0.00000000E+00
	 0.00000000E+00	 0.00000000E+00	 0.00000000E+00
	 0.00000000E+00	 0.00000000E+00	 0.00000000E+00

	 0.00000000E+00	 0.00000000E+00	 0.00000000E+00
	 0.00000000E+00	 0.00000000E+00	 0.00000000E+00
	 0.00000000E+00	 0.00000000E+00	 0.00000000E+00

	 0.00000000E+00	 0.00000000E+00	 0.00000000E+00
	 0.00000000E+00	 0.00000000E+00	 0.00000000E+00
	 0.00000000E+00	 0.00000000E+00	 0.00000000E+00

	 0.00000000E+00	 0.00000000E+00	 0.00000000E+00
	 0.00000000E+00	 0.00000000E+00	 0.00000000E+00
	 0.00000000E+00	 0.00000000E+00	 0.00000000E+00

	 0.00000000E+00	 0.00000000E+00	 0.00000000E+00
	 0.00000000E+00	 0.00000000E+00	 0.00000000E+00
	 0.00000000E+00	 0.00000000E+00	 0.00000000E+00

	 0.00000000E+00	 0.00000000E+00	 0.00000000E+00
	 0.00000000E+00	 0.00000000E+00	 0.00000000E+00
	 0.00000000E+00	 0.00000000E+00	 0.00000000E+00

	 0.00000000E+00	 0.00000000E+00	 0.00000000E+00
	 0.00000000E+00	 0.00000000E+00	 0.00000000E+00
	 0.00000000E+00	 0.00000000E+00	 0.00000000E+00

	 0.00000000E+00	 0.00000000E+00	 0.00000000E+00
	 0.00000000E+00	 0.00000000E+00	 0.00000000E+00
	 0.00000000E+00	 0.00000000E+00	 0.00000000E+00

	 0.00000000E+00	 0.00000000E+00	 0.00000000E+00
	 0.00000000E+00	 0.00000000E+00	 0.00000000E+00
	 0.00000000E+00	 0.00000000E+00	 0.00000000E+00

	 0.00000000E+00	 0.00000000E+00	 0.00000000E+00
	 0.00000000E+00	 0.00000000E+00	 0.00000000E+00
	 0.00000000E+00	 0.00000000E+00	 0.00000000E+00

	 0.00000000E+00	 0.00000000E+00	 0.00000000E+00
	 0.00000000E+00	 0.00000000E+00	 0.00000000E+00
	 0.00000000E+00	 0.00000000E+00	 0.00000000E+00

	 0.00000000E+00	 0.00000000E+00	 0.00000000E+00
	 0.00000000E+00	 0.00000000E+00	 0.00000000E+00
	 0.00000000E+00	 0.00000000E+00	 0.00000000E+00

	 0.00000000E+00	 0.00000000E+00	 0.00000000E+00
	 0.00000000E+00	 0.00000000E+00	 0.00000000E+00
	 0.00000000E+00	 0.00000000E+00	 0.00000000E+00

	 0.00000000E+00	 0.00000000E+00	 0.00000000E+00
	 0.00000000E+00	 0.00000000E+00	 0.00000000E+00
	 0.00000000E+00	 0.00000000E+00	 0.00000000E+00

	 0.00000000E+00	 0.00000000E+00	 0.00000000E+00
	 0.00000000E+00	 0.00000000E+00	 0.00000000E+00
	 0.00000000E+00	 0.00000000E+00	 0.00000000E+00

	 0.00000000E+00	 0.00000000E+00	 0.00000000E+00
	 0.00000000E+00	 0.00000000E+00	 0.00000000E+00
	 0.00000000E+00	 0.00000000E+00	 0.00000000E+00

	 0.00000000E+00	 0.00000000E+00	 0.00000000E+00
	 0.00000000E+00	 0.00000000E+00	 0.00000000E+00
	 0.00000000E+00	 0.00000000E+00	 0.00000000E+00

	 0.00000000E+00	 0.00000000E+00	 0.00000000E+00
	 0.00000000E+00	 0.00000000E+00	 0.00000000E+00
	 0.00000000E+00	 0.00000000E+00	 0.00000000E+00

	 0.00000000E+00	 0.00000000E+00	 0.00000000E+00
	 0.00000000E+00	 0.00000000E+00	 0.00000000E+00
	 0.00000000E+00	 0.00000000E+00	 0.00000000E+00

	 0.00000000E+00	 0.00000000E+00	 0.00000000E+00
	 0.00000000E+00	 0.00000000E+00	 0.00000000E+00
	 0.00000000E+00	 0.00000000E+00	 0.00000000E+00

	 0.00000000E+00	 0.00000000E+00	 0.00000000E+00
	 0.00000000E+00	 0.00000000E+00	 0.00000000E+00
	 0.00000000E+00	 0.00000000E+00	 0.00000000E+00

	 0.00000000E+00	 0.00000000E+00	 0.00000000E+00
	 0.00000000E+00	 0.00000000E+00	 0.00000000E+00
	 0.00000000E+00	 0.00000000E+00	 0.00000000E+00

	 0.00000000E+00	 0.00000000E+00	 0.00000000E+00
	 0.00000000E+00	 0.00000000E+00	 0.00000000E+00
	 0.00000000E+00	 0.00000000E+00	 0.00000000E+00

	 0.00000000E+00	 0.00000000E+00	 0.00000000E+00
	 0.00000000E+00	 0.00000000E+00	 0.00000000E+00
	 0.00000000E+00	 0.00000000E+00	 0.00000000E+00

	 0.00000000E+00	 0.00000000E+00	 0.00000000E+00
	 0.00000000E+00	 0.00000000E+00	 0.00000000E+00
	 0.00000000E+00	 0.00000000E+00	 0.00000000E+00

	 0.00000000E+00	 0.00000000E+00	 0.00000000E+00
	 0.00000000E+00	 0.00000000E+00	 0.00000000E+00
	 0.00000000E+00	 0.00000000E+00	 0.00000000E+00

	 0.00000000E+00	 0.00000000E+00	 0.00000000E+00
	 0.00000000E+00	 0.00000000E+00	 0.00000000E+00
	 0.00000000E+00	 0.00000000E+00	 0.00000000E+00

	 0.00000000E+00	 0.00000000E+00	 0.00000000E+00
	 0.00000000E+00	 0.00000000E+00	 0.00000000E+00
	 0.00000000E+00	 0.00000000E+00	 0.00000000E+00

	 0.00000000E+00	 0.00000000E+00	 0.00000000E+00
	 0.00000000E+00	 0.00000000E+00	 0.00000000E+00
	 0.00000000E+00	 0.00000000E+00	 0.00000000E+00

	 0.00000000E+00	 0.00000000E+00	 0.00000000E+00
	 0.00000000E+00	 0.00000000E+00	 0.00000000E+00
	 0.00000000E+00	 0.00000000E+00	 0.00000000E+00

	 0.00000000E+00	 0.00000000E+00	 0.00000000E+00
	 0.00000000E+00	 0.00000000E+00	 0.00000000E+00
	 0.00000000E+00	 0.00000000E+00	 0.00000000E+00

	 0.00000000E+00	 0.00000000E+00	 0.00000000E+00
	 0.00000000E+00	 0.00000000E+00	 0.00000000E+00
	 0.00000000E+00	 0.00000000E+00	 0.00000000E+00

	 0.00000000E+00	 0.00000000E+00	 0.00000000E+00
	 0.00000000E+00	 0.00000000E+00	 0.00000000E+00
	 0.00000000E+00	 0.00000000E+00	 0.00000000E+00

	 0.00000000E+00	 0.00000000E+00	 0.00000000E+00
	 0.00000000E+00	 0.00000000E+00	 0.00000000E+00
	 0.00000000E+00	 0.00000000E+00	 0.00000000E+00

	 0.00000000E+00	 0.00000000E+00	 0.00000000E+00
	 0.00000000E+00	 0.00000000E+00	 0.00000000E+00
	 0.00000000E+00	 0.00000000E+00	 0.00000000E+00

	 0.00000000E+00	 0.00000000E+00	 0.00000000E+00
	 0.00000000E+00	 0.00000000E+00	 0.00000000E+00
	 0.00000000E+00	 0.00000000E+00	 0.00000000E+00

	 0.00000000E+00	 0.00000000E+00	 0.00000000E+00
	 0.00000000E+00	 0.00000000E+00	 0.00000000E+00
	 0.00000000E+00	 0.00000000E+00	 0.00000000E+00

	 0.00000000E+00	 0.00000000E+00	 0.00000000E+00
	 0.00000000E+00	 0.00000000E+00	 0.00000000E+00
	 0.00000000E+00	 0.00000000E+00	 0.00000000E+00

	 0.00000000E+00	 0.00000000E+00	 0.00000000E+00
	 0.00000000E+00	 0.00000000E+00	 0.00000000E+00
	 0.00000000E+00	 0.00000000E+00	 0.00000000E+00

	 0.00000000E+00	 0.00000000E+00	 0.00000000E+00
	 0.00000000E+00	 0.00000000E+00	 0.00000000E+00
	 0.00000000E+00	 0.00000000E+00	 0.00000000E+00

	 0.00000000E+00	 0.00000000E+00	 0.00000000E+00
	 0.00000000E+00	 0.00000000E+00	 0.00000000E+00
	 0.00000000E+00	 0.00000000E+00	 0.00000000E+00

	 0.00000000E+00	 0.00000000E+00	 0.00000000E+00
	 0.00000000E+00	 0.00000000E+00	 0.00000000E+00
	 0.00000000E+00	 0.00000000E+00	 0.00000000E+00

	 0.00000000E+00	 0.00000000E+00	 0.00000000E+00
	 0.00000000E+00	 0.00000000E+00	 0.00000000E+00
	 0.00000000E+00	 0.00000000E+00	 0.00000000E+00

	 0.00000000E+00	 0.00000000E+00	 0.00000000E+00
	 0.00000000E+00	 0.00000000E+00	 0.00000000E+00
	 0.00000000E+00	 0.00000000E+00	 0.00000000E+00

	 0.00000000E+00	 0.00000000E+00	 0.00000000E+00
	 0.00000000E+00	 0.00000000E+00	 0.00000000E+00
	 0.00000000E+00	 0.00000000E+00	 0.00000000E+00

	 0.00000000E+00	 0.00000000E+00	 0.00000000E+00
	 0.00000000E+00	 0.00000000E+00	 0.00000000E+00
	 0.00000000E+00	 0.00000000E+00	 0.00000000E+00

	 0.00000000E+00	 0.00000000E+00	 0.00000000E+00
	 0.00000000E+00	 0.00000000E+00	 0.00000000E+00
	 0.00000000E+00	 0.00000000E+00	 0.00000000E+00

	 0.00000000E+00	 0.00000000E+00	 0.00000000E+00
	 0.00000000E+00	 0.00000000E+00	 0.00000000E+00
	 0.00000000E+00	 0.00000000E+00	 0.00000000E+00

	 0.00000000E+00	 0.00000000E+00	 0.00000000E+00
	 0.00000000E+00	 0.00000000E+00	 0.00000000E+00
	 0.00000000E+00	 0.00000000E+00	 0.00000000E+00

	 0.00000000E+00	 0.00000000E+00	 0.00000000E+00
	 0.00000000E+00	 0.00000000E+00	 0.00000000E+00
	 0.00000000E+00	 0.00000000E+00	 0.00000000E+00

	 0.00000000E+00	 0.00000000E+00	 0.00000000E+00
	 0.00000000E+00	 0.00000000E+00	 0.00000000E+00
	 0.00000000E+00	 0.00000000E+00	 0.00000000E+00

	 0.00000000E+00	 0.00000000E+00	 0.00000000E+00
	 0.00000000E+00	 0.00000000E+00	 0.00000000E+00
	 0.00000000E+00	 0.00000000E+00	 0.00000000E+00

	 0.00000000E+00	 0.00000000E+00	 0.00000000E+00
	 0.00000000E+00	 0.00000000E+00	 0.00000000E+00
	 0.00000000E+00	 0.00000000E+00	 0.00000000E+00

	 0.00000000E+00	 0.00000000E+00	 0.00000000E+00
	 0.00000000E+00	 0.00000000E+00	 0.00000000E+00
	 0.00000000E+00	 0.00000000E+00	 0.00000000E+00

	 0.00000000E+00	 0.00000000E+00	 0.00000000E+00
	 0.00000000E+00	 0.00000000E+00	 0.00000000E+00
	 0.00000000E+00	 0.00000000E+00	 0.00000000E+00

	 0.00000000E+00	 0.00000000E+00	 0.00000000E+00
	 0.00000000E+00	 0.00000000E+00	 0.00000000E+00
	 0.00000000E+00	 0.00000000E+00	 0.00000000E+00

	 0.00000000E+00	 0.00000000E+00	 0.00000000E+00
	 0.00000000E+00	 0.00000000E+00	 0.00000000E+00
	 0.00000000E+00	 0.00000000E+00	 0.00000000E+00

	 0.00000000E+00	 0.00000000E+00	 0.00000000E+00
	 0.00000000E+00	 0.00000000E+00	 0.00000000E+00
	 0.00000000E+00	 0.00000000E+00	 0.00000000E+00

	 0.00000000E+00	 0.00000000E+00	 0.00000000E+00
	 0.00000000E+00	 0.00000000E+00	 0.00000000E+00
	 0.00000000E+00	 0.00000000E+00	 0.00000000E+00

	 0.00000000E+00	 0.00000000E+00	 0.00000000E+00
	 0.00000000E+00	 0.00000000E+00	 0.00000000E+00
	 0.00000000E+00	 0.00000000E+00	 0.00000000E+00

	 0.00000000E+00	 0.00000000E+00	 0.00000000E+00
	 0.00000000E+00	 0.00000000E+00	 0.00000000E+00
	 0.00000000E+00	 0.00000000E+00	 0.00000000E+00

	 0.00000000E+00	 0.00000000E+00	 0.00000000E+00
	 0.00000000E+00	 0.00000000E+00	 0.00000000E+00
	 0.00000000E+00	 0.00000000E+00	 0.00000000E+00

	 0.00000000E+00	 0.00000000E+00	 0.00000000E+00
	 0.00000000E+00	 0.00000000E+00	 0.00000000E+00
	 0.00000000E+00	 0.00000000E+00	 0.00000000E+00

	 0.00000000E+00	 0.00000000E+00	 0.00000000E+00
	 0.00000000E+00	 0.00000000E+00	 0.00000000E+00
	 0.00000000E+00	 0.00000000E+00	 0.00000000E+00

	 0.00000000E+00	 0.00000000E+00	 0.00000000E+00
	 0.00000000E+00	 0.00000000E+00	 0.00000000E+00
	 0.00000000E+00	 0.00000000E+00	 0.00000000E+00

	 0.00000000E+00	 0.00000000E+00	 0.00000000E+00
	 0.00000000E+00	 0.00000000E+00	 0.00000000E+00
	 0.00000000E+00	 0.00000000E+00	 0.00000000E+00

	 0.00000000E+00	 0.00000000E+00	 0.00000000E+00
	 0.00000000E+00	 0.00000000E+00	 0.00000000E+00
	 0.00000000E+00	 0.00000000E+00	 0.00000000E+00

	 0.00000000E+00	 0.00000000E+00	 0.00000000E+00
	 0.00000000E+00	 0.00000000E+00	 0.00000000E+00
	 0.00000000E+00	 0.00000000E+00	 0.00000000E+00

	 0.00000000E+00	 0.00000000E+00	 0.00000000E+00
	 0.00000000E+00	 0.00000000E+00	 0.00000000E+00
	 0.00000000E+00	 0.00000000E+00	 0.00000000E+00

	 0.00000000E+00	 0.00000000E+00	 0.00000000E+00
	 0.00000000E+00	 0.00000000E+00	 0.00000000E+00
	 0.00000000E+00	 0.00000000E+00	 0.00000000E+00

	 0.00000000E+00	 0.00000000E+00	 0.00000000E+00
	 0.00000000E+00	 0.00000000E+00	 0.00000000E+00
	 0.00000000E+00	 0.00000000E+00	 0.00000000E+00

	 0.00000000E+00	 0.00000000E+00	 0.00000000E+00
	 0.00000000E+00	 0.00000000E+00	 0.00000000E+00
	 0.00000000E+00	 0.00000000E+00	 0.00000000E+00

	 0.00000000E+00	 0.00000000E+00	 0.00000000E+00
	 0.00000000E+00	 0.00000000E+00	 0.00000000E+00
	 0.00000000E+00	 0.00000000E+00	 0.00000000E+00

	 0.00000000E+00	 0.00000000E+00	 0.00000000E+00
	 0.00000000E+00	 0.00000000E+00	 0.00000000E+00
	 0.00000000E+00	 0.00000000E+00	 0.00000000E+00

	 0.00000000E+00	 0.00000000E+00	 0.00000000E+00
	 0.00000000E+00	 0.00000000E+00	 0.00000000E+00
	 0.00000000E+00	 0.00000000E+00	 0.00000000E+00

	 0.00000000E+00	 0.00000000E+00	 0.00000000E+00
	 0.00000000E+00	 0.00000000E+00	 0.00000000E+00
	 0.00000000E+00	 0.00000000E+00	 0.00000000E+00

	 0.00000000E+00	 0.00000000E+00	 0.00000000E+00
	 0.00000000E+00	 0.00000000E+00	 0.00000000E+00
	 0.00000000E+00	 0.00000000E+00	 0.00000000E+00

	 0.00000000E+00	 0.00000000E+00	 0.00000000E+00
	 0.00000000E+00	 0.00000000E+00	 0.00000000E+00
	 0.00000000E+00	 0.00000000E+00	 0.00000000E+00

	 0.00000000E+00	 0.00000000E+00	 0.00000000E+00
	 0.00000000E+00	 0.00000000E+00	 0.00000000E+00
	 0.00000000E+00	 0.00000000E+00	 0.00000000E+00

	 0.00000000E+00	 0.00000000E+00	 0.00000000E+00
	 0.00000000E+00	 0.00000000E+00	 0.00000000E+00
	 0.00000000E+00	 0.00000000E+00	 0.00000000E+00

	 0.00000000E+00	 0.00000000E+00	 0.00000000E+00
	 0.00000000E+00	 0.00000000E+00	 0.00000000E+00
	 0.00000000E+00	 0.00000000E+00	 0.00000000E+00

	 0.00000000E+00	 0.00000000E+00	 0.00000000E+00
	 0.00000000E+00	 0.00000000E+00	 0.00000000E+00
	 0.00000000E+00	 0.00000000E+00	 0.00000000E+00

	 0.00000000E+00	 0.00000000E+00	 0.00000000E+00
	 0.00000000E+00	 0.00000000E+00	 0.00000000E+00
	 0.00000000E+00	 0.00000000E+00	 0.00000000E+00

	 0.00000000E+00	 0.00000000E+00	 0.00000000E+00
	 0.00000000E+00	 0.00000000E+00	 0.00000000E+00
	 0.00000000E+00	 0.00000000E+00	 0.00000000E+00

	 0.00000000E+00	 0.00000000E+00	 0.00000000E+00
	 0.00000000E+00	 0.00000000E+00	 0.00000000E+00
	 0.00000000E+00	 0.00000000E+00	 0.00000000E+00

	 0.00000000E+00	 0.00000000E+00	 0.00000000E+00
	 0.00000000E+00	 0.00000000E+00	 0.00000000E+00
	 0.00000000E+00	 0.00000000E+00	 0.00000000E+00

	 0.00000000E+00	 0.00000000E+00	 0.00000000E+00
	 0.00000000E+00	 0.00000000E+00	 0.00000000E+00
	 0.00000000E+00	 0.00000000E+00	 0.00000000E+00

	 0.00000000E+00	 0.00000000E+00	 0.00000000E+00
	 0.00000000E+00	 0.00000000E+00	 0.00000000E+00
	 0.00000000E+00	 0.00000000E+00	 0.00000000E+00

	 0.00000000E+00	 0.00000000E+00	 0.00000000E+00
	 0.00000000E+00	 0.00000000E+00	 0.00000000E+00
	 0.00000000E+00	 0.00000000E+00	 0.00000000E+00

	 0.00000000E+00	 0.00000000E+00	 0.00000000E+00
	 0.00000000E+00	 0.00000000E+00	 0.00000000E+00
	 0.00000000E+00	 0.00000000E+00	 0.00000000E+00

	 0.00000000E+00	 0.00000000E+00	 0.00000000E+00
	 0.00000000E+00	 0.00000000E+00	 0.00000000E+00
	 0.00000000E+00	 0.00000000E+00	 0.00000000E+00

	 0.00000000E+00	 0.00000000E+00	 0.00000000E+00
	 0.00000000E+00	 0.00000000E+00	 0.00000000E+00
	 0.00000000E+00	 0.00000000E+00	 0.00000000E+00

	 0.00000000E+00	 0.00000000E+00	 0.00000000E+00
	 0.00000000E+00	 0.00000000E+00	 0.00000000E+00
	 0.00000000E+00	 0.00000000E+00	 0.00000000E+00

	 0.00000000E+00	 0.00000000E+00	 0.00000000E+00
	 0.00000000E+00	 0.00000000E+00	 0.00000000E+00
	 0.00000000E+00	 0.00000000E+00	 0.00000000E+00

	 0.00000000E+00	 0.00000000E+00	 0.00000000E+00
	 0.00000000E+00	 0.00000000E+00	 0.00000000E+00
	 0.00000000E+00	 0.00000000E+00	 0.00000000E+00

	 0.00000000E+00	 0.00000000E+00	 0.00000000E+00
	 0.00000000E+00	 0.00000000E+00	 0.00000000E+00
	 0.00000000E+00	 0.00000000E+00	 0.00000000E+00

	 0.00000000E+00	 0.00000000E+00	 0.00000000E+00
	 0.00000000E+00	 0.00000000E+00	 0.00000000E+00
	 0.00000000E+00	 0.00000000E+00	 0.00000000E+00

	 0.00000000E+00	 0.00000000E+00	 0.00000000E+00
	 0.00000000E+00	 0.00000000E+00	 0.00000000E+00
	 0.00000000E+00	 0.00000000E+00	 0.00000000E+00

	 0.00000000E+00	 0.00000000E+00	 0.00000000E+00
	 0.00000000E+00	 0.00000000E+00	 0.00000000E+00
	 0.00000000E+00	 0.00000000E+00	 0.00000000E+00

	 0.00000000E+00	 0.00000000E+00	 0.00000000E+00
	 0.00000000E+00	 0.00000000E+00	 0.00000000E+00
	 0.00000000E+00	 0.00000000E+00	 0.00000000E+00

	 0.00000000E+00	 0.00000000E+00	 0.00000000E+00
	 0.00000000E+00	 0.00000000E+00	 0.00000000E+00
	 0.00000000E+00	 0.00000000E+00	 0.00000000E+00

	 0.00000000E+00	 0.00000000E+00	 0.00000000E+00
	 0.00000000E+00	 0.00000000E+00	 0.00000000E+00
	 0.00000000E+00	 0.00000000E+00	 0.00000000E+00

	 0.00000000E+00	 0.00000000E+00	 0.00000000E+00
	 0.00000000E+00	 0.00000000E+00	 0.00000000E+00
	 0.00000000E+00	 0.00000000E+00	 0.00000000E+00

	 0.00000000E+00	 0.00000000E+00	 0.00000000E+00
	 0.00000000E+00	 0.00000000E+00	 0.00000000E+00
	 0.00000000E+00	 0.00000000E+00	 0.00000000E+00

	 0.00000000E+00	 0.00000000E+00	 0.00000000E+00
	 0.00000000E+00	 0.00000000E+00	 0.00000000E+00
	 0.00000000E+00	 0.00000000E+00	 0.00000000E+00

	 0.00000000E+00	 0.00000000E+00	 0.00000000E+00
	 0.00000000E+00	 0.00000000E+00	 0.00000000E+00
	 0.00000000E+00	 0.00000000E+00	 0.00000000E+00

	 0.00000000E+00	 0.00000000E+00	 0.00000000E+00
	 0.00000000E+00	 0.00000000E+00	 0.00000000E+00
	 0.00000000E+00	 0.00000000E+00	 0.00000000E+00

	 0.00000000E+00	 0.00000000E+00	 0.00000000E+00
	 0.00000000E+00	 0.00000000E+00	 0.00000000E+00
	 0.00000000E+00	 0.00000000E+00	 0.00000000E+00

	 0.00000000E+00	 0.00000000E+00	 0.00000000E+00
	 0.00000000E+00	 0.00000000E+00	 0.00000000E+00
	 0.00000000E+00	 0.00000000E+00	 0.00000000E+00

	 0.00000000E+00	 0.00000000E+00	 0.00000000E+00
	 0.00000000E+00	 0.00000000E+00	 0.00000000E+00
	 0.00000000E+00	 0.00000000E+00	 0.00000000E+00

	 0.00000000E+00	 0.00000000E+00	 0.00000000E+00
	 0.00000000E+00	 0.00000000E+00	 0.00000000E+00
	 0.00000000E+00	 0.00000000E+00	 0.00000000E+00

	 0.00000000E+00	 0.00000000E+00	 0.00000000E+00
	 0.00000000E+00	 0.00000000E+00	 0.00000000E+00
	 0.00000000E+00	 0.00000000E+00	 0.00000000E+00

	 0.00000000E+00	 0.00000000E+00	 0.00000000E+00
	 0.00000000E+00	 0.00000000E+00	 0.00000000E+00
	 0.00000000E+00	 0.00000000E+00	 0.00000000E+00

	 0.00000000E+00	 0.00000000E+00	 0.00000000E+00
	 0.00000000E+00	 0.00000000E+00	 0.00000000E+00
	 0.00000000E+00	 0.00000000E+00	 0.00000000E+00

	 0.00000000E+00	 0.00000000E+00	 0.00000000E+00
	 0.00000000E+00	 0.00000000E+00	 0.00000000E+00
	 0.00000000E+00	 0.00000000E+00	 0.00000000E+00

	 0.00000000E+00	 0.00000000E+00	 0.00000000E+00
	 0.00000000E+00	 0.00000000E+00	 0.00000000E+00
	 0.00000000E+00	 0.00000000E+00	 0.00000000E+00

	 0.00000000E+00	 0.00000000E+00	 0.00000000E+00
	 0.00000000E+00	 0.00000000E+00	 0.00000000E+00
	 0.00000000E+00	 0.00000000E+00	 0.00000000E+00

	 0.00000000E+00	 0.00000000E+00	 0.00000000E+00
	 0.00000000E+00	 0.00000000E+00	 0.00000000E+00
	 0.00000000E+00	 0.00000000E+00	 0.00000000E+00

	 0.00000000E+00	 0.00000000E+00	 0.00000000E+00
	 0.00000000E+00	 0.00000000E+00	 0.00000000E+00
	 0.00000000E+00	 0.00000000E+00	 0.00000000E+00

	 0.00000000E+00	 0.00000000E+00	 0.00000000E+00
	 0.00000000E+00	 0.00000000E+00	 0.00000000E+00
	 0.00000000E+00	 0.00000000E+00	 0.00000000E+00

	 0.00000000E+00	 0.00000000E+00	 0.00000000E+00
	 0.00000000E+00	 0.00000000E+00	 0.00000000E+00
	 0.00000000E+00	 0.00000000E+00	 0.00000000E+00

	 0.00000000E+00	 0.00000000E+00	 0.00000000E+00
	 0.00000000E+00	 0.00000000E+00	 0.00000000E+00
	 0.00000000E+00	 0.00000000E+00	 0.00000000E+00

	 0.00000000E+00	 0.00000000E+00	 0.00000000E+00
	 0.00000000E+00	 0.00000000E+00	 0.00000000E+00
	 0.00000000E+00	 0.00000000E+00	 0.00000000E+00

	 0.00000000E+00	 0.00000000E+00	 0.00000000E+00
	 0.00000000E+00	 0.00000000E+00	 0.00000000E+00
	 0.00000000E+00	 0.00000000E+00	 0.00000000E+00

	 0.00000000E+00	 0.00000000E+00	 0.00000000E+00
	 0.00000000E+00	 0.00000000E+00	 0.00000000E+00
	 0.00000000E+00	 0.00000000E+00	 0.00000000E+00

	 0.00000000E+00	 0.00000000E+00	 0.00000000E+00
	 0.00000000E+00	 0.00000000E+00	 0.00000000E+00
	 0.00000000E+00	 0.00000000E+00	 0.00000000E+00

	 0.00000000E+00	 0.00000000E+00	 0.00000000E+00
	 0.00000000E+00	 0.00000000E+00	 0.00000000E+00
	 0.00000000E+00	 0.00000000E+00	 0.00000000E+00

	 0.00000000E+00	 0.00000000E+00	 0.00000000E+00
	 0.00000000E+00	 0.00000000E+00	 0.00000000E+00
	 0.00000000E+00	 0.00000000E+00	 0.00000000E+00

	 0.00000000E+00	 0.00000000E+00	 0.00000000E+00
	 0.00000000E+00	 0.00000000E+00	 0.00000000E+00
	 0.00000000E+00	 0.00000000E+00	 0.00000000E+00

	 0.00000000E+00	 0.00000000E+00	 0.00000000E+00
	 0.00000000E+00	 0.00000000E+00	 0.00000000E+00
	 0.00000000E+00	 0.00000000E+00	 0.00000000E+00

	 0.00000000E+00	 0.00000000E+00	 0.00000000E+00
	 0.00000000E+00	 0.00000000E+00	 0.00000000E+00
	 0.00000000E+00	 0.00000000E+00	 0.00000000E+00

	 0.00000000E+00	 0.00000000E+00	 0.00000000E+00
	 0.00000000E+00	 0.00000000E+00	 0.00000000E+00
	 0.00000000E+00	 0.00000000E+00	 0.00000000E+00

	 0.00000000E+00	 0.00000000E+00	 0.00000000E+00
	 0.00000000E+00	 0.00000000E+00	 0.00000000E+00
	 0.00000000E+00	 0.00000000E+00	 0.00000000E+00

	 0.00000000E+00	 0.00000000E+00	 0.00000000E+00
	 0.00000000E+00	 0.00000000E+00	 0.00000000E+00
	 0.00000000E+00	 0.00000000E+00	 0.00000000E+00

	 0.00000000E+00	 0.00000000E+00	 0.00000000E+00
	 0.00000000E+00	 0.00000000E+00	 0.00000000E+00
	 0.00000000E+00	 0.00000000E+00	 0.00000000E+00

	 0.00000000E+00	 0.00000000E+00	 0.00000000E+00
	 0.00000000E+00	 0.00000000E+00	 0.00000000E+00
	 0.00000000E+00	 0.00000000E+00	 0.00000000E+00

	 0.00000000E+00	 0.00000000E+00	 0.00000000E+00
	 0.00000000E+00	 0.00000000E+00	 0.00000000E+00
	 0.00000000E+00	 0.00000000E+00	 0.00000000E+00

	 0.00000000E+00	 0.00000000E+00	 0.00000000E+00
	 0.00000000E+00	 0.00000000E+00	 0.00000000E+00
	 0.00000000E+00	 0.00000000E+00	 0.00000000E+00

	 0.00000000E+00	 0.00000000E+00	 0.00000000E+00
	 0.00000000E+00	 0.00000000E+00	 0.00000000E+00
	 0.00000000E+00	 0.00000000E+00	 0.00000000E+00

	 0.00000000E+00	 0.00000000E+00	 0.00000000E+00
	 0.00000000E+00	 0.00000000E+00	 0.00000000E+00
	 0.00000000E+00	 0.00000000E+00	 0.00000000E+00

	 0.00000000E+00	 0.00000000E+00	 0.00000000E+00
	 0.00000000E+00	 0.00000000E+00	 0.00000000E+00
	 0.00000000E+00	 0.00000000E+00	 0.00000000E+00

	 0.00000000E+00	 0.00000000E+00	 0.00000000E+00
	 0.00000000E+00	 0.00000000E+00	 0.00000000E+00
	 0.00000000E+00	 0.00000000E+00	 0.00000000E+00

	 0.00000000E+00	 0.00000000E+00	 0.00000000E+00
	 0.00000000E+00	 0.00000000E+00	 0.00000000E+00
	 0.00000000E+00	 0.00000000E+00	 0.00000000E+00

	 0.00000000E+00	 0.00000000E+00	 0.00000000E+00
	 0.00000000E+00	 0.00000000E+00	 0.00000000E+00
	 0.00000000E+00	 0.00000000E+00	 0.00000000E+00

	 0.00000000E+00	 0.00000000E+00	 0.00000000E+00
	 0.00000000E+00	 0.00000000E+00	 0.00000000E+00
	 0.00000000E+00	 0.00000000E+00	 0.00000000E+00

	 0.00000000E+00	 0.00000000E+00	 0.00000000E+00
	 0.00000000E+00	 0.00000000E+00	 0.00000000E+00
	 0.00000000E+00	 0.00000000E+00	 0.00000000E+00

	 0.00000000E+00	 0.00000000E+00	 0.00000000E+00
	 0.00000000E+00	 0.00000000E+00	 0.00000000E+00
	 0.00000000E+00	 0.00000000E+00	 0.00000000E+00

	 0.00000000E+00	 0.00000000E+00	 0.00000000E+00
	 0.00000000E+00	 0.00000000E+00	 0.00000000E+00
	 0.00000000E+00	 0.00000000E+00	 0.00000000E+00

	 0.00000000E+00	 0.00000000E+00	 0.00000000E+00
	 0.00000000E+00	 0.00000000E+00	 0.00000000E+00
	 0.00000000E+00	 0.00000000E+00	 0.00000000E+00

	 0.00000000E+00	 0.00000000E+00	 0.00000000E+00
	 0.00000000E+00	 0.00000000E+00	 0.00000000E+00
	 0.00000000E+00	 0.00000000E+00	 0.00000000E+00

	 0.00000000E+00	 0.00000000E+00	 0.00000000E+00
	 0.00000000E+00	 0.00000000E+00	 0.00000000E+00
	 0.00000000E+00	 0.00000000E+00	 0.00000000E+00

	 0.00000000E+00	 0.00000000E+00	 0.00000000E+00
	 0.00000000E+00	 0.00000000E+00	 0.00000000E+00
	 0.00000000E+00	 0.00000000E+00	 0.00000000E+00

	 0.00000000E+00	 0.00000000E+00	 0.00000000E+00
	 0.00000000E+00	 0.00000000E+00	 0.00000000E+00
	 0.00000000E+00	 0.00000000E+00	 0.00000000E+00

	 0.00000000E+00	 0.00000000E+00	 0.00000000E+00
	 0.00000000E+00	 0.00000000E+00	 0.00000000E+00
	 0.00000000E+00	 0.00000000E+00	 0.00000000E+00

	 0.00000000E+00	 0.00000000E+00	 0.00000000E+00
	 0.00000000E+00	 0.00000000E+00	 0.00000000E+00
	 0.00000000E+00	 0.00000000E+00	 0.00000000E+00

	 0.00000000E+00	 0.00000000E+00	 0.00000000E+00
	 0.00000000E+00	 0.00000000E+00	 0.00000000E+00
	 0.00000000E+00	 0.00000000E+00	 0.00000000E+00

	 0.00000000E+00	 0.00000000E+00	 0.00000000E+00
	 0.00000000E+00	 0.00000000E+00	 0.00000000E+00
	 0.00000000E+00	 0.00000000E+00	 0.00000000E+00

	 0.00000000E+00	 0.00000000E+00	 0.00000000E+00
	 0.00000000E+00	 0.00000000E+00	 0.00000000E+00
	 0.00000000E+00	 0.00000000E+00	 0.00000000E+00

	 0.00000000E+00	 0.00000000E+00	 0.00000000E+00
	 0.00000000E+00	 0.00000000E+00	 0.00000000E+00
	 0.00000000E+00	 0.00000000E+00	 0.00000000E+00

	 0.00000000E+00	 0.00000000E+00	 0.00000000E+00
	 0.00000000E+00	 0.00000000E+00	 0.00000000E+00
	 0.00000000E+00	 0.00000000E+00	 0.00000000E+00

	 0.00000000E+00	 0.00000000E+00	 0.00000000E+00
	 0.00000000E+00	 0.00000000E+00	 0.00000000E+00
	 0.00000000E+00	 0.00000000E+00	 0.00000000E+00

	 0.00000000E+00	 0.00000000E+00	 0.00000000E+00
	 0.00000000E+00	 0.00000000E+00	 0.00000000E+00
	 0.00000000E+00	 0.00000000E+00	 0.00000000E+00

	 0.00000000E+00	 0.00000000E+00	 0.00000000E+00
	 0.00000000E+00	 0.00000000E+00	 0.00000000E+00
	 0.00000000E+00	 0.00000000E+00	 0.00000000E+00

	 0.00000000E+00	 0.00000000E+00	 0.00000000E+00
	 0.00000000E+00	 0.00000000E+00	 0.00000000E+00
	 0.00000000E+00	 0.00000000E+00	 0.00000000E+00

	 0.00000000E+00	 0.00000000E+00	 0.00000000E+00
	 0.00000000E+00	 0.00000000E+00	 0.00000000E+00
	 0.00000000E+00	 0.00000000E+00	 0.00000000E+00

	 0.00000000E+00	 0.00000000E+00	 0.00000000E+00
	 0.00000000E+00	 0.00000000E+00	 0.00000000E+00
	 0.00000000E+00	 0.00000000E+00	 0.00000000E+00

	 0.00000000E+00	 0.00000000E+00	 0.00000000E+00
	 0.00000000E+00	 0.00000000E+00	 0.00000000E+00
	 0.00000000E+00	 0.00000000E+00	 0.00000000E+00

	 0.00000000E+00	 0.00000000E+00	 0.00000000E+00
	 0.00000000E+00	 0.00000000E+00	 0.00000000E+00
	 0.00000000E+00	 0.00000000E+00	 0.00000000E+00

	 0.00000000E+00	 0.00000000E+00	 0.00000000E+00
	 0.00000000E+00	 0.00000000E+00	 0.00000000E+00
	 0.00000000E+00	 0.00000000E+00	 0.00000000E+00

	 0.00000000E+00	 0.00000000E+00	 0.00000000E+00
	 0.00000000E+00	 0.00000000E+00	 0.00000000E+00
	 0.00000000E+00	 0.00000000E+00	 0.00000000E+00

	 0.00000000E+00	 0.00000000E+00	 0.00000000E+00
	 0.00000000E+00	 0.00000000E+00	 0.00000000E+00
	 0.00000000E+00	 0.00000000E+00	 0.00000000E+00

	 0.00000000E+00	 0.00000000E+00	 0.00000000E+00
	 0.00000000E+00	 0.00000000E+00	 0.00000000E+00
	 0.00000000E+00	 0.00000000E+00	 0.00000000E+00

	 0.00000000E+00	 0.00000000E+00	 0.00000000E+00
	 0.00000000E+00	 0.00000000E+00	 0.00000000E+00
	 0.00000000E+00	 0.00000000E+00	 0.00000000E+00

	 0.00000000E+00	 0.00000000E+00	 0.00000000E+00
	 0.00000000E+00	 0.00000000E+00	 0.00000000E+00
	 0.00000000E+00	 0.00000000E+00	 0.00000000E+00

	 0.00000000E+00	 0.00000000E+00	 0.00000000E+00
	 0.00000000E+00	 0.00000000E+00	 0.00000000E+00
	 0.00000000E+00	 0.00000000E+00	 0.00000000E+00

	 0.00000000E+00	 0.00000000E+00	 0.00000000E+00
	 0.00000000E+00	 0.00000000E+00	 0.00000000E+00
	 0.00000000E+00	 0.00000000E+00	 0.00000000E+00

	 0.00000000E+00	 0.00000000E+00	 0.00000000E+00
	 0.00000000E+00	 0.00000000E+00	 0.00000000E+00
	 0.00000000E+00	 0.00000000E+00	 0.00000000E+00

	 0.00000000E+00	 0.00000000E+00	 0.00000000E+00
	 0.00000000E+00	 0.00000000E+00	 0.00000000E+00
	 0.00000000E+00	 0.00000000E+00	 0.00000000E+00

	 0.00000000E+00	 0.00000000E+00	 0.00000000E+00
	 0.00000000E+00	 0.00000000E+00	 0.00000000E+00
	 0.00000000E+00	 0.00000000E+00	 0.00000000E+00

	 0.00000000E+00	 0.00000000E+00	 0.00000000E+00
	 0.00000000E+00	 0.00000000E+00	 0.00000000E+00
	 0.00000000E+00	 0.00000000E+00	 0.00000000E+00

	 0.00000000E+00	 0.00000000E+00	 0.00000000E+00
	 0.00000000E+00	 0.00000000E+00	 0.00000000E+00
	 0.00000000E+00	 0.00000000E+00	 0.00000000E+00

	 0.00000000E+00	 0.00000000E+00	 0.00000000E+00
	 0.00000000E+00	 0.00000000E+00	 0.00000000E+00
	 0.00000000E+00	 0.00000000E+00	 0.00000000E+00

	 0.00000000E+00	 0.00000000E+00	 0.00000000E+00
	 0.00000000E+00	 0.00000000E+00	 0.00000000E+00
	 0.00000000E+00	 0.00000000E+00	 0.00000000E+00

	 0.00000000E+00	 0.00000000E+00	 0.00000000E+00
	 0.00000000E+00	 0.00000000E+00	 0.00000000E+00
	 0.00000000E+00	 0.00000000E+00	 0.00000000E+00

	 0.00000000E+00	 0.00000000E+00	 0.00000000E+00
	 0.00000000E+00	 0.00000000E+00	 0.00000000E+00
	 0.00000000E+00	 0.00000000E+00	 0.00000000E+00

	 0.00000000E+00	 0.00000000E+00	 0.00000000E+00
	 0.00000000E+00	 0.00000000E+00	 0.00000000E+00
	 0.00000000E+00	 0.00000000E+00	 0.00000000E+00

	 0.00000000E+00	 0.00000000E+00	 0.00000000E+00
	 0.00000000E+00	 0.00000000E+00	 0.00000000E+00
	 0.00000000E+00	 0.00000000E+00	 0.00000000E+00

	 0.00000000E+00	 0.00000000E+00	 0.00000000E+00
	 0.00000000E+00	 0.00000000E+00	 0.00000000E+00
	 0.00000000E+00	 0.00000000E+00	 0.00000000E+00

	 0.00000000E+00	 0.00000000E+00	 0.00000000E+00
	 0.00000000E+00	 0.00000000E+00	 0.00000000E+00
	 0.00000000E+00	 0.00000000E+00	 0.00000000E+00

	 0.00000000E+00	 0.00000000E+00	 0.00000000E+00
	 0.00000000E+00	 0.00000000E+00	 0.00000000E+00
	 0.00000000E+00	 0.00000000E+00	 0.00000000E+00

	 0.00000000E+00	 0.00000000E+00	 0.00000000E+00
	 0.00000000E+00	 0.00000000E+00	 0.00000000E+00
	 0.00000000E+00	 0.00000000E+00	 0.00000000E+00

	 0.00000000E+00	 0.00000000E+00	 0.00000000E+00
	 0.00000000E+00	 0.00000000E+00	 0.00000000E+00
	 0.00000000E+00	 0.00000000E+00	 0.00000000E+00

	 0.00000000E+00	 0.00000000E+00	 0.00000000E+00
	 0.00000000E+00	 0.00000000E+00	 0.00000000E+00
	 0.00000000E+00	 0.00000000E+00	 0.00000000E+00

	 0.00000000E+00	 0.00000000E+00	 0.00000000E+00
	 0.00000000E+00	 0.00000000E+00	 0.00000000E+00
	 0.00000000E+00	 0.00000000E+00	 0.00000000E+00

	 0.00000000E+00	 0.00000000E+00	 0.00000000E+00
	 0.00000000E+00	 0.00000000E+00	 0.00000000E+00
	 0.00000000E+00	 0.00000000E+00	 0.00000000E+00

	 0.00000000E+00	 0.00000000E+00	 0.00000000E+00
	 0.00000000E+00	 0.00000000E+00	 0.00000000E+00
	 0.00000000E+00	 0.00000000E+00	 0.00000000E+00

	 0.00000000E+00	 0.00000000E+00	 0.00000000E+00
	 0.00000000E+00	 0.00000000E+00	 0.00000000E+00
	 0.00000000E+00	 0.00000000E+00	 0.00000000E+00

	 0.00000000E+00	 0.00000000E+00	 0.00000000E+00
	 0.00000000E+00	 0.00000000E+00	 0.00000000E+00
	 0.00000000E+00	 0.00000000E+00	 0.00000000E+00

	 0.00000000E+00	 0.00000000E+00	 0.00000000E+00
	 0.00000000E+00	 0.00000000E+00	 0.00000000E+00
	 0.00000000E+00	 0.00000000E+00	 0.00000000E+00

	 0.00000000E+00	 0.00000000E+00	 0.00000000E+00
	 0.00000000E+00	 0.00000000E+00	 0.00000000E+00
	 0.00000000E+00	 0.00000000E+00	 0.00000000E+00

	 0.00000000E+00	 0.00000000E+00	 0.00000000E+00
	 0.00000000E+00	 0.00000000E+00	 0.00000000E+00
	 0.00000000E+00	 0.00000000E+00	 0.00000000E+00

	 0.00000000E+00	 0.00000000E+00	 0.00000000E+00
	 0.00000000E+00	 0.00000000E+00	 0.00000000E+00
	 0.00000000E+00	 0.00000000E+00	 0.00000000E+00

	 0.00000000E+00	 0.00000000E+00	 0.00000000E+00
	 0.00000000E+00	 0.00000000E+00	 0.00000000E+00
	 0.00000000E+00	 0.00000000E+00	 0.00000000E+00

	 0.00000000E+00	 0.00000000E+00	 0.00000000E+00
	 0.00000000E+00	 0.00000000E+00	 0.00000000E+00
	 0.00000000E+00	 0.00000000E+00	 0.00000000E+00

	 0.00000000E+00	 0.00000000E+00	 0.00000000E+00
	 0.00000000E+00	 0.00000000E+00	 0.00000000E+00
	 0.00000000E+00	 0.00000000E+00	 0.00000000E+00

	 0.00000000E+00	 0.00000000E+00	 0.00000000E+00
	 0.00000000E+00	 0.00000000E+00	 0.00000000E+00
	 0.00000000E+00	 0.00000000E+00	 0.00000000E+00

	 0.00000000E+00	 0.00000000E+00	 0.00000000E+00
	 0.00000000E+00	 0.00000000E+00	 0.00000000E+00
	 0.00000000E+00	 0.00000000E+00	 0.00000000E+00

	 0.00000000E+00	 0.00000000E+00	 0.00000000E+00
	 0.00000000E+00	 0.00000000E+00	 0.00000000E+00
	 0.00000000E+00	 0.00000000E+00	 0.00000000E+00

	 0.00000000E+00	 0.00000000E+00	 0.00000000E+00
	 0.00000000E+00	 0.00000000E+00	 0.00000000E+00
	 0.00000000E+00	 0.00000000E+00	 0.00000000E+00

	 0.00000000E+00	 0.00000000E+00	 0.00000000E+00
	 0.00000000E+00	 0.00000000E+00	 0.00000000E+00
	 0.00000000E+00	 0.00000000E+00	 0.00000000E+00

	 0.00000000E+00	 0.00000000E+00	 0.00000000E+00
	 0.00000000E+00	 0.00000000E+00	 0.00000000E+00
	 0.00000000E+00	 0.00000000E+00	 0.00000000E+00

	 0.00000000E+00	 0.00000000E+00	 0.00000000E+00
	 0.00000000E+00	 0.00000000E+00	 0.00000000E+00
	 0.00000000E+00	 0.00000000E+00	 0.00000000E+00

	 0.00000000E+00	 0.00000000E+00	 0.00000000E+00
	 0.00000000E+00	 0.00000000E+00	 0.00000000E+00
	 0.00000000E+00	 0.00000000E+00	 0.00000000E+00

	 0.00000000E+00	 0.00000000E+00	 0.00000000E+00
	 0.00000000E+00	 0.00000000E+00	 0.00000000E+00
	 0.00000000E+00	 0.00000000E+00	 0.00000000E+00

	 0.00000000E+00	 0.00000000E+00	 0.00000000E+00
	 0.00000000E+00	 0.00000000E+00	 0.00000000E+00
	 0.00000000E+00	 0.00000000E+00	 0.00000000E+00

	 0.00000000E+00	 0.00000000E+00	 0.00000000E+00
	 0.00000000E+00	 0.00000000E+00	 0.00000000E+00
	 0.00000000E+00	 0.00000000E+00	 0.00000000E+00

	 0.00000000E+00	 0.00000000E+00	 0.00000000E+00
	 0.00000000E+00	 0.00000000E+00	 0.00000000E+00
	 0.00000000E+00	 0.00000000E+00	 0.00000000E+00

	 0.00000000E+00	 0.00000000E+00	 0.00000000E+00
	 0.00000000E+00	 0.00000000E+00	 0.00000000E+00
	 0.00000000E+00	 0.00000000E+00	 0.00000000E+00

	 0.00000000E+00	 0.00000000E+00	 0.00000000E+00
	 0.00000000E+00	 0.00000000E+00	 0.00000000E+00
	 0.00000000E+00	 0.00000000E+00	 0.00000000E+00

	 0.00000000E+00	 0.00000000E+00	 0.00000000E+00
	 0.00000000E+00	 0.00000000E+00	 0.00000000E+00
	 0.00000000E+00	 0.00000000E+00	 0.00000000E+00

	 0.00000000E+00	 0.00000000E+00	 0.00000000E+00
	 0.00000000E+00	 0.00000000E+00	 0.00000000E+00
	 0.00000000E+00	 0.00000000E+00	 0.00000000E+00

	 0.00000000E+00	 0.00000000E+00	 0.00000000E+00
	 0.00000000E+00	 0.00000000E+00	 0.00000000E+00
	 0.00000000E+00	 0.00000000E+00	 0.00000000E+00

	 0.00000000E+00	 0.00000000E+00	 0.00000000E+00
	 0.00000000E+00	 0.00000000E+00	 0.00000000E+00
	 0.00000000E+00	 0.00000000E+00	 0.00000000E+00

	 0.00000000E+00	 0.00000000E+00	 0.00000000E+00
	 0.00000000E+00	 0.00000000E+00	 0.00000000E+00
	 0.00000000E+00	 0.00000000E+00	 0.00000000E+00

	 0.00000000E+00	 0.00000000E+00	 0.00000000E+00
	 0.00000000E+00	 0.00000000E+00	 0.00000000E+00
	 0.00000000E+00	 0.00000000E+00	 0.00000000E+00

	 0.00000000E+00	 0.00000000E+00	 0.00000000E+00
	 0.00000000E+00	 0.00000000E+00	 0.00000000E+00
	 0.00000000E+00	 0.00000000E+00	 0.00000000E+00

	 0.00000000E+00	 0.00000000E+00	 0.00000000E+00
	 0.00000000E+00	 0.00000000E+00	 0.00000000E+00
	 0.00000000E+00	 0.00000000E+00	 0.00000000E+00

	 0.00000000E+00	 0.00000000E+00	 0.00000000E+00
	 0.00000000E+00	 0.00000000E+00	 0.00000000E+00
	 0.00000000E+00	 0.00000000E+00	 0.00000000E+00

	 0.00000000E+00	 0.00000000E+00	 0.00000000E+00
	 0.00000000E+00	 0.00000000E+00	 0.00000000E+00
	 0.00000000E+00	 0.00000000E+00	 0.00000000E+00

	 0.00000000E+00	 0.00000000E+00	 0.00000000E+00
	 0.00000000E+00	 0.00000000E+00	 0.00000000E+00
	 0.00000000E+00	 0.00000000E+00	 0.00000000E+00

	 0.00000000E+00	 0.00000000E+00	 0.00000000E+00
	 0.00000000E+00	 0.00000000E+00	 0.00000000E+00
	 0.00000000E+00	 0.00000000E+00	 0.00000000E+00

	 0.00000000E+00	 0.00000000E+00	 0.00000000E+00
	 0.00000000E+00	 0.00000000E+00	 0.00000000E+00
	 0.00000000E+00	 0.00000000E+00	 0.00000000E+00

	 0.00000000E+00	 0.00000000E+00	 0.00000000E+00
	 0.00000000E+00	 0.00000000E+00	 0.00000000E+00
	 0.00000000E+00	 0.00000000E+00	 0.00000000E+00

	 0.00000000E+00	 0.00000000E+00	 0.00000000E+00
	 0.00000000E+00	 0.00000000E+00	 0.00000000E+00
	 0.00000000E+00	 0.00000000E+00	 0.00000000E+00

	 0.00000000E+00	 0.00000000E+00	 0.00000000E+00
	 0.00000000E+00	 0.00000000E+00	 0.00000000E+00
	 0.00000000E+00	 0.00000000E+00	 0.00000000E+00

	 0.00000000E+00	 0.00000000E+00	 0.00000000E+00
	 0.00000000E+00	 0.00000000E+00	 0.00000000E+00
	 0.00000000E+00	 0.00000000E+00	 0.00000000E+00

	 0.00000000E+00	 0.00000000E+00	 0.00000000E+00
	 0.00000000E+00	 0.00000000E+00	 0.00000000E+00
	 0.00000000E+00	 0.00000000E+00	 0.00000000E+00

	 0.00000000E+00	 0.00000000E+00	 0.00000000E+00
	 0.00000000E+00	 0.00000000E+00	 0.00000000E+00
	 0.00000000E+00	 0.00000000E+00	 0.00000000E+00

	 0.00000000E+00	 0.00000000E+00	 0.00000000E+00
	 0.00000000E+00	 0.00000000E+00	 0.00000000E+00
	 0.00000000E+00	 0.00000000E+00	 0.00000000E+00

	 0.00000000E+00	 0.00000000E+00	 0.00000000E+00
	 0.00000000E+00	 0.00000000E+00	 0.00000000E+00
	 0.00000000E+00	 0.00000000E+00	 0.00000000E+00

	 0.00000000E+00	 0.00000000E+00	 0.00000000E+00
	 0.00000000E+00	 0.00000000E+00	 0.00000000E+00
	 0.00000000E+00	 0.00000000E+00	 0.00000000E+00

	 0.00000000E+00	 0.00000000E+00	 0.00000000E+00
	 0.00000000E+00	 0.00000000E+00	 0.00000000E+00
	 0.00000000E+00	 0.00000000E+00	 0.00000000E+00

	 0.00000000E+00	 0.00000000E+00	 0.00000000E+00
	 0.00000000E+00	 0.00000000E+00	 0.00000000E+00
	 0.00000000E+00	 0.00000000E+00	 0.00000000E+00

	 0.00000000E+00	 0.00000000E+00	 0.00000000E+00
	 0.00000000E+00	 0.00000000E+00	 0.00000000E+00
	 0.00000000E+00	 0.00000000E+00	 0.00000000E+00

	 0.00000000E+00	 0.00000000E+00	 0.00000000E+00
	 0.00000000E+00	 0.00000000E+00	 0.00000000E+00
	 0.00000000E+00	 0.00000000E+00	 0.00000000E+00

	 0.00000000E+00	 0.00000000E+00	 0.00000000E+00
	 0.00000000E+00	 0.00000000E+00	 0.00000000E+00
	 0.00000000E+00	 0.00000000E+00	 0.00000000E+00

	 0.00000000E+00	 0.00000000E+00	 0.00000000E+00
	 0.00000000E+00	 0.00000000E+00	 0.00000000E+00
	 0.00000000E+00	 0.00000000E+00	 0.00000000E+00

	 0.00000000E+00	 0.00000000E+00	 0.00000000E+00
	 0.00000000E+00	 0.00000000E+00	 0.00000000E+00
	 0.00000000E+00	 0.00000000E+00	 0.00000000E+00

	 0.00000000E+00	 0.00000000E+00	 0.00000000E+00
	 0.00000000E+00	 0.00000000E+00	 0.00000000E+00
	 0.00000000E+00	 0.00000000E+00	 0.00000000E+00

	 0.00000000E+00	 0.00000000E+00	 0.00000000E+00
	 0.00000000E+00	 0.00000000E+00	 0.00000000E+00
	 0.00000000E+00	 0.00000000E+00	 0.00000000E+00

	 0.00000000E+00	 0.00000000E+00	 0.00000000E+00
	 0.00000000E+00	 0.00000000E+00	 0.00000000E+00
	 0.00000000E+00	 0.00000000E+00	 0.00000000E+00

	 0.00000000E+00	 0.00000000E+00	 0.00000000E+00
	 0.00000000E+00	 0.00000000E+00	 0.00000000E+00
	 0.00000000E+00	 0.00000000E+00	 0.00000000E+00

	 0.00000000E+00	 0.00000000E+00	 0.00000000E+00
	 0.00000000E+00	 0.00000000E+00	 0.00000000E+00
	 0.00000000E+00	 0.00000000E+00	 0.00000000E+00

	 0.00000000E+00	 0.00000000E+00	 0.00000000E+00
	 0.00000000E+00	 0.00000000E+00	 0.00000000E+00
	 0.00000000E+00	 0.00000000E+00	 0.00000000E+00

	 0.00000000E+00	 0.00000000E+00	 0.00000000E+00
	 0.00000000E+00	 0.00000000E+00	 0.00000000E+00
	 0.00000000E+00	 0.00000000E+00	 0.00000000E+00

	 0.00000000E+00	 0.00000000E+00	 0.00000000E+00
	 0.00000000E+00	 0.00000000E+00	 0.00000000E+00
	 0.00000000E+00	 0.00000000E+00	 0.00000000E+00

	 0.00000000E+00	 0.00000000E+00	 0.00000000E+00
	 0.00000000E+00	 0.00000000E+00	 0.00000000E+00
	 0.00000000E+00	 0.00000000E+00	 0.00000000E+00

	 0.00000000E+00	 0.00000000E+00	 0.00000000E+00
	 0.00000000E+00	 0.00000000E+00	 0.00000000E+00
	 0.00000000E+00	 0.00000000E+00	 0.00000000E+00

	 0.00000000E+00	 0.00000000E+00	 0.00000000E+00
	 0.00000000E+00	 0.00000000E+00	 0.00000000E+00
	 0.00000000E+00	 0.00000000E+00	 0.00000000E+00

	 0.00000000E+00	 0.00000000E+00	 0.00000000E+00
	 0.00000000E+00	 0.00000000E+00	 0.00000000E+00
	 0.00000000E+00	 0.00000000E+00	 0.00000000E+00

	 0.00000000E+00	 0.00000000E+00	 0.00000000E+00
	 0.00000000E+00	 0.00000000E+00	 0.00000000E+00
	 0.00000000E+00	 0.00000000E+00	 0.00000000E+00

	 0.00000000E+00	 0.00000000E+00	 0.00000000E+00
	 0.00000000E+00	 0.00000000E+00	 0.00000000E+00
	 0.00000000E+00	 0.00000000E+00	 0.00000000E+00

	 0.00000000E+00	 0.00000000E+00	 0.00000000E+00
	 0.00000000E+00	 0.00000000E+00	 0.00000000E+00
	 0.00000000E+00	 0.00000000E+00	 0.00000000E+00

	 0.00000000E+00	 0.00000000E+00	 0.00000000E+00
	 0.00000000E+00	 0.00000000E+00	 0.00000000E+00
	 0.00000000E+00	 0.00000000E+00	 0.00000000E+00

	 0.00000000E+00	 0.00000000E+00	 0.00000000E+00
	 0.00000000E+00	 0.00000000E+00	 0.00000000E+00
	 0.00000000E+00	 0.00000000E+00	 0.00000000E+00

	 0.00000000E+00	 0.00000000E+00	 0.00000000E+00
	 0.00000000E+00	 0.00000000E+00	 0.00000000E+00
	 0.00000000E+00	 0.00000000E+00	 0.00000000E+00

	 0.00000000E+00	 0.00000000E+00	 0.00000000E+00
	 0.00000000E+00	 0.00000000E+00	 0.00000000E+00
	 0.00000000E+00	 0.00000000E+00	 0.00000000E+00

	 0.00000000E+00	 0.00000000E+00	 0.00000000E+00
	 0.00000000E+00	 0.00000000E+00	 0.00000000E+00
	 0.00000000E+00	 0.00000000E+00	 0.00000000E+00

	 0.00000000E+00	 0.00000000E+00	 0.00000000E+00
	 0.00000000E+00	 0.00000000E+00	 0.00000000E+00
	 0.00000000E+00	 0.00000000E+00	 0.00000000E+00

	 0.00000000E+00	 0.00000000E+00	 0.00000000E+00
	 0.00000000E+00	 0.00000000E+00	 0.00000000E+00
	 0.00000000E+00	 0.00000000E+00	 0.00000000E+00

	 0.00000000E+00	 0.00000000E+00	 0.00000000E+00
	 0.00000000E+00	 0.00000000E+00	 0.00000000E+00
	 0.00000000E+00	 0.00000000E+00	 0.00000000E+00

	 0.00000000E+00	 0.00000000E+00	 0.00000000E+00
	 0.00000000E+00	 0.00000000E+00	 0.00000000E+00
	 0.00000000E+00	 0.00000000E+00	 0.00000000E+00

	 0.00000000E+00	 0.00000000E+00	 0.00000000E+00
	 0.00000000E+00	 0.00000000E+00	 0.00000000E+00
	 0.00000000E+00	 0.00000000E+00	 0.00000000E+00

	 0.00000000E+00	 0.00000000E+00	 0.00000000E+00
	 0.00000000E+00	 0.00000000E+00	 0.00000000E+00
	 0.00000000E+00	 0.00000000E+00	 0.00000000E+00

	 0.00000000E+00	 0.00000000E+00	 0.00000000E+00
	 0.00000000E+00	 0.00000000E+00	 0.00000000E+00
	 0.00000000E+00	 0.00000000E+00	 0.00000000E+00

	 0.00000000E+00	 0.00000000E+00	 0.00000000E+00
	 0.00000000E+00	 0.00000000E+00	 0.00000000E+00
	 0.00000000E+00	 0.00000000E+00	 0.00000000E+00

	 0.00000000E+00	 0.00000000E+00	 0.00000000E+00
	 0.00000000E+00	 0.00000000E+00	 0.00000000E+00
	 0.00000000E+00	 0.00000000E+00	 0.00000000E+00

	 0.00000000E+00	 0.00000000E+00	 0.00000000E+00
	 0.00000000E+00	 0.00000000E+00	 0.00000000E+00
	 0.00000000E+00	 0.00000000E+00	 0.00000000E+00

	 0.00000000E+00	 0.00000000E+00	 0.00000000E+00
	 0.00000000E+00	 0.00000000E+00	 0.00000000E+00
	 0.00000000E+00	 0.00000000E+00	 0.00000000E+00

	 0.00000000E+00	 0.00000000E+00	 0.00000000E+00
	 0.00000000E+00	 0.00000000E+00	 0.00000000E+00
	 0.00000000E+00	 0.00000000E+00	 0.00000000E+00

	 0.00000000E+00	 0.00000000E+00	 0.00000000E+00
	 0.00000000E+00	 0.00000000E+00	 0.00000000E+00
	 0.00000000E+00	 0.00000000E+00	 0.00000000E+00

	 0.00000000E+00	 0.00000000E+00	 0.00000000E+00
	 0.00000000E+00	 0.00000000E+00	 0.00000000E+00
	 0.00000000E+00	 0.00000000E+00	 0.00000000E+00

	 0.00000000E+00	 0.00000000E+00	 0.00000000E+00
	 0.00000000E+00	 0.00000000E+00	 0.00000000E+00
	 0.00000000E+00	 0.00000000E+00	 0.00000000E+00

	 0.00000000E+00	 0.00000000E+00	 0.00000000E+00
	 0.00000000E+00	 0.00000000E+00	 0.00000000E+00
	 0.00000000E+00	 0.00000000E+00	 0.00000000E+00

	 0.00000000E+00	 0.00000000E+00	 0.00000000E+00
	 0.00000000E+00	 0.00000000E+00	 0.00000000E+00
	 0.00000000E+00	 0.00000000E+00	 0.00000000E+00

	 0.00000000E+00	 0.00000000E+00	 0.00000000E+00
	 0.00000000E+00	 0.00000000E+00	 0.00000000E+00
	 0.00000000E+00	 0.00000000E+00	 0.00000000E+00

	 0.00000000E+00	 0.00000000E+00	 0.00000000E+00
	 0.00000000E+00	 0.00000000E+00	 0.00000000E+00
	 0.00000000E+00	 0.00000000E+00	 0.00000000E+00

	 0.00000000E+00	 0.00000000E+00	 0.00000000E+00
	 0.00000000E+00	 0.00000000E+00	 0.00000000E+00
	 0.00000000E+00	 0.00000000E+00	 0.00000000E+00

	 0.00000000E+00	 0.00000000E+00	 0.00000000E+00
	 0.00000000E+00	 0.00000000E+00	 0.00000000E+00
	 0.00000000E+00	 0.00000000E+00	 0.00000000E+00

	 0.00000000E+00	 0.00000000E+00	 0.00000000E+00
	 0.00000000E+00	 0.00000000E+00	 0.00000000E+00
	 0.00000000E+00	 0.00000000E+00	 0.00000000E+00

	 0.00000000E+00	 0.00000000E+00	 0.00000000E+00
	 0.00000000E+00	 0.00000000E+00	 0.00000000E+00
	 0.00000000E+00	 0.00000000E+00	 0.00000000E+00

	 0.00000000E+00	 0.00000000E+00	 0.00000000E+00
	 0.00000000E+00	 0.00000000E+00	 0.00000000E+00
	 0.00000000E+00	 0.00000000E+00	 0.00000000E+00

	 0.00000000E+00	 0.00000000E+00	 0.00000000E+00
	 0.00000000E+00	 0.00000000E+00	 0.00000000E+00
	 0.00000000E+00	 0.00000000E+00	 0.00000000E+00

	 0.00000000E+00	 0.00000000E+00	 0.00000000E+00
	 0.00000000E+00	 0.00000000E+00	 0.00000000E+00
	 0.00000000E+00	 0.00000000E+00	 0.00000000E+00

	 0.00000000E+00	 0.00000000E+00	 0.00000000E+00
	 0.00000000E+00	 0.00000000E+00	 0.00000000E+00
	 0.00000000E+00	 0.00000000E+00	 0.00000000E+00

	 0.00000000E+00	 0.00000000E+00	 0.00000000E+00
	 0.00000000E+00	 0.00000000E+00	 0.00000000E+00
	 0.00000000E+00	 0.00000000E+00	 0.00000000E+00

	 0.00000000E+00	 0.00000000E+00	 0.00000000E+00
	 0.00000000E+00	 0.00000000E+00	 0.00000000E+00
	 0.00000000E+00	 0.00000000E+00	 0.00000000E+00

	 0.00000000E+00	 0.00000000E+00	 0.00000000E+00
	 0.00000000E+00	 0.00000000E+00	 0.00000000E+00
	 0.00000000E+00	 0.00000000E+00	 0.00000000E+00

	 0.00000000E+00	 0.00000000E+00	 0.00000000E+00
	 0.00000000E+00	 0.00000000E+00	 0.00000000E+00
	 0.00000000E+00	 0.00000000E+00	 0.00000000E+00

	 0.00000000E+00	 0.00000000E+00	 0.00000000E+00
	 0.00000000E+00	 0.00000000E+00	 0.00000000E+00
	 0.00000000E+00	 0.00000000E+00	 0.00000000E+00

	 0.00000000E+00	 0.00000000E+00	 0.00000000E+00
	 0.00000000E+00	 0.00000000E+00	 0.00000000E+00
	 0.00000000E+00	 0.00000000E+00	 0.00000000E+00

	 0.00000000E+00	 0.00000000E+00	 0.00000000E+00
	 0.00000000E+00	 0.00000000E+00	 0.00000000E+00
	 0.00000000E+00	 0.00000000E+00	 0.00000000E+00

	 0.00000000E+00	 0.00000000E+00	 0.00000000E+00
	 0.00000000E+00	 0.00000000E+00	 0.00000000E+00
	 0.00000000E+00	 0.00000000E+00	 0.00000000E+00

	 0.00000000E+00	 0.00000000E+00	 0.00000000E+00
	 0.00000000E+00	 0.00000000E+00	 0.00000000E+00
	 0.00000000E+00	 0.00000000E+00	 0.00000000E+00

	 0.00000000E+00	 0.00000000E+00	 0.00000000E+00
	 0.00000000E+00	 0.00000000E+00	 0.00000000E+00
	 0.00000000E+00	 0.00000000E+00	 0.00000000E+00

	 0.00000000E+00	 0.00000000E+00	 0.00000000E+00
	 0.00000000E+00	 0.00000000E+00	 0.00000000E+00
	 0.00000000E+00	 0.00000000E+00	 0.00000000E+00

	 0.00000000E+00	 0.00000000E+00	 0.00000000E+00
	 0.00000000E+00	 0.00000000E+00	 0.00000000E+00
	 0.00000000E+00	 0.00000000E+00	 0.00000000E+00

	 0.00000000E+00	 0.00000000E+00	 0.00000000E+00
	 0.00000000E+00	 0.00000000E+00	 0.00000000E+00
	 0.00000000E+00	 0.00000000E+00	 0.00000000E+00

	 0.00000000E+00	 0.00000000E+00	 0.00000000E+00
	 0.00000000E+00	 0.00000000E+00	 0.00000000E+00
	 0.00000000E+00	 0.00000000E+00	 0.00000000E+00

	 0.00000000E+00	 0.00000000E+00	 0.00000000E+00
	 0.00000000E+00	 0.00000000E+00	 0.00000000E+00
	 0.00000000E+00	 0.00000000E+00	 0.00000000E+00

	 0.00000000E+00	 0.00000000E+00	 0.00000000E+00
	 0.00000000E+00	 0.00000000E+00	 0.00000000E+00
	 0.00000000E+00	 0.00000000E+00	 0.00000000E+00

	 0.00000000E+00	 0.00000000E+00	 0.00000000E+00
	 0.00000000E+00	 0.00000000E+00	 0.00000000E+00
	 0.00000000E+00	 0.00000000E+00	 0.00000000E+00

	 0.00000000E+00	 0.00000000E+00	 0.00000000E+00
	 0.00000000E+00	 0.00000000E+00	 0.00000000E+00
	 0.00000000E+00	 0.00000000E+00	 0.00000000E+00

	 0.00000000E+00	 0.00000000E+00	 0.00000000E+00
	 0.00000000E+00	 0.00000000E+00	 0.00000000E+00
	 0.00000000E+00	 0.00000000E+00	 0.00000000E+00

	 0.00000000E+00	 0.00000000E+00	 0.00000000E+00
	 0.00000000E+00	 0.00000000E+00	 0.00000000E+00
	 0.00000000E+00	 0.00000000E+00	 0.00000000E+00

	 0.00000000E+00	 0.00000000E+00	 0.00000000E+00
	 0.00000000E+00	 0.00000000E+00	 0.00000000E+00
	 0.00000000E+00	 0.00000000E+00	 0.00000000E+00

	 0.00000000E+00	 0.00000000E+00	 0.00000000E+00
	 0.00000000E+00	 0.00000000E+00	 0.00000000E+00
	 0.00000000E+00	 0.00000000E+00	 0.00000000E+00

	 0.00000000E+00	 0.00000000E+00	 0.00000000E+00
	 0.00000000E+00	 0.00000000E+00	 0.00000000E+00
	 0.00000000E+00	 0.00000000E+00	 0.00000000E+00

	 0.00000000E+00	 0.00000000E+00	 0.00000000E+00
	 0.00000000E+00	 0.00000000E+00	 0.00000000E+00
	 0.00000000E+00	 0.00000000E+00	 0.00000000E+00

	 0.00000000E+00	 0.00000000E+00	 0.00000000E+00
	 0.00000000E+00	 0.00000000E+00	 0.00000000E+00
	 0.00000000E+00	 0.00000000E+00	 0.00000000E+00

	 0.00000000E+00	 0.00000000E+00	 0.00000000E+00
	 0.00000000E+00	 0.00000000E+00	 0.00000000E+00
	 0.00000000E+00	 0.00000000E+00	 0.00000000E+00

	 0.00000000E+00	 0.00000000E+00	 0.00000000E+00
	 0.00000000E+00	 0.00000000E+00	 0.00000000E+00
	 0.00000000E+00	 0.00000000E+00	 0.00000000E+00

	 0.00000000E+00	 0.00000000E+00	 0.00000000E+00
	 0.00000000E+00	 0.00000000E+00	 0.00000000E+00
	 0.00000000E+00	 0.00000000E+00	 0.00000000E+00

	 0.00000000E+00	 0.00000000E+00	 0.00000000E+00
	 0.00000000E+00	 0.00000000E+00	 0.00000000E+00
	 0.00000000E+00	 0.00000000E+00	 0.00000000E+00

	 0.00000000E+00	 0.00000000E+00	 0.00000000E+00
	 0.00000000E+00	 0.00000000E+00	 0.00000000E+00
	 0.00000000E+00	 0.00000000E+00	 0.00000000E+00

	 0.00000000E+00	 0.00000000E+00	 0.00000000E+00
	 0.00000000E+00	 0.00000000E+00	 0.00000000E+00
	 0.00000000E+00	 0.00000000E+00	 0.00000000E+00

	 0.00000000E+00	 0.00000000E+00	 0.00000000E+00
	 0.00000000E+00	 0.00000000E+00	 0.00000000E+00
	 0.00000000E+00	 0.00000000E+00	 0.00000000E+00

	 0.00000000E+00	 0.00000000E+00	 0.00000000E+00
	 0.00000000E+00	 0.00000000E+00	 0.00000000E+00
	 0.00000000E+00	 0.00000000E+00	 0.00000000E+00

	 0.00000000E+00	 0.00000000E+00	 0.00000000E+00
	 0.00000000E+00	 0.00000000E+00	 0.00000000E+00
	 0.00000000E+00	 0.00000000E+00	 0.00000000E+00

	 0.00000000E+00	 0.00000000E+00	 0.00000000E+00
	 0.00000000E+00	 0.00000000E+00	 0.00000000E+00
	 0.00000000E+00	 0.00000000E+00	 0.00000000E+00

	 0.00000000E+00	 0.00000000E+00	 0.00000000E+00
	 0.00000000E+00	 0.00000000E+00	 0.00000000E+00
	 0.00000000E+00	 0.00000000E+00	 0.00000000E+00

	 0.00000000E+00	 0.00000000E+00	 0.00000000E+00
	 0.00000000E+00	 0.00000000E+00	 0.00000000E+00
	 0.00000000E+00	 0.00000000E+00	 0.00000000E+00

	 0.00000000E+00	 0.00000000E+00	 0.00000000E+00
	 0.00000000E+00	 0.00000000E+00	 0.00000000E+00
	 0.00000000E+00	 0.00000000E+00	 0.00000000E+00

	 0.00000000E+00	 0.00000000E+00	 0.00000000E+00
	 0.00000000E+00	 0.00000000E+00	 0.00000000E+00
	 0.00000000E+00	 0.00000000E+00	 0.00000000E+00

	 0.00000000E+00	 0.00000000E+00	 0.00000000E+00
	 0.00000000E+00	 0.00000000E+00	 0.00000000E+00
	 0.00000000E+00	 0.00000000E+00	 0.00000000E+00

	 0.00000000E+00	 0.00000000E+00	 0.00000000E+00
	 0.00000000E+00	 0.00000000E+00	 0.00000000E+00
	 0.00000000E+00	 0.00000000E+00	 0.00000000E+00

	 0.00000000E+00	 0.00000000E+00	 0.00000000E+00
	 0.00000000E+00	 0.00000000E+00	 0.00000000E+00
	 0.00000000E+00	 0.00000000E+00	 0.00000000E+00

	 0.00000000E+00	 0.00000000E+00	 0.00000000E+00
	 0.00000000E+00	 0.00000000E+00	 0.00000000E+00
	 0.00000000E+00	 0.00000000E+00	 0.00000000E+00

	 0.00000000E+00	 0.00000000E+00	 0.00000000E+00
	 0.00000000E+00	 0.00000000E+00	 0.00000000E+00
	 0.00000000E+00	 0.00000000E+00	 0.00000000E+00

	 0.00000000E+00	 0.00000000E+00	 0.00000000E+00
	 0.00000000E+00	 0.00000000E+00	 0.00000000E+00
	 0.00000000E+00	 0.00000000E+00	 0.00000000E+00

	 0.00000000E+00	 0.00000000E+00	 0.00000000E+00
	 0.00000000E+00	 0.00000000E+00	 0.00000000E+00
	 0.00000000E+00	 0.00000000E+00	 0.00000000E+00

	 0.00000000E+00	 0.00000000E+00	 0.00000000E+00
	 0.00000000E+00	 0.00000000E+00	 0.00000000E+00
	 0.00000000E+00	 0.00000000E+00	 0.00000000E+00

	 0.00000000E+00	 0.00000000E+00	 0.00000000E+00
	 0.00000000E+00	 0.00000000E+00	 0.00000000E+00
	 0.00000000E+00	 0.00000000E+00	 0.00000000E+00

	 0.00000000E+00	 0.00000000E+00	 0.00000000E+00
	 0.00000000E+00	 0.00000000E+00	 0.00000000E+00
	 0.00000000E+00	 0.00000000E+00	 0.00000000E+00

	 0.00000000E+00	 0.00000000E+00	 0.00000000E+00
	 0.00000000E+00	 0.00000000E+00	 0.00000000E+00
	 0.00000000E+00	 0.00000000E+00	 0.00000000E+00

	 0.00000000E+00	 0.00000000E+00	 0.00000000E+00
	 0.00000000E+00	 0.00000000E+00	 0.00000000E+00
	 0.00000000E+00	 0.00000000E+00	 0.00000000E+00

	 0.00000000E+00	 0.00000000E+00	 0.00000000E+00
	 0.00000000E+00	 0.00000000E+00	 0.00000000E+00
	 0.00000000E+00	 0.00000000E+00	 0.00000000E+00

	 0.00000000E+00	 0.00000000E+00	 0.00000000E+00
	 0.00000000E+00	 0.00000000E+00	 0.00000000E+00
	 0.00000000E+00	 0.00000000E+00	 0.00000000E+00

	 0.00000000E+00	 0.00000000E+00	 0.00000000E+00
	 0.00000000E+00	 0.00000000E+00	 0.00000000E+00
	 0.00000000E+00	 0.00000000E+00	 0.00000000E+00

	 0.00000000E+00	 0.00000000E+00	 0.00000000E+00
	 0.00000000E+00	 0.00000000E+00	 0.00000000E+00
	 0.00000000E+00	 0.00000000E+00	 0.00000000E+00

	 0.00000000E+00	 0.00000000E+00	 0.00000000E+00
	 0.00000000E+00	 0.00000000E+00	 0.00000000E+00
	 0.00000000E+00	 0.00000000E+00	 0.00000000E+00

	 0.00000000E+00	 0.00000000E+00	 0.00000000E+00
	 0.00000000E+00	 0.00000000E+00	 0.00000000E+00
	 0.00000000E+00	 0.00000000E+00	 0.00000000E+00

	 0.00000000E+00	 0.00000000E+00	 0.00000000E+00
	 0.00000000E+00	 0.00000000E+00	 0.00000000E+00
	 0.00000000E+00	 0.00000000E+00	 0.00000000E+00

	 0.00000000E+00	 0.00000000E+00	 0.00000000E+00
	 0.00000000E+00	 0.00000000E+00	 0.00000000E+00
	 0.00000000E+00	 0.00000000E+00	 0.00000000E+00

	 0.00000000E+00	 0.00000000E+00	 0.00000000E+00
	 0.00000000E+00	 0.00000000E+00	 0.00000000E+00
	 0.00000000E+00	 0.00000000E+00	 0.00000000E+00

	 0.00000000E+00	 0.00000000E+00	 0.00000000E+00
	 0.00000000E+00	 0.00000000E+00	 0.00000000E+00
	 0.00000000E+00	 0.00000000E+00	 0.00000000E+00

	 0.00000000E+00	 0.00000000E+00	 0.00000000E+00
	 0.00000000E+00	 0.00000000E+00	 0.00000000E+00
	 0.00000000E+00	 0.00000000E+00	 0.00000000E+00

	 0.00000000E+00	 0.00000000E+00	 0.00000000E+00
	 0.00000000E+00	 0.00000000E+00	 0.00000000E+00
	 0.00000000E+00	 0.00000000E+00	 0.00000000E+00

	 0.00000000E+00	 0.00000000E+00	 0.00000000E+00
	 0.00000000E+00	 0.00000000E+00	 0.00000000E+00
	 0.00000000E+00	 0.00000000E+00	 0.00000000E+00

	 0.00000000E+00	 0.00000000E+00	 0.00000000E+00
	 0.00000000E+00	 0.00000000E+00	 0.00000000E+00
	 0.00000000E+00	 0.00000000E+00	 0.00000000E+00

	 0.00000000E+00	 0.00000000E+00	 0.00000000E+00
	 0.00000000E+00	 0.00000000E+00	 0.00000000E+00
	 0.00000000E+00	 0.00000000E+00	 0.00000000E+00

	 0.00000000E+00	 0.00000000E+00	 0.00000000E+00
	 0.00000000E+00	 0.00000000E+00	 0.00000000E+00
	 0.00000000E+00	 0.00000000E+00	 0.00000000E+00

	 0.00000000E+00	 0.00000000E+00	 0.00000000E+00
	 0.00000000E+00	 0.00000000E+00	 0.00000000E+00
	 0.00000000E+00	 0.00000000E+00	 0.00000000E+00

	 0.00000000E+00	 0.00000000E+00	 0.00000000E+00
	 0.00000000E+00	 0.00000000E+00	 0.00000000E+00
	 0.00000000E+00	 0.00000000E+00	 0.00000000E+00

	 0.00000000E+00	 0.00000000E+00	 0.00000000E+00
	 0.00000000E+00	 0.00000000E+00	 0.00000000E+00
	 0.00000000E+00	 0.00000000E+00	 0.00000000E+00

	 0.00000000E+00	 0.00000000E+00	 0.00000000E+00
	 0.00000000E+00	 0.00000000E+00	 0.00000000E+00
	 0.00000000E+00	 0.00000000E+00	 0.00000000E+00

	 0.00000000E+00	 0.00000000E+00	 0.00000000E+00
	 0.00000000E+00	 0.00000000E+00	 0.00000000E+00
	 0.00000000E+00	 0.00000000E+00	 0.00000000E+00

	 0.00000000E+00	 0.00000000E+00	 0.00000000E+00
	 0.00000000E+00	 0.00000000E+00	 0.00000000E+00
	 0.00000000E+00	 0.00000000E+00	 0.00000000E+00

	 0.00000000E+00	 0.00000000E+00	 0.00000000E+00
	 0.00000000E+00	 0.00000000E+00	 0.00000000E+00
	 0.00000000E+00	 0.00000000E+00	 0.00000000E+00

	 0.00000000E+00	 0.00000000E+00	 0.00000000E+00
	 0.00000000E+00	 0.00000000E+00	 0.00000000E+00
	 0.00000000E+00	 0.00000000E+00	 0.00000000E+00

	 0.00000000E+00	 0.00000000E+00	 0.00000000E+00
	 0.00000000E+00	 0.00000000E+00	 0.00000000E+00
	 0.00000000E+00	 0.00000000E+00	 0.00000000E+00

	 0.00000000E+00	 0.00000000E+00	 0.00000000E+00
	 0.00000000E+00	 0.00000000E+00	 0.00000000E+00
	 0.00000000E+00	 0.00000000E+00	 0.00000000E+00

	 0.00000000E+00	 0.00000000E+00	 0.00000000E+00
	 0.00000000E+00	 0.00000000E+00	 0.00000000E+00
	 0.00000000E+00	 0.00000000E+00	 0.00000000E+00

	 0.00000000E+00	 0.00000000E+00	 0.00000000E+00
	 0.00000000E+00	 0.00000000E+00	 0.00000000E+00
	 0.00000000E+00	 0.00000000E+00	 0.00000000E+00

	 0.00000000E+00	 0.00000000E+00	 0.00000000E+00
	 0.00000000E+00	 0.00000000E+00	 0.00000000E+00
	 0.00000000E+00	 0.00000000E+00	 0.00000000E+00

	 0.00000000E+00	 0.00000000E+00	 0.00000000E+00
	 0.00000000E+00	 0.00000000E+00	 0.00000000E+00
	 0.00000000E+00	 0.00000000E+00	 0.00000000E+00

	 0.00000000E+00	 0.00000000E+00	 0.00000000E+00
	 0.00000000E+00	 0.00000000E+00	 0.00000000E+00
	 0.00000000E+00	 0.00000000E+00	 0.00000000E+00

	 0.00000000E+00	 0.00000000E+00	 0.00000000E+00
	 0.00000000E+00	 0.00000000E+00	 0.00000000E+00
	 0.00000000E+00	 0.00000000E+00	 0.00000000E+00

	 0.00000000E+00	 0.00000000E+00	 0.00000000E+00
	 0.00000000E+00	 0.00000000E+00	 0.00000000E+00
	 0.00000000E+00	 0.00000000E+00	 0.00000000E+00

	 0.00000000E+00	 0.00000000E+00	 0.00000000E+00
	 0.00000000E+00	 0.00000000E+00	 0.00000000E+00
	 0.00000000E+00	 0.00000000E+00	 0.00000000E+00

	 0.00000000E+00	 0.00000000E+00	 0.00000000E+00
	 0.00000000E+00	 0.00000000E+00	 0.00000000E+00
	 0.00000000E+00	 0.00000000E+00	 0.00000000E+00

	 0.00000000E+00	 0.00000000E+00	 0.00000000E+00
	 0.00000000E+00	 0.00000000E+00	 0.00000000E+00
	 0.00000000E+00	 0.00000000E+00	 0.00000000E+00

	 0.00000000E+00	 0.00000000E+00	 0.00000000E+00
	 0.00000000E+00	 0.00000000E+00	 0.00000000E+00
	 0.00000000E+00	 0.00000000E+00	 0.00000000E+00

	 0.00000000E+00	 0.00000000E+00	 0.00000000E+00
	 0.00000000E+00	 0.00000000E+00	 0.00000000E+00
	 0.00000000E+00	 0.00000000E+00	 0.00000000E+00

	 0.00000000E+00	 0.00000000E+00	 0.00000000E+00
	 0.00000000E+00	 0.00000000E+00	 0.00000000E+00
	 0.00000000E+00	 0.00000000E+00	 0.00000000E+00

	 0.00000000E+00	 0.00000000E+00	 0.00000000E+00
	 0.00000000E+00	 0.00000000E+00	 0.00000000E+00
	 0.00000000E+00	 0.00000000E+00	 0.00000000E+00

	 0.00000000E+00	 0.00000000E+00	 0.00000000E+00
	 0.00000000E+00	 0.00000000E+00	 0.00000000E+00
	 0.00000000E+00	 0.00000000E+00	 0.00000000E+00

	 0.00000000E+00	 0.00000000E+00	 0.00000000E+00
	 0.00000000E+00	 0.00000000E+00	 0.00000000E+00
	 0.00000000E+00	 0.00000000E+00	 0.00000000E+00

	 0.00000000E+00	 0.00000000E+00	 0.00000000E+00
	 0.00000000E+00	 0.00000000E+00	 0.00000000E+00
	 0.00000000E+00	 0.00000000E+00	 0.00000000E+00

	 0.00000000E+00	 0.00000000E+00	 0.00000000E+00
	 0.00000000E+00	 0.00000000E+00	 0.00000000E+00
	 0.00000000E+00	 0.00000000E+00	 0.00000000E+00

	 0.00000000E+00	 0.00000000E+00	 0.00000000E+00
	 0.00000000E+00	 0.00000000E+00	 0.00000000E+00
	 0.00000000E+00	 0.00000000E+00	 0.00000000E+00

	 0.00000000E+00	 0.00000000E+00	 0.00000000E+00
	 0.00000000E+00	 0.00000000E+00	 0.00000000E+00
	 0.00000000E+00	 0.00000000E+00	 0.00000000E+00

	 0.00000000E+00	 0.00000000E+00	 0.00000000E+00
	 0.00000000E+00	 0.00000000E+00	 0.00000000E+00
	 0.00000000E+00	 0.00000000E+00	 0.00000000E+00

	 0.00000000E+00	 0.00000000E+00	 0.00000000E+00
	 0.00000000E+00	 0.00000000E+00	 0.00000000E+00
	 0.00000000E+00	 0.00000000E+00	 0.00000000E+00

	 0.00000000E+00	 0.00000000E+00	 0.00000000E+00
	 0.00000000E+00	 0.00000000E+00	 0.00000000E+00
	 0.00000000E+00	 0.00000000E+00	 0.00000000E+00

	 0.00000000E+00	 0.00000000E+00	 0.00000000E+00
	 0.00000000E+00	 0.00000000E+00	 0.00000000E+00
	 0.00000000E+00	 0.00000000E+00	 0.00000000E+00

	 0.00000000E+00	 0.00000000E+00	 0.00000000E+00
	 0.00000000E+00	 0.00000000E+00	 0.00000000E+00
	 0.00000000E+00	 0.00000000E+00	 0.00000000E+00

	 0.00000000E+00	 0.00000000E+00	 0.00000000E+00
	 0.00000000E+00	 0.00000000E+00	 0.00000000E+00
	 0.00000000E+00	 0.00000000E+00	 0.00000000E+00

	 0.00000000E+00	 0.00000000E+00	 0.00000000E+00
	 0.00000000E+00	 0.00000000E+00	 0.00000000E+00
	 0.00000000E+00	 0.00000000E+00	 0.00000000E+00

	 0.00000000E+00	 0.00000000E+00	 0.00000000E+00
	 0.00000000E+00	 0.00000000E+00	 0.00000000E+00
	 0.00000000E+00	 0.00000000E+00	 0.00000000E+00

	 0.00000000E+00	 0.00000000E+00	 0.00000000E+00
	 0.00000000E+00	 0.00000000E+00	 0.00000000E+00
	 0.00000000E+00	 0.00000000E+00	 0.00000000E+00

	 0.00000000E+00	 0.00000000E+00	 0.00000000E+00
	 0.00000000E+00	 0.00000000E+00	 0.00000000E+00
	 0.00000000E+00	 0.00000000E+00	 0.00000000E+00

	 0.00000000E+00	 0.00000000E+00	 0.00000000E+00
	 0.00000000E+00	 0.00000000E+00	 0.00000000E+00
	 0.00000000E+00	 0.00000000E+00	 0.00000000E+00

	 0.00000000E+00	 0.00000000E+00	 0.00000000E+00
	 0.00000000E+00	 0.00000000E+00	 0.00000000E+00
	 0.00000000E+00	 0.00000000E+00	 0.00000000E+00

	 0.00000000E+00	 0.00000000E+00	 0.00000000E+00
	 0.00000000E+00	 0.00000000E+00	 0.00000000E+00
	 0.00000000E+00	 0.00000000E+00	 0.00000000E+00

	 0.00000000E+00	 0.00000000E+00	 0.00000000E+00
	 0.00000000E+00	 0.00000000E+00	 0.00000000E+00
	 0.00000000E+00	 0.00000000E+00	 0.00000000E+00

	 0.00000000E+00	 0.00000000E+00	 0.00000000E+00
	 0.00000000E+00	 0.00000000E+00	 0.00000000E+00
	 0.00000000E+00	 0.00000000E+00	 0.00000000E+00

	 0.00000000E+00	 0.00000000E+00	 0.00000000E+00
	 0.00000000E+00	 0.00000000E+00	 0.00000000E+00
	 0.00000000E+00	 0.00000000E+00	 0.00000000E+00

	 0.00000000E+00	 0.00000000E+00	 0.00000000E+00
	 0.00000000E+00	 0.00000000E+00	 0.00000000E+00
	 0.00000000E+00	 0.00000000E+00	 0.00000000E+00

	 0.00000000E+00	 0.00000000E+00	 0.00000000E+00
	 0.00000000E+00	 0.00000000E+00	 0.00000000E+00
	 0.00000000E+00	 0.00000000E+00	 0.00000000E+00

	 0.00000000E+00	 0.00000000E+00	 0.00000000E+00
	 0.00000000E+00	 0.00000000E+00	 0.00000000E+00
	 0.00000000E+00	 0.00000000E+00	 0.00000000E+00

	 0.00000000E+00	 0.00000000E+00	 0.00000000E+00
	 0.00000000E+00	 0.00000000E+00	 0.00000000E+00
	 0.00000000E+00	 0.00000000E+00	 0.00000000E+00

	 0.00000000E+00	 0.00000000E+00	 0.00000000E+00
	 0.00000000E+00	 0.00000000E+00	 0.00000000E+00
	 0.00000000E+00	 0.00000000E+00	 0.00000000E+00

	 0.00000000E+00	 0.00000000E+00	 0.00000000E+00
	 0.00000000E+00	 0.00000000E+00	 0.00000000E+00
	 0.00000000E+00	 0.00000000E+00	 0.00000000E+00

	 0.00000000E+00	 0.00000000E+00	 0.00000000E+00
	 0.00000000E+00	 0.00000000E+00	 0.00000000E+00
	 0.00000000E+00	 0.00000000E+00	 0.00000000E+00

	 0.00000000E+00	 0.00000000E+00	 0.00000000E+00
	 0.00000000E+00	 0.00000000E+00	 0.00000000E+00
	 0.00000000E+00	 0.00000000E+00	 0.00000000E+00

	 0.00000000E+00	 0.00000000E+00	 0.00000000E+00
	 0.00000000E+00	 0.00000000E+00	 0.00000000E+00
	 0.00000000E+00	 0.00000000E+00	 0.00000000E+00

	 0.00000000E+00	 0.00000000E+00	 0.00000000E+00
	 0.00000000E+00	 0.00000000E+00	 0.00000000E+00
	 0.00000000E+00	 0.00000000E+00	 0.00000000E+00

	 0.00000000E+00	 0.00000000E+00	 0.00000000E+00
	 0.00000000E+00	 0.00000000E+00	 0.00000000E+00
	 0.00000000E+00	 0.00000000E+00	 0.00000000E+00

	 0.00000000E+00	 0.00000000E+00	 0.00000000E+00
	 0.00000000E+00	 0.00000000E+00	 0.00000000E+00
	 0.00000000E+00	 0.00000000E+00	 0.00000000E+00

	 0.00000000E+00	 0.00000000E+00	 0.00000000E+00
	 0.00000000E+00	 0.00000000E+00	 0.00000000E+00
	 0.00000000E+00	 0.00000000E+00	 0.00000000E+00

	 0.00000000E+00	 0.00000000E+00	 0.00000000E+00
	 0.00000000E+00	 0.00000000E+00	 0.00000000E+00
	 0.00000000E+00	 0.00000000E+00	 0.00000000E+00

	 0.00000000E+00	 0.00000000E+00	 0.00000000E+00
	 0.00000000E+00	 0.00000000E+00	 0.00000000E+00
	 0.00000000E+00	 0.00000000E+00	 0.00000000E+00

	 0.00000000E+00	 0.00000000E+00	 0.00000000E+00
	 0.00000000E+00	 0.00000000E+00	 0.00000000E+00
	 0.00000000E+00	 0.00000000E+00	 0.00000000E+00

	 0.00000000E+00	 0.00000000E+00	 0.00000000E+00
	 0.00000000E+00	 0.00000000E+00	 0.00000000E+00
	 0.00000000E+00	 0.00000000E+00	 0.00000000E+00

	 0.00000000E+00	 0.00000000E+00	 0.00000000E+00
	 0.00000000E+00	 0.00000000E+00	 0.00000000E+00
	 0.00000000E+00	 0.00000000E+00	 0.00000000E+00

	 0.00000000E+00	 0.00000000E+00	 0.00000000E+00
	 0.00000000E+00	 0.00000000E+00	 0.00000000E+00
	 0.00000000E+00	 0.00000000E+00	 0.00000000E+00

	 0.00000000E+00	 0.00000000E+00	 0.00000000E+00
	 0.00000000E+00	 0.00000000E+00	 0.00000000E+00
	 0.00000000E+00	 0.00000000E+00	 0.00000000E+00

	 0.00000000E+00	 0.00000000E+00	 0.00000000E+00
	 0.00000000E+00	 0.00000000E+00	 0.00000000E+00
	 0.00000000E+00	 0.00000000E+00	 0.00000000E+00

	 0.00000000E+00	 0.00000000E+00	 0.00000000E+00
	 0.00000000E+00	 0.00000000E+00	 0.00000000E+00
	 0.00000000E+00	 0.00000000E+00	 0.00000000E+00

	 0.00000000E+00	 0.00000000E+00	 0.00000000E+00
	 0.00000000E+00	 0.00000000E+00	 0.00000000E+00
	 0.00000000E+00	 0.00000000E+00	 0.00000000E+00

	 0.00000000E+00	 0.00000000E+00	 0.00000000E+00
	 0.00000000E+00	 0.00000000E+00	 0.00000000E+00
	 0.00000000E+00	 0.00000000E+00	 0.00000000E+00

	 0.00000000E+00	 0.00000000E+00	 0.00000000E+00
	 0.00000000E+00	 0.00000000E+00	 0.00000000E+00
	 0.00000000E+00	 0.00000000E+00	 0.00000000E+00

	 0.00000000E+00	 0.00000000E+00	 0.00000000E+00
	 0.00000000E+00	 0.00000000E+00	 0.00000000E+00
	 0.00000000E+00	 0.00000000E+00	 0.00000000E+00

	 0.00000000E+00	 0.00000000E+00	 0.00000000E+00
	 0.00000000E+00	 0.00000000E+00	 0.00000000E+00
	 0.00000000E+00	 0.00000000E+00	 0.00000000E+00

	 0.00000000E+00	 0.00000000E+00	 0.00000000E+00
	 0.00000000E+00	 0.00000000E+00	 0.00000000E+00
	 0.00000000E+00	 0.00000000E+00	 0.00000000E+00

	 0.00000000E+00	 0.00000000E+00	 0.00000000E+00
	 0.00000000E+00	 0.00000000E+00	 0.00000000E+00
	 0.00000000E+00	 0.00000000E+00	 0.00000000E+00

	 0.00000000E+00	 0.00000000E+00	 0.00000000E+00
	 0.00000000E+00	 0.00000000E+00	 0.00000000E+00
	 0.00000000E+00	 0.00000000E+00	 0.00000000E+00

	 0.00000000E+00	 0.00000000E+00	 0.00000000E+00
	 0.00000000E+00	 0.00000000E+00	 0.00000000E+00
	 0.00000000E+00	 0.00000000E+00	 0.00000000E+00

	 0.00000000E+00	 0.00000000E+00	 0.00000000E+00
	 0.00000000E+00	 0.00000000E+00	 0.00000000E+00
	 0.00000000E+00	 0.00000000E+00	 0.00000000E+00

	 0.00000000E+00	 0.00000000E+00	 0.00000000E+00
	 0.00000000E+00	 0.00000000E+00	 0.00000000E+00
	 0.00000000E+00	 0.00000000E+00	 0.00000000E+00

	 0.00000000E+00	 0.00000000E+00	 0.00000000E+00
	 0.00000000E+00	 0.00000000E+00	 0.00000000E+00
	 0.00000000E+00	 0.00000000E+00	 0.00000000E+00

	 0.00000000E+00	 0.00000000E+00	 0.00000000E+00
	 0.00000000E+00	 0.00000000E+00	 0.00000000E+00
	 0.00000000E+00	 0.00000000E+00	 0.00000000E+00

	 0.00000000E+00	 0.00000000E+00	 0.00000000E+00
	 0.00000000E+00	 0.00000000E+00	 0.00000000E+00
	 0.00000000E+00	 0.00000000E+00	 0.00000000E+00

	 0.00000000E+00	 0.00000000E+00	 0.00000000E+00
	 0.00000000E+00	 0.00000000E+00	 0.00000000E+00
	 0.00000000E+00	 0.00000000E+00	 0.00000000E+00

	 0.00000000E+00	 0.00000000E+00	 0.00000000E+00
	 0.00000000E+00	 0.00000000E+00	 0.00000000E+00
	 0.00000000E+00	 0.00000000E+00	 0.00000000E+00

	 0.00000000E+00	 0.00000000E+00	 0.00000000E+00
	 0.00000000E+00	 0.00000000E+00	 0.00000000E+00
	 0.00000000E+00	 0.00000000E+00	 0.00000000E+00

	 0.00000000E+00	 0.00000000E+00	 0.00000000E+00
	 0.00000000E+00	 0.00000000E+00	 0.00000000E+00
	 0.00000000E+00	 0.00000000E+00	 0.00000000E+00

	 0.00000000E+00	 0.00000000E+00	 0.00000000E+00
	 0.00000000E+00	 0.00000000E+00	 0.00000000E+00
	 0.00000000E+00	 0.00000000E+00	 0.00000000E+00

	 0.00000000E+00	 0.00000000E+00	 0.00000000E+00
	 0.00000000E+00	 0.00000000E+00	 0.00000000E+00
	 0.00000000E+00	 0.00000000E+00	 0.00000000E+00

	 0.00000000E+00	 0.00000000E+00	 0.00000000E+00
	 0.00000000E+00	 0.00000000E+00	 0.00000000E+00
	 0.00000000E+00	 0.00000000E+00	 0.00000000E+00

	 0.00000000E+00	 0.00000000E+00	 0.00000000E+00
	 0.00000000E+00	 0.00000000E+00	 0.00000000E+00
	 0.00000000E+00	 0.00000000E+00	 0.00000000E+00

	 0.00000000E+00	 0.00000000E+00	 0.00000000E+00
	 0.00000000E+00	 0.00000000E+00	 0.00000000E+00
	 0.00000000E+00	 0.00000000E+00	 0.00000000E+00

	 0.00000000E+00	 0.00000000E+00	 0.00000000E+00
	 0.00000000E+00	 0.00000000E+00	 0.00000000E+00
	 0.00000000E+00	 0.00000000E+00	 0.00000000E+00

	 0.00000000E+00	 0.00000000E+00	 0.00000000E+00
	 0.00000000E+00	 0.00000000E+00	 0.00000000E+00
	 0.00000000E+00	 0.00000000E+00	 0.00000000E+00

	 0.00000000E+00	 0.00000000E+00	 0.00000000E+00
	 0.00000000E+00	 0.00000000E+00	 0.00000000E+00
	 0.00000000E+00	 0.00000000E+00	 0.00000000E+00

	 0.00000000E+00	 0.00000000E+00	 0.00000000E+00
	 0.00000000E+00	 0.00000000E+00	 0.00000000E+00
	 0.00000000E+00	 0.00000000E+00	 0.00000000E+00

	 0.00000000E+00	 0.00000000E+00	 0.00000000E+00
	 0.00000000E+00	 0.00000000E+00	 0.00000000E+00
	 0.00000000E+00	 0.00000000E+00	 0.00000000E+00

	 0.00000000E+00	 0.00000000E+00	 0.00000000E+00
	 0.00000000E+00	 0.00000000E+00	 0.00000000E+00
	 0.00000000E+00	 0.00000000E+00	 0.00000000E+00

	 0.00000000E+00	 0.00000000E+00	 0.00000000E+00
	 0.00000000E+00	 0.00000000E+00	 0.00000000E+00
	 0.00000000E+00	 0.00000000E+00	 0.00000000E+00

	 0.00000000E+00	 0.00000000E+00	 0.00000000E+00
	 0.00000000E+00	 0.00000000E+00	 0.00000000E+00
	 0.00000000E+00	 0.00000000E+00	 0.00000000E+00

	 0.00000000E+00	 0.00000000E+00	 0.00000000E+00
	 0.00000000E+00	 0.00000000E+00	 0.00000000E+00
	 0.00000000E+00	 0.00000000E+00	 0.00000000E+00

	 0.00000000E+00	 0.00000000E+00	 0.00000000E+00
	 0.00000000E+00	 0.00000000E+00	 0.00000000E+00
	 0.00000000E+00	 0.00000000E+00	 0.00000000E+00

	 0.00000000E+00	 0.00000000E+00	 0.00000000E+00
	 0.00000000E+00	 0.00000000E+00	 0.00000000E+00
	 0.00000000E+00	 0.00000000E+00	 0.00000000E+00

	 0.00000000E+00	 0.00000000E+00	 0.00000000E+00
	 0.00000000E+00	 0.00000000E+00	 0.00000000E+00
	 0.00000000E+00	 0.00000000E+00	 0.00000000E+00

	 0.00000000E+00	 0.00000000E+00	 0.00000000E+00
	 0.00000000E+00	 0.00000000E+00	 0.00000000E+00
	 0.00000000E+00	 0.00000000E+00	 0.00000000E+00

	 0.00000000E+00	 0.00000000E+00	 0.00000000E+00
	 0.00000000E+00	 0.00000000E+00	 0.00000000E+00
	 0.00000000E+00	 0.00000000E+00	 0.00000000E+00

	 0.00000000E+00	 0.00000000E+00	 0.00000000E+00
	 0.00000000E+00	 0.00000000E+00	 0.00000000E+00
	 0.00000000E+00	 0.00000000E+00	 0.00000000E+00

	 0.00000000E+00	 0.00000000E+00	 0.00000000E+00
	 0.00000000E+00	 0.00000000E+00	 0.00000000E+00
	 0.00000000E+00	 0.00000000E+00	 0.00000000E+00

	 0.00000000E+00	 0.00000000E+00	 0.00000000E+00
	 0.00000000E+00	 0.00000000E+00	 0.00000000E+00
	 0.00000000E+00	 0.00000000E+00	 0.00000000E+00

	 0.00000000E+00	 0.00000000E+00	 0.00000000E+00
	 0.00000000E+00	 0.00000000E+00	 0.00000000E+00
	 0.00000000E+00	 0.00000000E+00	 0.00000000E+00

	 0.00000000E+00	 0.00000000E+00	 0.00000000E+00
	 0.00000000E+00	 0.00000000E+00	 0.00000000E+00
	 0.00000000E+00	 0.00000000E+00	 0.00000000E+00

	 0.00000000E+00	 0.00000000E+00	 0.00000000E+00
	 0.00000000E+00	 0.00000000E+00	 0.00000000E+00
	 0.00000000E+00	 0.00000000E+00	 0.00000000E+00

	 0.00000000E+00	 0.00000000E+00	 0.00000000E+00
	 0.00000000E+00	 0.00000000E+00	 0.00000000E+00
	 0.00000000E+00	 0.00000000E+00	 0.00000000E+00

	 0.00000000E+00	 0.00000000E+00	 0.00000000E+00
	 0.00000000E+00	 0.00000000E+00	 0.00000000E+00
	 0.00000000E+00	 0.00000000E+00	 0.00000000E+00

	 0.00000000E+00	 0.00000000E+00	 0.00000000E+00
	 0.00000000E+00	 0.00000000E+00	 0.00000000E+00
	 0.00000000E+00	 0.00000000E+00	 0.00000000E+00

	 0.00000000E+00	 0.00000000E+00	 0.00000000E+00
	 0.00000000E+00	 0.00000000E+00	 0.00000000E+00
	 0.00000000E+00	 0.00000000E+00	 0.00000000E+00

	 0.00000000E+00	 0.00000000E+00	 0.00000000E+00
	 0.00000000E+00	 0.00000000E+00	 0.00000000E+00
	 0.00000000E+00	 0.00000000E+00	 0.00000000E+00

	 0.00000000E+00	 0.00000000E+00	 0.00000000E+00
	 0.00000000E+00	 0.00000000E+00	 0.00000000E+00
	 0.00000000E+00	 0.00000000E+00	 0.00000000E+00

	 0.00000000E+00	 0.00000000E+00	 0.00000000E+00
	 0.00000000E+00	 0.00000000E+00	 0.00000000E+00
	 0.00000000E+00	 0.00000000E+00	 0.00000000E+00

	 0.00000000E+00	 0.00000000E+00	 0.00000000E+00
	 0.00000000E+00	 0.00000000E+00	 0.00000000E+00
	 0.00000000E+00	 0.00000000E+00	 0.00000000E+00

	 0.00000000E+00	 0.00000000E+00	 0.00000000E+00
	 0.00000000E+00	 0.00000000E+00	 0.00000000E+00
	 0.00000000E+00	 0.00000000E+00	 0.00000000E+00

	 0.00000000E+00	 0.00000000E+00	 0.00000000E+00
	 0.00000000E+00	 0.00000000E+00	 0.00000000E+00
	 0.00000000E+00	 0.00000000E+00	 0.00000000E+00

	 0.00000000E+00	 0.00000000E+00	 0.00000000E+00
	 0.00000000E+00	 0.00000000E+00	 0.00000000E+00
	 0.00000000E+00	 0.00000000E+00	 0.00000000E+00

	 0.00000000E+00	 0.00000000E+00	 0.00000000E+00
	 0.00000000E+00	 0.00000000E+00	 0.00000000E+00
	 0.00000000E+00	 0.00000000E+00	 0.00000000E+00

	 0.00000000E+00	 0.00000000E+00	 0.00000000E+00
	 0.00000000E+00	 0.00000000E+00	 0.00000000E+00
	 0.00000000E+00	 0.00000000E+00	 0.00000000E+00

	 0.00000000E+00	 0.00000000E+00	 0.00000000E+00
	 0.00000000E+00	 0.00000000E+00	 0.00000000E+00
	 0.00000000E+00	 0.00000000E+00	 0.00000000E+00

	 0.00000000E+00	 0.00000000E+00	 0.00000000E+00
	 0.00000000E+00	 0.00000000E+00	 0.00000000E+00
	 0.00000000E+00	 0.00000000E+00	 0.00000000E+00

	 0.00000000E+00	 0.00000000E+00	 0.00000000E+00
	 0.00000000E+00	 0.00000000E+00	 0.00000000E+00
	 0.00000000E+00	 0.00000000E+00	 0.00000000E+00

	 0.00000000E+00	 0.00000000E+00	 0.00000000E+00
	 0.00000000E+00	 0.00000000E+00	 0.00000000E+00
	 0.00000000E+00	 0.00000000E+00	 0.00000000E+00

	 0.00000000E+00	 0.00000000E+00	 0.00000000E+00
	 0.00000000E+00	 0.00000000E+00	 0.00000000E+00
	 0.00000000E+00	 0.00000000E+00	 0.00000000E+00

	 0.00000000E+00	 0.00000000E+00	 0.00000000E+00
	 0.00000000E+00	 0.00000000E+00	 0.00000000E+00
	 0.00000000E+00	 0.00000000E+00	 0.00000000E+00

	 0.00000000E+00	 0.00000000E+00	 0.00000000E+00
	 0.00000000E+00	 0.00000000E+00	 0.00000000E+00
	 0.00000000E+00	 0.00000000E+00	 0.00000000E+00

	 0.00000000E+00	 0.00000000E+00	 0.00000000E+00
	 0.00000000E+00	 0.00000000E+00	 0.00000000E+00
	 0.00000000E+00	 0.00000000E+00	 0.00000000E+00

	 0.00000000E+00	 0.00000000E+00	 0.00000000E+00
	 0.00000000E+00	 0.00000000E+00	 0.00000000E+00
	 0.00000000E+00	 0.00000000E+00	 0.00000000E+00

	 0.00000000E+00	 0.00000000E+00	 0.00000000E+00
	 0.00000000E+00	 0.00000000E+00	 0.00000000E+00
	 0.00000000E+00	 0.00000000E+00	 0.00000000E+00

	 0.00000000E+00	 0.00000000E+00	 0.00000000E+00
	 0.00000000E+00	 0.00000000E+00	 0.00000000E+00
	 0.00000000E+00	 0.00000000E+00	 0.00000000E+00

	 0.00000000E+00	 0.00000000E+00	 0.00000000E+00
	 0.00000000E+00	 0.00000000E+00	 0.00000000E+00
	 0.00000000E+00	 0.00000000E+00	 0.00000000E+00

	 0.00000000E+00	 0.00000000E+00	 0.00000000E+00
	 0.00000000E+00	 0.00000000E+00	 0.00000000E+00
	 0.00000000E+00	 0.00000000E+00	 0.00000000E+00

	 0.00000000E+00	 0.00000000E+00	 0.00000000E+00
	 0.00000000E+00	 0.00000000E+00	 0.00000000E+00
	 0.00000000E+00	 0.00000000E+00	 0.00000000E+00

	 0.00000000E+00	 0.00000000E+00	 0.00000000E+00
	 0.00000000E+00	 0.00000000E+00	 0.00000000E+00
	 0.00000000E+00	 0.00000000E+00	 0.00000000E+00

	 0.00000000E+00	 0.00000000E+00	 0.00000000E+00
	 0.00000000E+00	 0.00000000E+00	 0.00000000E+00
	 0.00000000E+00	 0.00000000E+00	 0.00000000E+00

	 0.00000000E+00	 0.00000000E+00	 0.00000000E+00
	 0.00000000E+00	 0.00000000E+00	 0.00000000E+00
	 0.00000000E+00	 0.00000000E+00	 0.00000000E+00

	 0.00000000E+00	 0.00000000E+00	 0.00000000E+00
	 0.00000000E+00	 0.00000000E+00	 0.00000000E+00
	 0.00000000E+00	 0.00000000E+00	 0.00000000E+00

	 0.00000000E+00	 0.00000000E+00	 0.00000000E+00
	 0.00000000E+00	 0.00000000E+00	 0.00000000E+00
	 0.00000000E+00	 0.00000000E+00	 0.00000000E+00

	 0.00000000E+00	 0.00000000E+00	 0.00000000E+00
	 0.00000000E+00	 0.00000000E+00	 0.00000000E+00
	 0.00000000E+00	 0.00000000E+00	 0.00000000E+00

	 0.00000000E+00	 0.00000000E+00	 0.00000000E+00
	 0.00000000E+00	 0.00000000E+00	 0.00000000E+00
	 0.00000000E+00	 0.00000000E+00	 0.00000000E+00

	 0.00000000E+00	 0.00000000E+00	 0.00000000E+00
	 0.00000000E+00	 0.00000000E+00	 0.00000000E+00
	 0.00000000E+00	 0.00000000E+00	 0.00000000E+00

	 0.00000000E+00	 0.00000000E+00	 0.00000000E+00
	 0.00000000E+00	 0.00000000E+00	 0.00000000E+00
	 0.00000000E+00	 0.00000000E+00	 0.00000000E+00

	 0.00000000E+00	 0.00000000E+00	 0.00000000E+00
	 0.00000000E+00	 0.00000000E+00	 0.00000000E+00
	 0.00000000E+00	 0.00000000E+00	 0.00000000E+00

	 0.00000000E+00	 0.00000000E+00	 0.00000000E+00
	 0.00000000E+00	 0.00000000E+00	 0.00000000E+00
	 0.00000000E+00	 0.00000000E+00	 0.00000000E+00

	 0.00000000E+00	 0.00000000E+00	 0.00000000E+00
	 0.00000000E+00	 0.00000000E+00	 0.00000000E+00
	 0.00000000E+00	 0.00000000E+00	 0.00000000E+00

	 0.00000000E+00	 0.00000000E+00	 0.00000000E+00
	 0.00000000E+00	 0.00000000E+00	 0.00000000E+00
	 0.00000000E+00	 0.00000000E+00	 0.00000000E+00

	 0.00000000E+00	 0.00000000E+00	 0.00000000E+00
	 0.00000000E+00	 0.00000000E+00	 0.00000000E+00
	 0.00000000E+00	 0.00000000E+00	 0.00000000E+00

	 0.00000000E+00	 0.00000000E+00	 0.00000000E+00
	 0.00000000E+00	 0.00000000E+00	 0.00000000E+00
	 0.00000000E+00	 0.00000000E+00	 0.00000000E+00

	 0.00000000E+00	 0.00000000E+00	 0.00000000E+00
	 0.00000000E+00	 0.00000000E+00	 0.00000000E+00
	 0.00000000E+00	 0.00000000E+00	 0.00000000E+00

	 0.00000000E+00	 0.00000000E+00	 0.00000000E+00
	 0.00000000E+00	 0.00000000E+00	 0.00000000E+00
	 0.00000000E+00	 0.00000000E+00	 0.00000000E+00

	 0.00000000E+00	 0.00000000E+00	 0.00000000E+00
	 0.00000000E+00	 0.00000000E+00	 0.00000000E+00
	 0.00000000E+00	 0.00000000E+00	 0.00000000E+00

	 0.00000000E+00	 0.00000000E+00	 0.00000000E+00
	 0.00000000E+00	 0.00000000E+00	 0.00000000E+00
	 0.00000000E+00	 0.00000000E+00	 0.00000000E+00

	 0.00000000E+00	 0.00000000E+00	 0.00000000E+00
	 0.00000000E+00	 0.00000000E+00	 0.00000000E+00
	 0.00000000E+00	 0.00000000E+00	 0.00000000E+00

	 0.00000000E+00	 0.00000000E+00	 0.00000000E+00
	 0.00000000E+00	 0.00000000E+00	 0.00000000E+00
	 0.00000000E+00	 0.00000000E+00	 0.00000000E+00

	 0.00000000E+00	 0.00000000E+00	 0.00000000E+00
	 0.00000000E+00	 0.00000000E+00	 0.00000000E+00
	 0.00000000E+00	 0.00000000E+00	 0.00000000E+00

	 0.00000000E+00	 0.00000000E+00	 0.00000000E+00
	 0.00000000E+00	 0.00000000E+00	 0.00000000E+00
	 0.00000000E+00	 0.00000000E+00	 0.00000000E+00

	 0.00000000E+00	 0.00000000E+00	 0.00000000E+00
	 0.00000000E+00	 0.00000000E+00	 0.00000000E+00
	 0.00000000E+00	 0.00000000E+00	 0.00000000E+00

	 0.00000000E+00	 0.00000000E+00	 0.00000000E+00
	 0.00000000E+00	 0.00000000E+00	 0.00000000E+00
	 0.00000000E+00	 0.00000000E+00	 0.00000000E+00

	 0.00000000E+00	 0.00000000E+00	 0.00000000E+00
	 0.00000000E+00	 0.00000000E+00	 0.00000000E+00
	 0.00000000E+00	 0.00000000E+00	 0.00000000E+00

	 0.00000000E+00	 0.00000000E+00	 0.00000000E+00
	 0.00000000E+00	 0.00000000E+00	 0.00000000E+00
	 0.00000000E+00	 0.00000000E+00	 0.00000000E+00

	 0.00000000E+00	 0.00000000E+00	 0.00000000E+00
	 0.00000000E+00	 0.00000000E+00	 0.00000000E+00
	 0.00000000E+00	 0.00000000E+00	 0.00000000E+00

	 0.00000000E+00	 0.00000000E+00	 0.00000000E+00
	 0.00000000E+00	 0.00000000E+00	 0.00000000E+00
	 0.00000000E+00	 0.00000000E+00	 0.00000000E+00

	 0.00000000E+00	 0.00000000E+00	 0.00000000E+00
	 0.00000000E+00	 0.00000000E+00	 0.00000000E+00
	 0.00000000E+00	 0.00000000E+00	 0.00000000E+00

	 0.00000000E+00	 0.00000000E+00	 0.00000000E+00
	 0.00000000E+00	 0.00000000E+00	 0.00000000E+00
	 0.00000000E+00	 0.00000000E+00	 0.00000000E+00

	 0.00000000E+00	 0.00000000E+00	 0.00000000E+00
	 0.00000000E+00	 0.00000000E+00	 0.00000000E+00
	 0.00000000E+00	 0.00000000E+00	 0.00000000E+00

	 0.00000000E+00	 0.00000000E+00	 0.00000000E+00
	 0.00000000E+00	 0.00000000E+00	 0.00000000E+00
	 0.00000000E+00	 0.00000000E+00	 0.00000000E+00

	 0.00000000E+00	 0.00000000E+00	 0.00000000E+00
	 0.00000000E+00	 0.00000000E+00	 0.00000000E+00
	 0.00000000E+00	 0.00000000E+00	 0.00000000E+00

	 0.00000000E+00	 0.00000000E+00	 0.00000000E+00
	 0.00000000E+00	 0.00000000E+00	 0.00000000E+00
	 0.00000000E+00	 0.00000000E+00	 0.00000000E+00

	 0.00000000E+00	 0.00000000E+00	 0.00000000E+00
	 0.00000000E+00	 0.00000000E+00	 0.00000000E+00
	 0.00000000E+00	 0.00000000E+00	 0.00000000E+00

	 0.00000000E+00	 0.00000000E+00	 0.00000000E+00
	 0.00000000E+00	 0.00000000E+00	 0.00000000E+00
	 0.00000000E+00	 0.00000000E+00	 0.00000000E+00

	 0.00000000E+00	 0.00000000E+00	 0.00000000E+00
	 0.00000000E+00	 0.00000000E+00	 0.00000000E+00
	 0.00000000E+00	 0.00000000E+00	 0.00000000E+00

	 0.00000000E+00	 0.00000000E+00	 0.00000000E+00
	 0.00000000E+00	 0.00000000E+00	 0.00000000E+00
	 0.00000000E+00	 0.00000000E+00	 0.00000000E+00

	 0.00000000E+00	 0.00000000E+00	 0.00000000E+00
	 0.00000000E+00	 0.00000000E+00	 0.00000000E+00
	 0.00000000E+00	 0.00000000E+00	 0.00000000E+00

	 0.00000000E+00	 0.00000000E+00	 0.00000000E+00
	 0.00000000E+00	 0.00000000E+00	 0.00000000E+00
	 0.00000000E+00	 0.00000000E+00	 0.00000000E+00

	 0.00000000E+00	 0.00000000E+00	 0.00000000E+00
	 0.00000000E+00	 0.00000000E+00	 0.00000000E+00
	 0.00000000E+00	 0.00000000E+00	 0.00000000E+00

	 0.00000000E+00	 0.00000000E+00	 0.00000000E+00
	 0.00000000E+00	 0.00000000E+00	 0.00000000E+00
	 0.00000000E+00	 0.00000000E+00	 0.00000000E+00

	 0.00000000E+00	 0.00000000E+00	 0.00000000E+00
	 0.00000000E+00	 0.00000000E+00	 0.00000000E+00
	 0.00000000E+00	 0.00000000E+00	 0.00000000E+00

	 0.00000000E+00	 0.00000000E+00	 0.00000000E+00
	 0.00000000E+00	 0.00000000E+00	 0.00000000E+00
	 0.00000000E+00	 0.00000000E+00	 0.00000000E+00

	 0.00000000E+00	 0.00000000E+00	 0.00000000E+00
	 0.00000000E+00	 0.00000000E+00	 0.00000000E+00
	 0.00000000E+00	 0.00000000E+00	 0.00000000E+00

	 0.00000000E+00	 0.00000000E+00	 0.00000000E+00
	 0.00000000E+00	 0.00000000E+00	 0.00000000E+00
	 0.00000000E+00	 0.00000000E+00	 0.00000000E+00

	 0.00000000E+00	 0.00000000E+00	 0.00000000E+00
	 0.00000000E+00	 0.00000000E+00	 0.00000000E+00
	 0.00000000E+00	 0.00000000E+00	 0.00000000E+00

	 0.00000000E+00	 0.00000000E+00	 0.00000000E+00
	 0.00000000E+00	 0.00000000E+00	 0.00000000E+00
	 0.00000000E+00	 0.00000000E+00	 0.00000000E+00

	 0.00000000E+00	 0.00000000E+00	 0.00000000E+00
	 0.00000000E+00	 0.00000000E+00	 0.00000000E+00
	 0.00000000E+00	 0.00000000E+00	 0.00000000E+00

	 0.00000000E+00	 0.00000000E+00	 0.00000000E+00
	 0.00000000E+00	 0.00000000E+00	 0.00000000E+00
	 0.00000000E+00	 0.00000000E+00	 0.00000000E+00

	 0.00000000E+00	 0.00000000E+00	 0.00000000E+00
	 0.00000000E+00	 0.00000000E+00	 0.00000000E+00
	 0.00000000E+00	 0.00000000E+00	 0.00000000E+00

	 0.00000000E+00	 0.00000000E+00	 0.00000000E+00
	 0.00000000E+00	 0.00000000E+00	 0.00000000E+00
	 0.00000000E+00	 0.00000000E+00	 0.00000000E+00

	 0.00000000E+00	 0.00000000E+00	 0.00000000E+00
	 0.00000000E+00	 0.00000000E+00	 0.00000000E+00
	 0.00000000E+00	 0.00000000E+00	 0.00000000E+00

	 0.00000000E+00	 0.00000000E+00	 0.00000000E+00
	 0.00000000E+00	 0.00000000E+00	 0.00000000E+00
	 0.00000000E+00	 0.00000000E+00	 0.00000000E+00

	 0.00000000E+00	 0.00000000E+00	 0.00000000E+00
	 0.00000000E+00	 0.00000000E+00	 0.00000000E+00
	 0.00000000E+00	 0.00000000E+00	 0.00000000E+00

	 0.00000000E+00	 0.00000000E+00	 0.00000000E+00
	 0.00000000E+00	 0.00000000E+00	 0.00000000E+00
	 0.00000000E+00	 0.00000000E+00	 0.00000000E+00

	 0.00000000E+00	 0.00000000E+00	 0.00000000E+00
	 0.00000000E+00	 0.00000000E+00	 0.00000000E+00
	 0.00000000E+00	 0.00000000E+00	 0.00000000E+00

	 0.00000000E+00	 0.00000000E+00	 0.00000000E+00
	 0.00000000E+00	 0.00000000E+00	 0.00000000E+00
	 0.00000000E+00	 0.00000000E+00	 0.00000000E+00

	 0.00000000E+00	 0.00000000E+00	 0.00000000E+00
	 0.00000000E+00	 0.00000000E+00	 0.00000000E+00
	 0.00000000E+00	 0.00000000E+00	 0.00000000E+00

	 0.00000000E+00	 0.00000000E+00	 0.00000000E+00
	 0.00000000E+00	 0.00000000E+00	 0.00000000E+00
	 0.00000000E+00	 0.00000000E+00	 0.00000000E+00

	 0.00000000E+00	 0.00000000E+00	 0.00000000E+00
	 0.00000000E+00	 0.00000000E+00	 0.00000000E+00
	 0.00000000E+00	 0.00000000E+00	 0.00000000E+00

	 0.00000000E+00	 0.00000000E+00	 0.00000000E+00
	 0.00000000E+00	 0.00000000E+00	 0.00000000E+00
	 0.00000000E+00	 0.00000000E+00	 0.00000000E+00

	 0.00000000E+00	 0.00000000E+00	 0.00000000E+00
	 0.00000000E+00	 0.00000000E+00	 0.00000000E+00
	 0.00000000E+00	 0.00000000E+00	 0.00000000E+00

	 0.00000000E+00	 0.00000000E+00	 0.00000000E+00
	 0.00000000E+00	 0.00000000E+00	 0.00000000E+00
	 0.00000000E+00	 0.00000000E+00	 0.00000000E+00

	 0.00000000E+00	 0.00000000E+00	 0.00000000E+00
	 0.00000000E+00	 0.00000000E+00	 0.00000000E+00
	 0.00000000E+00	 0.00000000E+00	 0.00000000E+00

	 0.00000000E+00	 0.00000000E+00	 0.00000000E+00
	 0.00000000E+00	 0.00000000E+00	 0.00000000E+00
	 0.00000000E+00	 0.00000000E+00	 0.00000000E+00

	 0.00000000E+00	 0.00000000E+00	 0.00000000E+00
	 0.00000000E+00	 0.00000000E+00	 0.00000000E+00
	 0.00000000E+00	 0.00000000E+00	 0.00000000E+00

	 0.00000000E+00	 0.00000000E+00	 0.00000000E+00
	 0.00000000E+00	 0.00000000E+00	 0.00000000E+00
	 0.00000000E+00	 0.00000000E+00	 0.00000000E+00

	 0.00000000E+00	 0.00000000E+00	 0.00000000E+00
	 0.00000000E+00	 0.00000000E+00	 0.00000000E+00
	 0.00000000E+00	 0.00000000E+00	 0.00000000E+00

	 0.00000000E+00	 0.00000000E+00	 0.00000000E+00
	 0.00000000E+00	 0.00000000E+00	 0.00000000E+00
	 0.00000000E+00	 0.00000000E+00	 0.00000000E+00

	 0.00000000E+00	 0.00000000E+00	 0.00000000E+00
	 0.00000000E+00	 0.00000000E+00	 0.00000000E+00
	 0.00000000E+00	 0.00000000E+00	 0.00000000E+00

	 0.00000000E+00	 0.00000000E+00	 0.00000000E+00
	 0.00000000E+00	 0.00000000E+00	 0.00000000E+00
	 0.00000000E+00	 0.00000000E+00	 0.00000000E+00

	 0.00000000E+00	 0.00000000E+00	 0.00000000E+00
	 0.00000000E+00	 0.00000000E+00	 0.00000000E+00
	 0.00000000E+00	 0.00000000E+00	 0.00000000E+00

	 0.00000000E+00	 0.00000000E+00	 0.00000000E+00
	 0.00000000E+00	 0.00000000E+00	 0.00000000E+00
	 0.00000000E+00	 0.00000000E+00	 0.00000000E+00

	 0.00000000E+00	 0.00000000E+00	 0.00000000E+00
	 0.00000000E+00	 0.00000000E+00	 0.00000000E+00
	 0.00000000E+00	 0.00000000E+00	 0.00000000E+00

	 0.00000000E+00	 0.00000000E+00	 0.00000000E+00
	 0.00000000E+00	 0.00000000E+00	 0.00000000E+00
	 0.00000000E+00	 0.00000000E+00	 0.00000000E+00

	 0.00000000E+00	 0.00000000E+00	 0.00000000E+00
	 0.00000000E+00	 0.00000000E+00	 0.00000000E+00
	 0.00000000E+00	 0.00000000E+00	 0.00000000E+00

	 0.00000000E+00	 0.00000000E+00	 0.00000000E+00
	 0.00000000E+00	 0.00000000E+00	 0.00000000E+00
	 0.00000000E+00	 0.00000000E+00	 0.00000000E+00

	 0.00000000E+00	 0.00000000E+00	 0.00000000E+00
	 0.00000000E+00	 0.00000000E+00	 0.00000000E+00
	 0.00000000E+00	 0.00000000E+00	 0.00000000E+00

	 0.00000000E+00	 0.00000000E+00	 0.00000000E+00
	 0.00000000E+00	 0.00000000E+00	 0.00000000E+00
	 0.00000000E+00	 0.00000000E+00	 0.00000000E+00

	 0.00000000E+00	 0.00000000E+00	 0.00000000E+00
	 0.00000000E+00	 0.00000000E+00	 0.00000000E+00
	 0.00000000E+00	 0.00000000E+00	 0.00000000E+00

	 0.00000000E+00	 0.00000000E+00	 0.00000000E+00
	 0.00000000E+00	 0.00000000E+00	 0.00000000E+00
	 0.00000000E+00	 0.00000000E+00	 0.00000000E+00

	 0.00000000E+00	 0.00000000E+00	 0.00000000E+00
	 0.00000000E+00	 0.00000000E+00	 0.00000000E+00
	 0.00000000E+00	 0.00000000E+00	 0.00000000E+00

	 0.00000000E+00	 0.00000000E+00	 0.00000000E+00
	 0.00000000E+00	 0.00000000E+00	 0.00000000E+00
	 0.00000000E+00	 0.00000000E+00	 0.00000000E+00

	 0.00000000E+00	 0.00000000E+00	 0.00000000E+00
	 0.00000000E+00	 0.00000000E+00	 0.00000000E+00
	 0.00000000E+00	 0.00000000E+00	 0.00000000E+00

	 0.00000000E+00	 0.00000000E+00	 0.00000000E+00
	 0.00000000E+00	 0.00000000E+00	 0.00000000E+00
	 0.00000000E+00	 0.00000000E+00	 0.00000000E+00

	 0.00000000E+00	 0.00000000E+00	 0.00000000E+00
	 0.00000000E+00	 0.00000000E+00	 0.00000000E+00
	 0.00000000E+00	 0.00000000E+00	 0.00000000E+00

	 0.00000000E+00	 0.00000000E+00	 0.00000000E+00
	 0.00000000E+00	 0.00000000E+00	 0.00000000E+00
	 0.00000000E+00	 0.00000000E+00	 0.00000000E+00

	 0.00000000E+00	 0.00000000E+00	 0.00000000E+00
	 0.00000000E+00	 0.00000000E+00	 0.00000000E+00
	 0.00000000E+00	 0.00000000E+00	 0.00000000E+00

	 0.00000000E+00	 0.00000000E+00	 0.00000000E+00
	 0.00000000E+00	 0.00000000E+00	 0.00000000E+00
	 0.00000000E+00	 0.00000000E+00	 0.00000000E+00

	 0.00000000E+00	 0.00000000E+00	 0.00000000E+00
	 0.00000000E+00	 0.00000000E+00	 0.00000000E+00
	 0.00000000E+00	 0.00000000E+00	 0.00000000E+00

	 0.00000000E+00	 0.00000000E+00	 0.00000000E+00
	 0.00000000E+00	 0.00000000E+00	 0.00000000E+00
	 0.00000000E+00	 0.00000000E+00	 0.00000000E+00

	 0.00000000E+00	 0.00000000E+00	 0.00000000E+00
	 0.00000000E+00	 0.00000000E+00	 0.00000000E+00
	 0.00000000E+00	 0.00000000E+00	 0.00000000E+00

	 0.00000000E+00	 0.00000000E+00	 0.00000000E+00
	 0.00000000E+00	 0.00000000E+00	 0.00000000E+00
	 0.00000000E+00	 0.00000000E+00	 0.00000000E+00

	 0.00000000E+00	 0.00000000E+00	 0.00000000E+00
	 0.00000000E+00	 0.00000000E+00	 0.00000000E+00
	 0.00000000E+00	 0.00000000E+00	 0.00000000E+00

	 0.00000000E+00	 0.00000000E+00	 0.00000000E+00
	 0.00000000E+00	 0.00000000E+00	 0.00000000E+00
	 0.00000000E+00	 0.00000000E+00	 0.00000000E+00

	 0.00000000E+00	 0.00000000E+00	 0.00000000E+00
	 0.00000000E+00	 0.00000000E+00	 0.00000000E+00
	 0.00000000E+00	 0.00000000E+00	 0.00000000E+00

	 0.00000000E+00	 0.00000000E+00	 0.00000000E+00
	 0.00000000E+00	 0.00000000E+00	 0.00000000E+00
	 0.00000000E+00	 0.00000000E+00	 0.00000000E+00

	 0.00000000E+00	 0.00000000E+00	 0.00000000E+00
	 0.00000000E+00	 0.00000000E+00	 0.00000000E+00
	 0.00000000E+00	 0.00000000E+00	 0.00000000E+00

	 0.00000000E+00	 0.00000000E+00	 0.00000000E+00
	 0.00000000E+00	 0.00000000E+00	 0.00000000E+00
	 0.00000000E+00	 0.00000000E+00	 0.00000000E+00

	 0.00000000E+00	 0.00000000E+00	 0.00000000E+00
	 0.00000000E+00	 0.00000000E+00	 0.00000000E+00
	 0.00000000E+00	 0.00000000E+00	 0.00000000E+00

	 0.00000000E+00	 0.00000000E+00	 0.00000000E+00
	 0.00000000E+00	 0.00000000E+00	 0.00000000E+00
	 0.00000000E+00	 0.00000000E+00	 0.00000000E+00

	 0.00000000E+00	 0.00000000E+00	 0.00000000E+00
	 0.00000000E+00	 0.00000000E+00	 0.00000000E+00
	 0.00000000E+00	 0.00000000E+00	 0.00000000E+00

	 0.00000000E+00	 0.00000000E+00	 0.00000000E+00
	 0.00000000E+00	 0.00000000E+00	 0.00000000E+00
	 0.00000000E+00	 0.00000000E+00	 0.00000000E+00

	 0.00000000E+00	 0.00000000E+00	 0.00000000E+00
	 0.00000000E+00	 0.00000000E+00	 0.00000000E+00
	 0.00000000E+00	 0.00000000E+00	 0.00000000E+00

	 0.00000000E+00	 0.00000000E+00	 0.00000000E+00
	 0.00000000E+00	 0.00000000E+00	 0.00000000E+00
	 0.00000000E+00	 0.00000000E+00	 0.00000000E+00

	 0.00000000E+00	 0.00000000E+00	 0.00000000E+00
	 0.00000000E+00	 0.00000000E+00	 0.00000000E+00
	 0.00000000E+00	 0.00000000E+00	 0.00000000E+00

	 0.00000000E+00	 0.00000000E+00	 0.00000000E+00
	 0.00000000E+00	 0.00000000E+00	 0.00000000E+00
	 0.00000000E+00	 0.00000000E+00	 0.00000000E+00

	 0.00000000E+00	 0.00000000E+00	 0.00000000E+00
	 0.00000000E+00	 0.00000000E+00	 0.00000000E+00
	 0.00000000E+00	 0.00000000E+00	 0.00000000E+00

	 0.00000000E+00	 0.00000000E+00	 0.00000000E+00
	 0.00000000E+00	 0.00000000E+00	 0.00000000E+00
	 0.00000000E+00	 0.00000000E+00	 0.00000000E+00

	 0.00000000E+00	 0.00000000E+00	 0.00000000E+00
	 0.00000000E+00	 0.00000000E+00	 0.00000000E+00
	 0.00000000E+00	 0.00000000E+00	 0.00000000E+00

	 0.00000000E+00	 0.00000000E+00	 0.00000000E+00
	 0.00000000E+00	 0.00000000E+00	 0.00000000E+00
	 0.00000000E+00	 0.00000000E+00	 0.00000000E+00

	 0.00000000E+00	 0.00000000E+00	 0.00000000E+00
	 0.00000000E+00	 0.00000000E+00	 0.00000000E+00
	 0.00000000E+00	 0.00000000E+00	 0.00000000E+00

	 0.00000000E+00	 0.00000000E+00	 0.00000000E+00
	 0.00000000E+00	 0.00000000E+00	 0.00000000E+00
	 0.00000000E+00	 0.00000000E+00	 0.00000000E+00

	 0.00000000E+00	 0.00000000E+00	 0.00000000E+00
	 0.00000000E+00	 0.00000000E+00	 0.00000000E+00
	 0.00000000E+00	 0.00000000E+00	 0.00000000E+00

	 0.00000000E+00	 0.00000000E+00	 0.00000000E+00
	 0.00000000E+00	 0.00000000E+00	 0.00000000E+00
	 0.00000000E+00	 0.00000000E+00	 0.00000000E+00

	 0.00000000E+00	 0.00000000E+00	 0.00000000E+00
	 0.00000000E+00	 0.00000000E+00	 0.00000000E+00
	 0.00000000E+00	 0.00000000E+00	 0.00000000E+00

	 0.00000000E+00	 0.00000000E+00	 0.00000000E+00
	 0.00000000E+00	 0.00000000E+00	 0.00000000E+00
	 0.00000000E+00	 0.00000000E+00	 0.00000000E+00

	 0.00000000E+00	 0.00000000E+00	 0.00000000E+00
	 0.00000000E+00	 0.00000000E+00	 0.00000000E+00
	 0.00000000E+00	 0.00000000E+00	 0.00000000E+00

	 0.00000000E+00	 0.00000000E+00	 0.00000000E+00
	 0.00000000E+00	 0.00000000E+00	 0.00000000E+00
	 0.00000000E+00	 0.00000000E+00	 0.00000000E+00

	 0.00000000E+00	 0.00000000E+00	 0.00000000E+00
	 0.00000000E+00	 0.00000000E+00	 0.00000000E+00
	 0.00000000E+00	 0.00000000E+00	 0.00000000E+00

	 0.00000000E+00	 0.00000000E+00	 0.00000000E+00
	 0.00000000E+00	 0.00000000E+00	 0.00000000E+00
	 0.00000000E+00	 0.00000000E+00	 0.00000000E+00

	 0.00000000E+00	 0.00000000E+00	 0.00000000E+00
	 0.00000000E+00	 0.00000000E+00	 0.00000000E+00
	 0.00000000E+00	 0.00000000E+00	 0.00000000E+00

	 0.00000000E+00	 0.00000000E+00	 0.00000000E+00
	 0.00000000E+00	 0.00000000E+00	 0.00000000E+00
	 0.00000000E+00	 0.00000000E+00	 0.00000000E+00

	 0.00000000E+00	 0.00000000E+00	 0.00000000E+00
	 0.00000000E+00	 0.00000000E+00	 0.00000000E+00
	 0.00000000E+00	 0.00000000E+00	 0.00000000E+00

	 0.00000000E+00	 0.00000000E+00	 0.00000000E+00
	 0.00000000E+00	 0.00000000E+00	 0.00000000E+00
	 0.00000000E+00	 0.00000000E+00	 0.00000000E+00

	 0.00000000E+00	 0.00000000E+00	 0.00000000E+00
	 0.00000000E+00	 0.00000000E+00	 0.00000000E+00
	 0.00000000E+00	 0.00000000E+00	 0.00000000E+00

	 0.00000000E+00	 0.00000000E+00	 0.00000000E+00
	 0.00000000E+00	 0.00000000E+00	 0.00000000E+00
	 0.00000000E+00	 0.00000000E+00	 0.00000000E+00

	 0.00000000E+00	 0.00000000E+00	 0.00000000E+00
	 0.00000000E+00	 0.00000000E+00	 0.00000000E+00
	 0.00000000E+00	 0.00000000E+00	 0.00000000E+00

	 0.00000000E+00	 0.00000000E+00	 0.00000000E+00
	 0.00000000E+00	 0.00000000E+00	 0.00000000E+00
	 0.00000000E+00	 0.00000000E+00	 0.00000000E+00

	 0.00000000E+00	 0.00000000E+00	 0.00000000E+00
	 0.00000000E+00	 0.00000000E+00	 0.00000000E+00
	 0.00000000E+00	 0.00000000E+00	 0.00000000E+00

	 0.00000000E+00	 0.00000000E+00	 0.00000000E+00
	 0.00000000E+00	 0.00000000E+00	 0.00000000E+00
	 0.00000000E+00	 0.00000000E+00	 0.00000000E+00

	 0.00000000E+00	 0.00000000E+00	 0.00000000E+00
	 0.00000000E+00	 0.00000000E+00	 0.00000000E+00
	 0.00000000E+00	 0.00000000E+00	 0.00000000E+00

	 0.00000000E+00	 0.00000000E+00	 0.00000000E+00
	 0.00000000E+00	 0.00000000E+00	 0.00000000E+00
	 0.00000000E+00	 0.00000000E+00	 0.00000000E+00

	 0.00000000E+00	 0.00000000E+00	 0.00000000E+00
	 0.00000000E+00	 0.00000000E+00	 0.00000000E+00
	 0.00000000E+00	 0.00000000E+00	 0.00000000E+00

	 0.00000000E+00	 0.00000000E+00	 0.00000000E+00
	 0.00000000E+00	 0.00000000E+00	 0.00000000E+00
	 0.00000000E+00	 0.00000000E+00	 0.00000000E+00

	 0.00000000E+00	 0.00000000E+00	 0.00000000E+00
	 0.00000000E+00	 0.00000000E+00	 0.00000000E+00
	 0.00000000E+00	 0.00000000E+00	 0.00000000E+00

	 0.00000000E+00	 0.00000000E+00	 0.00000000E+00
	 0.00000000E+00	 0.00000000E+00	 0.00000000E+00
	 0.00000000E+00	 0.00000000E+00	 0.00000000E+00

	 0.00000000E+00	 0.00000000E+00	 0.00000000E+00
	 0.00000000E+00	 0.00000000E+00	 0.00000000E+00
	 0.00000000E+00	 0.00000000E+00	 0.00000000E+00

	 0.00000000E+00	 0.00000000E+00	 0.00000000E+00
	 0.00000000E+00	 0.00000000E+00	 0.00000000E+00
	 0.00000000E+00	 0.00000000E+00	 0.00000000E+00

	 0.00000000E+00	 0.00000000E+00	 0.00000000E+00
	 0.00000000E+00	 0.00000000E+00	 0.00000000E+00
	 0.00000000E+00	 0.00000000E+00	 0.00000000E+00

	 0.00000000E+00	 0.00000000E+00	 0.00000000E+00
	 0.00000000E+00	 0.00000000E+00	 0.00000000E+00
	 0.00000000E+00	 0.00000000E+00	 0.00000000E+00

	 0.00000000E+00	 0.00000000E+00	 0.00000000E+00
	 0.00000000E+00	 0.00000000E+00	 0.00000000E+00
	 0.00000000E+00	 0.00000000E+00	 0.00000000E+00

	 0.00000000E+00	 0.00000000E+00	 0.00000000E+00
	 0.00000000E+00	 0.00000000E+00	 0.00000000E+00
	 0.00000000E+00	 0.00000000E+00	 0.00000000E+00

	 0.00000000E+00	 0.00000000E+00	 0.00000000E+00
	 0.00000000E+00	 0.00000000E+00	 0.00000000E+00
	 0.00000000E+00	 0.00000000E+00	 0.00000000E+00

	 0.00000000E+00	 0.00000000E+00	 0.00000000E+00
	 0.00000000E+00	 0.00000000E+00	 0.00000000E+00
	 0.00000000E+00	 0.00000000E+00	 0.00000000E+00

	 0.00000000E+00	 0.00000000E+00	 0.00000000E+00
	 0.00000000E+00	 0.00000000E+00	 0.00000000E+00
	 0.00000000E+00	 0.00000000E+00	 0.00000000E+00

	 0.00000000E+00	 0.00000000E+00	 0.00000000E+00
	 0.00000000E+00	 0.00000000E+00	 0.00000000E+00
	 0.00000000E+00	 0.00000000E+00	 0.00000000E+00

	 0.00000000E+00	 0.00000000E+00	 0.00000000E+00
	 0.00000000E+00	 0.00000000E+00	 0.00000000E+00
	 0.00000000E+00	 0.00000000E+00	 0.00000000E+00

	 0.00000000E+00	 0.00000000E+00	 0.00000000E+00
	 0.00000000E+00	 0.00000000E+00	 0.00000000E+00
	 0.00000000E+00	 0.00000000E+00	 0.00000000E+00

	 0.00000000E+00	 0.00000000E+00	 0.00000000E+00
	 0.00000000E+00	 0.00000000E+00	 0.00000000E+00
	 0.00000000E+00	 0.00000000E+00	 0.00000000E+00

	 0.00000000E+00	 0.00000000E+00	 0.00000000E+00
	 0.00000000E+00	 0.00000000E+00	 0.00000000E+00
	 0.00000000E+00	 0.00000000E+00	 0.00000000E+00

	 0.00000000E+00	 0.00000000E+00	 0.00000000E+00
	 0.00000000E+00	 0.00000000E+00	 0.00000000E+00
	 0.00000000E+00	 0.00000000E+00	 0.00000000E+00

	 0.00000000E+00	 0.00000000E+00	 0.00000000E+00
	 0.00000000E+00	 0.00000000E+00	 0.00000000E+00
	 0.00000000E+00	 0.00000000E+00	 0.00000000E+00

	 0.00000000E+00	 0.00000000E+00	 0.00000000E+00
	 0.00000000E+00	 0.00000000E+00	 0.00000000E+00
	 0.00000000E+00	 0.00000000E+00	 0.00000000E+00

	 0.00000000E+00	 0.00000000E+00	 0.00000000E+00
	 0.00000000E+00	 0.00000000E+00	 0.00000000E+00
	 0.00000000E+00	 0.00000000E+00	 0.00000000E+00

	 0.00000000E+00	 0.00000000E+00	 0.00000000E+00
	 0.00000000E+00	 0.00000000E+00	 0.00000000E+00
	 0.00000000E+00	 0.00000000E+00	 0.00000000E+00

	 0.00000000E+00	 0.00000000E+00	 0.00000000E+00
	 0.00000000E+00	 0.00000000E+00	 0.00000000E+00
	 0.00000000E+00	 0.00000000E+00	 0.00000000E+00

	 0.00000000E+00	 0.00000000E+00	 0.00000000E+00
	 0.00000000E+00	 0.00000000E+00	 0.00000000E+00
	 0.00000000E+00	 0.00000000E+00	 0.00000000E+00

	 0.00000000E+00	 0.00000000E+00	 0.00000000E+00
	 0.00000000E+00	 0.00000000E+00	 0.00000000E+00
	 0.00000000E+00	 0.00000000E+00	 0.00000000E+00

	 0.00000000E+00	 0.00000000E+00	 0.00000000E+00
	 0.00000000E+00	 0.00000000E+00	 0.00000000E+00
	 0.00000000E+00	 0.00000000E+00	 0.00000000E+00

	 0.00000000E+00	 0.00000000E+00	 0.00000000E+00
	 0.00000000E+00	 0.00000000E+00	 0.00000000E+00
	 0.00000000E+00	 0.00000000E+00	 0.00000000E+00

	 0.00000000E+00	 0.00000000E+00	 0.00000000E+00
	 0.00000000E+00	 0.00000000E+00	 0.00000000E+00
	 0.00000000E+00	 0.00000000E+00	 0.00000000E+00

	 0.00000000E+00	 0.00000000E+00	 0.00000000E+00
	 0.00000000E+00	 0.00000000E+00	 0.00000000E+00
	 0.00000000E+00	 0.00000000E+00	 0.00000000E+00

	 0.00000000E+00	 0.00000000E+00	 0.00000000E+00
	 0.00000000E+00	 0.00000000E+00	 0.00000000E+00
	 0.00000000E+00	 0.00000000E+00	 0.00000000E+00

	 0.00000000E+00	 0.00000000E+00	 0.00000000E+00
	 0.00000000E+00	 0.00000000E+00	 0.00000000E+00
	 0.00000000E+00	 0.00000000E+00	 0.00000000E+00

	 0.00000000E+00	 0.00000000E+00	 0.00000000E+00
	 0.00000000E+00	 0.00000000E+00	 0.00000000E+00
	 0.00000000E+00	 0.00000000E+00	 0.00000000E+00

	 0.00000000E+00	 0.00000000E+00	 0.00000000E+00
	 0.00000000E+00	 0.00000000E+00	 0.00000000E+00
	 0.00000000E+00	 0.00000000E+00	 0.00000000E+00

	 0.00000000E+00	 0.00000000E+00	 0.00000000E+00
	 0.00000000E+00	 0.00000000E+00	 0.00000000E+00
	 0.00000000E+00	 0.00000000E+00	 0.00000000E+00

	 0.00000000E+00	 0.00000000E+00	 0.00000000E+00
	 0.00000000E+00	 0.00000000E+00	 0.00000000E+00
	 0.00000000E+00	 0.00000000E+00	 0.00000000E+00

	 0.00000000E+00	 0.00000000E+00	 0.00000000E+00
	 0.00000000E+00	 0.00000000E+00	 0.00000000E+00
	 0.00000000E+00	 0.00000000E+00	 0.00000000E+00

	 0.00000000E+00	 0.00000000E+00	 0.00000000E+00
	 0.00000000E+00	 0.00000000E+00	 0.00000000E+00
	 0.00000000E+00	 0.00000000E+00	 0.00000000E+00

	 0.00000000E+00	 0.00000000E+00	 0.00000000E+00
	 0.00000000E+00	 0.00000000E+00	 0.00000000E+00
	 0.00000000E+00	 0.00000000E+00	 0.00000000E+00

	 0.00000000E+00	 0.00000000E+00	 0.00000000E+00
	 0.00000000E+00	 0.00000000E+00	 0.00000000E+00
	 0.00000000E+00	 0.00000000E+00	 0.00000000E+00

	 0.00000000E+00	 0.00000000E+00	 0.00000000E+00
	 0.00000000E+00	 0.00000000E+00	 0.00000000E+00
	 0.00000000E+00	 0.00000000E+00	 0.00000000E+00

	 0.00000000E+00	 0.00000000E+00	 0.00000000E+00
	 0.00000000E+00	 0.00000000E+00	 0.00000000E+00
	 0.00000000E+00	 0.00000000E+00	 0.00000000E+00

	 0.00000000E+00	 0.00000000E+00	 0.00000000E+00
	 0.00000000E+00	 0.00000000E+00	 0.00000000E+00
	 0.00000000E+00	 0.00000000E+00	 0.00000000E+00

	 0.00000000E+00	 0.00000000E+00	 0.00000000E+00
	 0.00000000E+00	 0.00000000E+00	 0.00000000E+00
	 0.00000000E+00	 0.00000000E+00	 0.00000000E+00

	 0.00000000E+00	 0.00000000E+00	 0.00000000E+00
	 0.00000000E+00	 0.00000000E+00	 0.00000000E+00
	 0.00000000E+00	 0.00000000E+00	 0.00000000E+00

	 0.00000000E+00	 0.00000000E+00	 0.00000000E+00
	 0.00000000E+00	 0.00000000E+00	 0.00000000E+00
	 0.00000000E+00	 0.00000000E+00	 0.00000000E+00

	 0.00000000E+00	 0.00000000E+00	 0.00000000E+00
	 0.00000000E+00	 0.00000000E+00	 0.00000000E+00
	 0.00000000E+00	 0.00000000E+00	 0.00000000E+00

	 0.00000000E+00	 0.00000000E+00	 0.00000000E+00
	 0.00000000E+00	 0.00000000E+00	 0.00000000E+00
	 0.00000000E+00	 0.00000000E+00	 0.00000000E+00

	 0.00000000E+00	 0.00000000E+00	 0.00000000E+00
	 0.00000000E+00	 0.00000000E+00	 0.00000000E+00
	 0.00000000E+00	 0.00000000E+00	 0.00000000E+00

	 0.00000000E+00	 0.00000000E+00	 0.00000000E+00
	 0.00000000E+00	 0.00000000E+00	 0.00000000E+00
	 0.00000000E+00	 0.00000000E+00	 0.00000000E+00

	 0.00000000E+00	 0.00000000E+00	 0.00000000E+00
	 0.00000000E+00	 0.00000000E+00	 0.00000000E+00
	 0.00000000E+00	 0.00000000E+00	 0.00000000E+00

	 0.00000000E+00	 0.00000000E+00	 0.00000000E+00
	 0.00000000E+00	 0.00000000E+00	 0.00000000E+00
	 0.00000000E+00	 0.00000000E+00	 0.00000000E+00

	 0.00000000E+00	 0.00000000E+00	 0.00000000E+00
	 0.00000000E+00	 0.00000000E+00	 0.00000000E+00
	 0.00000000E+00	 0.00000000E+00	 0.00000000E+00

	 0.00000000E+00	 0.00000000E+00	 0.00000000E+00
	 0.00000000E+00	 0.00000000E+00	 0.00000000E+00
	 0.00000000E+00	 0.00000000E+00	 0.00000000E+00

	 0.00000000E+00	 0.00000000E+00	 0.00000000E+00
	 0.00000000E+00	 0.00000000E+00	 0.00000000E+00
	 0.00000000E+00	 0.00000000E+00	 0.00000000E+00

	 0.00000000E+00	 0.00000000E+00	 0.00000000E+00
	 0.00000000E+00	 0.00000000E+00	 0.00000000E+00
	 0.00000000E+00	 0.00000000E+00	 0.00000000E+00

	 0.00000000E+00	 0.00000000E+00	 0.00000000E+00
	 0.00000000E+00	 0.00000000E+00	 0.00000000E+00
	 0.00000000E+00	 0.00000000E+00	 0.00000000E+00

	 0.00000000E+00	 0.00000000E+00	 0.00000000E+00
	 0.00000000E+00	 0.00000000E+00	 0.00000000E+00
	 0.00000000E+00	 0.00000000E+00	 0.00000000E+00

	 0.00000000E+00	 0.00000000E+00	 0.00000000E+00
	 0.00000000E+00	 0.00000000E+00	 0.00000000E+00
	 0.00000000E+00	 0.00000000E+00	 0.00000000E+00

	 0.00000000E+00	 0.00000000E+00	 0.00000000E+00
	 0.00000000E+00	 0.00000000E+00	 0.00000000E+00
	 0.00000000E+00	 0.00000000E+00	 0.00000000E+00

	 0.00000000E+00	 0.00000000E+00	 0.00000000E+00
	 0.00000000E+00	 0.00000000E+00	 0.00000000E+00
	 0.00000000E+00	 0.00000000E+00	 0.00000000E+00

	 0.00000000E+00	 0.00000000E+00	 0.00000000E+00
	 0.00000000E+00	 0.00000000E+00	 0.00000000E+00
	 0.00000000E+00	 0.00000000E+00	 0.00000000E+00

	 0.00000000E+00	 0.00000000E+00	 0.00000000E+00
	 0.00000000E+00	 0.00000000E+00	 0.00000000E+00
	 0.00000000E+00	 0.00000000E+00	 0.00000000E+00

	 0.00000000E+00	 0.00000000E+00	 0.00000000E+00
	 0.00000000E+00	 0.00000000E+00	 0.00000000E+00
	 0.00000000E+00	 0.00000000E+00	 0.00000000E+00

	 0.00000000E+00	 0.00000000E+00	 0.00000000E+00
	 0.00000000E+00	 0.00000000E+00	 0.00000000E+00
	 0.00000000E+00	 0.00000000E+00	 0.00000000E+00

	 0.00000000E+00	 0.00000000E+00	 0.00000000E+00
	 0.00000000E+00	 0.00000000E+00	 0.00000000E+00
	 0.00000000E+00	 0.00000000E+00	 0.00000000E+00

	 0.00000000E+00	 0.00000000E+00	 0.00000000E+00
	 0.00000000E+00	 0.00000000E+00	 0.00000000E+00
	 0.00000000E+00	 0.00000000E+00	 0.00000000E+00

	 0.00000000E+00	 0.00000000E+00	 0.00000000E+00
	 0.00000000E+00	 0.00000000E+00	 0.00000000E+00
	 0.00000000E+00	 0.00000000E+00	 0.00000000E+00

	 0.00000000E+00	 0.00000000E+00	 0.00000000E+00
	 0.00000000E+00	 0.00000000E+00	 0.00000000E+00
	 0.00000000E+00	 0.00000000E+00	 0.00000000E+00

	 0.00000000E+00	 0.00000000E+00	 0.00000000E+00
	 0.00000000E+00	 0.00000000E+00	 0.00000000E+00
	 0.00000000E+00	 0.00000000E+00	 0.00000000E+00

	 0.00000000E+00	 0.00000000E+00	 0.00000000E+00
	 0.00000000E+00	 0.00000000E+00	 0.00000000E+00
	 0.00000000E+00	 0.00000000E+00	 0.00000000E+00

	 0.00000000E+00	 0.00000000E+00	 0.00000000E+00
	 0.00000000E+00	 0.00000000E+00	 0.00000000E+00
	 0.00000000E+00	 0.00000000E+00	 0.00000000E+00

	 0.00000000E+00	 0.00000000E+00	 0.00000000E+00
	 0.00000000E+00	 0.00000000E+00	 0.00000000E+00
	 0.00000000E+00	 0.00000000E+00	 0.00000000E+00

	 0.00000000E+00	 0.00000000E+00	 0.00000000E+00
	 0.00000000E+00	 0.00000000E+00	 0.00000000E+00
	 0.00000000E+00	 0.00000000E+00	 0.00000000E+00

	 0.00000000E+00	 0.00000000E+00	 0.00000000E+00
	 0.00000000E+00	 0.00000000E+00	 0.00000000E+00
	 0.00000000E+00	 0.00000000E+00	 0.00000000E+00

	 0.00000000E+00	 0.00000000E+00	 0.00000000E+00
	 0.00000000E+00	 0.00000000E+00	 0.00000000E+00
	 0.00000000E+00	 0.00000000E+00	 0.00000000E+00

	 0.00000000E+00	 0.00000000E+00	 0.00000000E+00
	 0.00000000E+00	 0.00000000E+00	 0.00000000E+00
	 0.00000000E+00	 0.00000000E+00	 0.00000000E+00

	 0.00000000E+00	 0.00000000E+00	 0.00000000E+00
	 0.00000000E+00	 0.00000000E+00	 0.00000000E+00
	 0.00000000E+00	 0.00000000E+00	 0.00000000E+00

	 0.00000000E+00	 0.00000000E+00	 0.00000000E+00
	 0.00000000E+00	 0.00000000E+00	 0.00000000E+00
	 0.00000000E+00	 0.00000000E+00	 0.00000000E+00

	 0.00000000E+00	 0.00000000E+00	 0.00000000E+00
	 0.00000000E+00	 0.00000000E+00	 0.00000000E+00
	 0.00000000E+00	 0.00000000E+00	 0.00000000E+00

	 0.00000000E+00	 0.00000000E+00	 0.00000000E+00
	 0.00000000E+00	 0.00000000E+00	 0.00000000E+00
	 0.00000000E+00	 0.00000000E+00	 0.00000000E+00

	 0.00000000E+00	 0.00000000E+00	 0.00000000E+00
	 0.00000000E+00	 0.00000000E+00	 0.00000000E+00
	 0.00000000E+00	 0.00000000E+00	 0.00000000E+00

	 0.00000000E+00	 0.00000000E+00	 0.00000000E+00
	 0.00000000E+00	 0.00000000E+00	 0.00000000E+00
	 0.00000000E+00	 0.00000000E+00	 0.00000000E+00

	 0.00000000E+00	 0.00000000E+00	 0.00000000E+00
	 0.00000000E+00	 0.00000000E+00	 0.00000000E+00
	 0.00000000E+00	 0.00000000E+00	 0.00000000E+00

	 0.00000000E+00	 0.00000000E+00	 0.00000000E+00
	 0.00000000E+00	 0.00000000E+00	 0.00000000E+00
	 0.00000000E+00	 0.00000000E+00	 0.00000000E+00

	 0.00000000E+00	 0.00000000E+00	 0.00000000E+00
	 0.00000000E+00	 0.00000000E+00	 0.00000000E+00
	 0.00000000E+00	 0.00000000E+00	 0.00000000E+00

	 0.00000000E+00	 0.00000000E+00	 0.00000000E+00
	 0.00000000E+00	 0.00000000E+00	 0.00000000E+00
	 0.00000000E+00	 0.00000000E+00	 0.00000000E+00

	 0.00000000E+00	 0.00000000E+00	 0.00000000E+00
	 0.00000000E+00	 0.00000000E+00	 0.00000000E+00
	 0.00000000E+00	 0.00000000E+00	 0.00000000E+00

	 0.00000000E+00	 0.00000000E+00	 0.00000000E+00
	 0.00000000E+00	 0.00000000E+00	 0.00000000E+00
	 0.00000000E+00	 0.00000000E+00	 0.00000000E+00

	 0.00000000E+00	 0.00000000E+00	 0.00000000E+00
	 0.00000000E+00	 0.00000000E+00	 0.00000000E+00
	 0.00000000E+00	 0.00000000E+00	 0.00000000E+00

	 0.00000000E+00	 0.00000000E+00	 0.00000000E+00
	 0.00000000E+00	 0.00000000E+00	 0.00000000E+00
	 0.00000000E+00	 0.00000000E+00	 0.00000000E+00

	 0.00000000E+00	 0.00000000E+00	 0.00000000E+00
	 0.00000000E+00	 0.00000000E+00	 0.00000000E+00
	 0.00000000E+00	 0.00000000E+00	 0.00000000E+00

	 0.00000000E+00	 0.00000000E+00	 0.00000000E+00
	 0.00000000E+00	 0.00000000E+00	 0.00000000E+00
	 0.00000000E+00	 0.00000000E+00	 0.00000000E+00

	 0.00000000E+00	 0.00000000E+00	 0.00000000E+00
	 0.00000000E+00	 0.00000000E+00	 0.00000000E+00
	 0.00000000E+00	 0.00000000E+00	 0.00000000E+00

	 0.00000000E+00	 0.00000000E+00	 0.00000000E+00
	 0.00000000E+00	 0.00000000E+00	 0.00000000E+00
	 0.00000000E+00	 0.00000000E+00	 0.00000000E+00

	 0.00000000E+00	 0.00000000E+00	 0.00000000E+00
	 0.00000000E+00	 0.00000000E+00	 0.00000000E+00
	 0.00000000E+00	 0.00000000E+00	 0.00000000E+00

	 0.00000000E+00	 0.00000000E+00	 0.00000000E+00
	 0.00000000E+00	 0.00000000E+00	 0.00000000E+00
	 0.00000000E+00	 0.00000000E+00	 0.00000000E+00

	 0.00000000E+00	 0.00000000E+00	 0.00000000E+00
	 0.00000000E+00	 0.00000000E+00	 0.00000000E+00
	 0.00000000E+00	 0.00000000E+00	 0.00000000E+00

	 0.00000000E+00	 0.00000000E+00	 0.00000000E+00
	 0.00000000E+00	 0.00000000E+00	 0.00000000E+00
	 0.00000000E+00	 0.00000000E+00	 0.00000000E+00

	 0.00000000E+00	 0.00000000E+00	 0.00000000E+00
	 0.00000000E+00	 0.00000000E+00	 0.00000000E+00
	 0.00000000E+00	 0.00000000E+00	 0.00000000E+00

	 0.00000000E+00	 0.00000000E+00	 0.00000000E+00
	 0.00000000E+00	 0.00000000E+00	 0.00000000E+00
	 0.00000000E+00	 0.00000000E+00	 0.00000000E+00

	 0.00000000E+00	 0.00000000E+00	 0.00000000E+00
	 0.00000000E+00	 0.00000000E+00	 0.00000000E+00
	 0.00000000E+00	 0.00000000E+00	 0.00000000E+00

	 0.00000000E+00	 0.00000000E+00	 0.00000000E+00
	 0.00000000E+00	 0.00000000E+00	 0.00000000E+00
	 0.00000000E+00	 0.00000000E+00	 0.00000000E+00

	 0.00000000E+00	 0.00000000E+00	 0.00000000E+00
	 0.00000000E+00	 0.00000000E+00	 0.00000000E+00
	 0.00000000E+00	 0.00000000E+00	 0.00000000E+00

	 0.00000000E+00	 0.00000000E+00	 0.00000000E+00
	 0.00000000E+00	 0.00000000E+00	 0.00000000E+00
	 0.00000000E+00	 0.00000000E+00	 0.00000000E+00

	 0.00000000E+00	 0.00000000E+00	 0.00000000E+00
	 0.00000000E+00	 0.00000000E+00	 0.00000000E+00
	 0.00000000E+00	 0.00000000E+00	 0.00000000E+00

	 0.00000000E+00	 0.00000000E+00	 0.00000000E+00
	 0.00000000E+00	 0.00000000E+00	 0.00000000E+00
	 0.00000000E+00	 0.00000000E+00	 0.00000000E+00

	 0.00000000E+00	 0.00000000E+00	 0.00000000E+00
	 0.00000000E+00	 0.00000000E+00	 0.00000000E+00
	 0.00000000E+00	 0.00000000E+00	 0.00000000E+00

	 0.00000000E+00	 0.00000000E+00	 0.00000000E+00
	 0.00000000E+00	 0.00000000E+00	 0.00000000E+00
	 0.00000000E+00	 0.00000000E+00	 0.00000000E+00

	 0.00000000E+00	 0.00000000E+00	 0.00000000E+00
	 0.00000000E+00	 0.00000000E+00	 0.00000000E+00
	 0.00000000E+00	 0.00000000E+00	 0.00000000E+00

	 0.00000000E+00	 0.00000000E+00	 0.00000000E+00
	 0.00000000E+00	 0.00000000E+00	 0.00000000E+00
	 0.00000000E+00	 0.00000000E+00	 0.00000000E+00

	 0.00000000E+00	 0.00000000E+00	 0.00000000E+00
	 0.00000000E+00	 0.00000000E+00	 0.00000000E+00
	 0.00000000E+00	 0.00000000E+00	 0.00000000E+00

	 0.00000000E+00	 0.00000000E+00	 0.00000000E+00
	 0.00000000E+00	 0.00000000E+00	 0.00000000E+00
	 0.00000000E+00	 0.00000000E+00	 0.00000000E+00

	 0.00000000E+00	 0.00000000E+00	 0.00000000E+00
	 0.00000000E+00	 0.00000000E+00	 0.00000000E+00
	 0.00000000E+00	 0.00000000E+00	 0.00000000E+00

	 0.00000000E+00	 0.00000000E+00	 0.00000000E+00
	 0.00000000E+00	 0.00000000E+00	 0.00000000E+00
	 0.00000000E+00	 0.00000000E+00	 0.00000000E+00

	 0.00000000E+00	 0.00000000E+00	 0.00000000E+00
	 0.00000000E+00	 0.00000000E+00	 0.00000000E+00
	 0.00000000E+00	 0.00000000E+00	 0.00000000E+00

	 0.00000000E+00	 0.00000000E+00	 0.00000000E+00
	 0.00000000E+00	 0.00000000E+00	 0.00000000E+00
	 0.00000000E+00	 0.00000000E+00	 0.00000000E+00

	 0.00000000E+00	 0.00000000E+00	 0.00000000E+00
	 0.00000000E+00	 0.00000000E+00	 0.00000000E+00
	 0.00000000E+00	 0.00000000E+00	 0.00000000E+00

	 0.00000000E+00	 0.00000000E+00	 0.00000000E+00
	 0.00000000E+00	 0.00000000E+00	 0.00000000E+00
	 0.00000000E+00	 0.00000000E+00	 0.00000000E+00

	 0.00000000E+00	 0.00000000E+00	 0.00000000E+00
	 0.00000000E+00	 0.00000000E+00	 0.00000000E+00
	 0.00000000E+00	 0.00000000E+00	 0.00000000E+00

	 0.00000000E+00	 0.00000000E+00	 0.00000000E+00
	 0.00000000E+00	 0.00000000E+00	 0.00000000E+00
	 0.00000000E+00	 0.00000000E+00	 0.00000000E+00

	 0.00000000E+00	 0.00000000E+00	 0.00000000E+00
	 0.00000000E+00	 0.00000000E+00	 0.00000000E+00
	 0.00000000E+00	 0.00000000E+00	 0.00000000E+00

	 0.00000000E+00	 0.00000000E+00	 0.00000000E+00
	 0.00000000E+00	 0.00000000E+00	 0.00000000E+00
	 0.00000000E+00	 0.00000000E+00	 0.00000000E+00

	 0.00000000E+00	 0.00000000E+00	 0.00000000E+00
	 0.00000000E+00	 0.00000000E+00	 0.00000000E+00
	 0.00000000E+00	 0.00000000E+00	 0.00000000E+00

	 0.00000000E+00	 0.00000000E+00	 0.00000000E+00
	 0.00000000E+00	 0.00000000E+00	 0.00000000E+00
	 0.00000000E+00	 0.00000000E+00	 0.00000000E+00

	 0.00000000E+00	 0.00000000E+00	 0.00000000E+00
	 0.00000000E+00	 0.00000000E+00	 0.00000000E+00
	 0.00000000E+00	 0.00000000E+00	 0.00000000E+00

	 0.00000000E+00	 0.00000000E+00	 0.00000000E+00
	 0.00000000E+00	 0.00000000E+00	 0.00000000E+00
	 0.00000000E+00	 0.00000000E+00	 0.00000000E+00

	 0.00000000E+00	 0.00000000E+00	 0.00000000E+00
	 0.00000000E+00	 0.00000000E+00	 0.00000000E+00
	 0.00000000E+00	 0.00000000E+00	 0.00000000E+00

	 0.00000000E+00	 0.00000000E+00	 0.00000000E+00
	 0.00000000E+00	 0.00000000E+00	 0.00000000E+00
	 0.00000000E+00	 0.00000000E+00	 0.00000000E+00

	 0.00000000E+00	 0.00000000E+00	 0.00000000E+00
	 0.00000000E+00	 0.00000000E+00	 0.00000000E+00
	 0.00000000E+00	 0.00000000E+00	 0.00000000E+00

	 0.00000000E+00	 0.00000000E+00	 0.00000000E+00
	 0.00000000E+00	 0.00000000E+00	 0.00000000E+00
	 0.00000000E+00	 0.00000000E+00	 0.00000000E+00

	 0.00000000E+00	 0.00000000E+00	 0.00000000E+00
	 0.00000000E+00	 0.00000000E+00	 0.00000000E+00
	 0.00000000E+00	 0.00000000E+00	 0.00000000E+00

	 0.00000000E+00	 0.00000000E+00	 0.00000000E+00
	 0.00000000E+00	 0.00000000E+00	 0.00000000E+00
	 0.00000000E+00	 0.00000000E+00	 0.00000000E+00

	 0.00000000E+00	 0.00000000E+00	 0.00000000E+00
	 0.00000000E+00	 0.00000000E+00	 0.00000000E+00
	 0.00000000E+00	 0.00000000E+00	 0.00000000E+00

	 0.00000000E+00	 0.00000000E+00	 0.00000000E+00
	 0.00000000E+00	 0.00000000E+00	 0.00000000E+00
	 0.00000000E+00	 0.00000000E+00	 0.00000000E+00

	 0.00000000E+00	 0.00000000E+00	 0.00000000E+00
	 0.00000000E+00	 0.00000000E+00	 0.00000000E+00
	 0.00000000E+00	 0.00000000E+00	 0.00000000E+00

	 0.00000000E+00	 0.00000000E+00	 0.00000000E+00
	 0.00000000E+00	 0.00000000E+00	 0.00000000E+00
	 0.00000000E+00	 0.00000000E+00	 0.00000000E+00

	 0.00000000E+00	 0.00000000E+00	 0.00000000E+00
	 0.00000000E+00	 0.00000000E+00	 0.00000000E+00
	 0.00000000E+00	 0.00000000E+00	 0.00000000E+00

	 0.00000000E+00	 0.00000000E+00	 0.00000000E+00
	 0.00000000E+00	 0.00000000E+00	 0.00000000E+00
	 0.00000000E+00	 0.00000000E+00	 0.00000000E+00

	 0.00000000E+00	 0.00000000E+00	 0.00000000E+00
	 0.00000000E+00	 0.00000000E+00	 0.00000000E+00
	 0.00000000E+00	 0.00000000E+00	 0.00000000E+00

	 0.00000000E+00	 0.00000000E+00	 0.00000000E+00
	 0.00000000E+00	 0.00000000E+00	 0.00000000E+00
	 0.00000000E+00	 0.00000000E+00	 0.00000000E+00

	 0.00000000E+00	 0.00000000E+00	 0.00000000E+00
	 0.00000000E+00	 0.00000000E+00	 0.00000000E+00
	 0.00000000E+00	 0.00000000E+00	 0.00000000E+00

	 0.00000000E+00	 0.00000000E+00	 0.00000000E+00
	 0.00000000E+00	 0.00000000E+00	 0.00000000E+00
	 0.00000000E+00	 0.00000000E+00	 0.00000000E+00

	 0.00000000E+00	 0.00000000E+00	 0.00000000E+00
	 0.00000000E+00	 0.00000000E+00	 0.00000000E+00
	 0.00000000E+00	 0.00000000E+00	 0.00000000E+00

	 0.00000000E+00	 0.00000000E+00	 0.00000000E+00
	 0.00000000E+00	 0.00000000E+00	 0.00000000E+00
	 0.00000000E+00	 0.00000000E+00	 0.00000000E+00

	 0.00000000E+00	 0.00000000E+00	 0.00000000E+00
	 0.00000000E+00	 0.00000000E+00	 0.00000000E+00
	 0.00000000E+00	 0.00000000E+00	 0.00000000E+00

	 0.00000000E+00	 0.00000000E+00	 0.00000000E+00
	 0.00000000E+00	 0.00000000E+00	 0.00000000E+00
	 0.00000000E+00	 0.00000000E+00	 0.00000000E+00

	 0.00000000E+00	 0.00000000E+00	 0.00000000E+00
	 0.00000000E+00	 0.00000000E+00	 0.00000000E+00
	 0.00000000E+00	 0.00000000E+00	 0.00000000E+00

	 0.00000000E+00	 0.00000000E+00	 0.00000000E+00
	 0.00000000E+00	 0.00000000E+00	 0.00000000E+00
	 0.00000000E+00	 0.00000000E+00	 0.00000000E+00

	 0.00000000E+00	 0.00000000E+00	 0.00000000E+00
	 0.00000000E+00	 0.00000000E+00	 0.00000000E+00
	 0.00000000E+00	 0.00000000E+00	 0.00000000E+00

	 0.00000000E+00	 0.00000000E+00	 0.00000000E+00
	 0.00000000E+00	 0.00000000E+00	 0.00000000E+00
	 0.00000000E+00	 0.00000000E+00	 0.00000000E+00

	 0.00000000E+00	 0.00000000E+00	 0.00000000E+00
	 0.00000000E+00	 0.00000000E+00	 0.00000000E+00
	 0.00000000E+00	 0.00000000E+00	 0.00000000E+00

	 0.00000000E+00	 0.00000000E+00	 0.00000000E+00
	 0.00000000E+00	 0.00000000E+00	 0.00000000E+00
	 0.00000000E+00	 0.00000000E+00	 0.00000000E+00

	 0.00000000E+00	 0.00000000E+00	 0.00000000E+00
	 0.00000000E+00	 0.00000000E+00	 0.00000000E+00
	 0.00000000E+00	 0.00000000E+00	 0.00000000E+00

	 0.00000000E+00	 0.00000000E+00	 0.00000000E+00
	 0.00000000E+00	 0.00000000E+00	 0.00000000E+00
	 0.00000000E+00	 0.00000000E+00	 0.00000000E+00

	 0.00000000E+00	 0.00000000E+00	 0.00000000E+00
	 0.00000000E+00	 0.00000000E+00	 0.00000000E+00
	 0.00000000E+00	 0.00000000E+00	 0.00000000E+00

	 0.00000000E+00	 0.00000000E+00	 0.00000000E+00
	 0.00000000E+00	 0.00000000E+00	 0.00000000E+00
	 0.00000000E+00	 0.00000000E+00	 0.00000000E+00

	 0.00000000E+00	 0.00000000E+00	 0.00000000E+00
	 0.00000000E+00	 0.00000000E+00	 0.00000000E+00
	 0.00000000E+00	 0.00000000E+00	 0.00000000E+00

	 0.00000000E+00	 0.00000000E+00	 0.00000000E+00
	 0.00000000E+00	 0.00000000E+00	 0.00000000E+00
	 0.00000000E+00	 0.00000000E+00	 0.00000000E+00

	 0.00000000E+00	 0.00000000E+00	 0.00000000E+00
	 0.00000000E+00	 0.00000000E+00	 0.00000000E+00
	 0.00000000E+00	 0.00000000E+00	 0.00000000E+00

	 0.00000000E+00	 0.00000000E+00	 0.00000000E+00
	 0.00000000E+00	 0.00000000E+00	 0.00000000E+00
	 0.00000000E+00	 0.00000000E+00	 0.00000000E+00

	 0.00000000E+00	 0.00000000E+00	 0.00000000E+00
	 0.00000000E+00	 0.00000000E+00	 0.00000000E+00
	 0.00000000E+00	 0.00000000E+00	 0.00000000E+00

	 0.00000000E+00	 0.00000000E+00	 0.00000000E+00
	 0.00000000E+00	 0.00000000E+00	 0.00000000E+00
	 0.00000000E+00	 0.00000000E+00	 0.00000000E+00

	 0.00000000E+00	 0.00000000E+00	 0.00000000E+00
	 0.00000000E+00	 0.00000000E+00	 0.00000000E+00
	 0.00000000E+00	 0.00000000E+00	 0.00000000E+00

	 0.00000000E+00	 0.00000000E+00	 0.00000000E+00
	 0.00000000E+00	 0.00000000E+00	 0.00000000E+00
	 0.00000000E+00	 0.00000000E+00	 0.00000000E+00

	 0.00000000E+00	 0.00000000E+00	 0.00000000E+00
	 0.00000000E+00	 0.00000000E+00	 0.00000000E+00
	 0.00000000E+00	 0.00000000E+00	 0.00000000E+00

	 0.00000000E+00	 0.00000000E+00	 0.00000000E+00
	 0.00000000E+00	 0.00000000E+00	 0.00000000E+00
	 0.00000000E+00	 0.00000000E+00	 0.00000000E+00

	 0.00000000E+00	 0.00000000E+00	 0.00000000E+00
	 0.00000000E+00	 0.00000000E+00	 0.00000000E+00
	 0.00000000E+00	 0.00000000E+00	 0.00000000E+00

	 0.00000000E+00	 0.00000000E+00	 0.00000000E+00
	 0.00000000E+00	 0.00000000E+00	 0.00000000E+00
	 0.00000000E+00	 0.00000000E+00	 0.00000000E+00

	 0.00000000E+00	 0.00000000E+00	 0.00000000E+00
	 0.00000000E+00	 0.00000000E+00	 0.00000000E+00
	 0.00000000E+00	 0.00000000E+00	 0.00000000E+00

	 0.00000000E+00	 0.00000000E+00	 0.00000000E+00
	 0.00000000E+00	 0.00000000E+00	 0.00000000E+00
	 0.00000000E+00	 0.00000000E+00	 0.00000000E+00

	 0.00000000E+00	 0.00000000E+00	 0.00000000E+00
	 0.00000000E+00	 0.00000000E+00	 0.00000000E+00
	 0.00000000E+00	 0.00000000E+00	 0.00000000E+00

	 0.00000000E+00	 0.00000000E+00	 0.00000000E+00
	 0.00000000E+00	 0.00000000E+00	 0.00000000E+00
	 0.00000000E+00	 0.00000000E+00	 0.00000000E+00

	 0.00000000E+00	 0.00000000E+00	 0.00000000E+00
	 0.00000000E+00	 0.00000000E+00	 0.00000000E+00
	 0.00000000E+00	 0.00000000E+00	 0.00000000E+00

	 0.00000000E+00	 0.00000000E+00	 0.00000000E+00
	 0.00000000E+00	 0.00000000E+00	 0.00000000E+00
	 0.00000000E+00	 0.00000000E+00	 0.00000000E+00

	 0.00000000E+00	 0.00000000E+00	 0.00000000E+00
	 0.00000000E+00	 0.00000000E+00	 0.00000000E+00
	 0.00000000E+00	 0.00000000E+00	 0.00000000E+00

	 0.00000000E+00	 0.00000000E+00	 0.00000000E+00
	 0.00000000E+00	 0.00000000E+00	 0.00000000E+00
	 0.00000000E+00	 0.00000000E+00	 0.00000000E+00

	 0.00000000E+00	 0.00000000E+00	 0.00000000E+00
	 0.00000000E+00	 0.00000000E+00	 0.00000000E+00
	 0.00000000E+00	 0.00000000E+00	 0.00000000E+00

	 0.00000000E+00	 0.00000000E+00	 0.00000000E+00
	 0.00000000E+00	 0.00000000E+00	 0.00000000E+00
	 0.00000000E+00	 0.00000000E+00	 0.00000000E+00

	 0.00000000E+00	 0.00000000E+00	 0.00000000E+00
	 0.00000000E+00	 0.00000000E+00	 0.00000000E+00
	 0.00000000E+00	 0.00000000E+00	 0.00000000E+00

	 0.00000000E+00	 0.00000000E+00	 0.00000000E+00
	 0.00000000E+00	 0.00000000E+00	 0.00000000E+00
	 0.00000000E+00	 0.00000000E+00	 0.00000000E+00

	 0.00000000E+00	 0.00000000E+00	 0.00000000E+00
	 0.00000000E+00	 0.00000000E+00	 0.00000000E+00
	 0.00000000E+00	 0.00000000E+00	 0.00000000E+00

	 0.00000000E+00	 0.00000000E+00	 0.00000000E+00
	 0.00000000E+00	 0.00000000E+00	 0.00000000E+00
	 0.00000000E+00	 0.00000000E+00	 0.00000000E+00

	 0.00000000E+00	 0.00000000E+00	 0.00000000E+00
	 0.00000000E+00	 0.00000000E+00	 0.00000000E+00
	 0.00000000E+00	 0.00000000E+00	 0.00000000E+00

	 0.00000000E+00	 0.00000000E+00	 0.00000000E+00
	 0.00000000E+00	 0.00000000E+00	 0.00000000E+00
	 0.00000000E+00	 0.00000000E+00	 0.00000000E+00

	 0.00000000E+00	 0.00000000E+00	 0.00000000E+00
	 0.00000000E+00	 0.00000000E+00	 0.00000000E+00
	 0.00000000E+00	 0.00000000E+00	 0.00000000E+00

	 0.00000000E+00	 0.00000000E+00	 0.00000000E+00
	 0.00000000E+00	 0.00000000E+00	 0.00000000E+00
	 0.00000000E+00	 0.00000000E+00	 0.00000000E+00

	 0.00000000E+00	 0.00000000E+00	 0.00000000E+00
	 0.00000000E+00	 0.00000000E+00	 0.00000000E+00
	 0.00000000E+00	 0.00000000E+00	 0.00000000E+00

	 0.00000000E+00	 0.00000000E+00	 0.00000000E+00
	 0.00000000E+00	 0.00000000E+00	 0.00000000E+00
	 0.00000000E+00	 0.00000000E+00	 0.00000000E+00

	 0.00000000E+00	 0.00000000E+00	 0.00000000E+00
	 0.00000000E+00	 0.00000000E+00	 0.00000000E+00
	 0.00000000E+00	 0.00000000E+00	 0.00000000E+00

	 0.00000000E+00	 0.00000000E+00	 0.00000000E+00
	 0.00000000E+00	 0.00000000E+00	 0.00000000E+00
	 0.00000000E+00	 0.00000000E+00	 0.00000000E+00

	 0.00000000E+00	 0.00000000E+00	 0.00000000E+00
	 0.00000000E+00	 0.00000000E+00	 0.00000000E+00
	 0.00000000E+00	 0.00000000E+00	 0.00000000E+00

	 0.00000000E+00	 0.00000000E+00	 0.00000000E+00
	 0.00000000E+00	 0.00000000E+00	 0.00000000E+00
	 0.00000000E+00	 0.00000000E+00	 0.00000000E+00

	 0.00000000E+00	 0.00000000E+00	 0.00000000E+00
	 0.00000000E+00	 0.00000000E+00	 0.00000000E+00
	 0.00000000E+00	 0.00000000E+00	 0.00000000E+00

	 0.00000000E+00	 0.00000000E+00	 0.00000000E+00
	 0.00000000E+00	 0.00000000E+00	 0.00000000E+00
	 0.00000000E+00	 0.00000000E+00	 0.00000000E+00

	 0.00000000E+00	 0.00000000E+00	 0.00000000E+00
	 0.00000000E+00	 0.00000000E+00	 0.00000000E+00
	 0.00000000E+00	 0.00000000E+00	 0.00000000E+00

	 0.00000000E+00	 0.00000000E+00	 0.00000000E+00
	 0.00000000E+00	 0.00000000E+00	 0.00000000E+00
	 0.00000000E+00	 0.00000000E+00	 0.00000000E+00

	 0.00000000E+00	 0.00000000E+00	 0.00000000E+00
	 0.00000000E+00	 0.00000000E+00	 0.00000000E+00
	 0.00000000E+00	 0.00000000E+00	 0.00000000E+00

	 0.00000000E+00	 0.00000000E+00	 0.00000000E+00
	 0.00000000E+00	 0.00000000E+00	 0.00000000E+00
	 0.00000000E+00	 0.00000000E+00	 0.00000000E+00

	 0.00000000E+00	 0.00000000E+00	 0.00000000E+00
	 0.00000000E+00	 0.00000000E+00	 0.00000000E+00
	 0.00000000E+00	 0.00000000E+00	 0.00000000E+00

	 0.00000000E+00	 0.00000000E+00	 0.00000000E+00
	 0.00000000E+00	 0.00000000E+00	 0.00000000E+00
	 0.00000000E+00	 0.00000000E+00	 0.00000000E+00

	 0.00000000E+00	 0.00000000E+00	 0.00000000E+00
	 0.00000000E+00	 0.00000000E+00	 0.00000000E+00
	 0.00000000E+00	 0.00000000E+00	 0.00000000E+00

	 0.00000000E+00	 0.00000000E+00	 0.00000000E+00
	 0.00000000E+00	 0.00000000E+00	 0.00000000E+00
	 0.00000000E+00	 0.00000000E+00	 0.00000000E+00

	 0.00000000E+00	 0.00000000E+00	 0.00000000E+00
	 0.00000000E+00	 0.00000000E+00	 0.00000000E+00
	 0.00000000E+00	 0.00000000E+00	 0.00000000E+00

	 0.00000000E+00	 0.00000000E+00	 0.00000000E+00
	 0.00000000E+00	 0.00000000E+00	 0.00000000E+00
	 0.00000000E+00	 0.00000000E+00	 0.00000000E+00

	 0.00000000E+00	 0.00000000E+00	 0.00000000E+00
	 0.00000000E+00	 0.00000000E+00	 0.00000000E+00
	 0.00000000E+00	 0.00000000E+00	 0.00000000E+00

	 0.00000000E+00	 0.00000000E+00	 0.00000000E+00
	 0.00000000E+00	 0.00000000E+00	 0.00000000E+00
	 0.00000000E+00	 0.00000000E+00	 0.00000000E+00

	 0.00000000E+00	 0.00000000E+00	 0.00000000E+00
	 0.00000000E+00	 0.00000000E+00	 0.00000000E+00
	 0.00000000E+00	 0.00000000E+00	 0.00000000E+00

	 0.00000000E+00	 0.00000000E+00	 0.00000000E+00
	 0.00000000E+00	 0.00000000E+00	 0.00000000E+00
	 0.00000000E+00	 0.00000000E+00	 0.00000000E+00

	 0.00000000E+00	 0.00000000E+00	 0.00000000E+00
	 0.00000000E+00	 0.00000000E+00	 0.00000000E+00
	 0.00000000E+00	 0.00000000E+00	 0.00000000E+00

	 0.00000000E+00	 0.00000000E+00	 0.00000000E+00
	 0.00000000E+00	 0.00000000E+00	 0.00000000E+00
	 0.00000000E+00	 0.00000000E+00	 0.00000000E+00

	 0.00000000E+00	 0.00000000E+00	 0.00000000E+00
	 0.00000000E+00	 0.00000000E+00	 0.00000000E+00
	 0.00000000E+00	 0.00000000E+00	 0.00000000E+00

	 0.00000000E+00	 0.00000000E+00	 0.00000000E+00
	 0.00000000E+00	 0.00000000E+00	 0.00000000E+00
	 0.00000000E+00	 0.00000000E+00	 0.00000000E+00

	 0.00000000E+00	 0.00000000E+00	 0.00000000E+00
	 0.00000000E+00	 0.00000000E+00	 0.00000000E+00
	 0.00000000E+00	 0.00000000E+00	 0.00000000E+00

	 0.00000000E+00	 0.00000000E+00	 0.00000000E+00
	 0.00000000E+00	 0.00000000E+00	 0.00000000E+00
	 0.00000000E+00	 0.00000000E+00	 0.00000000E+00

	 0.00000000E+00	 0.00000000E+00	 0.00000000E+00
	 0.00000000E+00	 0.00000000E+00	 0.00000000E+00
	 0.00000000E+00	 0.00000000E+00	 0.00000000E+00

	 0.00000000E+00	 0.00000000E+00	 0.00000000E+00
	 0.00000000E+00	 0.00000000E+00	 0.00000000E+00
	 0.00000000E+00	 0.00000000E+00	 0.00000000E+00

	 0.00000000E+00	 0.00000000E+00	 0.00000000E+00
	 0.00000000E+00	 0.00000000E+00	 0.00000000E+00
	 0.00000000E+00	 0.00000000E+00	 0.00000000E+00

	 0.00000000E+00	 0.00000000E+00	 0.00000000E+00
	 0.00000000E+00	 0.00000000E+00	 0.00000000E+00
	 0.00000000E+00	 0.00000000E+00	 0.00000000E+00

	 0.00000000E+00	 0.00000000E+00	 0.00000000E+00
	 0.00000000E+00	 0.00000000E+00	 0.00000000E+00
	 0.00000000E+00	 0.00000000E+00	 0.00000000E+00

	 0.00000000E+00	 0.00000000E+00	 0.00000000E+00
	 0.00000000E+00	 0.00000000E+00	 0.00000000E+00
	 0.00000000E+00	 0.00000000E+00	 0.00000000E+00

	 0.00000000E+00	 0.00000000E+00	 0.00000000E+00
	 0.00000000E+00	 0.00000000E+00	 0.00000000E+00
	 0.00000000E+00	 0.00000000E+00	 0.00000000E+00

	 0.00000000E+00	 0.00000000E+00	 0.00000000E+00
	 0.00000000E+00	 0.00000000E+00	 0.00000000E+00
	 0.00000000E+00	 0.00000000E+00	 0.00000000E+00

	 0.00000000E+00	 0.00000000E+00	 0.00000000E+00
	 0.00000000E+00	 0.00000000E+00	 0.00000000E+00
	 0.00000000E+00	 0.00000000E+00	 0.00000000E+00

	 0.00000000E+00	 0.00000000E+00	 0.00000000E+00
	 0.00000000E+00	 0.00000000E+00	 0.00000000E+00
	 0.00000000E+00	 0.00000000E+00	 0.00000000E+00

	 0.00000000E+00	 0.00000000E+00	 0.00000000E+00
	 0.00000000E+00	 0.00000000E+00	 0.00000000E+00
	 0.00000000E+00	 0.00000000E+00	 0.00000000E+00

	 0.00000000E+00	 0.00000000E+00	 0.00000000E+00
	 0.00000000E+00	 0.00000000E+00	 0.00000000E+00
	 0.00000000E+00	 0.00000000E+00	 0.00000000E+00

	 0.00000000E+00	 0.00000000E+00	 0.00000000E+00
	 0.00000000E+00	 0.00000000E+00	 0.00000000E+00
	 0.00000000E+00	 0.00000000E+00	 0.00000000E+00

	 0.00000000E+00	 0.00000000E+00	 0.00000000E+00
	 0.00000000E+00	 0.00000000E+00	 0.00000000E+00
	 0.00000000E+00	 0.00000000E+00	 0.00000000E+00

	 0.00000000E+00	 0.00000000E+00	 0.00000000E+00
	 0.00000000E+00	 0.00000000E+00	 0.00000000E+00
	 0.00000000E+00	 0.00000000E+00	 0.00000000E+00

	 0.00000000E+00	 0.00000000E+00	 0.00000000E+00
	 0.00000000E+00	 0.00000000E+00	 0.00000000E+00
	 0.00000000E+00	 0.00000000E+00	 0.00000000E+00

	 0.00000000E+00	 0.00000000E+00	 0.00000000E+00
	 0.00000000E+00	 0.00000000E+00	 0.00000000E+00
	 0.00000000E+00	 0.00000000E+00	 0.00000000E+00

	 0.00000000E+00	 0.00000000E+00	 0.00000000E+00
	 0.00000000E+00	 0.00000000E+00	 0.00000000E+00
	 0.00000000E+00	 0.00000000E+00	 0.00000000E+00

	 0.00000000E+00	 0.00000000E+00	 0.00000000E+00
	 0.00000000E+00	 0.00000000E+00	 0.00000000E+00
	 0.00000000E+00	 0.00000000E+00	 0.00000000E+00

	 0.00000000E+00	 0.00000000E+00	 0.00000000E+00
	 0.00000000E+00	 0.00000000E+00	 0.00000000E+00
	 0.00000000E+00	 0.00000000E+00	 0.00000000E+00

	 0.00000000E+00	 0.00000000E+00	 0.00000000E+00
	 0.00000000E+00	 0.00000000E+00	 0.00000000E+00
	 0.00000000E+00	 0.00000000E+00	 0.00000000E+00

	 0.00000000E+00	 0.00000000E+00	 0.00000000E+00
	 0.00000000E+00	 0.00000000E+00	 0.00000000E+00
	 0.00000000E+00	 0.00000000E+00	 0.00000000E+00

	 0.00000000E+00	 0.00000000E+00	 0.00000000E+00
	 0.00000000E+00	 0.00000000E+00	 0.00000000E+00
	 0.00000000E+00	 0.00000000E+00	 0.00000000E+00

	 0.00000000E+00	 0.00000000E+00	 0.00000000E+00
	 0.00000000E+00	 0.00000000E+00	 0.00000000E+00
	 0.00000000E+00	 0.00000000E+00	 0.00000000E+00

	 0.00000000E+00	 0.00000000E+00	 0.00000000E+00
	 0.00000000E+00	 0.00000000E+00	 0.00000000E+00
	 0.00000000E+00	 0.00000000E+00	 0.00000000E+00

	 0.00000000E+00	 0.00000000E+00	 0.00000000E+00
	 0.00000000E+00	 0.00000000E+00	 0.00000000E+00
	 0.00000000E+00	 0.00000000E+00	 0.00000000E+00

	 0.00000000E+00	 0.00000000E+00	 0.00000000E+00
	 0.00000000E+00	 0.00000000E+00	 0.00000000E+00
	 0.00000000E+00	 0.00000000E+00	 0.00000000E+00

	 0.00000000E+00	 0.00000000E+00	 0.00000000E+00
	 0.00000000E+00	 0.00000000E+00	 0.00000000E+00
	 0.00000000E+00	 0.00000000E+00	 0.00000000E+00

	 0.00000000E+00	 0.00000000E+00	 0.00000000E+00
	 0.00000000E+00	 0.00000000E+00	 0.00000000E+00
	 0.00000000E+00	 0.00000000E+00	 0.00000000E+00

	 0.00000000E+00	 0.00000000E+00	 0.00000000E+00
	 0.00000000E+00	 0.00000000E+00	 0.00000000E+00
	 0.00000000E+00	 0.00000000E+00	 0.00000000E+00

	 0.00000000E+00	 0.00000000E+00	 0.00000000E+00
	 0.00000000E+00	 0.00000000E+00	 0.00000000E+00
	 0.00000000E+00	 0.00000000E+00	 0.00000000E+00

	 0.00000000E+00	 0.00000000E+00	 0.00000000E+00
	 0.00000000E+00	 0.00000000E+00	 0.00000000E+00
	 0.00000000E+00	 0.00000000E+00	 0.00000000E+00

	 0.00000000E+00	 0.00000000E+00	 0.00000000E+00
	 0.00000000E+00	 0.00000000E+00	 0.00000000E+00
	 0.00000000E+00	 0.00000000E+00	 0.00000000E+00

	 0.00000000E+00	 0.00000000E+00	 0.00000000E+00
	 0.00000000E+00	 0.00000000E+00	 0.00000000E+00
	 0.00000000E+00	 0.00000000E+00	 0.00000000E+00

	 0.00000000E+00	 0.00000000E+00	 0.00000000E+00
	 0.00000000E+00	 0.00000000E+00	 0.00000000E+00
	 0.00000000E+00	 0.00000000E+00	 0.00000000E+00

	 0.00000000E+00	 0.00000000E+00	 0.00000000E+00
	 0.00000000E+00	 0.00000000E+00	 0.00000000E+00
	 0.00000000E+00	 0.00000000E+00	 0.00000000E+00

	 0.00000000E+00	 0.00000000E+00	 0.00000000E+00
	 0.00000000E+00	 0.00000000E+00	 0.00000000E+00
	 0.00000000E+00	 0.00000000E+00	 0.00000000E+00

	 0.00000000E+00	 0.00000000E+00	 0.00000000E+00
	 0.00000000E+00	 0.00000000E+00	 0.00000000E+00
	 0.00000000E+00	 0.00000000E+00	 0.00000000E+00

	 0.00000000E+00	 0.00000000E+00	 0.00000000E+00
	 0.00000000E+00	 0.00000000E+00	 0.00000000E+00
	 0.00000000E+00	 0.00000000E+00	 0.00000000E+00

	 0.00000000E+00	 0.00000000E+00	 0.00000000E+00
	 0.00000000E+00	 0.00000000E+00	 0.00000000E+00
	 0.00000000E+00	 0.00000000E+00	 0.00000000E+00

	 0.00000000E+00	 0.00000000E+00	 0.00000000E+00
	 0.00000000E+00	 0.00000000E+00	 0.00000000E+00
	 0.00000000E+00	 0.00000000E+00	 0.00000000E+00

	 0.00000000E+00	 0.00000000E+00	 0.00000000E+00
	 0.00000000E+00	 0.00000000E+00	 0.00000000E+00
	 0.00000000E+00	 0.00000000E+00	 0.00000000E+00

	 0.00000000E+00	 0.00000000E+00	 0.00000000E+00
	 0.00000000E+00	 0.00000000E+00	 0.00000000E+00
	 0.00000000E+00	 0.00000000E+00	 0.00000000E+00

	 0.00000000E+00	 0.00000000E+00	 0.00000000E+00
	 0.00000000E+00	 0.00000000E+00	 0.00000000E+00
	 0.00000000E+00	 0.00000000E+00	 0.00000000E+00

	 0.00000000E+00	 0.00000000E+00	 0.00000000E+00
	 0.00000000E+00	 0.00000000E+00	 0.00000000E+00
	 0.00000000E+00	 0.00000000E+00	 0.00000000E+00

	 0.00000000E+00	 0.00000000E+00	 0.00000000E+00
	 0.00000000E+00	 0.00000000E+00	 0.00000000E+00
	 0.00000000E+00	 0.00000000E+00	 0.00000000E+00

	 0.00000000E+00	 0.00000000E+00	 0.00000000E+00
	 0.00000000E+00	 0.00000000E+00	 0.00000000E+00
	 0.00000000E+00	 0.00000000E+00	 0.00000000E+00

	 0.00000000E+00	 0.00000000E+00	 0.00000000E+00
	 0.00000000E+00	 0.00000000E+00	 0.00000000E+00
	 0.00000000E+00	 0.00000000E+00	 0.00000000E+00

	 0.00000000E+00	 0.00000000E+00	 0.00000000E+00
	 0.00000000E+00	 0.00000000E+00	 0.00000000E+00
	 0.00000000E+00	 0.00000000E+00	 0.00000000E+00

	 0.00000000E+00	 0.00000000E+00	 0.00000000E+00
	 0.00000000E+00	 0.00000000E+00	 0.00000000E+00
	 0.00000000E+00	 0.00000000E+00	 0.00000000E+00

	 0.00000000E+00	 0.00000000E+00	 0.00000000E+00
	 0.00000000E+00	 0.00000000E+00	 0.00000000E+00
	 0.00000000E+00	 0.00000000E+00	 0.00000000E+00

	 0.00000000E+00	 0.00000000E+00	 0.00000000E+00
	 0.00000000E+00	 0.00000000E+00	 0.00000000E+00
	 0.00000000E+00	 0.00000000E+00	 0.00000000E+00

	 0.00000000E+00	 0.00000000E+00	 0.00000000E+00
	 0.00000000E+00	 0.00000000E+00	 0.00000000E+00
	 0.00000000E+00	 0.00000000E+00	 0.00000000E+00

	 0.00000000E+00	 0.00000000E+00	 0.00000000E+00
	 0.00000000E+00	 0.00000000E+00	 0.00000000E+00
	 0.00000000E+00	 0.00000000E+00	 0.00000000E+00

	 0.00000000E+00	 0.00000000E+00	 0.00000000E+00
	 0.00000000E+00	 0.00000000E+00	 0.00000000E+00
	 0.00000000E+00	 0.00000000E+00	 0.00000000E+00

	 0.00000000E+00	 0.00000000E+00	 0.00000000E+00
	 0.00000000E+00	 0.00000000E+00	 0.00000000E+00
	 0.00000000E+00	 0.00000000E+00	 0.00000000E+00

	 0.00000000E+00	 0.00000000E+00	 0.00000000E+00
	 0.00000000E+00	 0.00000000E+00	 0.00000000E+00
	 0.00000000E+00	 0.00000000E+00	 0.00000000E+00

	 0.00000000E+00	 0.00000000E+00	 0.00000000E+00
	 0.00000000E+00	 0.00000000E+00	 0.00000000E+00
	 0.00000000E+00	 0.00000000E+00	 0.00000000E+00

	 0.00000000E+00	 0.00000000E+00	 0.00000000E+00
	 0.00000000E+00	 0.00000000E+00	 0.00000000E+00
	 0.00000000E+00	 0.00000000E+00	 0.00000000E+00

	 0.00000000E+00	 0.00000000E+00	 0.00000000E+00
	 0.00000000E+00	 0.00000000E+00	 0.00000000E+00
	 0.00000000E+00	 0.00000000E+00	 0.00000000E+00

	 0.00000000E+00	 0.00000000E+00	 0.00000000E+00
	 0.00000000E+00	 0.00000000E+00	 0.00000000E+00
	 0.00000000E+00	 0.00000000E+00	 0.00000000E+00

	 0.00000000E+00	 0.00000000E+00	 0.00000000E+00
	 0.00000000E+00	 0.00000000E+00	 0.00000000E+00
	 0.00000000E+00	 0.00000000E+00	 0.00000000E+00

	 0.00000000E+00	 0.00000000E+00	 0.00000000E+00
	 0.00000000E+00	 0.00000000E+00	 0.00000000E+00
	 0.00000000E+00	 0.00000000E+00	 0.00000000E+00

	 0.00000000E+00	 0.00000000E+00	 0.00000000E+00
	 0.00000000E+00	 0.00000000E+00	 0.00000000E+00
	 0.00000000E+00	 0.00000000E+00	 0.00000000E+00

	 0.00000000E+00	 0.00000000E+00	 0.00000000E+00
	 0.00000000E+00	 0.00000000E+00	 0.00000000E+00
	 0.00000000E+00	 0.00000000E+00	 0.00000000E+00

	 0.00000000E+00	 0.00000000E+00	 0.00000000E+00
	 0.00000000E+00	 0.00000000E+00	 0.00000000E+00
	 0.00000000E+00	 0.00000000E+00	 0.00000000E+00

	 0.00000000E+00	 0.00000000E+00	 0.00000000E+00
	 0.00000000E+00	 0.00000000E+00	 0.00000000E+00
	 0.00000000E+00	 0.00000000E+00	 0.00000000E+00

	 0.00000000E+00	 0.00000000E+00	 0.00000000E+00
	 0.00000000E+00	 0.00000000E+00	 0.00000000E+00
	 0.00000000E+00	 0.00000000E+00	 0.00000000E+00

	 0.00000000E+00	 0.00000000E+00	 0.00000000E+00
	 0.00000000E+00	 0.00000000E+00	 0.00000000E+00
	 0.00000000E+00	 0.00000000E+00	 0.00000000E+00

	 0.00000000E+00	 0.00000000E+00	 0.00000000E+00
	 0.00000000E+00	 0.00000000E+00	 0.00000000E+00
	 0.00000000E+00	 0.00000000E+00	 0.00000000E+00

	 0.00000000E+00	 0.00000000E+00	 0.00000000E+00
	 0.00000000E+00	 0.00000000E+00	 0.00000000E+00
	 0.00000000E+00	 0.00000000E+00	 0.00000000E+00

	 0.00000000E+00	 0.00000000E+00	 0.00000000E+00
	 0.00000000E+00	 0.00000000E+00	 0.00000000E+00
	 0.00000000E+00	 0.00000000E+00	 0.00000000E+00

	 0.00000000E+00	 0.00000000E+00	 0.00000000E+00
	 0.00000000E+00	 0.00000000E+00	 0.00000000E+00
	 0.00000000E+00	 0.00000000E+00	 0.00000000E+00

	 0.00000000E+00	 0.00000000E+00	 0.00000000E+00
	 0.00000000E+00	 0.00000000E+00	 0.00000000E+00
	 0.00000000E+00	 0.00000000E+00	 0.00000000E+00

	 0.00000000E+00	 0.00000000E+00	 0.00000000E+00
	 0.00000000E+00	 0.00000000E+00	 0.00000000E+00
	 0.00000000E+00	 0.00000000E+00	 0.00000000E+00

	 0.00000000E+00	 0.00000000E+00	 0.00000000E+00
	 0.00000000E+00	 0.00000000E+00	 0.00000000E+00
	 0.00000000E+00	 0.00000000E+00	 0.00000000E+00

	 0.00000000E+00	 0.00000000E+00	 0.00000000E+00
	 0.00000000E+00	 0.00000000E+00	 0.00000000E+00
	 0.00000000E+00	 0.00000000E+00	 0.00000000E+00

	 0.00000000E+00	 0.00000000E+00	 0.00000000E+00
	 0.00000000E+00	 0.00000000E+00	 0.00000000E+00
	 0.00000000E+00	 0.00000000E+00	 0.00000000E+00

	 0.00000000E+00	 0.00000000E+00	 0.00000000E+00
	 0.00000000E+00	 0.00000000E+00	 0.00000000E+00
	 0.00000000E+00	 0.00000000E+00	 0.00000000E+00

	 0.00000000E+00	 0.00000000E+00	 0.00000000E+00
	 0.00000000E+00	 0.00000000E+00	 0.00000000E+00
	 0.00000000E+00	 0.00000000E+00	 0.00000000E+00

	 0.00000000E+00	 0.00000000E+00	 0.00000000E+00
	 0.00000000E+00	 0.00000000E+00	 0.00000000E+00
	 0.00000000E+00	 0.00000000E+00	 0.00000000E+00

	 0.00000000E+00	 0.00000000E+00	 0.00000000E+00
	 0.00000000E+00	 0.00000000E+00	 0.00000000E+00
	 0.00000000E+00	 0.00000000E+00	 0.00000000E+00

	 0.00000000E+00	 0.00000000E+00	 0.00000000E+00
	 0.00000000E+00	 0.00000000E+00	 0.00000000E+00
	 0.00000000E+00	 0.00000000E+00	 0.00000000E+00

	 0.00000000E+00	 0.00000000E+00	 0.00000000E+00
	 0.00000000E+00	 0.00000000E+00	 0.00000000E+00
	 0.00000000E+00	 0.00000000E+00	 0.00000000E+00

	 0.00000000E+00	 0.00000000E+00	 0.00000000E+00
	 0.00000000E+00	 0.00000000E+00	 0.00000000E+00
	 0.00000000E+00	 0.00000000E+00	 0.00000000E+00

	 0.00000000E+00	 0.00000000E+00	 0.00000000E+00
	 0.00000000E+00	 0.00000000E+00	 0.00000000E+00
	 0.00000000E+00	 0.00000000E+00	 0.00000000E+00

	 0.00000000E+00	 0.00000000E+00	 0.00000000E+00
	 0.00000000E+00	 0.00000000E+00	 0.00000000E+00
	 0.00000000E+00	 0.00000000E+00	 0.00000000E+00

	 0.00000000E+00	 0.00000000E+00	 0.00000000E+00
	 0.00000000E+00	 0.00000000E+00	 0.00000000E+00
	 0.00000000E+00	 0.00000000E+00	 0.00000000E+00

	 0.00000000E+00	 0.00000000E+00	 0.00000000E+00
	 0.00000000E+00	 0.00000000E+00	 0.00000000E+00
	 0.00000000E+00	 0.00000000E+00	 0.00000000E+00

	 0.00000000E+00	 0.00000000E+00	 0.00000000E+00
	 0.00000000E+00	 0.00000000E+00	 0.00000000E+00
	 0.00000000E+00	 0.00000000E+00	 0.00000000E+00

	 0.00000000E+00	 0.00000000E+00	 0.00000000E+00
	 0.00000000E+00	 0.00000000E+00	 0.00000000E+00
	 0.00000000E+00	 0.00000000E+00	 0.00000000E+00

	 0.00000000E+00	 0.00000000E+00	 0.00000000E+00
	 0.00000000E+00	 0.00000000E+00	 0.00000000E+00
	 0.00000000E+00	 0.00000000E+00	 0.00000000E+00

	 0.00000000E+00	 0.00000000E+00	 0.00000000E+00
	 0.00000000E+00	 0.00000000E+00	 0.00000000E+00
	 0.00000000E+00	 0.00000000E+00	 0.00000000E+00

	 0.00000000E+00	 0.00000000E+00	 0.00000000E+00
	 0.00000000E+00	 0.00000000E+00	 0.00000000E+00
	 0.00000000E+00	 0.00000000E+00	 0.00000000E+00

	 0.00000000E+00	 0.00000000E+00	 0.00000000E+00
	 0.00000000E+00	 0.00000000E+00	 0.00000000E+00
	 0.00000000E+00	 0.00000000E+00	 0.00000000E+00

	 0.00000000E+00	 0.00000000E+00	 0.00000000E+00
	 0.00000000E+00	 0.00000000E+00	 0.00000000E+00
	 0.00000000E+00	 0.00000000E+00	 0.00000000E+00

	 0.00000000E+00	 0.00000000E+00	 0.00000000E+00
	 0.00000000E+00	 0.00000000E+00	 0.00000000E+00
	 0.00000000E+00	 0.00000000E+00	 0.00000000E+00

	 0.00000000E+00	 0.00000000E+00	 0.00000000E+00
	 0.00000000E+00	 0.00000000E+00	 0.00000000E+00
	 0.00000000E+00	 0.00000000E+00	 0.00000000E+00

	 0.00000000E+00	 0.00000000E+00	 0.00000000E+00
	 0.00000000E+00	 0.00000000E+00	 0.00000000E+00
	 0.00000000E+00	 0.00000000E+00	 0.00000000E+00

	 0.00000000E+00	 0.00000000E+00	 0.00000000E+00
	 0.00000000E+00	 0.00000000E+00	 0.00000000E+00
	 0.00000000E+00	 0.00000000E+00	 0.00000000E+00

	 0.00000000E+00	 0.00000000E+00	 0.00000000E+00
	 0.00000000E+00	 0.00000000E+00	 0.00000000E+00
	 0.00000000E+00	 0.00000000E+00	 0.00000000E+00

	 0.00000000E+00	 0.00000000E+00	 0.00000000E+00
	 0.00000000E+00	 0.00000000E+00	 0.00000000E+00
	 0.00000000E+00	 0.00000000E+00	 0.00000000E+00

	 0.00000000E+00	 0.00000000E+00	 0.00000000E+00
	 0.00000000E+00	 0.00000000E+00	 0.00000000E+00
	 0.00000000E+00	 0.00000000E+00	 0.00000000E+00

	 0.00000000E+00	 0.00000000E+00	 0.00000000E+00
	 0.00000000E+00	 0.00000000E+00	 0.00000000E+00
	 0.00000000E+00	 0.00000000E+00	 0.00000000E+00

	 0.00000000E+00	 0.00000000E+00	 0.00000000E+00
	 0.00000000E+00	 0.00000000E+00	 0.00000000E+00
	 0.00000000E+00	 0.00000000E+00	 0.00000000E+00

	 0.00000000E+00	 0.00000000E+00	 0.00000000E+00
	 0.00000000E+00	 0.00000000E+00	 0.00000000E+00
	 0.00000000E+00	 0.00000000E+00	 0.00000000E+00

	 0.00000000E+00	 0.00000000E+00	 0.00000000E+00
	 0.00000000E+00	 0.00000000E+00	 0.00000000E+00
	 0.00000000E+00	 0.00000000E+00	 0.00000000E+00

	 0.00000000E+00	 0.00000000E+00	 0.00000000E+00
	 0.00000000E+00	 0.00000000E+00	 0.00000000E+00
	 0.00000000E+00	 0.00000000E+00	 0.00000000E+00

	 0.00000000E+00	 0.00000000E+00	 0.00000000E+00
	 0.00000000E+00	 0.00000000E+00	 0.00000000E+00
	 0.00000000E+00	 0.00000000E+00	 0.00000000E+00

	 0.00000000E+00	 0.00000000E+00	 0.00000000E+00
	 0.00000000E+00	 0.00000000E+00	 0.00000000E+00
	 0.00000000E+00	 0.00000000E+00	 0.00000000E+00

	 0.00000000E+00	 0.00000000E+00	 0.00000000E+00
	 0.00000000E+00	 0.00000000E+00	 0.00000000E+00
	 0.00000000E+00	 0.00000000E+00	 0.00000000E+00

	 0.00000000E+00	 0.00000000E+00	 0.00000000E+00
	 0.00000000E+00	 0.00000000E+00	 0.00000000E+00
	 0.00000000E+00	 0.00000000E+00	 0.00000000E+00

	 0.00000000E+00	 0.00000000E+00	 0.00000000E+00
	 0.00000000E+00	 0.00000000E+00	 0.00000000E+00
	 0.00000000E+00	 0.00000000E+00	 0.00000000E+00

	 0.00000000E+00	 0.00000000E+00	 0.00000000E+00
	 0.00000000E+00	 0.00000000E+00	 0.00000000E+00
	 0.00000000E+00	 0.00000000E+00	 0.00000000E+00

	 0.00000000E+00	 0.00000000E+00	 0.00000000E+00
	 0.00000000E+00	 0.00000000E+00	 0.00000000E+00
	 0.00000000E+00	 0.00000000E+00	 0.00000000E+00

	 0.00000000E+00	 0.00000000E+00	 0.00000000E+00
	 0.00000000E+00	 0.00000000E+00	 0.00000000E+00
	 0.00000000E+00	 0.00000000E+00	 0.00000000E+00

	 0.00000000E+00	 0.00000000E+00	 0.00000000E+00
	 0.00000000E+00	 0.00000000E+00	 0.00000000E+00
	 0.00000000E+00	 0.00000000E+00	 0.00000000E+00

	 0.00000000E+00	 0.00000000E+00	 0.00000000E+00
	 0.00000000E+00	 0.00000000E+00	 0.00000000E+00
	 0.00000000E+00	 0.00000000E+00	 0.00000000E+00

	 0.00000000E+00	 0.00000000E+00	 0.00000000E+00
	 0.00000000E+00	 0.00000000E+00	 0.00000000E+00
	 0.00000000E+00	 0.00000000E+00	 0.00000000E+00

	 0.00000000E+00	 0.00000000E+00	 0.00000000E+00
	 0.00000000E+00	 0.00000000E+00	 0.00000000E+00
	 0.00000000E+00	 0.00000000E+00	 0.00000000E+00

	 0.00000000E+00	 0.00000000E+00	 0.00000000E+00
	 0.00000000E+00	 0.00000000E+00	 0.00000000E+00
	 0.00000000E+00	 0.00000000E+00	 0.00000000E+00

	 0.00000000E+00	 0.00000000E+00	 0.00000000E+00
	 0.00000000E+00	 0.00000000E+00	 0.00000000E+00
	 0.00000000E+00	 0.00000000E+00	 0.00000000E+00

	 0.00000000E+00	 0.00000000E+00	 0.00000000E+00
	 0.00000000E+00	 0.00000000E+00	 0.00000000E+00
	 0.00000000E+00	 0.00000000E+00	 0.00000000E+00

	 0.00000000E+00	 0.00000000E+00	 0.00000000E+00
	 0.00000000E+00	 0.00000000E+00	 0.00000000E+00
	 0.00000000E+00	 0.00000000E+00	 0.00000000E+00

	 0.00000000E+00	 0.00000000E+00	 0.00000000E+00
	 0.00000000E+00	 0.00000000E+00	 0.00000000E+00
	 0.00000000E+00	 0.00000000E+00	 0.00000000E+00

	 0.00000000E+00	 0.00000000E+00	 0.00000000E+00
	 0.00000000E+00	 0.00000000E+00	 0.00000000E+00
	 0.00000000E+00	 0.00000000E+00	 0.00000000E+00

	 0.00000000E+00	 0.00000000E+00	 0.00000000E+00
	 0.00000000E+00	 0.00000000E+00	 0.00000000E+00
	 0.00000000E+00	 0.00000000E+00	 0.00000000E+00

	 0.00000000E+00	 0.00000000E+00	 0.00000000E+00
	 0.00000000E+00	 0.00000000E+00	 0.00000000E+00
	 0.00000000E+00	 0.00000000E+00	 0.00000000E+00

	 0.00000000E+00	 0.00000000E+00	 0.00000000E+00
	 0.00000000E+00	 0.00000000E+00	 0.00000000E+00
	 0.00000000E+00	 0.00000000E+00	 0.00000000E+00

	 0.00000000E+00	 0.00000000E+00	 0.00000000E+00
	 0.00000000E+00	 0.00000000E+00	 0.00000000E+00
	 0.00000000E+00	 0.00000000E+00	 0.00000000E+00

	 0.00000000E+00	 0.00000000E+00	 0.00000000E+00
	 0.00000000E+00	 0.00000000E+00	 0.00000000E+00
	 0.00000000E+00	 0.00000000E+00	 0.00000000E+00

	 0.00000000E+00	 0.00000000E+00	 0.00000000E+00
	 0.00000000E+00	 0.00000000E+00	 0.00000000E+00
	 0.00000000E+00	 0.00000000E+00	 0.00000000E+00

	 0.00000000E+00	 0.00000000E+00	 0.00000000E+00
	 0.00000000E+00	 0.00000000E+00	 0.00000000E+00
	 0.00000000E+00	 0.00000000E+00	 0.00000000E+00

	 0.00000000E+00	 0.00000000E+00	 0.00000000E+00
	 0.00000000E+00	 0.00000000E+00	 0.00000000E+00
	 0.00000000E+00	 0.00000000E+00	 0.00000000E+00

	 0.00000000E+00	 0.00000000E+00	 0.00000000E+00
	 0.00000000E+00	 0.00000000E+00	 0.00000000E+00
	 0.00000000E+00	 0.00000000E+00	 0.00000000E+00

	 0.00000000E+00	 0.00000000E+00	 0.00000000E+00
	 0.00000000E+00	 0.00000000E+00	 0.00000000E+00
	 0.00000000E+00	 0.00000000E+00	 0.00000000E+00

	 0.00000000E+00	 0.00000000E+00	 0.00000000E+00
	 0.00000000E+00	 0.00000000E+00	 0.00000000E+00
	 0.00000000E+00	 0.00000000E+00	 0.00000000E+00

	 0.00000000E+00	 0.00000000E+00	 0.00000000E+00
	 0.00000000E+00	 0.00000000E+00	 0.00000000E+00
	 0.00000000E+00	 0.00000000E+00	 0.00000000E+00

	 0.00000000E+00	 0.00000000E+00	 0.00000000E+00
	 0.00000000E+00	 0.00000000E+00	 0.00000000E+00
	 0.00000000E+00	 0.00000000E+00	 0.00000000E+00

	 0.00000000E+00	 0.00000000E+00	 0.00000000E+00
	 0.00000000E+00	 0.00000000E+00	 0.00000000E+00
	 0.00000000E+00	 0.00000000E+00	 0.00000000E+00

	 0.00000000E+00	 0.00000000E+00	 0.00000000E+00
	 0.00000000E+00	 0.00000000E+00	 0.00000000E+00
	 0.00000000E+00	 0.00000000E+00	 0.00000000E+00

	 0.00000000E+00	 0.00000000E+00	 0.00000000E+00
	 0.00000000E+00	 0.00000000E+00	 0.00000000E+00
	 0.00000000E+00	 0.00000000E+00	 0.00000000E+00

	 0.00000000E+00	 0.00000000E+00	 0.00000000E+00
	 0.00000000E+00	 0.00000000E+00	 0.00000000E+00
	 0.00000000E+00	 0.00000000E+00	 0.00000000E+00

	 0.00000000E+00	 0.00000000E+00	 0.00000000E+00
	 0.00000000E+00	 0.00000000E+00	 0.00000000E+00
	 0.00000000E+00	 0.00000000E+00	 0.00000000E+00

	 0.00000000E+00	 0.00000000E+00	 0.00000000E+00
	 0.00000000E+00	 0.00000000E+00	 0.00000000E+00
	 0.00000000E+00	 0.00000000E+00	 0.00000000E+00

	 0.00000000E+00	 0.00000000E+00	 0.00000000E+00
	 0.00000000E+00	 0.00000000E+00	 0.00000000E+00
	 0.00000000E+00	 0.00000000E+00	 0.00000000E+00

	 0.00000000E+00	 0.00000000E+00	 0.00000000E+00
	 0.00000000E+00	 0.00000000E+00	 0.00000000E+00
	 0.00000000E+00	 0.00000000E+00	 0.00000000E+00

	 0.00000000E+00	 0.00000000E+00	 0.00000000E+00
	 0.00000000E+00	 0.00000000E+00	 0.00000000E+00
	 0.00000000E+00	 0.00000000E+00	 0.00000000E+00

	 0.00000000E+00	 0.00000000E+00	 0.00000000E+00
	 0.00000000E+00	 0.00000000E+00	 0.00000000E+00
	 0.00000000E+00	 0.00000000E+00	 0.00000000E+00

	 0.00000000E+00	 0.00000000E+00	 0.00000000E+00
	 0.00000000E+00	 0.00000000E+00	 0.00000000E+00
	 0.00000000E+00	 0.00000000E+00	 0.00000000E+00

	 0.00000000E+00	 0.00000000E+00	 0.00000000E+00
	 0.00000000E+00	 0.00000000E+00	 0.00000000E+00
	 0.00000000E+00	 0.00000000E+00	 0.00000000E+00

	 0.00000000E+00	 0.00000000E+00	 0.00000000E+00
	 0.00000000E+00	 0.00000000E+00	 0.00000000E+00
	 0.00000000E+00	 0.00000000E+00	 0.00000000E+00

	 0.00000000E+00	 0.00000000E+00	 0.00000000E+00
	 0.00000000E+00	 0.00000000E+00	 0.00000000E+00
	 0.00000000E+00	 0.00000000E+00	 0.00000000E+00

	 0.00000000E+00	 0.00000000E+00	 0.00000000E+00
	 0.00000000E+00	 0.00000000E+00	 0.00000000E+00
	 0.00000000E+00	 0.00000000E+00	 0.00000000E+00

	 0.00000000E+00	 0.00000000E+00	 0.00000000E+00
	 0.00000000E+00	 0.00000000E+00	 0.00000000E+00
	 0.00000000E+00	 0.00000000E+00	 0.00000000E+00

	 0.00000000E+00	 0.00000000E+00	 0.00000000E+00
	 0.00000000E+00	 0.00000000E+00	 0.00000000E+00
	 0.00000000E+00	 0.00000000E+00	 0.00000000E+00

	 0.00000000E+00	 0.00000000E+00	 0.00000000E+00
	 0.00000000E+00	 0.00000000E+00	 0.00000000E+00
	 0.00000000E+00	 0.00000000E+00	 0.00000000E+00

	 0.00000000E+00	 0.00000000E+00	 0.00000000E+00
	 0.00000000E+00	 0.00000000E+00	 0.00000000E+00
	 0.00000000E+00	 0.00000000E+00	 0.00000000E+00

	 0.00000000E+00	 0.00000000E+00	 0.00000000E+00
	 0.00000000E+00	 0.00000000E+00	 0.00000000E+00
	 0.00000000E+00	 0.00000000E+00	 0.00000000E+00

	 0.00000000E+00	 0.00000000E+00	 0.00000000E+00
	 0.00000000E+00	 0.00000000E+00	 0.00000000E+00
	 0.00000000E+00	 0.00000000E+00	 0.00000000E+00

	 0.00000000E+00	 0.00000000E+00	 0.00000000E+00
	 0.00000000E+00	 0.00000000E+00	 0.00000000E+00
	 0.00000000E+00	 0.00000000E+00	 0.00000000E+00

	 0.00000000E+00	 0.00000000E+00	 0.00000000E+00
	 0.00000000E+00	 0.00000000E+00	 0.00000000E+00
	 0.00000000E+00	 0.00000000E+00	 0.00000000E+00

	 0.00000000E+00	 0.00000000E+00	 0.00000000E+00
	 0.00000000E+00	 0.00000000E+00	 0.00000000E+00
	 0.00000000E+00	 0.00000000E+00	 0.00000000E+00

	 0.00000000E+00	 0.00000000E+00	 0.00000000E+00
	 0.00000000E+00	 0.00000000E+00	 0.00000000E+00
	 0.00000000E+00	 0.00000000E+00	 0.00000000E+00

	 0.00000000E+00	 0.00000000E+00	 0.00000000E+00
	 0.00000000E+00	 0.00000000E+00	 0.00000000E+00
	 0.00000000E+00	 0.00000000E+00	 0.00000000E+00

	 0.00000000E+00	 0.00000000E+00	 0.00000000E+00
	 0.00000000E+00	 0.00000000E+00	 0.00000000E+00
	 0.00000000E+00	 0.00000000E+00	 0.00000000E+00

	 0.00000000E+00	 0.00000000E+00	 0.00000000E+00
	 0.00000000E+00	 0.00000000E+00	 0.00000000E+00
	 0.00000000E+00	 0.00000000E+00	 0.00000000E+00

	 0.00000000E+00	 0.00000000E+00	 0.00000000E+00
	 0.00000000E+00	 0.00000000E+00	 0.00000000E+00
	 0.00000000E+00	 0.00000000E+00	 0.00000000E+00

	 0.00000000E+00	 0.00000000E+00	 0.00000000E+00
	 0.00000000E+00	 0.00000000E+00	 0.00000000E+00
	 0.00000000E+00	 0.00000000E+00	 0.00000000E+00

	 0.00000000E+00	 0.00000000E+00	 0.00000000E+00
	 0.00000000E+00	 0.00000000E+00	 0.00000000E+00
	 0.00000000E+00	 0.00000000E+00	 0.00000000E+00

	 0.00000000E+00	 0.00000000E+00	 0.00000000E+00
	 0.00000000E+00	 0.00000000E+00	 0.00000000E+00
	 0.00000000E+00	 0.00000000E+00	 0.00000000E+00

	 0.00000000E+00	 0.00000000E+00	 0.00000000E+00
	 0.00000000E+00	 0.00000000E+00	 0.00000000E+00
	 0.00000000E+00	 0.00000000E+00	 0.00000000E+00

	 0.00000000E+00	 0.00000000E+00	 0.00000000E+00
	 0.00000000E+00	 0.00000000E+00	 0.00000000E+00
	 0.00000000E+00	 0.00000000E+00	 0.00000000E+00

	 0.00000000E+00	 0.00000000E+00	 0.00000000E+00
	 0.00000000E+00	 0.00000000E+00	 0.00000000E+00
	 0.00000000E+00	 0.00000000E+00	 0.00000000E+00

	 0.00000000E+00	 0.00000000E+00	 0.00000000E+00
	 0.00000000E+00	 0.00000000E+00	 0.00000000E+00
	 0.00000000E+00	 0.00000000E+00	 0.00000000E+00

	 0.00000000E+00	 0.00000000E+00	 0.00000000E+00
	 0.00000000E+00	 0.00000000E+00	 0.00000000E+00
	 0.00000000E+00	 0.00000000E+00	 0.00000000E+00

	 0.00000000E+00	 0.00000000E+00	 0.00000000E+00
	 0.00000000E+00	 0.00000000E+00	 0.00000000E+00
	 0.00000000E+00	 0.00000000E+00	 0.00000000E+00

	 0.00000000E+00	 0.00000000E+00	 0.00000000E+00
	 0.00000000E+00	 0.00000000E+00	 0.00000000E+00
	 0.00000000E+00	 0.00000000E+00	 0.00000000E+00

	 0.00000000E+00	 0.00000000E+00	 0.00000000E+00
	 0.00000000E+00	 0.00000000E+00	 0.00000000E+00
	 0.00000000E+00	 0.00000000E+00	 0.00000000E+00

	 0.00000000E+00	 0.00000000E+00	 0.00000000E+00
	 0.00000000E+00	 0.00000000E+00	 0.00000000E+00
	 0.00000000E+00	 0.00000000E+00	 0.00000000E+00

	 0.00000000E+00	 0.00000000E+00	 0.00000000E+00
	 0.00000000E+00	 0.00000000E+00	 0.00000000E+00
	 0.00000000E+00	 0.00000000E+00	 0.00000000E+00

	 0.00000000E+00	 0.00000000E+00	 0.00000000E+00
	 0.00000000E+00	 0.00000000E+00	 0.00000000E+00
	 0.00000000E+00	 0.00000000E+00	 0.00000000E+00

	 0.00000000E+00	 0.00000000E+00	 0.00000000E+00
	 0.00000000E+00	 0.00000000E+00	 0.00000000E+00
	 0.00000000E+00	 0.00000000E+00	 0.00000000E+00

	 0.00000000E+00	 0.00000000E+00	 0.00000000E+00
	 0.00000000E+00	 0.00000000E+00	 0.00000000E+00
	 0.00000000E+00	 0.00000000E+00	 0.00000000E+00

	 0.00000000E+00	 0.00000000E+00	 0.00000000E+00
	 0.00000000E+00	 0.00000000E+00	 0.00000000E+00
	 0.00000000E+00	 0.00000000E+00	 0.00000000E+00

	 0.00000000E+00	 0.00000000E+00	 0.00000000E+00
	 0.00000000E+00	 0.00000000E+00	 0.00000000E+00
	 0.00000000E+00	 0.00000000E+00	 0.00000000E+00

	 0.00000000E+00	 0.00000000E+00	 0.00000000E+00
	 0.00000000E+00	 0.00000000E+00	 0.00000000E+00
	 0.00000000E+00	 0.00000000E+00	 0.00000000E+00

	 0.00000000E+00	 0.00000000E+00	 0.00000000E+00
	 0.00000000E+00	 0.00000000E+00	 0.00000000E+00
	 0.00000000E+00	 0.00000000E+00	 0.00000000E+00

	 0.00000000E+00	 0.00000000E+00	 0.00000000E+00
	 0.00000000E+00	 0.00000000E+00	 0.00000000E+00
	 0.00000000E+00	 0.00000000E+00	 0.00000000E+00

	 0.00000000E+00	 0.00000000E+00	 0.00000000E+00
	 0.00000000E+00	 0.00000000E+00	 0.00000000E+00
	 0.00000000E+00	 0.00000000E+00	 0.00000000E+00

	 0.00000000E+00	 0.00000000E+00	 0.00000000E+00
	 0.00000000E+00	 0.00000000E+00	 0.00000000E+00
	 0.00000000E+00	 0.00000000E+00	 0.00000000E+00

	 0.00000000E+00	 0.00000000E+00	 0.00000000E+00
	 0.00000000E+00	 0.00000000E+00	 0.00000000E+00
	 0.00000000E+00	 0.00000000E+00	 0.00000000E+00

	 0.00000000E+00	 0.00000000E+00	 0.00000000E+00
	 0.00000000E+00	 0.00000000E+00	 0.00000000E+00
	 0.00000000E+00	 0.00000000E+00	 0.00000000E+00

	 0.00000000E+00	 0.00000000E+00	 0.00000000E+00
	 0.00000000E+00	 0.00000000E+00	 0.00000000E+00
	 0.00000000E+00	 0.00000000E+00	 0.00000000E+00

	 0.00000000E+00	 0.00000000E+00	 0.00000000E+00
	 0.00000000E+00	 0.00000000E+00	 0.00000000E+00
	 0.00000000E+00	 0.00000000E+00	 0.00000000E+00

	 0.00000000E+00	 0.00000000E+00	 0.00000000E+00
	 0.00000000E+00	 0.00000000E+00	 0.00000000E+00
	 0.00000000E+00	 0.00000000E+00	 0.00000000E+00

	 0.00000000E+00	 0.00000000E+00	 0.00000000E+00
	 0.00000000E+00	 0.00000000E+00	 0.00000000E+00
	 0.00000000E+00	 0.00000000E+00	 0.00000000E+00

	 0.00000000E+00	 0.00000000E+00	 0.00000000E+00
	 0.00000000E+00	 0.00000000E+00	 0.00000000E+00
	 0.00000000E+00	 0.00000000E+00	 0.00000000E+00

	 0.00000000E+00	 0.00000000E+00	 0.00000000E+00
	 0.00000000E+00	 0.00000000E+00	 0.00000000E+00
	 0.00000000E+00	 0.00000000E+00	 0.00000000E+00

	 0.00000000E+00	 0.00000000E+00	 0.00000000E+00
	 0.00000000E+00	 0.00000000E+00	 0.00000000E+00
	 0.00000000E+00	 0.00000000E+00	 0.00000000E+00

	 0.00000000E+00	 0.00000000E+00	 0.00000000E+00
	 0.00000000E+00	 0.00000000E+00	 0.00000000E+00
	 0.00000000E+00	 0.00000000E+00	 0.00000000E+00

	 0.00000000E+00	 0.00000000E+00	 0.00000000E+00
	 0.00000000E+00	 0.00000000E+00	 0.00000000E+00
	 0.00000000E+00	 0.00000000E+00	 0.00000000E+00

	 0.00000000E+00	 0.00000000E+00	 0.00000000E+00
	 0.00000000E+00	 0.00000000E+00	 0.00000000E+00
	 0.00000000E+00	 0.00000000E+00	 0.00000000E+00

	 0.00000000E+00	 0.00000000E+00	 0.00000000E+00
	 0.00000000E+00	 0.00000000E+00	 0.00000000E+00
	 0.00000000E+00	 0.00000000E+00	 0.00000000E+00

	 0.00000000E+00	 0.00000000E+00	 0.00000000E+00
	 0.00000000E+00	 0.00000000E+00	 0.00000000E+00
	 0.00000000E+00	 0.00000000E+00	 0.00000000E+00

	 0.00000000E+00	 0.00000000E+00	 0.00000000E+00
	 0.00000000E+00	 0.00000000E+00	 0.00000000E+00
	 0.00000000E+00	 0.00000000E+00	 0.00000000E+00

	 0.00000000E+00	 0.00000000E+00	 0.00000000E+00
	 0.00000000E+00	 0.00000000E+00	 0.00000000E+00
	 0.00000000E+00	 0.00000000E+00	 0.00000000E+00

	 0.00000000E+00	 0.00000000E+00	 0.00000000E+00
	 0.00000000E+00	 0.00000000E+00	 0.00000000E+00
	 0.00000000E+00	 0.00000000E+00	 0.00000000E+00

	 0.00000000E+00	 0.00000000E+00	 0.00000000E+00
	 0.00000000E+00	 0.00000000E+00	 0.00000000E+00
	 0.00000000E+00	 0.00000000E+00	 0.00000000E+00

	 0.00000000E+00	 0.00000000E+00	 0.00000000E+00
	 0.00000000E+00	 0.00000000E+00	 0.00000000E+00
	 0.00000000E+00	 0.00000000E+00	 0.00000000E+00

	 0.00000000E+00	 0.00000000E+00	 0.00000000E+00
	 0.00000000E+00	 0.00000000E+00	 0.00000000E+00
	 0.00000000E+00	 0.00000000E+00	 0.00000000E+00

	 0.00000000E+00	 0.00000000E+00	 0.00000000E+00
	 0.00000000E+00	 0.00000000E+00	 0.00000000E+00
	 0.00000000E+00	 0.00000000E+00	 0.00000000E+00

	 0.00000000E+00	 0.00000000E+00	 0.00000000E+00
	 0.00000000E+00	 0.00000000E+00	 0.00000000E+00
	 0.00000000E+00	 0.00000000E+00	 0.00000000E+00

	 0.00000000E+00	 0.00000000E+00	 0.00000000E+00
	 0.00000000E+00	 0.00000000E+00	 0.00000000E+00
	 0.00000000E+00	 0.00000000E+00	 0.00000000E+00

	 0.00000000E+00	 0.00000000E+00	 0.00000000E+00
	 0.00000000E+00	 0.00000000E+00	 0.00000000E+00
	 0.00000000E+00	 0.00000000E+00	 0.00000000E+00

	 0.00000000E+00	 0.00000000E+00	 0.00000000E+00
	 0.00000000E+00	 0.00000000E+00	 0.00000000E+00
	 0.00000000E+00	 0.00000000E+00	 0.00000000E+00

	 0.00000000E+00	 0.00000000E+00	 0.00000000E+00
	 0.00000000E+00	 0.00000000E+00	 0.00000000E+00
	 0.00000000E+00	 0.00000000E+00	 0.00000000E+00

	 0.00000000E+00	 0.00000000E+00	 0.00000000E+00
	 0.00000000E+00	 0.00000000E+00	 0.00000000E+00
	 0.00000000E+00	 0.00000000E+00	 0.00000000E+00

	 0.00000000E+00	 0.00000000E+00	 0.00000000E+00
	 0.00000000E+00	 0.00000000E+00	 0.00000000E+00
	 0.00000000E+00	 0.00000000E+00	 0.00000000E+00

	 0.00000000E+00	 0.00000000E+00	 0.00000000E+00
	 0.00000000E+00	 0.00000000E+00	 0.00000000E+00
	 0.00000000E+00	 0.00000000E+00	 0.00000000E+00

	 0.00000000E+00	 0.00000000E+00	 0.00000000E+00
	 0.00000000E+00	 0.00000000E+00	 0.00000000E+00
	 0.00000000E+00	 0.00000000E+00	 0.00000000E+00

	 0.00000000E+00	 0.00000000E+00	 0.00000000E+00
	 0.00000000E+00	 0.00000000E+00	 0.00000000E+00
	 0.00000000E+00	 0.00000000E+00	 0.00000000E+00

	 0.00000000E+00	 0.00000000E+00	 0.00000000E+00
	 0.00000000E+00	 0.00000000E+00	 0.00000000E+00
	 0.00000000E+00	 0.00000000E+00	 0.00000000E+00

	 0.00000000E+00	 0.00000000E+00	 0.00000000E+00
	 0.00000000E+00	 0.00000000E+00	 0.00000000E+00
	 0.00000000E+00	 0.00000000E+00	 0.00000000E+00

	 0.00000000E+00	 0.00000000E+00	 0.00000000E+00
	 0.00000000E+00	 0.00000000E+00	 0.00000000E+00
	 0.00000000E+00	 0.00000000E+00	 0.00000000E+00

	 0.00000000E+00	 0.00000000E+00	 0.00000000E+00
	 0.00000000E+00	 0.00000000E+00	 0.00000000E+00
	 0.00000000E+00	 0.00000000E+00	 0.00000000E+00

	 0.00000000E+00	 0.00000000E+00	 0.00000000E+00
	 0.00000000E+00	 0.00000000E+00	 0.00000000E+00
	 0.00000000E+00	 0.00000000E+00	 0.00000000E+00

	 0.00000000E+00	 0.00000000E+00	 0.00000000E+00
	 0.00000000E+00	 0.00000000E+00	 0.00000000E+00
	 0.00000000E+00	 0.00000000E+00	 0.00000000E+00

	 0.00000000E+00	 0.00000000E+00	 0.00000000E+00
	 0.00000000E+00	 0.00000000E+00	 0.00000000E+00
	 0.00000000E+00	 0.00000000E+00	 0.00000000E+00

	 0.00000000E+00	 0.00000000E+00	 0.00000000E+00
	 0.00000000E+00	 0.00000000E+00	 0.00000000E+00
	 0.00000000E+00	 0.00000000E+00	 0.00000000E+00

	 0.00000000E+00	 0.00000000E+00	 0.00000000E+00
	 0.00000000E+00	 0.00000000E+00	 0.00000000E+00
	 0.00000000E+00	 0.00000000E+00	 0.00000000E+00

	 0.00000000E+00	 0.00000000E+00	 0.00000000E+00
	 0.00000000E+00	 0.00000000E+00	 0.00000000E+00
	 0.00000000E+00	 0.00000000E+00	 0.00000000E+00

	 0.00000000E+00	 0.00000000E+00	 0.00000000E+00
	 0.00000000E+00	 0.00000000E+00	 0.00000000E+00
	 0.00000000E+00	 0.00000000E+00	 0.00000000E+00

	 0.00000000E+00	 0.00000000E+00	 0.00000000E+00
	 0.00000000E+00	 0.00000000E+00	 0.00000000E+00
	 0.00000000E+00	 0.00000000E+00	 0.00000000E+00

	 0.00000000E+00	 0.00000000E+00	 0.00000000E+00
	 0.00000000E+00	 0.00000000E+00	 0.00000000E+00
	 0.00000000E+00	 0.00000000E+00	 0.00000000E+00

	 0.00000000E+00	 0.00000000E+00	 0.00000000E+00
	 0.00000000E+00	 0.00000000E+00	 0.00000000E+00
	 0.00000000E+00	 0.00000000E+00	 0.00000000E+00

	 0.00000000E+00	 0.00000000E+00	 0.00000000E+00
	 0.00000000E+00	 0.00000000E+00	 0.00000000E+00
	 0.00000000E+00	 0.00000000E+00	 0.00000000E+00

	 0.00000000E+00	 0.00000000E+00	 0.00000000E+00
	 0.00000000E+00	 0.00000000E+00	 0.00000000E+00
	 0.00000000E+00	 0.00000000E+00	 0.00000000E+00

	 0.00000000E+00	 0.00000000E+00	 0.00000000E+00
	 0.00000000E+00	 0.00000000E+00	 0.00000000E+00
	 0.00000000E+00	 0.00000000E+00	 0.00000000E+00

	 0.00000000E+00	 0.00000000E+00	 0.00000000E+00
	 0.00000000E+00	 0.00000000E+00	 0.00000000E+00
	 0.00000000E+00	 0.00000000E+00	 0.00000000E+00

	 0.00000000E+00	 0.00000000E+00	 0.00000000E+00
	 0.00000000E+00	 0.00000000E+00	 0.00000000E+00
	 0.00000000E+00	 0.00000000E+00	 0.00000000E+00

	 0.00000000E+00	 0.00000000E+00	 0.00000000E+00
	 0.00000000E+00	 0.00000000E+00	 0.00000000E+00
	 0.00000000E+00	 0.00000000E+00	 0.00000000E+00

	 0.00000000E+00	 0.00000000E+00	 0.00000000E+00
	 0.00000000E+00	 0.00000000E+00	 0.00000000E+00
	 0.00000000E+00	 0.00000000E+00	 0.00000000E+00

	 0.00000000E+00	 0.00000000E+00	 0.00000000E+00
	 0.00000000E+00	 0.00000000E+00	 0.00000000E+00
	 0.00000000E+00	 0.00000000E+00	 0.00000000E+00

	 0.00000000E+00	 0.00000000E+00	 0.00000000E+00
	 0.00000000E+00	 0.00000000E+00	 0.00000000E+00
	 0.00000000E+00	 0.00000000E+00	 0.00000000E+00

	 0.00000000E+00	 0.00000000E+00	 0.00000000E+00
	 0.00000000E+00	 0.00000000E+00	 0.00000000E+00
	 0.00000000E+00	 0.00000000E+00	 0.00000000E+00

	 0.00000000E+00	 0.00000000E+00	 0.00000000E+00
	 0.00000000E+00	 0.00000000E+00	 0.00000000E+00
	 0.00000000E+00	 0.00000000E+00	 0.00000000E+00

	 0.00000000E+00	 0.00000000E+00	 0.00000000E+00
	 0.00000000E+00	 0.00000000E+00	 0.00000000E+00
	 0.00000000E+00	 0.00000000E+00	 0.00000000E+00

	 0.00000000E+00	 0.00000000E+00	 0.00000000E+00
	 0.00000000E+00	 0.00000000E+00	 0.00000000E+00
	 0.00000000E+00	 0.00000000E+00	 0.00000000E+00

	 0.00000000E+00	 0.00000000E+00	 0.00000000E+00
	 0.00000000E+00	 0.00000000E+00	 0.00000000E+00
	 0.00000000E+00	 0.00000000E+00	 0.00000000E+00

	 0.00000000E+00	 0.00000000E+00	 0.00000000E+00
	 0.00000000E+00	 0.00000000E+00	 0.00000000E+00
	 0.00000000E+00	 0.00000000E+00	 0.00000000E+00

	 0.00000000E+00	 0.00000000E+00	 0.00000000E+00
	 0.00000000E+00	 0.00000000E+00	 0.00000000E+00
	 0.00000000E+00	 0.00000000E+00	 0.00000000E+00

	 0.00000000E+00	 0.00000000E+00	 0.00000000E+00
	 0.00000000E+00	 0.00000000E+00	 0.00000000E+00
	 0.00000000E+00	 0.00000000E+00	 0.00000000E+00

	 0.00000000E+00	 0.00000000E+00	 0.00000000E+00
	 0.00000000E+00	 0.00000000E+00	 0.00000000E+00
	 0.00000000E+00	 0.00000000E+00	 0.00000000E+00

	 0.00000000E+00	 0.00000000E+00	 0.00000000E+00
	 0.00000000E+00	 0.00000000E+00	 0.00000000E+00
	 0.00000000E+00	 0.00000000E+00	 0.00000000E+00

	 0.00000000E+00	 0.00000000E+00	 0.00000000E+00
	 0.00000000E+00	 0.00000000E+00	 0.00000000E+00
	 0.00000000E+00	 0.00000000E+00	 0.00000000E+00

	 0.00000000E+00	 0.00000000E+00	 0.00000000E+00
	 0.00000000E+00	 0.00000000E+00	 0.00000000E+00
	 0.00000000E+00	 0.00000000E+00	 0.00000000E+00

	 0.00000000E+00	 0.00000000E+00	 0.00000000E+00
	 0.00000000E+00	 0.00000000E+00	 0.00000000E+00
	 0.00000000E+00	 0.00000000E+00	 0.00000000E+00

	 0.00000000E+00	 0.00000000E+00	 0.00000000E+00
	 0.00000000E+00	 0.00000000E+00	 0.00000000E+00
	 0.00000000E+00	 0.00000000E+00	 0.00000000E+00

	 0.00000000E+00	 0.00000000E+00	 0.00000000E+00
	 0.00000000E+00	 0.00000000E+00	 0.00000000E+00
	 0.00000000E+00	 0.00000000E+00	 0.00000000E+00

	 0.00000000E+00	 0.00000000E+00	 0.00000000E+00
	 0.00000000E+00	 0.00000000E+00	 0.00000000E+00
	 0.00000000E+00	 0.00000000E+00	 0.00000000E+00

	 0.00000000E+00	 0.00000000E+00	 0.00000000E+00
	 0.00000000E+00	 0.00000000E+00	 0.00000000E+00
	 0.00000000E+00	 0.00000000E+00	 0.00000000E+00

	 0.00000000E+00	 0.00000000E+00	 0.00000000E+00
	 0.00000000E+00	 0.00000000E+00	 0.00000000E+00
	 0.00000000E+00	 0.00000000E+00	 0.00000000E+00

	 0.00000000E+00	 0.00000000E+00	 0.00000000E+00
	 0.00000000E+00	 0.00000000E+00	 0.00000000E+00
	 0.00000000E+00	 0.00000000E+00	 0.00000000E+00

	 0.00000000E+00	 0.00000000E+00	 0.00000000E+00
	 0.00000000E+00	 0.00000000E+00	 0.00000000E+00
	 0.00000000E+00	 0.00000000E+00	 0.00000000E+00

	 0.00000000E+00	 0.00000000E+00	 0.00000000E+00
	 0.00000000E+00	 0.00000000E+00	 0.00000000E+00
	 0.00000000E+00	 0.00000000E+00	 0.00000000E+00

	 0.00000000E+00	 0.00000000E+00	 0.00000000E+00
	 0.00000000E+00	 0.00000000E+00	 0.00000000E+00
	 0.00000000E+00	 0.00000000E+00	 0.00000000E+00

	 0.00000000E+00	 0.00000000E+00	 0.00000000E+00
	 0.00000000E+00	 0.00000000E+00	 0.00000000E+00
	 0.00000000E+00	 0.00000000E+00	 0.00000000E+00

	 0.00000000E+00	 0.00000000E+00	 0.00000000E+00
	 0.00000000E+00	 0.00000000E+00	 0.00000000E+00
	 0.00000000E+00	 0.00000000E+00	 0.00000000E+00

	 0.00000000E+00	 0.00000000E+00	 0.00000000E+00
	 0.00000000E+00	 0.00000000E+00	 0.00000000E+00
	 0.00000000E+00	 0.00000000E+00	 0.00000000E+00

	 0.00000000E+00	 0.00000000E+00	 0.00000000E+00
	 0.00000000E+00	 0.00000000E+00	 0.00000000E+00
	 0.00000000E+00	 0.00000000E+00	 0.00000000E+00

	 0.00000000E+00	 0.00000000E+00	 0.00000000E+00
	 0.00000000E+00	 0.00000000E+00	 0.00000000E+00
	 0.00000000E+00	 0.00000000E+00	 0.00000000E+00

	 0.00000000E+00	 0.00000000E+00	 0.00000000E+00
	 0.00000000E+00	 0.00000000E+00	 0.00000000E+00
	 0.00000000E+00	 0.00000000E+00	 0.00000000E+00

	 0.00000000E+00	 0.00000000E+00	 0.00000000E+00
	 0.00000000E+00	 0.00000000E+00	 0.00000000E+00
	 0.00000000E+00	 0.00000000E+00	 0.00000000E+00

	 0.00000000E+00	 0.00000000E+00	 0.00000000E+00
	 0.00000000E+00	 0.00000000E+00	 0.00000000E+00
	 0.00000000E+00	 0.00000000E+00	 0.00000000E+00

	 0.00000000E+00	 0.00000000E+00	 0.00000000E+00
	 0.00000000E+00	 0.00000000E+00	 0.00000000E+00
	 0.00000000E+00	 0.00000000E+00	 0.00000000E+00

	 0.00000000E+00	 0.00000000E+00	 0.00000000E+00
	 0.00000000E+00	 0.00000000E+00	 0.00000000E+00
	 0.00000000E+00	 0.00000000E+00	 0.00000000E+00

	 0.00000000E+00	 0.00000000E+00	 0.00000000E+00
	 0.00000000E+00	 0.00000000E+00	 0.00000000E+00
	 0.00000000E+00	 0.00000000E+00	 0.00000000E+00

	 0.00000000E+00	 0.00000000E+00	 0.00000000E+00
	 0.00000000E+00	 0.00000000E+00	 0.00000000E+00
	 0.00000000E+00	 0.00000000E+00	 0.00000000E+00

	 0.00000000E+00	 0.00000000E+00	 0.00000000E+00
	 0.00000000E+00	 0.00000000E+00	 0.00000000E+00
	 0.00000000E+00	 0.00000000E+00	 0.00000000E+00

	 0.00000000E+00	 0.00000000E+00	 0.00000000E+00
	 0.00000000E+00	 0.00000000E+00	 0.00000000E+00
	 0.00000000E+00	 0.00000000E+00	 0.00000000E+00

	 0.00000000E+00	 0.00000000E+00	 0.00000000E+00
	 0.00000000E+00	 0.00000000E+00	 0.00000000E+00
	 0.00000000E+00	 0.00000000E+00	 0.00000000E+00

	 0.00000000E+00	 0.00000000E+00	 0.00000000E+00
	 0.00000000E+00	 0.00000000E+00	 0.00000000E+00
	 0.00000000E+00	 0.00000000E+00	 0.00000000E+00

	 0.00000000E+00	 0.00000000E+00	 0.00000000E+00
	 0.00000000E+00	 0.00000000E+00	 0.00000000E+00
	 0.00000000E+00	 0.00000000E+00	 0.00000000E+00

	 0.00000000E+00	 0.00000000E+00	 0.00000000E+00
	 0.00000000E+00	 0.00000000E+00	 0.00000000E+00
	 0.00000000E+00	 0.00000000E+00	 0.00000000E+00

	 0.00000000E+00	 0.00000000E+00	 0.00000000E+00
	 0.00000000E+00	 0.00000000E+00	 0.00000000E+00
	 0.00000000E+00	 0.00000000E+00	 0.00000000E+00

	 0.00000000E+00	 0.00000000E+00	 0.00000000E+00
	 0.00000000E+00	 0.00000000E+00	 0.00000000E+00
	 0.00000000E+00	 0.00000000E+00	 0.00000000E+00

	 0.00000000E+00	 0.00000000E+00	 0.00000000E+00
	 0.00000000E+00	 0.00000000E+00	 0.00000000E+00
	 0.00000000E+00	 0.00000000E+00	 0.00000000E+00

	 0.00000000E+00	 0.00000000E+00	 0.00000000E+00
	 0.00000000E+00	 0.00000000E+00	 0.00000000E+00
	 0.00000000E+00	 0.00000000E+00	 0.00000000E+00

	 0.00000000E+00	 0.00000000E+00	 0.00000000E+00
	 0.00000000E+00	 0.00000000E+00	 0.00000000E+00
	 0.00000000E+00	 0.00000000E+00	 0.00000000E+00

	 0.00000000E+00	 0.00000000E+00	 0.00000000E+00
	 0.00000000E+00	 0.00000000E+00	 0.00000000E+00
	 0.00000000E+00	 0.00000000E+00	 0.00000000E+00

	 0.00000000E+00	 0.00000000E+00	 0.00000000E+00
	 0.00000000E+00	 0.00000000E+00	 0.00000000E+00
	 0.00000000E+00	 0.00000000E+00	 0.00000000E+00

	 0.00000000E+00	 0.00000000E+00	 0.00000000E+00
	 0.00000000E+00	 0.00000000E+00	 0.00000000E+00
	 0.00000000E+00	 0.00000000E+00	 0.00000000E+00

	 0.00000000E+00	 0.00000000E+00	 0.00000000E+00
	 0.00000000E+00	 0.00000000E+00	 0.00000000E+00
	 0.00000000E+00	 0.00000000E+00	 0.00000000E+00

	 0.00000000E+00	 0.00000000E+00	 0.00000000E+00
	 0.00000000E+00	 0.00000000E+00	 0.00000000E+00
	 0.00000000E+00	 0.00000000E+00	 0.00000000E+00

	 0.00000000E+00	 0.00000000E+00	 0.00000000E+00
	 0.00000000E+00	 0.00000000E+00	 0.00000000E+00
	 0.00000000E+00	 0.00000000E+00	 0.00000000E+00

	 0.00000000E+00	 0.00000000E+00	 0.00000000E+00
	 0.00000000E+00	 0.00000000E+00	 0.00000000E+00
	 0.00000000E+00	 0.00000000E+00	 0.00000000E+00

	 0.00000000E+00	 0.00000000E+00	 0.00000000E+00
	 0.00000000E+00	 0.00000000E+00	 0.00000000E+00
	 0.00000000E+00	 0.00000000E+00	 0.00000000E+00

	 0.00000000E+00	 0.00000000E+00	 0.00000000E+00
	 0.00000000E+00	 0.00000000E+00	 0.00000000E+00
	 0.00000000E+00	 0.00000000E+00	 0.00000000E+00

	 0.00000000E+00	 0.00000000E+00	 0.00000000E+00
	 0.00000000E+00	 0.00000000E+00	 0.00000000E+00
	 0.00000000E+00	 0.00000000E+00	 0.00000000E+00

	 0.00000000E+00	 0.00000000E+00	 0.00000000E+00
	 0.00000000E+00	 0.00000000E+00	 0.00000000E+00
	 0.00000000E+00	 0.00000000E+00	 0.00000000E+00

	 0.00000000E+00	 0.00000000E+00	 0.00000000E+00
	 0.00000000E+00	 0.00000000E+00	 0.00000000E+00
	 0.00000000E+00	 0.00000000E+00	 0.00000000E+00

	 0.00000000E+00	 0.00000000E+00	 0.00000000E+00
	 0.00000000E+00	 0.00000000E+00	 0.00000000E+00
	 0.00000000E+00	 0.00000000E+00	 0.00000000E+00

	 0.00000000E+00	 0.00000000E+00	 0.00000000E+00
	 0.00000000E+00	 0.00000000E+00	 0.00000000E+00
	 0.00000000E+00	 0.00000000E+00	 0.00000000E+00

	 0.00000000E+00	 0.00000000E+00	 0.00000000E+00
	 0.00000000E+00	 0.00000000E+00	 0.00000000E+00
	 0.00000000E+00	 0.00000000E+00	 0.00000000E+00

	 0.00000000E+00	 0.00000000E+00	 0.00000000E+00
	 0.00000000E+00	 0.00000000E+00	 0.00000000E+00
	 0.00000000E+00	 0.00000000E+00	 0.00000000E+00

	 0.00000000E+00	 0.00000000E+00	 0.00000000E+00
	 0.00000000E+00	 0.00000000E+00	 0.00000000E+00
	 0.00000000E+00	 0.00000000E+00	 0.00000000E+00

	 0.00000000E+00	 0.00000000E+00	 0.00000000E+00
	 0.00000000E+00	 0.00000000E+00	 0.00000000E+00
	 0.00000000E+00	 0.00000000E+00	 0.00000000E+00

	 0.00000000E+00	 0.00000000E+00	 0.00000000E+00
	 0.00000000E+00	 0.00000000E+00	 0.00000000E+00
	 0.00000000E+00	 0.00000000E+00	 0.00000000E+00

	 0.00000000E+00	 0.00000000E+00	 0.00000000E+00
	 0.00000000E+00	 0.00000000E+00	 0.00000000E+00
	 0.00000000E+00	 0.00000000E+00	 0.00000000E+00

	 0.00000000E+00	 0.00000000E+00	 0.00000000E+00
	 0.00000000E+00	 0.00000000E+00	 0.00000000E+00
	 0.00000000E+00	 0.00000000E+00	 0.00000000E+00

	 0.00000000E+00	 0.00000000E+00	 0.00000000E+00
	 0.00000000E+00	 0.00000000E+00	 0.00000000E+00
	 0.00000000E+00	 0.00000000E+00	 0.00000000E+00

	 0.00000000E+00	 0.00000000E+00	 0.00000000E+00
	 0.00000000E+00	 0.00000000E+00	 0.00000000E+00
	 0.00000000E+00	 0.00000000E+00	 0.00000000E+00

	 0.00000000E+00	 0.00000000E+00	 0.00000000E+00
	 0.00000000E+00	 0.00000000E+00	 0.00000000E+00
	 0.00000000E+00	 0.00000000E+00	 0.00000000E+00

	 0.00000000E+00	 0.00000000E+00	 0.00000000E+00
	 0.00000000E+00	 0.00000000E+00	 0.00000000E+00
	 0.00000000E+00	 0.00000000E+00	 0.00000000E+00

	 0.00000000E+00	 0.00000000E+00	 0.00000000E+00
	 0.00000000E+00	 0.00000000E+00	 0.00000000E+00
	 0.00000000E+00	 0.00000000E+00	 0.00000000E+00

	 0.00000000E+00	 0.00000000E+00	 0.00000000E+00
	 0.00000000E+00	 0.00000000E+00	 0.00000000E+00
	 0.00000000E+00	 0.00000000E+00	 0.00000000E+00

	 0.00000000E+00	 0.00000000E+00	 0.00000000E+00
	 0.00000000E+00	 0.00000000E+00	 0.00000000E+00
	 0.00000000E+00	 0.00000000E+00	 0.00000000E+00

	 0.00000000E+00	 0.00000000E+00	 0.00000000E+00
	 0.00000000E+00	 0.00000000E+00	 0.00000000E+00
	 0.00000000E+00	 0.00000000E+00	 0.00000000E+00

	 0.00000000E+00	 0.00000000E+00	 0.00000000E+00
	 0.00000000E+00	 0.00000000E+00	 0.00000000E+00
	 0.00000000E+00	 0.00000000E+00	 0.00000000E+00

	 0.00000000E+00	 0.00000000E+00	 0.00000000E+00
	 0.00000000E+00	 0.00000000E+00	 0.00000000E+00
	 0.00000000E+00	 0.00000000E+00	 0.00000000E+00

	 0.00000000E+00	 0.00000000E+00	 0.00000000E+00
	 0.00000000E+00	 0.00000000E+00	 0.00000000E+00
	 0.00000000E+00	 0.00000000E+00	 0.00000000E+00

	 0.00000000E+00	 0.00000000E+00	 0.00000000E+00
	 0.00000000E+00	 0.00000000E+00	 0.00000000E+00
	 0.00000000E+00	 0.00000000E+00	 0.00000000E+00

	 0.00000000E+00	 0.00000000E+00	 0.00000000E+00
	 0.00000000E+00	 0.00000000E+00	 0.00000000E+00
	 0.00000000E+00	 0.00000000E+00	 0.00000000E+00

	 0.00000000E+00	 0.00000000E+00	 0.00000000E+00
	 0.00000000E+00	 0.00000000E+00	 0.00000000E+00
	 0.00000000E+00	 0.00000000E+00	 0.00000000E+00

	 0.00000000E+00	 0.00000000E+00	 0.00000000E+00
	 0.00000000E+00	 0.00000000E+00	 0.00000000E+00
	 0.00000000E+00	 0.00000000E+00	 0.00000000E+00

	 0.00000000E+00	 0.00000000E+00	 0.00000000E+00
	 0.00000000E+00	 0.00000000E+00	 0.00000000E+00
	 0.00000000E+00	 0.00000000E+00	 0.00000000E+00

	 0.00000000E+00	 0.00000000E+00	 0.00000000E+00
	 0.00000000E+00	 0.00000000E+00	 0.00000000E+00
	 0.00000000E+00	 0.00000000E+00	 0.00000000E+00

	 0.00000000E+00	 0.00000000E+00	 0.00000000E+00
	 0.00000000E+00	 0.00000000E+00	 0.00000000E+00
	 0.00000000E+00	 0.00000000E+00	 0.00000000E+00

	 0.00000000E+00	 0.00000000E+00	 0.00000000E+00
	 0.00000000E+00	 0.00000000E+00	 0.00000000E+00
	 0.00000000E+00	 0.00000000E+00	 0.00000000E+00

	 0.00000000E+00	 0.00000000E+00	 0.00000000E+00
	 0.00000000E+00	 0.00000000E+00	 0.00000000E+00
	 0.00000000E+00	 0.00000000E+00	 0.00000000E+00

	 0.00000000E+00	 0.00000000E+00	 0.00000000E+00
	 0.00000000E+00	 0.00000000E+00	 0.00000000E+00
	 0.00000000E+00	 0.00000000E+00	 0.00000000E+00

	 0.00000000E+00	 0.00000000E+00	 0.00000000E+00
	 0.00000000E+00	 0.00000000E+00	 0.00000000E+00
	 0.00000000E+00	 0.00000000E+00	 0.00000000E+00

	 0.00000000E+00	 0.00000000E+00	 0.00000000E+00
	 0.00000000E+00	 0.00000000E+00	 0.00000000E+00
	 0.00000000E+00	 0.00000000E+00	 0.00000000E+00

	 0.00000000E+00	 0.00000000E+00	 0.00000000E+00
	 0.00000000E+00	 0.00000000E+00	 0.00000000E+00
	 0.00000000E+00	 0.00000000E+00	 0.00000000E+00

	 0.00000000E+00	 0.00000000E+00	 0.00000000E+00
	 0.00000000E+00	 0.00000000E+00	 0.00000000E+00
	 0.00000000E+00	 0.00000000E+00	 0.00000000E+00

	 0.00000000E+00	 0.00000000E+00	 0.00000000E+00
	 0.00000000E+00	 0.00000000E+00	 0.00000000E+00
	 0.00000000E+00	 0.00000000E+00	 0.00000000E+00

	 0.00000000E+00	 0.00000000E+00	 0.00000000E+00
	 0.00000000E+00	 0.00000000E+00	 0.00000000E+00
	 0.00000000E+00	 0.00000000E+00	 0.00000000E+00

	 0.00000000E+00	 0.00000000E+00	 0.00000000E+00
	 0.00000000E+00	 0.00000000E+00	 0.00000000E+00
	 0.00000000E+00	 0.00000000E+00	 0.00000000E+00

	 0.00000000E+00	 0.00000000E+00	 0.00000000E+00
	 0.00000000E+00	 0.00000000E+00	 0.00000000E+00
	 0.00000000E+00	 0.00000000E+00	 0.00000000E+00

	 0.00000000E+00	 0.00000000E+00	 0.00000000E+00
	 0.00000000E+00	 0.00000000E+00	 0.00000000E+00
	 0.00000000E+00	 0.00000000E+00	 0.00000000E+00

	 0.00000000E+00	 0.00000000E+00	 0.00000000E+00
	 0.00000000E+00	 0.00000000E+00	 0.00000000E+00
	 0.00000000E+00	 0.00000000E+00	 0.00000000E+00

	 0.00000000E+00	 0.00000000E+00	 0.00000000E+00
	 0.00000000E+00	 0.00000000E+00	 0.00000000E+00
	 0.00000000E+00	 0.00000000E+00	 0.00000000E+00

	 0.00000000E+00	 0.00000000E+00	 0.00000000E+00
	 0.00000000E+00	 0.00000000E+00	 0.00000000E+00
	 0.00000000E+00	 0.00000000E+00	 0.00000000E+00

	 0.00000000E+00	 0.00000000E+00	 0.00000000E+00
	 0.00000000E+00	 0.00000000E+00	 0.00000000E+00
	 0.00000000E+00	 0.00000000E+00	 0.00000000E+00

	 0.00000000E+00	 0.00000000E+00	 0.00000000E+00
	 0.00000000E+00	 0.00000000E+00	 0.00000000E+00
	 0.00000000E+00	 0.00000000E+00	 0.00000000E+00

	 0.00000000E+00	 0.00000000E+00	 0.00000000E+00
	 0.00000000E+00	 0.00000000E+00	 0.00000000E+00
	 0.00000000E+00	 0.00000000E+00	 0.00000000E+00

	 0.00000000E+00	 0.00000000E+00	 0.00000000E+00
	 0.00000000E+00	 0.00000000E+00	 0.00000000E+00
	 0.00000000E+00	 0.00000000E+00	 0.00000000E+00

	 0.00000000E+00	 0.00000000E+00	 0.00000000E+00
	 0.00000000E+00	 0.00000000E+00	 0.00000000E+00
	 0.00000000E+00	 0.00000000E+00	 0.00000000E+00

	 0.00000000E+00	 0.00000000E+00	 0.00000000E+00
	 0.00000000E+00	 0.00000000E+00	 0.00000000E+00
	 0.00000000E+00	 0.00000000E+00	 0.00000000E+00

	 0.00000000E+00	 0.00000000E+00	 0.00000000E+00
	 0.00000000E+00	 0.00000000E+00	 0.00000000E+00
	 0.00000000E+00	 0.00000000E+00	 0.00000000E+00

	 0.00000000E+00	 0.00000000E+00	 0.00000000E+00
	 0.00000000E+00	 0.00000000E+00	 0.00000000E+00
	 0.00000000E+00	 0.00000000E+00	 0.00000000E+00

	 0.00000000E+00	 0.00000000E+00	 0.00000000E+00
	 0.00000000E+00	 0.00000000E+00	 0.00000000E+00
	 0.00000000E+00	 0.00000000E+00	 0.00000000E+00

	 0.00000000E+00	 0.00000000E+00	 0.00000000E+00
	 0.00000000E+00	 0.00000000E+00	 0.00000000E+00
	 0.00000000E+00	 0.00000000E+00	 0.00000000E+00

	 0.00000000E+00	 0.00000000E+00	 0.00000000E+00
	 0.00000000E+00	 0.00000000E+00	 0.00000000E+00
	 0.00000000E+00	 0.00000000E+00	 0.00000000E+00

	 0.00000000E+00	 0.00000000E+00	 0.00000000E+00
	 0.00000000E+00	 0.00000000E+00	 0.00000000E+00
	 0.00000000E+00	 0.00000000E+00	 0.00000000E+00

	 0.00000000E+00	 0.00000000E+00	 0.00000000E+00
	 0.00000000E+00	 0.00000000E+00	 0.00000000E+00
	 0.00000000E+00	 0.00000000E+00	 0.00000000E+00

	 0.00000000E+00	 0.00000000E+00	 0.00000000E+00
	 0.00000000E+00	 0.00000000E+00	 0.00000000E+00
	 0.00000000E+00	 0.00000000E+00	 0.00000000E+00

	 0.00000000E+00	 0.00000000E+00	 0.00000000E+00
	 0.00000000E+00	 0.00000000E+00	 0.00000000E+00
	 0.00000000E+00	 0.00000000E+00	 0.00000000E+00

	 0.00000000E+00	 0.00000000E+00	 0.00000000E+00
	 0.00000000E+00	 0.00000000E+00	 0.00000000E+00
	 0.00000000E+00	 0.00000000E+00	 0.00000000E+00

	 0.00000000E+00	 0.00000000E+00	 0.00000000E+00
	 0.00000000E+00	 0.00000000E+00	 0.00000000E+00
	 0.00000000E+00	 0.00000000E+00	 0.00000000E+00

	 0.00000000E+00	 0.00000000E+00	 0.00000000E+00
	 0.00000000E+00	 0.00000000E+00	 0.00000000E+00
	 0.00000000E+00	 0.00000000E+00	 0.00000000E+00

	 0.00000000E+00	 0.00000000E+00	 0.00000000E+00
	 0.00000000E+00	 0.00000000E+00	 0.00000000E+00
	 0.00000000E+00	 0.00000000E+00	 0.00000000E+00

	 0.00000000E+00	 0.00000000E+00	 0.00000000E+00
	 0.00000000E+00	 0.00000000E+00	 0.00000000E+00
	 0.00000000E+00	 0.00000000E+00	 0.00000000E+00

	 0.00000000E+00	 0.00000000E+00	 0.00000000E+00
	 0.00000000E+00	 0.00000000E+00	 0.00000000E+00
	 0.00000000E+00	 0.00000000E+00	 0.00000000E+00

	 0.00000000E+00	 0.00000000E+00	 0.00000000E+00
	 0.00000000E+00	 0.00000000E+00	 0.00000000E+00
	 0.00000000E+00	 0.00000000E+00	 0.00000000E+00

	 0.00000000E+00	 0.00000000E+00	 0.00000000E+00
	 0.00000000E+00	 0.00000000E+00	 0.00000000E+00
	 0.00000000E+00	 0.00000000E+00	 0.00000000E+00

	 0.00000000E+00	 0.00000000E+00	 0.00000000E+00
	 0.00000000E+00	 0.00000000E+00	 0.00000000E+00
	 0.00000000E+00	 0.00000000E+00	 0.00000000E+00

	 0.00000000E+00	 0.00000000E+00	 0.00000000E+00
	 0.00000000E+00	 0.00000000E+00	 0.00000000E+00
	 0.00000000E+00	 0.00000000E+00	 0.00000000E+00

	 0.00000000E+00	 0.00000000E+00	 0.00000000E+00
	 0.00000000E+00	 0.00000000E+00	 0.00000000E+00
	 0.00000000E+00	 0.00000000E+00	 0.00000000E+00

	 0.00000000E+00	 0.00000000E+00	 0.00000000E+00
	 0.00000000E+00	 0.00000000E+00	 0.00000000E+00
	 0.00000000E+00	 0.00000000E+00	 0.00000000E+00

	 0.00000000E+00	 0.00000000E+00	 0.00000000E+00
	 0.00000000E+00	 0.00000000E+00	 0.00000000E+00
	 0.00000000E+00	 0.00000000E+00	 0.00000000E+00

	 0.00000000E+00	 0.00000000E+00	 0.00000000E+00
	 0.00000000E+00	 0.00000000E+00	 0.00000000E+00
	 0.00000000E+00	 0.00000000E+00	 0.00000000E+00

	 0.00000000E+00	 0.00000000E+00	 0.00000000E+00
	 0.00000000E+00	 0.00000000E+00	 0.00000000E+00
	 0.00000000E+00	 0.00000000E+00	 0.00000000E+00

	 0.00000000E+00	 0.00000000E+00	 0.00000000E+00
	 0.00000000E+00	 0.00000000E+00	 0.00000000E+00
	 0.00000000E+00	 0.00000000E+00	 0.00000000E+00

	 0.00000000E+00	 0.00000000E+00	 0.00000000E+00
	 0.00000000E+00	 0.00000000E+00	 0.00000000E+00
	 0.00000000E+00	 0.00000000E+00	 0.00000000E+00

	 0.00000000E+00	 0.00000000E+00	 0.00000000E+00
	 0.00000000E+00	 0.00000000E+00	 0.00000000E+00
	 0.00000000E+00	 0.00000000E+00	 0.00000000E+00

	 0.00000000E+00	 0.00000000E+00	 0.00000000E+00
	 0.00000000E+00	 0.00000000E+00	 0.00000000E+00
	 0.00000000E+00	 0.00000000E+00	 0.00000000E+00

	 0.00000000E+00	 0.00000000E+00	 0.00000000E+00
	 0.00000000E+00	 0.00000000E+00	 0.00000000E+00
	 0.00000000E+00	 0.00000000E+00	 0.00000000E+00

	 0.00000000E+00	 0.00000000E+00	 0.00000000E+00
	 0.00000000E+00	 0.00000000E+00	 0.00000000E+00
	 0.00000000E+00	 0.00000000E+00	 0.00000000E+00

	 0.00000000E+00	 0.00000000E+00	 0.00000000E+00
	 0.00000000E+00	 0.00000000E+00	 0.00000000E+00
	 0.00000000E+00	 0.00000000E+00	 0.00000000E+00

	 0.00000000E+00	 0.00000000E+00	 0.00000000E+00
	 0.00000000E+00	 0.00000000E+00	 0.00000000E+00
	 0.00000000E+00	 0.00000000E+00	 0.00000000E+00

	 0.00000000E+00	 0.00000000E+00	 0.00000000E+00
	 0.00000000E+00	 0.00000000E+00	 0.00000000E+00
	 0.00000000E+00	 0.00000000E+00	 0.00000000E+00

	 0.00000000E+00	 0.00000000E+00	 0.00000000E+00
	 0.00000000E+00	 0.00000000E+00	 0.00000000E+00
	 0.00000000E+00	 0.00000000E+00	 0.00000000E+00

	 0.00000000E+00	 0.00000000E+00	 0.00000000E+00
	 0.00000000E+00	 0.00000000E+00	 0.00000000E+00
	 0.00000000E+00	 0.00000000E+00	 0.00000000E+00

	 0.00000000E+00	 0.00000000E+00	 0.00000000E+00
	 0.00000000E+00	 0.00000000E+00	 0.00000000E+00
	 0.00000000E+00	 0.00000000E+00	 0.00000000E+00

	 0.00000000E+00	 0.00000000E+00	 0.00000000E+00
	 0.00000000E+00	 0.00000000E+00	 0.00000000E+00
	 0.00000000E+00	 0.00000000E+00	 0.00000000E+00

	 0.00000000E+00	 0.00000000E+00	 0.00000000E+00
	 0.00000000E+00	 0.00000000E+00	 0.00000000E+00
	 0.00000000E+00	 0.00000000E+00	 0.00000000E+00

	 0.00000000E+00	 0.00000000E+00	 0.00000000E+00
	 0.00000000E+00	 0.00000000E+00	 0.00000000E+00
	 0.00000000E+00	 0.00000000E+00	 0.00000000E+00

	 0.00000000E+00	 0.00000000E+00	 0.00000000E+00
	 0.00000000E+00	 0.00000000E+00	 0.00000000E+00
	 0.00000000E+00	 0.00000000E+00	 0.00000000E+00

	 0.00000000E+00	 0.00000000E+00	 0.00000000E+00
	 0.00000000E+00	 0.00000000E+00	 0.00000000E+00
	 0.00000000E+00	 0.00000000E+00	 0.00000000E+00

	 0.00000000E+00	 0.00000000E+00	 0.00000000E+00
	 0.00000000E+00	 0.00000000E+00	 0.00000000E+00
	 0.00000000E+00	 0.00000000E+00	 0.00000000E+00

	 0.00000000E+00	 0.00000000E+00	 0.00000000E+00
	 0.00000000E+00	 0.00000000E+00	 0.00000000E+00
	 0.00000000E+00	 0.00000000E+00	 0.00000000E+00

	 0.00000000E+00	 0.00000000E+00	 0.00000000E+00
	 0.00000000E+00	 0.00000000E+00	 0.00000000E+00
	 0.00000000E+00	 0.00000000E+00	 0.00000000E+00

	 0.00000000E+00	 0.00000000E+00	 0.00000000E+00
	 0.00000000E+00	 0.00000000E+00	 0.00000000E+00
	 0.00000000E+00	 0.00000000E+00	 0.00000000E+00

	 0.00000000E+00	 0.00000000E+00	 0.00000000E+00
	 0.00000000E+00	 0.00000000E+00	 0.00000000E+00
	 0.00000000E+00	 0.00000000E+00	 0.00000000E+00

	 0.00000000E+00	 0.00000000E+00	 0.00000000E+00
	 0.00000000E+00	 0.00000000E+00	 0.00000000E+00
	 0.00000000E+00	 0.00000000E+00	 0.00000000E+00

	 0.00000000E+00	 0.00000000E+00	 0.00000000E+00
	 0.00000000E+00	 0.00000000E+00	 0.00000000E+00
	 0.00000000E+00	 0.00000000E+00	 0.00000000E+00

	 0.00000000E+00	 0.00000000E+00	 0.00000000E+00
	 0.00000000E+00	 0.00000000E+00	 0.00000000E+00
	 0.00000000E+00	 0.00000000E+00	 0.00000000E+00

	 0.00000000E+00	 0.00000000E+00	 0.00000000E+00
	 0.00000000E+00	 0.00000000E+00	 0.00000000E+00
	 0.00000000E+00	 0.00000000E+00	 0.00000000E+00

	 0.00000000E+00	 0.00000000E+00	 0.00000000E+00
	 0.00000000E+00	 0.00000000E+00	 0.00000000E+00
	 0.00000000E+00	 0.00000000E+00	 0.00000000E+00

	 0.00000000E+00	 0.00000000E+00	 0.00000000E+00
	 0.00000000E+00	 0.00000000E+00	 0.00000000E+00
	 0.00000000E+00	 0.00000000E+00	 0.00000000E+00

	 0.00000000E+00	 0.00000000E+00	 0.00000000E+00
	 0.00000000E+00	 0.00000000E+00	 0.00000000E+00
	 0.00000000E+00	 0.00000000E+00	 0.00000000E+00

	 0.00000000E+00	 0.00000000E+00	 0.00000000E+00
	 0.00000000E+00	 0.00000000E+00	 0.00000000E+00
	 0.00000000E+00	 0.00000000E+00	 0.00000000E+00

	 0.00000000E+00	 0.00000000E+00	 0.00000000E+00
	 0.00000000E+00	 0.00000000E+00	 0.00000000E+00
	 0.00000000E+00	 0.00000000E+00	 0.00000000E+00

	 0.00000000E+00	 0.00000000E+00	 0.00000000E+00
	 0.00000000E+00	 0.00000000E+00	 0.00000000E+00
	 0.00000000E+00	 0.00000000E+00	 0.00000000E+00

	 0.00000000E+00	 0.00000000E+00	 0.00000000E+00
	 0.00000000E+00	 0.00000000E+00	 0.00000000E+00
	 0.00000000E+00	 0.00000000E+00	 0.00000000E+00

	 0.00000000E+00	 0.00000000E+00	 0.00000000E+00
	 0.00000000E+00	 0.00000000E+00	 0.00000000E+00
	 0.00000000E+00	 0.00000000E+00	 0.00000000E+00

	 0.00000000E+00	 0.00000000E+00	 0.00000000E+00
	 0.00000000E+00	 0.00000000E+00	 0.00000000E+00
	 0.00000000E+00	 0.00000000E+00	 0.00000000E+00

	 0.00000000E+00	 0.00000000E+00	 0.00000000E+00
	 0.00000000E+00	 0.00000000E+00	 0.00000000E+00
	 0.00000000E+00	 0.00000000E+00	 0.00000000E+00

	 0.00000000E+00	 0.00000000E+00	 0.00000000E+00
	 0.00000000E+00	 0.00000000E+00	 0.00000000E+00
	 0.00000000E+00	 0.00000000E+00	 0.00000000E+00

	 0.00000000E+00	 0.00000000E+00	 0.00000000E+00
	 0.00000000E+00	 0.00000000E+00	 0.00000000E+00
	 0.00000000E+00	 0.00000000E+00	 0.00000000E+00

	 0.00000000E+00	 0.00000000E+00	 0.00000000E+00
	 0.00000000E+00	 0.00000000E+00	 0.00000000E+00
	 0.00000000E+00	 0.00000000E+00	 0.00000000E+00

	 0.00000000E+00	 0.00000000E+00	 0.00000000E+00
	 0.00000000E+00	 0.00000000E+00	 0.00000000E+00
	 0.00000000E+00	 0.00000000E+00	 0.00000000E+00

	 0.00000000E+00	 0.00000000E+00	 0.00000000E+00
	 0.00000000E+00	 0.00000000E+00	 0.00000000E+00
	 0.00000000E+00	 0.00000000E+00	 0.00000000E+00

	 0.00000000E+00	 0.00000000E+00	 0.00000000E+00
	 0.00000000E+00	 0.00000000E+00	 0.00000000E+00
	 0.00000000E+00	 0.00000000E+00	 0.00000000E+00

	 0.00000000E+00	 0.00000000E+00	 0.00000000E+00
	 0.00000000E+00	 0.00000000E+00	 0.00000000E+00
	 0.00000000E+00	 0.00000000E+00	 0.00000000E+00

	 0.00000000E+00	 0.00000000E+00	 0.00000000E+00
	 0.00000000E+00	 0.00000000E+00	 0.00000000E+00
	 0.00000000E+00	 0.00000000E+00	 0.00000000E+00

	 0.00000000E+00	 0.00000000E+00	 0.00000000E+00
	 0.00000000E+00	 0.00000000E+00	 0.00000000E+00
	 0.00000000E+00	 0.00000000E+00	 0.00000000E+00

	 0.00000000E+00	 0.00000000E+00	 0.00000000E+00
	 0.00000000E+00	 0.00000000E+00	 0.00000000E+00
	 0.00000000E+00	 0.00000000E+00	 0.00000000E+00

	 0.00000000E+00	 0.00000000E+00	 0.00000000E+00
	 0.00000000E+00	 0.00000000E+00	 0.00000000E+00
	 0.00000000E+00	 0.00000000E+00	 0.00000000E+00

	 0.00000000E+00	 0.00000000E+00	 0.00000000E+00
	 0.00000000E+00	 0.00000000E+00	 0.00000000E+00
	 0.00000000E+00	 0.00000000E+00	 0.00000000E+00

	 0.00000000E+00	 0.00000000E+00	 0.00000000E+00
	 0.00000000E+00	 0.00000000E+00	 0.00000000E+00
	 0.00000000E+00	 0.00000000E+00	 0.00000000E+00

	 0.00000000E+00	 0.00000000E+00	 0.00000000E+00
	 0.00000000E+00	 0.00000000E+00	 0.00000000E+00
	 0.00000000E+00	 0.00000000E+00	 0.00000000E+00

	 0.00000000E+00	 0.00000000E+00	 0.00000000E+00
	 0.00000000E+00	 0.00000000E+00	 0.00000000E+00
	 0.00000000E+00	 0.00000000E+00	 0.00000000E+00

	 0.00000000E+00	 0.00000000E+00	 0.00000000E+00
	 0.00000000E+00	 0.00000000E+00	 0.00000000E+00
	 0.00000000E+00	 0.00000000E+00	 0.00000000E+00

	 0.00000000E+00	 0.00000000E+00	 0.00000000E+00
	 0.00000000E+00	 0.00000000E+00	 0.00000000E+00
	 0.00000000E+00	 0.00000000E+00	 0.00000000E+00

	 0.00000000E+00	 0.00000000E+00	 0.00000000E+00
	 0.00000000E+00	 0.00000000E+00	 0.00000000E+00
	 0.00000000E+00	 0.00000000E+00	 0.00000000E+00

	 0.00000000E+00	 0.00000000E+00	 0.00000000E+00
	 0.00000000E+00	 0.00000000E+00	 0.00000000E+00
	 0.00000000E+00	 0.00000000E+00	 0.00000000E+00

	 0.00000000E+00	 0.00000000E+00	 0.00000000E+00
	 0.00000000E+00	 0.00000000E+00	 0.00000000E+00
	 0.00000000E+00	 0.00000000E+00	 0.00000000E+00

	 0.00000000E+00	 0.00000000E+00	 0.00000000E+00
	 0.00000000E+00	 0.00000000E+00	 0.00000000E+00
	 0.00000000E+00	 0.00000000E+00	 0.00000000E+00

	 0.00000000E+00	 0.00000000E+00	 0.00000000E+00
	 0.00000000E+00	 0.00000000E+00	 0.00000000E+00
	 0.00000000E+00	 0.00000000E+00	 0.00000000E+00

	 0.00000000E+00	 0.00000000E+00	 0.00000000E+00
	 0.00000000E+00	 0.00000000E+00	 0.00000000E+00
	 0.00000000E+00	 0.00000000E+00	 0.00000000E+00

	 0.00000000E+00	 0.00000000E+00	 0.00000000E+00
	 0.00000000E+00	 0.00000000E+00	 0.00000000E+00
	 0.00000000E+00	 0.00000000E+00	 0.00000000E+00

	 0.00000000E+00	 0.00000000E+00	 0.00000000E+00
	 0.00000000E+00	 0.00000000E+00	 0.00000000E+00
	 0.00000000E+00	 0.00000000E+00	 0.00000000E+00

	 0.00000000E+00	 0.00000000E+00	 0.00000000E+00
	 0.00000000E+00	 0.00000000E+00	 0.00000000E+00
	 0.00000000E+00	 0.00000000E+00	 0.00000000E+00

	 0.00000000E+00	 0.00000000E+00	 0.00000000E+00
	 0.00000000E+00	 0.00000000E+00	 0.00000000E+00
	 0.00000000E+00	 0.00000000E+00	 0.00000000E+00

	 0.00000000E+00	 0.00000000E+00	 0.00000000E+00
	 0.00000000E+00	 0.00000000E+00	 0.00000000E+00
	 0.00000000E+00	 0.00000000E+00	 0.00000000E+00

	 0.00000000E+00	 0.00000000E+00	 0.00000000E+00
	 0.00000000E+00	 0.00000000E+00	 0.00000000E+00
	 0.00000000E+00	 0.00000000E+00	 0.00000000E+00

	 0.00000000E+00	 0.00000000E+00	 0.00000000E+00
	 0.00000000E+00	 0.00000000E+00	 0.00000000E+00
	 0.00000000E+00	 0.00000000E+00	 0.00000000E+00

	 0.00000000E+00	 0.00000000E+00	 0.00000000E+00
	 0.00000000E+00	 0.00000000E+00	 0.00000000E+00
	 0.00000000E+00	 0.00000000E+00	 0.00000000E+00

	 0.00000000E+00	 0.00000000E+00	 0.00000000E+00
	 0.00000000E+00	 0.00000000E+00	 0.00000000E+00
	 0.00000000E+00	 0.00000000E+00	 0.00000000E+00

	 0.00000000E+00	 0.00000000E+00	 0.00000000E+00
	 0.00000000E+00	 0.00000000E+00	 0.00000000E+00
	 0.00000000E+00	 0.00000000E+00	 0.00000000E+00

	 0.00000000E+00	 0.00000000E+00	 0.00000000E+00
	 0.00000000E+00	 0.00000000E+00	 0.00000000E+00
	 0.00000000E+00	 0.00000000E+00	 0.00000000E+00

	 0.00000000E+00	 0.00000000E+00	 0.00000000E+00
	 0.00000000E+00	 0.00000000E+00	 0.00000000E+00
	 0.00000000E+00	 0.00000000E+00	 0.00000000E+00

	 0.00000000E+00	 0.00000000E+00	 0.00000000E+00
	 0.00000000E+00	 0.00000000E+00	 0.00000000E+00
	 0.00000000E+00	 0.00000000E+00	 0.00000000E+00

	 0.00000000E+00	 0.00000000E+00	 0.00000000E+00
	 0.00000000E+00	 0.00000000E+00	 0.00000000E+00
	 0.00000000E+00	 0.00000000E+00	 0.00000000E+00

	 0.00000000E+00	 0.00000000E+00	 0.00000000E+00
	 0.00000000E+00	 0.00000000E+00	 0.00000000E+00
	 0.00000000E+00	 0.00000000E+00	 0.00000000E+00

	 0.00000000E+00	 0.00000000E+00	 0.00000000E+00
	 0.00000000E+00	 0.00000000E+00	 0.00000000E+00
	 0.00000000E+00	 0.00000000E+00	 0.00000000E+00

	 0.00000000E+00	 0.00000000E+00	 0.00000000E+00
	 0.00000000E+00	 0.00000000E+00	 0.00000000E+00
	 0.00000000E+00	 0.00000000E+00	 0.00000000E+00

	 0.00000000E+00	 0.00000000E+00	 0.00000000E+00
	 0.00000000E+00	 0.00000000E+00	 0.00000000E+00
	 0.00000000E+00	 0.00000000E+00	 0.00000000E+00

	 0.00000000E+00	 0.00000000E+00	 0.00000000E+00
	 0.00000000E+00	 0.00000000E+00	 0.00000000E+00
	 0.00000000E+00	 0.00000000E+00	 0.00000000E+00

	 0.00000000E+00	 0.00000000E+00	 0.00000000E+00
	 0.00000000E+00	 0.00000000E+00	 0.00000000E+00
	 0.00000000E+00	 0.00000000E+00	 0.00000000E+00

	 0.00000000E+00	 0.00000000E+00	 0.00000000E+00
	 0.00000000E+00	 0.00000000E+00	 0.00000000E+00
	 0.00000000E+00	 0.00000000E+00	 0.00000000E+00

	 0.00000000E+00	 0.00000000E+00	 0.00000000E+00
	 0.00000000E+00	 0.00000000E+00	 0.00000000E+00
	 0.00000000E+00	 0.00000000E+00	 0.00000000E+00

	 0.00000000E+00	 0.00000000E+00	 0.00000000E+00
	 0.00000000E+00	 0.00000000E+00	 0.00000000E+00
	 0.00000000E+00	 0.00000000E+00	 0.00000000E+00

	 0.00000000E+00	 0.00000000E+00	 0.00000000E+00
	 0.00000000E+00	 0.00000000E+00	 0.00000000E+00
	 0.00000000E+00	 0.00000000E+00	 0.00000000E+00

	 0.00000000E+00	 0.00000000E+00	 0.00000000E+00
	 0.00000000E+00	 0.00000000E+00	 0.00000000E+00
	 0.00000000E+00	 0.00000000E+00	 0.00000000E+00

	 0.00000000E+00	 0.00000000E+00	 0.00000000E+00
	 0.00000000E+00	 0.00000000E+00	 0.00000000E+00
	 0.00000000E+00	 0.00000000E+00	 0.00000000E+00

	 0.00000000E+00	 0.00000000E+00	 0.00000000E+00
	 0.00000000E+00	 0.00000000E+00	 0.00000000E+00
	 0.00000000E+00	 0.00000000E+00	 0.00000000E+00

	 0.00000000E+00	 0.00000000E+00	 0.00000000E+00
	 0.00000000E+00	 0.00000000E+00	 0.00000000E+00
	 0.00000000E+00	 0.00000000E+00	 0.00000000E+00

	 0.00000000E+00	 0.00000000E+00	 0.00000000E+00
	 0.00000000E+00	 0.00000000E+00	 0.00000000E+00
	 0.00000000E+00	 0.00000000E+00	 0.00000000E+00

	 0.00000000E+00	 0.00000000E+00	 0.00000000E+00
	 0.00000000E+00	 0.00000000E+00	 0.00000000E+00
	 0.00000000E+00	 0.00000000E+00	 0.00000000E+00

	 0.00000000E+00	 0.00000000E+00	 0.00000000E+00
	 0.00000000E+00	 0.00000000E+00	 0.00000000E+00
	 0.00000000E+00	 0.00000000E+00	 0.00000000E+00

	 0.00000000E+00	 0.00000000E+00	 0.00000000E+00
	 0.00000000E+00	 0.00000000E+00	 0.00000000E+00
	 0.00000000E+00	 0.00000000E+00	 0.00000000E+00

	 0.00000000E+00	 0.00000000E+00	 0.00000000E+00
	 0.00000000E+00	 0.00000000E+00	 0.00000000E+00
	 0.00000000E+00	 0.00000000E+00	 0.00000000E+00

	 0.00000000E+00	 0.00000000E+00	 0.00000000E+00
	 0.00000000E+00	 0.00000000E+00	 0.00000000E+00
	 0.00000000E+00	 0.00000000E+00	 0.00000000E+00

	 0.00000000E+00	 0.00000000E+00	 0.00000000E+00
	 0.00000000E+00	 0.00000000E+00	 0.00000000E+00
	 0.00000000E+00	 0.00000000E+00	 0.00000000E+00

	 0.00000000E+00	 0.00000000E+00	 0.00000000E+00
	 0.00000000E+00	 0.00000000E+00	 0.00000000E+00
	 0.00000000E+00	 0.00000000E+00	 0.00000000E+00

	 0.00000000E+00	 0.00000000E+00	 0.00000000E+00
	 0.00000000E+00	 0.00000000E+00	 0.00000000E+00
	 0.00000000E+00	 0.00000000E+00	 0.00000000E+00

	 0.00000000E+00	 0.00000000E+00	 0.00000000E+00
	 0.00000000E+00	 0.00000000E+00	 0.00000000E+00
	 0.00000000E+00	 0.00000000E+00	 0.00000000E+00

	 0.00000000E+00	 0.00000000E+00	 0.00000000E+00
	 0.00000000E+00	 0.00000000E+00	 0.00000000E+00
	 0.00000000E+00	 0.00000000E+00	 0.00000000E+00

	 0.00000000E+00	 0.00000000E+00	 0.00000000E+00
	 0.00000000E+00	 0.00000000E+00	 0.00000000E+00
	 0.00000000E+00	 0.00000000E+00	 0.00000000E+00

	 0.00000000E+00	 0.00000000E+00	 0.00000000E+00
	 0.00000000E+00	 0.00000000E+00	 0.00000000E+00
	 0.00000000E+00	 0.00000000E+00	 0.00000000E+00

	 0.00000000E+00	 0.00000000E+00	 0.00000000E+00
	 0.00000000E+00	 0.00000000E+00	 0.00000000E+00
	 0.00000000E+00	 0.00000000E+00	 0.00000000E+00

	 0.00000000E+00	 0.00000000E+00	 0.00000000E+00
	 0.00000000E+00	 0.00000000E+00	 0.00000000E+00
	 0.00000000E+00	 0.00000000E+00	 0.00000000E+00

	 0.00000000E+00	 0.00000000E+00	 0.00000000E+00
	 0.00000000E+00	 0.00000000E+00	 0.00000000E+00
	 0.00000000E+00	 0.00000000E+00	 0.00000000E+00

	 0.00000000E+00	 0.00000000E+00	 0.00000000E+00
	 0.00000000E+00	 0.00000000E+00	 0.00000000E+00
	 0.00000000E+00	 0.00000000E+00	 0.00000000E+00

	 0.00000000E+00	 0.00000000E+00	 0.00000000E+00
	 0.00000000E+00	 0.00000000E+00	 0.00000000E+00
	 0.00000000E+00	 0.00000000E+00	 0.00000000E+00

	 0.00000000E+00	 0.00000000E+00	 0.00000000E+00
	 0.00000000E+00	 0.00000000E+00	 0.00000000E+00
	 0.00000000E+00	 0.00000000E+00	 0.00000000E+00

	 0.00000000E+00	 0.00000000E+00	 0.00000000E+00
	 0.00000000E+00	 0.00000000E+00	 0.00000000E+00
	 0.00000000E+00	 0.00000000E+00	 0.00000000E+00

	 0.00000000E+00	 0.00000000E+00	 0.00000000E+00
	 0.00000000E+00	 0.00000000E+00	 0.00000000E+00
	 0.00000000E+00	 0.00000000E+00	 0.00000000E+00

	 0.00000000E+00	 0.00000000E+00	 0.00000000E+00
	 0.00000000E+00	 0.00000000E+00	 0.00000000E+00
	 0.00000000E+00	 0.00000000E+00	 0.00000000E+00

	 0.00000000E+00	 0.00000000E+00	 0.00000000E+00
	 0.00000000E+00	 0.00000000E+00	 0.00000000E+00
	 0.00000000E+00	 0.00000000E+00	 0.00000000E+00

	 0.00000000E+00	 0.00000000E+00	 0.00000000E+00
	 0.00000000E+00	 0.00000000E+00	 0.00000000E+00
	 0.00000000E+00	 0.00000000E+00	 0.00000000E+00

	 0.00000000E+00	 0.00000000E+00	 0.00000000E+00
	 0.00000000E+00	 0.00000000E+00	 0.00000000E+00
	 0.00000000E+00	 0.00000000E+00	 0.00000000E+00

	 0.00000000E+00	 0.00000000E+00	 0.00000000E+00
	 0.00000000E+00	 0.00000000E+00	 0.00000000E+00
	 0.00000000E+00	 0.00000000E+00	 0.00000000E+00

	 0.00000000E+00	 0.00000000E+00	 0.00000000E+00
	 0.00000000E+00	 0.00000000E+00	 0.00000000E+00
	 0.00000000E+00	 0.00000000E+00	 0.00000000E+00

	 0.00000000E+00	 0.00000000E+00	 0.00000000E+00
	 0.00000000E+00	 0.00000000E+00	 0.00000000E+00
	 0.00000000E+00	 0.00000000E+00	 0.00000000E+00

	 0.00000000E+00	 0.00000000E+00	 0.00000000E+00
	 0.00000000E+00	 0.00000000E+00	 0.00000000E+00
	 0.00000000E+00	 0.00000000E+00	 0.00000000E+00

	 0.00000000E+00	 0.00000000E+00	 0.00000000E+00
	 0.00000000E+00	 0.00000000E+00	 0.00000000E+00
	 0.00000000E+00	 0.00000000E+00	 0.00000000E+00

	 0.00000000E+00	 0.00000000E+00	 0.00000000E+00
	 0.00000000E+00	 0.00000000E+00	 0.00000000E+00
	 0.00000000E+00	 0.00000000E+00	 0.00000000E+00

	 0.00000000E+00	 0.00000000E+00	 0.00000000E+00
	 0.00000000E+00	 0.00000000E+00	 0.00000000E+00
	 0.00000000E+00	 0.00000000E+00	 0.00000000E+00

	 0.00000000E+00	 0.00000000E+00	 0.00000000E+00
	 0.00000000E+00	 0.00000000E+00	 0.00000000E+00
	 0.00000000E+00	 0.00000000E+00	 0.00000000E+00

	 0.00000000E+00	 0.00000000E+00	 0.00000000E+00
	 0.00000000E+00	 0.00000000E+00	 0.00000000E+00
	 0.00000000E+00	 0.00000000E+00	 0.00000000E+00

	 0.00000000E+00	 0.00000000E+00	 0.00000000E+00
	 0.00000000E+00	 0.00000000E+00	 0.00000000E+00
	 0.00000000E+00	 0.00000000E+00	 0.00000000E+00

	 0.00000000E+00	 0.00000000E+00	 0.00000000E+00
	 0.00000000E+00	 0.00000000E+00	 0.00000000E+00
	 0.00000000E+00	 0.00000000E+00	 0.00000000E+00

	 0.00000000E+00	 0.00000000E+00	 0.00000000E+00
	 0.00000000E+00	 0.00000000E+00	 0.00000000E+00
	 0.00000000E+00	 0.00000000E+00	 0.00000000E+00

	 0.00000000E+00	 0.00000000E+00	 0.00000000E+00
	 0.00000000E+00	 0.00000000E+00	 0.00000000E+00
	 0.00000000E+00	 0.00000000E+00	 0.00000000E+00

	 0.00000000E+00	 0.00000000E+00	 0.00000000E+00
	 0.00000000E+00	 0.00000000E+00	 0.00000000E+00
	 0.00000000E+00	 0.00000000E+00	 0.00000000E+00

	 0.00000000E+00	 0.00000000E+00	 0.00000000E+00
	 0.00000000E+00	 0.00000000E+00	 0.00000000E+00
	 0.00000000E+00	 0.00000000E+00	 0.00000000E+00

	 0.00000000E+00	 0.00000000E+00	 0.00000000E+00
	 0.00000000E+00	 0.00000000E+00	 0.00000000E+00
	 0.00000000E+00	 0.00000000E+00	 0.00000000E+00

	 0.00000000E+00	 0.00000000E+00	 0.00000000E+00
	 0.00000000E+00	 0.00000000E+00	 0.00000000E+00
	 0.00000000E+00	 0.00000000E+00	 0.00000000E+00

	 0.00000000E+00	 0.00000000E+00	 0.00000000E+00
	 0.00000000E+00	 0.00000000E+00	 0.00000000E+00
	 0.00000000E+00	 0.00000000E+00	 0.00000000E+00

	 0.00000000E+00	 0.00000000E+00	 0.00000000E+00
	 0.00000000E+00	 0.00000000E+00	 0.00000000E+00
	 0.00000000E+00	 0.00000000E+00	 0.00000000E+00

	 0.00000000E+00	 0.00000000E+00	 0.00000000E+00
	 0.00000000E+00	 0.00000000E+00	 0.00000000E+00
	 0.00000000E+00	 0.00000000E+00	 0.00000000E+00

	 0.00000000E+00	 0.00000000E+00	 0.00000000E+00
	 0.00000000E+00	 0.00000000E+00	 0.00000000E+00
	 0.00000000E+00	 0.00000000E+00	 0.00000000E+00

	 0.00000000E+00	 0.00000000E+00	 0.00000000E+00
	 0.00000000E+00	 0.00000000E+00	 0.00000000E+00
	 0.00000000E+00	 0.00000000E+00	 0.00000000E+00

	 0.00000000E+00	 0.00000000E+00	 0.00000000E+00
	 0.00000000E+00	 0.00000000E+00	 0.00000000E+00
	 0.00000000E+00	 0.00000000E+00	 0.00000000E+00

	 0.00000000E+00	 0.00000000E+00	 0.00000000E+00
	 0.00000000E+00	 0.00000000E+00	 0.00000000E+00
	 0.00000000E+00	 0.00000000E+00	 0.00000000E+00

	 0.00000000E+00	 0.00000000E+00	 0.00000000E+00
	 0.00000000E+00	 0.00000000E+00	 0.00000000E+00
	 0.00000000E+00	 0.00000000E+00	 0.00000000E+00

	 0.00000000E+00	 0.00000000E+00	 0.00000000E+00
	 0.00000000E+00	 0.00000000E+00	 0.00000000E+00
	 0.00000000E+00	 0.00000000E+00	 0.00000000E+00

	 0.00000000E+00	 0.00000000E+00	 0.00000000E+00
	 0.00000000E+00	 0.00000000E+00	 0.00000000E+00
	 0.00000000E+00	 0.00000000E+00	 0.00000000E+00

	 0.00000000E+00	 0.00000000E+00	 0.00000000E+00
	 0.00000000E+00	 0.00000000E+00	 0.00000000E+00
	 0.00000000E+00	 0.00000000E+00	 0.00000000E+00

	 0.00000000E+00	 0.00000000E+00	 0.00000000E+00
	 0.00000000E+00	 0.00000000E+00	 0.00000000E+00
	 0.00000000E+00	 0.00000000E+00	 0.00000000E+00

	 0.00000000E+00	 0.00000000E+00	 0.00000000E+00
	 0.00000000E+00	 0.00000000E+00	 0.00000000E+00
	 0.00000000E+00	 0.00000000E+00	 0.00000000E+00

	 0.00000000E+00	 0.00000000E+00	 0.00000000E+00
	 0.00000000E+00	 0.00000000E+00	 0.00000000E+00
	 0.00000000E+00	 0.00000000E+00	 0.00000000E+00

	 0.00000000E+00	 0.00000000E+00	 0.00000000E+00
	 0.00000000E+00	 0.00000000E+00	 0.00000000E+00
	 0.00000000E+00	 0.00000000E+00	 0.00000000E+00

	 0.00000000E+00	 0.00000000E+00	 0.00000000E+00
	 0.00000000E+00	 0.00000000E+00	 0.00000000E+00
	 0.00000000E+00	 0.00000000E+00	 0.00000000E+00

	 0.00000000E+00	 0.00000000E+00	 0.00000000E+00
	 0.00000000E+00	 0.00000000E+00	 0.00000000E+00
	 0.00000000E+00	 0.00000000E+00	 0.00000000E+00

	 0.00000000E+00	 0.00000000E+00	 0.00000000E+00
	 0.00000000E+00	 0.00000000E+00	 0.00000000E+00
	 0.00000000E+00	 0.00000000E+00	 0.00000000E+00

	 0.00000000E+00	 0.00000000E+00	 0.00000000E+00
	 0.00000000E+00	 0.00000000E+00	 0.00000000E+00
	 0.00000000E+00	 0.00000000E+00	 0.00000000E+00

	 0.00000000E+00	 0.00000000E+00	 0.00000000E+00
	 0.00000000E+00	 0.00000000E+00	 0.00000000E+00
	 0.00000000E+00	 0.00000000E+00	 0.00000000E+00

	 0.00000000E+00	 0.00000000E+00	 0.00000000E+00
	 0.00000000E+00	 0.00000000E+00	 0.00000000E+00
	 0.00000000E+00	 0.00000000E+00	 0.00000000E+00

	 0.00000000E+00	 0.00000000E+00	 0.00000000E+00
	 0.00000000E+00	 0.00000000E+00	 0.00000000E+00
	 0.00000000E+00	 0.00000000E+00	 0.00000000E+00

	 0.00000000E+00	 0.00000000E+00	 0.00000000E+00
	 0.00000000E+00	 0.00000000E+00	 0.00000000E+00
	 0.00000000E+00	 0.00000000E+00	 0.00000000E+00

	 0.00000000E+00	 0.00000000E+00	 0.00000000E+00
	 0.00000000E+00	 0.00000000E+00	 0.00000000E+00
	 0.00000000E+00	 0.00000000E+00	 0.00000000E+00

	 0.00000000E+00	 0.00000000E+00	 0.00000000E+00
	 0.00000000E+00	 0.00000000E+00	 0.00000000E+00
	 0.00000000E+00	 0.00000000E+00	 0.00000000E+00

	 0.00000000E+00	 0.00000000E+00	 0.00000000E+00
	 0.00000000E+00	 0.00000000E+00	 0.00000000E+00
	 0.00000000E+00	 0.00000000E+00	 0.00000000E+00

	 0.00000000E+00	 0.00000000E+00	 0.00000000E+00
	 0.00000000E+00	 0.00000000E+00	 0.00000000E+00
	 0.00000000E+00	 0.00000000E+00	 0.00000000E+00

	 0.00000000E+00	 0.00000000E+00	 0.00000000E+00
	 0.00000000E+00	 0.00000000E+00	 0.00000000E+00
	 0.00000000E+00	 0.00000000E+00	 0.00000000E+00

	 0.00000000E+00	 0.00000000E+00	 0.00000000E+00
	 0.00000000E+00	 0.00000000E+00	 0.00000000E+00
	 0.00000000E+00	 0.00000000E+00	 0.00000000E+00

	 0.00000000E+00	 0.00000000E+00	 0.00000000E+00
	 0.00000000E+00	 0.00000000E+00	 0.00000000E+00
	 0.00000000E+00	 0.00000000E+00	 0.00000000E+00

	 0.00000000E+00	 0.00000000E+00	 0.00000000E+00
	 0.00000000E+00	 0.00000000E+00	 0.00000000E+00
	 0.00000000E+00	 0.00000000E+00	 0.00000000E+00

	 0.00000000E+00	 0.00000000E+00	 0.00000000E+00
	 0.00000000E+00	 0.00000000E+00	 0.00000000E+00
	 0.00000000E+00	 0.00000000E+00	 0.00000000E+00

	 0.00000000E+00	 0.00000000E+00	 0.00000000E+00
	 0.00000000E+00	 0.00000000E+00	 0.00000000E+00
	 0.00000000E+00	 0.00000000E+00	 0.00000000E+00

	 0.00000000E+00	 0.00000000E+00	 0.00000000E+00
	 0.00000000E+00	 0.00000000E+00	 0.00000000E+00
	 0.00000000E+00	 0.00000000E+00	 0.00000000E+00

	 0.00000000E+00	 0.00000000E+00	 0.00000000E+00
	 0.00000000E+00	 0.00000000E+00	 0.00000000E+00
	 0.00000000E+00	 0.00000000E+00	 0.00000000E+00

	 0.00000000E+00	 0.00000000E+00	 0.00000000E+00
	 0.00000000E+00	 0.00000000E+00	 0.00000000E+00
	 0.00000000E+00	 0.00000000E+00	 0.00000000E+00

	 0.00000000E+00	 0.00000000E+00	 0.00000000E+00
	 0.00000000E+00	 0.00000000E+00	 0.00000000E+00
	 0.00000000E+00	 0.00000000E+00	 0.00000000E+00

	 0.00000000E+00	 0.00000000E+00	 0.00000000E+00
	 0.00000000E+00	 0.00000000E+00	 0.00000000E+00
	 0.00000000E+00	 0.00000000E+00	 0.00000000E+00

	 0.00000000E+00	 0.00000000E+00	 0.00000000E+00
	 0.00000000E+00	 0.00000000E+00	 0.00000000E+00
	 0.00000000E+00	 0.00000000E+00	 0.00000000E+00

	 0.00000000E+00	 0.00000000E+00	 0.00000000E+00
	 0.00000000E+00	 0.00000000E+00	 0.00000000E+00
	 0.00000000E+00	 0.00000000E+00	 0.00000000E+00

	 0.00000000E+00	 0.00000000E+00	 0.00000000E+00
	 0.00000000E+00	 0.00000000E+00	 0.00000000E+00
	 0.00000000E+00	 0.00000000E+00	 0.00000000E+00

	 0.00000000E+00	 0.00000000E+00	 0.00000000E+00
	 0.00000000E+00	 0.00000000E+00	 0.00000000E+00
	 0.00000000E+00	 0.00000000E+00	 0.00000000E+00

	 0.00000000E+00	 0.00000000E+00	 0.00000000E+00
	 0.00000000E+00	 0.00000000E+00	 0.00000000E+00
	 0.00000000E+00	 0.00000000E+00	 0.00000000E+00

	 0.00000000E+00	 0.00000000E+00	 0.00000000E+00
	 0.00000000E+00	 0.00000000E+00	 0.00000000E+00
	 0.00000000E+00	 0.00000000E+00	 0.00000000E+00

	 0.00000000E+00	 0.00000000E+00	 0.00000000E+00
	 0.00000000E+00	 0.00000000E+00	 0.00000000E+00
	 0.00000000E+00	 0.00000000E+00	 0.00000000E+00

	 0.00000000E+00	 0.00000000E+00	 0.00000000E+00
	 0.00000000E+00	 0.00000000E+00	 0.00000000E+00
	 0.00000000E+00	 0.00000000E+00	 0.00000000E+00

	 0.00000000E+00	 0.00000000E+00	 0.00000000E+00
	 0.00000000E+00	 0.00000000E+00	 0.00000000E+00
	 0.00000000E+00	 0.00000000E+00	 0.00000000E+00

	 0.00000000E+00	 0.00000000E+00	 0.00000000E+00
	 0.00000000E+00	 0.00000000E+00	 0.00000000E+00
	 0.00000000E+00	 0.00000000E+00	 0.00000000E+00

	 0.00000000E+00	 0.00000000E+00	 0.00000000E+00
	 0.00000000E+00	 0.00000000E+00	 0.00000000E+00
	 0.00000000E+00	 0.00000000E+00	 0.00000000E+00

	 0.00000000E+00	 0.00000000E+00	 0.00000000E+00
	 0.00000000E+00	 0.00000000E+00	 0.00000000E+00
	 0.00000000E+00	 0.00000000E+00	 0.00000000E+00

	 0.00000000E+00	 0.00000000E+00	 0.00000000E+00
	 0.00000000E+00	 0.00000000E+00	 0.00000000E+00
	 0.00000000E+00	 0.00000000E+00	 0.00000000E+00

	 0.00000000E+00	 0.00000000E+00	 0.00000000E+00
	 0.00000000E+00	 0.00000000E+00	 0.00000000E+00
	 0.00000000E+00	 0.00000000E+00	 0.00000000E+00

	 0.00000000E+00	 0.00000000E+00	 0.00000000E+00
	 0.00000000E+00	 0.00000000E+00	 0.00000000E+00
	 0.00000000E+00	 0.00000000E+00	 0.00000000E+00

	 0.00000000E+00	 0.00000000E+00	 0.00000000E+00
	 0.00000000E+00	 0.00000000E+00	 0.00000000E+00
	 0.00000000E+00	 0.00000000E+00	 0.00000000E+00

	 0.00000000E+00	 0.00000000E+00	 0.00000000E+00
	 0.00000000E+00	 0.00000000E+00	 0.00000000E+00
	 0.00000000E+00	 0.00000000E+00	 0.00000000E+00

	 0.00000000E+00	 0.00000000E+00	 0.00000000E+00
	 0.00000000E+00	 0.00000000E+00	 0.00000000E+00
	 0.00000000E+00	 0.00000000E+00	 0.00000000E+00

	 0.00000000E+00	 0.00000000E+00	 0.00000000E+00
	 0.00000000E+00	 0.00000000E+00	 0.00000000E+00
	 0.00000000E+00	 0.00000000E+00	 0.00000000E+00

	 0.00000000E+00	 0.00000000E+00	 0.00000000E+00
	 0.00000000E+00	 0.00000000E+00	 0.00000000E+00
	 0.00000000E+00	 0.00000000E+00	 0.00000000E+00

	 0.00000000E+00	 0.00000000E+00	 0.00000000E+00
	 0.00000000E+00	 0.00000000E+00	 0.00000000E+00
	 0.00000000E+00	 0.00000000E+00	 0.00000000E+00

	 0.00000000E+00	 0.00000000E+00	 0.00000000E+00
	 0.00000000E+00	 0.00000000E+00	 0.00000000E+00
	 0.00000000E+00	 0.00000000E+00	 0.00000000E+00

	 0.00000000E+00	 0.00000000E+00	 0.00000000E+00
	 0.00000000E+00	 0.00000000E+00	 0.00000000E+00
	 0.00000000E+00	 0.00000000E+00	 0.00000000E+00

	 0.00000000E+00	 0.00000000E+00	 0.00000000E+00
	 0.00000000E+00	 0.00000000E+00	 0.00000000E+00
	 0.00000000E+00	 0.00000000E+00	 0.00000000E+00

	 0.00000000E+00	 0.00000000E+00	 0.00000000E+00
	 0.00000000E+00	 0.00000000E+00	 0.00000000E+00
	 0.00000000E+00	 0.00000000E+00	 0.00000000E+00

	 0.00000000E+00	 0.00000000E+00	 0.00000000E+00
	 0.00000000E+00	 0.00000000E+00	 0.00000000E+00
	 0.00000000E+00	 0.00000000E+00	 0.00000000E+00

	 0.00000000E+00	 0.00000000E+00	 0.00000000E+00
	 0.00000000E+00	 0.00000000E+00	 0.00000000E+00
	 0.00000000E+00	 0.00000000E+00	 0.00000000E+00

	 0.00000000E+00	 0.00000000E+00	 0.00000000E+00
	 0.00000000E+00	 0.00000000E+00	 0.00000000E+00
	 0.00000000E+00	 0.00000000E+00	 0.00000000E+00

	 0.00000000E+00	 0.00000000E+00	 0.00000000E+00
	 0.00000000E+00	 0.00000000E+00	 0.00000000E+00
	 0.00000000E+00	 0.00000000E+00	 0.00000000E+00

	 0.00000000E+00	 0.00000000E+00	 0.00000000E+00
	 0.00000000E+00	 0.00000000E+00	 0.00000000E+00
	 0.00000000E+00	 0.00000000E+00	 0.00000000E+00

	 0.00000000E+00	 0.00000000E+00	 0.00000000E+00
	 0.00000000E+00	 0.00000000E+00	 0.00000000E+00
	 0.00000000E+00	 0.00000000E+00	 0.00000000E+00

	 0.00000000E+00	 0.00000000E+00	 0.00000000E+00
	 0.00000000E+00	 0.00000000E+00	 0.00000000E+00
	 0.00000000E+00	 0.00000000E+00	 0.00000000E+00

	 0.00000000E+00	 0.00000000E+00	 0.00000000E+00
	 0.00000000E+00	 0.00000000E+00	 0.00000000E+00
	 0.00000000E+00	 0.00000000E+00	 0.00000000E+00

	 0.00000000E+00	 0.00000000E+00	 0.00000000E+00
	 0.00000000E+00	 0.00000000E+00	 0.00000000E+00
	 0.00000000E+00	 0.00000000E+00	 0.00000000E+00

	 0.00000000E+00	 0.00000000E+00	 0.00000000E+00
	 0.00000000E+00	 0.00000000E+00	 0.00000000E+00
	 0.00000000E+00	 0.00000000E+00	 0.00000000E+00

	 0.00000000E+00	 0.00000000E+00	 0.00000000E+00
	 0.00000000E+00	 0.00000000E+00	 0.00000000E+00
	 0.00000000E+00	 0.00000000E+00	 0.00000000E+00

	 0.00000000E+00	 0.00000000E+00	 0.00000000E+00
	 0.00000000E+00	 0.00000000E+00	 0.00000000E+00
	 0.00000000E+00	 0.00000000E+00	 0.00000000E+00

	 0.00000000E+00	 0.00000000E+00	 0.00000000E+00
	 0.00000000E+00	 0.00000000E+00	 0.00000000E+00
	 0.00000000E+00	 0.00000000E+00	 0.00000000E+00

	 0.00000000E+00	 0.00000000E+00	 0.00000000E+00
	 0.00000000E+00	 0.00000000E+00	 0.00000000E+00
	 0.00000000E+00	 0.00000000E+00	 0.00000000E+00

	 0.00000000E+00	 0.00000000E+00	 0.00000000E+00
	 0.00000000E+00	 0.00000000E+00	 0.00000000E+00
	 0.00000000E+00	 0.00000000E+00	 0.00000000E+00

	 0.00000000E+00	 0.00000000E+00	 0.00000000E+00
	 0.00000000E+00	 0.00000000E+00	 0.00000000E+00
	 0.00000000E+00	 0.00000000E+00	 0.00000000E+00

	 0.00000000E+00	 0.00000000E+00	 0.00000000E+00
	 0.00000000E+00	 0.00000000E+00	 0.00000000E+00
	 0.00000000E+00	 0.00000000E+00	 0.00000000E+00

	 0.00000000E+00	 0.00000000E+00	 0.00000000E+00
	 0.00000000E+00	 0.00000000E+00	 0.00000000E+00
	 0.00000000E+00	 0.00000000E+00	 0.00000000E+00

	 0.00000000E+00	 0.00000000E+00	 0.00000000E+00
	 0.00000000E+00	 0.00000000E+00	 0.00000000E+00
	 0.00000000E+00	 0.00000000E+00	 0.00000000E+00

	 0.00000000E+00	 0.00000000E+00	 0.00000000E+00
	 0.00000000E+00	 0.00000000E+00	 0.00000000E+00
	 0.00000000E+00	 0.00000000E+00	 0.00000000E+00

	 0.00000000E+00	 0.00000000E+00	 0.00000000E+00
	 0.00000000E+00	 0.00000000E+00	 0.00000000E+00
	 0.00000000E+00	 0.00000000E+00	 0.00000000E+00

	 0.00000000E+00	 0.00000000E+00	 0.00000000E+00
	 0.00000000E+00	 0.00000000E+00	 0.00000000E+00
	 0.00000000E+00	 0.00000000E+00	 0.00000000E+00

	 0.00000000E+00	 0.00000000E+00	 0.00000000E+00
	 0.00000000E+00	 0.00000000E+00	 0.00000000E+00
	 0.00000000E+00	 0.00000000E+00	 0.00000000E+00

	 0.00000000E+00	 0.00000000E+00	 0.00000000E+00
	 0.00000000E+00	 0.00000000E+00	 0.00000000E+00
	 0.00000000E+00	 0.00000000E+00	 0.00000000E+00

	 0.00000000E+00	 0.00000000E+00	 0.00000000E+00
	 0.00000000E+00	 0.00000000E+00	 0.00000000E+00
	 0.00000000E+00	 0.00000000E+00	 0.00000000E+00

	 0.00000000E+00	 0.00000000E+00	 0.00000000E+00
	 0.00000000E+00	 0.00000000E+00	 0.00000000E+00
	 0.00000000E+00	 0.00000000E+00	 0.00000000E+00

	 0.00000000E+00	 0.00000000E+00	 0.00000000E+00
	 0.00000000E+00	 0.00000000E+00	 0.00000000E+00
	 0.00000000E+00	 0.00000000E+00	 0.00000000E+00

	 0.00000000E+00	 0.00000000E+00	 0.00000000E+00
	 0.00000000E+00	 0.00000000E+00	 0.00000000E+00
	 0.00000000E+00	 0.00000000E+00	 0.00000000E+00

	 0.00000000E+00	 0.00000000E+00	 0.00000000E+00
	 0.00000000E+00	 0.00000000E+00	 0.00000000E+00
	 0.00000000E+00	 0.00000000E+00	 0.00000000E+00

	 0.00000000E+00	 0.00000000E+00	 0.00000000E+00
	 0.00000000E+00	 0.00000000E+00	 0.00000000E+00
	 0.00000000E+00	 0.00000000E+00	 0.00000000E+00

	 0.00000000E+00	 0.00000000E+00	 0.00000000E+00
	 0.00000000E+00	 0.00000000E+00	 0.00000000E+00
	 0.00000000E+00	 0.00000000E+00	 0.00000000E+00

	 0.00000000E+00	 0.00000000E+00	 0.00000000E+00
	 0.00000000E+00	 0.00000000E+00	 0.00000000E+00
	 0.00000000E+00	 0.00000000E+00	 0.00000000E+00

	 0.00000000E+00	 0.00000000E+00	 0.00000000E+00
	 0.00000000E+00	 0.00000000E+00	 0.00000000E+00
	 0.00000000E+00	 0.00000000E+00	 0.00000000E+00

	 0.00000000E+00	 0.00000000E+00	 0.00000000E+00
	 0.00000000E+00	 0.00000000E+00	 0.00000000E+00
	 0.00000000E+00	 0.00000000E+00	 0.00000000E+00

	 0.00000000E+00	 0.00000000E+00	 0.00000000E+00
	 0.00000000E+00	 0.00000000E+00	 0.00000000E+00
	 0.00000000E+00	 0.00000000E+00	 0.00000000E+00

	 0.00000000E+00	 0.00000000E+00	 0.00000000E+00
	 0.00000000E+00	 0.00000000E+00	 0.00000000E+00
	 0.00000000E+00	 0.00000000E+00	 0.00000000E+00

	 0.00000000E+00	 0.00000000E+00	 0.00000000E+00
	 0.00000000E+00	 0.00000000E+00	 0.00000000E+00
	 0.00000000E+00	 0.00000000E+00	 0.00000000E+00

	 0.00000000E+00	 0.00000000E+00	 0.00000000E+00
	 0.00000000E+00	 0.00000000E+00	 0.00000000E+00
	 0.00000000E+00	 0.00000000E+00	 0.00000000E+00

	 0.00000000E+00	 0.00000000E+00	 0.00000000E+00
	 0.00000000E+00	 0.00000000E+00	 0.00000000E+00
	 0.00000000E+00	 0.00000000E+00	 0.00000000E+00

	 0.00000000E+00	 0.00000000E+00	 0.00000000E+00
	 0.00000000E+00	 0.00000000E+00	 0.00000000E+00
	 0.00000000E+00	 0.00000000E+00	 0.00000000E+00

	 0.00000000E+00	 0.00000000E+00	 0.00000000E+00
	 0.00000000E+00	 0.00000000E+00	 0.00000000E+00
	 0.00000000E+00	 0.00000000E+00	 0.00000000E+00

	 0.00000000E+00	 0.00000000E+00	 0.00000000E+00
	 0.00000000E+00	 0.00000000E+00	 0.00000000E+00
	 0.00000000E+00	 0.00000000E+00	 0.00000000E+00

	 0.00000000E+00	 0.00000000E+00	 0.00000000E+00
	 0.00000000E+00	 0.00000000E+00	 0.00000000E+00
	 0.00000000E+00	 0.00000000E+00	 0.00000000E+00

	 0.00000000E+00	 0.00000000E+00	 0.00000000E+00
	 0.00000000E+00	 0.00000000E+00	 0.00000000E+00
	 0.00000000E+00	 0.00000000E+00	 0.00000000E+00

	 0.00000000E+00	 0.00000000E+00	 0.00000000E+00
	 0.00000000E+00	 0.00000000E+00	 0.00000000E+00
	 0.00000000E+00	 0.00000000E+00	 0.00000000E+00

	 0.00000000E+00	 0.00000000E+00	 0.00000000E+00
	 0.00000000E+00	 0.00000000E+00	 0.00000000E+00
	 0.00000000E+00	 0.00000000E+00	 0.00000000E+00

	 0.00000000E+00	 0.00000000E+00	 0.00000000E+00
	 0.00000000E+00	 0.00000000E+00	 0.00000000E+00
	 0.00000000E+00	 0.00000000E+00	 0.00000000E+00

	 0.00000000E+00	 0.00000000E+00	 0.00000000E+00
	 0.00000000E+00	 0.00000000E+00	 0.00000000E+00
	 0.00000000E+00	 0.00000000E+00	 0.00000000E+00

	 0.00000000E+00	 0.00000000E+00	 0.00000000E+00
	 0.00000000E+00	 0.00000000E+00	 0.00000000E+00
	 0.00000000E+00	 0.00000000E+00	 0.00000000E+00

	 0.00000000E+00	 0.00000000E+00	 0.00000000E+00
	 0.00000000E+00	 0.00000000E+00	 0.00000000E+00
	 0.00000000E+00	 0.00000000E+00	 0.00000000E+00

	 0.00000000E+00	 0.00000000E+00	 0.00000000E+00
	 0.00000000E+00	 0.00000000E+00	 0.00000000E+00
	 0.00000000E+00	 0.00000000E+00	 0.00000000E+00

	 0.00000000E+00	 0.00000000E+00	 0.00000000E+00
	 0.00000000E+00	 0.00000000E+00	 0.00000000E+00
	 0.00000000E+00	 0.00000000E+00	 0.00000000E+00

	 0.00000000E+00	 0.00000000E+00	 0.00000000E+00
	 0.00000000E+00	 0.00000000E+00	 0.00000000E+00
	 0.00000000E+00	 0.00000000E+00	 0.00000000E+00

	 0.00000000E+00	 0.00000000E+00	 0.00000000E+00
	 0.00000000E+00	 0.00000000E+00	 0.00000000E+00
	 0.00000000E+00	 0.00000000E+00	 0.00000000E+00

	 0.00000000E+00	 0.00000000E+00	 0.00000000E+00
	 0.00000000E+00	 0.00000000E+00	 0.00000000E+00
	 0.00000000E+00	 0.00000000E+00	 0.00000000E+00

	 0.00000000E+00	 0.00000000E+00	 0.00000000E+00
	 0.00000000E+00	 0.00000000E+00	 0.00000000E+00
	 0.00000000E+00	 0.00000000E+00	 0.00000000E+00

	 0.00000000E+00	 0.00000000E+00	 0.00000000E+00
	 0.00000000E+00	 0.00000000E+00	 0.00000000E+00
	 0.00000000E+00	 0.00000000E+00	 0.00000000E+00

	 0.00000000E+00	 0.00000000E+00	 0.00000000E+00
	 0.00000000E+00	 0.00000000E+00	 0.00000000E+00
	 0.00000000E+00	 0.00000000E+00	 0.00000000E+00

	 0.00000000E+00	 0.00000000E+00	 0.00000000E+00
	 0.00000000E+00	 0.00000000E+00	 0.00000000E+00
	 0.00000000E+00	 0.00000000E+00	 0.00000000E+00

	 0.00000000E+00	 0.00000000E+00	 0.00000000E+00
	 0.00000000E+00	 0.00000000E+00	 0.00000000E+00
	 0.00000000E+00	 0.00000000E+00	 0.00000000E+00

	 0.00000000E+00	 0.00000000E+00	 0.00000000E+00
	 0.00000000E+00	 0.00000000E+00	 0.00000000E+00
	 0.00000000E+00	 0.00000000E+00	 0.00000000E+00

	 0.00000000E+00	 0.00000000E+00	 0.00000000E+00
	 0.00000000E+00	 0.00000000E+00	 0.00000000E+00
	 0.00000000E+00	 0.00000000E+00	 0.00000000E+00

	 0.00000000E+00	 0.00000000E+00	 0.00000000E+00
	 0.00000000E+00	 0.00000000E+00	 0.00000000E+00
	 0.00000000E+00	 0.00000000E+00	 0.00000000E+00

	 0.00000000E+00	 0.00000000E+00	 0.00000000E+00
	 0.00000000E+00	 0.00000000E+00	 0.00000000E+00
	 0.00000000E+00	 0.00000000E+00	 0.00000000E+00

	 0.00000000E+00	 0.00000000E+00	 0.00000000E+00
	 0.00000000E+00	 0.00000000E+00	 0.00000000E+00
	 0.00000000E+00	 0.00000000E+00	 0.00000000E+00

	 0.00000000E+00	 0.00000000E+00	 0.00000000E+00
	 0.00000000E+00	 0.00000000E+00	 0.00000000E+00
	 0.00000000E+00	 0.00000000E+00	 0.00000000E+00

	 0.00000000E+00	 0.00000000E+00	 0.00000000E+00
	 0.00000000E+00	 0.00000000E+00	 0.00000000E+00
	 0.00000000E+00	 0.00000000E+00	 0.00000000E+00

	 0.00000000E+00	 0.00000000E+00	 0.00000000E+00
	 0.00000000E+00	 0.00000000E+00	 0.00000000E+00
	 0.00000000E+00	 0.00000000E+00	 0.00000000E+00

	 0.00000000E+00	 0.00000000E+00	 0.00000000E+00
	 0.00000000E+00	 0.00000000E+00	 0.00000000E+00
	 0.00000000E+00	 0.00000000E+00	 0.00000000E+00

	 0.00000000E+00	 0.00000000E+00	 0.00000000E+00
	 0.00000000E+00	 0.00000000E+00	 0.00000000E+00
	 0.00000000E+00	 0.00000000E+00	 0.00000000E+00

	 0.00000000E+00	 0.00000000E+00	 0.00000000E+00
	 0.00000000E+00	 0.00000000E+00	 0.00000000E+00
	 0.00000000E+00	 0.00000000E+00	 0.00000000E+00

	 0.00000000E+00	 0.00000000E+00	 0.00000000E+00
	 0.00000000E+00	 0.00000000E+00	 0.00000000E+00
	 0.00000000E+00	 0.00000000E+00	 0.00000000E+00

	 0.00000000E+00	 0.00000000E+00	 0.00000000E+00
	 0.00000000E+00	 0.00000000E+00	 0.00000000E+00
	 0.00000000E+00	 0.00000000E+00	 0.00000000E+00

	 0.00000000E+00	 0.00000000E+00	 0.00000000E+00
	 0.00000000E+00	 0.00000000E+00	 0.00000000E+00
	 0.00000000E+00	 0.00000000E+00	 0.00000000E+00

	 0.00000000E+00	 0.00000000E+00	 0.00000000E+00
	 0.00000000E+00	 0.00000000E+00	 0.00000000E+00
	 0.00000000E+00	 0.00000000E+00	 0.00000000E+00

	 0.00000000E+00	 0.00000000E+00	 0.00000000E+00
	 0.00000000E+00	 0.00000000E+00	 0.00000000E+00
	 0.00000000E+00	 0.00000000E+00	 0.00000000E+00

	 0.00000000E+00	 0.00000000E+00	 0.00000000E+00
	 0.00000000E+00	 0.00000000E+00	 0.00000000E+00
	 0.00000000E+00	 0.00000000E+00	 0.00000000E+00

	 0.00000000E+00	 0.00000000E+00	 0.00000000E+00
	 0.00000000E+00	 0.00000000E+00	 0.00000000E+00
	 0.00000000E+00	 0.00000000E+00	 0.00000000E+00

	 0.00000000E+00	 0.00000000E+00	 0.00000000E+00
	 0.00000000E+00	 0.00000000E+00	 0.00000000E+00
	 0.00000000E+00	 0.00000000E+00	 0.00000000E+00

	 0.00000000E+00	 0.00000000E+00	 0.00000000E+00
	 0.00000000E+00	 0.00000000E+00	 0.00000000E+00
	 0.00000000E+00	 0.00000000E+00	 0.00000000E+00

	 0.00000000E+00	 0.00000000E+00	 0.00000000E+00
	 0.00000000E+00	 0.00000000E+00	 0.00000000E+00
	 0.00000000E+00	 0.00000000E+00	 0.00000000E+00

	 0.00000000E+00	 0.00000000E+00	 0.00000000E+00
	 0.00000000E+00	 0.00000000E+00	 0.00000000E+00
	 0.00000000E+00	 0.00000000E+00	 0.00000000E+00

	 0.00000000E+00	 0.00000000E+00	 0.00000000E+00
	 0.00000000E+00	 0.00000000E+00	 0.00000000E+00
	 0.00000000E+00	 0.00000000E+00	 0.00000000E+00

	 0.00000000E+00	 0.00000000E+00	 0.00000000E+00
	 0.00000000E+00	 0.00000000E+00	 0.00000000E+00
	 0.00000000E+00	 0.00000000E+00	 0.00000000E+00

	 0.00000000E+00	 0.00000000E+00	 0.00000000E+00
	 0.00000000E+00	 0.00000000E+00	 0.00000000E+00
	 0.00000000E+00	 0.00000000E+00	 0.00000000E+00

	 0.00000000E+00	 0.00000000E+00	 0.00000000E+00
	 0.00000000E+00	 0.00000000E+00	 0.00000000E+00
	 0.00000000E+00	 0.00000000E+00	 0.00000000E+00

	 0.00000000E+00	 0.00000000E+00	 0.00000000E+00
	 0.00000000E+00	 0.00000000E+00	 0.00000000E+00
	 0.00000000E+00	 0.00000000E+00	 0.00000000E+00

	 0.00000000E+00	 0.00000000E+00	 0.00000000E+00
	 0.00000000E+00	 0.00000000E+00	 0.00000000E+00
	 0.00000000E+00	 0.00000000E+00	 0.00000000E+00

	 0.00000000E+00	 0.00000000E+00	 0.00000000E+00
	 0.00000000E+00	 0.00000000E+00	 0.00000000E+00
	 0.00000000E+00	 0.00000000E+00	 0.00000000E+00

	 0.00000000E+00	 0.00000000E+00	 0.00000000E+00
	 0.00000000E+00	 0.00000000E+00	 0.00000000E+00
	 0.00000000E+00	 0.00000000E+00	 0.00000000E+00

	 0.00000000E+00	 0.00000000E+00	 0.00000000E+00
	 0.00000000E+00	 0.00000000E+00	 0.00000000E+00
	 0.00000000E+00	 0.00000000E+00	 0.00000000E+00

	 0.00000000E+00	 0.00000000E+00	 0.00000000E+00
	 0.00000000E+00	 0.00000000E+00	 0.00000000E+00
	 0.00000000E+00	 0.00000000E+00	 0.00000000E+00

	 0.00000000E+00	 0.00000000E+00	 0.00000000E+00
	 0.00000000E+00	 0.00000000E+00	 0.00000000E+00
	 0.00000000E+00	 0.00000000E+00	 0.00000000E+00

	 0.00000000E+00	 0.00000000E+00	 0.00000000E+00
	 0.00000000E+00	 0.00000000E+00	 0.00000000E+00
	 0.00000000E+00	 0.00000000E+00	 0.00000000E+00

	 0.00000000E+00	 0.00000000E+00	 0.00000000E+00
	 0.00000000E+00	 0.00000000E+00	 0.00000000E+00
	 0.00000000E+00	 0.00000000E+00	 0.00000000E+00

	 0.00000000E+00	 0.00000000E+00	 0.00000000E+00
	 0.00000000E+00	 0.00000000E+00	 0.00000000E+00
	 0.00000000E+00	 0.00000000E+00	 0.00000000E+00

	 0.00000000E+00	 0.00000000E+00	 0.00000000E+00
	 0.00000000E+00	 0.00000000E+00	 0.00000000E+00
	 0.00000000E+00	 0.00000000E+00	 0.00000000E+00

	 0.00000000E+00	 0.00000000E+00	 0.00000000E+00
	 0.00000000E+00	 0.00000000E+00	 0.00000000E+00
	 0.00000000E+00	 0.00000000E+00	 0.00000000E+00

	 0.00000000E+00	 0.00000000E+00	 0.00000000E+00
	 0.00000000E+00	 0.00000000E+00	 0.00000000E+00
	 0.00000000E+00	 0.00000000E+00	 0.00000000E+00

	 0.00000000E+00	 0.00000000E+00	 0.00000000E+00
	 0.00000000E+00	 0.00000000E+00	 0.00000000E+00
	 0.00000000E+00	 0.00000000E+00	 0.00000000E+00

	 0.00000000E+00	 0.00000000E+00	 0.00000000E+00
	 0.00000000E+00	 0.00000000E+00	 0.00000000E+00
	 0.00000000E+00	 0.00000000E+00	 0.00000000E+00

	 0.00000000E+00	 0.00000000E+00	 0.00000000E+00
	 0.00000000E+00	 0.00000000E+00	 0.00000000E+00
	 0.00000000E+00	 0.00000000E+00	 0.00000000E+00

	 0.00000000E+00	 0.00000000E+00	 0.00000000E+00
	 0.00000000E+00	 0.00000000E+00	 0.00000000E+00
	 0.00000000E+00	 0.00000000E+00	 0.00000000E+00

	 0.00000000E+00	 0.00000000E+00	 0.00000000E+00
	 0.00000000E+00	 0.00000000E+00	 0.00000000E+00
	 0.00000000E+00	 0.00000000E+00	 0.00000000E+00

	 0.00000000E+00	 0.00000000E+00	 0.00000000E+00
	 0.00000000E+00	 0.00000000E+00	 0.00000000E+00
	 0.00000000E+00	 0.00000000E+00	 0.00000000E+00

	 0.00000000E+00	 0.00000000E+00	 0.00000000E+00
	 0.00000000E+00	 0.00000000E+00	 0.00000000E+00
	 0.00000000E+00	 0.00000000E+00	 0.00000000E+00

	 0.00000000E+00	 0.00000000E+00	 0.00000000E+00
	 0.00000000E+00	 0.00000000E+00	 0.00000000E+00
	 0.00000000E+00	 0.00000000E+00	 0.00000000E+00

	 0.00000000E+00	 0.00000000E+00	 0.00000000E+00
	 0.00000000E+00	 0.00000000E+00	 0.00000000E+00
	 0.00000000E+00	 0.00000000E+00	 0.00000000E+00

	 0.00000000E+00	 0.00000000E+00	 0.00000000E+00
	 0.00000000E+00	 0.00000000E+00	 0.00000000E+00
	 0.00000000E+00	 0.00000000E+00	 0.00000000E+00

	 0.00000000E+00	 0.00000000E+00	 0.00000000E+00
	 0.00000000E+00	 0.00000000E+00	 0.00000000E+00
	 0.00000000E+00	 0.00000000E+00	 0.00000000E+00

	 0.00000000E+00	 0.00000000E+00	 0.00000000E+00
	 0.00000000E+00	 0.00000000E+00	 0.00000000E+00
	 0.00000000E+00	 0.00000000E+00	 0.00000000E+00

	 0.00000000E+00	 0.00000000E+00	 0.00000000E+00
	 0.00000000E+00	 0.00000000E+00	 0.00000000E+00
	 0.00000000E+00	 0.00000000E+00	 0.00000000E+00

	 0.00000000E+00	 0.00000000E+00	 0.00000000E+00
	 0.00000000E+00	 0.00000000E+00	 0.00000000E+00
	 0.00000000E+00	 0.00000000E+00	 0.00000000E+00

	 0.00000000E+00	 0.00000000E+00	 0.00000000E+00
	 0.00000000E+00	 0.00000000E+00	 0.00000000E+00
	 0.00000000E+00	 0.00000000E+00	 0.00000000E+00

	 0.00000000E+00	 0.00000000E+00	 0.00000000E+00
	 0.00000000E+00	 0.00000000E+00	 0.00000000E+00
	 0.00000000E+00	 0.00000000E+00	 0.00000000E+00

	 0.00000000E+00	 0.00000000E+00	 0.00000000E+00
	 0.00000000E+00	 0.00000000E+00	 0.00000000E+00
	 0.00000000E+00	 0.00000000E+00	 0.00000000E+00

	 0.00000000E+00	 0.00000000E+00	 0.00000000E+00
	 0.00000000E+00	 0.00000000E+00	 0.00000000E+00
	 0.00000000E+00	 0.00000000E+00	 0.00000000E+00

	 0.00000000E+00	 0.00000000E+00	 0.00000000E+00
	 0.00000000E+00	 0.00000000E+00	 0.00000000E+00
	 0.00000000E+00	 0.00000000E+00	 0.00000000E+00

	 0.00000000E+00	 0.00000000E+00	 0.00000000E+00
	 0.00000000E+00	 0.00000000E+00	 0.00000000E+00
	 0.00000000E+00	 0.00000000E+00	 0.00000000E+00

	 0.00000000E+00	 0.00000000E+00	 0.00000000E+00
	 0.00000000E+00	 0.00000000E+00	 0.00000000E+00
	 0.00000000E+00	 0.00000000E+00	 0.00000000E+00

	 0.00000000E+00	 0.00000000E+00	 0.00000000E+00
	 0.00000000E+00	 0.00000000E+00	 0.00000000E+00
	 0.00000000E+00	 0.00000000E+00	 0.00000000E+00

	 0.00000000E+00	 0.00000000E+00	 0.00000000E+00
	 0.00000000E+00	 0.00000000E+00	 0.00000000E+00
	 0.00000000E+00	 0.00000000E+00	 0.00000000E+00

	 0.00000000E+00	 0.00000000E+00	 0.00000000E+00
	 0.00000000E+00	 0.00000000E+00	 0.00000000E+00
	 0.00000000E+00	 0.00000000E+00	 0.00000000E+00

	 0.00000000E+00	 0.00000000E+00	 0.00000000E+00
	 0.00000000E+00	 0.00000000E+00	 0.00000000E+00
	 0.00000000E+00	 0.00000000E+00	 0.00000000E+00

	 0.00000000E+00	 0.00000000E+00	 0.00000000E+00
	 0.00000000E+00	 0.00000000E+00	 0.00000000E+00
	 0.00000000E+00	 0.00000000E+00	 0.00000000E+00

	 0.00000000E+00	 0.00000000E+00	 0.00000000E+00
	 0.00000000E+00	 0.00000000E+00	 0.00000000E+00
	 0.00000000E+00	 0.00000000E+00	 0.00000000E+00

	 0.00000000E+00	 0.00000000E+00	 0.00000000E+00
	 0.00000000E+00	 0.00000000E+00	 0.00000000E+00
	 0.00000000E+00	 0.00000000E+00	 0.00000000E+00

	 0.00000000E+00	 0.00000000E+00	 0.00000000E+00
	 0.00000000E+00	 0.00000000E+00	 0.00000000E+00
	 0.00000000E+00	 0.00000000E+00	 0.00000000E+00

	 0.00000000E+00	 0.00000000E+00	 0.00000000E+00
	 0.00000000E+00	 0.00000000E+00	 0.00000000E+00
	 0.00000000E+00	 0.00000000E+00	 0.00000000E+00

	 0.00000000E+00	 0.00000000E+00	 0.00000000E+00
	 0.00000000E+00	 0.00000000E+00	 0.00000000E+00
	 0.00000000E+00	 0.00000000E+00	 0.00000000E+00

	 0.00000000E+00	 0.00000000E+00	 0.00000000E+00
	 0.00000000E+00	 0.00000000E+00	 0.00000000E+00
	 0.00000000E+00	 0.00000000E+00	 0.00000000E+00

	 0.00000000E+00	 0.00000000E+00	 0.00000000E+00
	 0.00000000E+00	 0.00000000E+00	 0.00000000E+00
	 0.00000000E+00	 0.00000000E+00	 0.00000000E+00

	 0.00000000E+00	 0.00000000E+00	 0.00000000E+00
	 0.00000000E+00	 0.00000000E+00	 0.00000000E+00
	 0.00000000E+00	 0.00000000E+00	 0.00000000E+00

	 0.00000000E+00	 0.00000000E+00	 0.00000000E+00
	 0.00000000E+00	 0.00000000E+00	 0.00000000E+00
	 0.00000000E+00	 0.00000000E+00	 0.00000000E+00

	 0.00000000E+00	 0.00000000E+00	 0.00000000E+00
	 0.00000000E+00	 0.00000000E+00	 0.00000000E+00
	 0.00000000E+00	 0.00000000E+00	 0.00000000E+00

	 0.00000000E+00	 0.00000000E+00	 0.00000000E+00
	 0.00000000E+00	 0.00000000E+00	 0.00000000E+00
	 0.00000000E+00	 0.00000000E+00	 0.00000000E+00

	 0.00000000E+00	 0.00000000E+00	 0.00000000E+00
	 0.00000000E+00	 0.00000000E+00	 0.00000000E+00
	 0.00000000E+00	 0.00000000E+00	 0.00000000E+00

	 0.00000000E+00	 0.00000000E+00	 0.00000000E+00
	 0.00000000E+00	 0.00000000E+00	 0.00000000E+00
	 0.00000000E+00	 0.00000000E+00	 0.00000000E+00

	 0.00000000E+00	 0.00000000E+00	 0.00000000E+00
	 0.00000000E+00	 0.00000000E+00	 0.00000000E+00
	 0.00000000E+00	 0.00000000E+00	 0.00000000E+00

	 0.00000000E+00	 0.00000000E+00	 0.00000000E+00
	 0.00000000E+00	 0.00000000E+00	 0.00000000E+00
	 0.00000000E+00	 0.00000000E+00	 0.00000000E+00

	 0.00000000E+00	 0.00000000E+00	 0.00000000E+00
	 0.00000000E+00	 0.00000000E+00	 0.00000000E+00
	 0.00000000E+00	 0.00000000E+00	 0.00000000E+00

	 0.00000000E+00	 0.00000000E+00	 0.00000000E+00
	 0.00000000E+00	 0.00000000E+00	 0.00000000E+00
	 0.00000000E+00	 0.00000000E+00	 0.00000000E+00

	 0.00000000E+00	 0.00000000E+00	 0.00000000E+00
	 0.00000000E+00	 0.00000000E+00	 0.00000000E+00
	 0.00000000E+00	 0.00000000E+00	 0.00000000E+00

	 0.00000000E+00	 0.00000000E+00	 0.00000000E+00
	 0.00000000E+00	 0.00000000E+00	 0.00000000E+00
	 0.00000000E+00	 0.00000000E+00	 0.00000000E+00

	 0.00000000E+00	 0.00000000E+00	 0.00000000E+00
	 0.00000000E+00	 0.00000000E+00	 0.00000000E+00
	 0.00000000E+00	 0.00000000E+00	 0.00000000E+00

	 0.00000000E+00	 0.00000000E+00	 0.00000000E+00
	 0.00000000E+00	 0.00000000E+00	 0.00000000E+00
	 0.00000000E+00	 0.00000000E+00	 0.00000000E+00

	 0.00000000E+00	 0.00000000E+00	 0.00000000E+00
	 0.00000000E+00	 0.00000000E+00	 0.00000000E+00
	 0.00000000E+00	 0.00000000E+00	 0.00000000E+00

	 0.00000000E+00	 0.00000000E+00	 0.00000000E+00
	 0.00000000E+00	 0.00000000E+00	 0.00000000E+00
	 0.00000000E+00	 0.00000000E+00	 0.00000000E+00

	 0.00000000E+00	 0.00000000E+00	 0.00000000E+00
	 0.00000000E+00	 0.00000000E+00	 0.00000000E+00
	 0.00000000E+00	 0.00000000E+00	 0.00000000E+00

	 0.00000000E+00	 0.00000000E+00	 0.00000000E+00
	 0.00000000E+00	 0.00000000E+00	 0.00000000E+00
	 0.00000000E+00	 0.00000000E+00	 0.00000000E+00

	 0.00000000E+00	 0.00000000E+00	 0.00000000E+00
	 0.00000000E+00	 0.00000000E+00	 0.00000000E+00
	 0.00000000E+00	 0.00000000E+00	 0.00000000E+00

	 0.00000000E+00	 0.00000000E+00	 0.00000000E+00
	 0.00000000E+00	 0.00000000E+00	 0.00000000E+00
	 0.00000000E+00	 0.00000000E+00	 0.00000000E+00

	 0.00000000E+00	 0.00000000E+00	 0.00000000E+00
	 0.00000000E+00	 0.00000000E+00	 0.00000000E+00
	 0.00000000E+00	 0.00000000E+00	 0.00000000E+00

	 0.00000000E+00	 0.00000000E+00	 0.00000000E+00
	 0.00000000E+00	 0.00000000E+00	 0.00000000E+00
	 0.00000000E+00	 0.00000000E+00	 0.00000000E+00

	 0.00000000E+00	 0.00000000E+00	 0.00000000E+00
	 0.00000000E+00	 0.00000000E+00	 0.00000000E+00
	 0.00000000E+00	 0.00000000E+00	 0.00000000E+00

	 0.00000000E+00	 0.00000000E+00	 0.00000000E+00
	 0.00000000E+00	 0.00000000E+00	 0.00000000E+00
	 0.00000000E+00	 0.00000000E+00	 0.00000000E+00

	 0.00000000E+00	 0.00000000E+00	 0.00000000E+00
	 0.00000000E+00	 0.00000000E+00	 0.00000000E+00
	 0.00000000E+00	 0.00000000E+00	 0.00000000E+00

	 0.00000000E+00	 0.00000000E+00	 0.00000000E+00
	 0.00000000E+00	 0.00000000E+00	 0.00000000E+00
	 0.00000000E+00	 0.00000000E+00	 0.00000000E+00

	 0.00000000E+00	 0.00000000E+00	 0.00000000E+00
	 0.00000000E+00	 0.00000000E+00	 0.00000000E+00
	 0.00000000E+00	 0.00000000E+00	 0.00000000E+00

	 0.00000000E+00	 0.00000000E+00	 0.00000000E+00
	 0.00000000E+00	 0.00000000E+00	 0.00000000E+00
	 0.00000000E+00	 0.00000000E+00	 0.00000000E+00

	 0.00000000E+00	 0.00000000E+00	 0.00000000E+00
	 0.00000000E+00	 0.00000000E+00	 0.00000000E+00
	 0.00000000E+00	 0.00000000E+00	 0.00000000E+00

	 0.00000000E+00	 0.00000000E+00	 0.00000000E+00
	 0.00000000E+00	 0.00000000E+00	 0.00000000E+00
	 0.00000000E+00	 0.00000000E+00	 0.00000000E+00

	 0.00000000E+00	 0.00000000E+00	 0.00000000E+00
	 0.00000000E+00	 0.00000000E+00	 0.00000000E+00
	 0.00000000E+00	 0.00000000E+00	 0.00000000E+00

	 0.00000000E+00	 0.00000000E+00	 0.00000000E+00
	 0.00000000E+00	 0.00000000E+00	 0.00000000E+00
	 0.00000000E+00	 0.00000000E+00	 0.00000000E+00

	 0.00000000E+00	 0.00000000E+00	 0.00000000E+00
	 0.00000000E+00	 0.00000000E+00	 0.00000000E+00
	 0.00000000E+00	 0.00000000E+00	 0.00000000E+00

	 0.00000000E+00	 0.00000000E+00	 0.00000000E+00
	 0.00000000E+00	 0.00000000E+00	 0.00000000E+00
	 0.00000000E+00	 0.00000000E+00	 0.00000000E+00

	 0.00000000E+00	 0.00000000E+00	 0.00000000E+00
	 0.00000000E+00	 0.00000000E+00	 0.00000000E+00
	 0.00000000E+00	 0.00000000E+00	 0.00000000E+00

	 0.00000000E+00	 0.00000000E+00	 0.00000000E+00
	 0.00000000E+00	 0.00000000E+00	 0.00000000E+00
	 0.00000000E+00	 0.00000000E+00	 0.00000000E+00

	 0.00000000E+00	 0.00000000E+00	 0.00000000E+00
	 0.00000000E+00	 0.00000000E+00	 0.00000000E+00
	 0.00000000E+00	 0.00000000E+00	 0.00000000E+00

	 0.00000000E+00	 0.00000000E+00	 0.00000000E+00
	 0.00000000E+00	 0.00000000E+00	 0.00000000E+00
	 0.00000000E+00	 0.00000000E+00	 0.00000000E+00

	 0.00000000E+00	 0.00000000E+00	 0.00000000E+00
	 0.00000000E+00	 0.00000000E+00	 0.00000000E+00
	 0.00000000E+00	 0.00000000E+00	 0.00000000E+00

	 0.00000000E+00	 0.00000000E+00	 0.00000000E+00
	 0.00000000E+00	 0.00000000E+00	 0.00000000E+00
	 0.00000000E+00	 0.00000000E+00	 0.00000000E+00

	 0.00000000E+00	 0.00000000E+00	 0.00000000E+00
	 0.00000000E+00	 0.00000000E+00	 0.00000000E+00
	 0.00000000E+00	 0.00000000E+00	 0.00000000E+00

	 0.00000000E+00	 0.00000000E+00	 0.00000000E+00
	 0.00000000E+00	 0.00000000E+00	 0.00000000E+00
	 0.00000000E+00	 0.00000000E+00	 0.00000000E+00

	 0.00000000E+00	 0.00000000E+00	 0.00000000E+00
	 0.00000000E+00	 0.00000000E+00	 0.00000000E+00
	 0.00000000E+00	 0.00000000E+00	 0.00000000E+00

	 0.00000000E+00	 0.00000000E+00	 0.00000000E+00
	 0.00000000E+00	 0.00000000E+00	 0.00000000E+00
	 0.00000000E+00	 0.00000000E+00	 0.00000000E+00

	 0.00000000E+00	 0.00000000E+00	 0.00000000E+00
	 0.00000000E+00	 0.00000000E+00	 0.00000000E+00
	 0.00000000E+00	 0.00000000E+00	 0.00000000E+00

	 0.00000000E+00	 0.00000000E+00	 0.00000000E+00
	 0.00000000E+00	 0.00000000E+00	 0.00000000E+00
	 0.00000000E+00	 0.00000000E+00	 0.00000000E+00

	 0.00000000E+00	 0.00000000E+00	 0.00000000E+00
	 0.00000000E+00	 0.00000000E+00	 0.00000000E+00
	 0.00000000E+00	 0.00000000E+00	 0.00000000E+00

	 0.00000000E+00	 0.00000000E+00	 0.00000000E+00
	 0.00000000E+00	 0.00000000E+00	 0.00000000E+00
	 0.00000000E+00	 0.00000000E+00	 0.00000000E+00

	 0.00000000E+00	 0.00000000E+00	 0.00000000E+00
	 0.00000000E+00	 0.00000000E+00	 0.00000000E+00
	 0.00000000E+00	 0.00000000E+00	 0.00000000E+00

	 0.00000000E+00	 0.00000000E+00	 0.00000000E+00
	 0.00000000E+00	 0.00000000E+00	 0.00000000E+00
	 0.00000000E+00	 0.00000000E+00	 0.00000000E+00

	 0.00000000E+00	 0.00000000E+00	 0.00000000E+00
	 0.00000000E+00	 0.00000000E+00	 0.00000000E+00
	 0.00000000E+00	 0.00000000E+00	 0.00000000E+00

	 0.00000000E+00	 0.00000000E+00	 0.00000000E+00
	 0.00000000E+00	 0.00000000E+00	 0.00000000E+00
	 0.00000000E+00	 0.00000000E+00	 0.00000000E+00

	 0.00000000E+00	 0.00000000E+00	 0.00000000E+00
	 0.00000000E+00	 0.00000000E+00	 0.00000000E+00
	 0.00000000E+00	 0.00000000E+00	 0.00000000E+00

	 0.00000000E+00	 0.00000000E+00	 0.00000000E+00
	 0.00000000E+00	 0.00000000E+00	 0.00000000E+00
	 0.00000000E+00	 0.00000000E+00	 0.00000000E+00

	 0.00000000E+00	 0.00000000E+00	 0.00000000E+00
	 0.00000000E+00	 0.00000000E+00	 0.00000000E+00
	 0.00000000E+00	 0.00000000E+00	 0.00000000E+00

	 0.00000000E+00	 0.00000000E+00	 0.00000000E+00
	 0.00000000E+00	 0.00000000E+00	 0.00000000E+00
	 0.00000000E+00	 0.00000000E+00	 0.00000000E+00

	 0.00000000E+00	 0.00000000E+00	 0.00000000E+00
	 0.00000000E+00	 0.00000000E+00	 0.00000000E+00
	 0.00000000E+00	 0.00000000E+00	 0.00000000E+00

	 0.00000000E+00	 0.00000000E+00	 0.00000000E+00
	 0.00000000E+00	 0.00000000E+00	 0.00000000E+00
	 0.00000000E+00	 0.00000000E+00	 0.00000000E+00

	 0.00000000E+00	 0.00000000E+00	 0.00000000E+00
	 0.00000000E+00	 0.00000000E+00	 0.00000000E+00
	 0.00000000E+00	 0.00000000E+00	 0.00000000E+00

	 0.00000000E+00	 0.00000000E+00	 0.00000000E+00
	 0.00000000E+00	 0.00000000E+00	 0.00000000E+00
	 0.00000000E+00	 0.00000000E+00	 0.00000000E+00

	 0.00000000E+00	 0.00000000E+00	 0.00000000E+00
	 0.00000000E+00	 0.00000000E+00	 0.00000000E+00
	 0.00000000E+00	 0.00000000E+00	 0.00000000E+00

	 0.00000000E+00	 0.00000000E+00	 0.00000000E+00
	 0.00000000E+00	 0.00000000E+00	 0.00000000E+00
	 0.00000000E+00	 0.00000000E+00	 0.00000000E+00

	 0.00000000E+00	 0.00000000E+00	 0.00000000E+00
	 0.00000000E+00	 0.00000000E+00	 0.00000000E+00
	 0.00000000E+00	 0.00000000E+00	 0.00000000E+00

	 0.00000000E+00	 0.00000000E+00	 0.00000000E+00
	 0.00000000E+00	 0.00000000E+00	 0.00000000E+00
	 0.00000000E+00	 0.00000000E+00	 0.00000000E+00

	 0.00000000E+00	 0.00000000E+00	 0.00000000E+00
	 0.00000000E+00	 0.00000000E+00	 0.00000000E+00
	 0.00000000E+00	 0.00000000E+00	 0.00000000E+00

	 0.00000000E+00	 0.00000000E+00	 0.00000000E+00
	 0.00000000E+00	 0.00000000E+00	 0.00000000E+00
	 0.00000000E+00	 0.00000000E+00	 0.00000000E+00

	 0.00000000E+00	 0.00000000E+00	 0.00000000E+00
	 0.00000000E+00	 0.00000000E+00	 0.00000000E+00
	 0.00000000E+00	 0.00000000E+00	 0.00000000E+00

	 0.00000000E+00	 0.00000000E+00	 0.00000000E+00
	 0.00000000E+00	 0.00000000E+00	 0.00000000E+00
	 0.00000000E+00	 0.00000000E+00	 0.00000000E+00

	 0.00000000E+00	 0.00000000E+00	 0.00000000E+00
	 0.00000000E+00	 0.00000000E+00	 0.00000000E+00
	 0.00000000E+00	 0.00000000E+00	 0.00000000E+00

	 0.00000000E+00	 0.00000000E+00	 0.00000000E+00
	 0.00000000E+00	 0.00000000E+00	 0.00000000E+00
	 0.00000000E+00	 0.00000000E+00	 0.00000000E+00

	 0.00000000E+00	 0.00000000E+00	 0.00000000E+00
	 0.00000000E+00	 0.00000000E+00	 0.00000000E+00
	 0.00000000E+00	 0.00000000E+00	 0.00000000E+00

	 0.00000000E+00	 0.00000000E+00	 0.00000000E+00
	 0.00000000E+00	 0.00000000E+00	 0.00000000E+00
	 0.00000000E+00	 0.00000000E+00	 0.00000000E+00

	 0.00000000E+00	 0.00000000E+00	 0.00000000E+00
	 0.00000000E+00	 0.00000000E+00	 0.00000000E+00
	 0.00000000E+00	 0.00000000E+00	 0.00000000E+00

	 0.00000000E+00	 0.00000000E+00	 0.00000000E+00
	 0.00000000E+00	 0.00000000E+00	 0.00000000E+00
	 0.00000000E+00	 0.00000000E+00	 0.00000000E+00

	 0.00000000E+00	 0.00000000E+00	 0.00000000E+00
	 0.00000000E+00	 0.00000000E+00	 0.00000000E+00
	 0.00000000E+00	 0.00000000E+00	 0.00000000E+00

	 0.00000000E+00	 0.00000000E+00	 0.00000000E+00
	 0.00000000E+00	 0.00000000E+00	 0.00000000E+00
	 0.00000000E+00	 0.00000000E+00	 0.00000000E+00

	 0.00000000E+00	 0.00000000E+00	 0.00000000E+00
	 0.00000000E+00	 0.00000000E+00	 0.00000000E+00
	 0.00000000E+00	 0.00000000E+00	 0.00000000E+00

	 0.00000000E+00	 0.00000000E+00	 0.00000000E+00
	 0.00000000E+00	 0.00000000E+00	 0.00000000E+00
	 0.00000000E+00	 0.00000000E+00	 0.00000000E+00

	 0.00000000E+00	 0.00000000E+00	 0.00000000E+00
	 0.00000000E+00	 0.00000000E+00	 0.00000000E+00
	 0.00000000E+00	 0.00000000E+00	 0.00000000E+00

	 0.00000000E+00	 0.00000000E+00	 0.00000000E+00
	 0.00000000E+00	 0.00000000E+00	 0.00000000E+00
	 0.00000000E+00	 0.00000000E+00	 0.00000000E+00

	 0.00000000E+00	 0.00000000E+00	 0.00000000E+00
	 0.00000000E+00	 0.00000000E+00	 0.00000000E+00
	 0.00000000E+00	 0.00000000E+00	 0.00000000E+00

	 0.00000000E+00	 0.00000000E+00	 0.00000000E+00
	 0.00000000E+00	 0.00000000E+00	 0.00000000E+00
	 0.00000000E+00	 0.00000000E+00	 0.00000000E+00

	 0.00000000E+00	 0.00000000E+00	 0.00000000E+00
	 0.00000000E+00	 0.00000000E+00	 0.00000000E+00
	 0.00000000E+00	 0.00000000E+00	 0.00000000E+00

	 0.00000000E+00	 0.00000000E+00	 0.00000000E+00
	 0.00000000E+00	 0.00000000E+00	 0.00000000E+00
	 0.00000000E+00	 0.00000000E+00	 0.00000000E+00

	 0.00000000E+00	 0.00000000E+00	 0.00000000E+00
	 0.00000000E+00	 0.00000000E+00	 0.00000000E+00
	 0.00000000E+00	 0.00000000E+00	 0.00000000E+00

	 0.00000000E+00	 0.00000000E+00	 0.00000000E+00
	 0.00000000E+00	 0.00000000E+00	 0.00000000E+00
	 0.00000000E+00	 0.00000000E+00	 0.00000000E+00

	 0.00000000E+00	 0.00000000E+00	 0.00000000E+00
	 0.00000000E+00	 0.00000000E+00	 0.00000000E+00
	 0.00000000E+00	 0.00000000E+00	 0.00000000E+00

	 0.00000000E+00	 0.00000000E+00	 0.00000000E+00
	 0.00000000E+00	 0.00000000E+00	 0.00000000E+00
	 0.00000000E+00	 0.00000000E+00	 0.00000000E+00

	 0.00000000E+00	 0.00000000E+00	 0.00000000E+00
	 0.00000000E+00	 0.00000000E+00	 0.00000000E+00
	 0.00000000E+00	 0.00000000E+00	 0.00000000E+00

	 0.00000000E+00	 0.00000000E+00	 0.00000000E+00
	 0.00000000E+00	 0.00000000E+00	 0.00000000E+00
	 0.00000000E+00	 0.00000000E+00	 0.00000000E+00

	 0.00000000E+00	 0.00000000E+00	 0.00000000E+00
	 0.00000000E+00	 0.00000000E+00	 0.00000000E+00
	 0.00000000E+00	 0.00000000E+00	 0.00000000E+00

	 0.00000000E+00	 0.00000000E+00	 0.00000000E+00
	 0.00000000E+00	 0.00000000E+00	 0.00000000E+00
	 0.00000000E+00	 0.00000000E+00	 0.00000000E+00

	 0.00000000E+00	 0.00000000E+00	 0.00000000E+00
	 0.00000000E+00	 0.00000000E+00	 0.00000000E+00
	 0.00000000E+00	 0.00000000E+00	 0.00000000E+00

	 0.00000000E+00	 0.00000000E+00	 0.00000000E+00
	 0.00000000E+00	 0.00000000E+00	 0.00000000E+00
	 0.00000000E+00	 0.00000000E+00	 0.00000000E+00

	 0.00000000E+00	 0.00000000E+00	 0.00000000E+00
	 0.00000000E+00	 0.00000000E+00	 0.00000000E+00
	 0.00000000E+00	 0.00000000E+00	 0.00000000E+00

	 0.00000000E+00	 0.00000000E+00	 0.00000000E+00
	 0.00000000E+00	 0.00000000E+00	 0.00000000E+00
	 0.00000000E+00	 0.00000000E+00	 0.00000000E+00

	 0.00000000E+00	 0.00000000E+00	 0.00000000E+00
	 0.00000000E+00	 0.00000000E+00	 0.00000000E+00
	 0.00000000E+00	 0.00000000E+00	 0.00000000E+00

	 0.00000000E+00	 0.00000000E+00	 0.00000000E+00
	 0.00000000E+00	 0.00000000E+00	 0.00000000E+00
	 0.00000000E+00	 0.00000000E+00	 0.00000000E+00

	 0.00000000E+00	 0.00000000E+00	 0.00000000E+00
	 0.00000000E+00	 0.00000000E+00	 0.00000000E+00
	 0.00000000E+00	 0.00000000E+00	 0.00000000E+00

	 0.00000000E+00	 0.00000000E+00	 0.00000000E+00
	 0.00000000E+00	 0.00000000E+00	 0.00000000E+00
	 0.00000000E+00	 0.00000000E+00	 0.00000000E+00

	 0.00000000E+00	 0.00000000E+00	 0.00000000E+00
	 0.00000000E+00	 0.00000000E+00	 0.00000000E+00
	 0.00000000E+00	 0.00000000E+00	 0.00000000E+00

	 0.00000000E+00	 0.00000000E+00	 0.00000000E+00
	 0.00000000E+00	 0.00000000E+00	 0.00000000E+00
	 0.00000000E+00	 0.00000000E+00	 0.00000000E+00

	 0.00000000E+00	 0.00000000E+00	 0.00000000E+00
	 0.00000000E+00	 0.00000000E+00	 0.00000000E+00
	 0.00000000E+00	 0.00000000E+00	 0.00000000E+00

	 0.00000000E+00	 0.00000000E+00	 0.00000000E+00
	 0.00000000E+00	 0.00000000E+00	 0.00000000E+00
	 0.00000000E+00	 0.00000000E+00	 0.00000000E+00

	 0.00000000E+00	 0.00000000E+00	 0.00000000E+00
	 0.00000000E+00	 0.00000000E+00	 0.00000000E+00
	 0.00000000E+00	 0.00000000E+00	 0.00000000E+00

	 0.00000000E+00	 0.00000000E+00	 0.00000000E+00
	 0.00000000E+00	 0.00000000E+00	 0.00000000E+00
	 0.00000000E+00	 0.00000000E+00	 0.00000000E+00

	 0.00000000E+00	 0.00000000E+00	 0.00000000E+00
	 0.00000000E+00	 0.00000000E+00	 0.00000000E+00
	 0.00000000E+00	 0.00000000E+00	 0.00000000E+00

	 0.00000000E+00	 0.00000000E+00	 0.00000000E+00
	 0.00000000E+00	 0.00000000E+00	 0.00000000E+00
	 0.00000000E+00	 0.00000000E+00	 0.00000000E+00

	 0.00000000E+00	 0.00000000E+00	 0.00000000E+00
	 0.00000000E+00	 0.00000000E+00	 0.00000000E+00
	 0.00000000E+00	 0.00000000E+00	 0.00000000E+00

	 0.00000000E+00	 0.00000000E+00	 0.00000000E+00
	 0.00000000E+00	 0.00000000E+00	 0.00000000E+00
	 0.00000000E+00	 0.00000000E+00	 0.00000000E+00

	 0.00000000E+00	 0.00000000E+00	 0.00000000E+00
	 0.00000000E+00	 0.00000000E+00	 0.00000000E+00
	 0.00000000E+00	 0.00000000E+00	 0.00000000E+00

	 0.00000000E+00	 0.00000000E+00	 0.00000000E+00
	 0.00000000E+00	 0.00000000E+00	 0.00000000E+00
	 0.00000000E+00	 0.00000000E+00	 0.00000000E+00

	 0.00000000E+00	 0.00000000E+00	 0.00000000E+00
	 0.00000000E+00	 0.00000000E+00	 0.00000000E+00
	 0.00000000E+00	 0.00000000E+00	 0.00000000E+00

	 0.00000000E+00	 0.00000000E+00	 0.00000000E+00
	 0.00000000E+00	 0.00000000E+00	 0.00000000E+00
	 0.00000000E+00	 0.00000000E+00	 0.00000000E+00

	 0.00000000E+00	 0.00000000E+00	 0.00000000E+00
	 0.00000000E+00	 0.00000000E+00	 0.00000000E+00
	 0.00000000E+00	 0.00000000E+00	 0.00000000E+00

	 0.00000000E+00	 0.00000000E+00	 0.00000000E+00
	 0.00000000E+00	 0.00000000E+00	 0.00000000E+00
	 0.00000000E+00	 0.00000000E+00	 0.00000000E+00

	 0.00000000E+00	 0.00000000E+00	 0.00000000E+00
	 0.00000000E+00	 0.00000000E+00	 0.00000000E+00
	 0.00000000E+00	 0.00000000E+00	 0.00000000E+00

	 0.00000000E+00	 0.00000000E+00	 0.00000000E+00
	 0.00000000E+00	 0.00000000E+00	 0.00000000E+00
	 0.00000000E+00	 0.00000000E+00	 0.00000000E+00

	 0.00000000E+00	 0.00000000E+00	 0.00000000E+00
	 0.00000000E+00	 0.00000000E+00	 0.00000000E+00
	 0.00000000E+00	 0.00000000E+00	 0.00000000E+00

	 0.00000000E+00	 0.00000000E+00	 0.00000000E+00
	 0.00000000E+00	 0.00000000E+00	 0.00000000E+00
	 0.00000000E+00	 0.00000000E+00	 0.00000000E+00

	 0.00000000E+00	 0.00000000E+00	 0.00000000E+00
	 0.00000000E+00	 0.00000000E+00	 0.00000000E+00
	 0.00000000E+00	 0.00000000E+00	 0.00000000E+00

	 0.00000000E+00	 0.00000000E+00	 0.00000000E+00
	 0.00000000E+00	 0.00000000E+00	 0.00000000E+00
	 0.00000000E+00	 0.00000000E+00	 0.00000000E+00

	 0.00000000E+00	 0.00000000E+00	 0.00000000E+00
	 0.00000000E+00	 0.00000000E+00	 0.00000000E+00
	 0.00000000E+00	 0.00000000E+00	 0.00000000E+00

	 0.00000000E+00	 0.00000000E+00	 0.00000000E+00
	 0.00000000E+00	 0.00000000E+00	 0.00000000E+00
	 0.00000000E+00	 0.00000000E+00	 0.00000000E+00

	 0.00000000E+00	 0.00000000E+00	 0.00000000E+00
	 0.00000000E+00	 0.00000000E+00	 0.00000000E+00
	 0.00000000E+00	 0.00000000E+00	 0.00000000E+00

	 0.00000000E+00	 0.00000000E+00	 0.00000000E+00
	 0.00000000E+00	 0.00000000E+00	 0.00000000E+00
	 0.00000000E+00	 0.00000000E+00	 0.00000000E+00

	 0.00000000E+00	 0.00000000E+00	 0.00000000E+00
	 0.00000000E+00	 0.00000000E+00	 0.00000000E+00
	 0.00000000E+00	 0.00000000E+00	 0.00000000E+00

	 0.00000000E+00	 0.00000000E+00	 0.00000000E+00
	 0.00000000E+00	 0.00000000E+00	 0.00000000E+00
	 0.00000000E+00	 0.00000000E+00	 0.00000000E+00

	 0.00000000E+00	 0.00000000E+00	 0.00000000E+00
	 0.00000000E+00	 0.00000000E+00	 0.00000000E+00
	 0.00000000E+00	 0.00000000E+00	 0.00000000E+00

	 0.00000000E+00	 0.00000000E+00	 0.00000000E+00
	 0.00000000E+00	 0.00000000E+00	 0.00000000E+00
	 0.00000000E+00	 0.00000000E+00	 0.00000000E+00

	 0.00000000E+00	 0.00000000E+00	 0.00000000E+00
	 0.00000000E+00	 0.00000000E+00	 0.00000000E+00
	 0.00000000E+00	 0.00000000E+00	 0.00000000E+00

	 0.00000000E+00	 0.00000000E+00	 0.00000000E+00
	 0.00000000E+00	 0.00000000E+00	 0.00000000E+00
	 0.00000000E+00	 0.00000000E+00	 0.00000000E+00

	 0.00000000E+00	 0.00000000E+00	 0.00000000E+00
	 0.00000000E+00	 0.00000000E+00	 0.00000000E+00
	 0.00000000E+00	 0.00000000E+00	 0.00000000E+00

	 0.00000000E+00	 0.00000000E+00	 0.00000000E+00
	 0.00000000E+00	 0.00000000E+00	 0.00000000E+00
	 0.00000000E+00	 0.00000000E+00	 0.00000000E+00

	 0.00000000E+00	 0.00000000E+00	 0.00000000E+00
	 0.00000000E+00	 0.00000000E+00	 0.00000000E+00
	 0.00000000E+00	 0.00000000E+00	 0.00000000E+00

	 0.00000000E+00	 0.00000000E+00	 0.00000000E+00
	 0.00000000E+00	 0.00000000E+00	 0.00000000E+00
	 0.00000000E+00	 0.00000000E+00	 0.00000000E+00

	 0.00000000E+00	 0.00000000E+00	 0.00000000E+00
	 0.00000000E+00	 0.00000000E+00	 0.00000000E+00
	 0.00000000E+00	 0.00000000E+00	 0.00000000E+00

	 0.00000000E+00	 0.00000000E+00	 0.00000000E+00
	 0.00000000E+00	 0.00000000E+00	 0.00000000E+00
	 0.00000000E+00	 0.00000000E+00	 0.00000000E+00

	 0.00000000E+00	 0.00000000E+00	 0.00000000E+00
	 0.00000000E+00	 0.00000000E+00	 0.00000000E+00
	 0.00000000E+00	 0.00000000E+00	 0.00000000E+00

	 0.00000000E+00	 0.00000000E+00	 0.00000000E+00
	 0.00000000E+00	 0.00000000E+00	 0.00000000E+00
	 0.00000000E+00	 0.00000000E+00	 0.00000000E+00

	 0.00000000E+00	 0.00000000E+00	 0.00000000E+00
	 0.00000000E+00	 0.00000000E+00	 0.00000000E+00
	 0.00000000E+00	 0.00000000E+00	 0.00000000E+00

	 0.00000000E+00	 0.00000000E+00	 0.00000000E+00
	 0.00000000E+00	 0.00000000E+00	 0.00000000E+00
	 0.00000000E+00	 0.00000000E+00	 0.00000000E+00

	 0.00000000E+00	 0.00000000E+00	 0.00000000E+00
	 0.00000000E+00	 0.00000000E+00	 0.00000000E+00
	 0.00000000E+00	 0.00000000E+00	 0.00000000E+00

	 0.00000000E+00	 0.00000000E+00	 0.00000000E+00
	 0.00000000E+00	 0.00000000E+00	 0.00000000E+00
	 0.00000000E+00	 0.00000000E+00	 0.00000000E+00

	 0.00000000E+00	 0.00000000E+00	 0.00000000E+00
	 0.00000000E+00	 0.00000000E+00	 0.00000000E+00
	 0.00000000E+00	 0.00000000E+00	 0.00000000E+00

	 0.00000000E+00	 0.00000000E+00	 0.00000000E+00
	 0.00000000E+00	 0.00000000E+00	 0.00000000E+00
	 0.00000000E+00	 0.00000000E+00	 0.00000000E+00

	 0.00000000E+00	 0.00000000E+00	 0.00000000E+00
	 0.00000000E+00	 0.00000000E+00	 0.00000000E+00
	 0.00000000E+00	 0.00000000E+00	 0.00000000E+00

	 0.00000000E+00	 0.00000000E+00	 0.00000000E+00
	 0.00000000E+00	 0.00000000E+00	 0.00000000E+00
	 0.00000000E+00	 0.00000000E+00	 0.00000000E+00

	 0.00000000E+00	 0.00000000E+00	 0.00000000E+00
	 0.00000000E+00	 0.00000000E+00	 0.00000000E+00
	 0.00000000E+00	 0.00000000E+00	 0.00000000E+00

	 0.00000000E+00	 0.00000000E+00	 0.00000000E+00
	 0.00000000E+00	 0.00000000E+00	 0.00000000E+00
	 0.00000000E+00	 0.00000000E+00	 0.00000000E+00

	 0.00000000E+00	 0.00000000E+00	 0.00000000E+00
	 0.00000000E+00	 0.00000000E+00	 0.00000000E+00
	 0.00000000E+00	 0.00000000E+00	 0.00000000E+00

	 0.00000000E+00	 0.00000000E+00	 0.00000000E+00
	 0.00000000E+00	 0.00000000E+00	 0.00000000E+00
	 0.00000000E+00	 0.00000000E+00	 0.00000000E+00

	 0.00000000E+00	 0.00000000E+00	 0.00000000E+00
	 0.00000000E+00	 0.00000000E+00	 0.00000000E+00
	 0.00000000E+00	 0.00000000E+00	 0.00000000E+00

	 0.00000000E+00	 0.00000000E+00	 0.00000000E+00
	 0.00000000E+00	 0.00000000E+00	 0.00000000E+00
	 0.00000000E+00	 0.00000000E+00	 0.00000000E+00

	 0.00000000E+00	 0.00000000E+00	 0.00000000E+00
	 0.00000000E+00	 0.00000000E+00	 0.00000000E+00
	 0.00000000E+00	 0.00000000E+00	 0.00000000E+00

	 0.00000000E+00	 0.00000000E+00	 0.00000000E+00
	 0.00000000E+00	 0.00000000E+00	 0.00000000E+00
	 0.00000000E+00	 0.00000000E+00	 0.00000000E+00

	 0.00000000E+00	 0.00000000E+00	 0.00000000E+00
	 0.00000000E+00	 0.00000000E+00	 0.00000000E+00
	 0.00000000E+00	 0.00000000E+00	 0.00000000E+00

	 0.00000000E+00	 0.00000000E+00	 0.00000000E+00
	 0.00000000E+00	 0.00000000E+00	 0.00000000E+00
	 0.00000000E+00	 0.00000000E+00	 0.00000000E+00

	 0.00000000E+00	 0.00000000E+00	 0.00000000E+00
	 0.00000000E+00	 0.00000000E+00	 0.00000000E+00
	 0.00000000E+00	 0.00000000E+00	 0.00000000E+00

	 0.00000000E+00	 0.00000000E+00	 0.00000000E+00
	 0.00000000E+00	 0.00000000E+00	 0.00000000E+00
	 0.00000000E+00	 0.00000000E+00	 0.00000000E+00

	 0.00000000E+00	 0.00000000E+00	 0.00000000E+00
	 0.00000000E+00	 0.00000000E+00	 0.00000000E+00
	 0.00000000E+00	 0.00000000E+00	 0.00000000E+00

	 0.00000000E+00	 0.00000000E+00	 0.00000000E+00
	 0.00000000E+00	 0.00000000E+00	 0.00000000E+00
	 0.00000000E+00	 0.00000000E+00	 0.00000000E+00

	 0.00000000E+00	 0.00000000E+00	 0.00000000E+00
	 0.00000000E+00	 0.00000000E+00	 0.00000000E+00
	 0.00000000E+00	 0.00000000E+00	 0.00000000E+00

	 0.00000000E+00	 0.00000000E+00	 0.00000000E+00
	 0.00000000E+00	 0.00000000E+00	 0.00000000E+00
	 0.00000000E+00	 0.00000000E+00	 0.00000000E+00

	 0.00000000E+00	 0.00000000E+00	 0.00000000E+00
	 0.00000000E+00	 0.00000000E+00	 0.00000000E+00
	 0.00000000E+00	 0.00000000E+00	 0.00000000E+00

	 0.00000000E+00	 0.00000000E+00	 0.00000000E+00
	 0.00000000E+00	 0.00000000E+00	 0.00000000E+00
	 0.00000000E+00	 0.00000000E+00	 0.00000000E+00

	 0.00000000E+00	 0.00000000E+00	 0.00000000E+00
	 0.00000000E+00	 0.00000000E+00	 0.00000000E+00
	 0.00000000E+00	 0.00000000E+00	 0.00000000E+00

	 0.00000000E+00	 0.00000000E+00	 0.00000000E+00
	 0.00000000E+00	 0.00000000E+00	 0.00000000E+00
	 0.00000000E+00	 0.00000000E+00	 0.00000000E+00

	 0.00000000E+00	 0.00000000E+00	 0.00000000E+00
	 0.00000000E+00	 0.00000000E+00	 0.00000000E+00
	 0.00000000E+00	 0.00000000E+00	 0.00000000E+00

	 0.00000000E+00	 0.00000000E+00	 0.00000000E+00
	 0.00000000E+00	 0.00000000E+00	 0.00000000E+00
	 0.00000000E+00	 0.00000000E+00	 0.00000000E+00

	 0.00000000E+00	 0.00000000E+00	 0.00000000E+00
	 0.00000000E+00	 0.00000000E+00	 0.00000000E+00
	 0.00000000E+00	 0.00000000E+00	 0.00000000E+00

	 0.00000000E+00	 0.00000000E+00	 0.00000000E+00
	 0.00000000E+00	 0.00000000E+00	 0.00000000E+00
	 0.00000000E+00	 0.00000000E+00	 0.00000000E+00

	 0.00000000E+00	 0.00000000E+00	 0.00000000E+00
	 0.00000000E+00	 0.00000000E+00	 0.00000000E+00
	 0.00000000E+00	 0.00000000E+00	 0.00000000E+00

	 0.00000000E+00	 0.00000000E+00	 0.00000000E+00
	 0.00000000E+00	 0.00000000E+00	 0.00000000E+00
	 0.00000000E+00	 0.00000000E+00	 0.00000000E+00

	 0.00000000E+00	 0.00000000E+00	 0.00000000E+00
	 0.00000000E+00	 0.00000000E+00	 0.00000000E+00
	 0.00000000E+00	 0.00000000E+00	 0.00000000E+00

	 0.00000000E+00	 0.00000000E+00	 0.00000000E+00
	 0.00000000E+00	 0.00000000E+00	 0.00000000E+00
	 0.00000000E+00	 0.00000000E+00	 0.00000000E+00

	 0.00000000E+00	 0.00000000E+00	 0.00000000E+00
	 0.00000000E+00	 0.00000000E+00	 0.00000000E+00
	 0.00000000E+00	 0.00000000E+00	 0.00000000E+00

	 0.00000000E+00	 0.00000000E+00	 0.00000000E+00
	 0.00000000E+00	 0.00000000E+00	 0.00000000E+00
	 0.00000000E+00	 0.00000000E+00	 0.00000000E+00

	 0.00000000E+00	 0.00000000E+00	 0.00000000E+00
	 0.00000000E+00	 0.00000000E+00	 0.00000000E+00
	 0.00000000E+00	 0.00000000E+00	 0.00000000E+00

	 0.00000000E+00	 0.00000000E+00	 0.00000000E+00
	 0.00000000E+00	 0.00000000E+00	 0.00000000E+00
	 0.00000000E+00	 0.00000000E+00	 0.00000000E+00

	 0.00000000E+00	 0.00000000E+00	 0.00000000E+00
	 0.00000000E+00	 0.00000000E+00	 0.00000000E+00
	 0.00000000E+00	 0.00000000E+00	 0.00000000E+00

	 0.00000000E+00	 0.00000000E+00	 0.00000000E+00
	 0.00000000E+00	 0.00000000E+00	 0.00000000E+00
	 0.00000000E+00	 0.00000000E+00	 0.00000000E+00

	 0.00000000E+00	 0.00000000E+00	 0.00000000E+00
	 0.00000000E+00	 0.00000000E+00	 0.00000000E+00
	 0.00000000E+00	 0.00000000E+00	 0.00000000E+00

	 0.00000000E+00	 0.00000000E+00	 0.00000000E+00
	 0.00000000E+00	 0.00000000E+00	 0.00000000E+00
	 0.00000000E+00	 0.00000000E+00	 0.00000000E+00

	 0.00000000E+00	 0.00000000E+00	 0.00000000E+00
	 0.00000000E+00	 0.00000000E+00	 0.00000000E+00
	 0.00000000E+00	 0.00000000E+00	 0.00000000E+00

	 0.00000000E+00	 0.00000000E+00	 0.00000000E+00
	 0.00000000E+00	 0.00000000E+00	 0.00000000E+00
	 0.00000000E+00	 0.00000000E+00	 0.00000000E+00

	 0.00000000E+00	 0.00000000E+00	 0.00000000E+00
	 0.00000000E+00	 0.00000000E+00	 0.00000000E+00
	 0.00000000E+00	 0.00000000E+00	 0.00000000E+00

	 0.00000000E+00	 0.00000000E+00	 0.00000000E+00
	 0.00000000E+00	 0.00000000E+00	 0.00000000E+00
	 0.00000000E+00	 0.00000000E+00	 0.00000000E+00

	 0.00000000E+00	 0.00000000E+00	 0.00000000E+00
	 0.00000000E+00	 0.00000000E+00	 0.00000000E+00
	 0.00000000E+00	 0.00000000E+00	 0.00000000E+00

	 0.00000000E+00	 0.00000000E+00	 0.00000000E+00
	 0.00000000E+00	 0.00000000E+00	 0.00000000E+00
	 0.00000000E+00	 0.00000000E+00	 0.00000000E+00

	 0.00000000E+00	 0.00000000E+00	 0.00000000E+00
	 0.00000000E+00	 0.00000000E+00	 0.00000000E+00
	 0.00000000E+00	 0.00000000E+00	 0.00000000E+00

	 0.00000000E+00	 0.00000000E+00	 0.00000000E+00
	 0.00000000E+00	 0.00000000E+00	 0.00000000E+00
	 0.00000000E+00	 0.00000000E+00	 0.00000000E+00

	 0.00000000E+00	 0.00000000E+00	 0.00000000E+00
	 0.00000000E+00	 0.00000000E+00	 0.00000000E+00
	 0.00000000E+00	 0.00000000E+00	 0.00000000E+00

	 0.00000000E+00	 0.00000000E+00	 0.00000000E+00
	 0.00000000E+00	 0.00000000E+00	 0.00000000E+00
	 0.00000000E+00	 0.00000000E+00	 0.00000000E+00

	 0.00000000E+00	 0.00000000E+00	 0.00000000E+00
	 0.00000000E+00	 0.00000000E+00	 0.00000000E+00
	 0.00000000E+00	 0.00000000E+00	 0.00000000E+00

	 0.00000000E+00	 0.00000000E+00	 0.00000000E+00
	 0.00000000E+00	 0.00000000E+00	 0.00000000E+00
	 0.00000000E+00	 0.00000000E+00	 0.00000000E+00

	 0.00000000E+00	 0.00000000E+00	 0.00000000E+00
	 0.00000000E+00	 0.00000000E+00	 0.00000000E+00
	 0.00000000E+00	 0.00000000E+00	 0.00000000E+00

	 0.00000000E+00	 0.00000000E+00	 0.00000000E+00
	 0.00000000E+00	 0.00000000E+00	 0.00000000E+00
	 0.00000000E+00	 0.00000000E+00	 0.00000000E+00

	 0.00000000E+00	 0.00000000E+00	 0.00000000E+00
	 0.00000000E+00	 0.00000000E+00	 0.00000000E+00
	 0.00000000E+00	 0.00000000E+00	 0.00000000E+00

	 0.00000000E+00	 0.00000000E+00	 0.00000000E+00
	 0.00000000E+00	 0.00000000E+00	 0.00000000E+00
	 0.00000000E+00	 0.00000000E+00	 0.00000000E+00

	 0.00000000E+00	 0.00000000E+00	 0.00000000E+00
	 0.00000000E+00	 0.00000000E+00	 0.00000000E+00
	 0.00000000E+00	 0.00000000E+00	 0.00000000E+00

	 0.00000000E+00	 0.00000000E+00	 0.00000000E+00
	 0.00000000E+00	 0.00000000E+00	 0.00000000E+00
	 0.00000000E+00	 0.00000000E+00	 0.00000000E+00

	 0.00000000E+00	 0.00000000E+00	 0.00000000E+00
	 0.00000000E+00	 0.00000000E+00	 0.00000000E+00
	 0.00000000E+00	 0.00000000E+00	 0.00000000E+00

	 0.00000000E+00	 0.00000000E+00	 0.00000000E+00
	 0.00000000E+00	 0.00000000E+00	 0.00000000E+00
	 0.00000000E+00	 0.00000000E+00	 0.00000000E+00

	 0.00000000E+00	 0.00000000E+00	 0.00000000E+00
	 0.00000000E+00	 0.00000000E+00	 0.00000000E+00
	 0.00000000E+00	 0.00000000E+00	 0.00000000E+00

	 0.00000000E+00	 0.00000000E+00	 0.00000000E+00
	 0.00000000E+00	 0.00000000E+00	 0.00000000E+00
	 0.00000000E+00	 0.00000000E+00	 0.00000000E+00

	 0.00000000E+00	 0.00000000E+00	 0.00000000E+00
	 0.00000000E+00	 0.00000000E+00	 0.00000000E+00
	 0.00000000E+00	 0.00000000E+00	 0.00000000E+00

	 0.00000000E+00	 0.00000000E+00	 0.00000000E+00
	 0.00000000E+00	 0.00000000E+00	 0.00000000E+00
	 0.00000000E+00	 0.00000000E+00	 0.00000000E+00

	 0.00000000E+00	 0.00000000E+00	 0.00000000E+00
	 0.00000000E+00	 0.00000000E+00	 0.00000000E+00
	 0.00000000E+00	 0.00000000E+00	 0.00000000E+00

	 0.00000000E+00	 0.00000000E+00	 0.00000000E+00
	 0.00000000E+00	 0.00000000E+00	 0.00000000E+00
	 0.00000000E+00	 0.00000000E+00	 0.00000000E+00

	 0.00000000E+00	 0.00000000E+00	 0.00000000E+00
	 0.00000000E+00	 0.00000000E+00	 0.00000000E+00
	 0.00000000E+00	 0.00000000E+00	 0.00000000E+00

	 0.00000000E+00	 0.00000000E+00	 0.00000000E+00
	 0.00000000E+00	 0.00000000E+00	 0.00000000E+00
	 0.00000000E+00	 0.00000000E+00	 0.00000000E+00

	 0.00000000E+00	 0.00000000E+00	 0.00000000E+00
	 0.00000000E+00	 0.00000000E+00	 0.00000000E+00
	 0.00000000E+00	 0.00000000E+00	 0.00000000E+00

	 0.00000000E+00	 0.00000000E+00	 0.00000000E+00
	 0.00000000E+00	 0.00000000E+00	 0.00000000E+00
	 0.00000000E+00	 0.00000000E+00	 0.00000000E+00

	 0.00000000E+00	 0.00000000E+00	 0.00000000E+00
	 0.00000000E+00	 0.00000000E+00	 0.00000000E+00
	 0.00000000E+00	 0.00000000E+00	 0.00000000E+00

	 0.00000000E+00	 0.00000000E+00	 0.00000000E+00
	 0.00000000E+00	 0.00000000E+00	 0.00000000E+00
	 0.00000000E+00	 0.00000000E+00	 0.00000000E+00

	 0.00000000E+00	 0.00000000E+00	 0.00000000E+00
	 0.00000000E+00	 0.00000000E+00	 0.00000000E+00
	 0.00000000E+00	 0.00000000E+00	 0.00000000E+00

	 0.00000000E+00	 0.00000000E+00	 0.00000000E+00
	 0.00000000E+00	 0.00000000E+00	 0.00000000E+00
	 0.00000000E+00	 0.00000000E+00	 0.00000000E+00

	 0.00000000E+00	 0.00000000E+00	 0.00000000E+00
	 0.00000000E+00	 0.00000000E+00	 0.00000000E+00
	 0.00000000E+00	 0.00000000E+00	 0.00000000E+00

	 0.00000000E+00	 0.00000000E+00	 0.00000000E+00
	 0.00000000E+00	 0.00000000E+00	 0.00000000E+00
	 0.00000000E+00	 0.00000000E+00	 0.00000000E+00

	 0.00000000E+00	 0.00000000E+00	 0.00000000E+00
	 0.00000000E+00	 0.00000000E+00	 0.00000000E+00
	 0.00000000E+00	 0.00000000E+00	 0.00000000E+00

	 0.00000000E+00	 0.00000000E+00	 0.00000000E+00
	 0.00000000E+00	 0.00000000E+00	 0.00000000E+00
	 0.00000000E+00	 0.00000000E+00	 0.00000000E+00

	 0.00000000E+00	 0.00000000E+00	 0.00000000E+00
	 0.00000000E+00	 0.00000000E+00	 0.00000000E+00
	 0.00000000E+00	 0.00000000E+00	 0.00000000E+00

	 0.00000000E+00	 0.00000000E+00	 0.00000000E+00
	 0.00000000E+00	 0.00000000E+00	 0.00000000E+00
	 0.00000000E+00	 0.00000000E+00	 0.00000000E+00

	 0.00000000E+00	 0.00000000E+00	 0.00000000E+00
	 0.00000000E+00	 0.00000000E+00	 0.00000000E+00
	 0.00000000E+00	 0.00000000E+00	 0.00000000E+00

	 0.00000000E+00	 0.00000000E+00	 0.00000000E+00
	 0.00000000E+00	 0.00000000E+00	 0.00000000E+00
	 0.00000000E+00	 0.00000000E+00	 0.00000000E+00

	 0.00000000E+00	 0.00000000E+00	 0.00000000E+00
	 0.00000000E+00	 0.00000000E+00	 0.00000000E+00
	 0.00000000E+00	 0.00000000E+00	 0.00000000E+00

	 0.00000000E+00	 0.00000000E+00	 0.00000000E+00
	 0.00000000E+00	 0.00000000E+00	 0.00000000E+00
	 0.00000000E+00	 0.00000000E+00	 0.00000000E+00

	 0.00000000E+00	 0.00000000E+00	 0.00000000E+00
	 0.00000000E+00	 0.00000000E+00	 0.00000000E+00
	 0.00000000E+00	 0.00000000E+00	 0.00000000E+00

	 0.00000000E+00	 0.00000000E+00	 0.00000000E+00
	 0.00000000E+00	 0.00000000E+00	 0.00000000E+00
	 0.00000000E+00	 0.00000000E+00	 0.00000000E+00

	 0.00000000E+00	 0.00000000E+00	 0.00000000E+00
	 0.00000000E+00	 0.00000000E+00	 0.00000000E+00
	 0.00000000E+00	 0.00000000E+00	 0.00000000E+00

	 0.00000000E+00	 0.00000000E+00	 0.00000000E+00
	 0.00000000E+00	 0.00000000E+00	 0.00000000E+00
	 0.00000000E+00	 0.00000000E+00	 0.00000000E+00

	 0.00000000E+00	 0.00000000E+00	 0.00000000E+00
	 0.00000000E+00	 0.00000000E+00	 0.00000000E+00
	 0.00000000E+00	 0.00000000E+00	 0.00000000E+00

	 0.00000000E+00	 0.00000000E+00	 0.00000000E+00
	 0.00000000E+00	 0.00000000E+00	 0.00000000E+00
	 0.00000000E+00	 0.00000000E+00	 0.00000000E+00

	 0.00000000E+00	 0.00000000E+00	 0.00000000E+00
	 0.00000000E+00	 0.00000000E+00	 0.00000000E+00
	 0.00000000E+00	 0.00000000E+00	 0.00000000E+00

	 0.00000000E+00	 0.00000000E+00	 0.00000000E+00
	 0.00000000E+00	 0.00000000E+00	 0.00000000E+00
	 0.00000000E+00	 0.00000000E+00	 0.00000000E+00

	 0.00000000E+00	 0.00000000E+00	 0.00000000E+00
	 0.00000000E+00	 0.00000000E+00	 0.00000000E+00
	 0.00000000E+00	 0.00000000E+00	 0.00000000E+00

	 0.00000000E+00	 0.00000000E+00	 0.00000000E+00
	 0.00000000E+00	 0.00000000E+00	 0.00000000E+00
	 0.00000000E+00	 0.00000000E+00	 0.00000000E+00

	 0.00000000E+00	 0.00000000E+00	 0.00000000E+00
	 0.00000000E+00	 0.00000000E+00	 0.00000000E+00
	 0.00000000E+00	 0.00000000E+00	 0.00000000E+00

	 0.00000000E+00	 0.00000000E+00	 0.00000000E+00
	 0.00000000E+00	 0.00000000E+00	 0.00000000E+00
	 0.00000000E+00	 0.00000000E+00	 0.00000000E+00

	 0.00000000E+00	 0.00000000E+00	 0.00000000E+00
	 0.00000000E+00	 0.00000000E+00	 0.00000000E+00
	 0.00000000E+00	 0.00000000E+00	 0.00000000E+00

	 0.00000000E+00	 0.00000000E+00	 0.00000000E+00
	 0.00000000E+00	 0.00000000E+00	 0.00000000E+00
	 0.00000000E+00	 0.00000000E+00	 0.00000000E+00

	 0.00000000E+00	 0.00000000E+00	 0.00000000E+00
	 0.00000000E+00	 0.00000000E+00	 0.00000000E+00
	 0.00000000E+00	 0.00000000E+00	 0.00000000E+00

	 0.00000000E+00	 0.00000000E+00	 0.00000000E+00
	 0.00000000E+00	 0.00000000E+00	 0.00000000E+00
	 0.00000000E+00	 0.00000000E+00	 0.00000000E+00

	 0.00000000E+00	 0.00000000E+00	 0.00000000E+00
	 0.00000000E+00	 0.00000000E+00	 0.00000000E+00
	 0.00000000E+00	 0.00000000E+00	 0.00000000E+00

	 0.00000000E+00	 0.00000000E+00	 0.00000000E+00
	 0.00000000E+00	 0.00000000E+00	 0.00000000E+00
	 0.00000000E+00	 0.00000000E+00	 0.00000000E+00

	 0.00000000E+00	 0.00000000E+00	 0.00000000E+00
	 0.00000000E+00	 0.00000000E+00	 0.00000000E+00
	 0.00000000E+00	 0.00000000E+00	 0.00000000E+00

	 0.00000000E+00	 0.00000000E+00	 0.00000000E+00
	 0.00000000E+00	 0.00000000E+00	 0.00000000E+00
	 0.00000000E+00	 0.00000000E+00	 0.00000000E+00

	 0.00000000E+00	 0.00000000E+00	 0.00000000E+00
	 0.00000000E+00	 0.00000000E+00	 0.00000000E+00
	 0.00000000E+00	 0.00000000E+00	 0.00000000E+00

	 0.00000000E+00	 0.00000000E+00	 0.00000000E+00
	 0.00000000E+00	 0.00000000E+00	 0.00000000E+00
	 0.00000000E+00	 0.00000000E+00	 0.00000000E+00

	 0.00000000E+00	 0.00000000E+00	 0.00000000E+00
	 0.00000000E+00	 0.00000000E+00	 0.00000000E+00
	 0.00000000E+00	 0.00000000E+00	 0.00000000E+00

	 0.00000000E+00	 0.00000000E+00	 0.00000000E+00
	 0.00000000E+00	 0.00000000E+00	 0.00000000E+00
	 0.00000000E+00	 0.00000000E+00	 0.00000000E+00

	 0.00000000E+00	 0.00000000E+00	 0.00000000E+00
	 0.00000000E+00	 0.00000000E+00	 0.00000000E+00
	 0.00000000E+00	 0.00000000E+00	 0.00000000E+00

	 0.00000000E+00	 0.00000000E+00	 0.00000000E+00
	 0.00000000E+00	 0.00000000E+00	 0.00000000E+00
	 0.00000000E+00	 0.00000000E+00	 0.00000000E+00

	 0.00000000E+00	 0.00000000E+00	 0.00000000E+00
	 0.00000000E+00	 0.00000000E+00	 0.00000000E+00
	 0.00000000E+00	 0.00000000E+00	 0.00000000E+00

	 0.00000000E+00	 0.00000000E+00	 0.00000000E+00
	 0.00000000E+00	 0.00000000E+00	 0.00000000E+00
	 0.00000000E+00	 0.00000000E+00	 0.00000000E+00

	 0.00000000E+00	 0.00000000E+00	 0.00000000E+00
	 0.00000000E+00	 0.00000000E+00	 0.00000000E+00
	 0.00000000E+00	 0.00000000E+00	 0.00000000E+00

	 0.00000000E+00	 0.00000000E+00	 0.00000000E+00
	 0.00000000E+00	 0.00000000E+00	 0.00000000E+00
	 0.00000000E+00	 0.00000000E+00	 0.00000000E+00

	 0.00000000E+00	 0.00000000E+00	 0.00000000E+00
	 0.00000000E+00	 0.00000000E+00	 0.00000000E+00
	 0.00000000E+00	 0.00000000E+00	 0.00000000E+00

	 0.00000000E+00	 0.00000000E+00	 0.00000000E+00
	 0.00000000E+00	 0.00000000E+00	 0.00000000E+00
	 0.00000000E+00	 0.00000000E+00	 0.00000000E+00

	 0.00000000E+00	 0.00000000E+00	 0.00000000E+00
	 0.00000000E+00	 0.00000000E+00	 0.00000000E+00
	 0.00000000E+00	 0.00000000E+00	 0.00000000E+00

	 0.00000000E+00	 0.00000000E+00	 0.00000000E+00
	 0.00000000E+00	 0.00000000E+00	 0.00000000E+00
	 0.00000000E+00	 0.00000000E+00	 0.00000000E+00

	 0.00000000E+00	 0.00000000E+00	 0.00000000E+00
	 0.00000000E+00	 0.00000000E+00	 0.00000000E+00
	 0.00000000E+00	 0.00000000E+00	 0.00000000E+00

	 0.00000000E+00	 0.00000000E+00	 0.00000000E+00
	 0.00000000E+00	 0.00000000E+00	 0.00000000E+00
	 0.00000000E+00	 0.00000000E+00	 0.00000000E+00

	 0.00000000E+00	 0.00000000E+00	 0.00000000E+00
	 0.00000000E+00	 0.00000000E+00	 0.00000000E+00
	 0.00000000E+00	 0.00000000E+00	 0.00000000E+00

	 0.00000000E+00	 0.00000000E+00	 0.00000000E+00
	 0.00000000E+00	 0.00000000E+00	 0.00000000E+00
	 0.00000000E+00	 0.00000000E+00	 0.00000000E+00

	 0.00000000E+00	 0.00000000E+00	 0.00000000E+00
	 0.00000000E+00	 0.00000000E+00	 0.00000000E+00
	 0.00000000E+00	 0.00000000E+00	 0.00000000E+00

	 0.00000000E+00	 0.00000000E+00	 0.00000000E+00
	 0.00000000E+00	 0.00000000E+00	 0.00000000E+00
	 0.00000000E+00	 0.00000000E+00	 0.00000000E+00

	 0.00000000E+00	 0.00000000E+00	 0.00000000E+00
	 0.00000000E+00	 0.00000000E+00	 0.00000000E+00
	 0.00000000E+00	 0.00000000E+00	 0.00000000E+00

	 0.00000000E+00	 0.00000000E+00	 0.00000000E+00
	 0.00000000E+00	 0.00000000E+00	 0.00000000E+00
	 0.00000000E+00	 0.00000000E+00	 0.00000000E+00

	 0.00000000E+00	 0.00000000E+00	 0.00000000E+00
	 0.00000000E+00	 0.00000000E+00	 0.00000000E+00
	 0.00000000E+00	 0.00000000E+00	 0.00000000E+00

	 0.00000000E+00	 0.00000000E+00	 0.00000000E+00
	 0.00000000E+00	 0.00000000E+00	 0.00000000E+00
	 0.00000000E+00	 0.00000000E+00	 0.00000000E+00

	 0.00000000E+00	 0.00000000E+00	 0.00000000E+00
	 0.00000000E+00	 0.00000000E+00	 0.00000000E+00
	 0.00000000E+00	 0.00000000E+00	 0.00000000E+00

	 0.00000000E+00	 0.00000000E+00	 0.00000000E+00
	 0.00000000E+00	 0.00000000E+00	 0.00000000E+00
	 0.00000000E+00	 0.00000000E+00	 0.00000000E+00

	 0.00000000E+00	 0.00000000E+00	 0.00000000E+00
	 0.00000000E+00	 0.00000000E+00	 0.00000000E+00
	 0.00000000E+00	 0.00000000E+00	 0.00000000E+00

	 0.00000000E+00	 0.00000000E+00	 0.00000000E+00
	 0.00000000E+00	 0.00000000E+00	 0.00000000E+00
	 0.00000000E+00	 0.00000000E+00	 0.00000000E+00

	 0.00000000E+00	 0.00000000E+00	 0.00000000E+00
	 0.00000000E+00	 0.00000000E+00	 0.00000000E+00
	 0.00000000E+00	 0.00000000E+00	 0.00000000E+00

	 0.00000000E+00	 0.00000000E+00	 0.00000000E+00
	 0.00000000E+00	 0.00000000E+00	 0.00000000E+00
	 0.00000000E+00	 0.00000000E+00	 0.00000000E+00

	 0.00000000E+00	 0.00000000E+00	 0.00000000E+00
	 0.00000000E+00	 0.00000000E+00	 0.00000000E+00
	 0.00000000E+00	 0.00000000E+00	 0.00000000E+00

	 0.00000000E+00	 0.00000000E+00	 0.00000000E+00
	 0.00000000E+00	 0.00000000E+00	 0.00000000E+00
	 0.00000000E+00	 0.00000000E+00	 0.00000000E+00

	 0.00000000E+00	 0.00000000E+00	 0.00000000E+00
	 0.00000000E+00	 0.00000000E+00	 0.00000000E+00
	 0.00000000E+00	 0.00000000E+00	 0.00000000E+00

	 0.00000000E+00	 0.00000000E+00	 0.00000000E+00
	 0.00000000E+00	 0.00000000E+00	 0.00000000E+00
	 0.00000000E+00	 0.00000000E+00	 0.00000000E+00

	 0.00000000E+00	 0.00000000E+00	 0.00000000E+00
	 0.00000000E+00	 0.00000000E+00	 0.00000000E+00
	 0.00000000E+00	 0.00000000E+00	 0.00000000E+00

	 0.00000000E+00	 0.00000000E+00	 0.00000000E+00
	 0.00000000E+00	 0.00000000E+00	 0.00000000E+00
	 0.00000000E+00	 0.00000000E+00	 0.00000000E+00

	 0.00000000E+00	 0.00000000E+00	 0.00000000E+00
	 0.00000000E+00	 0.00000000E+00	 0.00000000E+00
	 0.00000000E+00	 0.00000000E+00	 0.00000000E+00

	 0.00000000E+00	 0.00000000E+00	 0.00000000E+00
	 0.00000000E+00	 0.00000000E+00	 0.00000000E+00
	 0.00000000E+00	 0.00000000E+00	 0.00000000E+00

	 0.00000000E+00	 0.00000000E+00	 0.00000000E+00
	 0.00000000E+00	 0.00000000E+00	 0.00000000E+00
	 0.00000000E+00	 0.00000000E+00	 0.00000000E+00

	 0.00000000E+00	 0.00000000E+00	 0.00000000E+00
	 0.00000000E+00	 0.00000000E+00	 0.00000000E+00
	 0.00000000E+00	 0.00000000E+00	 0.00000000E+00

	 0.00000000E+00	 0.00000000E+00	 0.00000000E+00
	 0.00000000E+00	 0.00000000E+00	 0.00000000E+00
	 0.00000000E+00	 0.00000000E+00	 0.00000000E+00

	 0.00000000E+00	 0.00000000E+00	 0.00000000E+00
	 0.00000000E+00	 0.00000000E+00	 0.00000000E+00
	 0.00000000E+00	 0.00000000E+00	 0.00000000E+00

	 0.00000000E+00	 0.00000000E+00	 0.00000000E+00
	 0.00000000E+00	 0.00000000E+00	 0.00000000E+00
	 0.00000000E+00	 0.00000000E+00	 0.00000000E+00

	 0.00000000E+00	 0.00000000E+00	 0.00000000E+00
	 0.00000000E+00	 0.00000000E+00	 0.00000000E+00
	 0.00000000E+00	 0.00000000E+00	 0.00000000E+00

	 0.00000000E+00	 0.00000000E+00	 0.00000000E+00
	 0.00000000E+00	 0.00000000E+00	 0.00000000E+00
	 0.00000000E+00	 0.00000000E+00	 0.00000000E+00

	 0.00000000E+00	 0.00000000E+00	 0.00000000E+00
	 0.00000000E+00	 0.00000000E+00	 0.00000000E+00
	 0.00000000E+00	 0.00000000E+00	 0.00000000E+00

	 0.00000000E+00	 0.00000000E+00	 0.00000000E+00
	 0.00000000E+00	 0.00000000E+00	 0.00000000E+00
	 0.00000000E+00	 0.00000000E+00	 0.00000000E+00

	 0.00000000E+00	 0.00000000E+00	 0.00000000E+00
	 0.00000000E+00	 0.00000000E+00	 0.00000000E+00
	 0.00000000E+00	 0.00000000E+00	 0.00000000E+00

	 0.00000000E+00	 0.00000000E+00	 0.00000000E+00
	 0.00000000E+00	 0.00000000E+00	 0.00000000E+00
	 0.00000000E+00	 0.00000000E+00	 0.00000000E+00

	 0.00000000E+00	 0.00000000E+00	 0.00000000E+00
	 0.00000000E+00	 0.00000000E+00	 0.00000000E+00
	 0.00000000E+00	 0.00000000E+00	 0.00000000E+00

	 0.00000000E+00	 0.00000000E+00	 0.00000000E+00
	 0.00000000E+00	 0.00000000E+00	 0.00000000E+00
	 0.00000000E+00	 0.00000000E+00	 0.00000000E+00

	 0.00000000E+00	 0.00000000E+00	 0.00000000E+00
	 0.00000000E+00	 0.00000000E+00	 0.00000000E+00
	 0.00000000E+00	 0.00000000E+00	 0.00000000E+00

	 0.00000000E+00	 0.00000000E+00	 0.00000000E+00
	 0.00000000E+00	 0.00000000E+00	 0.00000000E+00
	 0.00000000E+00	 0.00000000E+00	 0.00000000E+00

	 0.00000000E+00	 0.00000000E+00	 0.00000000E+00
	 0.00000000E+00	 0.00000000E+00	 0.00000000E+00
	 0.00000000E+00	 0.00000000E+00	 0.00000000E+00

	 0.00000000E+00	 0.00000000E+00	 0.00000000E+00
	 0.00000000E+00	 0.00000000E+00	 0.00000000E+00
	 0.00000000E+00	 0.00000000E+00	 0.00000000E+00

	 0.00000000E+00	 0.00000000E+00	 0.00000000E+00
	 0.00000000E+00	 0.00000000E+00	 0.00000000E+00
	 0.00000000E+00	 0.00000000E+00	 0.00000000E+00

	 0.00000000E+00	 0.00000000E+00	 0.00000000E+00
	 0.00000000E+00	 0.00000000E+00	 0.00000000E+00
	 0.00000000E+00	 0.00000000E+00	 0.00000000E+00

	 0.00000000E+00	 0.00000000E+00	 0.00000000E+00
	 0.00000000E+00	 0.00000000E+00	 0.00000000E+00
	 0.00000000E+00	 0.00000000E+00	 0.00000000E+00

	 0.00000000E+00	 0.00000000E+00	 0.00000000E+00
	 0.00000000E+00	 0.00000000E+00	 0.00000000E+00
	 0.00000000E+00	 0.00000000E+00	 0.00000000E+00

	 0.00000000E+00	 0.00000000E+00	 0.00000000E+00
	 0.00000000E+00	 0.00000000E+00	 0.00000000E+00
	 0.00000000E+00	 0.00000000E+00	 0.00000000E+00

	 0.00000000E+00	 0.00000000E+00	 0.00000000E+00
	 0.00000000E+00	 0.00000000E+00	 0.00000000E+00
	 0.00000000E+00	 0.00000000E+00	 0.00000000E+00

	 0.00000000E+00	 0.00000000E+00	 0.00000000E+00
	 0.00000000E+00	 0.00000000E+00	 0.00000000E+00
	 0.00000000E+00	 0.00000000E+00	 0.00000000E+00

	 0.00000000E+00	 0.00000000E+00	 0.00000000E+00
	 0.00000000E+00	 0.00000000E+00	 0.00000000E+00
	 0.00000000E+00	 0.00000000E+00	 0.00000000E+00

	 0.00000000E+00	 0.00000000E+00	 0.00000000E+00
	 0.00000000E+00	 0.00000000E+00	 0.00000000E+00
	 0.00000000E+00	 0.00000000E+00	 0.00000000E+00

	 0.00000000E+00	 0.00000000E+00	 0.00000000E+00
	 0.00000000E+00	 0.00000000E+00	 0.00000000E+00
	 0.00000000E+00	 0.00000000E+00	 0.00000000E+00

	 0.00000000E+00	 0.00000000E+00	 0.00000000E+00
	 0.00000000E+00	 0.00000000E+00	 0.00000000E+00
	 0.00000000E+00	 0.00000000E+00	 0.00000000E+00

	 0.00000000E+00	 0.00000000E+00	 0.00000000E+00
	 0.00000000E+00	 0.00000000E+00	 0.00000000E+00
	 0.00000000E+00	 0.00000000E+00	 0.00000000E+00

	 0.00000000E+00	 0.00000000E+00	 0.00000000E+00
	 0.00000000E+00	 0.00000000E+00	 0.00000000E+00
	 0.00000000E+00	 0.00000000E+00	 0.00000000E+00

	 0.00000000E+00	 0.00000000E+00	 0.00000000E+00
	 0.00000000E+00	 0.00000000E+00	 0.00000000E+00
	 0.00000000E+00	 0.00000000E+00	 0.00000000E+00

	 0.00000000E+00	 0.00000000E+00	 0.00000000E+00
	 0.00000000E+00	 0.00000000E+00	 0.00000000E+00
	 0.00000000E+00	 0.00000000E+00	 0.00000000E+00

	 0.00000000E+00	 0.00000000E+00	 0.00000000E+00
	 0.00000000E+00	 0.00000000E+00	 0.00000000E+00
	 0.00000000E+00	 0.00000000E+00	 0.00000000E+00

	 0.00000000E+00	 0.00000000E+00	 0.00000000E+00
	 0.00000000E+00	 0.00000000E+00	 0.00000000E+00
	 0.00000000E+00	 0.00000000E+00	 0.00000000E+00

	 0.00000000E+00	 0.00000000E+00	 0.00000000E+00
	 0.00000000E+00	 0.00000000E+00	 0.00000000E+00
	 0.00000000E+00	 0.00000000E+00	 0.00000000E+00

	 0.00000000E+00	 0.00000000E+00	 0.00000000E+00
	 0.00000000E+00	 0.00000000E+00	 0.00000000E+00
	 0.00000000E+00	 0.00000000E+00	 0.00000000E+00

	 0.00000000E+00	 0.00000000E+00	 0.00000000E+00
	 0.00000000E+00	 0.00000000E+00	 0.00000000E+00
	 0.00000000E+00	 0.00000000E+00	 0.00000000E+00

	 0.00000000E+00	 0.00000000E+00	 0.00000000E+00
	 0.00000000E+00	 0.00000000E+00	 0.00000000E+00
	 0.00000000E+00	 0.00000000E+00	 0.00000000E+00

	 0.00000000E+00	 0.00000000E+00	 0.00000000E+00
	 0.00000000E+00	 0.00000000E+00	 0.00000000E+00
	 0.00000000E+00	 0.00000000E+00	 0.00000000E+00

	 0.00000000E+00	 0.00000000E+00	 0.00000000E+00
	 0.00000000E+00	 0.00000000E+00	 0.00000000E+00
	 0.00000000E+00	 0.00000000E+00	 0.00000000E+00

	 0.00000000E+00	 0.00000000E+00	 0.00000000E+00
	 0.00000000E+00	 0.00000000E+00	 0.00000000E+00
	 0.00000000E+00	 0.00000000E+00	 0.00000000E+00

	 0.00000000E+00	 0.00000000E+00	 0.00000000E+00
	 0.00000000E+00	 0.00000000E+00	 0.00000000E+00
	 0.00000000E+00	 0.00000000E+00	 0.00000000E+00

	 0.00000000E+00	 0.00000000E+00	 0.00000000E+00
	 0.00000000E+00	 0.00000000E+00	 0.00000000E+00
	 0.00000000E+00	 0.00000000E+00	 0.00000000E+00

	 0.00000000E+00	 0.00000000E+00	 0.00000000E+00
	 0.00000000E+00	 0.00000000E+00	 0.00000000E+00
	 0.00000000E+00	 0.00000000E+00	 0.00000000E+00

	 0.00000000E+00	 0.00000000E+00	 0.00000000E+00
	 0.00000000E+00	 0.00000000E+00	 0.00000000E+00
	 0.00000000E+00	 0.00000000E+00	 0.00000000E+00

	 0.00000000E+00	 0.00000000E+00	 0.00000000E+00
	 0.00000000E+00	 0.00000000E+00	 0.00000000E+00
	 0.00000000E+00	 0.00000000E+00	 0.00000000E+00

	 0.00000000E+00	 0.00000000E+00	 0.00000000E+00
	 0.00000000E+00	 0.00000000E+00	 0.00000000E+00
	 0.00000000E+00	 0.00000000E+00	 0.00000000E+00

	 0.00000000E+00	 0.00000000E+00	 0.00000000E+00
	 0.00000000E+00	 0.00000000E+00	 0.00000000E+00
	 0.00000000E+00	 0.00000000E+00	 0.00000000E+00

	 0.00000000E+00	 0.00000000E+00	 0.00000000E+00
	 0.00000000E+00	 0.00000000E+00	 0.00000000E+00
	 0.00000000E+00	 0.00000000E+00	 0.00000000E+00

	 0.00000000E+00	 0.00000000E+00	 0.00000000E+00
	 0.00000000E+00	 0.00000000E+00	 0.00000000E+00
	 0.00000000E+00	 0.00000000E+00	 0.00000000E+00

	 0.00000000E+00	 0.00000000E+00	 0.00000000E+00
	 0.00000000E+00	 0.00000000E+00	 0.00000000E+00
	 0.00000000E+00	 0.00000000E+00	 0.00000000E+00

	 0.00000000E+00	 0.00000000E+00	 0.00000000E+00
	 0.00000000E+00	 0.00000000E+00	 0.00000000E+00
	 0.00000000E+00	 0.00000000E+00	 0.00000000E+00

	 0.00000000E+00	 0.00000000E+00	 0.00000000E+00
	 0.00000000E+00	 0.00000000E+00	 0.00000000E+00
	 0.00000000E+00	 0.00000000E+00	 0.00000000E+00

	 0.00000000E+00	 0.00000000E+00	 0.00000000E+00
	 0.00000000E+00	 0.00000000E+00	 0.00000000E+00
	 0.00000000E+00	 0.00000000E+00	 0.00000000E+00

	 0.00000000E+00	 0.00000000E+00	 0.00000000E+00
	 0.00000000E+00	 0.00000000E+00	 0.00000000E+00
	 0.00000000E+00	 0.00000000E+00	 0.00000000E+00

	 0.00000000E+00	 0.00000000E+00	 0.00000000E+00
	 0.00000000E+00	 0.00000000E+00	 0.00000000E+00
	 0.00000000E+00	 0.00000000E+00	 0.00000000E+00

	 0.00000000E+00	 0.00000000E+00	 0.00000000E+00
	 0.00000000E+00	 0.00000000E+00	 0.00000000E+00
	 0.00000000E+00	 0.00000000E+00	 0.00000000E+00

	 0.00000000E+00	 0.00000000E+00	 0.00000000E+00
	 0.00000000E+00	 0.00000000E+00	 0.00000000E+00
	 0.00000000E+00	 0.00000000E+00	 0.00000000E+00

	 0.00000000E+00	 0.00000000E+00	 0.00000000E+00
	 0.00000000E+00	 0.00000000E+00	 0.00000000E+00
	 0.00000000E+00	 0.00000000E+00	 0.00000000E+00

	 0.00000000E+00	 0.00000000E+00	 0.00000000E+00
	 0.00000000E+00	 0.00000000E+00	 0.00000000E+00
	 0.00000000E+00	 0.00000000E+00	 0.00000000E+00

	 0.00000000E+00	 0.00000000E+00	 0.00000000E+00
	 0.00000000E+00	 0.00000000E+00	 0.00000000E+00
	 0.00000000E+00	 0.00000000E+00	 0.00000000E+00

	 0.00000000E+00	 0.00000000E+00	 0.00000000E+00
	 0.00000000E+00	 0.00000000E+00	 0.00000000E+00
	 0.00000000E+00	 0.00000000E+00	 0.00000000E+00

	 0.00000000E+00	 0.00000000E+00	 0.00000000E+00
	 0.00000000E+00	 0.00000000E+00	 0.00000000E+00
	 0.00000000E+00	 0.00000000E+00	 0.00000000E+00

	 0.00000000E+00	 0.00000000E+00	 0.00000000E+00
	 0.00000000E+00	 0.00000000E+00	 0.00000000E+00
	 0.00000000E+00	 0.00000000E+00	 0.00000000E+00

	 0.00000000E+00	 0.00000000E+00	 0.00000000E+00
	 0.00000000E+00	 0.00000000E+00	 0.00000000E+00
	 0.00000000E+00	 0.00000000E+00	 0.00000000E+00

	 0.00000000E+00	 0.00000000E+00	 0.00000000E+00
	 0.00000000E+00	 0.00000000E+00	 0.00000000E+00
	 0.00000000E+00	 0.00000000E+00	 0.00000000E+00

	 0.00000000E+00	 0.00000000E+00	 0.00000000E+00
	 0.00000000E+00	 0.00000000E+00	 0.00000000E+00
	 0.00000000E+00	 0.00000000E+00	 0.00000000E+00

	 0.00000000E+00	 0.00000000E+00	 0.00000000E+00
	 0.00000000E+00	 0.00000000E+00	 0.00000000E+00
	 0.00000000E+00	 0.00000000E+00	 0.00000000E+00

	 0.00000000E+00	 0.00000000E+00	 0.00000000E+00
	 0.00000000E+00	 0.00000000E+00	 0.00000000E+00
	 0.00000000E+00	 0.00000000E+00	 0.00000000E+00

	 0.00000000E+00	 0.00000000E+00	 0.00000000E+00
	 0.00000000E+00	 0.00000000E+00	 0.00000000E+00
	 0.00000000E+00	 0.00000000E+00	 0.00000000E+00

	 0.00000000E+00	 0.00000000E+00	 0.00000000E+00
	 0.00000000E+00	 0.00000000E+00	 0.00000000E+00
	 0.00000000E+00	 0.00000000E+00	 0.00000000E+00

	 0.00000000E+00	 0.00000000E+00	 0.00000000E+00
	 0.00000000E+00	 0.00000000E+00	 0.00000000E+00
	 0.00000000E+00	 0.00000000E+00	 0.00000000E+00

	 0.00000000E+00	 0.00000000E+00	 0.00000000E+00
	 0.00000000E+00	 0.00000000E+00	 0.00000000E+00
	 0.00000000E+00	 0.00000000E+00	 0.00000000E+00

	 0.00000000E+00	 0.00000000E+00	 0.00000000E+00
	 0.00000000E+00	 0.00000000E+00	 0.00000000E+00
	 0.00000000E+00	 0.00000000E+00	 0.00000000E+00

	 0.00000000E+00	 0.00000000E+00	 0.00000000E+00
	 0.00000000E+00	 0.00000000E+00	 0.00000000E+00
	 0.00000000E+00	 0.00000000E+00	 0.00000000E+00

	 0.00000000E+00	 0.00000000E+00	 0.00000000E+00
	 0.00000000E+00	 0.00000000E+00	 0.00000000E+00
	 0.00000000E+00	 0.00000000E+00	 0.00000000E+00

	 0.00000000E+00	 0.00000000E+00	 0.00000000E+00
	 0.00000000E+00	 0.00000000E+00	 0.00000000E+00
	 0.00000000E+00	 0.00000000E+00	 0.00000000E+00

	 0.00000000E+00	 0.00000000E+00	 0.00000000E+00
	 0.00000000E+00	 0.00000000E+00	 0.00000000E+00
	 0.00000000E+00	 0.00000000E+00	 0.00000000E+00

	 0.00000000E+00	 0.00000000E+00	 0.00000000E+00
	 0.00000000E+00	 0.00000000E+00	 0.00000000E+00
	 0.00000000E+00	 0.00000000E+00	 0.00000000E+00

	 0.00000000E+00	 0.00000000E+00	 0.00000000E+00
	 0.00000000E+00	 0.00000000E+00	 0.00000000E+00
	 0.00000000E+00	 0.00000000E+00	 0.00000000E+00

	 0.00000000E+00	 0.00000000E+00	 0.00000000E+00
	 0.00000000E+00	 0.00000000E+00	 0.00000000E+00
	 0.00000000E+00	 0.00000000E+00	 0.00000000E+00

	 0.00000000E+00	 0.00000000E+00	 0.00000000E+00
	 0.00000000E+00	 0.00000000E+00	 0.00000000E+00
	 0.00000000E+00	 0.00000000E+00	 0.00000000E+00

	 0.00000000E+00	 0.00000000E+00	 0.00000000E+00
	 0.00000000E+00	 0.00000000E+00	 0.00000000E+00
	 0.00000000E+00	 0.00000000E+00	 0.00000000E+00

	 0.00000000E+00	 0.00000000E+00	 0.00000000E+00
	 0.00000000E+00	 0.00000000E+00	 0.00000000E+00
	 0.00000000E+00	 0.00000000E+00	 0.00000000E+00

	 0.00000000E+00	 0.00000000E+00	 0.00000000E+00
	 0.00000000E+00	 0.00000000E+00	 0.00000000E+00
	 0.00000000E+00	 0.00000000E+00	 0.00000000E+00

	 0.00000000E+00	 0.00000000E+00	 0.00000000E+00
	 0.00000000E+00	 0.00000000E+00	 0.00000000E+00
	 0.00000000E+00	 0.00000000E+00	 0.00000000E+00

	 0.00000000E+00	 0.00000000E+00	 0.00000000E+00
	 0.00000000E+00	 0.00000000E+00	 0.00000000E+00
	 0.00000000E+00	 0.00000000E+00	 0.00000000E+00

	 0.00000000E+00	 0.00000000E+00	 0.00000000E+00
	 0.00000000E+00	 0.00000000E+00	 0.00000000E+00
	 0.00000000E+00	 0.00000000E+00	 0.00000000E+00

	 0.00000000E+00	 0.00000000E+00	 0.00000000E+00
	 0.00000000E+00	 0.00000000E+00	 0.00000000E+00
	 0.00000000E+00	 0.00000000E+00	 0.00000000E+00

	 0.00000000E+00	 0.00000000E+00	 0.00000000E+00
	 0.00000000E+00	 0.00000000E+00	 0.00000000E+00
	 0.00000000E+00	 0.00000000E+00	 0.00000000E+00

	 0.00000000E+00	 0.00000000E+00	 0.00000000E+00
	 0.00000000E+00	 0.00000000E+00	 0.00000000E+00
	 0.00000000E+00	 0.00000000E+00	 0.00000000E+00

	 0.00000000E+00	 0.00000000E+00	 0.00000000E+00
	 0.00000000E+00	 0.00000000E+00	 0.00000000E+00
	 0.00000000E+00	 0.00000000E+00	 0.00000000E+00

	 0.00000000E+00	 0.00000000E+00	 0.00000000E+00
	 0.00000000E+00	 0.00000000E+00	 0.00000000E+00
	 0.00000000E+00	 0.00000000E+00	 0.00000000E+00

	 0.00000000E+00	 0.00000000E+00	 0.00000000E+00
	 0.00000000E+00	 0.00000000E+00	 0.00000000E+00
	 0.00000000E+00	 0.00000000E+00	 0.00000000E+00

	 0.00000000E+00	 0.00000000E+00	 0.00000000E+00
	 0.00000000E+00	 0.00000000E+00	 0.00000000E+00
	 0.00000000E+00	 0.00000000E+00	 0.00000000E+00

	 0.00000000E+00	 0.00000000E+00	 0.00000000E+00
	 0.00000000E+00	 0.00000000E+00	 0.00000000E+00
	 0.00000000E+00	 0.00000000E+00	 0.00000000E+00

	 0.00000000E+00	 0.00000000E+00	 0.00000000E+00
	 0.00000000E+00	 0.00000000E+00	 0.00000000E+00
	 0.00000000E+00	 0.00000000E+00	 0.00000000E+00

	 0.00000000E+00	 0.00000000E+00	 0.00000000E+00
	 0.00000000E+00	 0.00000000E+00	 0.00000000E+00
	 0.00000000E+00	 0.00000000E+00	 0.00000000E+00

	 0.00000000E+00	 0.00000000E+00	 0.00000000E+00
	 0.00000000E+00	 0.00000000E+00	 0.00000000E+00
	 0.00000000E+00	 0.00000000E+00	 0.00000000E+00

	 0.00000000E+00	 0.00000000E+00	 0.00000000E+00
	 0.00000000E+00	 0.00000000E+00	 0.00000000E+00
	 0.00000000E+00	 0.00000000E+00	 0.00000000E+00

	 0.00000000E+00	 0.00000000E+00	 0.00000000E+00
	 0.00000000E+00	 0.00000000E+00	 0.00000000E+00
	 0.00000000E+00	 0.00000000E+00	 0.00000000E+00

	 0.00000000E+00	 0.00000000E+00	 0.00000000E+00
	 0.00000000E+00	 0.00000000E+00	 0.00000000E+00
	 0.00000000E+00	 0.00000000E+00	 0.00000000E+00

	 0.00000000E+00	 0.00000000E+00	 0.00000000E+00
	 0.00000000E+00	 0.00000000E+00	 0.00000000E+00
	 0.00000000E+00	 0.00000000E+00	 0.00000000E+00

	 0.00000000E+00	 0.00000000E+00	 0.00000000E+00
	 0.00000000E+00	 0.00000000E+00	 0.00000000E+00
	 0.00000000E+00	 0.00000000E+00	 0.00000000E+00

	 0.00000000E+00	 0.00000000E+00	 0.00000000E+00
	 0.00000000E+00	 0.00000000E+00	 0.00000000E+00
	 0.00000000E+00	 0.00000000E+00	 0.00000000E+00

	 0.00000000E+00	 0.00000000E+00	 0.00000000E+00
	 0.00000000E+00	 0.00000000E+00	 0.00000000E+00
	 0.00000000E+00	 0.00000000E+00	 0.00000000E+00

	 0.00000000E+00	 0.00000000E+00	 0.00000000E+00
	 0.00000000E+00	 0.00000000E+00	 0.00000000E+00
	 0.00000000E+00	 0.00000000E+00	 0.00000000E+00

	 0.00000000E+00	 0.00000000E+00	 0.00000000E+00
	 0.00000000E+00	 0.00000000E+00	 0.00000000E+00
	 0.00000000E+00	 0.00000000E+00	 0.00000000E+00

	 0.00000000E+00	 0.00000000E+00	 0.00000000E+00
	 0.00000000E+00	 0.00000000E+00	 0.00000000E+00
	 0.00000000E+00	 0.00000000E+00	 0.00000000E+00

	 0.00000000E+00	 0.00000000E+00	 0.00000000E+00
	 0.00000000E+00	 0.00000000E+00	 0.00000000E+00
	 0.00000000E+00	 0.00000000E+00	 0.00000000E+00

	 0.00000000E+00	 0.00000000E+00	 0.00000000E+00
	 0.00000000E+00	 0.00000000E+00	 0.00000000E+00
	 0.00000000E+00	 0.00000000E+00	 0.00000000E+00

	 0.00000000E+00	 0.00000000E+00	 0.00000000E+00
	 0.00000000E+00	 0.00000000E+00	 0.00000000E+00
	 0.00000000E+00	 0.00000000E+00	 0.00000000E+00

	 0.00000000E+00	 0.00000000E+00	 0.00000000E+00
	 0.00000000E+00	 0.00000000E+00	 0.00000000E+00
	 0.00000000E+00	 0.00000000E+00	 0.00000000E+00

	 0.00000000E+00	 0.00000000E+00	 0.00000000E+00
	 0.00000000E+00	 0.00000000E+00	 0.00000000E+00
	 0.00000000E+00	 0.00000000E+00	 0.00000000E+00

	 0.00000000E+00	 0.00000000E+00	 0.00000000E+00
	 0.00000000E+00	 0.00000000E+00	 0.00000000E+00
	 0.00000000E+00	 0.00000000E+00	 0.00000000E+00

	 0.00000000E+00	 0.00000000E+00	 0.00000000E+00
	 0.00000000E+00	 0.00000000E+00	 0.00000000E+00
	 0.00000000E+00	 0.00000000E+00	 0.00000000E+00

	 0.00000000E+00	 0.00000000E+00	 0.00000000E+00
	 0.00000000E+00	 0.00000000E+00	 0.00000000E+00
	 0.00000000E+00	 0.00000000E+00	 0.00000000E+00

	 0.00000000E+00	 0.00000000E+00	 0.00000000E+00
	 0.00000000E+00	 0.00000000E+00	 0.00000000E+00
	 0.00000000E+00	 0.00000000E+00	 0.00000000E+00

	 0.00000000E+00	 0.00000000E+00	 0.00000000E+00
	 0.00000000E+00	 0.00000000E+00	 0.00000000E+00
	 0.00000000E+00	 0.00000000E+00	 0.00000000E+00

	 0.00000000E+00	 0.00000000E+00	 0.00000000E+00
	 0.00000000E+00	 0.00000000E+00	 0.00000000E+00
	 0.00000000E+00	 0.00000000E+00	 0.00000000E+00

	 0.00000000E+00	 0.00000000E+00	 0.00000000E+00
	 0.00000000E+00	 0.00000000E+00	 0.00000000E+00
	 0.00000000E+00	 0.00000000E+00	 0.00000000E+00

	 0.00000000E+00	 0.00000000E+00	 0.00000000E+00
	 0.00000000E+00	 0.00000000E+00	 0.00000000E+00
	 0.00000000E+00	 0.00000000E+00	 0.00000000E+00

	 0.00000000E+00	 0.00000000E+00	 0.00000000E+00
	 0.00000000E+00	 0.00000000E+00	 0.00000000E+00
	 0.00000000E+00	 0.00000000E+00	 0.00000000E+00

	 0.00000000E+00	 0.00000000E+00	 0.00000000E+00
	 0.00000000E+00	 0.00000000E+00	 0.00000000E+00
	 0.00000000E+00	 0.00000000E+00	 0.00000000E+00

	 0.00000000E+00	 0.00000000E+00	 0.00000000E+00
	 0.00000000E+00	 0.00000000E+00	 0.00000000E+00
	 0.00000000E+00	 0.00000000E+00	 0.00000000E+00

	 0.00000000E+00	 0.00000000E+00	 0.00000000E+00
	 0.00000000E+00	 0.00000000E+00	 0.00000000E+00
	 0.00000000E+00	 0.00000000E+00	 0.00000000E+00

	 0.00000000E+00	 0.00000000E+00	 0.00000000E+00
	 0.00000000E+00	 0.00000000E+00	 0.00000000E+00
	 0.00000000E+00	 0.00000000E+00	 0.00000000E+00

	 0.00000000E+00	 0.00000000E+00	 0.00000000E+00
	 0.00000000E+00	 0.00000000E+00	 0.00000000E+00
	 0.00000000E+00	 0.00000000E+00	 0.00000000E+00

	 0.00000000E+00	 0.00000000E+00	 0.00000000E+00
	 0.00000000E+00	 0.00000000E+00	 0.00000000E+00
	 0.00000000E+00	 0.00000000E+00	 0.00000000E+00

	 0.00000000E+00	 0.00000000E+00	 0.00000000E+00
	 0.00000000E+00	 0.00000000E+00	 0.00000000E+00
	 0.00000000E+00	 0.00000000E+00	 0.00000000E+00

	 0.00000000E+00	 0.00000000E+00	 0.00000000E+00
	 0.00000000E+00	 0.00000000E+00	 0.00000000E+00
	 0.00000000E+00	 0.00000000E+00	 0.00000000E+00

	 0.00000000E+00	 0.00000000E+00	 0.00000000E+00
	 0.00000000E+00	 0.00000000E+00	 0.00000000E+00
	 0.00000000E+00	 0.00000000E+00	 0.00000000E+00

	 0.00000000E+00	 0.00000000E+00	 0.00000000E+00
	 0.00000000E+00	 0.00000000E+00	 0.00000000E+00
	 0.00000000E+00	 0.00000000E+00	 0.00000000E+00

	 0.00000000E+00	 0.00000000E+00	 0.00000000E+00
	 0.00000000E+00	 0.00000000E+00	 0.00000000E+00
	 0.00000000E+00	 0.00000000E+00	 0.00000000E+00

	 0.00000000E+00	 0.00000000E+00	 0.00000000E+00
	 0.00000000E+00	 0.00000000E+00	 0.00000000E+00
	 0.00000000E+00	 0.00000000E+00	 0.00000000E+00

	 0.00000000E+00	 0.00000000E+00	 0.00000000E+00
	 0.00000000E+00	 0.00000000E+00	 0.00000000E+00
	 0.00000000E+00	 0.00000000E+00	 0.00000000E+00

	 0.00000000E+00	 0.00000000E+00	 0.00000000E+00
	 0.00000000E+00	 0.00000000E+00	 0.00000000E+00
	 0.00000000E+00	 0.00000000E+00	 0.00000000E+00

	 0.00000000E+00	 0.00000000E+00	 0.00000000E+00
	 0.00000000E+00	 0.00000000E+00	 0.00000000E+00
	 0.00000000E+00	 0.00000000E+00	 0.00000000E+00

	 0.00000000E+00	 0.00000000E+00	 0.00000000E+00
	 0.00000000E+00	 0.00000000E+00	 0.00000000E+00
	 0.00000000E+00	 0.00000000E+00	 0.00000000E+00

	 0.00000000E+00	 0.00000000E+00	 0.00000000E+00
	 0.00000000E+00	 0.00000000E+00	 0.00000000E+00
	 0.00000000E+00	 0.00000000E+00	 0.00000000E+00

	 0.00000000E+00	 0.00000000E+00	 0.00000000E+00
	 0.00000000E+00	 0.00000000E+00	 0.00000000E+00
	 0.00000000E+00	 0.00000000E+00	 0.00000000E+00

	 0.00000000E+00	 0.00000000E+00	 0.00000000E+00
	 0.00000000E+00	 0.00000000E+00	 0.00000000E+00
	 0.00000000E+00	 0.00000000E+00	 0.00000000E+00

	 0.00000000E+00	 0.00000000E+00	 0.00000000E+00
	 0.00000000E+00	 0.00000000E+00	 0.00000000E+00
	 0.00000000E+00	 0.00000000E+00	 0.00000000E+00

	 0.00000000E+00	 0.00000000E+00	 0.00000000E+00
	 0.00000000E+00	 0.00000000E+00	 0.00000000E+00
	 0.00000000E+00	 0.00000000E+00	 0.00000000E+00

	 0.00000000E+00	 0.00000000E+00	 0.00000000E+00
	 0.00000000E+00	 0.00000000E+00	 0.00000000E+00
	 0.00000000E+00	 0.00000000E+00	 0.00000000E+00

	 0.00000000E+00	 0.00000000E+00	 0.00000000E+00
	 0.00000000E+00	 0.00000000E+00	 0.00000000E+00
	 0.00000000E+00	 0.00000000E+00	 0.00000000E+00

	 0.00000000E+00	 0.00000000E+00	 0.00000000E+00
	 0.00000000E+00	 0.00000000E+00	 0.00000000E+00
	 0.00000000E+00	 0.00000000E+00	 0.00000000E+00

	 0.00000000E+00	 0.00000000E+00	 0.00000000E+00
	 0.00000000E+00	 0.00000000E+00	 0.00000000E+00
	 0.00000000E+00	 0.00000000E+00	 0.00000000E+00

	 0.00000000E+00	 0.00000000E+00	 0.00000000E+00
	 0.00000000E+00	 0.00000000E+00	 0.00000000E+00
	 0.00000000E+00	 0.00000000E+00	 0.00000000E+00

	 0.00000000E+00	 0.00000000E+00	 0.00000000E+00
	 0.00000000E+00	 0.00000000E+00	 0.00000000E+00
	 0.00000000E+00	 0.00000000E+00	 0.00000000E+00

	 0.00000000E+00	 0.00000000E+00	 0.00000000E+00
	 0.00000000E+00	 0.00000000E+00	 0.00000000E+00
	 0.00000000E+00	 0.00000000E+00	 0.00000000E+00

	 0.00000000E+00	 0.00000000E+00	 0.00000000E+00
	 0.00000000E+00	 0.00000000E+00	 0.00000000E+00
	 0.00000000E+00	 0.00000000E+00	 0.00000000E+00

	 0.00000000E+00	 0.00000000E+00	 0.00000000E+00
	 0.00000000E+00	 0.00000000E+00	 0.00000000E+00
	 0.00000000E+00	 0.00000000E+00	 0.00000000E+00

	 0.00000000E+00	 0.00000000E+00	 0.00000000E+00
	 0.00000000E+00	 0.00000000E+00	 0.00000000E+00
	 0.00000000E+00	 0.00000000E+00	 0.00000000E+00

	 0.00000000E+00	 0.00000000E+00	 0.00000000E+00
	 0.00000000E+00	 0.00000000E+00	 0.00000000E+00
	 0.00000000E+00	 0.00000000E+00	 0.00000000E+00

	 0.00000000E+00	 0.00000000E+00	 0.00000000E+00
	 0.00000000E+00	 0.00000000E+00	 0.00000000E+00
	 0.00000000E+00	 0.00000000E+00	 0.00000000E+00

	 0.00000000E+00	 0.00000000E+00	 0.00000000E+00
	 0.00000000E+00	 0.00000000E+00	 0.00000000E+00
	 0.00000000E+00	 0.00000000E+00	 0.00000000E+00

	 0.00000000E+00	 0.00000000E+00	 0.00000000E+00
	 0.00000000E+00	 0.00000000E+00	 0.00000000E+00
	 0.00000000E+00	 0.00000000E+00	 0.00000000E+00

	 0.00000000E+00	 0.00000000E+00	 0.00000000E+00
	 0.00000000E+00	 0.00000000E+00	 0.00000000E+00
	 0.00000000E+00	 0.00000000E+00	 0.00000000E+00

	 0.00000000E+00	 0.00000000E+00	 0.00000000E+00
	 0.00000000E+00	 0.00000000E+00	 0.00000000E+00
	 0.00000000E+00	 0.00000000E+00	 0.00000000E+00

	 0.00000000E+00	 0.00000000E+00	 0.00000000E+00
	 0.00000000E+00	 0.00000000E+00	 0.00000000E+00
	 0.00000000E+00	 0.00000000E+00	 0.00000000E+00

	 0.00000000E+00	 0.00000000E+00	 0.00000000E+00
	 0.00000000E+00	 0.00000000E+00	 0.00000000E+00
	 0.00000000E+00	 0.00000000E+00	 0.00000000E+00

	 0.00000000E+00	 0.00000000E+00	 0.00000000E+00
	 0.00000000E+00	 0.00000000E+00	 0.00000000E+00
	 0.00000000E+00	 0.00000000E+00	 0.00000000E+00

	 0.00000000E+00	 0.00000000E+00	 0.00000000E+00
	 0.00000000E+00	 0.00000000E+00	 0.00000000E+00
	 0.00000000E+00	 0.00000000E+00	 0.00000000E+00

	 0.00000000E+00	 0.00000000E+00	 0.00000000E+00
	 0.00000000E+00	 0.00000000E+00	 0.00000000E+00
	 0.00000000E+00	 0.00000000E+00	 0.00000000E+00

	 0.00000000E+00	 0.00000000E+00	 0.00000000E+00
	 0.00000000E+00	 0.00000000E+00	 0.00000000E+00
	 0.00000000E+00	 0.00000000E+00	 0.00000000E+00

	 0.00000000E+00	 0.00000000E+00	 0.00000000E+00
	 0.00000000E+00	 0.00000000E+00	 0.00000000E+00
	 0.00000000E+00	 0.00000000E+00	 0.00000000E+00

	 0.00000000E+00	 0.00000000E+00	 0.00000000E+00
	 0.00000000E+00	 0.00000000E+00	 0.00000000E+00
	 0.00000000E+00	 0.00000000E+00	 0.00000000E+00

	 0.00000000E+00	 0.00000000E+00	 0.00000000E+00
	 0.00000000E+00	 0.00000000E+00	 0.00000000E+00
	 0.00000000E+00	 0.00000000E+00	 0.00000000E+00

	 0.00000000E+00	 0.00000000E+00	 0.00000000E+00
	 0.00000000E+00	 0.00000000E+00	 0.00000000E+00
	 0.00000000E+00	 0.00000000E+00	 0.00000000E+00

	 0.00000000E+00	 0.00000000E+00	 0.00000000E+00
	 0.00000000E+00	 0.00000000E+00	 0.00000000E+00
	 0.00000000E+00	 0.00000000E+00	 0.00000000E+00

	 0.00000000E+00	 0.00000000E+00	 0.00000000E+00
	 0.00000000E+00	 0.00000000E+00	 0.00000000E+00
	 0.00000000E+00	 0.00000000E+00	 0.00000000E+00

	 0.00000000E+00	 0.00000000E+00	 0.00000000E+00
	 0.00000000E+00	 0.00000000E+00	 0.00000000E+00
	 0.00000000E+00	 0.00000000E+00	 0.00000000E+00

	 0.00000000E+00	 0.00000000E+00	 0.00000000E+00
	 0.00000000E+00	 0.00000000E+00	 0.00000000E+00
	 0.00000000E+00	 0.00000000E+00	 0.00000000E+00

	 0.00000000E+00	 0.00000000E+00	 0.00000000E+00
	 0.00000000E+00	 0.00000000E+00	 0.00000000E+00
	 0.00000000E+00	 0.00000000E+00	 0.00000000E+00

	 0.00000000E+00	 0.00000000E+00	 0.00000000E+00
	 0.00000000E+00	 0.00000000E+00	 0.00000000E+00
	 0.00000000E+00	 0.00000000E+00	 0.00000000E+00

	 0.00000000E+00	 0.00000000E+00	 0.00000000E+00
	 0.00000000E+00	 0.00000000E+00	 0.00000000E+00
	 0.00000000E+00	 0.00000000E+00	 0.00000000E+00

	 0.00000000E+00	 0.00000000E+00	 0.00000000E+00
	 0.00000000E+00	 0.00000000E+00	 0.00000000E+00
	 0.00000000E+00	 0.00000000E+00	 0.00000000E+00

	 0.00000000E+00	 0.00000000E+00	 0.00000000E+00
	 0.00000000E+00	 0.00000000E+00	 0.00000000E+00
	 0.00000000E+00	 0.00000000E+00	 0.00000000E+00

	 0.00000000E+00	 0.00000000E+00	 0.00000000E+00
	 0.00000000E+00	 0.00000000E+00	 0.00000000E+00
	 0.00000000E+00	 0.00000000E+00	 0.00000000E+00

	 0.00000000E+00	 0.00000000E+00	 0.00000000E+00
	 0.00000000E+00	 0.00000000E+00	 0.00000000E+00
	 0.00000000E+00	 0.00000000E+00	 0.00000000E+00

	 0.00000000E+00	 0.00000000E+00	 0.00000000E+00
	 0.00000000E+00	 0.00000000E+00	 0.00000000E+00
	 0.00000000E+00	 0.00000000E+00	 0.00000000E+00

	 0.00000000E+00	 0.00000000E+00	 0.00000000E+00
	 0.00000000E+00	 0.00000000E+00	 0.00000000E+00
	 0.00000000E+00	 0.00000000E+00	 0.00000000E+00

	 0.00000000E+00	 0.00000000E+00	 0.00000000E+00
	 0.00000000E+00	 0.00000000E+00	 0.00000000E+00
	 0.00000000E+00	 0.00000000E+00	 0.00000000E+00

	 0.00000000E+00	 0.00000000E+00	 0.00000000E+00
	 0.00000000E+00	 0.00000000E+00	 0.00000000E+00
	 0.00000000E+00	 0.00000000E+00	 0.00000000E+00

	 0.00000000E+00	 0.00000000E+00	 0.00000000E+00
	 0.00000000E+00	 0.00000000E+00	 0.00000000E+00
	 0.00000000E+00	 0.00000000E+00	 0.00000000E+00

	 0.00000000E+00	 0.00000000E+00	 0.00000000E+00
	 0.00000000E+00	 0.00000000E+00	 0.00000000E+00
	 0.00000000E+00	 0.00000000E+00	 0.00000000E+00

	 0.00000000E+00	 0.00000000E+00	 0.00000000E+00
	 0.00000000E+00	 0.00000000E+00	 0.00000000E+00
	 0.00000000E+00	 0.00000000E+00	 0.00000000E+00

	 0.00000000E+00	 0.00000000E+00	 0.00000000E+00
	 0.00000000E+00	 0.00000000E+00	 0.00000000E+00
	 0.00000000E+00	 0.00000000E+00	 0.00000000E+00

	 0.00000000E+00	 0.00000000E+00	 0.00000000E+00
	 0.00000000E+00	 0.00000000E+00	 0.00000000E+00
	 0.00000000E+00	 0.00000000E+00	 0.00000000E+00

	 0.00000000E+00	 0.00000000E+00	 0.00000000E+00
	 0.00000000E+00	 0.00000000E+00	 0.00000000E+00
	 0.00000000E+00	 0.00000000E+00	 0.00000000E+00

	 0.00000000E+00	 0.00000000E+00	 0.00000000E+00
	 0.00000000E+00	 0.00000000E+00	 0.00000000E+00
	 0.00000000E+00	 0.00000000E+00	 0.00000000E+00

	 0.00000000E+00	 0.00000000E+00	 0.00000000E+00
	 0.00000000E+00	 0.00000000E+00	 0.00000000E+00
	 0.00000000E+00	 0.00000000E+00	 0.00000000E+00

	 0.00000000E+00	 0.00000000E+00	 0.00000000E+00
	 0.00000000E+00	 0.00000000E+00	 0.00000000E+00
	 0.00000000E+00	 0.00000000E+00	 0.00000000E+00

	 0.00000000E+00	 0.00000000E+00	 0.00000000E+00
	 0.00000000E+00	 0.00000000E+00	 0.00000000E+00
	 0.00000000E+00	 0.00000000E+00	 0.00000000E+00

	 0.00000000E+00	 0.00000000E+00	 0.00000000E+00
	 0.00000000E+00	 0.00000000E+00	 0.00000000E+00
	 0.00000000E+00	 0.00000000E+00	 0.00000000E+00

	 0.00000000E+00	 0.00000000E+00	 0.00000000E+00
	 0.00000000E+00	 0.00000000E+00	 0.00000000E+00
	 0.00000000E+00	 0.00000000E+00	 0.00000000E+00

	 0.00000000E+00	 0.00000000E+00	 0.00000000E+00
	 0.00000000E+00	 0.00000000E+00	 0.00000000E+00
	 0.00000000E+00	 0.00000000E+00	 0.00000000E+00

	 0.00000000E+00	 0.00000000E+00	 0.00000000E+00
	 0.00000000E+00	 0.00000000E+00	 0.00000000E+00
	 0.00000000E+00	 0.00000000E+00	 0.00000000E+00

	 0.00000000E+00	 0.00000000E+00	 0.00000000E+00
	 0.00000000E+00	 0.00000000E+00	 0.00000000E+00
	 0.00000000E+00	 0.00000000E+00	 0.00000000E+00

	 0.00000000E+00	 0.00000000E+00	 0.00000000E+00
	 0.00000000E+00	 0.00000000E+00	 0.00000000E+00
	 0.00000000E+00	 0.00000000E+00	 0.00000000E+00

	 0.00000000E+00	 0.00000000E+00	 0.00000000E+00
	 0.00000000E+00	 0.00000000E+00	 0.00000000E+00
	 0.00000000E+00	 0.00000000E+00	 0.00000000E+00

	 0.00000000E+00	 0.00000000E+00	 0.00000000E+00
	 0.00000000E+00	 0.00000000E+00	 0.00000000E+00
	 0.00000000E+00	 0.00000000E+00	 0.00000000E+00

	 0.00000000E+00	 0.00000000E+00	 0.00000000E+00
	 0.00000000E+00	 0.00000000E+00	 0.00000000E+00
	 0.00000000E+00	 0.00000000E+00	 0.00000000E+00

	 0.00000000E+00	 0.00000000E+00	 0.00000000E+00
	 0.00000000E+00	 0.00000000E+00	 0.00000000E+00
	 0.00000000E+00	 0.00000000E+00	 0.00000000E+00

	 0.00000000E+00	 0.00000000E+00	 0.00000000E+00
	 0.00000000E+00	 0.00000000E+00	 0.00000000E+00
	 0.00000000E+00	 0.00000000E+00	 0.00000000E+00

	 0.00000000E+00	 0.00000000E+00	 0.00000000E+00
	 0.00000000E+00	 0.00000000E+00	 0.00000000E+00
	 0.00000000E+00	 0.00000000E+00	 0.00000000E+00

	 0.00000000E+00	 0.00000000E+00	 0.00000000E+00
	 0.00000000E+00	 0.00000000E+00	 0.00000000E+00
	 0.00000000E+00	 0.00000000E+00	 0.00000000E+00

	 0.00000000E+00	 0.00000000E+00	 0.00000000E+00
	 0.00000000E+00	 0.00000000E+00	 0.00000000E+00
	 0.00000000E+00	 0.00000000E+00	 0.00000000E+00

	 0.00000000E+00	 0.00000000E+00	 0.00000000E+00
	 0.00000000E+00	 0.00000000E+00	 0.00000000E+00
	 0.00000000E+00	 0.00000000E+00	 0.00000000E+00

	 0.00000000E+00	 0.00000000E+00	 0.00000000E+00
	 0.00000000E+00	 0.00000000E+00	 0.00000000E+00
	 0.00000000E+00	 0.00000000E+00	 0.00000000E+00

	 0.00000000E+00	 0.00000000E+00	 0.00000000E+00
	 0.00000000E+00	 0.00000000E+00	 0.00000000E+00
	 0.00000000E+00	 0.00000000E+00	 0.00000000E+00

	 0.00000000E+00	 0.00000000E+00	 0.00000000E+00
	 0.00000000E+00	 0.00000000E+00	 0.00000000E+00
	 0.00000000E+00	 0.00000000E+00	 0.00000000E+00

	 0.00000000E+00	 0.00000000E+00	 0.00000000E+00
	 0.00000000E+00	 0.00000000E+00	 0.00000000E+00
	 0.00000000E+00	 0.00000000E+00	 0.00000000E+00

	 0.00000000E+00	 0.00000000E+00	 0.00000000E+00
	 0.00000000E+00	 0.00000000E+00	 0.00000000E+00
	 0.00000000E+00	 0.00000000E+00	 0.00000000E+00

	 0.00000000E+00	 0.00000000E+00	 0.00000000E+00
	 0.00000000E+00	 0.00000000E+00	 0.00000000E+00
	 0.00000000E+00	 0.00000000E+00	 0.00000000E+00

	 0.00000000E+00	 0.00000000E+00	 0.00000000E+00
	 0.00000000E+00	 0.00000000E+00	 0.00000000E+00
	 0.00000000E+00	 0.00000000E+00	 0.00000000E+00

	 0.00000000E+00	 0.00000000E+00	 0.00000000E+00
	 0.00000000E+00	 0.00000000E+00	 0.00000000E+00
	 0.00000000E+00	 0.00000000E+00	 0.00000000E+00

	 0.00000000E+00	 0.00000000E+00	 0.00000000E+00
	 0.00000000E+00	 0.00000000E+00	 0.00000000E+00
	 0.00000000E+00	 0.00000000E+00	 0.00000000E+00

	 0.00000000E+00	 0.00000000E+00	 0.00000000E+00
	 0.00000000E+00	 0.00000000E+00	 0.00000000E+00
	 0.00000000E+00	 0.00000000E+00	 0.00000000E+00

	 0.00000000E+00	 0.00000000E+00	 0.00000000E+00
	 0.00000000E+00	 0.00000000E+00	 0.00000000E+00
	 0.00000000E+00	 0.00000000E+00	 0.00000000E+00

	 0.00000000E+00	 0.00000000E+00	 0.00000000E+00
	 0.00000000E+00	 0.00000000E+00	 0.00000000E+00
	 0.00000000E+00	 0.00000000E+00	 0.00000000E+00

	 0.00000000E+00	 0.00000000E+00	 0.00000000E+00
	 0.00000000E+00	 0.00000000E+00	 0.00000000E+00
	 0.00000000E+00	 0.00000000E+00	 0.00000000E+00

	 0.00000000E+00	 0.00000000E+00	 0.00000000E+00
	 0.00000000E+00	 0.00000000E+00	 0.00000000E+00
	 0.00000000E+00	 0.00000000E+00	 0.00000000E+00

	 0.00000000E+00	 0.00000000E+00	 0.00000000E+00
	 0.00000000E+00	 0.00000000E+00	 0.00000000E+00
	 0.00000000E+00	 0.00000000E+00	 0.00000000E+00

	 0.00000000E+00	 0.00000000E+00	 0.00000000E+00
	 0.00000000E+00	 0.00000000E+00	 0.00000000E+00
	 0.00000000E+00	 0.00000000E+00	 0.00000000E+00

	 0.00000000E+00	 0.00000000E+00	 0.00000000E+00
	 0.00000000E+00	 0.00000000E+00	 0.00000000E+00
	 0.00000000E+00	 0.00000000E+00	 0.00000000E+00

	 0.00000000E+00	 0.00000000E+00	 0.00000000E+00
	 0.00000000E+00	 0.00000000E+00	 0.00000000E+00
	 0.00000000E+00	 0.00000000E+00	 0.00000000E+00

	 0.00000000E+00	 0.00000000E+00	 0.00000000E+00
	 0.00000000E+00	 0.00000000E+00	 0.00000000E+00
	 0.00000000E+00	 0.00000000E+00	 0.00000000E+00

	 0.00000000E+00	 0.00000000E+00	 0.00000000E+00
	 0.00000000E+00	 0.00000000E+00	 0.00000000E+00
	 0.00000000E+00	 0.00000000E+00	 0.00000000E+00

	 0.00000000E+00	 0.00000000E+00	 0.00000000E+00
	 0.00000000E+00	 0.00000000E+00	 0.00000000E+00
	 0.00000000E+00	 0.00000000E+00	 0.00000000E+00

	 0.00000000E+00	 0.00000000E+00	 0.00000000E+00
	 0.00000000E+00	 0.00000000E+00	 0.00000000E+00
	 0.00000000E+00	 0.00000000E+00	 0.00000000E+00

	 0.00000000E+00	 0.00000000E+00	 0.00000000E+00
	 0.00000000E+00	 0.00000000E+00	 0.00000000E+00
	 0.00000000E+00	 0.00000000E+00	 0.00000000E+00

	 0.00000000E+00	 0.00000000E+00	 0.00000000E+00
	 0.00000000E+00	 0.00000000E+00	 0.00000000E+00
	 0.00000000E+00	 0.00000000E+00	 0.00000000E+00

	 0.00000000E+00	 0.00000000E+00	 0.00000000E+00
	 0.00000000E+00	 0.00000000E+00	 0.00000000E+00
	 0.00000000E+00	 0.00000000E+00	 0.00000000E+00

	 0.00000000E+00	 0.00000000E+00	 0.00000000E+00
	 0.00000000E+00	 0.00000000E+00	 0.00000000E+00
	 0.00000000E+00	 0.00000000E+00	 0.00000000E+00

	 0.00000000E+00	 0.00000000E+00	 0.00000000E+00
	 0.00000000E+00	 0.00000000E+00	 0.00000000E+00
	 0.00000000E+00	 0.00000000E+00	 0.00000000E+00

	 0.00000000E+00	 0.00000000E+00	 0.00000000E+00
	 0.00000000E+00	 0.00000000E+00	 0.00000000E+00
	 0.00000000E+00	 0.00000000E+00	 0.00000000E+00

	 0.00000000E+00	 0.00000000E+00	 0.00000000E+00
	 0.00000000E+00	 0.00000000E+00	 0.00000000E+00
	 0.00000000E+00	 0.00000000E+00	 0.00000000E+00

	 0.00000000E+00	 0.00000000E+00	 0.00000000E+00
	 0.00000000E+00	 0.00000000E+00	 0.00000000E+00
	 0.00000000E+00	 0.00000000E+00	 0.00000000E+00

	 0.00000000E+00	 0.00000000E+00	 0.00000000E+00
	 0.00000000E+00	 0.00000000E+00	 0.00000000E+00
	 0.00000000E+00	 0.00000000E+00	 0.00000000E+00

	 0.00000000E+00	 0.00000000E+00	 0.00000000E+00
	 0.00000000E+00	 0.00000000E+00	 0.00000000E+00
	 0.00000000E+00	 0.00000000E+00	 0.00000000E+00

	 0.00000000E+00	 0.00000000E+00	 0.00000000E+00
	 0.00000000E+00	 0.00000000E+00	 0.00000000E+00
	 0.00000000E+00	 0.00000000E+00	 0.00000000E+00

	 0.00000000E+00	 0.00000000E+00	 0.00000000E+00
	 0.00000000E+00	 0.00000000E+00	 0.00000000E+00
	 0.00000000E+00	 0.00000000E+00	 0.00000000E+00

	 0.00000000E+00	 0.00000000E+00	 0.00000000E+00
	 0.00000000E+00	 0.00000000E+00	 0.00000000E+00
	 0.00000000E+00	 0.00000000E+00	 0.00000000E+00

	 0.00000000E+00	 0.00000000E+00	 0.00000000E+00
	 0.00000000E+00	 0.00000000E+00	 0.00000000E+00
	 0.00000000E+00	 0.00000000E+00	 0.00000000E+00

	 0.00000000E+00	 0.00000000E+00	 0.00000000E+00
	 0.00000000E+00	 0.00000000E+00	 0.00000000E+00
	 0.00000000E+00	 0.00000000E+00	 0.00000000E+00

	 0.00000000E+00	 0.00000000E+00	 0.00000000E+00
	 0.00000000E+00	 0.00000000E+00	 0.00000000E+00
	 0.00000000E+00	 0.00000000E+00	 0.00000000E+00

	 0.00000000E+00	 0.00000000E+00	 0.00000000E+00
	 0.00000000E+00	 0.00000000E+00	 0.00000000E+00
	 0.00000000E+00	 0.00000000E+00	 0.00000000E+00

	 0.00000000E+00	 0.00000000E+00	 0.00000000E+00
	 0.00000000E+00	 0.00000000E+00	 0.00000000E+00
	 0.00000000E+00	 0.00000000E+00	 0.00000000E+00

	 0.00000000E+00	 0.00000000E+00	 0.00000000E+00
	 0.00000000E+00	 0.00000000E+00	 0.00000000E+00
	 0.00000000E+00	 0.00000000E+00	 0.00000000E+00

	 0.00000000E+00	 0.00000000E+00	 0.00000000E+00
	 0.00000000E+00	 0.00000000E+00	 0.00000000E+00
	 0.00000000E+00	 0.00000000E+00	 0.00000000E+00

	 0.00000000E+00	 0.00000000E+00	 0.00000000E+00
	 0.00000000E+00	 0.00000000E+00	 0.00000000E+00
	 0.00000000E+00	 0.00000000E+00	 0.00000000E+00

	 0.00000000E+00	 0.00000000E+00	 0.00000000E+00
	 0.00000000E+00	 0.00000000E+00	 0.00000000E+00
	 0.00000000E+00	 0.00000000E+00	 0.00000000E+00

	 0.00000000E+00	 0.00000000E+00	 0.00000000E+00
	 0.00000000E+00	 0.00000000E+00	 0.00000000E+00
	 0.00000000E+00	 0.00000000E+00	 0.00000000E+00

	 0.00000000E+00	 0.00000000E+00	 0.00000000E+00
	 0.00000000E+00	 0.00000000E+00	 0.00000000E+00
	 0.00000000E+00	 0.00000000E+00	 0.00000000E+00

	 0.00000000E+00	 0.00000000E+00	 0.00000000E+00
	 0.00000000E+00	 0.00000000E+00	 0.00000000E+00
	 0.00000000E+00	 0.00000000E+00	 0.00000000E+00

	 0.00000000E+00	 0.00000000E+00	 0.00000000E+00
	 0.00000000E+00	 0.00000000E+00	 0.00000000E+00
	 0.00000000E+00	 0.00000000E+00	 0.00000000E+00

	 0.00000000E+00	 0.00000000E+00	 0.00000000E+00
	 0.00000000E+00	 0.00000000E+00	 0.00000000E+00
	 0.00000000E+00	 0.00000000E+00	 0.00000000E+00

	 0.00000000E+00	 0.00000000E+00	 0.00000000E+00
	 0.00000000E+00	 0.00000000E+00	 0.00000000E+00
	 0.00000000E+00	 0.00000000E+00	 0.00000000E+00

	 0.00000000E+00	 0.00000000E+00	 0.00000000E+00
	 0.00000000E+00	 0.00000000E+00	 0.00000000E+00
	 0.00000000E+00	 0.00000000E+00	 0.00000000E+00

	 0.00000000E+00	 0.00000000E+00	 0.00000000E+00
	 0.00000000E+00	 0.00000000E+00	 0.00000000E+00
	 0.00000000E+00	 0.00000000E+00	 0.00000000E+00

	 0.00000000E+00	 0.00000000E+00	 0.00000000E+00
	 0.00000000E+00	 0.00000000E+00	 0.00000000E+00
	 0.00000000E+00	 0.00000000E+00	 0.00000000E+00

	 0.00000000E+00	 0.00000000E+00	 0.00000000E+00
	 0.00000000E+00	 0.00000000E+00	 0.00000000E+00
	 0.00000000E+00	 0.00000000E+00	 0.00000000E+00

	 0.00000000E+00	 0.00000000E+00	 0.00000000E+00
	 0.00000000E+00	 0.00000000E+00	 0.00000000E+00
	 0.00000000E+00	 0.00000000E+00	 0.00000000E+00

	 0.00000000E+00	 0.00000000E+00	 0.00000000E+00
	 0.00000000E+00	 0.00000000E+00	 0.00000000E+00
	 0.00000000E+00	 0.00000000E+00	 0.00000000E+00

	 0.00000000E+00	 0.00000000E+00	 0.00000000E+00
	 0.00000000E+00	 0.00000000E+00	 0.00000000E+00
	 0.00000000E+00	 0.00000000E+00	 0.00000000E+00

	 0.00000000E+00	 0.00000000E+00	 0.00000000E+00
	 0.00000000E+00	 0.00000000E+00	 0.00000000E+00
	 0.00000000E+00	 0.00000000E+00	 0.00000000E+00

	 0.00000000E+00	 0.00000000E+00	 0.00000000E+00
	 0.00000000E+00	 0.00000000E+00	 0.00000000E+00
	 0.00000000E+00	 0.00000000E+00	 0.00000000E+00

	 0.00000000E+00	 0.00000000E+00	 0.00000000E+00
	 0.00000000E+00	 0.00000000E+00	 0.00000000E+00
	 0.00000000E+00	 0.00000000E+00	 0.00000000E+00

	 0.00000000E+00	 0.00000000E+00	 0.00000000E+00
	 0.00000000E+00	 0.00000000E+00	 0.00000000E+00
	 0.00000000E+00	 0.00000000E+00	 0.00000000E+00

	 0.00000000E+00	 0.00000000E+00	 0.00000000E+00
	 0.00000000E+00	 0.00000000E+00	 0.00000000E+00
	 0.00000000E+00	 0.00000000E+00	 0.00000000E+00

	 0.00000000E+00	 0.00000000E+00	 0.00000000E+00
	 0.00000000E+00	 0.00000000E+00	 0.00000000E+00
	 0.00000000E+00	 0.00000000E+00	 0.00000000E+00

	 0.00000000E+00	 0.00000000E+00	 0.00000000E+00
	 0.00000000E+00	 0.00000000E+00	 0.00000000E+00
	 0.00000000E+00	 0.00000000E+00	 0.00000000E+00

	 0.00000000E+00	 0.00000000E+00	 0.00000000E+00
	 0.00000000E+00	 0.00000000E+00	 0.00000000E+00
	 0.00000000E+00	 0.00000000E+00	 0.00000000E+00

	 0.00000000E+00	 0.00000000E+00	 0.00000000E+00
	 0.00000000E+00	 0.00000000E+00	 0.00000000E+00
	 0.00000000E+00	 0.00000000E+00	 0.00000000E+00

	 0.00000000E+00	 0.00000000E+00	 0.00000000E+00
	 0.00000000E+00	 0.00000000E+00	 0.00000000E+00
	 0.00000000E+00	 0.00000000E+00	 0.00000000E+00

	 0.00000000E+00	 0.00000000E+00	 0.00000000E+00
	 0.00000000E+00	 0.00000000E+00	 0.00000000E+00
	 0.00000000E+00	 0.00000000E+00	 0.00000000E+00

	 0.00000000E+00	 0.00000000E+00	 0.00000000E+00
	 0.00000000E+00	 0.00000000E+00	 0.00000000E+00
	 0.00000000E+00	 0.00000000E+00	 0.00000000E+00

	 0.00000000E+00	 0.00000000E+00	 0.00000000E+00
	 0.00000000E+00	 0.00000000E+00	 0.00000000E+00
	 0.00000000E+00	 0.00000000E+00	 0.00000000E+00

	 0.00000000E+00	 0.00000000E+00	 0.00000000E+00
	 0.00000000E+00	 0.00000000E+00	 0.00000000E+00
	 0.00000000E+00	 0.00000000E+00	 0.00000000E+00

	 0.00000000E+00	 0.00000000E+00	 0.00000000E+00
	 0.00000000E+00	 0.00000000E+00	 0.00000000E+00
	 0.00000000E+00	 0.00000000E+00	 0.00000000E+00

	 0.00000000E+00	 0.00000000E+00	 0.00000000E+00
	 0.00000000E+00	 0.00000000E+00	 0.00000000E+00
	 0.00000000E+00	 0.00000000E+00	 0.00000000E+00

	 0.00000000E+00	 0.00000000E+00	 0.00000000E+00
	 0.00000000E+00	 0.00000000E+00	 0.00000000E+00
	 0.00000000E+00	 0.00000000E+00	 0.00000000E+00

	 0.00000000E+00	 0.00000000E+00	 0.00000000E+00
	 0.00000000E+00	 0.00000000E+00	 0.00000000E+00
	 0.00000000E+00	 0.00000000E+00	 0.00000000E+00

	 0.00000000E+00	 0.00000000E+00	 0.00000000E+00
	 0.00000000E+00	 0.00000000E+00	 0.00000000E+00
	 0.00000000E+00	 0.00000000E+00	 0.00000000E+00

	 0.00000000E+00	 0.00000000E+00	 0.00000000E+00
	 0.00000000E+00	 0.00000000E+00	 0.00000000E+00
	 0.00000000E+00	 0.00000000E+00	 0.00000000E+00

	 0.00000000E+00	 0.00000000E+00	 0.00000000E+00
	 0.00000000E+00	 0.00000000E+00	 0.00000000E+00
	 0.00000000E+00	 0.00000000E+00	 0.00000000E+00

	 0.00000000E+00	 0.00000000E+00	 0.00000000E+00
	 0.00000000E+00	 0.00000000E+00	 0.00000000E+00
	 0.00000000E+00	 0.00000000E+00	 0.00000000E+00

	 0.00000000E+00	 0.00000000E+00	 0.00000000E+00
	 0.00000000E+00	 0.00000000E+00	 0.00000000E+00
	 0.00000000E+00	 0.00000000E+00	 0.00000000E+00

	 0.00000000E+00	 0.00000000E+00	 0.00000000E+00
	 0.00000000E+00	 0.00000000E+00	 0.00000000E+00
	 0.00000000E+00	 0.00000000E+00	 0.00000000E+00

	 0.00000000E+00	 0.00000000E+00	 0.00000000E+00
	 0.00000000E+00	 0.00000000E+00	 0.00000000E+00
	 0.00000000E+00	 0.00000000E+00	 0.00000000E+00

	 0.00000000E+00	 0.00000000E+00	 0.00000000E+00
	 0.00000000E+00	 0.00000000E+00	 0.00000000E+00
	 0.00000000E+00	 0.00000000E+00	 0.00000000E+00

	 0.00000000E+00	 0.00000000E+00	 0.00000000E+00
	 0.00000000E+00	 0.00000000E+00	 0.00000000E+00
	 0.00000000E+00	 0.00000000E+00	 0.00000000E+00

	 0.00000000E+00	 0.00000000E+00	 0.00000000E+00
	 0.00000000E+00	 0.00000000E+00	 0.00000000E+00
	 0.00000000E+00	 0.00000000E+00	 0.00000000E+00

	 0.00000000E+00	 0.00000000E+00	 0.00000000E+00
	 0.00000000E+00	 0.00000000E+00	 0.00000000E+00
	 0.00000000E+00	 0.00000000E+00	 0.00000000E+00

	 0.00000000E+00	 0.00000000E+00	 0.00000000E+00
	 0.00000000E+00	 0.00000000E+00	 0.00000000E+00
	 0.00000000E+00	 0.00000000E+00	 0.00000000E+00

	 0.00000000E+00	 0.00000000E+00	 0.00000000E+00
	 0.00000000E+00	 0.00000000E+00	 0.00000000E+00
	 0.00000000E+00	 0.00000000E+00	 0.00000000E+00

	 0.00000000E+00	 0.00000000E+00	 0.00000000E+00
	 0.00000000E+00	 0.00000000E+00	 0.00000000E+00
	 0.00000000E+00	 0.00000000E+00	 0.00000000E+00

	 0.00000000E+00	 0.00000000E+00	 0.00000000E+00
	 0.00000000E+00	 0.00000000E+00	 0.00000000E+00
	 0.00000000E+00	 0.00000000E+00	 0.00000000E+00

	 0.00000000E+00	 0.00000000E+00	 0.00000000E+00
	 0.00000000E+00	 0.00000000E+00	 0.00000000E+00
	 0.00000000E+00	 0.00000000E+00	 0.00000000E+00

	 0.00000000E+00	 0.00000000E+00	 0.00000000E+00
	 0.00000000E+00	 0.00000000E+00	 0.00000000E+00
	 0.00000000E+00	 0.00000000E+00	 0.00000000E+00

	 0.00000000E+00	 0.00000000E+00	 0.00000000E+00
	 0.00000000E+00	 0.00000000E+00	 0.00000000E+00
	 0.00000000E+00	 0.00000000E+00	 0.00000000E+00

	 0.00000000E+00	 0.00000000E+00	 0.00000000E+00
	 0.00000000E+00	 0.00000000E+00	 0.00000000E+00
	 0.00000000E+00	 0.00000000E+00	 0.00000000E+00

	 0.00000000E+00	 0.00000000E+00	 0.00000000E+00
	 0.00000000E+00	 0.00000000E+00	 0.00000000E+00
	 0.00000000E+00	 0.00000000E+00	 0.00000000E+00

	 0.00000000E+00	 0.00000000E+00	 0.00000000E+00
	 0.00000000E+00	 0.00000000E+00	 0.00000000E+00
	 0.00000000E+00	 0.00000000E+00	 0.00000000E+00

	 0.00000000E+00	 0.00000000E+00	 0.00000000E+00
	 0.00000000E+00	 0.00000000E+00	 0.00000000E+00
	 0.00000000E+00	 0.00000000E+00	 0.00000000E+00

	 0.00000000E+00	 0.00000000E+00	 0.00000000E+00
	 0.00000000E+00	 0.00000000E+00	 0.00000000E+00
	 0.00000000E+00	 0.00000000E+00	 0.00000000E+00

	 0.00000000E+00	 0.00000000E+00	 0.00000000E+00
	 0.00000000E+00	 0.00000000E+00	 0.00000000E+00
	 0.00000000E+00	 0.00000000E+00	 0.00000000E+00

	 0.00000000E+00	 0.00000000E+00	 0.00000000E+00
	 0.00000000E+00	 0.00000000E+00	 0.00000000E+00
	 0.00000000E+00	 0.00000000E+00	 0.00000000E+00

	 0.00000000E+00	 0.00000000E+00	 0.00000000E+00
	 0.00000000E+00	 0.00000000E+00	 0.00000000E+00
	 0.00000000E+00	 0.00000000E+00	 0.00000000E+00

	 0.00000000E+00	 0.00000000E+00	 0.00000000E+00
	 0.00000000E+00	 0.00000000E+00	 0.00000000E+00
	 0.00000000E+00	 0.00000000E+00	 0.00000000E+00

	 0.00000000E+00	 0.00000000E+00	 0.00000000E+00
	 0.00000000E+00	 0.00000000E+00	 0.00000000E+00
	 0.00000000E+00	 0.00000000E+00	 0.00000000E+00

	 0.00000000E+00	 0.00000000E+00	 0.00000000E+00
	 0.00000000E+00	 0.00000000E+00	 0.00000000E+00
	 0.00000000E+00	 0.00000000E+00	 0.00000000E+00

	 0.00000000E+00	 0.00000000E+00	 0.00000000E+00
	 0.00000000E+00	 0.00000000E+00	 0.00000000E+00
	 0.00000000E+00	 0.00000000E+00	 0.00000000E+00

	 0.00000000E+00	 0.00000000E+00	 0.00000000E+00
	 0.00000000E+00	 0.00000000E+00	 0.00000000E+00
	 0.00000000E+00	 0.00000000E+00	 0.00000000E+00

	 0.00000000E+00	 0.00000000E+00	 0.00000000E+00
	 0.00000000E+00	 0.00000000E+00	 0.00000000E+00
	 0.00000000E+00	 0.00000000E+00	 0.00000000E+00

	 0.00000000E+00	 0.00000000E+00	 0.00000000E+00
	 0.00000000E+00	 0.00000000E+00	 0.00000000E+00
	 0.00000000E+00	 0.00000000E+00	 0.00000000E+00

	 0.00000000E+00	 0.00000000E+00	 0.00000000E+00
	 0.00000000E+00	 0.00000000E+00	 0.00000000E+00
	 0.00000000E+00	 0.00000000E+00	 0.00000000E+00

	 0.00000000E+00	 0.00000000E+00	 0.00000000E+00
	 0.00000000E+00	 0.00000000E+00	 0.00000000E+00
	 0.00000000E+00	 0.00000000E+00	 0.00000000E+00

	 0.00000000E+00	 0.00000000E+00	 0.00000000E+00
	 0.00000000E+00	 0.00000000E+00	 0.00000000E+00
	 0.00000000E+00	 0.00000000E+00	 0.00000000E+00

	 0.00000000E+00	 0.00000000E+00	 0.00000000E+00
	 0.00000000E+00	 0.00000000E+00	 0.00000000E+00
	 0.00000000E+00	 0.00000000E+00	 0.00000000E+00

	 0.00000000E+00	 0.00000000E+00	 0.00000000E+00
	 0.00000000E+00	 0.00000000E+00	 0.00000000E+00
	 0.00000000E+00	 0.00000000E+00	 0.00000000E+00

	 0.00000000E+00	 0.00000000E+00	 0.00000000E+00
	 0.00000000E+00	 0.00000000E+00	 0.00000000E+00
	 0.00000000E+00	 0.00000000E+00	 0.00000000E+00

	 0.00000000E+00	 0.00000000E+00	 0.00000000E+00
	 0.00000000E+00	 0.00000000E+00	 0.00000000E+00
	 0.00000000E+00	 0.00000000E+00	 0.00000000E+00

	 0.00000000E+00	 0.00000000E+00	 0.00000000E+00
	 0.00000000E+00	 0.00000000E+00	 0.00000000E+00
	 0.00000000E+00	 0.00000000E+00	 0.00000000E+00

	 0.00000000E+00	 0.00000000E+00	 0.00000000E+00
	 0.00000000E+00	 0.00000000E+00	 0.00000000E+00
	 0.00000000E+00	 0.00000000E+00	 0.00000000E+00

	 0.00000000E+00	 0.00000000E+00	 0.00000000E+00
	 0.00000000E+00	 0.00000000E+00	 0.00000000E+00
	 0.00000000E+00	 0.00000000E+00	 0.00000000E+00

	 0.00000000E+00	 0.00000000E+00	 0.00000000E+00
	 0.00000000E+00	 0.00000000E+00	 0.00000000E+00
	 0.00000000E+00	 0.00000000E+00	 0.00000000E+00

	 0.00000000E+00	 0.00000000E+00	 0.00000000E+00
	 0.00000000E+00	 0.00000000E+00	 0.00000000E+00
	 0.00000000E+00	 0.00000000E+00	 0.00000000E+00

	 0.00000000E+00	 0.00000000E+00	 0.00000000E+00
	 0.00000000E+00	 0.00000000E+00	 0.00000000E+00
	 0.00000000E+00	 0.00000000E+00	 0.00000000E+00

	 0.00000000E+00	 0.00000000E+00	 0.00000000E+00
	 0.00000000E+00	 0.00000000E+00	 0.00000000E+00
	 0.00000000E+00	 0.00000000E+00	 0.00000000E+00

	 0.00000000E+00	 0.00000000E+00	 0.00000000E+00
	 0.00000000E+00	 0.00000000E+00	 0.00000000E+00
	 0.00000000E+00	 0.00000000E+00	 0.00000000E+00

	 0.00000000E+00	 0.00000000E+00	 0.00000000E+00
	 0.00000000E+00	 0.00000000E+00	 0.00000000E+00
	 0.00000000E+00	 0.00000000E+00	 0.00000000E+00

	 0.00000000E+00	 0.00000000E+00	 0.00000000E+00
	 0.00000000E+00	 0.00000000E+00	 0.00000000E+00
	 0.00000000E+00	 0.00000000E+00	 0.00000000E+00

	 0.00000000E+00	 0.00000000E+00	 0.00000000E+00
	 0.00000000E+00	 0.00000000E+00	 0.00000000E+00
	 0.00000000E+00	 0.00000000E+00	 0.00000000E+00

	 0.00000000E+00	 0.00000000E+00	 0.00000000E+00
	 0.00000000E+00	 0.00000000E+00	 0.00000000E+00
	 0.00000000E+00	 0.00000000E+00	 0.00000000E+00

	 0.00000000E+00	 0.00000000E+00	 0.00000000E+00
	 0.00000000E+00	 0.00000000E+00	 0.00000000E+00
	 0.00000000E+00	 0.00000000E+00	 0.00000000E+00

	 0.00000000E+00	 0.00000000E+00	 0.00000000E+00
	 0.00000000E+00	 0.00000000E+00	 0.00000000E+00
	 0.00000000E+00	 0.00000000E+00	 0.00000000E+00

	 0.00000000E+00	 0.00000000E+00	 0.00000000E+00
	 0.00000000E+00	 0.00000000E+00	 0.00000000E+00
	 0.00000000E+00	 0.00000000E+00	 0.00000000E+00

	 0.00000000E+00	 0.00000000E+00	 0.00000000E+00
	 0.00000000E+00	 0.00000000E+00	 0.00000000E+00
	 0.00000000E+00	 0.00000000E+00	 0.00000000E+00

	 0.00000000E+00	 0.00000000E+00	 0.00000000E+00
	 0.00000000E+00	 0.00000000E+00	 0.00000000E+00
	 0.00000000E+00	 0.00000000E+00	 0.00000000E+00

	 0.00000000E+00	 0.00000000E+00	 0.00000000E+00
	 0.00000000E+00	 0.00000000E+00	 0.00000000E+00
	 0.00000000E+00	 0.00000000E+00	 0.00000000E+00

	 0.00000000E+00	 0.00000000E+00	 0.00000000E+00
	 0.00000000E+00	 0.00000000E+00	 0.00000000E+00
	 0.00000000E+00	 0.00000000E+00	 0.00000000E+00

	 0.00000000E+00	 0.00000000E+00	 0.00000000E+00
	 0.00000000E+00	 0.00000000E+00	 0.00000000E+00
	 0.00000000E+00	 0.00000000E+00	 0.00000000E+00

	 0.00000000E+00	 0.00000000E+00	 0.00000000E+00
	 0.00000000E+00	 0.00000000E+00	 0.00000000E+00
	 0.00000000E+00	 0.00000000E+00	 0.00000000E+00

	 0.00000000E+00	 0.00000000E+00	 0.00000000E+00
	 0.00000000E+00	 0.00000000E+00	 0.00000000E+00
	 0.00000000E+00	 0.00000000E+00	 0.00000000E+00

	 0.00000000E+00	 0.00000000E+00	 0.00000000E+00
	 0.00000000E+00	 0.00000000E+00	 0.00000000E+00
	 0.00000000E+00	 0.00000000E+00	 0.00000000E+00

	 0.00000000E+00	 0.00000000E+00	 0.00000000E+00
	 0.00000000E+00	 0.00000000E+00	 0.00000000E+00
	 0.00000000E+00	 0.00000000E+00	 0.00000000E+00

	 0.00000000E+00	 0.00000000E+00	 0.00000000E+00
	 0.00000000E+00	 0.00000000E+00	 0.00000000E+00
	 0.00000000E+00	 0.00000000E+00	 0.00000000E+00

	 0.00000000E+00	 0.00000000E+00	 0.00000000E+00
	 0.00000000E+00	 0.00000000E+00	 0.00000000E+00
	 0.00000000E+00	 0.00000000E+00	 0.00000000E+00

	 0.00000000E+00	 0.00000000E+00	 0.00000000E+00
	 0.00000000E+00	 0.00000000E+00	 0.00000000E+00
	 0.00000000E+00	 0.00000000E+00	 0.00000000E+00

	 0.00000000E+00	 0.00000000E+00	 0.00000000E+00
	 0.00000000E+00	 0.00000000E+00	 0.00000000E+00
	 0.00000000E+00	 0.00000000E+00	 0.00000000E+00

	 0.00000000E+00	 0.00000000E+00	 0.00000000E+00
	 0.00000000E+00	 0.00000000E+00	 0.00000000E+00
	 0.00000000E+00	 0.00000000E+00	 0.00000000E+00

	 0.00000000E+00	 0.00000000E+00	 0.00000000E+00
	 0.00000000E+00	 0.00000000E+00	 0.00000000E+00
	 0.00000000E+00	 0.00000000E+00	 0.00000000E+00

	 0.00000000E+00	 0.00000000E+00	 0.00000000E+00
	 0.00000000E+00	 0.00000000E+00	 0.00000000E+00
	 0.00000000E+00	 0.00000000E+00	 0.00000000E+00

	 0.00000000E+00	 0.00000000E+00	 0.00000000E+00
	 0.00000000E+00	 0.00000000E+00	 0.00000000E+00
	 0.00000000E+00	 0.00000000E+00	 0.00000000E+00

	 0.00000000E+00	 0.00000000E+00	 0.00000000E+00
	 0.00000000E+00	 0.00000000E+00	 0.00000000E+00
	 0.00000000E+00	 0.00000000E+00	 0.00000000E+00

	 0.00000000E+00	 0.00000000E+00	 0.00000000E+00
	 0.00000000E+00	 0.00000000E+00	 0.00000000E+00
	 0.00000000E+00	 0.00000000E+00	 0.00000000E+00

	 0.00000000E+00	 0.00000000E+00	 0.00000000E+00
	 0.00000000E+00	 0.00000000E+00	 0.00000000E+00
	 0.00000000E+00	 0.00000000E+00	 0.00000000E+00

	 0.00000000E+00	 0.00000000E+00	 0.00000000E+00
	 0.00000000E+00	 0.00000000E+00	 0.00000000E+00
	 0.00000000E+00	 0.00000000E+00	 0.00000000E+00

	 0.00000000E+00	 0.00000000E+00	 0.00000000E+00
	 0.00000000E+00	 0.00000000E+00	 0.00000000E+00
	 0.00000000E+00	 0.00000000E+00	 0.00000000E+00

	 0.00000000E+00	 0.00000000E+00	 0.00000000E+00
	 0.00000000E+00	 0.00000000E+00	 0.00000000E+00
	 0.00000000E+00	 0.00000000E+00	 0.00000000E+00

	 0.00000000E+00	 0.00000000E+00	 0.00000000E+00
	 0.00000000E+00	 0.00000000E+00	 0.00000000E+00
	 0.00000000E+00	 0.00000000E+00	 0.00000000E+00

	 0.00000000E+00	 0.00000000E+00	 0.00000000E+00
	 0.00000000E+00	 0.00000000E+00	 0.00000000E+00
	 0.00000000E+00	 0.00000000E+00	 0.00000000E+00

	 0.00000000E+00	 0.00000000E+00	 0.00000000E+00
	 0.00000000E+00	 0.00000000E+00	 0.00000000E+00
	 0.00000000E+00	 0.00000000E+00	 0.00000000E+00

	 0.00000000E+00	 0.00000000E+00	 0.00000000E+00
	 0.00000000E+00	 0.00000000E+00	 0.00000000E+00
	 0.00000000E+00	 0.00000000E+00	 0.00000000E+00

	 0.00000000E+00	 0.00000000E+00	 0.00000000E+00
	 0.00000000E+00	 0.00000000E+00	 0.00000000E+00
	 0.00000000E+00	 0.00000000E+00	 0.00000000E+00

	 0.00000000E+00	 0.00000000E+00	 0.00000000E+00
	 0.00000000E+00	 0.00000000E+00	 0.00000000E+00
	 0.00000000E+00	 0.00000000E+00	 0.00000000E+00

	 0.00000000E+00	 0.00000000E+00	 0.00000000E+00
	 0.00000000E+00	 0.00000000E+00	 0.00000000E+00
	 0.00000000E+00	 0.00000000E+00	 0.00000000E+00

	 0.00000000E+00	 0.00000000E+00	 0.00000000E+00
	 0.00000000E+00	 0.00000000E+00	 0.00000000E+00
	 0.00000000E+00	 0.00000000E+00	 0.00000000E+00

	 0.00000000E+00	 0.00000000E+00	 0.00000000E+00
	 0.00000000E+00	 0.00000000E+00	 0.00000000E+00
	 0.00000000E+00	 0.00000000E+00	 0.00000000E+00

	 0.00000000E+00	 0.00000000E+00	 0.00000000E+00
	 0.00000000E+00	 0.00000000E+00	 0.00000000E+00
	 0.00000000E+00	 0.00000000E+00	 0.00000000E+00

	 0.00000000E+00	 0.00000000E+00	 0.00000000E+00
	 0.00000000E+00	 0.00000000E+00	 0.00000000E+00
	 0.00000000E+00	 0.00000000E+00	 0.00000000E+00

	 0.00000000E+00	 0.00000000E+00	 0.00000000E+00
	 0.00000000E+00	 0.00000000E+00	 0.00000000E+00
	 0.00000000E+00	 0.00000000E+00	 0.00000000E+00

	 0.00000000E+00	 0.00000000E+00	 0.00000000E+00
	 0.00000000E+00	 0.00000000E+00	 0.00000000E+00
	 0.00000000E+00	 0.00000000E+00	 0.00000000E+00

	 0.00000000E+00	 0.00000000E+00	 0.00000000E+00
	 0.00000000E+00	 0.00000000E+00	 0.00000000E+00
	 0.00000000E+00	 0.00000000E+00	 0.00000000E+00

	 0.00000000E+00	 0.00000000E+00	 0.00000000E+00
	 0.00000000E+00	 0.00000000E+00	 0.00000000E+00
	 0.00000000E+00	 0.00000000E+00	 0.00000000E+00

	 0.00000000E+00	 0.00000000E+00	 0.00000000E+00
	 0.00000000E+00	 0.00000000E+00	 0.00000000E+00
	 0.00000000E+00	 0.00000000E+00	 0.00000000E+00

	 0.00000000E+00	 0.00000000E+00	 0.00000000E+00
	 0.00000000E+00	 0.00000000E+00	 0.00000000E+00
	 0.00000000E+00	 0.00000000E+00	 0.00000000E+00

	 0.00000000E+00	 0.00000000E+00	 0.00000000E+00
	 0.00000000E+00	 0.00000000E+00	 0.00000000E+00
	 0.00000000E+00	 0.00000000E+00	 0.00000000E+00

	 0.00000000E+00	 0.00000000E+00	 0.00000000E+00
	 0.00000000E+00	 0.00000000E+00	 0.00000000E+00
	 0.00000000E+00	 0.00000000E+00	 0.00000000E+00

	 0.00000000E+00	 0.00000000E+00	 0.00000000E+00
	 0.00000000E+00	 0.00000000E+00	 0.00000000E+00
	 0.00000000E+00	 0.00000000E+00	 0.00000000E+00

	 0.00000000E+00	 0.00000000E+00	 0.00000000E+00
	 0.00000000E+00	 0.00000000E+00	 0.00000000E+00
	 0.00000000E+00	 0.00000000E+00	 0.00000000E+00

	 0.00000000E+00	 0.00000000E+00	 0.00000000E+00
	 0.00000000E+00	 0.00000000E+00	 0.00000000E+00
	 0.00000000E+00	 0.00000000E+00	 0.00000000E+00

	 0.00000000E+00	 0.00000000E+00	 0.00000000E+00
	 0.00000000E+00	 0.00000000E+00	 0.00000000E+00
	 0.00000000E+00	 0.00000000E+00	 0.00000000E+00

	 0.00000000E+00	 0.00000000E+00	 0.00000000E+00
	 0.00000000E+00	 0.00000000E+00	 0.00000000E+00
	 0.00000000E+00	 0.00000000E+00	 0.00000000E+00

	 0.00000000E+00	 0.00000000E+00	 0.00000000E+00
	 0.00000000E+00	 0.00000000E+00	 0.00000000E+00
	 0.00000000E+00	 0.00000000E+00	 0.00000000E+00

	 0.00000000E+00	 0.00000000E+00	 0.00000000E+00
	 0.00000000E+00	 0.00000000E+00	 0.00000000E+00
	 0.00000000E+00	 0.00000000E+00	 0.00000000E+00

	 0.00000000E+00	 0.00000000E+00	 0.00000000E+00
	 0.00000000E+00	 0.00000000E+00	 0.00000000E+00
	 0.00000000E+00	 0.00000000E+00	 0.00000000E+00

	 0.00000000E+00	 0.00000000E+00	 0.00000000E+00
	 0.00000000E+00	 0.00000000E+00	 0.00000000E+00
	 0.00000000E+00	 0.00000000E+00	 0.00000000E+00

	 0.00000000E+00	 0.00000000E+00	 0.00000000E+00
	 0.00000000E+00	 0.00000000E+00	 0.00000000E+00
	 0.00000000E+00	 0.00000000E+00	 0.00000000E+00

	 0.00000000E+00	 0.00000000E+00	 0.00000000E+00
	 0.00000000E+00	 0.00000000E+00	 0.00000000E+00
	 0.00000000E+00	 0.00000000E+00	 0.00000000E+00

	 0.00000000E+00	 0.00000000E+00	 0.00000000E+00
	 0.00000000E+00	 0.00000000E+00	 0.00000000E+00
	 0.00000000E+00	 0.00000000E+00	 0.00000000E+00

	 0.00000000E+00	 0.00000000E+00	 0.00000000E+00
	 0.00000000E+00	 0.00000000E+00	 0.00000000E+00
	 0.00000000E+00	 0.00000000E+00	 0.00000000E+00

	 0.00000000E+00	 0.00000000E+00	 0.00000000E+00
	 0.00000000E+00	 0.00000000E+00	 0.00000000E+00
	 0.00000000E+00	 0.00000000E+00	 0.00000000E+00

	 0.00000000E+00	 0.00000000E+00	 0.00000000E+00
	 0.00000000E+00	 0.00000000E+00	 0.00000000E+00
	 0.00000000E+00	 0.00000000E+00	 0.00000000E+00

	 0.00000000E+00	 0.00000000E+00	 0.00000000E+00
	 0.00000000E+00	 0.00000000E+00	 0.00000000E+00
	 0.00000000E+00	 0.00000000E+00	 0.00000000E+00

	 0.00000000E+00	 0.00000000E+00	 0.00000000E+00
	 0.00000000E+00	 0.00000000E+00	 0.00000000E+00
	 0.00000000E+00	 0.00000000E+00	 0.00000000E+00

	 0.00000000E+00	 0.00000000E+00	 0.00000000E+00
	 0.00000000E+00	 0.00000000E+00	 0.00000000E+00
	 0.00000000E+00	 0.00000000E+00	 0.00000000E+00

	 0.00000000E+00	 0.00000000E+00	 0.00000000E+00
	 0.00000000E+00	 0.00000000E+00	 0.00000000E+00
	 0.00000000E+00	 0.00000000E+00	 0.00000000E+00

	 0.00000000E+00	 0.00000000E+00	 0.00000000E+00
	 0.00000000E+00	 0.00000000E+00	 0.00000000E+00
	 0.00000000E+00	 0.00000000E+00	 0.00000000E+00

	 0.00000000E+00	 0.00000000E+00	 0.00000000E+00
	 0.00000000E+00	 0.00000000E+00	 0.00000000E+00
	 0.00000000E+00	 0.00000000E+00	 0.00000000E+00

	 0.00000000E+00	 0.00000000E+00	 0.00000000E+00
	 0.00000000E+00	 0.00000000E+00	 0.00000000E+00
	 0.00000000E+00	 0.00000000E+00	 0.00000000E+00

	 0.00000000E+00	 0.00000000E+00	 0.00000000E+00
	 0.00000000E+00	 0.00000000E+00	 0.00000000E+00
	 0.00000000E+00	 0.00000000E+00	 0.00000000E+00

	 0.00000000E+00	 0.00000000E+00	 0.00000000E+00
	 0.00000000E+00	 0.00000000E+00	 0.00000000E+00
	 0.00000000E+00	 0.00000000E+00	 0.00000000E+00

	 0.00000000E+00	 0.00000000E+00	 0.00000000E+00
	 0.00000000E+00	 0.00000000E+00	 0.00000000E+00
	 0.00000000E+00	 0.00000000E+00	 0.00000000E+00

	 0.00000000E+00	 0.00000000E+00	 0.00000000E+00
	 0.00000000E+00	 0.00000000E+00	 0.00000000E+00
	 0.00000000E+00	 0.00000000E+00	 0.00000000E+00

	 0.00000000E+00	 0.00000000E+00	 0.00000000E+00
	 0.00000000E+00	 0.00000000E+00	 0.00000000E+00
	 0.00000000E+00	 0.00000000E+00	 0.00000000E+00

	 0.00000000E+00	 0.00000000E+00	 0.00000000E+00
	 0.00000000E+00	 0.00000000E+00	 0.00000000E+00
	 0.00000000E+00	 0.00000000E+00	 0.00000000E+00

	 0.00000000E+00	 0.00000000E+00	 0.00000000E+00
	 0.00000000E+00	 0.00000000E+00	 0.00000000E+00
	 0.00000000E+00	 0.00000000E+00	 0.00000000E+00

	 0.00000000E+00	 0.00000000E+00	 0.00000000E+00
	 0.00000000E+00	 0.00000000E+00	 0.00000000E+00
	 0.00000000E+00	 0.00000000E+00	 0.00000000E+00

	 0.00000000E+00	 0.00000000E+00	 0.00000000E+00
	 0.00000000E+00	 0.00000000E+00	 0.00000000E+00
	 0.00000000E+00	 0.00000000E+00	 0.00000000E+00

	 0.00000000E+00	 0.00000000E+00	 0.00000000E+00
	 0.00000000E+00	 0.00000000E+00	 0.00000000E+00
	 0.00000000E+00	 0.00000000E+00	 0.00000000E+00

	 0.00000000E+00	 0.00000000E+00	 0.00000000E+00
	 0.00000000E+00	 0.00000000E+00	 0.00000000E+00
	 0.00000000E+00	 0.00000000E+00	 0.00000000E+00

	 0.00000000E+00	 0.00000000E+00	 0.00000000E+00
	 0.00000000E+00	 0.00000000E+00	 0.00000000E+00
	 0.00000000E+00	 0.00000000E+00	 0.00000000E+00

	 0.00000000E+00	 0.00000000E+00	 0.00000000E+00
	 0.00000000E+00	 0.00000000E+00	 0.00000000E+00
	 0.00000000E+00	 0.00000000E+00	 0.00000000E+00

	 0.00000000E+00	 0.00000000E+00	 0.00000000E+00
	 0.00000000E+00	 0.00000000E+00	 0.00000000E+00
	 0.00000000E+00	 0.00000000E+00	 0.00000000E+00

	 0.00000000E+00	 0.00000000E+00	 0.00000000E+00
	 0.00000000E+00	 0.00000000E+00	 0.00000000E+00
	 0.00000000E+00	 0.00000000E+00	 0.00000000E+00

	 0.00000000E+00	 0.00000000E+00	 0.00000000E+00
	 0.00000000E+00	 0.00000000E+00	 0.00000000E+00
	 0.00000000E+00	 0.00000000E+00	 0.00000000E+00

	 0.00000000E+00	 0.00000000E+00	 0.00000000E+00
	 0.00000000E+00	 0.00000000E+00	 0.00000000E+00
	 0.00000000E+00	 0.00000000E+00	 0.00000000E+00

	 0.00000000E+00	 0.00000000E+00	 0.00000000E+00
	 0.00000000E+00	 0.00000000E+00	 0.00000000E+00
	 0.00000000E+00	 0.00000000E+00	 0.00000000E+00

	 0.00000000E+00	 0.00000000E+00	 0.00000000E+00
	 0.00000000E+00	 0.00000000E+00	 0.00000000E+00
	 0.00000000E+00	 0.00000000E+00	 0.00000000E+00

	 0.00000000E+00	 0.00000000E+00	 0.00000000E+00
	 0.00000000E+00	 0.00000000E+00	 0.00000000E+00
	 0.00000000E+00	 0.00000000E+00	 0.00000000E+00

	 0.00000000E+00	 0.00000000E+00	 0.00000000E+00
	 0.00000000E+00	 0.00000000E+00	 0.00000000E+00
	 0.00000000E+00	 0.00000000E+00	 0.00000000E+00

	 0.00000000E+00	 0.00000000E+00	 0.00000000E+00
	 0.00000000E+00	 0.00000000E+00	 0.00000000E+00
	 0.00000000E+00	 0.00000000E+00	 0.00000000E+00

	 0.00000000E+00	 0.00000000E+00	 0.00000000E+00
	 0.00000000E+00	 0.00000000E+00	 0.00000000E+00
	 0.00000000E+00	 0.00000000E+00	 0.00000000E+00

	 0.00000000E+00	 0.00000000E+00	 0.00000000E+00
	 0.00000000E+00	 0.00000000E+00	 0.00000000E+00
	 0.00000000E+00	 0.00000000E+00	 0.00000000E+00

	 0.00000000E+00	 0.00000000E+00	 0.00000000E+00
	 0.00000000E+00	 0.00000000E+00	 0.00000000E+00
	 0.00000000E+00	 0.00000000E+00	 0.00000000E+00

	 0.00000000E+00	 0.00000000E+00	 0.00000000E+00
	 0.00000000E+00	 0.00000000E+00	 0.00000000E+00
	 0.00000000E+00	 0.00000000E+00	 0.00000000E+00

	 0.00000000E+00	 0.00000000E+00	 0.00000000E+00
	 0.00000000E+00	 0.00000000E+00	 0.00000000E+00
	 0.00000000E+00	 0.00000000E+00	 0.00000000E+00

	 0.00000000E+00	 0.00000000E+00	 0.00000000E+00
	 0.00000000E+00	 0.00000000E+00	 0.00000000E+00
	 0.00000000E+00	 0.00000000E+00	 0.00000000E+00

	 0.00000000E+00	 0.00000000E+00	 0.00000000E+00
	 0.00000000E+00	 0.00000000E+00	 0.00000000E+00
	 0.00000000E+00	 0.00000000E+00	 0.00000000E+00

	 0.00000000E+00	 0.00000000E+00	 0.00000000E+00
	 0.00000000E+00	 0.00000000E+00	 0.00000000E+00
	 0.00000000E+00	 0.00000000E+00	 0.00000000E+00

	 0.00000000E+00	 0.00000000E+00	 0.00000000E+00
	 0.00000000E+00	 0.00000000E+00	 0.00000000E+00
	 0.00000000E+00	 0.00000000E+00	 0.00000000E+00

	 0.00000000E+00	 0.00000000E+00	 0.00000000E+00
	 0.00000000E+00	 0.00000000E+00	 0.00000000E+00
	 0.00000000E+00	 0.00000000E+00	 0.00000000E+00

	 0.00000000E+00	 0.00000000E+00	 0.00000000E+00
	 0.00000000E+00	 0.00000000E+00	 0.00000000E+00
	 0.00000000E+00	 0.00000000E+00	 0.00000000E+00

	 0.00000000E+00	 0.00000000E+00	 0.00000000E+00
	 0.00000000E+00	 0.00000000E+00	 0.00000000E+00
	 0.00000000E+00	 0.00000000E+00	 0.00000000E+00

	 0.00000000E+00	 0.00000000E+00	 0.00000000E+00
	 0.00000000E+00	 0.00000000E+00	 0.00000000E+00
	 0.00000000E+00	 0.00000000E+00	 0.00000000E+00

	 0.00000000E+00	 0.00000000E+00	 0.00000000E+00
	 0.00000000E+00	 0.00000000E+00	 0.00000000E+00
	 0.00000000E+00	 0.00000000E+00	 0.00000000E+00

	 0.00000000E+00	 0.00000000E+00	 0.00000000E+00
	 0.00000000E+00	 0.00000000E+00	 0.00000000E+00
	 0.00000000E+00	 0.00000000E+00	 0.00000000E+00

	 0.00000000E+00	 0.00000000E+00	 0.00000000E+00
	 0.00000000E+00	 0.00000000E+00	 0.00000000E+00
	 0.00000000E+00	 0.00000000E+00	 0.00000000E+00

	 0.00000000E+00	 0.00000000E+00	 0.00000000E+00
	 0.00000000E+00	 0.00000000E+00	 0.00000000E+00
	 0.00000000E+00	 0.00000000E+00	 0.00000000E+00

	 0.00000000E+00	 0.00000000E+00	 0.00000000E+00
	 0.00000000E+00	 0.00000000E+00	 0.00000000E+00
	 0.00000000E+00	 0.00000000E+00	 0.00000000E+00

	 0.00000000E+00	 0.00000000E+00	 0.00000000E+00
	 0.00000000E+00	 0.00000000E+00	 0.00000000E+00
	 0.00000000E+00	 0.00000000E+00	 0.00000000E+00

	 0.00000000E+00	 0.00000000E+00	 0.00000000E+00
	 0.00000000E+00	 0.00000000E+00	 0.00000000E+00
	 0.00000000E+00	 0.00000000E+00	 0.00000000E+00

	 0.00000000E+00	 0.00000000E+00	 0.00000000E+00
	 0.00000000E+00	 0.00000000E+00	 0.00000000E+00
	 0.00000000E+00	 0.00000000E+00	 0.00000000E+00

	 0.00000000E+00	 0.00000000E+00	 0.00000000E+00
	 0.00000000E+00	 0.00000000E+00	 0.00000000E+00
	 0.00000000E+00	 0.00000000E+00	 0.00000000E+00

	 0.00000000E+00	 0.00000000E+00	 0.00000000E+00
	 0.00000000E+00	 0.00000000E+00	 0.00000000E+00
	 0.00000000E+00	 0.00000000E+00	 0.00000000E+00

	 0.00000000E+00	 0.00000000E+00	 0.00000000E+00
	 0.00000000E+00	 0.00000000E+00	 0.00000000E+00
	 0.00000000E+00	 0.00000000E+00	 0.00000000E+00

	 0.00000000E+00	 0.00000000E+00	 0.00000000E+00
	 0.00000000E+00	 0.00000000E+00	 0.00000000E+00
	 0.00000000E+00	 0.00000000E+00	 0.00000000E+00

	 0.00000000E+00	 0.00000000E+00	 0.00000000E+00
	 0.00000000E+00	 0.00000000E+00	 0.00000000E+00
	 0.00000000E+00	 0.00000000E+00	 0.00000000E+00

	 0.00000000E+00	 0.00000000E+00	 0.00000000E+00
	 0.00000000E+00	 0.00000000E+00	 0.00000000E+00
	 0.00000000E+00	 0.00000000E+00	 0.00000000E+00

	 0.00000000E+00	 0.00000000E+00	 0.00000000E+00
	 0.00000000E+00	 0.00000000E+00	 0.00000000E+00
	 0.00000000E+00	 0.00000000E+00	 0.00000000E+00

	 0.00000000E+00	 0.00000000E+00	 0.00000000E+00
	 0.00000000E+00	 0.00000000E+00	 0.00000000E+00
	 0.00000000E+00	 0.00000000E+00	 0.00000000E+00

	 0.00000000E+00	 0.00000000E+00	 0.00000000E+00
	 0.00000000E+00	 0.00000000E+00	 0.00000000E+00
	 0.00000000E+00	 0.00000000E+00	 0.00000000E+00

	 0.00000000E+00	 0.00000000E+00	 0.00000000E+00
	 0.00000000E+00	 0.00000000E+00	 0.00000000E+00
	 0.00000000E+00	 0.00000000E+00	 0.00000000E+00

	 0.00000000E+00	 0.00000000E+00	 0.00000000E+00
	 0.00000000E+00	 0.00000000E+00	 0.00000000E+00
	 0.00000000E+00	 0.00000000E+00	 0.00000000E+00

	 0.00000000E+00	 0.00000000E+00	 0.00000000E+00
	 0.00000000E+00	 0.00000000E+00	 0.00000000E+00
	 0.00000000E+00	 0.00000000E+00	 0.00000000E+00

	 0.00000000E+00	 0.00000000E+00	 0.00000000E+00
	 0.00000000E+00	 0.00000000E+00	 0.00000000E+00
	 0.00000000E+00	 0.00000000E+00	 0.00000000E+00

	 0.00000000E+00	 0.00000000E+00	 0.00000000E+00
	 0.00000000E+00	 0.00000000E+00	 0.00000000E+00
	 0.00000000E+00	 0.00000000E+00	 0.00000000E+00

	 0.00000000E+00	 0.00000000E+00	 0.00000000E+00
	 0.00000000E+00	 0.00000000E+00	 0.00000000E+00
	 0.00000000E+00	 0.00000000E+00	 0.00000000E+00

	 0.00000000E+00	 0.00000000E+00	 0.00000000E+00
	 0.00000000E+00	 0.00000000E+00	 0.00000000E+00
	 0.00000000E+00	 0.00000000E+00	 0.00000000E+00

	 0.00000000E+00	 0.00000000E+00	 0.00000000E+00
	 0.00000000E+00	 0.00000000E+00	 0.00000000E+00
	 0.00000000E+00	 0.00000000E+00	 0.00000000E+00

	 0.00000000E+00	 0.00000000E+00	 0.00000000E+00
	 0.00000000E+00	 0.00000000E+00	 0.00000000E+00
	 0.00000000E+00	 0.00000000E+00	 0.00000000E+00

	 0.00000000E+00	 0.00000000E+00	 0.00000000E+00
	 0.00000000E+00	 0.00000000E+00	 0.00000000E+00
	 0.00000000E+00	 0.00000000E+00	 0.00000000E+00

	 0.00000000E+00	 0.00000000E+00	 0.00000000E+00
	 0.00000000E+00	 0.00000000E+00	 0.00000000E+00
	 0.00000000E+00	 0.00000000E+00	 0.00000000E+00

	 0.00000000E+00	 0.00000000E+00	 0.00000000E+00
	 0.00000000E+00	 0.00000000E+00	 0.00000000E+00
	 0.00000000E+00	 0.00000000E+00	 0.00000000E+00

	 0.00000000E+00	 0.00000000E+00	 0.00000000E+00
	 0.00000000E+00	 0.00000000E+00	 0.00000000E+00
	 0.00000000E+00	 0.00000000E+00	 0.00000000E+00

	 0.00000000E+00	 0.00000000E+00	 0.00000000E+00
	 0.00000000E+00	 0.00000000E+00	 0.00000000E+00
	 0.00000000E+00	 0.00000000E+00	 0.00000000E+00

	 0.00000000E+00	 0.00000000E+00	 0.00000000E+00
	 0.00000000E+00	 0.00000000E+00	 0.00000000E+00
	 0.00000000E+00	 0.00000000E+00	 0.00000000E+00

	 0.00000000E+00	 0.00000000E+00	 0.00000000E+00
	 0.00000000E+00	 0.00000000E+00	 0.00000000E+00
	 0.00000000E+00	 0.00000000E+00	 0.00000000E+00

	 0.00000000E+00	 0.00000000E+00	 0.00000000E+00
	 0.00000000E+00	 0.00000000E+00	 0.00000000E+00
	 0.00000000E+00	 0.00000000E+00	 0.00000000E+00

	 0.00000000E+00	 0.00000000E+00	 0.00000000E+00
	 0.00000000E+00	 0.00000000E+00	 0.00000000E+00
	 0.00000000E+00	 0.00000000E+00	 0.00000000E+00

	 0.00000000E+00	 0.00000000E+00	 0.00000000E+00
	 0.00000000E+00	 0.00000000E+00	 0.00000000E+00
	 0.00000000E+00	 0.00000000E+00	 0.00000000E+00

	 0.00000000E+00	 0.00000000E+00	 0.00000000E+00
	 0.00000000E+00	 0.00000000E+00	 0.00000000E+00
	 0.00000000E+00	 0.00000000E+00	 0.00000000E+00

	 0.00000000E+00	 0.00000000E+00	 0.00000000E+00
	 0.00000000E+00	 0.00000000E+00	 0.00000000E+00
	 0.00000000E+00	 0.00000000E+00	 0.00000000E+00

	 0.00000000E+00	 0.00000000E+00	 0.00000000E+00
	 0.00000000E+00	 0.00000000E+00	 0.00000000E+00
	 0.00000000E+00	 0.00000000E+00	 0.00000000E+00

	 0.00000000E+00	 0.00000000E+00	 0.00000000E+00
	 0.00000000E+00	 0.00000000E+00	 0.00000000E+00
	 0.00000000E+00	 0.00000000E+00	 0.00000000E+00

	 0.00000000E+00	 0.00000000E+00	 0.00000000E+00
	 0.00000000E+00	 0.00000000E+00	 0.00000000E+00
	 0.00000000E+00	 0.00000000E+00	 0.00000000E+00

	 0.00000000E+00	 0.00000000E+00	 0.00000000E+00
	 0.00000000E+00	 0.00000000E+00	 0.00000000E+00
	 0.00000000E+00	 0.00000000E+00	 0.00000000E+00

	 0.00000000E+00	 0.00000000E+00	 0.00000000E+00
	 0.00000000E+00	 0.00000000E+00	 0.00000000E+00
	 0.00000000E+00	 0.00000000E+00	 0.00000000E+00

	 0.00000000E+00	 0.00000000E+00	 0.00000000E+00
	 0.00000000E+00	 0.00000000E+00	 0.00000000E+00
	 0.00000000E+00	 0.00000000E+00	 0.00000000E+00

	 0.00000000E+00	 0.00000000E+00	 0.00000000E+00
	 0.00000000E+00	 0.00000000E+00	 0.00000000E+00
	 0.00000000E+00	 0.00000000E+00	 0.00000000E+00

	 0.00000000E+00	 0.00000000E+00	 0.00000000E+00
	 0.00000000E+00	 0.00000000E+00	 0.00000000E+00
	 0.00000000E+00	 0.00000000E+00	 0.00000000E+00

	 0.00000000E+00	 0.00000000E+00	 0.00000000E+00
	 0.00000000E+00	 0.00000000E+00	 0.00000000E+00
	 0.00000000E+00	 0.00000000E+00	 0.00000000E+00

	 0.00000000E+00	 0.00000000E+00	 0.00000000E+00
	 0.00000000E+00	 0.00000000E+00	 0.00000000E+00
	 0.00000000E+00	 0.00000000E+00	 0.00000000E+00

	 0.00000000E+00	 0.00000000E+00	 0.00000000E+00
	 0.00000000E+00	 0.00000000E+00	 0.00000000E+00
	 0.00000000E+00	 0.00000000E+00	 0.00000000E+00

	 0.00000000E+00	 0.00000000E+00	 0.00000000E+00
	 0.00000000E+00	 0.00000000E+00	 0.00000000E+00
	 0.00000000E+00	 0.00000000E+00	 0.00000000E+00

	 0.00000000E+00	 0.00000000E+00	 0.00000000E+00
	 0.00000000E+00	 0.00000000E+00	 0.00000000E+00
	 0.00000000E+00	 0.00000000E+00	 0.00000000E+00

	 0.00000000E+00	 0.00000000E+00	 0.00000000E+00
	 0.00000000E+00	 0.00000000E+00	 0.00000000E+00
	 0.00000000E+00	 0.00000000E+00	 0.00000000E+00

	 0.00000000E+00	 0.00000000E+00	 0.00000000E+00
	 0.00000000E+00	 0.00000000E+00	 0.00000000E+00
	 0.00000000E+00	 0.00000000E+00	 0.00000000E+00

	 0.00000000E+00	 0.00000000E+00	 0.00000000E+00
	 0.00000000E+00	 0.00000000E+00	 0.00000000E+00
	 0.00000000E+00	 0.00000000E+00	 0.00000000E+00

	 0.00000000E+00	 0.00000000E+00	 0.00000000E+00
	 0.00000000E+00	 0.00000000E+00	 0.00000000E+00
	 0.00000000E+00	 0.00000000E+00	 0.00000000E+00

	 0.00000000E+00	 0.00000000E+00	 0.00000000E+00
	 0.00000000E+00	 0.00000000E+00	 0.00000000E+00
	 0.00000000E+00	 0.00000000E+00	 0.00000000E+00

	 0.00000000E+00	 0.00000000E+00	 0.00000000E+00
	 0.00000000E+00	 0.00000000E+00	 0.00000000E+00
	 0.00000000E+00	 0.00000000E+00	 0.00000000E+00

	 0.00000000E+00	 0.00000000E+00	 0.00000000E+00
	 0.00000000E+00	 0.00000000E+00	 0.00000000E+00
	 0.00000000E+00	 0.00000000E+00	 0.00000000E+00

	 0.00000000E+00	 0.00000000E+00	 0.00000000E+00
	 0.00000000E+00	 0.00000000E+00	 0.00000000E+00
	 0.00000000E+00	 0.00000000E+00	 0.00000000E+00

	 0.00000000E+00	 0.00000000E+00	 0.00000000E+00
	 0.00000000E+00	 0.00000000E+00	 0.00000000E+00
	 0.00000000E+00	 0.00000000E+00	 0.00000000E+00

	 0.00000000E+00	 0.00000000E+00	 0.00000000E+00
	 0.00000000E+00	 0.00000000E+00	 0.00000000E+00
	 0.00000000E+00	 0.00000000E+00	 0.00000000E+00

	 0.00000000E+00	 0.00000000E+00	 0.00000000E+00
	 0.00000000E+00	 0.00000000E+00	 0.00000000E+00
	 0.00000000E+00	 0.00000000E+00	 0.00000000E+00

	 0.00000000E+00	 0.00000000E+00	 0.00000000E+00
	 0.00000000E+00	 0.00000000E+00	 0.00000000E+00
	 0.00000000E+00	 0.00000000E+00	 0.00000000E+00

	 0.00000000E+00	 0.00000000E+00	 0.00000000E+00
	 0.00000000E+00	 0.00000000E+00	 0.00000000E+00
	 0.00000000E+00	 0.00000000E+00	 0.00000000E+00

	 0.00000000E+00	 0.00000000E+00	 0.00000000E+00
	 0.00000000E+00	 0.00000000E+00	 0.00000000E+00
	 0.00000000E+00	 0.00000000E+00	 0.00000000E+00

	 0.00000000E+00	 0.00000000E+00	 0.00000000E+00
	 0.00000000E+00	 0.00000000E+00	 0.00000000E+00
	 0.00000000E+00	 0.00000000E+00	 0.00000000E+00

	 0.00000000E+00	 0.00000000E+00	 0.00000000E+00
	 0.00000000E+00	 0.00000000E+00	 0.00000000E+00
	 0.00000000E+00	 0.00000000E+00	 0.00000000E+00

	 0.00000000E+00	 0.00000000E+00	 0.00000000E+00
	 0.00000000E+00	 0.00000000E+00	 0.00000000E+00
	 0.00000000E+00	 0.00000000E+00	 0.00000000E+00

	 0.00000000E+00	 0.00000000E+00	 0.00000000E+00
	 0.00000000E+00	 0.00000000E+00	 0.00000000E+00
	 0.00000000E+00	 0.00000000E+00	 0.00000000E+00

	 0.00000000E+00	 0.00000000E+00	 0.00000000E+00
	 0.00000000E+00	 0.00000000E+00	 0.00000000E+00
	 0.00000000E+00	 0.00000000E+00	 0.00000000E+00

	 0.00000000E+00	 0.00000000E+00	 0.00000000E+00
	 0.00000000E+00	 0.00000000E+00	 0.00000000E+00
	 0.00000000E+00	 0.00000000E+00	 0.00000000E+00

	 0.00000000E+00	 0.00000000E+00	 0.00000000E+00
	 0.00000000E+00	 0.00000000E+00	 0.00000000E+00
	 0.00000000E+00	 0.00000000E+00	 0.00000000E+00

	 0.00000000E+00	 0.00000000E+00	 0.00000000E+00
	 0.00000000E+00	 0.00000000E+00	 0.00000000E+00
	 0.00000000E+00	 0.00000000E+00	 0.00000000E+00

	 0.00000000E+00	 0.00000000E+00	 0.00000000E+00
	 0.00000000E+00	 0.00000000E+00	 0.00000000E+00
	 0.00000000E+00	 0.00000000E+00	 0.00000000E+00

	 0.00000000E+00	 0.00000000E+00	 0.00000000E+00
	 0.00000000E+00	 0.00000000E+00	 0.00000000E+00
	 0.00000000E+00	 0.00000000E+00	 0.00000000E+00

	 0.00000000E+00	 0.00000000E+00	 0.00000000E+00
	 0.00000000E+00	 0.00000000E+00	 0.00000000E+00
	 0.00000000E+00	 0.00000000E+00	 0.00000000E+00

	 0.00000000E+00	 0.00000000E+00	 0.00000000E+00
	 0.00000000E+00	 0.00000000E+00	 0.00000000E+00
	 0.00000000E+00	 0.00000000E+00	 0.00000000E+00

	 0.00000000E+00	 0.00000000E+00	 0.00000000E+00
	 0.00000000E+00	 0.00000000E+00	 0.00000000E+00
	 0.00000000E+00	 0.00000000E+00	 0.00000000E+00

	 0.00000000E+00	 0.00000000E+00	 0.00000000E+00
	 0.00000000E+00	 0.00000000E+00	 0.00000000E+00
	 0.00000000E+00	 0.00000000E+00	 0.00000000E+00

	 0.00000000E+00	 0.00000000E+00	 0.00000000E+00
	 0.00000000E+00	 0.00000000E+00	 0.00000000E+00
	 0.00000000E+00	 0.00000000E+00	 0.00000000E+00

	 0.00000000E+00	 0.00000000E+00	 0.00000000E+00
	 0.00000000E+00	 0.00000000E+00	 0.00000000E+00
	 0.00000000E+00	 0.00000000E+00	 0.00000000E+00

	 0.00000000E+00	 0.00000000E+00	 0.00000000E+00
	 0.00000000E+00	 0.00000000E+00	 0.00000000E+00
	 0.00000000E+00	 0.00000000E+00	 0.00000000E+00

	 0.00000000E+00	 0.00000000E+00	 0.00000000E+00
	 0.00000000E+00	 0.00000000E+00	 0.00000000E+00
	 0.00000000E+00	 0.00000000E+00	 0.00000000E+00

	 0.00000000E+00	 0.00000000E+00	 0.00000000E+00
	 0.00000000E+00	 0.00000000E+00	 0.00000000E+00
	 0.00000000E+00	 0.00000000E+00	 0.00000000E+00

	 0.00000000E+00	 0.00000000E+00	 0.00000000E+00
	 0.00000000E+00	 0.00000000E+00	 0.00000000E+00
	 0.00000000E+00	 0.00000000E+00	 0.00000000E+00

	 0.00000000E+00	 0.00000000E+00	 0.00000000E+00
	 0.00000000E+00	 0.00000000E+00	 0.00000000E+00
	 0.00000000E+00	 0.00000000E+00	 0.00000000E+00

	 0.00000000E+00	 0.00000000E+00	 0.00000000E+00
	 0.00000000E+00	 0.00000000E+00	 0.00000000E+00
	 0.00000000E+00	 0.00000000E+00	 0.00000000E+00

	 0.00000000E+00	 0.00000000E+00	 0.00000000E+00
	 0.00000000E+00	 0.00000000E+00	 0.00000000E+00
	 0.00000000E+00	 0.00000000E+00	 0.00000000E+00

	 0.00000000E+00	 0.00000000E+00	 0.00000000E+00
	 0.00000000E+00	 0.00000000E+00	 0.00000000E+00
	 0.00000000E+00	 0.00000000E+00	 0.00000000E+00

	 0.00000000E+00	 0.00000000E+00	 0.00000000E+00
	 0.00000000E+00	 0.00000000E+00	 0.00000000E+00
	 0.00000000E+00	 0.00000000E+00	 0.00000000E+00

	 0.00000000E+00	 0.00000000E+00	 0.00000000E+00
	 0.00000000E+00	 0.00000000E+00	 0.00000000E+00
	 0.00000000E+00	 0.00000000E+00	 0.00000000E+00

	 0.00000000E+00	 0.00000000E+00	 0.00000000E+00
	 0.00000000E+00	 0.00000000E+00	 0.00000000E+00
	 0.00000000E+00	 0.00000000E+00	 0.00000000E+00

	 0.00000000E+00	 0.00000000E+00	 0.00000000E+00
	 0.00000000E+00	 0.00000000E+00	 0.00000000E+00
	 0.00000000E+00	 0.00000000E+00	 0.00000000E+00

	 0.00000000E+00	 0.00000000E+00	 0.00000000E+00
	 0.00000000E+00	 0.00000000E+00	 0.00000000E+00
	 0.00000000E+00	 0.00000000E+00	 0.00000000E+00

	 0.00000000E+00	 0.00000000E+00	 0.00000000E+00
	 0.00000000E+00	 0.00000000E+00	 0.00000000E+00
	 0.00000000E+00	 0.00000000E+00	 0.00000000E+00

	 0.00000000E+00	 0.00000000E+00	 0.00000000E+00
	 0.00000000E+00	 0.00000000E+00	 0.00000000E+00
	 0.00000000E+00	 0.00000000E+00	 0.00000000E+00

	 0.00000000E+00	 0.00000000E+00	 0.00000000E+00
	 0.00000000E+00	 0.00000000E+00	 0.00000000E+00
	 0.00000000E+00	 0.00000000E+00	 0.00000000E+00

	 0.00000000E+00	 0.00000000E+00	 0.00000000E+00
	 0.00000000E+00	 0.00000000E+00	 0.00000000E+00
	 0.00000000E+00	 0.00000000E+00	 0.00000000E+00

	 0.00000000E+00	 0.00000000E+00	 0.00000000E+00
	 0.00000000E+00	 0.00000000E+00	 0.00000000E+00
	 0.00000000E+00	 0.00000000E+00	 0.00000000E+00

	 0.00000000E+00	 0.00000000E+00	 0.00000000E+00
	 0.00000000E+00	 0.00000000E+00	 0.00000000E+00
	 0.00000000E+00	 0.00000000E+00	 0.00000000E+00

	 0.00000000E+00	 0.00000000E+00	 0.00000000E+00
	 0.00000000E+00	 0.00000000E+00	 0.00000000E+00
	 0.00000000E+00	 0.00000000E+00	 0.00000000E+00

	 0.00000000E+00	 0.00000000E+00	 0.00000000E+00
	 0.00000000E+00	 0.00000000E+00	 0.00000000E+00
	 0.00000000E+00	 0.00000000E+00	 0.00000000E+00

	 0.00000000E+00	 0.00000000E+00	 0.00000000E+00
	 0.00000000E+00	 0.00000000E+00	 0.00000000E+00
	 0.00000000E+00	 0.00000000E+00	 0.00000000E+00

	 0.00000000E+00	 0.00000000E+00	 0.00000000E+00
	 0.00000000E+00	 0.00000000E+00	 0.00000000E+00
	 0.00000000E+00	 0.00000000E+00	 0.00000000E+00

	 0.00000000E+00	 0.00000000E+00	 0.00000000E+00
	 0.00000000E+00	 0.00000000E+00	 0.00000000E+00
	 0.00000000E+00	 0.00000000E+00	 0.00000000E+00

	 0.00000000E+00	 0.00000000E+00	 0.00000000E+00
	 0.00000000E+00	 0.00000000E+00	 0.00000000E+00
	 0.00000000E+00	 0.00000000E+00	 0.00000000E+00

	 0.00000000E+00	 0.00000000E+00	 0.00000000E+00
	 0.00000000E+00	 0.00000000E+00	 0.00000000E+00
	 0.00000000E+00	 0.00000000E+00	 0.00000000E+00

	 0.00000000E+00	 0.00000000E+00	 0.00000000E+00
	 0.00000000E+00	 0.00000000E+00	 0.00000000E+00
	 0.00000000E+00	 0.00000000E+00	 0.00000000E+00

	 0.00000000E+00	 0.00000000E+00	 0.00000000E+00
	 0.00000000E+00	 0.00000000E+00	 0.00000000E+00
	 0.00000000E+00	 0.00000000E+00	 0.00000000E+00

	 0.00000000E+00	 0.00000000E+00	 0.00000000E+00
	 0.00000000E+00	 0.00000000E+00	 0.00000000E+00
	 0.00000000E+00	 0.00000000E+00	 0.00000000E+00

	 0.00000000E+00	 0.00000000E+00	 0.00000000E+00
	 0.00000000E+00	 0.00000000E+00	 0.00000000E+00
	 0.00000000E+00	 0.00000000E+00	 0.00000000E+00

	 0.00000000E+00	 0.00000000E+00	 0.00000000E+00
	 0.00000000E+00	 0.00000000E+00	 0.00000000E+00
	 0.00000000E+00	 0.00000000E+00	 0.00000000E+00

	 0.00000000E+00	 0.00000000E+00	 0.00000000E+00
	 0.00000000E+00	 0.00000000E+00	 0.00000000E+00
	 0.00000000E+00	 0.00000000E+00	 0.00000000E+00

	 0.00000000E+00	 0.00000000E+00	 0.00000000E+00
	 0.00000000E+00	 0.00000000E+00	 0.00000000E+00
	 0.00000000E+00	 0.00000000E+00	 0.00000000E+00

	 0.00000000E+00	 0.00000000E+00	 0.00000000E+00
	 0.00000000E+00	 0.00000000E+00	 0.00000000E+00
	 0.00000000E+00	 0.00000000E+00	 0.00000000E+00

	 0.00000000E+00	 0.00000000E+00	 0.00000000E+00
	 0.00000000E+00	 0.00000000E+00	 0.00000000E+00
	 0.00000000E+00	 0.00000000E+00	 0.00000000E+00

	 0.00000000E+00	 0.00000000E+00	 0.00000000E+00
	 0.00000000E+00	 0.00000000E+00	 0.00000000E+00
	 0.00000000E+00	 0.00000000E+00	 0.00000000E+00

	 0.00000000E+00	 0.00000000E+00	 0.00000000E+00
	 0.00000000E+00	 0.00000000E+00	 0.00000000E+00
	 0.00000000E+00	 0.00000000E+00	 0.00000000E+00

	 0.00000000E+00	 0.00000000E+00	 0.00000000E+00
	 0.00000000E+00	 0.00000000E+00	 0.00000000E+00
	 0.00000000E+00	 0.00000000E+00	 0.00000000E+00

	 0.00000000E+00	 0.00000000E+00	 0.00000000E+00
	 0.00000000E+00	 0.00000000E+00	 0.00000000E+00
	 0.00000000E+00	 0.00000000E+00	 0.00000000E+00

	 0.00000000E+00	 0.00000000E+00	 0.00000000E+00
	 0.00000000E+00	 0.00000000E+00	 0.00000000E+00
	 0.00000000E+00	 0.00000000E+00	 0.00000000E+00

	 0.00000000E+00	 0.00000000E+00	 0.00000000E+00
	 0.00000000E+00	 0.00000000E+00	 0.00000000E+00
	 0.00000000E+00	 0.00000000E+00	 0.00000000E+00

	 0.00000000E+00	 0.00000000E+00	 0.00000000E+00
	 0.00000000E+00	 0.00000000E+00	 0.00000000E+00
	 0.00000000E+00	 0.00000000E+00	 0.00000000E+00

	 0.00000000E+00	 0.00000000E+00	 0.00000000E+00
	 0.00000000E+00	 0.00000000E+00	 0.00000000E+00
	 0.00000000E+00	 0.00000000E+00	 0.00000000E+00

	 0.00000000E+00	 0.00000000E+00	 0.00000000E+00
	 0.00000000E+00	 0.00000000E+00	 0.00000000E+00
	 0.00000000E+00	 0.00000000E+00	 0.00000000E+00

	 0.00000000E+00	 0.00000000E+00	 0.00000000E+00
	 0.00000000E+00	 0.00000000E+00	 0.00000000E+00
	 0.00000000E+00	 0.00000000E+00	 0.00000000E+00

	 0.00000000E+00	 0.00000000E+00	 0.00000000E+00
	 0.00000000E+00	 0.00000000E+00	 0.00000000E+00
	 0.00000000E+00	 0.00000000E+00	 0.00000000E+00

	 0.00000000E+00	 0.00000000E+00	 0.00000000E+00
	 0.00000000E+00	 0.00000000E+00	 0.00000000E+00
	 0.00000000E+00	 0.00000000E+00	 0.00000000E+00

	 0.00000000E+00	 0.00000000E+00	 0.00000000E+00
	 0.00000000E+00	 0.00000000E+00	 0.00000000E+00
	 0.00000000E+00	 0.00000000E+00	 0.00000000E+00

	 0.00000000E+00	 0.00000000E+00	 0.00000000E+00
	 0.00000000E+00	 0.00000000E+00	 0.00000000E+00
	 0.00000000E+00	 0.00000000E+00	 0.00000000E+00

	 0.00000000E+00	 0.00000000E+00	 0.00000000E+00
	 0.00000000E+00	 0.00000000E+00	 0.00000000E+00
	 0.00000000E+00	 0.00000000E+00	 0.00000000E+00

	 0.00000000E+00	 0.00000000E+00	 0.00000000E+00
	 0.00000000E+00	 0.00000000E+00	 0.00000000E+00
	 0.00000000E+00	 0.00000000E+00	 0.00000000E+00

	 0.00000000E+00	 0.00000000E+00	 0.00000000E+00
	 0.00000000E+00	 0.00000000E+00	 0.00000000E+00
	 0.00000000E+00	 0.00000000E+00	 0.00000000E+00

	 0.00000000E+00	 0.00000000E+00	 0.00000000E+00
	 0.00000000E+00	 0.00000000E+00	 0.00000000E+00
	 0.00000000E+00	 0.00000000E+00	 0.00000000E+00

	 0.00000000E+00	 0.00000000E+00	 0.00000000E+00
	 0.00000000E+00	 0.00000000E+00	 0.00000000E+00
	 0.00000000E+00	 0.00000000E+00	 0.00000000E+00

	 0.00000000E+00	 0.00000000E+00	 0.00000000E+00
	 0.00000000E+00	 0.00000000E+00	 0.00000000E+00
	 0.00000000E+00	 0.00000000E+00	 0.00000000E+00

	 0.00000000E+00	 0.00000000E+00	 0.00000000E+00
	 0.00000000E+00	 0.00000000E+00	 0.00000000E+00
	 0.00000000E+00	 0.00000000E+00	 0.00000000E+00

	 0.00000000E+00	 0.00000000E+00	 0.00000000E+00
	 0.00000000E+00	 0.00000000E+00	 0.00000000E+00
	 0.00000000E+00	 0.00000000E+00	 0.00000000E+00

	 0.00000000E+00	 0.00000000E+00	 0.00000000E+00
	 0.00000000E+00	 0.00000000E+00	 0.00000000E+00
	 0.00000000E+00	 0.00000000E+00	 0.00000000E+00

	 0.00000000E+00	 0.00000000E+00	 0.00000000E+00
	 0.00000000E+00	 0.00000000E+00	 0.00000000E+00
	 0.00000000E+00	 0.00000000E+00	 0.00000000E+00

	 0.00000000E+00	 0.00000000E+00	 0.00000000E+00
	 0.00000000E+00	 0.00000000E+00	 0.00000000E+00
	 0.00000000E+00	 0.00000000E+00	 0.00000000E+00

	 0.00000000E+00	 0.00000000E+00	 0.00000000E+00
	 0.00000000E+00	 0.00000000E+00	 0.00000000E+00
	 0.00000000E+00	 0.00000000E+00	 0.00000000E+00

	 0.00000000E+00	 0.00000000E+00	 0.00000000E+00
	 0.00000000E+00	 0.00000000E+00	 0.00000000E+00
	 0.00000000E+00	 0.00000000E+00	 0.00000000E+00

	 0.00000000E+00	 0.00000000E+00	 0.00000000E+00
	 0.00000000E+00	 0.00000000E+00	 0.00000000E+00
	 0.00000000E+00	 0.00000000E+00	 0.00000000E+00

	 0.00000000E+00	 0.00000000E+00	 0.00000000E+00
	 0.00000000E+00	 0.00000000E+00	 0.00000000E+00
	 0.00000000E+00	 0.00000000E+00	 0.00000000E+00

	 0.00000000E+00	 0.00000000E+00	 0.00000000E+00
	 0.00000000E+00	 0.00000000E+00	 0.00000000E+00
	 0.00000000E+00	 0.00000000E+00	 0.00000000E+00

	 0.00000000E+00	 0.00000000E+00	 0.00000000E+00
	 0.00000000E+00	 0.00000000E+00	 0.00000000E+00
	 0.00000000E+00	 0.00000000E+00	 0.00000000E+00

	 0.00000000E+00	 0.00000000E+00	 0.00000000E+00
	 0.00000000E+00	 0.00000000E+00	 0.00000000E+00
	 0.00000000E+00	 0.00000000E+00	 0.00000000E+00

	 0.00000000E+00	 0.00000000E+00	 0.00000000E+00
	 0.00000000E+00	 0.00000000E+00	 0.00000000E+00
	 0.00000000E+00	 0.00000000E+00	 0.00000000E+00

	 0.00000000E+00	 0.00000000E+00	 0.00000000E+00
	 0.00000000E+00	 0.00000000E+00	 0.00000000E+00
	 0.00000000E+00	 0.00000000E+00	 0.00000000E+00

	 0.00000000E+00	 0.00000000E+00	 0.00000000E+00
	 0.00000000E+00	 0.00000000E+00	 0.00000000E+00
	 0.00000000E+00	 0.00000000E+00	 0.00000000E+00

	 0.00000000E+00	 0.00000000E+00	 0.00000000E+00
	 0.00000000E+00	 0.00000000E+00	 0.00000000E+00
	 0.00000000E+00	 0.00000000E+00	 0.00000000E+00

	 0.00000000E+00	 0.00000000E+00	 0.00000000E+00
	 0.00000000E+00	 0.00000000E+00	 0.00000000E+00
	 0.00000000E+00	 0.00000000E+00	 0.00000000E+00

	 0.00000000E+00	 0.00000000E+00	 0.00000000E+00
	 0.00000000E+00	 0.00000000E+00	 0.00000000E+00
	 0.00000000E+00	 0.00000000E+00	 0.00000000E+00

	 0.00000000E+00	 0.00000000E+00	 0.00000000E+00
	 0.00000000E+00	 0.00000000E+00	 0.00000000E+00
	 0.00000000E+00	 0.00000000E+00	 0.00000000E+00

	 0.00000000E+00	 0.00000000E+00	 0.00000000E+00
	 0.00000000E+00	 0.00000000E+00	 0.00000000E+00
	 0.00000000E+00	 0.00000000E+00	 0.00000000E+00

	 0.00000000E+00	 0.00000000E+00	 0.00000000E+00
	 0.00000000E+00	 0.00000000E+00	 0.00000000E+00
	 0.00000000E+00	 0.00000000E+00	 0.00000000E+00

	 0.00000000E+00	 0.00000000E+00	 0.00000000E+00
	 0.00000000E+00	 0.00000000E+00	 0.00000000E+00
	 0.00000000E+00	 0.00000000E+00	 0.00000000E+00

	 0.00000000E+00	 0.00000000E+00	 0.00000000E+00
	 0.00000000E+00	 0.00000000E+00	 0.00000000E+00
	 0.00000000E+00	 0.00000000E+00	 0.00000000E+00

	 0.00000000E+00	 0.00000000E+00	 0.00000000E+00
	 0.00000000E+00	 0.00000000E+00	 0.00000000E+00
	 0.00000000E+00	 0.00000000E+00	 0.00000000E+00

	 0.00000000E+00	 0.00000000E+00	 0.00000000E+00
	 0.00000000E+00	 0.00000000E+00	 0.00000000E+00
	 0.00000000E+00	 0.00000000E+00	 0.00000000E+00

	 0.00000000E+00	 0.00000000E+00	 0.00000000E+00
	 0.00000000E+00	 0.00000000E+00	 0.00000000E+00
	 0.00000000E+00	 0.00000000E+00	 0.00000000E+00

	 0.00000000E+00	 0.00000000E+00	 0.00000000E+00
	 0.00000000E+00	 0.00000000E+00	 0.00000000E+00
	 0.00000000E+00	 0.00000000E+00	 0.00000000E+00

	 0.00000000E+00	 0.00000000E+00	 0.00000000E+00
	 0.00000000E+00	 0.00000000E+00	 0.00000000E+00
	 0.00000000E+00	 0.00000000E+00	 0.00000000E+00

	 0.00000000E+00	 0.00000000E+00	 0.00000000E+00
	 0.00000000E+00	 0.00000000E+00	 0.00000000E+00
	 0.00000000E+00	 0.00000000E+00	 0.00000000E+00

	 0.00000000E+00	 0.00000000E+00	 0.00000000E+00
	 0.00000000E+00	 0.00000000E+00	 0.00000000E+00
	 0.00000000E+00	 0.00000000E+00	 0.00000000E+00

	 0.00000000E+00	 0.00000000E+00	 0.00000000E+00
	 0.00000000E+00	 0.00000000E+00	 0.00000000E+00
	 0.00000000E+00	 0.00000000E+00	 0.00000000E+00

	 0.00000000E+00	 0.00000000E+00	 0.00000000E+00
	 0.00000000E+00	 0.00000000E+00	 0.00000000E+00
	 0.00000000E+00	 0.00000000E+00	 0.00000000E+00

	 0.00000000E+00	 0.00000000E+00	 0.00000000E+00
	 0.00000000E+00	 0.00000000E+00	 0.00000000E+00
	 0.00000000E+00	 0.00000000E+00	 0.00000000E+00

	 0.00000000E+00	 0.00000000E+00	 0.00000000E+00
	 0.00000000E+00	 0.00000000E+00	 0.00000000E+00
	 0.00000000E+00	 0.00000000E+00	 0.00000000E+00

	 0.00000000E+00	 0.00000000E+00	 0.00000000E+00
	 0.00000000E+00	 0.00000000E+00	 0.00000000E+00
	 0.00000000E+00	 0.00000000E+00	 0.00000000E+00

	 0.00000000E+00	 0.00000000E+00	 0.00000000E+00
	 0.00000000E+00	 0.00000000E+00	 0.00000000E+00
	 0.00000000E+00	 0.00000000E+00	 0.00000000E+00

	 0.00000000E+00	 0.00000000E+00	 0.00000000E+00
	 0.00000000E+00	 0.00000000E+00	 0.00000000E+00
	 0.00000000E+00	 0.00000000E+00	 0.00000000E+00

	 0.00000000E+00	 0.00000000E+00	 0.00000000E+00
	 0.00000000E+00	 0.00000000E+00	 0.00000000E+00
	 0.00000000E+00	 0.00000000E+00	 0.00000000E+00

	 0.00000000E+00	 0.00000000E+00	 0.00000000E+00
	 0.00000000E+00	 0.00000000E+00	 0.00000000E+00
	 0.00000000E+00	 0.00000000E+00	 0.00000000E+00

	 0.00000000E+00	 0.00000000E+00	 0.00000000E+00
	 0.00000000E+00	 0.00000000E+00	 0.00000000E+00
	 0.00000000E+00	 0.00000000E+00	 0.00000000E+00

	 0.00000000E+00	 0.00000000E+00	 0.00000000E+00
	 0.00000000E+00	 0.00000000E+00	 0.00000000E+00
	 0.00000000E+00	 0.00000000E+00	 0.00000000E+00

	 0.00000000E+00	 0.00000000E+00	 0.00000000E+00
	 0.00000000E+00	 0.00000000E+00	 0.00000000E+00
	 0.00000000E+00	 0.00000000E+00	 0.00000000E+00

	 0.00000000E+00	 0.00000000E+00	 0.00000000E+00
	 0.00000000E+00	 0.00000000E+00	 0.00000000E+00
	 0.00000000E+00	 0.00000000E+00	 0.00000000E+00

	 0.00000000E+00	 0.00000000E+00	 0.00000000E+00
	 0.00000000E+00	 0.00000000E+00	 0.00000000E+00
	 0.00000000E+00	 0.00000000E+00	 0.00000000E+00

	 0.00000000E+00	 0.00000000E+00	 0.00000000E+00
	 0.00000000E+00	 0.00000000E+00	 0.00000000E+00
	 0.00000000E+00	 0.00000000E+00	 0.00000000E+00

	 0.00000000E+00	 0.00000000E+00	 0.00000000E+00
	 0.00000000E+00	 0.00000000E+00	 0.00000000E+00
	 0.00000000E+00	 0.00000000E+00	 0.00000000E+00

	 0.00000000E+00	 0.00000000E+00	 0.00000000E+00
	 0.00000000E+00	 0.00000000E+00	 0.00000000E+00
	 0.00000000E+00	 0.00000000E+00	 0.00000000E+00

	 0.00000000E+00	 0.00000000E+00	 0.00000000E+00
	 0.00000000E+00	 0.00000000E+00	 0.00000000E+00
	 0.00000000E+00	 0.00000000E+00	 0.00000000E+00

	 0.00000000E+00	 0.00000000E+00	 0.00000000E+00
	 0.00000000E+00	 0.00000000E+00	 0.00000000E+00
	 0.00000000E+00	 0.00000000E+00	 0.00000000E+00

	 0.00000000E+00	 0.00000000E+00	 0.00000000E+00
	 0.00000000E+00	 0.00000000E+00	 0.00000000E+00
	 0.00000000E+00	 0.00000000E+00	 0.00000000E+00

	 0.00000000E+00	 0.00000000E+00	 0.00000000E+00
	 0.00000000E+00	 0.00000000E+00	 0.00000000E+00
	 0.00000000E+00	 0.00000000E+00	 0.00000000E+00

	 0.00000000E+00	 0.00000000E+00	 0.00000000E+00
	 0.00000000E+00	 0.00000000E+00	 0.00000000E+00
	 0.00000000E+00	 0.00000000E+00	 0.00000000E+00

	 0.00000000E+00	 0.00000000E+00	 0.00000000E+00
	 0.00000000E+00	 0.00000000E+00	 0.00000000E+00
	 0.00000000E+00	 0.00000000E+00	 0.00000000E+00

	 0.00000000E+00	 0.00000000E+00	 0.00000000E+00
	 0.00000000E+00	 0.00000000E+00	 0.00000000E+00
	 0.00000000E+00	 0.00000000E+00	 0.00000000E+00

	 0.00000000E+00	 0.00000000E+00	 0.00000000E+00
	 0.00000000E+00	 0.00000000E+00	 0.00000000E+00
	 0.00000000E+00	 0.00000000E+00	 0.00000000E+00

	 0.00000000E+00	 0.00000000E+00	 0.00000000E+00
	 0.00000000E+00	 0.00000000E+00	 0.00000000E+00
	 0.00000000E+00	 0.00000000E+00	 0.00000000E+00

	 0.00000000E+00	 0.00000000E+00	 0.00000000E+00
	 0.00000000E+00	 0.00000000E+00	 0.00000000E+00
	 0.00000000E+00	 0.00000000E+00	 0.00000000E+00

	 0.00000000E+00	 0.00000000E+00	 0.00000000E+00
	 0.00000000E+00	 0.00000000E+00	 0.00000000E+00
	 0.00000000E+00	 0.00000000E+00	 0.00000000E+00

	 0.00000000E+00	 0.00000000E+00	 0.00000000E+00
	 0.00000000E+00	 0.00000000E+00	 0.00000000E+00
	 0.00000000E+00	 0.00000000E+00	 0.00000000E+00

	 0.00000000E+00	 0.00000000E+00	 0.00000000E+00
	 0.00000000E+00	 0.00000000E+00	 0.00000000E+00
	 0.00000000E+00	 0.00000000E+00	 0.00000000E+00

	 0.00000000E+00	 0.00000000E+00	 0.00000000E+00
	 0.00000000E+00	 0.00000000E+00	 0.00000000E+00
	 0.00000000E+00	 0.00000000E+00	 0.00000000E+00

	 0.00000000E+00	 0.00000000E+00	 0.00000000E+00
	 0.00000000E+00	 0.00000000E+00	 0.00000000E+00
	 0.00000000E+00	 0.00000000E+00	 0.00000000E+00

	 0.00000000E+00	 0.00000000E+00	 0.00000000E+00
	 0.00000000E+00	 0.00000000E+00	 0.00000000E+00
	 0.00000000E+00	 0.00000000E+00	 0.00000000E+00

	 0.00000000E+00	 0.00000000E+00	 0.00000000E+00
	 0.00000000E+00	 0.00000000E+00	 0.00000000E+00
	 0.00000000E+00	 0.00000000E+00	 0.00000000E+00

	 0.00000000E+00	 0.00000000E+00	 0.00000000E+00
	 0.00000000E+00	 0.00000000E+00	 0.00000000E+00
	 0.00000000E+00	 0.00000000E+00	 0.00000000E+00

	 0.00000000E+00	 0.00000000E+00	 0.00000000E+00
	 0.00000000E+00	 0.00000000E+00	 0.00000000E+00
	 0.00000000E+00	 0.00000000E+00	 0.00000000E+00

	 0.00000000E+00	 0.00000000E+00	 0.00000000E+00
	 0.00000000E+00	 0.00000000E+00	 0.00000000E+00
	 0.00000000E+00	 0.00000000E+00	 0.00000000E+00

	 0.00000000E+00	 0.00000000E+00	 0.00000000E+00
	 0.00000000E+00	 0.00000000E+00	 0.00000000E+00
	 0.00000000E+00	 0.00000000E+00	 0.00000000E+00

	 0.00000000E+00	 0.00000000E+00	 0.00000000E+00
	 0.00000000E+00	 0.00000000E+00	 0.00000000E+00
	 0.00000000E+00	 0.00000000E+00	 0.00000000E+00

	 0.00000000E+00	 0.00000000E+00	 0.00000000E+00
	 0.00000000E+00	 0.00000000E+00	 0.00000000E+00
	 0.00000000E+00	 0.00000000E+00	 0.00000000E+00

	 0.00000000E+00	 0.00000000E+00	 0.00000000E+00
	 0.00000000E+00	 0.00000000E+00	 0.00000000E+00
	 0.00000000E+00	 0.00000000E+00	 0.00000000E+00

	 0.00000000E+00	 0.00000000E+00	 0.00000000E+00
	 0.00000000E+00	 0.00000000E+00	 0.00000000E+00
	 0.00000000E+00	 0.00000000E+00	 0.00000000E+00

	 0.00000000E+00	 0.00000000E+00	 0.00000000E+00
	 0.00000000E+00	 0.00000000E+00	 0.00000000E+00
	 0.00000000E+00	 0.00000000E+00	 0.00000000E+00

	 0.00000000E+00	 0.00000000E+00	 0.00000000E+00
	 0.00000000E+00	 0.00000000E+00	 0.00000000E+00
	 0.00000000E+00	 0.00000000E+00	 0.00000000E+00

	 0.00000000E+00	 0.00000000E+00	 0.00000000E+00
	 0.00000000E+00	 0.00000000E+00	 0.00000000E+00
	 0.00000000E+00	 0.00000000E+00	 0.00000000E+00

	 0.00000000E+00	 0.00000000E+00	 0.00000000E+00
	 0.00000000E+00	 0.00000000E+00	 0.00000000E+00
	 0.00000000E+00	 0.00000000E+00	 0.00000000E+00

	 0.00000000E+00	 0.00000000E+00	 0.00000000E+00
	 0.00000000E+00	 0.00000000E+00	 0.00000000E+00
	 0.00000000E+00	 0.00000000E+00	 0.00000000E+00

	 0.00000000E+00	 0.00000000E+00	 0.00000000E+00
	 0.00000000E+00	 0.00000000E+00	 0.00000000E+00
	 0.00000000E+00	 0.00000000E+00	 0.00000000E+00

	 0.00000000E+00	 0.00000000E+00	 0.00000000E+00
	 0.00000000E+00	 0.00000000E+00	 0.00000000E+00
	 0.00000000E+00	 0.00000000E+00	 0.00000000E+00

	 0.00000000E+00	 0.00000000E+00	 0.00000000E+00
	 0.00000000E+00	 0.00000000E+00	 0.00000000E+00
	 0.00000000E+00	 0.00000000E+00	 0.00000000E+00

	 0.00000000E+00	 0.00000000E+00	 0.00000000E+00
	 0.00000000E+00	 0.00000000E+00	 0.00000000E+00
	 0.00000000E+00	 0.00000000E+00	 0.00000000E+00

	 0.00000000E+00	 0.00000000E+00	 0.00000000E+00
	 0.00000000E+00	 0.00000000E+00	 0.00000000E+00
	 0.00000000E+00	 0.00000000E+00	 0.00000000E+00

	 0.00000000E+00	 0.00000000E+00	 0.00000000E+00
	 0.00000000E+00	 0.00000000E+00	 0.00000000E+00
	 0.00000000E+00	 0.00000000E+00	 0.00000000E+00

	 0.00000000E+00	 0.00000000E+00	 0.00000000E+00
	 0.00000000E+00	 0.00000000E+00	 0.00000000E+00
	 0.00000000E+00	 0.00000000E+00	 0.00000000E+00

	 0.00000000E+00	 0.00000000E+00	 0.00000000E+00
	 0.00000000E+00	 0.00000000E+00	 0.00000000E+00
	 0.00000000E+00	 0.00000000E+00	 0.00000000E+00

	 0.00000000E+00	 0.00000000E+00	 0.00000000E+00
	 0.00000000E+00	 0.00000000E+00	 0.00000000E+00
	 0.00000000E+00	 0.00000000E+00	 0.00000000E+00

	 0.00000000E+00	 0.00000000E+00	 0.00000000E+00
	 0.00000000E+00	 0.00000000E+00	 0.00000000E+00
	 0.00000000E+00	 0.00000000E+00	 0.00000000E+00

	 0.00000000E+00	 0.00000000E+00	 0.00000000E+00
	 0.00000000E+00	 0.00000000E+00	 0.00000000E+00
	 0.00000000E+00	 0.00000000E+00	 0.00000000E+00

	 0.00000000E+00	 0.00000000E+00	 0.00000000E+00
	 0.00000000E+00	 0.00000000E+00	 0.00000000E+00
	 0.00000000E+00	 0.00000000E+00	 0.00000000E+00

	 0.00000000E+00	 0.00000000E+00	 0.00000000E+00
	 0.00000000E+00	 0.00000000E+00	 0.00000000E+00
	 0.00000000E+00	 0.00000000E+00	 0.00000000E+00

	 0.00000000E+00	 0.00000000E+00	 0.00000000E+00
	 0.00000000E+00	 0.00000000E+00	 0.00000000E+00
	 0.00000000E+00	 0.00000000E+00	 0.00000000E+00

	 0.00000000E+00	 0.00000000E+00	 0.00000000E+00
	 0.00000000E+00	 0.00000000E+00	 0.00000000E+00
	 0.00000000E+00	 0.00000000E+00	 0.00000000E+00

	 0.00000000E+00	 0.00000000E+00	 0.00000000E+00
	 0.00000000E+00	 0.00000000E+00	 0.00000000E+00
	 0.00000000E+00	 0.00000000E+00	 0.00000000E+00

	 0.00000000E+00	 0.00000000E+00	 0.00000000E+00
	 0.00000000E+00	 0.00000000E+00	 0.00000000E+00
	 0.00000000E+00	 0.00000000E+00	 0.00000000E+00

	 0.00000000E+00	 0.00000000E+00	 0.00000000E+00
	 0.00000000E+00	 0.00000000E+00	 0.00000000E+00
	 0.00000000E+00	 0.00000000E+00	 0.00000000E+00

	 0.00000000E+00	 0.00000000E+00	 0.00000000E+00
	 0.00000000E+00	 0.00000000E+00	 0.00000000E+00
	 0.00000000E+00	 0.00000000E+00	 0.00000000E+00

	 0.00000000E+00	 0.00000000E+00	 0.00000000E+00
	 0.00000000E+00	 0.00000000E+00	 0.00000000E+00
	 0.00000000E+00	 0.00000000E+00	 0.00000000E+00

	 0.00000000E+00	 0.00000000E+00	 0.00000000E+00
	 0.00000000E+00	 0.00000000E+00	 0.00000000E+00
	 0.00000000E+00	 0.00000000E+00	 0.00000000E+00

	 0.00000000E+00	 0.00000000E+00	 0.00000000E+00
	 0.00000000E+00	 0.00000000E+00	 0.00000000E+00
	 0.00000000E+00	 0.00000000E+00	 0.00000000E+00

	 0.00000000E+00	 0.00000000E+00	 0.00000000E+00
	 0.00000000E+00	 0.00000000E+00	 0.00000000E+00
	 0.00000000E+00	 0.00000000E+00	 0.00000000E+00

	 0.00000000E+00	 0.00000000E+00	 0.00000000E+00
	 0.00000000E+00	 0.00000000E+00	 0.00000000E+00
	 0.00000000E+00	 0.00000000E+00	 0.00000000E+00

	 0.00000000E+00	 0.00000000E+00	 0.00000000E+00
	 0.00000000E+00	 0.00000000E+00	 0.00000000E+00
	 0.00000000E+00	 0.00000000E+00	 0.00000000E+00

	 0.00000000E+00	 0.00000000E+00	 0.00000000E+00
	 0.00000000E+00	 0.00000000E+00	 0.00000000E+00
	 0.00000000E+00	 0.00000000E+00	 0.00000000E+00

	 0.00000000E+00	 0.00000000E+00	 0.00000000E+00
	 0.00000000E+00	 0.00000000E+00	 0.00000000E+00
	 0.00000000E+00	 0.00000000E+00	 0.00000000E+00

	 0.00000000E+00	 0.00000000E+00	 0.00000000E+00
	 0.00000000E+00	 0.00000000E+00	 0.00000000E+00
	 0.00000000E+00	 0.00000000E+00	 0.00000000E+00

	 0.00000000E+00	 0.00000000E+00	 0.00000000E+00
	 0.00000000E+00	 0.00000000E+00	 0.00000000E+00
	 0.00000000E+00	 0.00000000E+00	 0.00000000E+00

	 0.00000000E+00	 0.00000000E+00	 0.00000000E+00
	 0.00000000E+00	 0.00000000E+00	 0.00000000E+00
	 0.00000000E+00	 0.00000000E+00	 0.00000000E+00

	 0.00000000E+00	 0.00000000E+00	 0.00000000E+00
	 0.00000000E+00	 0.00000000E+00	 0.00000000E+00
	 0.00000000E+00	 0.00000000E+00	 0.00000000E+00

	 0.00000000E+00	 0.00000000E+00	 0.00000000E+00
	 0.00000000E+00	 0.00000000E+00	 0.00000000E+00
	 0.00000000E+00	 0.00000000E+00	 0.00000000E+00

	 0.00000000E+00	 0.00000000E+00	 0.00000000E+00
	 0.00000000E+00	 0.00000000E+00	 0.00000000E+00
	 0.00000000E+00	 0.00000000E+00	 0.00000000E+00

	 0.00000000E+00	 0.00000000E+00	 0.00000000E+00
	 0.00000000E+00	 0.00000000E+00	 0.00000000E+00
	 0.00000000E+00	 0.00000000E+00	 0.00000000E+00

	 0.00000000E+00	 0.00000000E+00	 0.00000000E+00
	 0.00000000E+00	 0.00000000E+00	 0.00000000E+00
	 0.00000000E+00	 0.00000000E+00	 0.00000000E+00

	 0.00000000E+00	 0.00000000E+00	 0.00000000E+00
	 0.00000000E+00	 0.00000000E+00	 0.00000000E+00
	 0.00000000E+00	 0.00000000E+00	 0.00000000E+00

	 0.00000000E+00	 0.00000000E+00	 0.00000000E+00
	 0.00000000E+00	 0.00000000E+00	 0.00000000E+00
	 0.00000000E+00	 0.00000000E+00	 0.00000000E+00

	 0.00000000E+00	 0.00000000E+00	 0.00000000E+00
	 0.00000000E+00	 0.00000000E+00	 0.00000000E+00
	 0.00000000E+00	 0.00000000E+00	 0.00000000E+00

	 0.00000000E+00	 0.00000000E+00	 0.00000000E+00
	 0.00000000E+00	 0.00000000E+00	 0.00000000E+00
	 0.00000000E+00	 0.00000000E+00	 0.00000000E+00

	 0.00000000E+00	 0.00000000E+00	 0.00000000E+00
	 0.00000000E+00	 0.00000000E+00	 0.00000000E+00
	 0.00000000E+00	 0.00000000E+00	 0.00000000E+00

	 0.00000000E+00	 0.00000000E+00	 0.00000000E+00
	 0.00000000E+00	 0.00000000E+00	 0.00000000E+00
	 0.00000000E+00	 0.00000000E+00	 0.00000000E+00

	 0.00000000E+00	 0.00000000E+00	 0.00000000E+00
	 0.00000000E+00	 0.00000000E+00	 0.00000000E+00
	 0.00000000E+00	 0.00000000E+00	 0.00000000E+00

	 0.00000000E+00	 0.00000000E+00	 0.00000000E+00
	 0.00000000E+00	 0.00000000E+00	 0.00000000E+00
	 0.00000000E+00	 0.00000000E+00	 0.00000000E+00

	 0.00000000E+00	 0.00000000E+00	 0.00000000E+00
	 0.00000000E+00	 0.00000000E+00	 0.00000000E+00
	 0.00000000E+00	 0.00000000E+00	 0.00000000E+00

	 0.00000000E+00	 0.00000000E+00	 0.00000000E+00
	 0.00000000E+00	 0.00000000E+00	 0.00000000E+00
	 0.00000000E+00	 0.00000000E+00	 0.00000000E+00

	 0.00000000E+00	 0.00000000E+00	 0.00000000E+00
	 0.00000000E+00	 0.00000000E+00	 0.00000000E+00
	 0.00000000E+00	 0.00000000E+00	 0.00000000E+00

	 0.00000000E+00	 0.00000000E+00	 0.00000000E+00
	 0.00000000E+00	 0.00000000E+00	 0.00000000E+00
	 0.00000000E+00	 0.00000000E+00	 0.00000000E+00

	 0.00000000E+00	 0.00000000E+00	 0.00000000E+00
	 0.00000000E+00	 0.00000000E+00	 0.00000000E+00
	 0.00000000E+00	 0.00000000E+00	 0.00000000E+00

	 0.00000000E+00	 0.00000000E+00	 0.00000000E+00
	 0.00000000E+00	 0.00000000E+00	 0.00000000E+00
	 0.00000000E+00	 0.00000000E+00	 0.00000000E+00

	 0.00000000E+00	 0.00000000E+00	 0.00000000E+00
	 0.00000000E+00	 0.00000000E+00	 0.00000000E+00
	 0.00000000E+00	 0.00000000E+00	 0.00000000E+00

	 0.00000000E+00	 0.00000000E+00	 0.00000000E+00
	 0.00000000E+00	 0.00000000E+00	 0.00000000E+00
	 0.00000000E+00	 0.00000000E+00	 0.00000000E+00

	 0.00000000E+00	 0.00000000E+00	 0.00000000E+00
	 0.00000000E+00	 0.00000000E+00	 0.00000000E+00
	 0.00000000E+00	 0.00000000E+00	 0.00000000E+00

	 0.00000000E+00	 0.00000000E+00	 0.00000000E+00
	 0.00000000E+00	 0.00000000E+00	 0.00000000E+00
	 0.00000000E+00	 0.00000000E+00	 0.00000000E+00

	 0.00000000E+00	 0.00000000E+00	 0.00000000E+00
	 0.00000000E+00	 0.00000000E+00	 0.00000000E+00
	 0.00000000E+00	 0.00000000E+00	 0.00000000E+00

	 0.00000000E+00	 0.00000000E+00	 0.00000000E+00
	 0.00000000E+00	 0.00000000E+00	 0.00000000E+00
	 0.00000000E+00	 0.00000000E+00	 0.00000000E+00

	 0.00000000E+00	 0.00000000E+00	 0.00000000E+00
	 0.00000000E+00	 0.00000000E+00	 0.00000000E+00
	 0.00000000E+00	 0.00000000E+00	 0.00000000E+00

	 0.00000000E+00	 0.00000000E+00	 0.00000000E+00
	 0.00000000E+00	 0.00000000E+00	 0.00000000E+00
	 0.00000000E+00	 0.00000000E+00	 0.00000000E+00

	 0.00000000E+00	 0.00000000E+00	 0.00000000E+00
	 0.00000000E+00	 0.00000000E+00	 0.00000000E+00
	 0.00000000E+00	 0.00000000E+00	 0.00000000E+00

	 0.00000000E+00	 0.00000000E+00	 0.00000000E+00
	 0.00000000E+00	 0.00000000E+00	 0.00000000E+00
	 0.00000000E+00	 0.00000000E+00	 0.00000000E+00

	 0.00000000E+00	 0.00000000E+00	 0.00000000E+00
	 0.00000000E+00	 0.00000000E+00	 0.00000000E+00
	 0.00000000E+00	 0.00000000E+00	 0.00000000E+00

	 0.00000000E+00	 0.00000000E+00	 0.00000000E+00
	 0.00000000E+00	 0.00000000E+00	 0.00000000E+00
	 0.00000000E+00	 0.00000000E+00	 0.00000000E+00

	 0.00000000E+00	 0.00000000E+00	 0.00000000E+00
	 0.00000000E+00	 0.00000000E+00	 0.00000000E+00
	 0.00000000E+00	 0.00000000E+00	 0.00000000E+00

	 0.00000000E+00	 0.00000000E+00	 0.00000000E+00
	 0.00000000E+00	 0.00000000E+00	 0.00000000E+00
	 0.00000000E+00	 0.00000000E+00	 0.00000000E+00

	 0.00000000E+00	 0.00000000E+00	 0.00000000E+00
	 0.00000000E+00	 0.00000000E+00	 0.00000000E+00
	 0.00000000E+00	 0.00000000E+00	 0.00000000E+00

	 0.00000000E+00	 0.00000000E+00	 0.00000000E+00
	 0.00000000E+00	 0.00000000E+00	 0.00000000E+00
	 0.00000000E+00	 0.00000000E+00	 0.00000000E+00

	 0.00000000E+00	 0.00000000E+00	 0.00000000E+00
	 0.00000000E+00	 0.00000000E+00	 0.00000000E+00
	 0.00000000E+00	 0.00000000E+00	 0.00000000E+00

	 0.00000000E+00	 0.00000000E+00	 0.00000000E+00
	 0.00000000E+00	 0.00000000E+00	 0.00000000E+00
	 0.00000000E+00	 0.00000000E+00	 0.00000000E+00

	 0.00000000E+00	 0.00000000E+00	 0.00000000E+00
	 0.00000000E+00	 0.00000000E+00	 0.00000000E+00
	 0.00000000E+00	 0.00000000E+00	 0.00000000E+00

	 0.00000000E+00	 0.00000000E+00	 0.00000000E+00
	 0.00000000E+00	 0.00000000E+00	 0.00000000E+00
	 0.00000000E+00	 0.00000000E+00	 0.00000000E+00

	 0.00000000E+00	 0.00000000E+00	 0.00000000E+00
	 0.00000000E+00	 0.00000000E+00	 0.00000000E+00
	 0.00000000E+00	 0.00000000E+00	 0.00000000E+00

	 0.00000000E+00	 0.00000000E+00	 0.00000000E+00
	 0.00000000E+00	 0.00000000E+00	 0.00000000E+00
	 0.00000000E+00	 0.00000000E+00	 0.00000000E+00

	 0.00000000E+00	 0.00000000E+00	 0.00000000E+00
	 0.00000000E+00	 0.00000000E+00	 0.00000000E+00
	 0.00000000E+00	 0.00000000E+00	 0.00000000E+00

	 0.00000000E+00	 0.00000000E+00	 0.00000000E+00
	 0.00000000E+00	 0.00000000E+00	 0.00000000E+00
	 0.00000000E+00	 0.00000000E+00	 0.00000000E+00

	 0.00000000E+00	 0.00000000E+00	 0.00000000E+00
	 0.00000000E+00	 0.00000000E+00	 0.00000000E+00
	 0.00000000E+00	 0.00000000E+00	 0.00000000E+00

	 0.00000000E+00	 0.00000000E+00	 0.00000000E+00
	 0.00000000E+00	 0.00000000E+00	 0.00000000E+00
	 0.00000000E+00	 0.00000000E+00	 0.00000000E+00

	 0.00000000E+00	 0.00000000E+00	 0.00000000E+00
	 0.00000000E+00	 0.00000000E+00	 0.00000000E+00
	 0.00000000E+00	 0.00000000E+00	 0.00000000E+00

	 0.00000000E+00	 0.00000000E+00	 0.00000000E+00
	 0.00000000E+00	 0.00000000E+00	 0.00000000E+00
	 0.00000000E+00	 0.00000000E+00	 0.00000000E+00

	 0.00000000E+00	 0.00000000E+00	 0.00000000E+00
	 0.00000000E+00	 0.00000000E+00	 0.00000000E+00
	 0.00000000E+00	 0.00000000E+00	 0.00000000E+00

	 0.00000000E+00	 0.00000000E+00	 0.00000000E+00
	 0.00000000E+00	 0.00000000E+00	 0.00000000E+00
	 0.00000000E+00	 0.00000000E+00	 0.00000000E+00

	 0.00000000E+00	 0.00000000E+00	 0.00000000E+00
	 0.00000000E+00	 0.00000000E+00	 0.00000000E+00
	 0.00000000E+00	 0.00000000E+00	 0.00000000E+00

	 0.00000000E+00	 0.00000000E+00	 0.00000000E+00
	 0.00000000E+00	 0.00000000E+00	 0.00000000E+00
	 0.00000000E+00	 0.00000000E+00	 0.00000000E+00

	 0.00000000E+00	 0.00000000E+00	 0.00000000E+00
	 0.00000000E+00	 0.00000000E+00	 0.00000000E+00
	 0.00000000E+00	 0.00000000E+00	 0.00000000E+00

	 0.00000000E+00	 0.00000000E+00	 0.00000000E+00
	 0.00000000E+00	 0.00000000E+00	 0.00000000E+00
	 0.00000000E+00	 0.00000000E+00	 0.00000000E+00

	 0.00000000E+00	 0.00000000E+00	 0.00000000E+00
	 0.00000000E+00	 0.00000000E+00	 0.00000000E+00
	 0.00000000E+00	 0.00000000E+00	 0.00000000E+00

	 0.00000000E+00	 0.00000000E+00	 0.00000000E+00
	 0.00000000E+00	 0.00000000E+00	 0.00000000E+00
	 0.00000000E+00	 0.00000000E+00	 0.00000000E+00

	 0.00000000E+00	 0.00000000E+00	 0.00000000E+00
	 0.00000000E+00	 0.00000000E+00	 0.00000000E+00
	 0.00000000E+00	 0.00000000E+00	 0.00000000E+00

	 0.00000000E+00	 0.00000000E+00	 0.00000000E+00
	 0.00000000E+00	 0.00000000E+00	 0.00000000E+00
	 0.00000000E+00	 0.00000000E+00	 0.00000000E+00

	 0.00000000E+00	 0.00000000E+00	 0.00000000E+00
	 0.00000000E+00	 0.00000000E+00	 0.00000000E+00
	 0.00000000E+00	 0.00000000E+00	 0.00000000E+00

	 0.00000000E+00	 0.00000000E+00	 0.00000000E+00
	 0.00000000E+00	 0.00000000E+00	 0.00000000E+00
	 0.00000000E+00	 0.00000000E+00	 0.00000000E+00

	 0.00000000E+00	 0.00000000E+00	 0.00000000E+00
	 0.00000000E+00	 0.00000000E+00	 0.00000000E+00
	 0.00000000E+00	 0.00000000E+00	 0.00000000E+00

	 0.00000000E+00	 0.00000000E+00	 0.00000000E+00
	 0.00000000E+00	 0.00000000E+00	 0.00000000E+00
	 0.00000000E+00	 0.00000000E+00	 0.00000000E+00

	 0.00000000E+00	 0.00000000E+00	 0.00000000E+00
	 0.00000000E+00	 0.00000000E+00	 0.00000000E+00
	 0.00000000E+00	 0.00000000E+00	 0.00000000E+00

	 0.00000000E+00	 0.00000000E+00	 0.00000000E+00
	 0.00000000E+00	 0.00000000E+00	 0.00000000E+00
	 0.00000000E+00	 0.00000000E+00	 0.00000000E+00

	 0.00000000E+00	 0.00000000E+00	 0.00000000E+00
	 0.00000000E+00	 0.00000000E+00	 0.00000000E+00
	 0.00000000E+00	 0.00000000E+00	 0.00000000E+00

	 0.00000000E+00	 0.00000000E+00	 0.00000000E+00
	 0.00000000E+00	 0.00000000E+00	 0.00000000E+00
	 0.00000000E+00	 0.00000000E+00	 0.00000000E+00

	 0.00000000E+00	 0.00000000E+00	 0.00000000E+00
	 0.00000000E+00	 0.00000000E+00	 0.00000000E+00
	 0.00000000E+00	 0.00000000E+00	 0.00000000E+00

	 0.00000000E+00	 0.00000000E+00	 0.00000000E+00
	 0.00000000E+00	 0.00000000E+00	 0.00000000E+00
	 0.00000000E+00	 0.00000000E+00	 0.00000000E+00

	 0.00000000E+00	 0.00000000E+00	 0.00000000E+00
	 0.00000000E+00	 0.00000000E+00	 0.00000000E+00
	 0.00000000E+00	 0.00000000E+00	 0.00000000E+00

	 0.00000000E+00	 0.00000000E+00	 0.00000000E+00
	 0.00000000E+00	 0.00000000E+00	 0.00000000E+00
	 0.00000000E+00	 0.00000000E+00	 0.00000000E+00

	 0.00000000E+00	 0.00000000E+00	 0.00000000E+00
	 0.00000000E+00	 0.00000000E+00	 0.00000000E+00
	 0.00000000E+00	 0.00000000E+00	 0.00000000E+00

	 0.00000000E+00	 0.00000000E+00	 0.00000000E+00
	 0.00000000E+00	 0.00000000E+00	 0.00000000E+00
	 0.00000000E+00	 0.00000000E+00	 0.00000000E+00

	 0.00000000E+00	 0.00000000E+00	 0.00000000E+00
	 0.00000000E+00	 0.00000000E+00	 0.00000000E+00
	 0.00000000E+00	 0.00000000E+00	 0.00000000E+00

	 0.00000000E+00	 0.00000000E+00	 0.00000000E+00
	 0.00000000E+00	 0.00000000E+00	 0.00000000E+00
	 0.00000000E+00	 0.00000000E+00	 0.00000000E+00

	 0.00000000E+00	 0.00000000E+00	 0.00000000E+00
	 0.00000000E+00	 0.00000000E+00	 0.00000000E+00
	 0.00000000E+00	 0.00000000E+00	 0.00000000E+00

	 0.00000000E+00	 0.00000000E+00	 0.00000000E+00
	 0.00000000E+00	 0.00000000E+00	 0.00000000E+00
	 0.00000000E+00	 0.00000000E+00	 0.00000000E+00

	 0.00000000E+00	 0.00000000E+00	 0.00000000E+00
	 0.00000000E+00	 0.00000000E+00	 0.00000000E+00
	 0.00000000E+00	 0.00000000E+00	 0.00000000E+00

	 0.00000000E+00	 0.00000000E+00	 0.00000000E+00
	 0.00000000E+00	 0.00000000E+00	 0.00000000E+00
	 0.00000000E+00	 0.00000000E+00	 0.00000000E+00

	 0.00000000E+00	 0.00000000E+00	 0.00000000E+00
	 0.00000000E+00	 0.00000000E+00	 0.00000000E+00
	 0.00000000E+00	 0.00000000E+00	 0.00000000E+00

	 0.00000000E+00	 0.00000000E+00	 0.00000000E+00
	 0.00000000E+00	 0.00000000E+00	 0.00000000E+00
	 0.00000000E+00	 0.00000000E+00	 0.00000000E+00

	 0.00000000E+00	 0.00000000E+00	 0.00000000E+00
	 0.00000000E+00	 0.00000000E+00	 0.00000000E+00
	 0.00000000E+00	 0.00000000E+00	 0.00000000E+00

	 0.00000000E+00	 0.00000000E+00	 0.00000000E+00
	 0.00000000E+00	 0.00000000E+00	 0.00000000E+00
	 0.00000000E+00	 0.00000000E+00	 0.00000000E+00

	 0.00000000E+00	 0.00000000E+00	 0.00000000E+00
	 0.00000000E+00	 0.00000000E+00	 0.00000000E+00
	 0.00000000E+00	 0.00000000E+00	 0.00000000E+00

	 0.00000000E+00	 0.00000000E+00	 0.00000000E+00
	 0.00000000E+00	 0.00000000E+00	 0.00000000E+00
	 0.00000000E+00	 0.00000000E+00	 0.00000000E+00

	 0.00000000E+00	 0.00000000E+00	 0.00000000E+00
	 0.00000000E+00	 0.00000000E+00	 0.00000000E+00
	 0.00000000E+00	 0.00000000E+00	 0.00000000E+00

	 0.00000000E+00	 0.00000000E+00	 0.00000000E+00
	 0.00000000E+00	 0.00000000E+00	 0.00000000E+00
	 0.00000000E+00	 0.00000000E+00	 0.00000000E+00

	 0.00000000E+00	 0.00000000E+00	 0.00000000E+00
	 0.00000000E+00	 0.00000000E+00	 0.00000000E+00
	 0.00000000E+00	 0.00000000E+00	 0.00000000E+00

	 0.00000000E+00	 0.00000000E+00	 0.00000000E+00
	 0.00000000E+00	 0.00000000E+00	 0.00000000E+00
	 0.00000000E+00	 0.00000000E+00	 0.00000000E+00

	 0.00000000E+00	 0.00000000E+00	 0.00000000E+00
	 0.00000000E+00	 0.00000000E+00	 0.00000000E+00
	 0.00000000E+00	 0.00000000E+00	 0.00000000E+00

	 0.00000000E+00	 0.00000000E+00	 0.00000000E+00
	 0.00000000E+00	 0.00000000E+00	 0.00000000E+00
	 0.00000000E+00	 0.00000000E+00	 0.00000000E+00

	 0.00000000E+00	 0.00000000E+00	 0.00000000E+00
	 0.00000000E+00	 0.00000000E+00	 0.00000000E+00
	 0.00000000E+00	 0.00000000E+00	 0.00000000E+00

	 0.00000000E+00	 0.00000000E+00	 0.00000000E+00
	 0.00000000E+00	 0.00000000E+00	 0.00000000E+00
	 0.00000000E+00	 0.00000000E+00	 0.00000000E+00

	 0.00000000E+00	 0.00000000E+00	 0.00000000E+00
	 0.00000000E+00	 0.00000000E+00	 0.00000000E+00
	 0.00000000E+00	 0.00000000E+00	 0.00000000E+00

	 0.00000000E+00	 0.00000000E+00	 0.00000000E+00
	 0.00000000E+00	 0.00000000E+00	 0.00000000E+00
	 0.00000000E+00	 0.00000000E+00	 0.00000000E+00

	 0.00000000E+00	 0.00000000E+00	 0.00000000E+00
	 0.00000000E+00	 0.00000000E+00	 0.00000000E+00
	 0.00000000E+00	 0.00000000E+00	 0.00000000E+00

	 0.00000000E+00	 0.00000000E+00	 0.00000000E+00
	 0.00000000E+00	 0.00000000E+00	 0.00000000E+00
	 0.00000000E+00	 0.00000000E+00	 0.00000000E+00

	 0.00000000E+00	 0.00000000E+00	 0.00000000E+00
	 0.00000000E+00	 0.00000000E+00	 0.00000000E+00
	 0.00000000E+00	 0.00000000E+00	 0.00000000E+00

	 0.00000000E+00	 0.00000000E+00	 0.00000000E+00
	 0.00000000E+00	 0.00000000E+00	 0.00000000E+00
	 0.00000000E+00	 0.00000000E+00	 0.00000000E+00

	 0.00000000E+00	 0.00000000E+00	 0.00000000E+00
	 0.00000000E+00	 0.00000000E+00	 0.00000000E+00
	 0.00000000E+00	 0.00000000E+00	 0.00000000E+00

	 0.00000000E+00	 0.00000000E+00	 0.00000000E+00
	 0.00000000E+00	 0.00000000E+00	 0.00000000E+00
	 0.00000000E+00	 0.00000000E+00	 0.00000000E+00

	 0.00000000E+00	 0.00000000E+00	 0.00000000E+00
	 0.00000000E+00	 0.00000000E+00	 0.00000000E+00
	 0.00000000E+00	 0.00000000E+00	 0.00000000E+00

	 0.00000000E+00	 0.00000000E+00	 0.00000000E+00
	 0.00000000E+00	 0.00000000E+00	 0.00000000E+00
	 0.00000000E+00	 0.00000000E+00	 0.00000000E+00

	 0.00000000E+00	 0.00000000E+00	 0.00000000E+00
	 0.00000000E+00	 0.00000000E+00	 0.00000000E+00
	 0.00000000E+00	 0.00000000E+00	 0.00000000E+00

	 0.00000000E+00	 0.00000000E+00	 0.00000000E+00
	 0.00000000E+00	 0.00000000E+00	 0.00000000E+00
	 0.00000000E+00	 0.00000000E+00	 0.00000000E+00

	 0.00000000E+00	 0.00000000E+00	 0.00000000E+00
	 0.00000000E+00	 0.00000000E+00	 0.00000000E+00
	 0.00000000E+00	 0.00000000E+00	 0.00000000E+00

	 0.00000000E+00	 0.00000000E+00	 0.00000000E+00
	 0.00000000E+00	 0.00000000E+00	 0.00000000E+00
	 0.00000000E+00	 0.00000000E+00	 0.00000000E+00

	 0.00000000E+00	 0.00000000E+00	 0.00000000E+00
	 0.00000000E+00	 0.00000000E+00	 0.00000000E+00
	 0.00000000E+00	 0.00000000E+00	 0.00000000E+00

	 0.00000000E+00	 0.00000000E+00	 0.00000000E+00
	 0.00000000E+00	 0.00000000E+00	 0.00000000E+00
	 0.00000000E+00	 0.00000000E+00	 0.00000000E+00

	 0.00000000E+00	 0.00000000E+00	 0.00000000E+00
	 0.00000000E+00	 0.00000000E+00	 0.00000000E+00
	 0.00000000E+00	 0.00000000E+00	 0.00000000E+00

	 0.00000000E+00	 0.00000000E+00	 0.00000000E+00
	 0.00000000E+00	 0.00000000E+00	 0.00000000E+00
	 0.00000000E+00	 0.00000000E+00	 0.00000000E+00

	 0.00000000E+00	 0.00000000E+00	 0.00000000E+00
	 0.00000000E+00	 0.00000000E+00	 0.00000000E+00
	 0.00000000E+00	 0.00000000E+00	 0.00000000E+00

	 0.00000000E+00	 0.00000000E+00	 0.00000000E+00
	 0.00000000E+00	 0.00000000E+00	 0.00000000E+00
	 0.00000000E+00	 0.00000000E+00	 0.00000000E+00

	 0.00000000E+00	 0.00000000E+00	 0.00000000E+00
	 0.00000000E+00	 0.00000000E+00	 0.00000000E+00
	 0.00000000E+00	 0.00000000E+00	 0.00000000E+00

	 0.00000000E+00	 0.00000000E+00	 0.00000000E+00
	 0.00000000E+00	 0.00000000E+00	 0.00000000E+00
	 0.00000000E+00	 0.00000000E+00	 0.00000000E+00

	 0.00000000E+00	 0.00000000E+00	 0.00000000E+00
	 0.00000000E+00	 0.00000000E+00	 0.00000000E+00
	 0.00000000E+00	 0.00000000E+00	 0.00000000E+00

	 0.00000000E+00	 0.00000000E+00	 0.00000000E+00
	 0.00000000E+00	 0.00000000E+00	 0.00000000E+00
	 0.00000000E+00	 0.00000000E+00	 0.00000000E+00

	 0.00000000E+00	 0.00000000E+00	 0.00000000E+00
	 0.00000000E+00	 0.00000000E+00	 0.00000000E+00
	 0.00000000E+00	 0.00000000E+00	 0.00000000E+00

	 0.00000000E+00	 0.00000000E+00	 0.00000000E+00
	 0.00000000E+00	 0.00000000E+00	 0.00000000E+00
	 0.00000000E+00	 0.00000000E+00	 0.00000000E+00

	 0.00000000E+00	 0.00000000E+00	 0.00000000E+00
	 0.00000000E+00	 0.00000000E+00	 0.00000000E+00
	 0.00000000E+00	 0.00000000E+00	 0.00000000E+00

	 0.00000000E+00	 0.00000000E+00	 0.00000000E+00
	 0.00000000E+00	 0.00000000E+00	 0.00000000E+00
	 0.00000000E+00	 0.00000000E+00	 0.00000000E+00

	 0.00000000E+00	 0.00000000E+00	 0.00000000E+00
	 0.00000000E+00	 0.00000000E+00	 0.00000000E+00
	 0.00000000E+00	 0.00000000E+00	 0.00000000E+00

	 0.00000000E+00	 0.00000000E+00	 0.00000000E+00
	 0.00000000E+00	 0.00000000E+00	 0.00000000E+00
	 0.00000000E+00	 0.00000000E+00	 0.00000000E+00

	 0.00000000E+00	 0.00000000E+00	 0.00000000E+00
	 0.00000000E+00	 0.00000000E+00	 0.00000000E+00
	 0.00000000E+00	 0.00000000E+00	 0.00000000E+00

	 0.00000000E+00	 0.00000000E+00	 0.00000000E+00
	 0.00000000E+00	 0.00000000E+00	 0.00000000E+00
	 0.00000000E+00	 0.00000000E+00	 0.00000000E+00

	 0.00000000E+00	 0.00000000E+00	 0.00000000E+00
	 0.00000000E+00	 0.00000000E+00	 0.00000000E+00
	 0.00000000E+00	 0.00000000E+00	 0.00000000E+00

	 0.00000000E+00	 0.00000000E+00	 0.00000000E+00
	 0.00000000E+00	 0.00000000E+00	 0.00000000E+00
	 0.00000000E+00	 0.00000000E+00	 0.00000000E+00

	 0.00000000E+00	 0.00000000E+00	 0.00000000E+00
	 0.00000000E+00	 0.00000000E+00	 0.00000000E+00
	 0.00000000E+00	 0.00000000E+00	 0.00000000E+00

	 0.00000000E+00	 0.00000000E+00	 0.00000000E+00
	 0.00000000E+00	 0.00000000E+00	 0.00000000E+00
	 0.00000000E+00	 0.00000000E+00	 0.00000000E+00

	 0.00000000E+00	 0.00000000E+00	 0.00000000E+00
	 0.00000000E+00	 0.00000000E+00	 0.00000000E+00
	 0.00000000E+00	 0.00000000E+00	 0.00000000E+00

	 0.00000000E+00	 0.00000000E+00	 0.00000000E+00
	 0.00000000E+00	 0.00000000E+00	 0.00000000E+00
	 0.00000000E+00	 0.00000000E+00	 0.00000000E+00

	 0.00000000E+00	 0.00000000E+00	 0.00000000E+00
	 0.00000000E+00	 0.00000000E+00	 0.00000000E+00
	 0.00000000E+00	 0.00000000E+00	 0.00000000E+00

	 0.00000000E+00	 0.00000000E+00	 0.00000000E+00
	 0.00000000E+00	 0.00000000E+00	 0.00000000E+00
	 0.00000000E+00	 0.00000000E+00	 0.00000000E+00

	 0.00000000E+00	 0.00000000E+00	 0.00000000E+00
	 0.00000000E+00	 0.00000000E+00	 0.00000000E+00
	 0.00000000E+00	 0.00000000E+00	 0.00000000E+00

	 0.00000000E+00	 0.00000000E+00	 0.00000000E+00
	 0.00000000E+00	 0.00000000E+00	 0.00000000E+00
	 0.00000000E+00	 0.00000000E+00	 0.00000000E+00

	 0.00000000E+00	 0.00000000E+00	 0.00000000E+00
	 0.00000000E+00	 0.00000000E+00	 0.00000000E+00
	 0.00000000E+00	 0.00000000E+00	 0.00000000E+00

	 0.00000000E+00	 0.00000000E+00	 0.00000000E+00
	 0.00000000E+00	 0.00000000E+00	 0.00000000E+00
	 0.00000000E+00	 0.00000000E+00	 0.00000000E+00

	 0.00000000E+00	 0.00000000E+00	 0.00000000E+00
	 0.00000000E+00	 0.00000000E+00	 0.00000000E+00
	 0.00000000E+00	 0.00000000E+00	 0.00000000E+00

	 0.00000000E+00	 0.00000000E+00	 0.00000000E+00
	 0.00000000E+00	 0.00000000E+00	 0.00000000E+00
	 0.00000000E+00	 0.00000000E+00	 0.00000000E+00

	 0.00000000E+00	 0.00000000E+00	 0.00000000E+00
	 0.00000000E+00	 0.00000000E+00	 0.00000000E+00
	 0.00000000E+00	 0.00000000E+00	 0.00000000E+00

	 0.00000000E+00	 0.00000000E+00	 0.00000000E+00
	 0.00000000E+00	 0.00000000E+00	 0.00000000E+00
	 0.00000000E+00	 0.00000000E+00	 0.00000000E+00

	 0.00000000E+00	 0.00000000E+00	 0.00000000E+00
	 0.00000000E+00	 0.00000000E+00	 0.00000000E+00
	 0.00000000E+00	 0.00000000E+00	 0.00000000E+00

	 0.00000000E+00	 0.00000000E+00	 0.00000000E+00
	 0.00000000E+00	 0.00000000E+00	 0.00000000E+00
	 0.00000000E+00	 0.00000000E+00	 0.00000000E+00

	 0.00000000E+00	 0.00000000E+00	 0.00000000E+00
	 0.00000000E+00	 0.00000000E+00	 0.00000000E+00
	 0.00000000E+00	 0.00000000E+00	 0.00000000E+00

	 0.00000000E+00	 0.00000000E+00	 0.00000000E+00
	 0.00000000E+00	 0.00000000E+00	 0.00000000E+00
	 0.00000000E+00	 0.00000000E+00	 0.00000000E+00

	 0.00000000E+00	 0.00000000E+00	 0.00000000E+00
	 0.00000000E+00	 0.00000000E+00	 0.00000000E+00
	 0.00000000E+00	 0.00000000E+00	 0.00000000E+00

	 0.00000000E+00	 0.00000000E+00	 0.00000000E+00
	 0.00000000E+00	 0.00000000E+00	 0.00000000E+00
	 0.00000000E+00	 0.00000000E+00	 0.00000000E+00

	 0.00000000E+00	 0.00000000E+00	 0.00000000E+00
	 0.00000000E+00	 0.00000000E+00	 0.00000000E+00
	 0.00000000E+00	 0.00000000E+00	 0.00000000E+00

	 0.00000000E+00	 0.00000000E+00	 0.00000000E+00
	 0.00000000E+00	 0.00000000E+00	 0.00000000E+00
	 0.00000000E+00	 0.00000000E+00	 0.00000000E+00

	 0.00000000E+00	 0.00000000E+00	 0.00000000E+00
	 0.00000000E+00	 0.00000000E+00	 0.00000000E+00
	 0.00000000E+00	 0.00000000E+00	 0.00000000E+00

	 0.00000000E+00	 0.00000000E+00	 0.00000000E+00
	 0.00000000E+00	 0.00000000E+00	 0.00000000E+00
	 0.00000000E+00	 0.00000000E+00	 0.00000000E+00

	 0.00000000E+00	 0.00000000E+00	 0.00000000E+00
	 0.00000000E+00	 0.00000000E+00	 0.00000000E+00
	 0.00000000E+00	 0.00000000E+00	 0.00000000E+00

	 0.00000000E+00	 0.00000000E+00	 0.00000000E+00
	 0.00000000E+00	 0.00000000E+00	 0.00000000E+00
	 0.00000000E+00	 0.00000000E+00	 0.00000000E+00

	 0.00000000E+00	 0.00000000E+00	 0.00000000E+00
	 0.00000000E+00	 0.00000000E+00	 0.00000000E+00
	 0.00000000E+00	 0.00000000E+00	 0.00000000E+00

	 0.00000000E+00	 0.00000000E+00	 0.00000000E+00
	 0.00000000E+00	 0.00000000E+00	 0.00000000E+00
	 0.00000000E+00	 0.00000000E+00	 0.00000000E+00

	 0.00000000E+00	 0.00000000E+00	 0.00000000E+00
	 0.00000000E+00	 0.00000000E+00	 0.00000000E+00
	 0.00000000E+00	 0.00000000E+00	 0.00000000E+00

	 0.00000000E+00	 0.00000000E+00	 0.00000000E+00
	 0.00000000E+00	 0.00000000E+00	 0.00000000E+00
	 0.00000000E+00	 0.00000000E+00	 0.00000000E+00

	 0.00000000E+00	 0.00000000E+00	 0.00000000E+00
	 0.00000000E+00	 0.00000000E+00	 0.00000000E+00
	 0.00000000E+00	 0.00000000E+00	 0.00000000E+00

	 0.00000000E+00	 0.00000000E+00	 0.00000000E+00
	 0.00000000E+00	 0.00000000E+00	 0.00000000E+00
	 0.00000000E+00	 0.00000000E+00	 0.00000000E+00

	 0.00000000E+00	 0.00000000E+00	 0.00000000E+00
	 0.00000000E+00	 0.00000000E+00	 0.00000000E+00
	 0.00000000E+00	 0.00000000E+00	 0.00000000E+00

	 0.00000000E+00	 0.00000000E+00	 0.00000000E+00
	 0.00000000E+00	 0.00000000E+00	 0.00000000E+00
	 0.00000000E+00	 0.00000000E+00	 0.00000000E+00

	 0.00000000E+00	 0.00000000E+00	 0.00000000E+00
	 0.00000000E+00	 0.00000000E+00	 0.00000000E+00
	 0.00000000E+00	 0.00000000E+00	 0.00000000E+00

	 0.00000000E+00	 0.00000000E+00	 0.00000000E+00
	 0.00000000E+00	 0.00000000E+00	 0.00000000E+00
	 0.00000000E+00	 0.00000000E+00	 0.00000000E+00

	 0.00000000E+00	 0.00000000E+00	 0.00000000E+00
	 0.00000000E+00	 0.00000000E+00	 0.00000000E+00
	 0.00000000E+00	 0.00000000E+00	 0.00000000E+00

	 0.00000000E+00	 0.00000000E+00	 0.00000000E+00
	 0.00000000E+00	 0.00000000E+00	 0.00000000E+00
	 0.00000000E+00	 0.00000000E+00	 0.00000000E+00

	 0.00000000E+00	 0.00000000E+00	 0.00000000E+00
	 0.00000000E+00	 0.00000000E+00	 0.00000000E+00
	 0.00000000E+00	 0.00000000E+00	 0.00000000E+00

	 0.00000000E+00	 0.00000000E+00	 0.00000000E+00
	 0.00000000E+00	 0.00000000E+00	 0.00000000E+00
	 0.00000000E+00	 0.00000000E+00	 0.00000000E+00

	 0.00000000E+00	 0.00000000E+00	 0.00000000E+00
	 0.00000000E+00	 0.00000000E+00	 0.00000000E+00
	 0.00000000E+00	 0.00000000E+00	 0.00000000E+00

	 0.00000000E+00	 0.00000000E+00	 0.00000000E+00
	 0.00000000E+00	 0.00000000E+00	 0.00000000E+00
	 0.00000000E+00	 0.00000000E+00	 0.00000000E+00

	 0.00000000E+00	 0.00000000E+00	 0.00000000E+00
	 0.00000000E+00	 0.00000000E+00	 0.00000000E+00
	 0.00000000E+00	 0.00000000E+00	 0.00000000E+00

	 0.00000000E+00	 0.00000000E+00	 0.00000000E+00
	 0.00000000E+00	 0.00000000E+00	 0.00000000E+00
	 0.00000000E+00	 0.00000000E+00	 0.00000000E+00

	 0.00000000E+00	 0.00000000E+00	 0.00000000E+00
	 0.00000000E+00	 0.00000000E+00	 0.00000000E+00
	 0.00000000E+00	 0.00000000E+00	 0.00000000E+00

	 0.00000000E+00	 0.00000000E+00	 0.00000000E+00
	 0.00000000E+00	 0.00000000E+00	 0.00000000E+00
	 0.00000000E+00	 0.00000000E+00	 0.00000000E+00

	 0.00000000E+00	 0.00000000E+00	 0.00000000E+00
	 0.00000000E+00	 0.00000000E+00	 0.00000000E+00
	 0.00000000E+00	 0.00000000E+00	 0.00000000E+00

	 0.00000000E+00	 0.00000000E+00	 0.00000000E+00
	 0.00000000E+00	 0.00000000E+00	 0.00000000E+00
	 0.00000000E+00	 0.00000000E+00	 0.00000000E+00

	 0.00000000E+00	 0.00000000E+00	 0.00000000E+00
	 0.00000000E+00	 0.00000000E+00	 0.00000000E+00
	 0.00000000E+00	 0.00000000E+00	 0.00000000E+00

	 0.00000000E+00	 0.00000000E+00	 0.00000000E+00
	 0.00000000E+00	 0.00000000E+00	 0.00000000E+00
	 0.00000000E+00	 0.00000000E+00	 0.00000000E+00

	 0.00000000E+00	 0.00000000E+00	 0.00000000E+00
	 0.00000000E+00	 0.00000000E+00	 0.00000000E+00
	 0.00000000E+00	 0.00000000E+00	 0.00000000E+00

	 0.00000000E+00	 0.00000000E+00	 0.00000000E+00
	 0.00000000E+00	 0.00000000E+00	 0.00000000E+00
	 0.00000000E+00	 0.00000000E+00	 0.00000000E+00

	 0.00000000E+00	 0.00000000E+00	 0.00000000E+00
	 0.00000000E+00	 0.00000000E+00	 0.00000000E+00
	 0.00000000E+00	 0.00000000E+00	 0.00000000E+00

	 0.00000000E+00	 0.00000000E+00	 0.00000000E+00
	 0.00000000E+00	 0.00000000E+00	 0.00000000E+00
	 0.00000000E+00	 0.00000000E+00	 0.00000000E+00

	 0.00000000E+00	 0.00000000E+00	 0.00000000E+00
	 0.00000000E+00	 0.00000000E+00	 0.00000000E+00
	 0.00000000E+00	 0.00000000E+00	 0.00000000E+00

	 0.00000000E+00	 0.00000000E+00	 0.00000000E+00
	 0.00000000E+00	 0.00000000E+00	 0.00000000E+00
	 0.00000000E+00	 0.00000000E+00	 0.00000000E+00

	 0.00000000E+00	 0.00000000E+00	 0.00000000E+00
	 0.00000000E+00	 0.00000000E+00	 0.00000000E+00
	 0.00000000E+00	 0.00000000E+00	 0.00000000E+00

	 0.00000000E+00	 0.00000000E+00	 0.00000000E+00
	 0.00000000E+00	 0.00000000E+00	 0.00000000E+00
	 0.00000000E+00	 0.00000000E+00	 0.00000000E+00

	 0.00000000E+00	 0.00000000E+00	 0.00000000E+00
	 0.00000000E+00	 0.00000000E+00	 0.00000000E+00
	 0.00000000E+00	 0.00000000E+00	 0.00000000E+00

	 0.00000000E+00	 0.00000000E+00	 0.00000000E+00
	 0.00000000E+00	 0.00000000E+00	 0.00000000E+00
	 0.00000000E+00	 0.00000000E+00	 0.00000000E+00

	 0.00000000E+00	 0.00000000E+00	 0.00000000E+00
	 0.00000000E+00	 0.00000000E+00	 0.00000000E+00
	 0.00000000E+00	 0.00000000E+00	 0.00000000E+00

	 0.00000000E+00	 0.00000000E+00	 0.00000000E+00
	 0.00000000E+00	 0.00000000E+00	 0.00000000E+00
	 0.00000000E+00	 0.00000000E+00	 0.00000000E+00

	 0.00000000E+00	 0.00000000E+00	 0.00000000E+00
	 0.00000000E+00	 0.00000000E+00	 0.00000000E+00
	 0.00000000E+00	 0.00000000E+00	 0.00000000E+00

	 0.00000000E+00	 0.00000000E+00	 0.00000000E+00
	 0.00000000E+00	 0.00000000E+00	 0.00000000E+00
	 0.00000000E+00	 0.00000000E+00	 0.00000000E+00

	 0.00000000E+00	 0.00000000E+00	 0.00000000E+00
	 0.00000000E+00	 0.00000000E+00	 0.00000000E+00
	 0.00000000E+00	 0.00000000E+00	 0.00000000E+00

	 0.00000000E+00	 0.00000000E+00	 0.00000000E+00
	 0.00000000E+00	 0.00000000E+00	 0.00000000E+00
	 0.00000000E+00	 0.00000000E+00	 0.00000000E+00

	 0.00000000E+00	 0.00000000E+00	 0.00000000E+00
	 0.00000000E+00	 0.00000000E+00	 0.00000000E+00
	 0.00000000E+00	 0.00000000E+00	 0.00000000E+00

	 0.00000000E+00	 0.00000000E+00	 0.00000000E+00
	 0.00000000E+00	 0.00000000E+00	 0.00000000E+00
	 0.00000000E+00	 0.00000000E+00	 0.00000000E+00

	 0.00000000E+00	 0.00000000E+00	 0.00000000E+00
	 0.00000000E+00	 0.00000000E+00	 0.00000000E+00
	 0.00000000E+00	 0.00000000E+00	 0.00000000E+00

	 0.00000000E+00	 0.00000000E+00	 0.00000000E+00
	 0.00000000E+00	 0.00000000E+00	 0.00000000E+00
	 0.00000000E+00	 0.00000000E+00	 0.00000000E+00

	 0.00000000E+00	 0.00000000E+00	 0.00000000E+00
	 0.00000000E+00	 0.00000000E+00	 0.00000000E+00
	 0.00000000E+00	 0.00000000E+00	 0.00000000E+00

	 0.00000000E+00	 0.00000000E+00	 0.00000000E+00
	 0.00000000E+00	 0.00000000E+00	 0.00000000E+00
	 0.00000000E+00	 0.00000000E+00	 0.00000000E+00

	 0.00000000E+00	 0.00000000E+00	 0.00000000E+00
	 0.00000000E+00	 0.00000000E+00	 0.00000000E+00
	 0.00000000E+00	 0.00000000E+00	 0.00000000E+00

	 0.00000000E+00	 0.00000000E+00	 0.00000000E+00
	 0.00000000E+00	 0.00000000E+00	 0.00000000E+00
	 0.00000000E+00	 0.00000000E+00	 0.00000000E+00

	 0.00000000E+00	 0.00000000E+00	 0.00000000E+00
	 0.00000000E+00	 0.00000000E+00	 0.00000000E+00
	 0.00000000E+00	 0.00000000E+00	 0.00000000E+00

	 0.00000000E+00	 0.00000000E+00	 0.00000000E+00
	 0.00000000E+00	 0.00000000E+00	 0.00000000E+00
	 0.00000000E+00	 0.00000000E+00	 0.00000000E+00

	 0.00000000E+00	 0.00000000E+00	 0.00000000E+00
	 0.00000000E+00	 0.00000000E+00	 0.00000000E+00
	 0.00000000E+00	 0.00000000E+00	 0.00000000E+00

	 0.00000000E+00	 0.00000000E+00	 0.00000000E+00
	 0.00000000E+00	 0.00000000E+00	 0.00000000E+00
	 0.00000000E+00	 0.00000000E+00	 0.00000000E+00

	 0.00000000E+00	 0.00000000E+00	 0.00000000E+00
	 0.00000000E+00	 0.00000000E+00	 0.00000000E+00
	 0.00000000E+00	 0.00000000E+00	 0.00000000E+00

	 0.00000000E+00	 0.00000000E+00	 0.00000000E+00
	 0.00000000E+00	 0.00000000E+00	 0.00000000E+00
	 0.00000000E+00	 0.00000000E+00	 0.00000000E+00

	 0.00000000E+00	 0.00000000E+00	 0.00000000E+00
	 0.00000000E+00	 0.00000000E+00	 0.00000000E+00
	 0.00000000E+00	 0.00000000E+00	 0.00000000E+00

	 0.00000000E+00	 0.00000000E+00	 0.00000000E+00
	 0.00000000E+00	 0.00000000E+00	 0.00000000E+00
	 0.00000000E+00	 0.00000000E+00	 0.00000000E+00

	 0.00000000E+00	 0.00000000E+00	 0.00000000E+00
	 0.00000000E+00	 0.00000000E+00	 0.00000000E+00
	 0.00000000E+00	 0.00000000E+00	 0.00000000E+00

	 0.00000000E+00	 0.00000000E+00	 0.00000000E+00
	 0.00000000E+00	 0.00000000E+00	 0.00000000E+00
	 0.00000000E+00	 0.00000000E+00	 0.00000000E+00

	 0.00000000E+00	 0.00000000E+00	 0.00000000E+00
	 0.00000000E+00	 0.00000000E+00	 0.00000000E+00
	 0.00000000E+00	 0.00000000E+00	 0.00000000E+00

	 0.00000000E+00	 0.00000000E+00	 0.00000000E+00
	 0.00000000E+00	 0.00000000E+00	 0.00000000E+00
	 0.00000000E+00	 0.00000000E+00	 0.00000000E+00

	 0.00000000E+00	 0.00000000E+00	 0.00000000E+00
	 0.00000000E+00	 0.00000000E+00	 0.00000000E+00
	 0.00000000E+00	 0.00000000E+00	 0.00000000E+00

	 0.00000000E+00	 0.00000000E+00	 0.00000000E+00
	 0.00000000E+00	 0.00000000E+00	 0.00000000E+00
	 0.00000000E+00	 0.00000000E+00	 0.00000000E+00

	 0.00000000E+00	 0.00000000E+00	 0.00000000E+00
	 0.00000000E+00	 0.00000000E+00	 0.00000000E+00
	 0.00000000E+00	 0.00000000E+00	 0.00000000E+00

	 0.00000000E+00	 0.00000000E+00	 0.00000000E+00
	 0.00000000E+00	 0.00000000E+00	 0.00000000E+00
	 0.00000000E+00	 0.00000000E+00	 0.00000000E+00

	 0.00000000E+00	 0.00000000E+00	 0.00000000E+00
	 0.00000000E+00	 0.00000000E+00	 0.00000000E+00
	 0.00000000E+00	 0.00000000E+00	 0.00000000E+00

	 0.00000000E+00	 0.00000000E+00	 0.00000000E+00
	 0.00000000E+00	 0.00000000E+00	 0.00000000E+00
	 0.00000000E+00	 0.00000000E+00	 0.00000000E+00

	 0.00000000E+00	 0.00000000E+00	 0.00000000E+00
	 0.00000000E+00	 0.00000000E+00	 0.00000000E+00
	 0.00000000E+00	 0.00000000E+00	 0.00000000E+00

	 0.00000000E+00	 0.00000000E+00	 0.00000000E+00
	 0.00000000E+00	 0.00000000E+00	 0.00000000E+00
	 0.00000000E+00	 0.00000000E+00	 0.00000000E+00

	 0.00000000E+00	 0.00000000E+00	 0.00000000E+00
	 0.00000000E+00	 0.00000000E+00	 0.00000000E+00
	 0.00000000E+00	 0.00000000E+00	 0.00000000E+00

	 0.00000000E+00	 0.00000000E+00	 0.00000000E+00
	 0.00000000E+00	 0.00000000E+00	 0.00000000E+00
	 0.00000000E+00	 0.00000000E+00	 0.00000000E+00

	 0.00000000E+00	 0.00000000E+00	 0.00000000E+00
	 0.00000000E+00	 0.00000000E+00	 0.00000000E+00
	 0.00000000E+00	 0.00000000E+00	 0.00000000E+00

	 0.00000000E+00	 0.00000000E+00	 0.00000000E+00
	 0.00000000E+00	 0.00000000E+00	 0.00000000E+00
	 0.00000000E+00	 0.00000000E+00	 0.00000000E+00

	 0.00000000E+00	 0.00000000E+00	 0.00000000E+00
	 0.00000000E+00	 0.00000000E+00	 0.00000000E+00
	 0.00000000E+00	 0.00000000E+00	 0.00000000E+00

	 0.00000000E+00	 0.00000000E+00	 0.00000000E+00
	 0.00000000E+00	 0.00000000E+00	 0.00000000E+00
	 0.00000000E+00	 0.00000000E+00	 0.00000000E+00

	 0.00000000E+00	 0.00000000E+00	 0.00000000E+00
	 0.00000000E+00	 0.00000000E+00	 0.00000000E+00
	 0.00000000E+00	 0.00000000E+00	 0.00000000E+00

	 0.00000000E+00	 0.00000000E+00	 0.00000000E+00
	 0.00000000E+00	 0.00000000E+00	 0.00000000E+00
	 0.00000000E+00	 0.00000000E+00	 0.00000000E+00

	 0.00000000E+00	 0.00000000E+00	 0.00000000E+00
	 0.00000000E+00	 0.00000000E+00	 0.00000000E+00
	 0.00000000E+00	 0.00000000E+00	 0.00000000E+00

	 0.00000000E+00	 0.00000000E+00	 0.00000000E+00
	 0.00000000E+00	 0.00000000E+00	 0.00000000E+00
	 0.00000000E+00	 0.00000000E+00	 0.00000000E+00

	 0.00000000E+00	 0.00000000E+00	 0.00000000E+00
	 0.00000000E+00	 0.00000000E+00	 0.00000000E+00
	 0.00000000E+00	 0.00000000E+00	 0.00000000E+00

	 0.00000000E+00	 0.00000000E+00	 0.00000000E+00
	 0.00000000E+00	 0.00000000E+00	 0.00000000E+00
	 0.00000000E+00	 0.00000000E+00	 0.00000000E+00

	 0.00000000E+00	 0.00000000E+00	 0.00000000E+00
	 0.00000000E+00	 0.00000000E+00	 0.00000000E+00
	 0.00000000E+00	 0.00000000E+00	 0.00000000E+00

	 0.00000000E+00	 0.00000000E+00	 0.00000000E+00
	 0.00000000E+00	 0.00000000E+00	 0.00000000E+00
	 0.00000000E+00	 0.00000000E+00	 0.00000000E+00

	 0.00000000E+00	 0.00000000E+00	 0.00000000E+00
	 0.00000000E+00	 0.00000000E+00	 0.00000000E+00
	 0.00000000E+00	 0.00000000E+00	 0.00000000E+00

	 0.00000000E+00	 0.00000000E+00	 0.00000000E+00
	 0.00000000E+00	 0.00000000E+00	 0.00000000E+00
	 0.00000000E+00	 0.00000000E+00	 0.00000000E+00

	 0.00000000E+00	 0.00000000E+00	 0.00000000E+00
	 0.00000000E+00	 0.00000000E+00	 0.00000000E+00
	 0.00000000E+00	 0.00000000E+00	 0.00000000E+00

	 0.00000000E+00	 0.00000000E+00	 0.00000000E+00
	 0.00000000E+00	 0.00000000E+00	 0.00000000E+00
	 0.00000000E+00	 0.00000000E+00	 0.00000000E+00

	 0.00000000E+00	 0.00000000E+00	 0.00000000E+00
	 0.00000000E+00	 0.00000000E+00	 0.00000000E+00
	 0.00000000E+00	 0.00000000E+00	 0.00000000E+00

	 0.00000000E+00	 0.00000000E+00	 0.00000000E+00
	 0.00000000E+00	 0.00000000E+00	 0.00000000E+00
	 0.00000000E+00	 0.00000000E+00	 0.00000000E+00

	 0.00000000E+00	 0.00000000E+00	 0.00000000E+00
	 0.00000000E+00	 0.00000000E+00	 0.00000000E+00
	 0.00000000E+00	 0.00000000E+00	 0.00000000E+00

	 0.00000000E+00	 0.00000000E+00	 0.00000000E+00
	 0.00000000E+00	 0.00000000E+00	 0.00000000E+00
	 0.00000000E+00	 0.00000000E+00	 0.00000000E+00

	 0.00000000E+00	 0.00000000E+00	 0.00000000E+00
	 0.00000000E+00	 0.00000000E+00	 0.00000000E+00
	 0.00000000E+00	 0.00000000E+00	 0.00000000E+00

	 0.00000000E+00	 0.00000000E+00	 0.00000000E+00
	 0.00000000E+00	 0.00000000E+00	 0.00000000E+00
	 0.00000000E+00	 0.00000000E+00	 0.00000000E+00

	 0.00000000E+00	 0.00000000E+00	 0.00000000E+00
	 0.00000000E+00	 0.00000000E+00	 0.00000000E+00
	 0.00000000E+00	 0.00000000E+00	 0.00000000E+00

	 0.00000000E+00	 0.00000000E+00	 0.00000000E+00
	 0.00000000E+00	 0.00000000E+00	 0.00000000E+00
	 0.00000000E+00	 0.00000000E+00	 0.00000000E+00

	 0.00000000E+00	 0.00000000E+00	 0.00000000E+00
	 0.00000000E+00	 0.00000000E+00	 0.00000000E+00
	 0.00000000E+00	 0.00000000E+00	 0.00000000E+00

	 0.00000000E+00	 0.00000000E+00	 0.00000000E+00
	 0.00000000E+00	 0.00000000E+00	 0.00000000E+00
	 0.00000000E+00	 0.00000000E+00	 0.00000000E+00

	 0.00000000E+00	 0.00000000E+00	 0.00000000E+00
	 0.00000000E+00	 0.00000000E+00	 0.00000000E+00
	 0.00000000E+00	 0.00000000E+00	 0.00000000E+00

	 0.00000000E+00	 0.00000000E+00	 0.00000000E+00
	 0.00000000E+00	 0.00000000E+00	 0.00000000E+00
	 0.00000000E+00	 0.00000000E+00	 0.00000000E+00

	 0.00000000E+00	 0.00000000E+00	 0.00000000E+00
	 0.00000000E+00	 0.00000000E+00	 0.00000000E+00
	 0.00000000E+00	 0.00000000E+00	 0.00000000E+00

	 0.00000000E+00	 0.00000000E+00	 0.00000000E+00
	 0.00000000E+00	 0.00000000E+00	 0.00000000E+00
	 0.00000000E+00	 0.00000000E+00	 0.00000000E+00

	 0.00000000E+00	 0.00000000E+00	 0.00000000E+00
	 0.00000000E+00	 0.00000000E+00	 0.00000000E+00
	 0.00000000E+00	 0.00000000E+00	 0.00000000E+00

	 0.00000000E+00	 0.00000000E+00	 0.00000000E+00
	 0.00000000E+00	 0.00000000E+00	 0.00000000E+00
	 0.00000000E+00	 0.00000000E+00	 0.00000000E+00

	 0.00000000E+00	 0.00000000E+00	 0.00000000E+00
	 0.00000000E+00	 0.00000000E+00	 0.00000000E+00
	 0.00000000E+00	 0.00000000E+00	 0.00000000E+00

	 0.00000000E+00	 0.00000000E+00	 0.00000000E+00
	 0.00000000E+00	 0.00000000E+00	 0.00000000E+00
	 0.00000000E+00	 0.00000000E+00	 0.00000000E+00

	 0.00000000E+00	 0.00000000E+00	 0.00000000E+00
	 0.00000000E+00	 0.00000000E+00	 0.00000000E+00
	 0.00000000E+00	 0.00000000E+00	 0.00000000E+00

	 0.00000000E+00	 0.00000000E+00	 0.00000000E+00
	 0.00000000E+00	 0.00000000E+00	 0.00000000E+00
	 0.00000000E+00	 0.00000000E+00	 0.00000000E+00

	 0.00000000E+00	 0.00000000E+00	 0.00000000E+00
	 0.00000000E+00	 0.00000000E+00	 0.00000000E+00
	 0.00000000E+00	 0.00000000E+00	 0.00000000E+00

	 0.00000000E+00	 0.00000000E+00	 0.00000000E+00
	 0.00000000E+00	 0.00000000E+00	 0.00000000E+00
	 0.00000000E+00	 0.00000000E+00	 0.00000000E+00

	 0.00000000E+00	 0.00000000E+00	 0.00000000E+00
	 0.00000000E+00	 0.00000000E+00	 0.00000000E+00
	 0.00000000E+00	 0.00000000E+00	 0.00000000E+00

	 0.00000000E+00	 0.00000000E+00	 0.00000000E+00
	 0.00000000E+00	 0.00000000E+00	 0.00000000E+00
	 0.00000000E+00	 0.00000000E+00	 0.00000000E+00

	 0.00000000E+00	 0.00000000E+00	 0.00000000E+00
	 0.00000000E+00	 0.00000000E+00	 0.00000000E+00
	 0.00000000E+00	 0.00000000E+00	 0.00000000E+00

	 0.00000000E+00	 0.00000000E+00	 0.00000000E+00
	 0.00000000E+00	 0.00000000E+00	 0.00000000E+00
	 0.00000000E+00	 0.00000000E+00	 0.00000000E+00

	 0.00000000E+00	 0.00000000E+00	 0.00000000E+00
	 0.00000000E+00	 0.00000000E+00	 0.00000000E+00
	 0.00000000E+00	 0.00000000E+00	 0.00000000E+00

	 0.00000000E+00	 0.00000000E+00	 0.00000000E+00
	 0.00000000E+00	 0.00000000E+00	 0.00000000E+00
	 0.00000000E+00	 0.00000000E+00	 0.00000000E+00

	 0.00000000E+00	 0.00000000E+00	 0.00000000E+00
	 0.00000000E+00	 0.00000000E+00	 0.00000000E+00
	 0.00000000E+00	 0.00000000E+00	 0.00000000E+00

	 0.00000000E+00	 0.00000000E+00	 0.00000000E+00
	 0.00000000E+00	 0.00000000E+00	 0.00000000E+00
	 0.00000000E+00	 0.00000000E+00	 0.00000000E+00

	 0.00000000E+00	 0.00000000E+00	 0.00000000E+00
	 0.00000000E+00	 0.00000000E+00	 0.00000000E+00
	 0.00000000E+00	 0.00000000E+00	 0.00000000E+00

	 0.00000000E+00	 0.00000000E+00	 0.00000000E+00
	 0.00000000E+00	 0.00000000E+00	 0.00000000E+00
	 0.00000000E+00	 0.00000000E+00	 0.00000000E+00

	 0.00000000E+00	 0.00000000E+00	 0.00000000E+00
	 0.00000000E+00	 0.00000000E+00	 0.00000000E+00
	 0.00000000E+00	 0.00000000E+00	 0.00000000E+00

	 0.00000000E+00	 0.00000000E+00	 0.00000000E+00
	 0.00000000E+00	 0.00000000E+00	 0.00000000E+00
	 0.00000000E+00	 0.00000000E+00	 0.00000000E+00

	 0.00000000E+00	 0.00000000E+00	 0.00000000E+00
	 0.00000000E+00	 0.00000000E+00	 0.00000000E+00
	 0.00000000E+00	 0.00000000E+00	 0.00000000E+00

	 0.00000000E+00	 0.00000000E+00	 0.00000000E+00
	 0.00000000E+00	 0.00000000E+00	 0.00000000E+00
	 0.00000000E+00	 0.00000000E+00	 0.00000000E+00

	 0.00000000E+00	 0.00000000E+00	 0.00000000E+00
	 0.00000000E+00	 0.00000000E+00	 0.00000000E+00
	 0.00000000E+00	 0.00000000E+00	 0.00000000E+00

	 0.00000000E+00	 0.00000000E+00	 0.00000000E+00
	 0.00000000E+00	 0.00000000E+00	 0.00000000E+00
	 0.00000000E+00	 0.00000000E+00	 0.00000000E+00

	 0.00000000E+00	 0.00000000E+00	 0.00000000E+00
	 0.00000000E+00	 0.00000000E+00	 0.00000000E+00
	 0.00000000E+00	 0.00000000E+00	 0.00000000E+00

	 0.00000000E+00	 0.00000000E+00	 0.00000000E+00
	 0.00000000E+00	 0.00000000E+00	 0.00000000E+00
	 0.00000000E+00	 0.00000000E+00	 0.00000000E+00

	 0.00000000E+00	 0.00000000E+00	 0.00000000E+00
	 0.00000000E+00	 0.00000000E+00	 0.00000000E+00
	 0.00000000E+00	 0.00000000E+00	 0.00000000E+00

	 0.00000000E+00	 0.00000000E+00	 0.00000000E+00
	 0.00000000E+00	 0.00000000E+00	 0.00000000E+00
	 0.00000000E+00	 0.00000000E+00	 0.00000000E+00

	 0.00000000E+00	 0.00000000E+00	 0.00000000E+00
	 0.00000000E+00	 0.00000000E+00	 0.00000000E+00
	 0.00000000E+00	 0.00000000E+00	 0.00000000E+00

	 0.00000000E+00	 0.00000000E+00	 0.00000000E+00
	 0.00000000E+00	 0.00000000E+00	 0.00000000E+00
	 0.00000000E+00	 0.00000000E+00	 0.00000000E+00

	 0.00000000E+00	 0.00000000E+00	 0.00000000E+00
	 0.00000000E+00	 0.00000000E+00	 0.00000000E+00
	 0.00000000E+00	 0.00000000E+00	 0.00000000E+00

	 0.00000000E+00	 0.00000000E+00	 0.00000000E+00
	 0.00000000E+00	 0.00000000E+00	 0.00000000E+00
	 0.00000000E+00	 0.00000000E+00	 0.00000000E+00

	 0.00000000E+00	 0.00000000E+00	 0.00000000E+00
	 0.00000000E+00	 0.00000000E+00	 0.00000000E+00
	 0.00000000E+00	 0.00000000E+00	 0.00000000E+00

	 0.00000000E+00	 0.00000000E+00	 0.00000000E+00
	 0.00000000E+00	 0.00000000E+00	 0.00000000E+00
	 0.00000000E+00	 0.00000000E+00	 0.00000000E+00

	 0.00000000E+00	 0.00000000E+00	 0.00000000E+00
	 0.00000000E+00	 0.00000000E+00	 0.00000000E+00
	 0.00000000E+00	 0.00000000E+00	 0.00000000E+00

	 0.00000000E+00	 0.00000000E+00	 0.00000000E+00
	 0.00000000E+00	 0.00000000E+00	 0.00000000E+00
	 0.00000000E+00	 0.00000000E+00	 0.00000000E+00

	 0.00000000E+00	 0.00000000E+00	 0.00000000E+00
	 0.00000000E+00	 0.00000000E+00	 0.00000000E+00
	 0.00000000E+00	 0.00000000E+00	 0.00000000E+00

	 0.00000000E+00	 0.00000000E+00	 0.00000000E+00
	 0.00000000E+00	 0.00000000E+00	 0.00000000E+00
	 0.00000000E+00	 0.00000000E+00	 0.00000000E+00

	 0.00000000E+00	 0.00000000E+00	 0.00000000E+00
	 0.00000000E+00	 0.00000000E+00	 0.00000000E+00
	 0.00000000E+00	 0.00000000E+00	 0.00000000E+00

	 0.00000000E+00	 0.00000000E+00	 0.00000000E+00
	 0.00000000E+00	 0.00000000E+00	 0.00000000E+00
	 0.00000000E+00	 0.00000000E+00	 0.00000000E+00

	 0.00000000E+00	 0.00000000E+00	 0.00000000E+00
	 0.00000000E+00	 0.00000000E+00	 0.00000000E+00
	 0.00000000E+00	 0.00000000E+00	 0.00000000E+00

	 0.00000000E+00	 0.00000000E+00	 0.00000000E+00
	 0.00000000E+00	 0.00000000E+00	 0.00000000E+00
	 0.00000000E+00	 0.00000000E+00	 0.00000000E+00

	 0.00000000E+00	 0.00000000E+00	 0.00000000E+00
	 0.00000000E+00	 0.00000000E+00	 0.00000000E+00
	 0.00000000E+00	 0.00000000E+00	 0.00000000E+00

	 0.00000000E+00	 0.00000000E+00	 0.00000000E+00
	 0.00000000E+00	 0.00000000E+00	 0.00000000E+00
	 0.00000000E+00	 0.00000000E+00	 0.00000000E+00

	 0.00000000E+00	 0.00000000E+00	 0.00000000E+00
	 0.00000000E+00	 0.00000000E+00	 0.00000000E+00
	 0.00000000E+00	 0.00000000E+00	 0.00000000E+00

	 0.00000000E+00	 0.00000000E+00	 0.00000000E+00
	 0.00000000E+00	 0.00000000E+00	 0.00000000E+00
	 0.00000000E+00	 0.00000000E+00	 0.00000000E+00

	 0.00000000E+00	 0.00000000E+00	 0.00000000E+00
	 0.00000000E+00	 0.00000000E+00	 0.00000000E+00
	 0.00000000E+00	 0.00000000E+00	 0.00000000E+00

	 0.00000000E+00	 0.00000000E+00	 0.00000000E+00
	 0.00000000E+00	 0.00000000E+00	 0.00000000E+00
	 0.00000000E+00	 0.00000000E+00	 0.00000000E+00

	 0.00000000E+00	 0.00000000E+00	 0.00000000E+00
	 0.00000000E+00	 0.00000000E+00	 0.00000000E+00
	 0.00000000E+00	 0.00000000E+00	 0.00000000E+00

	 0.00000000E+00	 0.00000000E+00	 0.00000000E+00
	 0.00000000E+00	 0.00000000E+00	 0.00000000E+00
	 0.00000000E+00	 0.00000000E+00	 0.00000000E+00

	 0.00000000E+00	 0.00000000E+00	 0.00000000E+00
	 0.00000000E+00	 0.00000000E+00	 0.00000000E+00
	 0.00000000E+00	 0.00000000E+00	 0.00000000E+00

	 0.00000000E+00	 0.00000000E+00	 0.00000000E+00
	 0.00000000E+00	 0.00000000E+00	 0.00000000E+00
	 0.00000000E+00	 0.00000000E+00	 0.00000000E+00

	 0.00000000E+00	 0.00000000E+00	 0.00000000E+00
	 0.00000000E+00	 0.00000000E+00	 0.00000000E+00
	 0.00000000E+00	 0.00000000E+00	 0.00000000E+00

	 0.00000000E+00	 0.00000000E+00	 0.00000000E+00
	 0.00000000E+00	 0.00000000E+00	 0.00000000E+00
	 0.00000000E+00	 0.00000000E+00	 0.00000000E+00

	 0.00000000E+00	 0.00000000E+00	 0.00000000E+00
	 0.00000000E+00	 0.00000000E+00	 0.00000000E+00
	 0.00000000E+00	 0.00000000E+00	 0.00000000E+00

	 0.00000000E+00	 0.00000000E+00	 0.00000000E+00
	 0.00000000E+00	 0.00000000E+00	 0.00000000E+00
	 0.00000000E+00	 0.00000000E+00	 0.00000000E+00

	 0.00000000E+00	 0.00000000E+00	 0.00000000E+00
	 0.00000000E+00	 0.00000000E+00	 0.00000000E+00
	 0.00000000E+00	 0.00000000E+00	 0.00000000E+00

	 0.00000000E+00	 0.00000000E+00	 0.00000000E+00
	 0.00000000E+00	 0.00000000E+00	 0.00000000E+00
	 0.00000000E+00	 0.00000000E+00	 0.00000000E+00

	 0.00000000E+00	 0.00000000E+00	 0.00000000E+00
	 0.00000000E+00	 0.00000000E+00	 0.00000000E+00
	 0.00000000E+00	 0.00000000E+00	 0.00000000E+00

	 0.00000000E+00	 0.00000000E+00	 0.00000000E+00
	 0.00000000E+00	 0.00000000E+00	 0.00000000E+00
	 0.00000000E+00	 0.00000000E+00	 0.00000000E+00

	 0.00000000E+00	 0.00000000E+00	 0.00000000E+00
	 0.00000000E+00	 0.00000000E+00	 0.00000000E+00
	 0.00000000E+00	 0.00000000E+00	 0.00000000E+00

	 0.00000000E+00	 0.00000000E+00	 0.00000000E+00
	 0.00000000E+00	 0.00000000E+00	 0.00000000E+00
	 0.00000000E+00	 0.00000000E+00	 0.00000000E+00

	 0.00000000E+00	 0.00000000E+00	 0.00000000E+00
	 0.00000000E+00	 0.00000000E+00	 0.00000000E+00
	 0.00000000E+00	 0.00000000E+00	 0.00000000E+00

	 0.00000000E+00	 0.00000000E+00	 0.00000000E+00
	 0.00000000E+00	 0.00000000E+00	 0.00000000E+00
	 0.00000000E+00	 0.00000000E+00	 0.00000000E+00

	 0.00000000E+00	 0.00000000E+00	 0.00000000E+00
	 0.00000000E+00	 0.00000000E+00	 0.00000000E+00
	 0.00000000E+00	 0.00000000E+00	 0.00000000E+00

	 0.00000000E+00	 0.00000000E+00	 0.00000000E+00
	 0.00000000E+00	 0.00000000E+00	 0.00000000E+00
	 0.00000000E+00	 0.00000000E+00	 0.00000000E+00

	 0.00000000E+00	 0.00000000E+00	 0.00000000E+00
	 0.00000000E+00	 0.00000000E+00	 0.00000000E+00
	 0.00000000E+00	 0.00000000E+00	 0.00000000E+00

	 0.00000000E+00	 0.00000000E+00	 0.00000000E+00
	 0.00000000E+00	 0.00000000E+00	 0.00000000E+00
	 0.00000000E+00	 0.00000000E+00	 0.00000000E+00

	 0.00000000E+00	 0.00000000E+00	 0.00000000E+00
	 0.00000000E+00	 0.00000000E+00	 0.00000000E+00
	 0.00000000E+00	 0.00000000E+00	 0.00000000E+00

	 0.00000000E+00	 0.00000000E+00	 0.00000000E+00
	 0.00000000E+00	 0.00000000E+00	 0.00000000E+00
	 0.00000000E+00	 0.00000000E+00	 0.00000000E+00

	 0.00000000E+00	 0.00000000E+00	 0.00000000E+00
	 0.00000000E+00	 0.00000000E+00	 0.00000000E+00
	 0.00000000E+00	 0.00000000E+00	 0.00000000E+00

	 0.00000000E+00	 0.00000000E+00	 0.00000000E+00
	 0.00000000E+00	 0.00000000E+00	 0.00000000E+00
	 0.00000000E+00	 0.00000000E+00	 0.00000000E+00

	 0.00000000E+00	 0.00000000E+00	 0.00000000E+00
	 0.00000000E+00	 0.00000000E+00	 0.00000000E+00
	 0.00000000E+00	 0.00000000E+00	 0.00000000E+00

	 0.00000000E+00	 0.00000000E+00	 0.00000000E+00
	 0.00000000E+00	 0.00000000E+00	 0.00000000E+00
	 0.00000000E+00	 0.00000000E+00	 0.00000000E+00

	 0.00000000E+00	 0.00000000E+00	 0.00000000E+00
	 0.00000000E+00	 0.00000000E+00	 0.00000000E+00
	 0.00000000E+00	 0.00000000E+00	 0.00000000E+00

	 0.00000000E+00	 0.00000000E+00	 0.00000000E+00
	 0.00000000E+00	 0.00000000E+00	 0.00000000E+00
	 0.00000000E+00	 0.00000000E+00	 0.00000000E+00

	 0.00000000E+00	 0.00000000E+00	 0.00000000E+00
	 0.00000000E+00	 0.00000000E+00	 0.00000000E+00
	 0.00000000E+00	 0.00000000E+00	 0.00000000E+00

	 0.00000000E+00	 0.00000000E+00	 0.00000000E+00
	 0.00000000E+00	 0.00000000E+00	 0.00000000E+00
	 0.00000000E+00	 0.00000000E+00	 0.00000000E+00

	 0.00000000E+00	 0.00000000E+00	 0.00000000E+00
	 0.00000000E+00	 0.00000000E+00	 0.00000000E+00
	 0.00000000E+00	 0.00000000E+00	 0.00000000E+00

	 0.00000000E+00	 0.00000000E+00	 0.00000000E+00
	 0.00000000E+00	 0.00000000E+00	 0.00000000E+00
	 0.00000000E+00	 0.00000000E+00	 0.00000000E+00

	 0.00000000E+00	 0.00000000E+00	 0.00000000E+00
	 0.00000000E+00	 0.00000000E+00	 0.00000000E+00
	 0.00000000E+00	 0.00000000E+00	 0.00000000E+00

	 0.00000000E+00	 0.00000000E+00	 0.00000000E+00
	 0.00000000E+00	 0.00000000E+00	 0.00000000E+00
	 0.00000000E+00	 0.00000000E+00	 0.00000000E+00

	 0.00000000E+00	 0.00000000E+00	 0.00000000E+00
	 0.00000000E+00	 0.00000000E+00	 0.00000000E+00
	 0.00000000E+00	 0.00000000E+00	 0.00000000E+00

	 0.00000000E+00	 0.00000000E+00	 0.00000000E+00
	 0.00000000E+00	 0.00000000E+00	 0.00000000E+00
	 0.00000000E+00	 0.00000000E+00	 0.00000000E+00

	 0.00000000E+00	 0.00000000E+00	 0.00000000E+00
	 0.00000000E+00	 0.00000000E+00	 0.00000000E+00
	 0.00000000E+00	 0.00000000E+00	 0.00000000E+00

	 0.00000000E+00	 0.00000000E+00	 0.00000000E+00
	 0.00000000E+00	 0.00000000E+00	 0.00000000E+00
	 0.00000000E+00	 0.00000000E+00	 0.00000000E+00

	 0.00000000E+00	 0.00000000E+00	 0.00000000E+00
	 0.00000000E+00	 0.00000000E+00	 0.00000000E+00
	 0.00000000E+00	 0.00000000E+00	 0.00000000E+00

	 0.00000000E+00	 0.00000000E+00	 0.00000000E+00
	 0.00000000E+00	 0.00000000E+00	 0.00000000E+00
	 0.00000000E+00	 0.00000000E+00	 0.00000000E+00

	 0.00000000E+00	 0.00000000E+00	 0.00000000E+00
	 0.00000000E+00	 0.00000000E+00	 0.00000000E+00
	 0.00000000E+00	 0.00000000E+00	 0.00000000E+00

	 0.00000000E+00	 0.00000000E+00	 0.00000000E+00
	 0.00000000E+00	 0.00000000E+00	 0.00000000E+00
	 0.00000000E+00	 0.00000000E+00	 0.00000000E+00

	 0.00000000E+00	 0.00000000E+00	 0.00000000E+00
	 0.00000000E+00	 0.00000000E+00	 0.00000000E+00
	 0.00000000E+00	 0.00000000E+00	 0.00000000E+00

	 0.00000000E+00	 0.00000000E+00	 0.00000000E+00
	 0.00000000E+00	 0.00000000E+00	 0.00000000E+00
	 0.00000000E+00	 0.00000000E+00	 0.00000000E+00

	 0.00000000E+00	 0.00000000E+00	 0.00000000E+00
	 0.00000000E+00	 0.00000000E+00	 0.00000000E+00
	 0.00000000E+00	 0.00000000E+00	 0.00000000E+00

	 0.00000000E+00	 0.00000000E+00	 0.00000000E+00
	 0.00000000E+00	 0.00000000E+00	 0.00000000E+00
	 0.00000000E+00	 0.00000000E+00	 0.00000000E+00

	 0.00000000E+00	 0.00000000E+00	 0.00000000E+00
	 0.00000000E+00	 0.00000000E+00	 0.00000000E+00
	 0.00000000E+00	 0.00000000E+00	 0.00000000E+00

	 0.00000000E+00	 0.00000000E+00	 0.00000000E+00
	 0.00000000E+00	 0.00000000E+00	 0.00000000E+00
	 0.00000000E+00	 0.00000000E+00	 0.00000000E+00

	 0.00000000E+00	 0.00000000E+00	 0.00000000E+00
	 0.00000000E+00	 0.00000000E+00	 0.00000000E+00
	 0.00000000E+00	 0.00000000E+00	 0.00000000E+00

	 0.00000000E+00	 0.00000000E+00	 0.00000000E+00
	 0.00000000E+00	 0.00000000E+00	 0.00000000E+00
	 0.00000000E+00	 0.00000000E+00	 0.00000000E+00

	 0.00000000E+00	 0.00000000E+00	 0.00000000E+00
	 0.00000000E+00	 0.00000000E+00	 0.00000000E+00
	 0.00000000E+00	 0.00000000E+00	 0.00000000E+00

	 0.00000000E+00	 0.00000000E+00	 0.00000000E+00
	 0.00000000E+00	 0.00000000E+00	 0.00000000E+00
	 0.00000000E+00	 0.00000000E+00	 0.00000000E+00

	 0.00000000E+00	 0.00000000E+00	 0.00000000E+00
	 0.00000000E+00	 0.00000000E+00	 0.00000000E+00
	 0.00000000E+00	 0.00000000E+00	 0.00000000E+00

	 0.00000000E+00	 0.00000000E+00	 0.00000000E+00
	 0.00000000E+00	 0.00000000E+00	 0.00000000E+00
	 0.00000000E+00	 0.00000000E+00	 0.00000000E+00

	 0.00000000E+00	 0.00000000E+00	 0.00000000E+00
	 0.00000000E+00	 0.00000000E+00	 0.00000000E+00
	 0.00000000E+00	 0.00000000E+00	 0.00000000E+00

	 0.00000000E+00	 0.00000000E+00	 0.00000000E+00
	 0.00000000E+00	 0.00000000E+00	 0.00000000E+00
	 0.00000000E+00	 0.00000000E+00	 0.00000000E+00

	 0.00000000E+00	 0.00000000E+00	 0.00000000E+00
	 0.00000000E+00	 0.00000000E+00	 0.00000000E+00
	 0.00000000E+00	 0.00000000E+00	 0.00000000E+00

	 0.00000000E+00	 0.00000000E+00	 0.00000000E+00
	 0.00000000E+00	 0.00000000E+00	 0.00000000E+00
	 0.00000000E+00	 0.00000000E+00	 0.00000000E+00

	 0.00000000E+00	 0.00000000E+00	 0.00000000E+00
	 0.00000000E+00	 0.00000000E+00	 0.00000000E+00
	 0.00000000E+00	 0.00000000E+00	 0.00000000E+00

	 0.00000000E+00	 0.00000000E+00	 0.00000000E+00
	 0.00000000E+00	 0.00000000E+00	 0.00000000E+00
	 0.00000000E+00	 0.00000000E+00	 0.00000000E+00

	 0.00000000E+00	 0.00000000E+00	 0.00000000E+00
	 0.00000000E+00	 0.00000000E+00	 0.00000000E+00
	 0.00000000E+00	 0.00000000E+00	 0.00000000E+00

	 0.00000000E+00	 0.00000000E+00	 0.00000000E+00
	 0.00000000E+00	 0.00000000E+00	 0.00000000E+00
	 0.00000000E+00	 0.00000000E+00	 0.00000000E+00

	 0.00000000E+00	 0.00000000E+00	 0.00000000E+00
	 0.00000000E+00	 0.00000000E+00	 0.00000000E+00
	 0.00000000E+00	 0.00000000E+00	 0.00000000E+00

	 0.00000000E+00	 0.00000000E+00	 0.00000000E+00
	 0.00000000E+00	 0.00000000E+00	 0.00000000E+00
	 0.00000000E+00	 0.00000000E+00	 0.00000000E+00

	 0.00000000E+00	 0.00000000E+00	 0.00000000E+00
	 0.00000000E+00	 0.00000000E+00	 0.00000000E+00
	 0.00000000E+00	 0.00000000E+00	 0.00000000E+00

	 0.00000000E+00	 0.00000000E+00	 0.00000000E+00
	 0.00000000E+00	 0.00000000E+00	 0.00000000E+00
	 0.00000000E+00	 0.00000000E+00	 0.00000000E+00

	 0.00000000E+00	 0.00000000E+00	 0.00000000E+00
	 0.00000000E+00	 0.00000000E+00	 0.00000000E+00
	 0.00000000E+00	 0.00000000E+00	 0.00000000E+00

	 0.00000000E+00	 0.00000000E+00	 0.00000000E+00
	 0.00000000E+00	 0.00000000E+00	 0.00000000E+00
	 0.00000000E+00	 0.00000000E+00	 0.00000000E+00

	 0.00000000E+00	 0.00000000E+00	 0.00000000E+00
	 0.00000000E+00	 0.00000000E+00	 0.00000000E+00
	 0.00000000E+00	 0.00000000E+00	 0.00000000E+00

	 0.00000000E+00	 0.00000000E+00	 0.00000000E+00
	 0.00000000E+00	 0.00000000E+00	 0.00000000E+00
	 0.00000000E+00	 0.00000000E+00	 0.00000000E+00

	 0.00000000E+00	 0.00000000E+00	 0.00000000E+00
	 0.00000000E+00	 0.00000000E+00	 0.00000000E+00
	 0.00000000E+00	 0.00000000E+00	 0.00000000E+00

	 0.00000000E+00	 0.00000000E+00	 0.00000000E+00
	 0.00000000E+00	 0.00000000E+00	 0.00000000E+00
	 0.00000000E+00	 0.00000000E+00	 0.00000000E+00

	 0.00000000E+00	 0.00000000E+00	 0.00000000E+00
	 0.00000000E+00	 0.00000000E+00	 0.00000000E+00
	 0.00000000E+00	 0.00000000E+00	 0.00000000E+00

	 0.00000000E+00	 0.00000000E+00	 0.00000000E+00
	 0.00000000E+00	 0.00000000E+00	 0.00000000E+00
	 0.00000000E+00	 0.00000000E+00	 0.00000000E+00

	 0.00000000E+00	 0.00000000E+00	 0.00000000E+00
	 0.00000000E+00	 0.00000000E+00	 0.00000000E+00
	 0.00000000E+00	 0.00000000E+00	 0.00000000E+00

	 0.00000000E+00	 0.00000000E+00	 0.00000000E+00
	 0.00000000E+00	 0.00000000E+00	 0.00000000E+00
	 0.00000000E+00	 0.00000000E+00	 0.00000000E+00

	 0.00000000E+00	 0.00000000E+00	 0.00000000E+00
	 0.00000000E+00	 0.00000000E+00	 0.00000000E+00
	 0.00000000E+00	 0.00000000E+00	 0.00000000E+00

	 0.00000000E+00	 0.00000000E+00	 0.00000000E+00
	 0.00000000E+00	 0.00000000E+00	 0.00000000E+00
	 0.00000000E+00	 0.00000000E+00	 0.00000000E+00

	 0.00000000E+00	 0.00000000E+00	 0.00000000E+00
	 0.00000000E+00	 0.00000000E+00	 0.00000000E+00
	 0.00000000E+00	 0.00000000E+00	 0.00000000E+00

	 0.00000000E+00	 0.00000000E+00	 0.00000000E+00
	 0.00000000E+00	 0.00000000E+00	 0.00000000E+00
	 0.00000000E+00	 0.00000000E+00	 0.00000000E+00

	 0.00000000E+00	 0.00000000E+00	 0.00000000E+00
	 0.00000000E+00	 0.00000000E+00	 0.00000000E+00
	 0.00000000E+00	 0.00000000E+00	 0.00000000E+00

	 0.00000000E+00	 0.00000000E+00	 0.00000000E+00
	 0.00000000E+00	 0.00000000E+00	 0.00000000E+00
	 0.00000000E+00	 0.00000000E+00	 0.00000000E+00

	 0.00000000E+00	 0.00000000E+00	 0.00000000E+00
	 0.00000000E+00	 0.00000000E+00	 0.00000000E+00
	 0.00000000E+00	 0.00000000E+00	 0.00000000E+00

	 0.00000000E+00	 0.00000000E+00	 0.00000000E+00
	 0.00000000E+00	 0.00000000E+00	 0.00000000E+00
	 0.00000000E+00	 0.00000000E+00	 0.00000000E+00

	 0.00000000E+00	 0.00000000E+00	 0.00000000E+00
	 0.00000000E+00	 0.00000000E+00	 0.00000000E+00
	 0.00000000E+00	 0.00000000E+00	 0.00000000E+00

	 0.00000000E+00	 0.00000000E+00	 0.00000000E+00
	 0.00000000E+00	 0.00000000E+00	 0.00000000E+00
	 0.00000000E+00	 0.00000000E+00	 0.00000000E+00

	 0.00000000E+00	 0.00000000E+00	 0.00000000E+00
	 0.00000000E+00	 0.00000000E+00	 0.00000000E+00
	 0.00000000E+00	 0.00000000E+00	 0.00000000E+00

	 0.00000000E+00	 0.00000000E+00	 0.00000000E+00
	 0.00000000E+00	 0.00000000E+00	 0.00000000E+00
	 0.00000000E+00	 0.00000000E+00	 0.00000000E+00

	 0.00000000E+00	 0.00000000E+00	 0.00000000E+00
	 0.00000000E+00	 0.00000000E+00	 0.00000000E+00
	 0.00000000E+00	 0.00000000E+00	 0.00000000E+00

	 0.00000000E+00	 0.00000000E+00	 0.00000000E+00
	 0.00000000E+00	 0.00000000E+00	 0.00000000E+00
	 0.00000000E+00	 0.00000000E+00	 0.00000000E+00

	 0.00000000E+00	 0.00000000E+00	 0.00000000E+00
	 0.00000000E+00	 0.00000000E+00	 0.00000000E+00
	 0.00000000E+00	 0.00000000E+00	 0.00000000E+00

	 0.00000000E+00	 0.00000000E+00	 0.00000000E+00
	 0.00000000E+00	 0.00000000E+00	 0.00000000E+00
	 0.00000000E+00	 0.00000000E+00	 0.00000000E+00

	 0.00000000E+00	 0.00000000E+00	 0.00000000E+00
	 0.00000000E+00	 0.00000000E+00	 0.00000000E+00
	 0.00000000E+00	 0.00000000E+00	 0.00000000E+00

	 0.00000000E+00	 0.00000000E+00	 0.00000000E+00
	 0.00000000E+00	 0.00000000E+00	 0.00000000E+00
	 0.00000000E+00	 0.00000000E+00	 0.00000000E+00

	 0.00000000E+00	 0.00000000E+00	 0.00000000E+00
	 0.00000000E+00	 0.00000000E+00	 0.00000000E+00
	 0.00000000E+00	 0.00000000E+00	 0.00000000E+00

	 0.00000000E+00	 0.00000000E+00	 0.00000000E+00
	 0.00000000E+00	 0.00000000E+00	 0.00000000E+00
	 0.00000000E+00	 0.00000000E+00	 0.00000000E+00

	 0.00000000E+00	 0.00000000E+00	 0.00000000E+00
	 0.00000000E+00	 0.00000000E+00	 0.00000000E+00
	 0.00000000E+00	 0.00000000E+00	 0.00000000E+00

	 0.00000000E+00	 0.00000000E+00	 0.00000000E+00
	 0.00000000E+00	 0.00000000E+00	 0.00000000E+00
	 0.00000000E+00	 0.00000000E+00	 0.00000000E+00

	 0.00000000E+00	 0.00000000E+00	 0.00000000E+00
	 0.00000000E+00	 0.00000000E+00	 0.00000000E+00
	 0.00000000E+00	 0.00000000E+00	 0.00000000E+00

	 0.00000000E+00	 0.00000000E+00	 0.00000000E+00
	 0.00000000E+00	 0.00000000E+00	 0.00000000E+00
	 0.00000000E+00	 0.00000000E+00	 0.00000000E+00

	 0.00000000E+00	 0.00000000E+00	 0.00000000E+00
	 0.00000000E+00	 0.00000000E+00	 0.00000000E+00
	 0.00000000E+00	 0.00000000E+00	 0.00000000E+00

	 0.00000000E+00	 0.00000000E+00	 0.00000000E+00
	 0.00000000E+00	 0.00000000E+00	 0.00000000E+00
	 0.00000000E+00	 0.00000000E+00	 0.00000000E+00

	 0.00000000E+00	 0.00000000E+00	 0.00000000E+00
	 0.00000000E+00	 0.00000000E+00	 0.00000000E+00
	 0.00000000E+00	 0.00000000E+00	 0.00000000E+00

	 0.00000000E+00	 0.00000000E+00	 0.00000000E+00
	 0.00000000E+00	 0.00000000E+00	 0.00000000E+00
	 0.00000000E+00	 0.00000000E+00	 0.00000000E+00

	 0.00000000E+00	 0.00000000E+00	 0.00000000E+00
	 0.00000000E+00	 0.00000000E+00	 0.00000000E+00
	 0.00000000E+00	 0.00000000E+00	 0.00000000E+00

	 0.00000000E+00	 0.00000000E+00	 0.00000000E+00
	 0.00000000E+00	 0.00000000E+00	 0.00000000E+00
	 0.00000000E+00	 0.00000000E+00	 0.00000000E+00

	 0.00000000E+00	 0.00000000E+00	 0.00000000E+00
	 0.00000000E+00	 0.00000000E+00	 0.00000000E+00
	 0.00000000E+00	 0.00000000E+00	 0.00000000E+00

	 0.00000000E+00	 0.00000000E+00	 0.00000000E+00
	 0.00000000E+00	 0.00000000E+00	 0.00000000E+00
	 0.00000000E+00	 0.00000000E+00	 0.00000000E+00

	 0.00000000E+00	 0.00000000E+00	 0.00000000E+00
	 0.00000000E+00	 0.00000000E+00	 0.00000000E+00
	 0.00000000E+00	 0.00000000E+00	 0.00000000E+00

	 0.00000000E+00	 0.00000000E+00	 0.00000000E+00
	 0.00000000E+00	 0.00000000E+00	 0.00000000E+00
	 0.00000000E+00	 0.00000000E+00	 0.00000000E+00

	 0.00000000E+00	 0.00000000E+00	 0.00000000E+00
	 0.00000000E+00	 0.00000000E+00	 0.00000000E+00
	 0.00000000E+00	 0.00000000E+00	 0.00000000E+00

	 0.00000000E+00	 0.00000000E+00	 0.00000000E+00
	 0.00000000E+00	 0.00000000E+00	 0.00000000E+00
	 0.00000000E+00	 0.00000000E+00	 0.00000000E+00

	 0.00000000E+00	 0.00000000E+00	 0.00000000E+00
	 0.00000000E+00	 0.00000000E+00	 0.00000000E+00
	 0.00000000E+00	 0.00000000E+00	 0.00000000E+00

	 0.00000000E+00	 0.00000000E+00	 0.00000000E+00
	 0.00000000E+00	 0.00000000E+00	 0.00000000E+00
	 0.00000000E+00	 0.00000000E+00	 0.00000000E+00

	 0.00000000E+00	 0.00000000E+00	 0.00000000E+00
	 0.00000000E+00	 0.00000000E+00	 0.00000000E+00
	 0.00000000E+00	 0.00000000E+00	 0.00000000E+00

	 0.00000000E+00	 0.00000000E+00	 0.00000000E+00
	 0.00000000E+00	 0.00000000E+00	 0.00000000E+00
	 0.00000000E+00	 0.00000000E+00	 0.00000000E+00

	 0.00000000E+00	 0.00000000E+00	 0.00000000E+00
	 0.00000000E+00	 0.00000000E+00	 0.00000000E+00
	 0.00000000E+00	 0.00000000E+00	 0.00000000E+00

	 0.00000000E+00	 0.00000000E+00	 0.00000000E+00
	 0.00000000E+00	 0.00000000E+00	 0.00000000E+00
	 0.00000000E+00	 0.00000000E+00	 0.00000000E+00

	 0.00000000E+00	 0.00000000E+00	 0.00000000E+00
	 0.00000000E+00	 0.00000000E+00	 0.00000000E+00
	 0.00000000E+00	 0.00000000E+00	 0.00000000E+00

	 0.00000000E+00	 0.00000000E+00	 0.00000000E+00
	 0.00000000E+00	 0.00000000E+00	 0.00000000E+00
	 0.00000000E+00	 0.00000000E+00	 0.00000000E+00

	 0.00000000E+00	 0.00000000E+00	 0.00000000E+00
	 0.00000000E+00	 0.00000000E+00	 0.00000000E+00
	 0.00000000E+00	 0.00000000E+00	 0.00000000E+00

	 0.00000000E+00	 0.00000000E+00	 0.00000000E+00
	 0.00000000E+00	 0.00000000E+00	 0.00000000E+00
	 0.00000000E+00	 0.00000000E+00	 0.00000000E+00

	 0.00000000E+00	 0.00000000E+00	 0.00000000E+00
	 0.00000000E+00	 0.00000000E+00	 0.00000000E+00
	 0.00000000E+00	 0.00000000E+00	 0.00000000E+00

	 0.00000000E+00	 0.00000000E+00	 0.00000000E+00
	 0.00000000E+00	 0.00000000E+00	 0.00000000E+00
	 0.00000000E+00	 0.00000000E+00	 0.00000000E+00

	 0.00000000E+00	 0.00000000E+00	 0.00000000E+00
	 0.00000000E+00	 0.00000000E+00	 0.00000000E+00
	 0.00000000E+00	 0.00000000E+00	 0.00000000E+00

	 0.00000000E+00	 0.00000000E+00	 0.00000000E+00
	 0.00000000E+00	 0.00000000E+00	 0.00000000E+00
	 0.00000000E+00	 0.00000000E+00	 0.00000000E+00

	 0.00000000E+00	 0.00000000E+00	 0.00000000E+00
	 0.00000000E+00	 0.00000000E+00	 0.00000000E+00
	 0.00000000E+00	 0.00000000E+00	 0.00000000E+00

	 0.00000000E+00	 0.00000000E+00	 0.00000000E+00
	 0.00000000E+00	 0.00000000E+00	 0.00000000E+00
	 0.00000000E+00	 0.00000000E+00	 0.00000000E+00

	 0.00000000E+00	 0.00000000E+00	 0.00000000E+00
	 0.00000000E+00	 0.00000000E+00	 0.00000000E+00
	 0.00000000E+00	 0.00000000E+00	 0.00000000E+00

	 0.00000000E+00	 0.00000000E+00	 0.00000000E+00
	 0.00000000E+00	 0.00000000E+00	 0.00000000E+00
	 0.00000000E+00	 0.00000000E+00	 0.00000000E+00

	 0.00000000E+00	 0.00000000E+00	 0.00000000E+00
	 0.00000000E+00	 0.00000000E+00	 0.00000000E+00
	 0.00000000E+00	 0.00000000E+00	 0.00000000E+00

	 0.00000000E+00	 0.00000000E+00	 0.00000000E+00
	 0.00000000E+00	 0.00000000E+00	 0.00000000E+00
	 0.00000000E+00	 0.00000000E+00	 0.00000000E+00

	 0.00000000E+00	 0.00000000E+00	 0.00000000E+00
	 0.00000000E+00	 0.00000000E+00	 0.00000000E+00
	 0.00000000E+00	 0.00000000E+00	 0.00000000E+00

	 0.00000000E+00	 0.00000000E+00	 0.00000000E+00
	 0.00000000E+00	 0.00000000E+00	 0.00000000E+00
	 0.00000000E+00	 0.00000000E+00	 0.00000000E+00

	 0.00000000E+00	 0.00000000E+00	 0.00000000E+00
	 0.00000000E+00	 0.00000000E+00	 0.00000000E+00
	 0.00000000E+00	 0.00000000E+00	 0.00000000E+00

	 0.00000000E+00	 0.00000000E+00	 0.00000000E+00
	 0.00000000E+00	 0.00000000E+00	 0.00000000E+00
	 0.00000000E+00	 0.00000000E+00	 0.00000000E+00

	 0.00000000E+00	 0.00000000E+00	 0.00000000E+00
	 0.00000000E+00	 0.00000000E+00	 0.00000000E+00
	 0.00000000E+00	 0.00000000E+00	 0.00000000E+00

	 0.00000000E+00	 0.00000000E+00	 0.00000000E+00
	 0.00000000E+00	 0.00000000E+00	 0.00000000E+00
	 0.00000000E+00	 0.00000000E+00	 0.00000000E+00

	 0.00000000E+00	 0.00000000E+00	 0.00000000E+00
	 0.00000000E+00	 0.00000000E+00	 0.00000000E+00
	 0.00000000E+00	 0.00000000E+00	 0.00000000E+00

	 0.00000000E+00	 0.00000000E+00	 0.00000000E+00
	 0.00000000E+00	 0.00000000E+00	 0.00000000E+00
	 0.00000000E+00	 0.00000000E+00	 0.00000000E+00

	 0.00000000E+00	 0.00000000E+00	 0.00000000E+00
	 0.00000000E+00	 0.00000000E+00	 0.00000000E+00
	 0.00000000E+00	 0.00000000E+00	 0.00000000E+00

	 0.00000000E+00	 0.00000000E+00	 0.00000000E+00
	 0.00000000E+00	 0.00000000E+00	 0.00000000E+00
	 0.00000000E+00	 0.00000000E+00	 0.00000000E+00

	 0.00000000E+00	 0.00000000E+00	 0.00000000E+00
	 0.00000000E+00	 0.00000000E+00	 0.00000000E+00
	 0.00000000E+00	 0.00000000E+00	 0.00000000E+00

	 0.00000000E+00	 0.00000000E+00	 0.00000000E+00
	 0.00000000E+00	 0.00000000E+00	 0.00000000E+00
	 0.00000000E+00	 0.00000000E+00	 0.00000000E+00

	 0.00000000E+00	 0.00000000E+00	 0.00000000E+00
	 0.00000000E+00	 0.00000000E+00	 0.00000000E+00
	 0.00000000E+00	 0.00000000E+00	 0.00000000E+00

	 0.00000000E+00	 0.00000000E+00	 0.00000000E+00
	 0.00000000E+00	 0.00000000E+00	 0.00000000E+00
	 0.00000000E+00	 0.00000000E+00	 0.00000000E+00

	 0.00000000E+00	 0.00000000E+00	 0.00000000E+00
	 0.00000000E+00	 0.00000000E+00	 0.00000000E+00
	 0.00000000E+00	 0.00000000E+00	 0.00000000E+00

	 0.00000000E+00	 0.00000000E+00	 0.00000000E+00
	 0.00000000E+00	 0.00000000E+00	 0.00000000E+00
	 0.00000000E+00	 0.00000000E+00	 0.00000000E+00

	 0.00000000E+00	 0.00000000E+00	 0.00000000E+00
	 0.00000000E+00	 0.00000000E+00	 0.00000000E+00
	 0.00000000E+00	 0.00000000E+00	 0.00000000E+00

	 0.00000000E+00	 0.00000000E+00	 0.00000000E+00
	 0.00000000E+00	 0.00000000E+00	 0.00000000E+00
	 0.00000000E+00	 0.00000000E+00	 0.00000000E+00

	 0.00000000E+00	 0.00000000E+00	 0.00000000E+00
	 0.00000000E+00	 0.00000000E+00	 0.00000000E+00
	 0.00000000E+00	 0.00000000E+00	 0.00000000E+00

	 0.00000000E+00	 0.00000000E+00	 0.00000000E+00
	 0.00000000E+00	 0.00000000E+00	 0.00000000E+00
	 0.00000000E+00	 0.00000000E+00	 0.00000000E+00

	 0.00000000E+00	 0.00000000E+00	 0.00000000E+00
	 0.00000000E+00	 0.00000000E+00	 0.00000000E+00
	 0.00000000E+00	 0.00000000E+00	 0.00000000E+00

	 0.00000000E+00	 0.00000000E+00	 0.00000000E+00
	 0.00000000E+00	 0.00000000E+00	 0.00000000E+00
	 0.00000000E+00	 0.00000000E+00	 0.00000000E+00

	 0.00000000E+00	 0.00000000E+00	 0.00000000E+00
	 0.00000000E+00	 0.00000000E+00	 0.00000000E+00
	 0.00000000E+00	 0.00000000E+00	 0.00000000E+00

	 0.00000000E+00	 0.00000000E+00	 0.00000000E+00
	 0.00000000E+00	 0.00000000E+00	 0.00000000E+00
	 0.00000000E+00	 0.00000000E+00	 0.00000000E+00

	 0.00000000E+00	 0.00000000E+00	 0.00000000E+00
	 0.00000000E+00	 0.00000000E+00	 0.00000000E+00
	 0.00000000E+00	 0.00000000E+00	 0.00000000E+00

	 0.00000000E+00	 0.00000000E+00	 0.00000000E+00
	 0.00000000E+00	 0.00000000E+00	 0.00000000E+00
	 0.00000000E+00	 0.00000000E+00	 0.00000000E+00

	 0.00000000E+00	 0.00000000E+00	 0.00000000E+00
	 0.00000000E+00	 0.00000000E+00	 0.00000000E+00
	 0.00000000E+00	 0.00000000E+00	 0.00000000E+00

	 0.00000000E+00	 0.00000000E+00	 0.00000000E+00
	 0.00000000E+00	 0.00000000E+00	 0.00000000E+00
	 0.00000000E+00	 0.00000000E+00	 0.00000000E+00

	 0.00000000E+00	 0.00000000E+00	 0.00000000E+00
	 0.00000000E+00	 0.00000000E+00	 0.00000000E+00
	 0.00000000E+00	 0.00000000E+00	 0.00000000E+00

	 0.00000000E+00	 0.00000000E+00	 0.00000000E+00
	 0.00000000E+00	 0.00000000E+00	 0.00000000E+00
	 0.00000000E+00	 0.00000000E+00	 0.00000000E+00

	 0.00000000E+00	 0.00000000E+00	 0.00000000E+00
	 0.00000000E+00	 0.00000000E+00	 0.00000000E+00
	 0.00000000E+00	 0.00000000E+00	 0.00000000E+00

	 0.00000000E+00	 0.00000000E+00	 0.00000000E+00
	 0.00000000E+00	 0.00000000E+00	 0.00000000E+00
	 0.00000000E+00	 0.00000000E+00	 0.00000000E+00

	 0.00000000E+00	 0.00000000E+00	 0.00000000E+00
	 0.00000000E+00	 0.00000000E+00	 0.00000000E+00
	 0.00000000E+00	 0.00000000E+00	 0.00000000E+00

	 0.00000000E+00	 0.00000000E+00	 0.00000000E+00
	 0.00000000E+00	 0.00000000E+00	 0.00000000E+00
	 0.00000000E+00	 0.00000000E+00	 0.00000000E+00

	 0.00000000E+00	 0.00000000E+00	 0.00000000E+00
	 0.00000000E+00	 0.00000000E+00	 0.00000000E+00
	 0.00000000E+00	 0.00000000E+00	 0.00000000E+00

	 0.00000000E+00	 0.00000000E+00	 0.00000000E+00
	 0.00000000E+00	 0.00000000E+00	 0.00000000E+00
	 0.00000000E+00	 0.00000000E+00	 0.00000000E+00

	 0.00000000E+00	 0.00000000E+00	 0.00000000E+00
	 0.00000000E+00	 0.00000000E+00	 0.00000000E+00
	 0.00000000E+00	 0.00000000E+00	 0.00000000E+00

	 0.00000000E+00	 0.00000000E+00	 0.00000000E+00
	 0.00000000E+00	 0.00000000E+00	 0.00000000E+00
	 0.00000000E+00	 0.00000000E+00	 0.00000000E+00

	 0.00000000E+00	 0.00000000E+00	 0.00000000E+00
	 0.00000000E+00	 0.00000000E+00	 0.00000000E+00
	 0.00000000E+00	 0.00000000E+00	 0.00000000E+00

	 0.00000000E+00	 0.00000000E+00	 0.00000000E+00
	 0.00000000E+00	 0.00000000E+00	 0.00000000E+00
	 0.00000000E+00	 0.00000000E+00	 0.00000000E+00

	 0.00000000E+00	 0.00000000E+00	 0.00000000E+00
	 0.00000000E+00	 0.00000000E+00	 0.00000000E+00
	 0.00000000E+00	 0.00000000E+00	 0.00000000E+00

	 0.00000000E+00	 0.00000000E+00	 0.00000000E+00
	 0.00000000E+00	 0.00000000E+00	 0.00000000E+00
	 0.00000000E+00	 0.00000000E+00	 0.00000000E+00

	 0.00000000E+00	 0.00000000E+00	 0.00000000E+00
	 0.00000000E+00	 0.00000000E+00	 0.00000000E+00
	 0.00000000E+00	 0.00000000E+00	 0.00000000E+00

	 0.00000000E+00	 0.00000000E+00	 0.00000000E+00
	 0.00000000E+00	 0.00000000E+00	 0.00000000E+00
	 0.00000000E+00	 0.00000000E+00	 0.00000000E+00

	 0.00000000E+00	 0.00000000E+00	 0.00000000E+00
	 0.00000000E+00	 0.00000000E+00	 0.00000000E+00
	 0.00000000E+00	 0.00000000E+00	 0.00000000E+00

	 0.00000000E+00	 0.00000000E+00	 0.00000000E+00
	 0.00000000E+00	 0.00000000E+00	 0.00000000E+00
	 0.00000000E+00	 0.00000000E+00	 0.00000000E+00

	 0.00000000E+00	 0.00000000E+00	 0.00000000E+00
	 0.00000000E+00	 0.00000000E+00	 0.00000000E+00
	 0.00000000E+00	 0.00000000E+00	 0.00000000E+00

	 0.00000000E+00	 0.00000000E+00	 0.00000000E+00
	 0.00000000E+00	 0.00000000E+00	 0.00000000E+00
	 0.00000000E+00	 0.00000000E+00	 0.00000000E+00

	 0.00000000E+00	 0.00000000E+00	 0.00000000E+00
	 0.00000000E+00	 0.00000000E+00	 0.00000000E+00
	 0.00000000E+00	 0.00000000E+00	 0.00000000E+00

	 0.00000000E+00	 0.00000000E+00	 0.00000000E+00
	 0.00000000E+00	 0.00000000E+00	 0.00000000E+00
	 0.00000000E+00	 0.00000000E+00	 0.00000000E+00

	 0.00000000E+00	 0.00000000E+00	 0.00000000E+00
	 0.00000000E+00	 0.00000000E+00	 0.00000000E+00
	 0.00000000E+00	 0.00000000E+00	 0.00000000E+00

	 0.00000000E+00	 0.00000000E+00	 0.00000000E+00
	 0.00000000E+00	 0.00000000E+00	 0.00000000E+00
	 0.00000000E+00	 0.00000000E+00	 0.00000000E+00

	 0.00000000E+00	 0.00000000E+00	 0.00000000E+00
	 0.00000000E+00	 0.00000000E+00	 0.00000000E+00
	 0.00000000E+00	 0.00000000E+00	 0.00000000E+00

	 0.00000000E+00	 0.00000000E+00	 0.00000000E+00
	 0.00000000E+00	 0.00000000E+00	 0.00000000E+00
	 0.00000000E+00	 0.00000000E+00	 0.00000000E+00

	 0.00000000E+00	 0.00000000E+00	 0.00000000E+00
	 0.00000000E+00	 0.00000000E+00	 0.00000000E+00
	 0.00000000E+00	 0.00000000E+00	 0.00000000E+00

	 0.00000000E+00	 0.00000000E+00	 0.00000000E+00
	 0.00000000E+00	 0.00000000E+00	 0.00000000E+00
	 0.00000000E+00	 0.00000000E+00	 0.00000000E+00

	 0.00000000E+00	 0.00000000E+00	 0.00000000E+00
	 0.00000000E+00	 0.00000000E+00	 0.00000000E+00
	 0.00000000E+00	 0.00000000E+00	 0.00000000E+00

	 0.00000000E+00	 0.00000000E+00	 0.00000000E+00
	 0.00000000E+00	 0.00000000E+00	 0.00000000E+00
	 0.00000000E+00	 0.00000000E+00	 0.00000000E+00

	 0.00000000E+00	 0.00000000E+00	 0.00000000E+00
	 0.00000000E+00	 0.00000000E+00	 0.00000000E+00
	 0.00000000E+00	 0.00000000E+00	 0.00000000E+00

	 0.00000000E+00	 0.00000000E+00	 0.00000000E+00
	 0.00000000E+00	 0.00000000E+00	 0.00000000E+00
	 0.00000000E+00	 0.00000000E+00	 0.00000000E+00

	 0.00000000E+00	 0.00000000E+00	 0.00000000E+00
	 0.00000000E+00	 0.00000000E+00	 0.00000000E+00
	 0.00000000E+00	 0.00000000E+00	 0.00000000E+00

	 0.00000000E+00	 0.00000000E+00	 0.00000000E+00
	 0.00000000E+00	 0.00000000E+00	 0.00000000E+00
	 0.00000000E+00	 0.00000000E+00	 0.00000000E+00

	 0.00000000E+00	 0.00000000E+00	 0.00000000E+00
	 0.00000000E+00	 0.00000000E+00	 0.00000000E+00
	 0.00000000E+00	 0.00000000E+00	 0.00000000E+00

	 0.00000000E+00	 0.00000000E+00	 0.00000000E+00
	 0.00000000E+00	 0.00000000E+00	 0.00000000E+00
	 0.00000000E+00	 0.00000000E+00	 0.00000000E+00

	 0.00000000E+00	 0.00000000E+00	 0.00000000E+00
	 0.00000000E+00	 0.00000000E+00	 0.00000000E+00
	 0.00000000E+00	 0.00000000E+00	 0.00000000E+00

	 0.00000000E+00	 0.00000000E+00	 0.00000000E+00
	 0.00000000E+00	 0.00000000E+00	 0.00000000E+00
	 0.00000000E+00	 0.00000000E+00	 0.00000000E+00

	 0.00000000E+00	 0.00000000E+00	 0.00000000E+00
	 0.00000000E+00	 0.00000000E+00	 0.00000000E+00
	 0.00000000E+00	 0.00000000E+00	 0.00000000E+00

	 0.00000000E+00	 0.00000000E+00	 0.00000000E+00
	 0.00000000E+00	 0.00000000E+00	 0.00000000E+00
	 0.00000000E+00	 0.00000000E+00	 0.00000000E+00

	 0.00000000E+00	 0.00000000E+00	 0.00000000E+00
	 0.00000000E+00	 0.00000000E+00	 0.00000000E+00
	 0.00000000E+00	 0.00000000E+00	 0.00000000E+00

	 0.00000000E+00	 0.00000000E+00	 0.00000000E+00
	 0.00000000E+00	 0.00000000E+00	 0.00000000E+00
	 0.00000000E+00	 0.00000000E+00	 0.00000000E+00

	 0.00000000E+00	 0.00000000E+00	 0.00000000E+00
	 0.00000000E+00	 0.00000000E+00	 0.00000000E+00
	 0.00000000E+00	 0.00000000E+00	 0.00000000E+00

	 0.00000000E+00	 0.00000000E+00	 0.00000000E+00
	 0.00000000E+00	 0.00000000E+00	 0.00000000E+00
	 0.00000000E+00	 0.00000000E+00	 0.00000000E+00

	 0.00000000E+00	 0.00000000E+00	 0.00000000E+00
	 0.00000000E+00	 0.00000000E+00	 0.00000000E+00
	 0.00000000E+00	 0.00000000E+00	 0.00000000E+00

	 0.00000000E+00	 0.00000000E+00	 0.00000000E+00
	 0.00000000E+00	 0.00000000E+00	 0.00000000E+00
	 0.00000000E+00	 0.00000000E+00	 0.00000000E+00

	 0.00000000E+00	 0.00000000E+00	 0.00000000E+00
	 0.00000000E+00	 0.00000000E+00	 0.00000000E+00
	 0.00000000E+00	 0.00000000E+00	 0.00000000E+00

	 0.00000000E+00	 0.00000000E+00	 0.00000000E+00
	 0.00000000E+00	 0.00000000E+00	 0.00000000E+00
	 0.00000000E+00	 0.00000000E+00	 0.00000000E+00

	 0.00000000E+00	 0.00000000E+00	 0.00000000E+00
	 0.00000000E+00	 0.00000000E+00	 0.00000000E+00
	 0.00000000E+00	 0.00000000E+00	 0.00000000E+00

	 0.00000000E+00	 0.00000000E+00	 0.00000000E+00
	 0.00000000E+00	 0.00000000E+00	 0.00000000E+00
	 0.00000000E+00	 0.00000000E+00	 0.00000000E+00

	 0.00000000E+00	 0.00000000E+00	 0.00000000E+00
	 0.00000000E+00	 0.00000000E+00	 0.00000000E+00
	 0.00000000E+00	 0.00000000E+00	 0.00000000E+00

	 0.00000000E+00	 0.00000000E+00	 0.00000000E+00
	 0.00000000E+00	 0.00000000E+00	 0.00000000E+00
	 0.00000000E+00	 0.00000000E+00	 0.00000000E+00

	 0.00000000E+00	 0.00000000E+00	 0.00000000E+00
	 0.00000000E+00	 0.00000000E+00	 0.00000000E+00
	 0.00000000E+00	 0.00000000E+00	 0.00000000E+00

	 0.00000000E+00	 0.00000000E+00	 0.00000000E+00
	 0.00000000E+00	 0.00000000E+00	 0.00000000E+00
	 0.00000000E+00	 0.00000000E+00	 0.00000000E+00

	 0.00000000E+00	 0.00000000E+00	 0.00000000E+00
	 0.00000000E+00	 0.00000000E+00	 0.00000000E+00
	 0.00000000E+00	 0.00000000E+00	 0.00000000E+00

	 0.00000000E+00	 0.00000000E+00	 0.00000000E+00
	 0.00000000E+00	 0.00000000E+00	 0.00000000E+00
	 0.00000000E+00	 0.00000000E+00	 0.00000000E+00

	 0.00000000E+00	 0.00000000E+00	 0.00000000E+00
	 0.00000000E+00	 0.00000000E+00	 0.00000000E+00
	 0.00000000E+00	 0.00000000E+00	 0.00000000E+00

	 0.00000000E+00	 0.00000000E+00	 0.00000000E+00
	 0.00000000E+00	 0.00000000E+00	 0.00000000E+00
	 0.00000000E+00	 0.00000000E+00	 0.00000000E+00

	 0.00000000E+00	 0.00000000E+00	 0.00000000E+00
	 0.00000000E+00	 0.00000000E+00	 0.00000000E+00
	 0.00000000E+00	 0.00000000E+00	 0.00000000E+00

	 0.00000000E+00	 0.00000000E+00	 0.00000000E+00
	 0.00000000E+00	 0.00000000E+00	 0.00000000E+00
	 0.00000000E+00	 0.00000000E+00	 0.00000000E+00

	 0.00000000E+00	 0.00000000E+00	 0.00000000E+00
	 0.00000000E+00	 0.00000000E+00	 0.00000000E+00
	 0.00000000E+00	 0.00000000E+00	 0.00000000E+00

	 0.00000000E+00	 0.00000000E+00	 0.00000000E+00
	 0.00000000E+00	 0.00000000E+00	 0.00000000E+00
	 0.00000000E+00	 0.00000000E+00	 0.00000000E+00

	 0.00000000E+00	 0.00000000E+00	 0.00000000E+00
	 0.00000000E+00	 0.00000000E+00	 0.00000000E+00
	 0.00000000E+00	 0.00000000E+00	 0.00000000E+00

	 0.00000000E+00	 0.00000000E+00	 0.00000000E+00
	 0.00000000E+00	 0.00000000E+00	 0.00000000E+00
	 0.00000000E+00	 0.00000000E+00	 0.00000000E+00

	 0.00000000E+00	 0.00000000E+00	 0.00000000E+00
	 0.00000000E+00	 0.00000000E+00	 0.00000000E+00
	 0.00000000E+00	 0.00000000E+00	 0.00000000E+00

	 0.00000000E+00	 0.00000000E+00	 0.00000000E+00
	 0.00000000E+00	 0.00000000E+00	 0.00000000E+00
	 0.00000000E+00	 0.00000000E+00	 0.00000000E+00

	 0.00000000E+00	 0.00000000E+00	 0.00000000E+00
	 0.00000000E+00	 0.00000000E+00	 0.00000000E+00
	 0.00000000E+00	 0.00000000E+00	 0.00000000E+00

	 0.00000000E+00	 0.00000000E+00	 0.00000000E+00
	 0.00000000E+00	 0.00000000E+00	 0.00000000E+00
	 0.00000000E+00	 0.00000000E+00	 0.00000000E+00

	 0.00000000E+00	 0.00000000E+00	 0.00000000E+00
	 0.00000000E+00	 0.00000000E+00	 0.00000000E+00
	 0.00000000E+00	 0.00000000E+00	 0.00000000E+00

	 0.00000000E+00	 0.00000000E+00	 0.00000000E+00
	 0.00000000E+00	 0.00000000E+00	 0.00000000E+00
	 0.00000000E+00	 0.00000000E+00	 0.00000000E+00

	 0.00000000E+00	 0.00000000E+00	 0.00000000E+00
	 0.00000000E+00	 0.00000000E+00	 0.00000000E+00
	 0.00000000E+00	 0.00000000E+00	 0.00000000E+00

	 0.00000000E+00	 0.00000000E+00	 0.00000000E+00
	 0.00000000E+00	 0.00000000E+00	 0.00000000E+00
	 0.00000000E+00	 0.00000000E+00	 0.00000000E+00

	 0.00000000E+00	 0.00000000E+00	 0.00000000E+00
	 0.00000000E+00	 0.00000000E+00	 0.00000000E+00
	 0.00000000E+00	 0.00000000E+00	 0.00000000E+00

	 0.00000000E+00	 0.00000000E+00	 0.00000000E+00
	 0.00000000E+00	 0.00000000E+00	 0.00000000E+00
	 0.00000000E+00	 0.00000000E+00	 0.00000000E+00

	 0.00000000E+00	 0.00000000E+00	 0.00000000E+00
	 0.00000000E+00	 0.00000000E+00	 0.00000000E+00
	 0.00000000E+00	 0.00000000E+00	 0.00000000E+00

	 0.00000000E+00	 0.00000000E+00	 0.00000000E+00
	 0.00000000E+00	 0.00000000E+00	 0.00000000E+00
	 0.00000000E+00	 0.00000000E+00	 0.00000000E+00

	 0.00000000E+00	 0.00000000E+00	 0.00000000E+00
	 0.00000000E+00	 0.00000000E+00	 0.00000000E+00
	 0.00000000E+00	 0.00000000E+00	 0.00000000E+00

	 0.00000000E+00	 0.00000000E+00	 0.00000000E+00
	 0.00000000E+00	 0.00000000E+00	 0.00000000E+00
	 0.00000000E+00	 0.00000000E+00	 0.00000000E+00

	 0.00000000E+00	 0.00000000E+00	 0.00000000E+00
	 0.00000000E+00	 0.00000000E+00	 0.00000000E+00
	 0.00000000E+00	 0.00000000E+00	 0.00000000E+00

	 0.00000000E+00	 0.00000000E+00	 0.00000000E+00
	 0.00000000E+00	 0.00000000E+00	 0.00000000E+00
	 0.00000000E+00	 0.00000000E+00	 0.00000000E+00

	 0.00000000E+00	 0.00000000E+00	 0.00000000E+00
	 0.00000000E+00	 0.00000000E+00	 0.00000000E+00
	 0.00000000E+00	 0.00000000E+00	 0.00000000E+00

	 0.00000000E+00	 0.00000000E+00	 0.00000000E+00
	 0.00000000E+00	 0.00000000E+00	 0.00000000E+00
	 0.00000000E+00	 0.00000000E+00	 0.00000000E+00

	 0.00000000E+00	 0.00000000E+00	 0.00000000E+00
	 0.00000000E+00	 0.00000000E+00	 0.00000000E+00
	 0.00000000E+00	 0.00000000E+00	 0.00000000E+00

	 0.00000000E+00	 0.00000000E+00	 0.00000000E+00
	 0.00000000E+00	 0.00000000E+00	 0.00000000E+00
	 0.00000000E+00	 0.00000000E+00	 0.00000000E+00

	 0.00000000E+00	 0.00000000E+00	 0.00000000E+00
	 0.00000000E+00	 0.00000000E+00	 0.00000000E+00
	 0.00000000E+00	 0.00000000E+00	 0.00000000E+00

	 0.00000000E+00	 0.00000000E+00	 0.00000000E+00
	 0.00000000E+00	 0.00000000E+00	 0.00000000E+00
	 0.00000000E+00	 0.00000000E+00	 0.00000000E+00

	 0.00000000E+00	 0.00000000E+00	 0.00000000E+00
	 0.00000000E+00	 0.00000000E+00	 0.00000000E+00
	 0.00000000E+00	 0.00000000E+00	 0.00000000E+00

	 0.00000000E+00	 0.00000000E+00	 0.00000000E+00
	 0.00000000E+00	 0.00000000E+00	 0.00000000E+00
	 0.00000000E+00	 0.00000000E+00	 0.00000000E+00

	 0.00000000E+00	 0.00000000E+00	 0.00000000E+00
	 0.00000000E+00	 0.00000000E+00	 0.00000000E+00
	 0.00000000E+00	 0.00000000E+00	 0.00000000E+00

	 0.00000000E+00	 0.00000000E+00	 0.00000000E+00
	 0.00000000E+00	 0.00000000E+00	 0.00000000E+00
	 0.00000000E+00	 0.00000000E+00	 0.00000000E+00

	 0.00000000E+00	 0.00000000E+00	 0.00000000E+00
	 0.00000000E+00	 0.00000000E+00	 0.00000000E+00
	 0.00000000E+00	 0.00000000E+00	 0.00000000E+00

	 0.00000000E+00	 0.00000000E+00	 0.00000000E+00
	 0.00000000E+00	 0.00000000E+00	 0.00000000E+00
	 0.00000000E+00	 0.00000000E+00	 0.00000000E+00

	 0.00000000E+00	 0.00000000E+00	 0.00000000E+00
	 0.00000000E+00	 0.00000000E+00	 0.00000000E+00
	 0.00000000E+00	 0.00000000E+00	 0.00000000E+00

	 0.00000000E+00	 0.00000000E+00	 0.00000000E+00
	 0.00000000E+00	 0.00000000E+00	 0.00000000E+00
	 0.00000000E+00	 0.00000000E+00	 0.00000000E+00

	 0.00000000E+00	 0.00000000E+00	 0.00000000E+00
	 0.00000000E+00	 0.00000000E+00	 0.00000000E+00
	 0.00000000E+00	 0.00000000E+00	 0.00000000E+00

	 0.00000000E+00	 0.00000000E+00	 0.00000000E+00
	 0.00000000E+00	 0.00000000E+00	 0.00000000E+00
	 0.00000000E+00	 0.00000000E+00	 0.00000000E+00

	 0.00000000E+00	 0.00000000E+00	 0.00000000E+00
	 0.00000000E+00	 0.00000000E+00	 0.00000000E+00
	 0.00000000E+00	 0.00000000E+00	 0.00000000E+00

	 0.00000000E+00	 0.00000000E+00	 0.00000000E+00
	 0.00000000E+00	 0.00000000E+00	 0.00000000E+00
	 0.00000000E+00	 0.00000000E+00	 0.00000000E+00

	 0.00000000E+00	 0.00000000E+00	 0.00000000E+00
	 0.00000000E+00	 0.00000000E+00	 0.00000000E+00
	 0.00000000E+00	 0.00000000E+00	 0.00000000E+00

	 0.00000000E+00	 0.00000000E+00	 0.00000000E+00
	 0.00000000E+00	 0.00000000E+00	 0.00000000E+00
	 0.00000000E+00	 0.00000000E+00	 0.00000000E+00

	 0.00000000E+00	 0.00000000E+00	 0.00000000E+00
	 0.00000000E+00	 0.00000000E+00	 0.00000000E+00
	 0.00000000E+00	 0.00000000E+00	 0.00000000E+00

	 0.00000000E+00	 0.00000000E+00	 0.00000000E+00
	 0.00000000E+00	 0.00000000E+00	 0.00000000E+00
	 0.00000000E+00	 0.00000000E+00	 0.00000000E+00

	 0.00000000E+00	 0.00000000E+00	 0.00000000E+00
	 0.00000000E+00	 0.00000000E+00	 0.00000000E+00
	 0.00000000E+00	 0.00000000E+00	 0.00000000E+00

	 0.00000000E+00	 0.00000000E+00	 0.00000000E+00
	 0.00000000E+00	 0.00000000E+00	 0.00000000E+00
	 0.00000000E+00	 0.00000000E+00	 0.00000000E+00

	 0.00000000E+00	 0.00000000E+00	 0.00000000E+00
	 0.00000000E+00	 0.00000000E+00	 0.00000000E+00
	 0.00000000E+00	 0.00000000E+00	 0.00000000E+00

	 0.00000000E+00	 0.00000000E+00	 0.00000000E+00
	 0.00000000E+00	 0.00000000E+00	 0.00000000E+00
	 0.00000000E+00	 0.00000000E+00	 0.00000000E+00

	 0.00000000E+00	 0.00000000E+00	 0.00000000E+00
	 0.00000000E+00	 0.00000000E+00	 0.00000000E+00
	 0.00000000E+00	 0.00000000E+00	 0.00000000E+00

	 0.00000000E+00	 0.00000000E+00	 0.00000000E+00
	 0.00000000E+00	 0.00000000E+00	 0.00000000E+00
	 0.00000000E+00	 0.00000000E+00	 0.00000000E+00

	 0.00000000E+00	 0.00000000E+00	 0.00000000E+00
	 0.00000000E+00	 0.00000000E+00	 0.00000000E+00
	 0.00000000E+00	 0.00000000E+00	 0.00000000E+00

	 0.00000000E+00	 0.00000000E+00	 0.00000000E+00
	 0.00000000E+00	 0.00000000E+00	 0.00000000E+00
	 0.00000000E+00	 0.00000000E+00	 0.00000000E+00

	 0.00000000E+00	 0.00000000E+00	 0.00000000E+00
	 0.00000000E+00	 0.00000000E+00	 0.00000000E+00
	 0.00000000E+00	 0.00000000E+00	 0.00000000E+00

	 0.00000000E+00	 0.00000000E+00	 0.00000000E+00
	 0.00000000E+00	 0.00000000E+00	 0.00000000E+00
	 0.00000000E+00	 0.00000000E+00	 0.00000000E+00

	 0.00000000E+00	 0.00000000E+00	 0.00000000E+00
	 0.00000000E+00	 0.00000000E+00	 0.00000000E+00
	 0.00000000E+00	 0.00000000E+00	 0.00000000E+00

	 0.00000000E+00	 0.00000000E+00	 0.00000000E+00
	 0.00000000E+00	 0.00000000E+00	 0.00000000E+00
	 0.00000000E+00	 0.00000000E+00	 0.00000000E+00

	 0.00000000E+00	 0.00000000E+00	 0.00000000E+00
	 0.00000000E+00	 0.00000000E+00	 0.00000000E+00
	 0.00000000E+00	 0.00000000E+00	 0.00000000E+00

	 0.00000000E+00	 0.00000000E+00	 0.00000000E+00
	 0.00000000E+00	 0.00000000E+00	 0.00000000E+00
	 0.00000000E+00	 0.00000000E+00	 0.00000000E+00

	 0.00000000E+00	 0.00000000E+00	 0.00000000E+00
	 0.00000000E+00	 0.00000000E+00	 0.00000000E+00
	 0.00000000E+00	 0.00000000E+00	 0.00000000E+00

	 0.00000000E+00	 0.00000000E+00	 0.00000000E+00
	 0.00000000E+00	 0.00000000E+00	 0.00000000E+00
	 0.00000000E+00	 0.00000000E+00	 0.00000000E+00

	 0.00000000E+00	 0.00000000E+00	 0.00000000E+00
	 0.00000000E+00	 0.00000000E+00	 0.00000000E+00
	 0.00000000E+00	 0.00000000E+00	 0.00000000E+00

	 0.00000000E+00	 0.00000000E+00	 0.00000000E+00
	 0.00000000E+00	 0.00000000E+00	 0.00000000E+00
	 0.00000000E+00	 0.00000000E+00	 0.00000000E+00

	 0.00000000E+00	 0.00000000E+00	 0.00000000E+00
	 0.00000000E+00	 0.00000000E+00	 0.00000000E+00
	 0.00000000E+00	 0.00000000E+00	 0.00000000E+00

	 0.00000000E+00	 0.00000000E+00	 0.00000000E+00
	 0.00000000E+00	 0.00000000E+00	 0.00000000E+00
	 0.00000000E+00	 0.00000000E+00	 0.00000000E+00

	 0.00000000E+00	 0.00000000E+00	 0.00000000E+00
	 0.00000000E+00	 0.00000000E+00	 0.00000000E+00
	 0.00000000E+00	 0.00000000E+00	 0.00000000E+00

	 0.00000000E+00	 0.00000000E+00	 0.00000000E+00
	 0.00000000E+00	 0.00000000E+00	 0.00000000E+00
	 0.00000000E+00	 0.00000000E+00	 0.00000000E+00

	 0.00000000E+00	 0.00000000E+00	 0.00000000E+00
	 0.00000000E+00	 0.00000000E+00	 0.00000000E+00
	 0.00000000E+00	 0.00000000E+00	 0.00000000E+00

	 0.00000000E+00	 0.00000000E+00	 0.00000000E+00
	 0.00000000E+00	 0.00000000E+00	 0.00000000E+00
	 0.00000000E+00	 0.00000000E+00	 0.00000000E+00

	 0.00000000E+00	 0.00000000E+00	 0.00000000E+00
	 0.00000000E+00	 0.00000000E+00	 0.00000000E+00
	 0.00000000E+00	 0.00000000E+00	 0.00000000E+00

	 0.00000000E+00	 0.00000000E+00	 0.00000000E+00
	 0.00000000E+00	 0.00000000E+00	 0.00000000E+00
	 0.00000000E+00	 0.00000000E+00	 0.00000000E+00

	 0.00000000E+00	 0.00000000E+00	 0.00000000E+00
	 0.00000000E+00	 0.00000000E+00	 0.00000000E+00
	 0.00000000E+00	 0.00000000E+00	 0.00000000E+00

	 0.00000000E+00	 0.00000000E+00	 0.00000000E+00
	 0.00000000E+00	 0.00000000E+00	 0.00000000E+00
	 0.00000000E+00	 0.00000000E+00	 0.00000000E+00

	 0.00000000E+00	 0.00000000E+00	 0.00000000E+00
	 0.00000000E+00	 0.00000000E+00	 0.00000000E+00
	 0.00000000E+00	 0.00000000E+00	 0.00000000E+00

	 0.00000000E+00	 0.00000000E+00	 0.00000000E+00
	 0.00000000E+00	 0.00000000E+00	 0.00000000E+00
	 0.00000000E+00	 0.00000000E+00	 0.00000000E+00

	 0.00000000E+00	 0.00000000E+00	 0.00000000E+00
	 0.00000000E+00	 0.00000000E+00	 0.00000000E+00
	 0.00000000E+00	 0.00000000E+00	 0.00000000E+00

	 0.00000000E+00	 0.00000000E+00	 0.00000000E+00
	 0.00000000E+00	 0.00000000E+00	 0.00000000E+00
	 0.00000000E+00	 0.00000000E+00	 0.00000000E+00

	 0.00000000E+00	 0.00000000E+00	 0.00000000E+00
	 0.00000000E+00	 0.00000000E+00	 0.00000000E+00
	 0.00000000E+00	 0.00000000E+00	 0.00000000E+00

	 0.00000000E+00	 0.00000000E+00	 0.00000000E+00
	 0.00000000E+00	 0.00000000E+00	 0.00000000E+00
	 0.00000000E+00	 0.00000000E+00	 0.00000000E+00

	 0.00000000E+00	 0.00000000E+00	 0.00000000E+00
	 0.00000000E+00	 0.00000000E+00	 0.00000000E+00
	 0.00000000E+00	 0.00000000E+00	 0.00000000E+00

	 0.00000000E+00	 0.00000000E+00	 0.00000000E+00
	 0.00000000E+00	 0.00000000E+00	 0.00000000E+00
	 0.00000000E+00	 0.00000000E+00	 0.00000000E+00

	 0.00000000E+00	 0.00000000E+00	 0.00000000E+00
	 0.00000000E+00	 0.00000000E+00	 0.00000000E+00
	 0.00000000E+00	 0.00000000E+00	 0.00000000E+00

	 0.00000000E+00	 0.00000000E+00	 0.00000000E+00
	 0.00000000E+00	 0.00000000E+00	 0.00000000E+00
	 0.00000000E+00	 0.00000000E+00	 0.00000000E+00

	 0.00000000E+00	 0.00000000E+00	 0.00000000E+00
	 0.00000000E+00	 0.00000000E+00	 0.00000000E+00
	 0.00000000E+00	 0.00000000E+00	 0.00000000E+00

	 0.00000000E+00	 0.00000000E+00	 0.00000000E+00
	 0.00000000E+00	 0.00000000E+00	 0.00000000E+00
	 0.00000000E+00	 0.00000000E+00	 0.00000000E+00

	 0.00000000E+00	 0.00000000E+00	 0.00000000E+00
	 0.00000000E+00	 0.00000000E+00	 0.00000000E+00
	 0.00000000E+00	 0.00000000E+00	 0.00000000E+00

	 0.00000000E+00	 0.00000000E+00	 0.00000000E+00
	 0.00000000E+00	 0.00000000E+00	 0.00000000E+00
	 0.00000000E+00	 0.00000000E+00	 0.00000000E+00

	 0.00000000E+00	 0.00000000E+00	 0.00000000E+00
	 0.00000000E+00	 0.00000000E+00	 0.00000000E+00
	 0.00000000E+00	 0.00000000E+00	 0.00000000E+00

	 0.00000000E+00	 0.00000000E+00	 0.00000000E+00
	 0.00000000E+00	 0.00000000E+00	 0.00000000E+00
	 0.00000000E+00	 0.00000000E+00	 0.00000000E+00

	 0.00000000E+00	 0.00000000E+00	 0.00000000E+00
	 0.00000000E+00	 0.00000000E+00	 0.00000000E+00
	 0.00000000E+00	 0.00000000E+00	 0.00000000E+00

	 0.00000000E+00	 0.00000000E+00	 0.00000000E+00
	 0.00000000E+00	 0.00000000E+00	 0.00000000E+00
	 0.00000000E+00	 0.00000000E+00	 0.00000000E+00

	 0.00000000E+00	 0.00000000E+00	 0.00000000E+00
	 0.00000000E+00	 0.00000000E+00	 0.00000000E+00
	 0.00000000E+00	 0.00000000E+00	 0.00000000E+00

	 0.00000000E+00	 0.00000000E+00	 0.00000000E+00
	 0.00000000E+00	 0.00000000E+00	 0.00000000E+00
	 0.00000000E+00	 0.00000000E+00	 0.00000000E+00

	 0.00000000E+00	 0.00000000E+00	 0.00000000E+00
	 0.00000000E+00	 0.00000000E+00	 0.00000000E+00
	 0.00000000E+00	 0.00000000E+00	 0.00000000E+00

	 0.00000000E+00	 0.00000000E+00	 0.00000000E+00
	 0.00000000E+00	 0.00000000E+00	 0.00000000E+00
	 0.00000000E+00	 0.00000000E+00	 0.00000000E+00

	 0.00000000E+00	 0.00000000E+00	 0.00000000E+00
	 0.00000000E+00	 0.00000000E+00	 0.00000000E+00
	 0.00000000E+00	 0.00000000E+00	 0.00000000E+00

	 0.00000000E+00	 0.00000000E+00	 0.00000000E+00
	 0.00000000E+00	 0.00000000E+00	 0.00000000E+00
	 0.00000000E+00	 0.00000000E+00	 0.00000000E+00

	 0.00000000E+00	 0.00000000E+00	 0.00000000E+00
	 0.00000000E+00	 0.00000000E+00	 0.00000000E+00
	 0.00000000E+00	 0.00000000E+00	 0.00000000E+00

	 0.00000000E+00	 0.00000000E+00	 0.00000000E+00
	 0.00000000E+00	 0.00000000E+00	 0.00000000E+00
	 0.00000000E+00	 0.00000000E+00	 0.00000000E+00

	 0.00000000E+00	 0.00000000E+00	 0.00000000E+00
	 0.00000000E+00	 0.00000000E+00	 0.00000000E+00
	 0.00000000E+00	 0.00000000E+00	 0.00000000E+00

	 0.00000000E+00	 0.00000000E+00	 0.00000000E+00
	 0.00000000E+00	 0.00000000E+00	 0.00000000E+00
	 0.00000000E+00	 0.00000000E+00	 0.00000000E+00

	 0.00000000E+00	 0.00000000E+00	 0.00000000E+00
	 0.00000000E+00	 0.00000000E+00	 0.00000000E+00
	 0.00000000E+00	 0.00000000E+00	 0.00000000E+00

	 0.00000000E+00	 0.00000000E+00	 0.00000000E+00
	 0.00000000E+00	 0.00000000E+00	 0.00000000E+00
	 0.00000000E+00	 0.00000000E+00	 0.00000000E+00

	 0.00000000E+00	 0.00000000E+00	 0.00000000E+00
	 0.00000000E+00	 0.00000000E+00	 0.00000000E+00
	 0.00000000E+00	 0.00000000E+00	 0.00000000E+00

	 0.00000000E+00	 0.00000000E+00	 0.00000000E+00
	 0.00000000E+00	 0.00000000E+00	 0.00000000E+00
	 0.00000000E+00	 0.00000000E+00	 0.00000000E+00

	 0.00000000E+00	 0.00000000E+00	 0.00000000E+00
	 0.00000000E+00	 0.00000000E+00	 0.00000000E+00
	 0.00000000E+00	 0.00000000E+00	 0.00000000E+00

	 0.00000000E+00	 0.00000000E+00	 0.00000000E+00
	 0.00000000E+00	 0.00000000E+00	 0.00000000E+00
	 0.00000000E+00	 0.00000000E+00	 0.00000000E+00

	 0.00000000E+00	 0.00000000E+00	 0.00000000E+00
	 0.00000000E+00	 0.00000000E+00	 0.00000000E+00
	 0.00000000E+00	 0.00000000E+00	 0.00000000E+00

	 0.00000000E+00	 0.00000000E+00	 0.00000000E+00
	 0.00000000E+00	 0.00000000E+00	 0.00000000E+00
	 0.00000000E+00	 0.00000000E+00	 0.00000000E+00

	 0.00000000E+00	 0.00000000E+00	 0.00000000E+00
	 0.00000000E+00	 0.00000000E+00	 0.00000000E+00
	 0.00000000E+00	 0.00000000E+00	 0.00000000E+00

	 0.00000000E+00	 0.00000000E+00	 0.00000000E+00
	 0.00000000E+00	 0.00000000E+00	 0.00000000E+00
	 0.00000000E+00	 0.00000000E+00	 0.00000000E+00

	 0.00000000E+00	 0.00000000E+00	 0.00000000E+00
	 0.00000000E+00	 0.00000000E+00	 0.00000000E+00
	 0.00000000E+00	 0.00000000E+00	 0.00000000E+00

	 0.00000000E+00	 0.00000000E+00	 0.00000000E+00
	 0.00000000E+00	 0.00000000E+00	 0.00000000E+00
	 0.00000000E+00	 0.00000000E+00	 0.00000000E+00

	 0.00000000E+00	 0.00000000E+00	 0.00000000E+00
	 0.00000000E+00	 0.00000000E+00	 0.00000000E+00
	 0.00000000E+00	 0.00000000E+00	 0.00000000E+00

	 0.00000000E+00	 0.00000000E+00	 0.00000000E+00
	 0.00000000E+00	 0.00000000E+00	 0.00000000E+00
	 0.00000000E+00	 0.00000000E+00	 0.00000000E+00

	 0.00000000E+00	 0.00000000E+00	 0.00000000E+00
	 0.00000000E+00	 0.00000000E+00	 0.00000000E+00
	 0.00000000E+00	 0.00000000E+00	 0.00000000E+00

	 0.00000000E+00	 0.00000000E+00	 0.00000000E+00
	 0.00000000E+00	 0.00000000E+00	 0.00000000E+00
	 0.00000000E+00	 0.00000000E+00	 0.00000000E+00

	 0.00000000E+00	 0.00000000E+00	 0.00000000E+00
	 0.00000000E+00	 0.00000000E+00	 0.00000000E+00
	 0.00000000E+00	 0.00000000E+00	 0.00000000E+00

	 0.00000000E+00	 0.00000000E+00	 0.00000000E+00
	 0.00000000E+00	 0.00000000E+00	 0.00000000E+00
	 0.00000000E+00	 0.00000000E+00	 0.00000000E+00

	 0.00000000E+00	 0.00000000E+00	 0.00000000E+00
	 0.00000000E+00	 0.00000000E+00	 0.00000000E+00
	 0.00000000E+00	 0.00000000E+00	 0.00000000E+00

	 0.00000000E+00	 0.00000000E+00	 0.00000000E+00
	 0.00000000E+00	 0.00000000E+00	 0.00000000E+00
	 0.00000000E+00	 0.00000000E+00	 0.00000000E+00

	 0.00000000E+00	 0.00000000E+00	 0.00000000E+00
	 0.00000000E+00	 0.00000000E+00	 0.00000000E+00
	 0.00000000E+00	 0.00000000E+00	 0.00000000E+00

	 0.00000000E+00	 0.00000000E+00	 0.00000000E+00
	 0.00000000E+00	 0.00000000E+00	 0.00000000E+00
	 0.00000000E+00	 0.00000000E+00	 0.00000000E+00

	 0.00000000E+00	 0.00000000E+00	 0.00000000E+00
	 0.00000000E+00	 0.00000000E+00	 0.00000000E+00
	 0.00000000E+00	 0.00000000E+00	 0.00000000E+00

	 0.00000000E+00	 0.00000000E+00	 0.00000000E+00
	 0.00000000E+00	 0.00000000E+00	 0.00000000E+00
	 0.00000000E+00	 0.00000000E+00	 0.00000000E+00

	 0.00000000E+00	 0.00000000E+00	 0.00000000E+00
	 0.00000000E+00	 0.00000000E+00	 0.00000000E+00
	 0.00000000E+00	 0.00000000E+00	 0.00000000E+00

	 0.00000000E+00	 0.00000000E+00	 0.00000000E+00
	 0.00000000E+00	 0.00000000E+00	 0.00000000E+00
	 0.00000000E+00	 0.00000000E+00	 0.00000000E+00

	 0.00000000E+00	 0.00000000E+00	 0.00000000E+00
	 0.00000000E+00	 0.00000000E+00	 0.00000000E+00
	 0.00000000E+00	 0.00000000E+00	 0.00000000E+00

	 0.00000000E+00	 0.00000000E+00	 0.00000000E+00
	 0.00000000E+00	 0.00000000E+00	 0.00000000E+00
	 0.00000000E+00	 0.00000000E+00	 0.00000000E+00

	 0.00000000E+00	 0.00000000E+00	 0.00000000E+00
	 0.00000000E+00	 0.00000000E+00	 0.00000000E+00
	 0.00000000E+00	 0.00000000E+00	 0.00000000E+00

	 0.00000000E+00	 0.00000000E+00	 0.00000000E+00
	 0.00000000E+00	 0.00000000E+00	 0.00000000E+00
	 0.00000000E+00	 0.00000000E+00	 0.00000000E+00

	 0.00000000E+00	 0.00000000E+00	 0.00000000E+00
	 0.00000000E+00	 0.00000000E+00	 0.00000000E+00
	 0.00000000E+00	 0.00000000E+00	 0.00000000E+00

	 0.00000000E+00	 0.00000000E+00	 0.00000000E+00
	 0.00000000E+00	 0.00000000E+00	 0.00000000E+00
	 0.00000000E+00	 0.00000000E+00	 0.00000000E+00

	 0.00000000E+00	 0.00000000E+00	 0.00000000E+00
	 0.00000000E+00	 0.00000000E+00	 0.00000000E+00
	 0.00000000E+00	 0.00000000E+00	 0.00000000E+00

	 0.00000000E+00	 0.00000000E+00	 0.00000000E+00
	 0.00000000E+00	 0.00000000E+00	 0.00000000E+00
	 0.00000000E+00	 0.00000000E+00	 0.00000000E+00

	 0.00000000E+00	 0.00000000E+00	 0.00000000E+00
	 0.00000000E+00	 0.00000000E+00	 0.00000000E+00
	 0.00000000E+00	 0.00000000E+00	 0.00000000E+00

	 0.00000000E+00	 0.00000000E+00	 0.00000000E+00
	 0.00000000E+00	 0.00000000E+00	 0.00000000E+00
	 0.00000000E+00	 0.00000000E+00	 0.00000000E+00

	 0.00000000E+00	 0.00000000E+00	 0.00000000E+00
	 0.00000000E+00	 0.00000000E+00	 0.00000000E+00
	 0.00000000E+00	 0.00000000E+00	 0.00000000E+00

	 0.00000000E+00	 0.00000000E+00	 0.00000000E+00
	 0.00000000E+00	 0.00000000E+00	 0.00000000E+00
	 0.00000000E+00	 0.00000000E+00	 0.00000000E+00

	 0.00000000E+00	 0.00000000E+00	 0.00000000E+00
	 0.00000000E+00	 0.00000000E+00	 0.00000000E+00
	 0.00000000E+00	 0.00000000E+00	 0.00000000E+00

	 0.00000000E+00	 0.00000000E+00	 0.00000000E+00
	 0.00000000E+00	 0.00000000E+00	 0.00000000E+00
	 0.00000000E+00	 0.00000000E+00	 0.00000000E+00

	 0.00000000E+00	 0.00000000E+00	 0.00000000E+00
	 0.00000000E+00	 0.00000000E+00	 0.00000000E+00
	 0.00000000E+00	 0.00000000E+00	 0.00000000E+00

	 0.00000000E+00	 0.00000000E+00	 0.00000000E+00
	 0.00000000E+00	 0.00000000E+00	 0.00000000E+00
	 0.00000000E+00	 0.00000000E+00	 0.00000000E+00

	 0.00000000E+00	 0.00000000E+00	 0.00000000E+00
	 0.00000000E+00	 0.00000000E+00	 0.00000000E+00
	 0.00000000E+00	 0.00000000E+00	 0.00000000E+00

	 0.00000000E+00	 0.00000000E+00	 0.00000000E+00
	 0.00000000E+00	 0.00000000E+00	 0.00000000E+00
	 0.00000000E+00	 0.00000000E+00	 0.00000000E+00

	 0.00000000E+00	 0.00000000E+00	 0.00000000E+00
	 0.00000000E+00	 0.00000000E+00	 0.00000000E+00
	 0.00000000E+00	 0.00000000E+00	 0.00000000E+00

	 0.00000000E+00	 0.00000000E+00	 0.00000000E+00
	 0.00000000E+00	 0.00000000E+00	 0.00000000E+00
	 0.00000000E+00	 0.00000000E+00	 0.00000000E+00

	 0.00000000E+00	 0.00000000E+00	 0.00000000E+00
	 0.00000000E+00	 0.00000000E+00	 0.00000000E+00
	 0.00000000E+00	 0.00000000E+00	 0.00000000E+00

	 0.00000000E+00	 0.00000000E+00	 0.00000000E+00
	 0.00000000E+00	 0.00000000E+00	 0.00000000E+00
	 0.00000000E+00	 0.00000000E+00	 0.00000000E+00

	 0.00000000E+00	 0.00000000E+00	 0.00000000E+00
	 0.00000000E+00	 0.00000000E+00	 0.00000000E+00
	 0.00000000E+00	 0.00000000E+00	 0.00000000E+00

	 0.00000000E+00	 0.00000000E+00	 0.00000000E+00
	 0.00000000E+00	 0.00000000E+00	 0.00000000E+00
	 0.00000000E+00	 0.00000000E+00	 0.00000000E+00

	 0.00000000E+00	 0.00000000E+00	 0.00000000E+00
	 0.00000000E+00	 0.00000000E+00	 0.00000000E+00
	 0.00000000E+00	 0.00000000E+00	 0.00000000E+00

	 0.00000000E+00	 0.00000000E+00	 0.00000000E+00
	 0.00000000E+00	 0.00000000E+00	 0.00000000E+00
	 0.00000000E+00	 0.00000000E+00	 0.00000000E+00

	 0.00000000E+00	 0.00000000E+00	 0.00000000E+00
	 0.00000000E+00	 0.00000000E+00	 0.00000000E+00
	 0.00000000E+00	 0.00000000E+00	 0.00000000E+00

	 0.00000000E+00	 0.00000000E+00	 0.00000000E+00
	 0.00000000E+00	 0.00000000E+00	 0.00000000E+00
	 0.00000000E+00	 0.00000000E+00	 0.00000000E+00

	 0.00000000E+00	 0.00000000E+00	 0.00000000E+00
	 0.00000000E+00	 0.00000000E+00	 0.00000000E+00
	 0.00000000E+00	 0.00000000E+00	 0.00000000E+00

	 0.00000000E+00	 0.00000000E+00	 0.00000000E+00
	 0.00000000E+00	 0.00000000E+00	 0.00000000E+00
	 0.00000000E+00	 0.00000000E+00	 0.00000000E+00

	 0.00000000E+00	 0.00000000E+00	 0.00000000E+00
	 0.00000000E+00	 0.00000000E+00	 0.00000000E+00
	 0.00000000E+00	 0.00000000E+00	 0.00000000E+00

	 0.00000000E+00	 0.00000000E+00	 0.00000000E+00
	 0.00000000E+00	 0.00000000E+00	 0.00000000E+00
	 0.00000000E+00	 0.00000000E+00	 0.00000000E+00

	 0.00000000E+00	 0.00000000E+00	 0.00000000E+00
	 0.00000000E+00	 0.00000000E+00	 0.00000000E+00
	 0.00000000E+00	 0.00000000E+00	 0.00000000E+00

	 0.00000000E+00	 0.00000000E+00	 0.00000000E+00
	 0.00000000E+00	 0.00000000E+00	 0.00000000E+00
	 0.00000000E+00	 0.00000000E+00	 0.00000000E+00

	 0.00000000E+00	 0.00000000E+00	 0.00000000E+00
	 0.00000000E+00	 0.00000000E+00	 0.00000000E+00
	 0.00000000E+00	 0.00000000E+00	 0.00000000E+00

	 0.00000000E+00	 0.00000000E+00	 0.00000000E+00
	 0.00000000E+00	 0.00000000E+00	 0.00000000E+00
	 0.00000000E+00	 0.00000000E+00	 0.00000000E+00

	 0.00000000E+00	 0.00000000E+00	 0.00000000E+00
	 0.00000000E+00	 0.00000000E+00	 0.00000000E+00
	 0.00000000E+00	 0.00000000E+00	 0.00000000E+00

	 0.00000000E+00	 0.00000000E+00	 0.00000000E+00
	 0.00000000E+00	 0.00000000E+00	 0.00000000E+00
	 0.00000000E+00	 0.00000000E+00	 0.00000000E+00

	 0.00000000E+00	 0.00000000E+00	 0.00000000E+00
	 0.00000000E+00	 0.00000000E+00	 0.00000000E+00
	 0.00000000E+00	 0.00000000E+00	 0.00000000E+00

	 0.00000000E+00	 0.00000000E+00	 0.00000000E+00
	 0.00000000E+00	 0.00000000E+00	 0.00000000E+00
	 0.00000000E+00	 0.00000000E+00	 0.00000000E+00

	 0.00000000E+00	 0.00000000E+00	 0.00000000E+00
	 0.00000000E+00	 0.00000000E+00	 0.00000000E+00
	 0.00000000E+00	 0.00000000E+00	 0.00000000E+00

	 0.00000000E+00	 0.00000000E+00	 0.00000000E+00
	 0.00000000E+00	 0.00000000E+00	 0.00000000E+00
	 0.00000000E+00	 0.00000000E+00	 0.00000000E+00

	 0.00000000E+00	 0.00000000E+00	 0.00000000E+00
	 0.00000000E+00	 0.00000000E+00	 0.00000000E+00
	 0.00000000E+00	 0.00000000E+00	 0.00000000E+00

	 0.00000000E+00	 0.00000000E+00	 0.00000000E+00
	 0.00000000E+00	 0.00000000E+00	 0.00000000E+00
	 0.00000000E+00	 0.00000000E+00	 0.00000000E+00

	 0.00000000E+00	 0.00000000E+00	 0.00000000E+00
	 0.00000000E+00	 0.00000000E+00	 0.00000000E+00
	 0.00000000E+00	 0.00000000E+00	 0.00000000E+00

	 0.00000000E+00	 0.00000000E+00	 0.00000000E+00
	 0.00000000E+00	 0.00000000E+00	 0.00000000E+00
	 0.00000000E+00	 0.00000000E+00	 0.00000000E+00

	 0.00000000E+00	 0.00000000E+00	 0.00000000E+00
	 0.00000000E+00	 0.00000000E+00	 0.00000000E+00
	 0.00000000E+00	 0.00000000E+00	 0.00000000E+00

	 0.00000000E+00	 0.00000000E+00	 0.00000000E+00
	 0.00000000E+00	 0.00000000E+00	 0.00000000E+00
	 0.00000000E+00	 0.00000000E+00	 0.00000000E+00

	 0.00000000E+00	 0.00000000E+00	 0.00000000E+00
	 0.00000000E+00	 0.00000000E+00	 0.00000000E+00
	 0.00000000E+00	 0.00000000E+00	 0.00000000E+00

	 0.00000000E+00	 0.00000000E+00	 0.00000000E+00
	 0.00000000E+00	 0.00000000E+00	 0.00000000E+00
	 0.00000000E+00	 0.00000000E+00	 0.00000000E+00

	 0.00000000E+00	 0.00000000E+00	 0.00000000E+00
	 0.00000000E+00	 0.00000000E+00	 0.00000000E+00
	 0.00000000E+00	 0.00000000E+00	 0.00000000E+00

	 0.00000000E+00	 0.00000000E+00	 0.00000000E+00
	 0.00000000E+00	 0.00000000E+00	 0.00000000E+00
	 0.00000000E+00	 0.00000000E+00	 0.00000000E+00

	 0.00000000E+00	 0.00000000E+00	 0.00000000E+00
	 0.00000000E+00	 0.00000000E+00	 0.00000000E+00
	 0.00000000E+00	 0.00000000E+00	 0.00000000E+00

	 0.00000000E+00	 0.00000000E+00	 0.00000000E+00
	 0.00000000E+00	 0.00000000E+00	 0.00000000E+00
	 0.00000000E+00	 0.00000000E+00	 0.00000000E+00

	 0.00000000E+00	 0.00000000E+00	 0.00000000E+00
	 0.00000000E+00	 0.00000000E+00	 0.00000000E+00
	 0.00000000E+00	 0.00000000E+00	 0.00000000E+00

	 0.00000000E+00	 0.00000000E+00	 0.00000000E+00
	 0.00000000E+00	 0.00000000E+00	 0.00000000E+00
	 0.00000000E+00	 0.00000000E+00	 0.00000000E+00

	 0.00000000E+00	 0.00000000E+00	 0.00000000E+00
	 0.00000000E+00	 0.00000000E+00	 0.00000000E+00
	 0.00000000E+00	 0.00000000E+00	 0.00000000E+00

	 0.00000000E+00	 0.00000000E+00	 0.00000000E+00
	 0.00000000E+00	 0.00000000E+00	 0.00000000E+00
	 0.00000000E+00	 0.00000000E+00	 0.00000000E+00

	 0.00000000E+00	 0.00000000E+00	 0.00000000E+00
	 0.00000000E+00	 0.00000000E+00	 0.00000000E+00
	 0.00000000E+00	 0.00000000E+00	 0.00000000E+00

	 0.00000000E+00	 0.00000000E+00	 0.00000000E+00
	 0.00000000E+00	 0.00000000E+00	 0.00000000E+00
	 0.00000000E+00	 0.00000000E+00	 0.00000000E+00

	 0.00000000E+00	 0.00000000E+00	 0.00000000E+00
	 0.00000000E+00	 0.00000000E+00	 0.00000000E+00
	 0.00000000E+00	 0.00000000E+00	 0.00000000E+00

	 0.00000000E+00	 0.00000000E+00	 0.00000000E+00
	 0.00000000E+00	 0.00000000E+00	 0.00000000E+00
	 0.00000000E+00	 0.00000000E+00	 0.00000000E+00

	 0.00000000E+00	 0.00000000E+00	 0.00000000E+00
	 0.00000000E+00	 0.00000000E+00	 0.00000000E+00
	 0.00000000E+00	 0.00000000E+00	 0.00000000E+00

	 0.00000000E+00	 0.00000000E+00	 0.00000000E+00
	 0.00000000E+00	 0.00000000E+00	 0.00000000E+00
	 0.00000000E+00	 0.00000000E+00	 0.00000000E+00

	 0.00000000E+00	 0.00000000E+00	 0.00000000E+00
	 0.00000000E+00	 0.00000000E+00	 0.00000000E+00
	 0.00000000E+00	 0.00000000E+00	 0.00000000E+00

	 0.00000000E+00	 0.00000000E+00	 0.00000000E+00
	 0.00000000E+00	 0.00000000E+00	 0.00000000E+00
	 0.00000000E+00	 0.00000000E+00	 0.00000000E+00

	 0.00000000E+00	 0.00000000E+00	 0.00000000E+00
	 0.00000000E+00	 0.00000000E+00	 0.00000000E+00
	 0.00000000E+00	 0.00000000E+00	 0.00000000E+00

	 0.00000000E+00	 0.00000000E+00	 0.00000000E+00
	 0.00000000E+00	 0.00000000E+00	 0.00000000E+00
	 0.00000000E+00	 0.00000000E+00	 0.00000000E+00

	 0.00000000E+00	 0.00000000E+00	 0.00000000E+00
	 0.00000000E+00	 0.00000000E+00	 0.00000000E+00
	 0.00000000E+00	 0.00000000E+00	 0.00000000E+00

	 0.00000000E+00	 0.00000000E+00	 0.00000000E+00
	 0.00000000E+00	 0.00000000E+00	 0.00000000E+00
	 0.00000000E+00	 0.00000000E+00	 0.00000000E+00

	 0.00000000E+00	 0.00000000E+00	 0.00000000E+00
	 0.00000000E+00	 0.00000000E+00	 0.00000000E+00
	 0.00000000E+00	 0.00000000E+00	 0.00000000E+00

	 0.00000000E+00	 0.00000000E+00	 0.00000000E+00
	 0.00000000E+00	 0.00000000E+00	 0.00000000E+00
	 0.00000000E+00	 0.00000000E+00	 0.00000000E+00

	 0.00000000E+00	 0.00000000E+00	 0.00000000E+00
	 0.00000000E+00	 0.00000000E+00	 0.00000000E+00
	 0.00000000E+00	 0.00000000E+00	 0.00000000E+00

	 0.00000000E+00	 0.00000000E+00	 0.00000000E+00
	 0.00000000E+00	 0.00000000E+00	 0.00000000E+00
	 0.00000000E+00	 0.00000000E+00	 0.00000000E+00

	 0.00000000E+00	 0.00000000E+00	 0.00000000E+00
	 0.00000000E+00	 0.00000000E+00	 0.00000000E+00
	 0.00000000E+00	 0.00000000E+00	 0.00000000E+00

	 0.00000000E+00	 0.00000000E+00	 0.00000000E+00
	 0.00000000E+00	 0.00000000E+00	 0.00000000E+00
	 0.00000000E+00	 0.00000000E+00	 0.00000000E+00

	 0.00000000E+00	 0.00000000E+00	 0.00000000E+00
	 0.00000000E+00	 0.00000000E+00	 0.00000000E+00
	 0.00000000E+00	 0.00000000E+00	 0.00000000E+00

	 0.00000000E+00	 0.00000000E+00	 0.00000000E+00
	 0.00000000E+00	 0.00000000E+00	 0.00000000E+00
	 0.00000000E+00	 0.00000000E+00	 0.00000000E+00

	 0.00000000E+00	 0.00000000E+00	 0.00000000E+00
	 0.00000000E+00	 0.00000000E+00	 0.00000000E+00
	 0.00000000E+00	 0.00000000E+00	 0.00000000E+00

	 0.00000000E+00	 0.00000000E+00	 0.00000000E+00
	 0.00000000E+00	 0.00000000E+00	 0.00000000E+00
	 0.00000000E+00	 0.00000000E+00	 0.00000000E+00

	 0.00000000E+00	 0.00000000E+00	 0.00000000E+00
	 0.00000000E+00	 0.00000000E+00	 0.00000000E+00
	 0.00000000E+00	 0.00000000E+00	 0.00000000E+00

	 0.00000000E+00	 0.00000000E+00	 0.00000000E+00
	 0.00000000E+00	 0.00000000E+00	 0.00000000E+00
	 0.00000000E+00	 0.00000000E+00	 0.00000000E+00

	 0.00000000E+00	 0.00000000E+00	 0.00000000E+00
	 0.00000000E+00	 0.00000000E+00	 0.00000000E+00
	 0.00000000E+00	 0.00000000E+00	 0.00000000E+00

	 0.00000000E+00	 0.00000000E+00	 0.00000000E+00
	 0.00000000E+00	 0.00000000E+00	 0.00000000E+00
	 0.00000000E+00	 0.00000000E+00	 0.00000000E+00

	 0.00000000E+00	 0.00000000E+00	 0.00000000E+00
	 0.00000000E+00	 0.00000000E+00	 0.00000000E+00
	 0.00000000E+00	 0.00000000E+00	 0.00000000E+00

	 0.00000000E+00	 0.00000000E+00	 0.00000000E+00
	 0.00000000E+00	 0.00000000E+00	 0.00000000E+00
	 0.00000000E+00	 0.00000000E+00	 0.00000000E+00

	 0.00000000E+00	 0.00000000E+00	 0.00000000E+00
	 0.00000000E+00	 0.00000000E+00	 0.00000000E+00
	 0.00000000E+00	 0.00000000E+00	 0.00000000E+00

	 0.00000000E+00	 0.00000000E+00	 0.00000000E+00
	 0.00000000E+00	 0.00000000E+00	 0.00000000E+00
	 0.00000000E+00	 0.00000000E+00	 0.00000000E+00

	 0.00000000E+00	 0.00000000E+00	 0.00000000E+00
	 0.00000000E+00	 0.00000000E+00	 0.00000000E+00
	 0.00000000E+00	 0.00000000E+00	 0.00000000E+00

	 0.00000000E+00	 0.00000000E+00	 0.00000000E+00
	 0.00000000E+00	 0.00000000E+00	 0.00000000E+00
	 0.00000000E+00	 0.00000000E+00	 0.00000000E+00

	 0.00000000E+00	 0.00000000E+00	 0.00000000E+00
	 0.00000000E+00	 0.00000000E+00	 0.00000000E+00
	 0.00000000E+00	 0.00000000E+00	 0.00000000E+00

	 0.00000000E+00	 0.00000000E+00	 0.00000000E+00
	 0.00000000E+00	 0.00000000E+00	 0.00000000E+00
	 0.00000000E+00	 0.00000000E+00	 0.00000000E+00

	 0.00000000E+00	 0.00000000E+00	 0.00000000E+00
	 0.00000000E+00	 0.00000000E+00	 0.00000000E+00
	 0.00000000E+00	 0.00000000E+00	 0.00000000E+00

	 0.00000000E+00	 0.00000000E+00	 0.00000000E+00
	 0.00000000E+00	 0.00000000E+00	 0.00000000E+00
	 0.00000000E+00	 0.00000000E+00	 0.00000000E+00

	 0.00000000E+00	 0.00000000E+00	 0.00000000E+00
	 0.00000000E+00	 0.00000000E+00	 0.00000000E+00
	 0.00000000E+00	 0.00000000E+00	 0.00000000E+00

	 0.00000000E+00	 0.00000000E+00	 0.00000000E+00
	 0.00000000E+00	 0.00000000E+00	 0.00000000E+00
	 0.00000000E+00	 0.00000000E+00	 0.00000000E+00

	 0.00000000E+00	 0.00000000E+00	 0.00000000E+00
	 0.00000000E+00	 0.00000000E+00	 0.00000000E+00
	 0.00000000E+00	 0.00000000E+00	 0.00000000E+00

	 0.00000000E+00	 0.00000000E+00	 0.00000000E+00
	 0.00000000E+00	 0.00000000E+00	 0.00000000E+00
	 0.00000000E+00	 0.00000000E+00	 0.00000000E+00

	 0.00000000E+00	 0.00000000E+00	 0.00000000E+00
	 0.00000000E+00	 0.00000000E+00	 0.00000000E+00
	 0.00000000E+00	 0.00000000E+00	 0.00000000E+00

	 0.00000000E+00	 0.00000000E+00	 0.00000000E+00
	 0.00000000E+00	 0.00000000E+00	 0.00000000E+00
	 0.00000000E+00	 0.00000000E+00	 0.00000000E+00

	 0.00000000E+00	 0.00000000E+00	 0.00000000E+00
	 0.00000000E+00	 0.00000000E+00	 0.00000000E+00
	 0.00000000E+00	 0.00000000E+00	 0.00000000E+00

	 0.00000000E+00	 0.00000000E+00	 0.00000000E+00
	 0.00000000E+00	 0.00000000E+00	 0.00000000E+00
	 0.00000000E+00	 0.00000000E+00	 0.00000000E+00

	 0.00000000E+00	 0.00000000E+00	 0.00000000E+00
	 0.00000000E+00	 0.00000000E+00	 0.00000000E+00
	 0.00000000E+00	 0.00000000E+00	 0.00000000E+00

	 0.00000000E+00	 0.00000000E+00	 0.00000000E+00
	 0.00000000E+00	 0.00000000E+00	 0.00000000E+00
	 0.00000000E+00	 0.00000000E+00	 0.00000000E+00

	 0.00000000E+00	 0.00000000E+00	 0.00000000E+00
	 0.00000000E+00	 0.00000000E+00	 0.00000000E+00
	 0.00000000E+00	 0.00000000E+00	 0.00000000E+00

	 0.00000000E+00	 0.00000000E+00	 0.00000000E+00
	 0.00000000E+00	 0.00000000E+00	 0.00000000E+00
	 0.00000000E+00	 0.00000000E+00	 0.00000000E+00

	 0.00000000E+00	 0.00000000E+00	 0.00000000E+00
	 0.00000000E+00	 0.00000000E+00	 0.00000000E+00
	 0.00000000E+00	 0.00000000E+00	 0.00000000E+00

	 0.00000000E+00	 0.00000000E+00	 0.00000000E+00
	 0.00000000E+00	 0.00000000E+00	 0.00000000E+00
	 0.00000000E+00	 0.00000000E+00	 0.00000000E+00

	 0.00000000E+00	 0.00000000E+00	 0.00000000E+00
	 0.00000000E+00	 0.00000000E+00	 0.00000000E+00
	 0.00000000E+00	 0.00000000E+00	 0.00000000E+00

	 0.00000000E+00	 0.00000000E+00	 0.00000000E+00
	 0.00000000E+00	 0.00000000E+00	 0.00000000E+00
	 0.00000000E+00	 0.00000000E+00	 0.00000000E+00

	 0.00000000E+00	 0.00000000E+00	 0.00000000E+00
	 0.00000000E+00	 0.00000000E+00	 0.00000000E+00
	 0.00000000E+00	 0.00000000E+00	 0.00000000E+00

	 0.00000000E+00	 0.00000000E+00	 0.00000000E+00
	 0.00000000E+00	 0.00000000E+00	 0.00000000E+00
	 0.00000000E+00	 0.00000000E+00	 0.00000000E+00

	 0.00000000E+00	 0.00000000E+00	 0.00000000E+00
	 0.00000000E+00	 0.00000000E+00	 0.00000000E+00
	 0.00000000E+00	 0.00000000E+00	 0.00000000E+00

	 0.00000000E+00	 0.00000000E+00	 0.00000000E+00
	 0.00000000E+00	 0.00000000E+00	 0.00000000E+00
	 0.00000000E+00	 0.00000000E+00	 0.00000000E+00

	 0.00000000E+00	 0.00000000E+00	 0.00000000E+00
	 0.00000000E+00	 0.00000000E+00	 0.00000000E+00
	 0.00000000E+00	 0.00000000E+00	 0.00000000E+00

	 0.00000000E+00	 0.00000000E+00	 0.00000000E+00
	 0.00000000E+00	 0.00000000E+00	 0.00000000E+00
	 0.00000000E+00	 0.00000000E+00	 0.00000000E+00

	 0.00000000E+00	 0.00000000E+00	 0.00000000E+00
	 0.00000000E+00	 0.00000000E+00	 0.00000000E+00
	 0.00000000E+00	 0.00000000E+00	 0.00000000E+00

	 0.00000000E+00	 0.00000000E+00	 0.00000000E+00
	 0.00000000E+00	 0.00000000E+00	 0.00000000E+00
	 0.00000000E+00	 0.00000000E+00	 0.00000000E+00

	 0.00000000E+00	 0.00000000E+00	 0.00000000E+00
	 0.00000000E+00	 0.00000000E+00	 0.00000000E+00
	 0.00000000E+00	 0.00000000E+00	 0.00000000E+00

	 0.00000000E+00	 0.00000000E+00	 0.00000000E+00
	 0.00000000E+00	 0.00000000E+00	 0.00000000E+00
	 0.00000000E+00	 0.00000000E+00	 0.00000000E+00

	 0.00000000E+00	 0.00000000E+00	 0.00000000E+00
	 0.00000000E+00	 0.00000000E+00	 0.00000000E+00
	 0.00000000E+00	 0.00000000E+00	 0.00000000E+00

	 0.00000000E+00	 0.00000000E+00	 0.00000000E+00
	 0.00000000E+00	 0.00000000E+00	 0.00000000E+00
	 0.00000000E+00	 0.00000000E+00	 0.00000000E+00

	 0.00000000E+00	 0.00000000E+00	 0.00000000E+00
	 0.00000000E+00	 0.00000000E+00	 0.00000000E+00
	 0.00000000E+00	 0.00000000E+00	 0.00000000E+00

	 0.00000000E+00	 0.00000000E+00	 0.00000000E+00
	 0.00000000E+00	 0.00000000E+00	 0.00000000E+00
	 0.00000000E+00	 0.00000000E+00	 0.00000000E+00

	 0.00000000E+00	 0.00000000E+00	 0.00000000E+00
	 0.00000000E+00	 0.00000000E+00	 0.00000000E+00
	 0.00000000E+00	 0.00000000E+00	 0.00000000E+00

	 0.00000000E+00	 0.00000000E+00	 0.00000000E+00
	 0.00000000E+00	 0.00000000E+00	 0.00000000E+00
	 0.00000000E+00	 0.00000000E+00	 0.00000000E+00

	 0.00000000E+00	 0.00000000E+00	 0.00000000E+00
	 0.00000000E+00	 0.00000000E+00	 0.00000000E+00
	 0.00000000E+00	 0.00000000E+00	 0.00000000E+00

	 0.00000000E+00	 0.00000000E+00	 0.00000000E+00
	 0.00000000E+00	 0.00000000E+00	 0.00000000E+00
	 0.00000000E+00	 0.00000000E+00	 0.00000000E+00

	 0.00000000E+00	 0.00000000E+00	 0.00000000E+00
	 0.00000000E+00	 0.00000000E+00	 0.00000000E+00
	 0.00000000E+00	 0.00000000E+00	 0.00000000E+00

	 0.00000000E+00	 0.00000000E+00	 0.00000000E+00
	 0.00000000E+00	 0.00000000E+00	 0.00000000E+00
	 0.00000000E+00	 0.00000000E+00	 0.00000000E+00

	 0.00000000E+00	 0.00000000E+00	 0.00000000E+00
	 0.00000000E+00	 0.00000000E+00	 0.00000000E+00
	 0.00000000E+00	 0.00000000E+00	 0.00000000E+00

	 0.00000000E+00	 0.00000000E+00	 0.00000000E+00
	 0.00000000E+00	 0.00000000E+00	 0.00000000E+00
	 0.00000000E+00	 0.00000000E+00	 0.00000000E+00

	 0.00000000E+00	 0.00000000E+00	 0.00000000E+00
	 0.00000000E+00	 0.00000000E+00	 0.00000000E+00
	 0.00000000E+00	 0.00000000E+00	 0.00000000E+00

	 0.00000000E+00	 0.00000000E+00	 0.00000000E+00
	 0.00000000E+00	 0.00000000E+00	 0.00000000E+00
	 0.00000000E+00	 0.00000000E+00	 0.00000000E+00

	 0.00000000E+00	 0.00000000E+00	 0.00000000E+00
	 0.00000000E+00	 0.00000000E+00	 0.00000000E+00
	 0.00000000E+00	 0.00000000E+00	 0.00000000E+00

	 0.00000000E+00	 0.00000000E+00	 0.00000000E+00
	 0.00000000E+00	 0.00000000E+00	 0.00000000E+00
	 0.00000000E+00	 0.00000000E+00	 0.00000000E+00

	 0.00000000E+00	 0.00000000E+00	 0.00000000E+00
	 0.00000000E+00	 0.00000000E+00	 0.00000000E+00
	 0.00000000E+00	 0.00000000E+00	 0.00000000E+00

	 0.00000000E+00	 0.00000000E+00	 0.00000000E+00
	 0.00000000E+00	 0.00000000E+00	 0.00000000E+00
	 0.00000000E+00	 0.00000000E+00	 0.00000000E+00

	 0.00000000E+00	 0.00000000E+00	 0.00000000E+00
	 0.00000000E+00	 0.00000000E+00	 0.00000000E+00
	 0.00000000E+00	 0.00000000E+00	 0.00000000E+00

	 0.00000000E+00	 0.00000000E+00	 0.00000000E+00
	 0.00000000E+00	 0.00000000E+00	 0.00000000E+00
	 0.00000000E+00	 0.00000000E+00	 0.00000000E+00

	 0.00000000E+00	 0.00000000E+00	 0.00000000E+00
	 0.00000000E+00	 0.00000000E+00	 0.00000000E+00
	 0.00000000E+00	 0.00000000E+00	 0.00000000E+00

	 0.00000000E+00	 0.00000000E+00	 0.00000000E+00
	 0.00000000E+00	 0.00000000E+00	 0.00000000E+00
	 0.00000000E+00	 0.00000000E+00	 0.00000000E+00

	 0.00000000E+00	 0.00000000E+00	 0.00000000E+00
	 0.00000000E+00	 0.00000000E+00	 0.00000000E+00
	 0.00000000E+00	 0.00000000E+00	 0.00000000E+00

	 0.00000000E+00	 0.00000000E+00	 0.00000000E+00
	 0.00000000E+00	 0.00000000E+00	 0.00000000E+00
	 0.00000000E+00	 0.00000000E+00	 0.00000000E+00

	 0.00000000E+00	 0.00000000E+00	 0.00000000E+00
	 0.00000000E+00	 0.00000000E+00	 0.00000000E+00
	 0.00000000E+00	 0.00000000E+00	 0.00000000E+00

	 0.00000000E+00	 0.00000000E+00	 0.00000000E+00
	 0.00000000E+00	 0.00000000E+00	 0.00000000E+00
	 0.00000000E+00	 0.00000000E+00	 0.00000000E+00

	 0.00000000E+00	 0.00000000E+00	 0.00000000E+00
	 0.00000000E+00	 0.00000000E+00	 0.00000000E+00
	 0.00000000E+00	 0.00000000E+00	 0.00000000E+00

	 0.00000000E+00	 0.00000000E+00	 0.00000000E+00
	 0.00000000E+00	 0.00000000E+00	 0.00000000E+00
	 0.00000000E+00	 0.00000000E+00	 0.00000000E+00

	 0.00000000E+00	 0.00000000E+00	 0.00000000E+00
	 0.00000000E+00	 0.00000000E+00	 0.00000000E+00
	 0.00000000E+00	 0.00000000E+00	 0.00000000E+00

	 0.00000000E+00	 0.00000000E+00	 0.00000000E+00
	 0.00000000E+00	 0.00000000E+00	 0.00000000E+00
	 0.00000000E+00	 0.00000000E+00	 0.00000000E+00

	 0.00000000E+00	 0.00000000E+00	 0.00000000E+00
	 0.00000000E+00	 0.00000000E+00	 0.00000000E+00
	 0.00000000E+00	 0.00000000E+00	 0.00000000E+00

	 0.00000000E+00	 0.00000000E+00	 0.00000000E+00
	 0.00000000E+00	 0.00000000E+00	 0.00000000E+00
	 0.00000000E+00	 0.00000000E+00	 0.00000000E+00

	 0.00000000E+00	 0.00000000E+00	 0.00000000E+00
	 0.00000000E+00	 0.00000000E+00	 0.00000000E+00
	 0.00000000E+00	 0.00000000E+00	 0.00000000E+00

	 0.00000000E+00	 0.00000000E+00	 0.00000000E+00
	 0.00000000E+00	 0.00000000E+00	 0.00000000E+00
	 0.00000000E+00	 0.00000000E+00	 0.00000000E+00

	 0.00000000E+00	 0.00000000E+00	 0.00000000E+00
	 0.00000000E+00	 0.00000000E+00	 0.00000000E+00
	 0.00000000E+00	 0.00000000E+00	 0.00000000E+00

	 0.00000000E+00	 0.00000000E+00	 0.00000000E+00
	 0.00000000E+00	 0.00000000E+00	 0.00000000E+00
	 0.00000000E+00	 0.00000000E+00	 0.00000000E+00

	 0.00000000E+00	 0.00000000E+00	 0.00000000E+00
	 0.00000000E+00	 0.00000000E+00	 0.00000000E+00
	 0.00000000E+00	 0.00000000E+00	 0.00000000E+00

	 0.00000000E+00	 0.00000000E+00	 0.00000000E+00
	 0.00000000E+00	 0.00000000E+00	 0.00000000E+00
	 0.00000000E+00	 0.00000000E+00	 0.00000000E+00

	 0.00000000E+00	 0.00000000E+00	 0.00000000E+00
	 0.00000000E+00	 0.00000000E+00	 0.00000000E+00
	 0.00000000E+00	 0.00000000E+00	 0.00000000E+00

	 0.00000000E+00	 0.00000000E+00	 0.00000000E+00
	 0.00000000E+00	 0.00000000E+00	 0.00000000E+00
	 0.00000000E+00	 0.00000000E+00	 0.00000000E+00

	 0.00000000E+00	 0.00000000E+00	 0.00000000E+00
	 0.00000000E+00	 0.00000000E+00	 0.00000000E+00
	 0.00000000E+00	 0.00000000E+00	 0.00000000E+00

	 0.00000000E+00	 0.00000000E+00	 0.00000000E+00
	 0.00000000E+00	 0.00000000E+00	 0.00000000E+00
	 0.00000000E+00	 0.00000000E+00	 0.00000000E+00

	 0.00000000E+00	 0.00000000E+00	 0.00000000E+00
	 0.00000000E+00	 0.00000000E+00	 0.00000000E+00
	 0.00000000E+00	 0.00000000E+00	 0.00000000E+00

	 0.00000000E+00	 0.00000000E+00	 0.00000000E+00
	 0.00000000E+00	 0.00000000E+00	 0.00000000E+00
	 0.00000000E+00	 0.00000000E+00	 0.00000000E+00

	 0.00000000E+00	 0.00000000E+00	 0.00000000E+00
	 0.00000000E+00	 0.00000000E+00	 0.00000000E+00
	 0.00000000E+00	 0.00000000E+00	 0.00000000E+00

	 0.00000000E+00	 0.00000000E+00	 0.00000000E+00
	 0.00000000E+00	 0.00000000E+00	 0.00000000E+00
	 0.00000000E+00	 0.00000000E+00	 0.00000000E+00

	 0.00000000E+00	 0.00000000E+00	 0.00000000E+00
	 0.00000000E+00	 0.00000000E+00	 0.00000000E+00
	 0.00000000E+00	 0.00000000E+00	 0.00000000E+00

	 0.00000000E+00	 0.00000000E+00	 0.00000000E+00
	 0.00000000E+00	 0.00000000E+00	 0.00000000E+00
	 0.00000000E+00	 0.00000000E+00	 0.00000000E+00

	 0.00000000E+00	 0.00000000E+00	 0.00000000E+00
	 0.00000000E+00	 0.00000000E+00	 0.00000000E+00
	 0.00000000E+00	 0.00000000E+00	 0.00000000E+00

	 0.00000000E+00	 0.00000000E+00	 0.00000000E+00
	 0.00000000E+00	 0.00000000E+00	 0.00000000E+00
	 0.00000000E+00	 0.00000000E+00	 0.00000000E+00

	 0.00000000E+00	 0.00000000E+00	 0.00000000E+00
	 0.00000000E+00	 0.00000000E+00	 0.00000000E+00
	 0.00000000E+00	 0.00000000E+00	 0.00000000E+00

	 0.00000000E+00	 0.00000000E+00	 0.00000000E+00
	 0.00000000E+00	 0.00000000E+00	 0.00000000E+00
	 0.00000000E+00	 0.00000000E+00	 0.00000000E+00

	 0.00000000E+00	 0.00000000E+00	 0.00000000E+00
	 0.00000000E+00	 0.00000000E+00	 0.00000000E+00
	 0.00000000E+00	 0.00000000E+00	 0.00000000E+00

	 0.00000000E+00	 0.00000000E+00	 0.00000000E+00
	 0.00000000E+00	 0.00000000E+00	 0.00000000E+00
	 0.00000000E+00	 0.00000000E+00	 0.00000000E+00

	 0.00000000E+00	 0.00000000E+00	 0.00000000E+00
	 0.00000000E+00	 0.00000000E+00	 0.00000000E+00
	 0.00000000E+00	 0.00000000E+00	 0.00000000E+00

	 0.00000000E+00	 0.00000000E+00	 0.00000000E+00
	 0.00000000E+00	 0.00000000E+00	 0.00000000E+00
	 0.00000000E+00	 0.00000000E+00	 0.00000000E+00

	 0.00000000E+00	 0.00000000E+00	 0.00000000E+00
	 0.00000000E+00	 0.00000000E+00	 0.00000000E+00
	 0.00000000E+00	 0.00000000E+00	 0.00000000E+00

	 0.00000000E+00	 0.00000000E+00	 0.00000000E+00
	 0.00000000E+00	 0.00000000E+00	 0.00000000E+00
	 0.00000000E+00	 0.00000000E+00	 0.00000000E+00

	 0.00000000E+00	 0.00000000E+00	 0.00000000E+00
	 0.00000000E+00	 0.00000000E+00	 0.00000000E+00
	 0.00000000E+00	 0.00000000E+00	 0.00000000E+00

	 0.00000000E+00	 0.00000000E+00	 0.00000000E+00
	 0.00000000E+00	 0.00000000E+00	 0.00000000E+00
	 0.00000000E+00	 0.00000000E+00	 0.00000000E+00

	 0.00000000E+00	 0.00000000E+00	 0.00000000E+00
	 0.00000000E+00	 0.00000000E+00	 0.00000000E+00
	 0.00000000E+00	 0.00000000E+00	 0.00000000E+00

	 0.00000000E+00	 0.00000000E+00	 0.00000000E+00
	 0.00000000E+00	 0.00000000E+00	 0.00000000E+00
	 0.00000000E+00	 0.00000000E+00	 0.00000000E+00

	 0.00000000E+00	 0.00000000E+00	 0.00000000E+00
	 0.00000000E+00	 0.00000000E+00	 0.00000000E+00
	 0.00000000E+00	 0.00000000E+00	 0.00000000E+00

	 0.00000000E+00	 0.00000000E+00	 0.00000000E+00
	 0.00000000E+00	 0.00000000E+00	 0.00000000E+00
	 0.00000000E+00	 0.00000000E+00	 0.00000000E+00

	 0.00000000E+00	 0.00000000E+00	 0.00000000E+00
	 0.00000000E+00	 0.00000000E+00	 0.00000000E+00
	 0.00000000E+00	 0.00000000E+00	 0.00000000E+00

	 0.00000000E+00	 0.00000000E+00	 0.00000000E+00
	 0.00000000E+00	 0.00000000E+00	 0.00000000E+00
	 0.00000000E+00	 0.00000000E+00	 0.00000000E+00

	 0.00000000E+00	 0.00000000E+00	 0.00000000E+00
	 0.00000000E+00	 0.00000000E+00	 0.00000000E+00
	 0.00000000E+00	 0.00000000E+00	 0.00000000E+00

	 0.00000000E+00	 0.00000000E+00	 0.00000000E+00
	 0.00000000E+00	 0.00000000E+00	 0.00000000E+00
	 0.00000000E+00	 0.00000000E+00	 0.00000000E+00

	 0.00000000E+00	 0.00000000E+00	 0.00000000E+00
	 0.00000000E+00	 0.00000000E+00	 0.00000000E+00
	 0.00000000E+00	 0.00000000E+00	 0.00000000E+00

	 0.00000000E+00	 0.00000000E+00	 0.00000000E+00
	 0.00000000E+00	 0.00000000E+00	 0.00000000E+00
	 0.00000000E+00	 0.00000000E+00	 0.00000000E+00

	 0.00000000E+00	 0.00000000E+00	 0.00000000E+00
	 0.00000000E+00	 0.00000000E+00	 0.00000000E+00
	 0.00000000E+00	 0.00000000E+00	 0.00000000E+00

	 0.00000000E+00	 0.00000000E+00	 0.00000000E+00
	 0.00000000E+00	 0.00000000E+00	 0.00000000E+00
	 0.00000000E+00	 0.00000000E+00	 0.00000000E+00

	 0.00000000E+00	 0.00000000E+00	 0.00000000E+00
	 0.00000000E+00	 0.00000000E+00	 0.00000000E+00
	 0.00000000E+00	 0.00000000E+00	 0.00000000E+00

	 0.00000000E+00	 0.00000000E+00	 0.00000000E+00
	 0.00000000E+00	 0.00000000E+00	 0.00000000E+00
	 0.00000000E+00	 0.00000000E+00	 0.00000000E+00

	 0.00000000E+00	 0.00000000E+00	 0.00000000E+00
	 0.00000000E+00	 0.00000000E+00	 0.00000000E+00
	 0.00000000E+00	 0.00000000E+00	 0.00000000E+00

	 0.00000000E+00	 0.00000000E+00	 0.00000000E+00
	 0.00000000E+00	 0.00000000E+00	 0.00000000E+00
	 0.00000000E+00	 0.00000000E+00	 0.00000000E+00

	 0.00000000E+00	 0.00000000E+00	 0.00000000E+00
	 0.00000000E+00	 0.00000000E+00	 0.00000000E+00
	 0.00000000E+00	 0.00000000E+00	 0.00000000E+00

	 0.00000000E+00	 0.00000000E+00	 0.00000000E+00
	 0.00000000E+00	 0.00000000E+00	 0.00000000E+00
	 0.00000000E+00	 0.00000000E+00	 0.00000000E+00

	 0.00000000E+00	 0.00000000E+00	 0.00000000E+00
	 0.00000000E+00	 0.00000000E+00	 0.00000000E+00
	 0.00000000E+00	 0.00000000E+00	 0.00000000E+00

	 0.00000000E+00	 0.00000000E+00	 0.00000000E+00
	 0.00000000E+00	 0.00000000E+00	 0.00000000E+00
	 0.00000000E+00	 0.00000000E+00	 0.00000000E+00

	 0.00000000E+00	 0.00000000E+00	 0.00000000E+00
	 0.00000000E+00	 0.00000000E+00	 0.00000000E+00
	 0.00000000E+00	 0.00000000E+00	 0.00000000E+00

	 0.00000000E+00	 0.00000000E+00	 0.00000000E+00
	 0.00000000E+00	 0.00000000E+00	 0.00000000E+00
	 0.00000000E+00	 0.00000000E+00	 0.00000000E+00

	 0.00000000E+00	 0.00000000E+00	 0.00000000E+00
	 0.00000000E+00	 0.00000000E+00	 0.00000000E+00
	 0.00000000E+00	 0.00000000E+00	 0.00000000E+00

	 0.00000000E+00	 0.00000000E+00	 0.00000000E+00
	 0.00000000E+00	 0.00000000E+00	 0.00000000E+00
	 0.00000000E+00	 0.00000000E+00	 0.00000000E+00

	 0.00000000E+00	 0.00000000E+00	 0.00000000E+00
	 0.00000000E+00	 0.00000000E+00	 0.00000000E+00
	 0.00000000E+00	 0.00000000E+00	 0.00000000E+00

	 0.00000000E+00	 0.00000000E+00	 0.00000000E+00
	 0.00000000E+00	 0.00000000E+00	 0.00000000E+00
	 0.00000000E+00	 0.00000000E+00	 0.00000000E+00

	 0.00000000E+00	 0.00000000E+00	 0.00000000E+00
	 0.00000000E+00	 0.00000000E+00	 0.00000000E+00
	 0.00000000E+00	 0.00000000E+00	 0.00000000E+00

	 0.00000000E+00	 0.00000000E+00	 0.00000000E+00
	 0.00000000E+00	 0.00000000E+00	 0.00000000E+00
	 0.00000000E+00	 0.00000000E+00	 0.00000000E+00

	 0.00000000E+00	 0.00000000E+00	 0.00000000E+00
	 0.00000000E+00	 0.00000000E+00	 0.00000000E+00
	 0.00000000E+00	 0.00000000E+00	 0.00000000E+00

	 0.00000000E+00	 0.00000000E+00	 0.00000000E+00
	 0.00000000E+00	 0.00000000E+00	 0.00000000E+00
	 0.00000000E+00	 0.00000000E+00	 0.00000000E+00

	 0.00000000E+00	 0.00000000E+00	 0.00000000E+00
	 0.00000000E+00	 0.00000000E+00	 0.00000000E+00
	 0.00000000E+00	 0.00000000E+00	 0.00000000E+00

	 0.00000000E+00	 0.00000000E+00	 0.00000000E+00
	 0.00000000E+00	 0.00000000E+00	 0.00000000E+00
	 0.00000000E+00	 0.00000000E+00	 0.00000000E+00

	 0.00000000E+00	 0.00000000E+00	 0.00000000E+00
	 0.00000000E+00	 0.00000000E+00	 0.00000000E+00
	 0.00000000E+00	 0.00000000E+00	 0.00000000E+00

	 0.00000000E+00	 0.00000000E+00	 0.00000000E+00
	 0.00000000E+00	 0.00000000E+00	 0.00000000E+00
	 0.00000000E+00	 0.00000000E+00	 0.00000000E+00

	 0.00000000E+00	 0.00000000E+00	 0.00000000E+00
	 0.00000000E+00	 0.00000000E+00	 0.00000000E+00
	 0.00000000E+00	 0.00000000E+00	 0.00000000E+00

	 0.00000000E+00	 0.00000000E+00	 0.00000000E+00
	 0.00000000E+00	 0.00000000E+00	 0.00000000E+00
	 0.00000000E+00	 0.00000000E+00	 0.00000000E+00

	 0.00000000E+00	 0.00000000E+00	 0.00000000E+00
	 0.00000000E+00	 0.00000000E+00	 0.00000000E+00
	 0.00000000E+00	 0.00000000E+00	 0.00000000E+00

	 0.00000000E+00	 0.00000000E+00	 0.00000000E+00
	 0.00000000E+00	 0.00000000E+00	 0.00000000E+00
	 0.00000000E+00	 0.00000000E+00	 0.00000000E+00

	 0.00000000E+00	 0.00000000E+00	 0.00000000E+00
	 0.00000000E+00	 0.00000000E+00	 0.00000000E+00
	 0.00000000E+00	 0.00000000E+00	 0.00000000E+00

	 0.00000000E+00	 0.00000000E+00	 0.00000000E+00
	 0.00000000E+00	 0.00000000E+00	 0.00000000E+00
	 0.00000000E+00	 0.00000000E+00	 0.00000000E+00

	 0.00000000E+00	 0.00000000E+00	 0.00000000E+00
	 0.00000000E+00	 0.00000000E+00	 0.00000000E+00
	 0.00000000E+00	 0.00000000E+00	 0.00000000E+00

	 0.00000000E+00	 0.00000000E+00	 0.00000000E+00
	 0.00000000E+00	 0.00000000E+00	 0.00000000E+00
	 0.00000000E+00	 0.00000000E+00	 0.00000000E+00

	 0.00000000E+00	 0.00000000E+00	 0.00000000E+00
	 0.00000000E+00	 0.00000000E+00	 0.00000000E+00
	 0.00000000E+00	 0.00000000E+00	 0.00000000E+00

	 0.00000000E+00	 0.00000000E+00	 0.00000000E+00
	 0.00000000E+00	 0.00000000E+00	 0.00000000E+00
	 0.00000000E+00	 0.00000000E+00	 0.00000000E+00

	 0.00000000E+00	 0.00000000E+00	 0.00000000E+00
	 0.00000000E+00	 0.00000000E+00	 0.00000000E+00
	 0.00000000E+00	 0.00000000E+00	 0.00000000E+00

	 0.00000000E+00	 0.00000000E+00	 0.00000000E+00
	 0.00000000E+00	 0.00000000E+00	 0.00000000E+00
	 0.00000000E+00	 0.00000000E+00	 0.00000000E+00

	 0.00000000E+00	 0.00000000E+00	 0.00000000E+00
	 0.00000000E+00	 0.00000000E+00	 0.00000000E+00
	 0.00000000E+00	 0.00000000E+00	 0.00000000E+00

	 0.00000000E+00	 0.00000000E+00	 0.00000000E+00
	 0.00000000E+00	 0.00000000E+00	 0.00000000E+00
	 0.00000000E+00	 0.00000000E+00	 0.00000000E+00

	 0.00000000E+00	 0.00000000E+00	 0.00000000E+00
	 0.00000000E+00	 0.00000000E+00	 0.00000000E+00
	 0.00000000E+00	 0.00000000E+00	 0.00000000E+00

	 0.00000000E+00	 0.00000000E+00	 0.00000000E+00
	 0.00000000E+00	 0.00000000E+00	 0.00000000E+00
	 0.00000000E+00	 0.00000000E+00	 0.00000000E+00

	 0.00000000E+00	 0.00000000E+00	 0.00000000E+00
	 0.00000000E+00	 0.00000000E+00	 0.00000000E+00
	 0.00000000E+00	 0.00000000E+00	 0.00000000E+00

	 0.00000000E+00	 0.00000000E+00	 0.00000000E+00
	 0.00000000E+00	 0.00000000E+00	 0.00000000E+00
	 0.00000000E+00	 0.00000000E+00	 0.00000000E+00

	 0.00000000E+00	 0.00000000E+00	 0.00000000E+00
	 0.00000000E+00	 0.00000000E+00	 0.00000000E+00
	 0.00000000E+00	 0.00000000E+00	 0.00000000E+00

	 0.00000000E+00	 0.00000000E+00	 0.00000000E+00
	 0.00000000E+00	 0.00000000E+00	 0.00000000E+00
	 0.00000000E+00	 0.00000000E+00	 0.00000000E+00

	 0.00000000E+00	 0.00000000E+00	 0.00000000E+00
	 0.00000000E+00	 0.00000000E+00	 0.00000000E+00
	 0.00000000E+00	 0.00000000E+00	 0.00000000E+00

	 0.00000000E+00	 0.00000000E+00	 0.00000000E+00
	 0.00000000E+00	 0.00000000E+00	 0.00000000E+00
	 0.00000000E+00	 0.00000000E+00	 0.00000000E+00

	 0.00000000E+00	 0.00000000E+00	 0.00000000E+00
	 0.00000000E+00	 0.00000000E+00	 0.00000000E+00
	 0.00000000E+00	 0.00000000E+00	 0.00000000E+00

	 0.00000000E+00	 0.00000000E+00	 0.00000000E+00
	 0.00000000E+00	 0.00000000E+00	 0.00000000E+00
	 0.00000000E+00	 0.00000000E+00	 0.00000000E+00

	 0.00000000E+00	 0.00000000E+00	 0.00000000E+00
	 0.00000000E+00	 0.00000000E+00	 0.00000000E+00
	 0.00000000E+00	 0.00000000E+00	 0.00000000E+00

	 0.00000000E+00	 0.00000000E+00	 0.00000000E+00
	 0.00000000E+00	 0.00000000E+00	 0.00000000E+00
	 0.00000000E+00	 0.00000000E+00	 0.00000000E+00

	 0.00000000E+00	 0.00000000E+00	 0.00000000E+00
	 0.00000000E+00	 0.00000000E+00	 0.00000000E+00
	 0.00000000E+00	 0.00000000E+00	 0.00000000E+00

	 0.00000000E+00	 0.00000000E+00	 0.00000000E+00
	 0.00000000E+00	 0.00000000E+00	 0.00000000E+00
	 0.00000000E+00	 0.00000000E+00	 0.00000000E+00

	 0.00000000E+00	 0.00000000E+00	 0.00000000E+00
	 0.00000000E+00	 0.00000000E+00	 0.00000000E+00
	 0.00000000E+00	 0.00000000E+00	 0.00000000E+00

	 0.00000000E+00	 0.00000000E+00	 0.00000000E+00
	 0.00000000E+00	 0.00000000E+00	 0.00000000E+00
	 0.00000000E+00	 0.00000000E+00	 0.00000000E+00

	 0.00000000E+00	 0.00000000E+00	 0.00000000E+00
	 0.00000000E+00	 0.00000000E+00	 0.00000000E+00
	 0.00000000E+00	 0.00000000E+00	 0.00000000E+00

	 0.00000000E+00	 0.00000000E+00	 0.00000000E+00
	 0.00000000E+00	 0.00000000E+00	 0.00000000E+00
	 0.00000000E+00	 0.00000000E+00	 0.00000000E+00

	 0.00000000E+00	 0.00000000E+00	 0.00000000E+00
	 0.00000000E+00	 0.00000000E+00	 0.00000000E+00
	 0.00000000E+00	 0.00000000E+00	 0.00000000E+00

	 0.00000000E+00	 0.00000000E+00	 0.00000000E+00
	 0.00000000E+00	 0.00000000E+00	 0.00000000E+00
	 0.00000000E+00	 0.00000000E+00	 0.00000000E+00

	 0.00000000E+00	 0.00000000E+00	 0.00000000E+00
	 0.00000000E+00	 0.00000000E+00	 0.00000000E+00
	 0.00000000E+00	 0.00000000E+00	 0.00000000E+00

	 0.00000000E+00	 0.00000000E+00	 0.00000000E+00
	 0.00000000E+00	 0.00000000E+00	 0.00000000E+00
	 0.00000000E+00	 0.00000000E+00	 0.00000000E+00

	 0.00000000E+00	 0.00000000E+00	 0.00000000E+00
	 0.00000000E+00	 0.00000000E+00	 0.00000000E+00
	 0.00000000E+00	 0.00000000E+00	 0.00000000E+00

	 0.00000000E+00	 0.00000000E+00	 0.00000000E+00
	 0.00000000E+00	 0.00000000E+00	 0.00000000E+00
	 0.00000000E+00	 0.00000000E+00	 0.00000000E+00

	 0.00000000E+00	 0.00000000E+00	 0.00000000E+00
	 0.00000000E+00	 0.00000000E+00	 0.00000000E+00
	 0.00000000E+00	 0.00000000E+00	 0.00000000E+00

	 0.00000000E+00	 0.00000000E+00	 0.00000000E+00
	 0.00000000E+00	 0.00000000E+00	 0.00000000E+00
	 0.00000000E+00	 0.00000000E+00	 0.00000000E+00

	 0.00000000E+00	 0.00000000E+00	 0.00000000E+00
	 0.00000000E+00	 0.00000000E+00	 0.00000000E+00
	 0.00000000E+00	 0.00000000E+00	 0.00000000E+00

	 0.00000000E+00	 0.00000000E+00	 0.00000000E+00
	 0.00000000E+00	 0.00000000E+00	 0.00000000E+00
	 0.00000000E+00	 0.00000000E+00	 0.00000000E+00

	 0.00000000E+00	 0.00000000E+00	 0.00000000E+00
	 0.00000000E+00	 0.00000000E+00	 0.00000000E+00
	 0.00000000E+00	 0.00000000E+00	 0.00000000E+00

	 0.00000000E+00	 0.00000000E+00	 0.00000000E+00
	 0.00000000E+00	 0.00000000E+00	 0.00000000E+00
	 0.00000000E+00	 0.00000000E+00	 0.00000000E+00

	 0.00000000E+00	 0.00000000E+00	 0.00000000E+00
	 0.00000000E+00	 0.00000000E+00	 0.00000000E+00
	 0.00000000E+00	 0.00000000E+00	 0.00000000E+00

	 0.00000000E+00	 0.00000000E+00	 0.00000000E+00
	 0.00000000E+00	 0.00000000E+00	 0.00000000E+00
	 0.00000000E+00	 0.00000000E+00	 0.00000000E+00

	 0.00000000E+00	 0.00000000E+00	 0.00000000E+00
	 0.00000000E+00	 0.00000000E+00	 0.00000000E+00
	 0.00000000E+00	 0.00000000E+00	 0.00000000E+00

	 0.00000000E+00	 0.00000000E+00	 0.00000000E+00
	 0.00000000E+00	 0.00000000E+00	 0.00000000E+00
	 0.00000000E+00	 0.00000000E+00	 0.00000000E+00

	 0.00000000E+00	 0.00000000E+00	 0.00000000E+00
	 0.00000000E+00	 0.00000000E+00	 0.00000000E+00
	 0.00000000E+00	 0.00000000E+00	 0.00000000E+00

	 0.00000000E+00	 0.00000000E+00	 0.00000000E+00
	 0.00000000E+00	 0.00000000E+00	 0.00000000E+00
	 0.00000000E+00	 0.00000000E+00	 0.00000000E+00

	 0.00000000E+00	 0.00000000E+00	 0.00000000E+00
	 0.00000000E+00	 0.00000000E+00	 0.00000000E+00
	 0.00000000E+00	 0.00000000E+00	 0.00000000E+00

	 0.00000000E+00	 0.00000000E+00	 0.00000000E+00
	 0.00000000E+00	 0.00000000E+00	 0.00000000E+00
	 0.00000000E+00	 0.00000000E+00	 0.00000000E+00

	 0.00000000E+00	 0.00000000E+00	 0.00000000E+00
	 0.00000000E+00	 0.00000000E+00	 0.00000000E+00
	 0.00000000E+00	 0.00000000E+00	 0.00000000E+00

	 0.00000000E+00	 0.00000000E+00	 0.00000000E+00
	 0.00000000E+00	 0.00000000E+00	 0.00000000E+00
	 0.00000000E+00	 0.00000000E+00	 0.00000000E+00

	 0.00000000E+00	 0.00000000E+00	 0.00000000E+00
	 0.00000000E+00	 0.00000000E+00	 0.00000000E+00
	 0.00000000E+00	 0.00000000E+00	 0.00000000E+00

	 0.00000000E+00	 0.00000000E+00	 0.00000000E+00
	 0.00000000E+00	 0.00000000E+00	 0.00000000E+00
	 0.00000000E+00	 0.00000000E+00	 0.00000000E+00

	 0.00000000E+00	 0.00000000E+00	 0.00000000E+00
	 0.00000000E+00	 0.00000000E+00	 0.00000000E+00
	 0.00000000E+00	 0.00000000E+00	 0.00000000E+00

	 0.00000000E+00	 0.00000000E+00	 0.00000000E+00
	 0.00000000E+00	 0.00000000E+00	 0.00000000E+00
	 0.00000000E+00	 0.00000000E+00	 0.00000000E+00

	 0.00000000E+00	 0.00000000E+00	 0.00000000E+00
	 0.00000000E+00	 0.00000000E+00	 0.00000000E+00
	 0.00000000E+00	 0.00000000E+00	 0.00000000E+00

	 0.00000000E+00	 0.00000000E+00	 0.00000000E+00
	 0.00000000E+00	 0.00000000E+00	 0.00000000E+00
	 0.00000000E+00	 0.00000000E+00	 0.00000000E+00

	 0.00000000E+00	 0.00000000E+00	 0.00000000E+00
	 0.00000000E+00	 0.00000000E+00	 0.00000000E+00
	 0.00000000E+00	 0.00000000E+00	 0.00000000E+00

	 0.00000000E+00	 0.00000000E+00	 0.00000000E+00
	 0.00000000E+00	 0.00000000E+00	 0.00000000E+00
	 0.00000000E+00	 0.00000000E+00	 0.00000000E+00

	 0.00000000E+00	 0.00000000E+00	 0.00000000E+00
	 0.00000000E+00	 0.00000000E+00	 0.00000000E+00
	 0.00000000E+00	 0.00000000E+00	 0.00000000E+00

	 0.00000000E+00	 0.00000000E+00	 0.00000000E+00
	 0.00000000E+00	 0.00000000E+00	 0.00000000E+00
	 0.00000000E+00	 0.00000000E+00	 0.00000000E+00

	 0.00000000E+00	 0.00000000E+00	 0.00000000E+00
	 0.00000000E+00	 0.00000000E+00	 0.00000000E+00
	 0.00000000E+00	 0.00000000E+00	 0.00000000E+00

	 0.00000000E+00	 0.00000000E+00	 0.00000000E+00
	 0.00000000E+00	 0.00000000E+00	 0.00000000E+00
	 0.00000000E+00	 0.00000000E+00	 0.00000000E+00

	 0.00000000E+00	 0.00000000E+00	 0.00000000E+00
	 0.00000000E+00	 0.00000000E+00	 0.00000000E+00
	 0.00000000E+00	 0.00000000E+00	 0.00000000E+00

	 0.00000000E+00	 0.00000000E+00	 0.00000000E+00
	 0.00000000E+00	 0.00000000E+00	 0.00000000E+00
	 0.00000000E+00	 0.00000000E+00	 0.00000000E+00

	 0.00000000E+00	 0.00000000E+00	 0.00000000E+00
	 0.00000000E+00	 0.00000000E+00	 0.00000000E+00
	 0.00000000E+00	 0.00000000E+00	 0.00000000E+00

	 0.00000000E+00	 0.00000000E+00	 0.00000000E+00
	 0.00000000E+00	 0.00000000E+00	 0.00000000E+00
	 0.00000000E+00	 0.00000000E+00	 0.00000000E+00

	 0.00000000E+00	 0.00000000E+00	 0.00000000E+00
	 0.00000000E+00	 0.00000000E+00	 0.00000000E+00
	 0.00000000E+00	 0.00000000E+00	 0.00000000E+00

	 0.00000000E+00	 0.00000000E+00	 0.00000000E+00
	 0.00000000E+00	 0.00000000E+00	 0.00000000E+00
	 0.00000000E+00	 0.00000000E+00	 0.00000000E+00

	 0.00000000E+00	 0.00000000E+00	 0.00000000E+00
	 0.00000000E+00	 0.00000000E+00	 0.00000000E+00
	 0.00000000E+00	 0.00000000E+00	 0.00000000E+00

	 0.00000000E+00	 0.00000000E+00	 0.00000000E+00
	 0.00000000E+00	 0.00000000E+00	 0.00000000E+00
	 0.00000000E+00	 0.00000000E+00	 0.00000000E+00

	 0.00000000E+00	 0.00000000E+00	 0.00000000E+00
	 0.00000000E+00	 0.00000000E+00	 0.00000000E+00
	 0.00000000E+00	 0.00000000E+00	 0.00000000E+00

	 0.00000000E+00	 0.00000000E+00	 0.00000000E+00
	 0.00000000E+00	 0.00000000E+00	 0.00000000E+00
	 0.00000000E+00	 0.00000000E+00	 0.00000000E+00

	 0.00000000E+00	 0.00000000E+00	 0.00000000E+00
	 0.00000000E+00	 0.00000000E+00	 0.00000000E+00
	 0.00000000E+00	 0.00000000E+00	 0.00000000E+00

	 0.00000000E+00	 0.00000000E+00	 0.00000000E+00
	 0.00000000E+00	 0.00000000E+00	 0.00000000E+00
	 0.00000000E+00	 0.00000000E+00	 0.00000000E+00

	 0.00000000E+00	 0.00000000E+00	 0.00000000E+00
	 0.00000000E+00	 0.00000000E+00	 0.00000000E+00
	 0.00000000E+00	 0.00000000E+00	 0.00000000E+00

	 0.00000000E+00	 0.00000000E+00	 0.00000000E+00
	 0.00000000E+00	 0.00000000E+00	 0.00000000E+00
	 0.00000000E+00	 0.00000000E+00	 0.00000000E+00

	 0.00000000E+00	 0.00000000E+00	 0.00000000E+00
	 0.00000000E+00	 0.00000000E+00	 0.00000000E+00
	 0.00000000E+00	 0.00000000E+00	 0.00000000E+00

	 0.00000000E+00	 0.00000000E+00	 0.00000000E+00
	 0.00000000E+00	 0.00000000E+00	 0.00000000E+00
	 0.00000000E+00	 0.00000000E+00	 0.00000000E+00

	 0.00000000E+00	 0.00000000E+00	 0.00000000E+00
	 0.00000000E+00	 0.00000000E+00	 0.00000000E+00
	 0.00000000E+00	 0.00000000E+00	 0.00000000E+00

	 0.00000000E+00	 0.00000000E+00	 0.00000000E+00
	 0.00000000E+00	 0.00000000E+00	 0.00000000E+00
	 0.00000000E+00	 0.00000000E+00	 0.00000000E+00

	 0.00000000E+00	 0.00000000E+00	 0.00000000E+00
	 0.00000000E+00	 0.00000000E+00	 0.00000000E+00
	 0.00000000E+00	 0.00000000E+00	 0.00000000E+00

	 0.00000000E+00	 0.00000000E+00	 0.00000000E+00
	 0.00000000E+00	 0.00000000E+00	 0.00000000E+00
	 0.00000000E+00	 0.00000000E+00	 0.00000000E+00

	 0.00000000E+00	 0.00000000E+00	 0.00000000E+00
	 0.00000000E+00	 0.00000000E+00	 0.00000000E+00
	 0.00000000E+00	 0.00000000E+00	 0.00000000E+00

	 0.00000000E+00	 0.00000000E+00	 0.00000000E+00
	 0.00000000E+00	 0.00000000E+00	 0.00000000E+00
	 0.00000000E+00	 0.00000000E+00	 0.00000000E+00

	 0.00000000E+00	 0.00000000E+00	 0.00000000E+00
	 0.00000000E+00	 0.00000000E+00	 0.00000000E+00
	 0.00000000E+00	 0.00000000E+00	 0.00000000E+00

	 0.00000000E+00	 0.00000000E+00	 0.00000000E+00
	 0.00000000E+00	 0.00000000E+00	 0.00000000E+00
	 0.00000000E+00	 0.00000000E+00	 0.00000000E+00

	 0.00000000E+00	 0.00000000E+00	 0.00000000E+00
	 0.00000000E+00	 0.00000000E+00	 0.00000000E+00
	 0.00000000E+00	 0.00000000E+00	 0.00000000E+00

	 0.00000000E+00	 0.00000000E+00	 0.00000000E+00
	 0.00000000E+00	 0.00000000E+00	 0.00000000E+00
	 0.00000000E+00	 0.00000000E+00	 0.00000000E+00

	 0.00000000E+00	 0.00000000E+00	 0.00000000E+00
	 0.00000000E+00	 0.00000000E+00	 0.00000000E+00
	 0.00000000E+00	 0.00000000E+00	 0.00000000E+00

	 0.00000000E+00	 0.00000000E+00	 0.00000000E+00
	 0.00000000E+00	 0.00000000E+00	 0.00000000E+00
	 0.00000000E+00	 0.00000000E+00	 0.00000000E+00

	 0.00000000E+00	 0.00000000E+00	 0.00000000E+00
	 0.00000000E+00	 0.00000000E+00	 0.00000000E+00
	 0.00000000E+00	 0.00000000E+00	 0.00000000E+00

	 0.00000000E+00	 0.00000000E+00	 0.00000000E+00
	 0.00000000E+00	 0.00000000E+00	 0.00000000E+00
	 0.00000000E+00	 0.00000000E+00	 0.00000000E+00

	 0.00000000E+00	 0.00000000E+00	 0.00000000E+00
	 0.00000000E+00	 0.00000000E+00	 0.00000000E+00
	 0.00000000E+00	 0.00000000E+00	 0.00000000E+00

	 0.00000000E+00	 0.00000000E+00	 0.00000000E+00
	 0.00000000E+00	 0.00000000E+00	 0.00000000E+00
	 0.00000000E+00	 0.00000000E+00	 0.00000000E+00

	 0.00000000E+00	 0.00000000E+00	 0.00000000E+00
	 0.00000000E+00	 0.00000000E+00	 0.00000000E+00
	 0.00000000E+00	 0.00000000E+00	 0.00000000E+00

	 0.00000000E+00	 0.00000000E+00	 0.00000000E+00
	 0.00000000E+00	 0.00000000E+00	 0.00000000E+00
	 0.00000000E+00	 0.00000000E+00	 0.00000000E+00

	 0.00000000E+00	 0.00000000E+00	 0.00000000E+00
	 0.00000000E+00	 0.00000000E+00	 0.00000000E+00
	 0.00000000E+00	 0.00000000E+00	 0.00000000E+00

	 0.00000000E+00	 0.00000000E+00	 0.00000000E+00
	 0.00000000E+00	 0.00000000E+00	 0.00000000E+00
	 0.00000000E+00	 0.00000000E+00	 0.00000000E+00

	 0.00000000E+00	 0.00000000E+00	 0.00000000E+00
	 0.00000000E+00	 0.00000000E+00	 0.00000000E+00
	 0.00000000E+00	 0.00000000E+00	 0.00000000E+00

	 0.00000000E+00	 0.00000000E+00	 0.00000000E+00
	 0.00000000E+00	 0.00000000E+00	 0.00000000E+00
	 0.00000000E+00	 0.00000000E+00	 0.00000000E+00

	 0.00000000E+00	 0.00000000E+00	 0.00000000E+00
	 0.00000000E+00	 0.00000000E+00	 0.00000000E+00
	 0.00000000E+00	 0.00000000E+00	 0.00000000E+00

	 0.00000000E+00	 0.00000000E+00	 0.00000000E+00
	 0.00000000E+00	 0.00000000E+00	 0.00000000E+00
	 0.00000000E+00	 0.00000000E+00	 0.00000000E+00

	 0.00000000E+00	 0.00000000E+00	 0.00000000E+00
	 0.00000000E+00	 0.00000000E+00	 0.00000000E+00
	 0.00000000E+00	 0.00000000E+00	 0.00000000E+00

	 0.00000000E+00	 0.00000000E+00	 0.00000000E+00
	 0.00000000E+00	 0.00000000E+00	 0.00000000E+00
	 0.00000000E+00	 0.00000000E+00	 0.00000000E+00

	 0.00000000E+00	 0.00000000E+00	 0.00000000E+00
	 0.00000000E+00	 0.00000000E+00	 0.00000000E+00
	 0.00000000E+00	 0.00000000E+00	 0.00000000E+00

	 0.00000000E+00	 0.00000000E+00	 0.00000000E+00
	 0.00000000E+00	 0.00000000E+00	 0.00000000E+00
	 0.00000000E+00	 0.00000000E+00	 0.00000000E+00

	 0.00000000E+00	 0.00000000E+00	 0.00000000E+00
	 0.00000000E+00	 0.00000000E+00	 0.00000000E+00
	 0.00000000E+00	 0.00000000E+00	 0.00000000E+00

	 0.00000000E+00	 0.00000000E+00	 0.00000000E+00
	 0.00000000E+00	 0.00000000E+00	 0.00000000E+00
	 0.00000000E+00	 0.00000000E+00	 0.00000000E+00

	 0.00000000E+00	 0.00000000E+00	 0.00000000E+00
	 0.00000000E+00	 0.00000000E+00	 0.00000000E+00
	 0.00000000E+00	 0.00000000E+00	 0.00000000E+00

	 0.00000000E+00	 0.00000000E+00	 0.00000000E+00
	 0.00000000E+00	 0.00000000E+00	 0.00000000E+00
	 0.00000000E+00	 0.00000000E+00	 0.00000000E+00

	 0.00000000E+00	 0.00000000E+00	 0.00000000E+00
	 0.00000000E+00	 0.00000000E+00	 0.00000000E+00
	 0.00000000E+00	 0.00000000E+00	 0.00000000E+00

	 0.00000000E+00	 0.00000000E+00	 0.00000000E+00
	 0.00000000E+00	 0.00000000E+00	 0.00000000E+00
	 0.00000000E+00	 0.00000000E+00	 0.00000000E+00

	 0.00000000E+00	 0.00000000E+00	 0.00000000E+00
	 0.00000000E+00	 0.00000000E+00	 0.00000000E+00
	 0.00000000E+00	 0.00000000E+00	 0.00000000E+00

	 0.00000000E+00	 0.00000000E+00	 0.00000000E+00
	 0.00000000E+00	 0.00000000E+00	 0.00000000E+00
	 0.00000000E+00	 0.00000000E+00	 0.00000000E+00

	 0.00000000E+00	 0.00000000E+00	 0.00000000E+00
	 0.00000000E+00	 0.00000000E+00	 0.00000000E+00
	 0.00000000E+00	 0.00000000E+00	 0.00000000E+00

	 0.00000000E+00	 0.00000000E+00	 0.00000000E+00
	 0.00000000E+00	 0.00000000E+00	 0.00000000E+00
	 0.00000000E+00	 0.00000000E+00	 0.00000000E+00

	 0.00000000E+00	 0.00000000E+00	 0.00000000E+00
	 0.00000000E+00	 0.00000000E+00	 0.00000000E+00
	 0.00000000E+00	 0.00000000E+00	 0.00000000E+00

	 0.00000000E+00	 0.00000000E+00	 0.00000000E+00
	 0.00000000E+00	 0.00000000E+00	 0.00000000E+00
	 0.00000000E+00	 0.00000000E+00	 0.00000000E+00

	 0.00000000E+00	 0.00000000E+00	 0.00000000E+00
	 0.00000000E+00	 0.00000000E+00	 0.00000000E+00
	 0.00000000E+00	 0.00000000E+00	 0.00000000E+00

	 0.00000000E+00	 0.00000000E+00	 0.00000000E+00
	 0.00000000E+00	 0.00000000E+00	 0.00000000E+00
	 0.00000000E+00	 0.00000000E+00	 0.00000000E+00

	 0.00000000E+00	 0.00000000E+00	 0.00000000E+00
	 0.00000000E+00	 0.00000000E+00	 0.00000000E+00
	 0.00000000E+00	 0.00000000E+00	 0.00000000E+00

	 0.00000000E+00	 0.00000000E+00	 0.00000000E+00
	 0.00000000E+00	 0.00000000E+00	 0.00000000E+00
	 0.00000000E+00	 0.00000000E+00	 0.00000000E+00

	 0.00000000E+00	 0.00000000E+00	 0.00000000E+00
	 0.00000000E+00	 0.00000000E+00	 0.00000000E+00
	 0.00000000E+00	 0.00000000E+00	 0.00000000E+00

	 0.00000000E+00	 0.00000000E+00	 0.00000000E+00
	 0.00000000E+00	 0.00000000E+00	 0.00000000E+00
	 0.00000000E+00	 0.00000000E+00	 0.00000000E+00

	 0.00000000E+00	 0.00000000E+00	 0.00000000E+00
	 0.00000000E+00	 0.00000000E+00	 0.00000000E+00
	 0.00000000E+00	 0.00000000E+00	 0.00000000E+00

	 0.00000000E+00	 0.00000000E+00	 0.00000000E+00
	 0.00000000E+00	 0.00000000E+00	 0.00000000E+00
	 0.00000000E+00	 0.00000000E+00	 0.00000000E+00

	 0.00000000E+00	 0.00000000E+00	 0.00000000E+00
	 0.00000000E+00	 0.00000000E+00	 0.00000000E+00
	 0.00000000E+00	 0.00000000E+00	 0.00000000E+00

	 0.00000000E+00	 0.00000000E+00	 0.00000000E+00
	 0.00000000E+00	 0.00000000E+00	 0.00000000E+00
	 0.00000000E+00	 0.00000000E+00	 0.00000000E+00

	 0.00000000E+00	 0.00000000E+00	 0.00000000E+00
	 0.00000000E+00	 0.00000000E+00	 0.00000000E+00
	 0.00000000E+00	 0.00000000E+00	 0.00000000E+00

	 0.00000000E+00	 0.00000000E+00	 0.00000000E+00
	 0.00000000E+00	 0.00000000E+00	 0.00000000E+00
	 0.00000000E+00	 0.00000000E+00	 0.00000000E+00

	 0.00000000E+00	 0.00000000E+00	 0.00000000E+00
	 0.00000000E+00	 0.00000000E+00	 0.00000000E+00
	 0.00000000E+00	 0.00000000E+00	 0.00000000E+00

	 0.00000000E+00	 0.00000000E+00	 0.00000000E+00
	 0.00000000E+00	 0.00000000E+00	 0.00000000E+00
	 0.00000000E+00	 0.00000000E+00	 0.00000000E+00

	 0.00000000E+00	 0.00000000E+00	 0.00000000E+00
	 0.00000000E+00	 0.00000000E+00	 0.00000000E+00
	 0.00000000E+00	 0.00000000E+00	 0.00000000E+00

	 0.00000000E+00	 0.00000000E+00	 0.00000000E+00
	 0.00000000E+00	 0.00000000E+00	 0.00000000E+00
	 0.00000000E+00	 0.00000000E+00	 0.00000000E+00

	 0.00000000E+00	 0.00000000E+00	 0.00000000E+00
	 0.00000000E+00	 0.00000000E+00	 0.00000000E+00
	 0.00000000E+00	 0.00000000E+00	 0.00000000E+00

	 0.00000000E+00	 0.00000000E+00	 0.00000000E+00
	 0.00000000E+00	 0.00000000E+00	 0.00000000E+00
	 0.00000000E+00	 0.00000000E+00	 0.00000000E+00

	 0.00000000E+00	 0.00000000E+00	 0.00000000E+00
	 0.00000000E+00	 0.00000000E+00	 0.00000000E+00
	 0.00000000E+00	 0.00000000E+00	 0.00000000E+00

	 0.00000000E+00	 0.00000000E+00	 0.00000000E+00
	 0.00000000E+00	 0.00000000E+00	 0.00000000E+00
	 0.00000000E+00	 0.00000000E+00	 0.00000000E+00

	 0.00000000E+00	 0.00000000E+00	 0.00000000E+00
	 0.00000000E+00	 0.00000000E+00	 0.00000000E+00
	 0.00000000E+00	 0.00000000E+00	 0.00000000E+00

	 0.00000000E+00	 0.00000000E+00	 0.00000000E+00
	 0.00000000E+00	 0.00000000E+00	 0.00000000E+00
	 0.00000000E+00	 0.00000000E+00	 0.00000000E+00

	 0.00000000E+00	 0.00000000E+00	 0.00000000E+00
	 0.00000000E+00	 0.00000000E+00	 0.00000000E+00
	 0.00000000E+00	 0.00000000E+00	 0.00000000E+00

	 0.00000000E+00	 0.00000000E+00	 0.00000000E+00
	 0.00000000E+00	 0.00000000E+00	 0.00000000E+00
	 0.00000000E+00	 0.00000000E+00	 0.00000000E+00

	 0.00000000E+00	 0.00000000E+00	 0.00000000E+00
	 0.00000000E+00	 0.00000000E+00	 0.00000000E+00
	 0.00000000E+00	 0.00000000E+00	 0.00000000E+00

	 0.00000000E+00	 0.00000000E+00	 0.00000000E+00
	 0.00000000E+00	 0.00000000E+00	 0.00000000E+00
	 0.00000000E+00	 0.00000000E+00	 0.00000000E+00

	 0.00000000E+00	 0.00000000E+00	 0.00000000E+00
	 0.00000000E+00	 0.00000000E+00	 0.00000000E+00
	 0.00000000E+00	 0.00000000E+00	 0.00000000E+00

	 0.00000000E+00	 0.00000000E+00	 0.00000000E+00
	 0.00000000E+00	 0.00000000E+00	 0.00000000E+00
	 0.00000000E+00	 0.00000000E+00	 0.00000000E+00

	 0.00000000E+00	 0.00000000E+00	 0.00000000E+00
	 0.00000000E+00	 0.00000000E+00	 0.00000000E+00
	 0.00000000E+00	 0.00000000E+00	 0.00000000E+00

	 0.00000000E+00	 0.00000000E+00	 0.00000000E+00
	 0.00000000E+00	 0.00000000E+00	 0.00000000E+00
	 0.00000000E+00	 0.00000000E+00	 0.00000000E+00

	 0.00000000E+00	 0.00000000E+00	 0.00000000E+00
	 0.00000000E+00	 0.00000000E+00	 0.00000000E+00
	 0.00000000E+00	 0.00000000E+00	 0.00000000E+00

	 0.00000000E+00	 0.00000000E+00	 0.00000000E+00
	 0.00000000E+00	 0.00000000E+00	 0.00000000E+00
	 0.00000000E+00	 0.00000000E+00	 0.00000000E+00

	 0.00000000E+00	 0.00000000E+00	 0.00000000E+00
	 0.00000000E+00	 0.00000000E+00	 0.00000000E+00
	 0.00000000E+00	 0.00000000E+00	 0.00000000E+00

	 0.00000000E+00	 0.00000000E+00	 0.00000000E+00
	 0.00000000E+00	 0.00000000E+00	 0.00000000E+00
	 0.00000000E+00	 0.00000000E+00	 0.00000000E+00

	 0.00000000E+00	 0.00000000E+00	 0.00000000E+00
	 0.00000000E+00	 0.00000000E+00	 0.00000000E+00
	 0.00000000E+00	 0.00000000E+00	 0.00000000E+00

	 0.00000000E+00	 0.00000000E+00	 0.00000000E+00
	 0.00000000E+00	 0.00000000E+00	 0.00000000E+00
	 0.00000000E+00	 0.00000000E+00	 0.00000000E+00

	 0.00000000E+00	 0.00000000E+00	 0.00000000E+00
	 0.00000000E+00	 0.00000000E+00	 0.00000000E+00
	 0.00000000E+00	 0.00000000E+00	 0.00000000E+00

	 0.00000000E+00	 0.00000000E+00	 0.00000000E+00
	 0.00000000E+00	 0.00000000E+00	 0.00000000E+00
	 0.00000000E+00	 0.00000000E+00	 0.00000000E+00

	 0.00000000E+00	 0.00000000E+00	 0.00000000E+00
	 0.00000000E+00	 0.00000000E+00	 0.00000000E+00
	 0.00000000E+00	 0.00000000E+00	 0.00000000E+00

	 0.00000000E+00	 0.00000000E+00	 0.00000000E+00
	 0.00000000E+00	 0.00000000E+00	 0.00000000E+00
	 0.00000000E+00	 0.00000000E+00	 0.00000000E+00

	 0.00000000E+00	 0.00000000E+00	 0.00000000E+00
	 0.00000000E+00	 0.00000000E+00	 0.00000000E+00
	 0.00000000E+00	 0.00000000E+00	 0.00000000E+00

	 0.00000000E+00	 0.00000000E+00	 0.00000000E+00
	 0.00000000E+00	 0.00000000E+00	 0.00000000E+00
	 0.00000000E+00	 0.00000000E+00	 0.00000000E+00

	 0.00000000E+00	 0.00000000E+00	 0.00000000E+00
	 0.00000000E+00	 0.00000000E+00	 0.00000000E+00
	 0.00000000E+00	 0.00000000E+00	 0.00000000E+00

	 0.00000000E+00	 0.00000000E+00	 0.00000000E+00
	 0.00000000E+00	 0.00000000E+00	 0.00000000E+00
	 0.00000000E+00	 0.00000000E+00	 0.00000000E+00

	 0.00000000E+00	 0.00000000E+00	 0.00000000E+00
	 0.00000000E+00	 0.00000000E+00	 0.00000000E+00
	 0.00000000E+00	 0.00000000E+00	 0.00000000E+00

	 0.00000000E+00	 0.00000000E+00	 0.00000000E+00
	 0.00000000E+00	 0.00000000E+00	 0.00000000E+00
	 0.00000000E+00	 0.00000000E+00	 0.00000000E+00

	 0.00000000E+00	 0.00000000E+00	 0.00000000E+00
	 0.00000000E+00	 0.00000000E+00	 0.00000000E+00
	 0.00000000E+00	 0.00000000E+00	 0.00000000E+00

	 0.00000000E+00	 0.00000000E+00	 0.00000000E+00
	 0.00000000E+00	 0.00000000E+00	 0.00000000E+00
	 0.00000000E+00	 0.00000000E+00	 0.00000000E+00

	 0.00000000E+00	 0.00000000E+00	 0.00000000E+00
	 0.00000000E+00	 0.00000000E+00	 0.00000000E+00
	 0.00000000E+00	 0.00000000E+00	 0.00000000E+00

	 0.00000000E+00	 0.00000000E+00	 0.00000000E+00
	 0.00000000E+00	 0.00000000E+00	 0.00000000E+00
	 0.00000000E+00	 0.00000000E+00	 0.00000000E+00

	 0.00000000E+00	 0.00000000E+00	 0.00000000E+00
	 0.00000000E+00	 0.00000000E+00	 0.00000000E+00
	 0.00000000E+00	 0.00000000E+00	 0.00000000E+00

	 0.00000000E+00	 0.00000000E+00	 0.00000000E+00
	 0.00000000E+00	 0.00000000E+00	 0.00000000E+00
	 0.00000000E+00	 0.00000000E+00	 0.00000000E+00

	 0.00000000E+00	 0.00000000E+00	 0.00000000E+00
	 0.00000000E+00	 0.00000000E+00	 0.00000000E+00
	 0.00000000E+00	 0.00000000E+00	 0.00000000E+00

	 0.00000000E+00	 0.00000000E+00	 0.00000000E+00
	 0.00000000E+00	 0.00000000E+00	 0.00000000E+00
	 0.00000000E+00	 0.00000000E+00	 0.00000000E+00

	 0.00000000E+00	 0.00000000E+00	 0.00000000E+00
	 0.00000000E+00	 0.00000000E+00	 0.00000000E+00
	 0.00000000E+00	 0.00000000E+00	 0.00000000E+00

	 0.00000000E+00	 0.00000000E+00	 0.00000000E+00
	 0.00000000E+00	 0.00000000E+00	 0.00000000E+00
	 0.00000000E+00	 0.00000000E+00	 0.00000000E+00

	 0.00000000E+00	 0.00000000E+00	 0.00000000E+00
	 0.00000000E+00	 0.00000000E+00	 0.00000000E+00
	 0.00000000E+00	 0.00000000E+00	 0.00000000E+00

	 0.00000000E+00	 0.00000000E+00	 0.00000000E+00
	 0.00000000E+00	 0.00000000E+00	 0.00000000E+00
	 0.00000000E+00	 0.00000000E+00	 0.00000000E+00

	 0.00000000E+00	 0.00000000E+00	 0.00000000E+00
	 0.00000000E+00	 0.00000000E+00	 0.00000000E+00
	 0.00000000E+00	 0.00000000E+00	 0.00000000E+00

	 0.00000000E+00	 0.00000000E+00	 0.00000000E+00
	 0.00000000E+00	 0.00000000E+00	 0.00000000E+00
	 0.00000000E+00	 0.00000000E+00	 0.00000000E+00

	 0.00000000E+00	 0.00000000E+00	 0.00000000E+00
	 0.00000000E+00	 0.00000000E+00	 0.00000000E+00
	 0.00000000E+00	 0.00000000E+00	 0.00000000E+00

	 0.00000000E+00	 0.00000000E+00	 0.00000000E+00
	 0.00000000E+00	 0.00000000E+00	 0.00000000E+00
	 0.00000000E+00	 0.00000000E+00	 0.00000000E+00

	 0.00000000E+00	 0.00000000E+00	 0.00000000E+00
	 0.00000000E+00	 0.00000000E+00	 0.00000000E+00
	 0.00000000E+00	 0.00000000E+00	 0.00000000E+00

	 0.00000000E+00	 0.00000000E+00	 0.00000000E+00
	 0.00000000E+00	 0.00000000E+00	 0.00000000E+00
	 0.00000000E+00	 0.00000000E+00	 0.00000000E+00

	 0.00000000E+00	 0.00000000E+00	 0.00000000E+00
	 0.00000000E+00	 0.00000000E+00	 0.00000000E+00
	 0.00000000E+00	 0.00000000E+00	 0.00000000E+00

	 0.00000000E+00	 0.00000000E+00	 0.00000000E+00
	 0.00000000E+00	 0.00000000E+00	 0.00000000E+00
	 0.00000000E+00	 0.00000000E+00	 0.00000000E+00

	 0.00000000E+00	 0.00000000E+00	 0.00000000E+00
	 0.00000000E+00	 0.00000000E+00	 0.00000000E+00
	 0.00000000E+00	 0.00000000E+00	 0.00000000E+00

	 0.00000000E+00	 0.00000000E+00	 0.00000000E+00
	 0.00000000E+00	 0.00000000E+00	 0.00000000E+00
	 0.00000000E+00	 0.00000000E+00	 0.00000000E+00

	 0.00000000E+00	 0.00000000E+00	 0.00000000E+00
	 0.00000000E+00	 0.00000000E+00	 0.00000000E+00
	 0.00000000E+00	 0.00000000E+00	 0.00000000E+00

	 0.00000000E+00	 0.00000000E+00	 0.00000000E+00
	 0.00000000E+00	 0.00000000E+00	 0.00000000E+00
	 0.00000000E+00	 0.00000000E+00	 0.00000000E+00

	 0.00000000E+00	 0.00000000E+00	 0.00000000E+00
	 0.00000000E+00	 0.00000000E+00	 0.00000000E+00
	 0.00000000E+00	 0.00000000E+00	 0.00000000E+00

	 0.00000000E+00	 0.00000000E+00	 0.00000000E+00
	 0.00000000E+00	 0.00000000E+00	 0.00000000E+00
	 0.00000000E+00	 0.00000000E+00	 0.00000000E+00

	 0.00000000E+00	 0.00000000E+00	 0.00000000E+00
	 0.00000000E+00	 0.00000000E+00	 0.00000000E+00
	 0.00000000E+00	 0.00000000E+00	 0.00000000E+00

	 0.00000000E+00	 0.00000000E+00	 0.00000000E+00
	 0.00000000E+00	 0.00000000E+00	 0.00000000E+00
	 0.00000000E+00	 0.00000000E+00	 0.00000000E+00

	 0.00000000E+00	 0.00000000E+00	 0.00000000E+00
	 0.00000000E+00	 0.00000000E+00	 0.00000000E+00
	 0.00000000E+00	 0.00000000E+00	 0.00000000E+00

	 0.00000000E+00	 0.00000000E+00	 0.00000000E+00
	 0.00000000E+00	 0.00000000E+00	 0.00000000E+00
	 0.00000000E+00	 0.00000000E+00	 0.00000000E+00

	 0.00000000E+00	 0.00000000E+00	 0.00000000E+00
	 0.00000000E+00	 0.00000000E+00	 0.00000000E+00
	 0.00000000E+00	 0.00000000E+00	 0.00000000E+00

	 0.00000000E+00	 0.00000000E+00	 0.00000000E+00
	 0.00000000E+00	 0.00000000E+00	 0.00000000E+00
	 0.00000000E+00	 0.00000000E+00	 0.00000000E+00

	 0.00000000E+00	 0.00000000E+00	 0.00000000E+00
	 0.00000000E+00	 0.00000000E+00	 0.00000000E+00
	 0.00000000E+00	 0.00000000E+00	 0.00000000E+00

	 0.00000000E+00	 0.00000000E+00	 0.00000000E+00
	 0.00000000E+00	 0.00000000E+00	 0.00000000E+00
	 0.00000000E+00	 0.00000000E+00	 0.00000000E+00

	 0.00000000E+00	 0.00000000E+00	 0.00000000E+00
	 0.00000000E+00	 0.00000000E+00	 0.00000000E+00
	 0.00000000E+00	 0.00000000E+00	 0.00000000E+00

	 0.00000000E+00	 0.00000000E+00	 0.00000000E+00
	 0.00000000E+00	 0.00000000E+00	 0.00000000E+00
	 0.00000000E+00	 0.00000000E+00	 0.00000000E+00

	 0.00000000E+00	 0.00000000E+00	 0.00000000E+00
	 0.00000000E+00	 0.00000000E+00	 0.00000000E+00
	 0.00000000E+00	 0.00000000E+00	 0.00000000E+00

	 0.00000000E+00	 0.00000000E+00	 0.00000000E+00
	 0.00000000E+00	 0.00000000E+00	 0.00000000E+00
	 0.00000000E+00	 0.00000000E+00	 0.00000000E+00

	 0.00000000E+00	 0.00000000E+00	 0.00000000E+00
	 0.00000000E+00	 0.00000000E+00	 0.00000000E+00
	 0.00000000E+00	 0.00000000E+00	 0.00000000E+00

	 0.00000000E+00	 0.00000000E+00	 0.00000000E+00
	 0.00000000E+00	 0.00000000E+00	 0.00000000E+00
	 0.00000000E+00	 0.00000000E+00	 0.00000000E+00

	 0.00000000E+00	 0.00000000E+00	 0.00000000E+00
	 0.00000000E+00	 0.00000000E+00	 0.00000000E+00
	 0.00000000E+00	 0.00000000E+00	 0.00000000E+00

	 0.00000000E+00	 0.00000000E+00	 0.00000000E+00
	 0.00000000E+00	 0.00000000E+00	 0.00000000E+00
	 0.00000000E+00	 0.00000000E+00	 0.00000000E+00

	 0.00000000E+00	 0.00000000E+00	 0.00000000E+00
	 0.00000000E+00	 0.00000000E+00	 0.00000000E+00
	 0.00000000E+00	 0.00000000E+00	 0.00000000E+00

	 0.00000000E+00	 0.00000000E+00	 0.00000000E+00
	 0.00000000E+00	 0.00000000E+00	 0.00000000E+00
	 0.00000000E+00	 0.00000000E+00	 0.00000000E+00

	 0.00000000E+00	 0.00000000E+00	 0.00000000E+00
	 0.00000000E+00	 0.00000000E+00	 0.00000000E+00
	 0.00000000E+00	 0.00000000E+00	 0.00000000E+00

	 0.00000000E+00	 0.00000000E+00	 0.00000000E+00
	 0.00000000E+00	 0.00000000E+00	 0.00000000E+00
	 0.00000000E+00	 0.00000000E+00	 0.00000000E+00

	 0.00000000E+00	 0.00000000E+00	 0.00000000E+00
	 0.00000000E+00	 0.00000000E+00	 0.00000000E+00
	 0.00000000E+00	 0.00000000E+00	 0.00000000E+00

	 0.00000000E+00	 0.00000000E+00	 0.00000000E+00
	 0.00000000E+00	 0.00000000E+00	 0.00000000E+00
	 0.00000000E+00	 0.00000000E+00	 0.00000000E+00

	 0.00000000E+00	 0.00000000E+00	 0.00000000E+00
	 0.00000000E+00	 0.00000000E+00	 0.00000000E+00
	 0.00000000E+00	 0.00000000E+00	 0.00000000E+00

	 0.00000000E+00	 0.00000000E+00	 0.00000000E+00
	 0.00000000E+00	 0.00000000E+00	 0.00000000E+00
	 0.00000000E+00	 0.00000000E+00	 0.00000000E+00

	 0.00000000E+00	 0.00000000E+00	 0.00000000E+00
	 0.00000000E+00	 0.00000000E+00	 0.00000000E+00
	 0.00000000E+00	 0.00000000E+00	 0.00000000E+00

	 0.00000000E+00	 0.00000000E+00	 0.00000000E+00
	 0.00000000E+00	 0.00000000E+00	 0.00000000E+00
	 0.00000000E+00	 0.00000000E+00	 0.00000000E+00

	 0.00000000E+00	 0.00000000E+00	 0.00000000E+00
	 0.00000000E+00	 0.00000000E+00	 0.00000000E+00
	 0.00000000E+00	 0.00000000E+00	 0.00000000E+00

	 0.00000000E+00	 0.00000000E+00	 0.00000000E+00
	 0.00000000E+00	 0.00000000E+00	 0.00000000E+00
	 0.00000000E+00	 0.00000000E+00	 0.00000000E+00

	 0.00000000E+00	 0.00000000E+00	 0.00000000E+00
	 0.00000000E+00	 0.00000000E+00	 0.00000000E+00
	 0.00000000E+00	 0.00000000E+00	 0.00000000E+00

	 0.00000000E+00	 0.00000000E+00	 0.00000000E+00
	 0.00000000E+00	 0.00000000E+00	 0.00000000E+00
	 0.00000000E+00	 0.00000000E+00	 0.00000000E+00

	 0.00000000E+00	 0.00000000E+00	 0.00000000E+00
	 0.00000000E+00	 0.00000000E+00	 0.00000000E+00
	 0.00000000E+00	 0.00000000E+00	 0.00000000E+00

	 0.00000000E+00	 0.00000000E+00	 0.00000000E+00
	 0.00000000E+00	 0.00000000E+00	 0.00000000E+00
	 0.00000000E+00	 0.00000000E+00	 0.00000000E+00

	 0.00000000E+00	 0.00000000E+00	 0.00000000E+00
	 0.00000000E+00	 0.00000000E+00	 0.00000000E+00
	 0.00000000E+00	 0.00000000E+00	 0.00000000E+00

	 0.00000000E+00	 0.00000000E+00	 0.00000000E+00
	 0.00000000E+00	 0.00000000E+00	 0.00000000E+00
	 0.00000000E+00	 0.00000000E+00	 0.00000000E+00

	 0.00000000E+00	 0.00000000E+00	 0.00000000E+00
	 0.00000000E+00	 0.00000000E+00	 0.00000000E+00
	 0.00000000E+00	 0.00000000E+00	 0.00000000E+00

	 0.00000000E+00	 0.00000000E+00	 0.00000000E+00
	 0.00000000E+00	 0.00000000E+00	 0.00000000E+00
	 0.00000000E+00	 0.00000000E+00	 0.00000000E+00

	 0.00000000E+00	 0.00000000E+00	 0.00000000E+00
	 0.00000000E+00	 0.00000000E+00	 0.00000000E+00
	 0.00000000E+00	 0.00000000E+00	 0.00000000E+00

	 0.00000000E+00	 0.00000000E+00	 0.00000000E+00
	 0.00000000E+00	 0.00000000E+00	 0.00000000E+00
	 0.00000000E+00	 0.00000000E+00	 0.00000000E+00

	 0.00000000E+00	 0.00000000E+00	 0.00000000E+00
	 0.00000000E+00	 0.00000000E+00	 0.00000000E+00
	 0.00000000E+00	 0.00000000E+00	 0.00000000E+00

	 0.00000000E+00	 0.00000000E+00	 0.00000000E+00
	 0.00000000E+00	 0.00000000E+00	 0.00000000E+00
	 0.00000000E+00	 0.00000000E+00	 0.00000000E+00

	 0.00000000E+00	 0.00000000E+00	 0.00000000E+00
	 0.00000000E+00	 0.00000000E+00	 0.00000000E+00
	 0.00000000E+00	 0.00000000E+00	 0.00000000E+00

	 0.00000000E+00	 0.00000000E+00	 0.00000000E+00
	 0.00000000E+00	 0.00000000E+00	 0.00000000E+00
	 0.00000000E+00	 0.00000000E+00	 0.00000000E+00

	 0.00000000E+00	 0.00000000E+00	 0.00000000E+00
	 0.00000000E+00	 0.00000000E+00	 0.00000000E+00
	 0.00000000E+00	 0.00000000E+00	 0.00000000E+00

	 0.00000000E+00	 0.00000000E+00	 0.00000000E+00
	 0.00000000E+00	 0.00000000E+00	 0.00000000E+00
	 0.00000000E+00	 0.00000000E+00	 0.00000000E+00

	 0.00000000E+00	 0.00000000E+00	 0.00000000E+00
	 0.00000000E+00	 0.00000000E+00	 0.00000000E+00
	 0.00000000E+00	 0.00000000E+00	 0.00000000E+00

	 0.00000000E+00	 0.00000000E+00	 0.00000000E+00
	 0.00000000E+00	 0.00000000E+00	 0.00000000E+00
	 0.00000000E+00	 0.00000000E+00	 0.00000000E+00

	 0.00000000E+00	 0.00000000E+00	 0.00000000E+00
	 0.00000000E+00	 0.00000000E+00	 0.00000000E+00
	 0.00000000E+00	 0.00000000E+00	 0.00000000E+00

	 0.00000000E+00	 0.00000000E+00	 0.00000000E+00
	 0.00000000E+00	 0.00000000E+00	 0.00000000E+00
	 0.00000000E+00	 0.00000000E+00	 0.00000000E+00

	 0.00000000E+00	 0.00000000E+00	 0.00000000E+00
	 0.00000000E+00	 0.00000000E+00	 0.00000000E+00
	 0.00000000E+00	 0.00000000E+00	 0.00000000E+00

	 0.00000000E+00	 0.00000000E+00	 0.00000000E+00
	 0.00000000E+00	 0.00000000E+00	 0.00000000E+00
	 0.00000000E+00	 0.00000000E+00	 0.00000000E+00

	 0.00000000E+00	 0.00000000E+00	 0.00000000E+00
	 0.00000000E+00	 0.00000000E+00	 0.00000000E+00
	 0.00000000E+00	 0.00000000E+00	 0.00000000E+00

	 0.00000000E+00	 0.00000000E+00	 0.00000000E+00
	 0.00000000E+00	 0.00000000E+00	 0.00000000E+00
	 0.00000000E+00	 0.00000000E+00	 0.00000000E+00

	 0.00000000E+00	 0.00000000E+00	 0.00000000E+00
	 0.00000000E+00	 0.00000000E+00	 0.00000000E+00
	 0.00000000E+00	 0.00000000E+00	 0.00000000E+00

	 0.00000000E+00	 0.00000000E+00	 0.00000000E+00
	 0.00000000E+00	 0.00000000E+00	 0.00000000E+00
	 0.00000000E+00	 0.00000000E+00	 0.00000000E+00

	 0.00000000E+00	 0.00000000E+00	 0.00000000E+00
	 0.00000000E+00	 0.00000000E+00	 0.00000000E+00
	 0.00000000E+00	 0.00000000E+00	 0.00000000E+00

	 0.00000000E+00	 0.00000000E+00	 0.00000000E+00
	 0.00000000E+00	 0.00000000E+00	 0.00000000E+00
	 0.00000000E+00	 0.00000000E+00	 0.00000000E+00

	 0.00000000E+00	 0.00000000E+00	 0.00000000E+00
	 0.00000000E+00	 0.00000000E+00	 0.00000000E+00
	 0.00000000E+00	 0.00000000E+00	 0.00000000E+00

	 0.00000000E+00	 0.00000000E+00	 0.00000000E+00
	 0.00000000E+00	 0.00000000E+00	 0.00000000E+00
	 0.00000000E+00	 0.00000000E+00	 0.00000000E+00

	 0.00000000E+00	 0.00000000E+00	 0.00000000E+00
	 0.00000000E+00	 0.00000000E+00	 0.00000000E+00
	 0.00000000E+00	 0.00000000E+00	 0.00000000E+00

	 0.00000000E+00	 0.00000000E+00	 0.00000000E+00
	 0.00000000E+00	 0.00000000E+00	 0.00000000E+00
	 0.00000000E+00	 0.00000000E+00	 0.00000000E+00

	 0.00000000E+00	 0.00000000E+00	 0.00000000E+00
	 0.00000000E+00	 0.00000000E+00	 0.00000000E+00
	 0.00000000E+00	 0.00000000E+00	 0.00000000E+00

	 0.00000000E+00	 0.00000000E+00	 0.00000000E+00
	 0.00000000E+00	 0.00000000E+00	 0.00000000E+00
	 0.00000000E+00	 0.00000000E+00	 0.00000000E+00

	 0.00000000E+00	 0.00000000E+00	 0.00000000E+00
	 0.00000000E+00	 0.00000000E+00	 0.00000000E+00
	 0.00000000E+00	 0.00000000E+00	 0.00000000E+00

	 0.00000000E+00	 0.00000000E+00	 0.00000000E+00
	 0.00000000E+00	 0.00000000E+00	 0.00000000E+00
	 0.00000000E+00	 0.00000000E+00	 0.00000000E+00

	 0.00000000E+00	 0.00000000E+00	 0.00000000E+00
	 0.00000000E+00	 0.00000000E+00	 0.00000000E+00
	 0.00000000E+00	 0.00000000E+00	 0.00000000E+00

	 0.00000000E+00	 0.00000000E+00	 0.00000000E+00
	 0.00000000E+00	 0.00000000E+00	 0.00000000E+00
	 0.00000000E+00	 0.00000000E+00	 0.00000000E+00

	 0.00000000E+00	 0.00000000E+00	 0.00000000E+00
	 0.00000000E+00	 0.00000000E+00	 0.00000000E+00
	 0.00000000E+00	 0.00000000E+00	 0.00000000E+00

	 0.00000000E+00	 0.00000000E+00	 0.00000000E+00
	 0.00000000E+00	 0.00000000E+00	 0.00000000E+00
	 0.00000000E+00	 0.00000000E+00	 0.00000000E+00

	 0.00000000E+00	 0.00000000E+00	 0.00000000E+00
	 0.00000000E+00	 0.00000000E+00	 0.00000000E+00
	 0.00000000E+00	 0.00000000E+00	 0.00000000E+00

	 0.00000000E+00	 0.00000000E+00	 0.00000000E+00
	 0.00000000E+00	 0.00000000E+00	 0.00000000E+00
	 0.00000000E+00	 0.00000000E+00	 0.00000000E+00

	 0.00000000E+00	 0.00000000E+00	 0.00000000E+00
	 0.00000000E+00	 0.00000000E+00	 0.00000000E+00
	 0.00000000E+00	 0.00000000E+00	 0.00000000E+00

	 0.00000000E+00	 0.00000000E+00	 0.00000000E+00
	 0.00000000E+00	 0.00000000E+00	 0.00000000E+00
	 0.00000000E+00	 0.00000000E+00	 0.00000000E+00

	 0.00000000E+00	 0.00000000E+00	 0.00000000E+00
	 0.00000000E+00	 0.00000000E+00	 0.00000000E+00
	 0.00000000E+00	 0.00000000E+00	 0.00000000E+00

	 0.00000000E+00	 0.00000000E+00	 0.00000000E+00
	 0.00000000E+00	 0.00000000E+00	 0.00000000E+00
	 0.00000000E+00	 0.00000000E+00	 0.00000000E+00

	 0.00000000E+00	 0.00000000E+00	 0.00000000E+00
	 0.00000000E+00	 0.00000000E+00	 0.00000000E+00
	 0.00000000E+00	 0.00000000E+00	 0.00000000E+00

	 0.00000000E+00	 0.00000000E+00	 0.00000000E+00
	 0.00000000E+00	 0.00000000E+00	 0.00000000E+00
	 0.00000000E+00	 0.00000000E+00	 0.00000000E+00

	 0.00000000E+00	 0.00000000E+00	 0.00000000E+00
	 0.00000000E+00	 0.00000000E+00	 0.00000000E+00
	 0.00000000E+00	 0.00000000E+00	 0.00000000E+00

	 0.00000000E+00	 0.00000000E+00	 0.00000000E+00
	 0.00000000E+00	 0.00000000E+00	 0.00000000E+00
	 0.00000000E+00	 0.00000000E+00	 0.00000000E+00

	 0.00000000E+00	 0.00000000E+00	 0.00000000E+00
	 0.00000000E+00	 0.00000000E+00	 0.00000000E+00
	 0.00000000E+00	 0.00000000E+00	 0.00000000E+00

	 0.00000000E+00	 0.00000000E+00	 0.00000000E+00
	 0.00000000E+00	 0.00000000E+00	 0.00000000E+00
	 0.00000000E+00	 0.00000000E+00	 0.00000000E+00

	 0.00000000E+00	 0.00000000E+00	 0.00000000E+00
	 0.00000000E+00	 0.00000000E+00	 0.00000000E+00
	 0.00000000E+00	 0.00000000E+00	 0.00000000E+00

	 0.00000000E+00	 0.00000000E+00	 0.00000000E+00
	 0.00000000E+00	 0.00000000E+00	 0.00000000E+00
	 0.00000000E+00	 0.00000000E+00	 0.00000000E+00

	 0.00000000E+00	 0.00000000E+00	 0.00000000E+00
	 0.00000000E+00	 0.00000000E+00	 0.00000000E+00
	 0.00000000E+00	 0.00000000E+00	 0.00000000E+00

	 0.00000000E+00	 0.00000000E+00	 0.00000000E+00
	 0.00000000E+00	 0.00000000E+00	 0.00000000E+00
	 0.00000000E+00	 0.00000000E+00	 0.00000000E+00

	 0.00000000E+00	 0.00000000E+00	 0.00000000E+00
	 0.00000000E+00	 0.00000000E+00	 0.00000000E+00
	 0.00000000E+00	 0.00000000E+00	 0.00000000E+00

	 0.00000000E+00	 0.00000000E+00	 0.00000000E+00
	 0.00000000E+00	 0.00000000E+00	 0.00000000E+00
	 0.00000000E+00	 0.00000000E+00	 0.00000000E+00

	 0.00000000E+00	 0.00000000E+00	 0.00000000E+00
	 0.00000000E+00	 0.00000000E+00	 0.00000000E+00
	 0.00000000E+00	 0.00000000E+00	 0.00000000E+00

	 0.00000000E+00	 0.00000000E+00	 0.00000000E+00
	 0.00000000E+00	 0.00000000E+00	 0.00000000E+00
	 0.00000000E+00	 0.00000000E+00	 0.00000000E+00

	 0.00000000E+00	 0.00000000E+00	 0.00000000E+00
	 0.00000000E+00	 0.00000000E+00	 0.00000000E+00
	 0.00000000E+00	 0.00000000E+00	 0.00000000E+00

	 0.00000000E+00	 0.00000000E+00	 0.00000000E+00
	 0.00000000E+00	 0.00000000E+00	 0.00000000E+00
	 0.00000000E+00	 0.00000000E+00	 0.00000000E+00

	 0.00000000E+00	 0.00000000E+00	 0.00000000E+00
	 0.00000000E+00	 0.00000000E+00	 0.00000000E+00
	 0.00000000E+00	 0.00000000E+00	 0.00000000E+00

	 0.00000000E+00	 0.00000000E+00	 0.00000000E+00
	 0.00000000E+00	 0.00000000E+00	 0.00000000E+00
	 0.00000000E+00	 0.00000000E+00	 0.00000000E+00

	 0.00000000E+00	 0.00000000E+00	 0.00000000E+00
	 0.00000000E+00	 0.00000000E+00	 0.00000000E+00
	 0.00000000E+00	 0.00000000E+00	 0.00000000E+00

	 0.00000000E+00	 0.00000000E+00	 0.00000000E+00
	 0.00000000E+00	 0.00000000E+00	 0.00000000E+00
	 0.00000000E+00	 0.00000000E+00	 0.00000000E+00

	 0.00000000E+00	 0.00000000E+00	 0.00000000E+00
	 0.00000000E+00	 0.00000000E+00	 0.00000000E+00
	 0.00000000E+00	 0.00000000E+00	 0.00000000E+00

	 0.00000000E+00	 0.00000000E+00	 0.00000000E+00
	 0.00000000E+00	 0.00000000E+00	 0.00000000E+00
	 0.00000000E+00	 0.00000000E+00	 0.00000000E+00

	 0.00000000E+00	 0.00000000E+00	 0.00000000E+00
	 0.00000000E+00	 0.00000000E+00	 0.00000000E+00
	 0.00000000E+00	 0.00000000E+00	 0.00000000E+00

	 0.00000000E+00	 0.00000000E+00	 0.00000000E+00
	 0.00000000E+00	 0.00000000E+00	 0.00000000E+00
	 0.00000000E+00	 0.00000000E+00	 0.00000000E+00

	 0.00000000E+00	 0.00000000E+00	 0.00000000E+00
	 0.00000000E+00	 0.00000000E+00	 0.00000000E+00
	 0.00000000E+00	 0.00000000E+00	 0.00000000E+00

	 0.00000000E+00	 0.00000000E+00	 0.00000000E+00
	 0.00000000E+00	 0.00000000E+00	 0.00000000E+00
	 0.00000000E+00	 0.00000000E+00	 0.00000000E+00

	 0.00000000E+00	 0.00000000E+00	 0.00000000E+00
	 0.00000000E+00	 0.00000000E+00	 0.00000000E+00
	 0.00000000E+00	 0.00000000E+00	 0.00000000E+00

	 0.00000000E+00	 0.00000000E+00	 0.00000000E+00
	 0.00000000E+00	 0.00000000E+00	 0.00000000E+00
	 0.00000000E+00	 0.00000000E+00	 0.00000000E+00

	 0.00000000E+00	 0.00000000E+00	 0.00000000E+00
	 0.00000000E+00	 0.00000000E+00	 0.00000000E+00
	 0.00000000E+00	 0.00000000E+00	 0.00000000E+00

	 0.00000000E+00	 0.00000000E+00	 0.00000000E+00
	 0.00000000E+00	 0.00000000E+00	 0.00000000E+00
	 0.00000000E+00	 0.00000000E+00	 0.00000000E+00

	 0.00000000E+00	 0.00000000E+00	 0.00000000E+00
	 0.00000000E+00	 0.00000000E+00	 0.00000000E+00
	 0.00000000E+00	 0.00000000E+00	 0.00000000E+00

	 0.00000000E+00	 0.00000000E+00	 0.00000000E+00
	 0.00000000E+00	 0.00000000E+00	 0.00000000E+00
	 0.00000000E+00	 0.00000000E+00	 0.00000000E+00

	 0.00000000E+00	 0.00000000E+00	 0.00000000E+00
	 0.00000000E+00	 0.00000000E+00	 0.00000000E+00
	 0.00000000E+00	 0.00000000E+00	 0.00000000E+00

	 0.00000000E+00	 0.00000000E+00	 0.00000000E+00
	 0.00000000E+00	 0.00000000E+00	 0.00000000E+00
	 0.00000000E+00	 0.00000000E+00	 0.00000000E+00

	 0.00000000E+00	 0.00000000E+00	 0.00000000E+00
	 0.00000000E+00	 0.00000000E+00	 0.00000000E+00
	 0.00000000E+00	 0.00000000E+00	 0.00000000E+00

	 0.00000000E+00	 0.00000000E+00	 0.00000000E+00
	 0.00000000E+00	 0.00000000E+00	 0.00000000E+00
	 0.00000000E+00	 0.00000000E+00	 0.00000000E+00

	 0.00000000E+00	 0.00000000E+00	 0.00000000E+00
	 0.00000000E+00	 0.00000000E+00	 0.00000000E+00
	 0.00000000E+00	 0.00000000E+00	 0.00000000E+00

	 0.00000000E+00	 0.00000000E+00	 0.00000000E+00
	 0.00000000E+00	 0.00000000E+00	 0.00000000E+00
	 0.00000000E+00	 0.00000000E+00	 0.00000000E+00

	 0.00000000E+00	 0.00000000E+00	 0.00000000E+00
	 0.00000000E+00	 0.00000000E+00	 0.00000000E+00
	 0.00000000E+00	 0.00000000E+00	 0.00000000E+00

	 0.00000000E+00	 0.00000000E+00	 0.00000000E+00
	 0.00000000E+00	 0.00000000E+00	 0.00000000E+00
	 0.00000000E+00	 0.00000000E+00	 0.00000000E+00

	 0.00000000E+00	 0.00000000E+00	 0.00000000E+00
	 0.00000000E+00	 0.00000000E+00	 0.00000000E+00
	 0.00000000E+00	 0.00000000E+00	 0.00000000E+00

	 0.00000000E+00	 0.00000000E+00	 0.00000000E+00
	 0.00000000E+00	 0.00000000E+00	 0.00000000E+00
	 0.00000000E+00	 0.00000000E+00	 0.00000000E+00

	 0.00000000E+00	 0.00000000E+00	 0.00000000E+00
	 0.00000000E+00	 0.00000000E+00	 0.00000000E+00
	 0.00000000E+00	 0.00000000E+00	 0.00000000E+00

	 0.00000000E+00	 0.00000000E+00	 0.00000000E+00
	 0.00000000E+00	 0.00000000E+00	 0.00000000E+00
	 0.00000000E+00	 0.00000000E+00	 0.00000000E+00

	 0.00000000E+00	 0.00000000E+00	 0.00000000E+00
	 0.00000000E+00	 0.00000000E+00	 0.00000000E+00
	 0.00000000E+00	 0.00000000E+00	 0.00000000E+00

	 0.00000000E+00	 0.00000000E+00	 0.00000000E+00
	 0.00000000E+00	 0.00000000E+00	 0.00000000E+00
	 0.00000000E+00	 0.00000000E+00	 0.00000000E+00

	 0.00000000E+00	 0.00000000E+00	 0.00000000E+00
	 0.00000000E+00	 0.00000000E+00	 0.00000000E+00
	 0.00000000E+00	 0.00000000E+00	 0.00000000E+00

	 0.00000000E+00	 0.00000000E+00	 0.00000000E+00
	 0.00000000E+00	 0.00000000E+00	 0.00000000E+00
	 0.00000000E+00	 0.00000000E+00	 0.00000000E+00

	 0.00000000E+00	 0.00000000E+00	 0.00000000E+00
	 0.00000000E+00	 0.00000000E+00	 0.00000000E+00
	 0.00000000E+00	 0.00000000E+00	 0.00000000E+00

	 0.00000000E+00	 0.00000000E+00	 0.00000000E+00
	 0.00000000E+00	 0.00000000E+00	 0.00000000E+00
	 0.00000000E+00	 0.00000000E+00	 0.00000000E+00

	 0.00000000E+00	 0.00000000E+00	 0.00000000E+00
	 0.00000000E+00	 0.00000000E+00	 0.00000000E+00
	 0.00000000E+00	 0.00000000E+00	 0.00000000E+00

	 0.00000000E+00	 0.00000000E+00	 0.00000000E+00
	 0.00000000E+00	 0.00000000E+00	 0.00000000E+00
	 0.00000000E+00	 0.00000000E+00	 0.00000000E+00

	 0.00000000E+00	 0.00000000E+00	 0.00000000E+00
	 0.00000000E+00	 0.00000000E+00	 0.00000000E+00
	 0.00000000E+00	 0.00000000E+00	 0.00000000E+00

	 0.00000000E+00	 0.00000000E+00	 0.00000000E+00
	 0.00000000E+00	 0.00000000E+00	 0.00000000E+00
	 0.00000000E+00	 0.00000000E+00	 0.00000000E+00

	 0.00000000E+00	 0.00000000E+00	 0.00000000E+00
	 0.00000000E+00	 0.00000000E+00	 0.00000000E+00
	 0.00000000E+00	 0.00000000E+00	 0.00000000E+00

	 0.00000000E+00	 0.00000000E+00	 0.00000000E+00
	 0.00000000E+00	 0.00000000E+00	 0.00000000E+00
	 0.00000000E+00	 0.00000000E+00	 0.00000000E+00

	 0.00000000E+00	 0.00000000E+00	 0.00000000E+00
	 0.00000000E+00	 0.00000000E+00	 0.00000000E+00
	 0.00000000E+00	 0.00000000E+00	 0.00000000E+00

	 0.00000000E+00	 0.00000000E+00	 0.00000000E+00
	 0.00000000E+00	 0.00000000E+00	 0.00000000E+00
	 0.00000000E+00	 0.00000000E+00	 0.00000000E+00

	 0.00000000E+00	 0.00000000E+00	 0.00000000E+00
	 0.00000000E+00	 0.00000000E+00	 0.00000000E+00
	 0.00000000E+00	 0.00000000E+00	 0.00000000E+00

	 0.00000000E+00	 0.00000000E+00	 0.00000000E+00
	 0.00000000E+00	 0.00000000E+00	 0.00000000E+00
	 0.00000000E+00	 0.00000000E+00	 0.00000000E+00

	 0.00000000E+00	 0.00000000E+00	 0.00000000E+00
	 0.00000000E+00	 0.00000000E+00	 0.00000000E+00
	 0.00000000E+00	 0.00000000E+00	 0.00000000E+00

	 0.00000000E+00	 0.00000000E+00	 0.00000000E+00
	 0.00000000E+00	 0.00000000E+00	 0.00000000E+00
	 0.00000000E+00	 0.00000000E+00	 0.00000000E+00

	 0.00000000E+00	 0.00000000E+00	 0.00000000E+00
	 0.00000000E+00	 0.00000000E+00	 0.00000000E+00
	 0.00000000E+00	 0.00000000E+00	 0.00000000E+00

	 0.00000000E+00	 0.00000000E+00	 0.00000000E+00
	 0.00000000E+00	 0.00000000E+00	 0.00000000E+00
	 0.00000000E+00	 0.00000000E+00	 0.00000000E+00

	 0.00000000E+00	 0.00000000E+00	 0.00000000E+00
	 0.00000000E+00	 0.00000000E+00	 0.00000000E+00
	 0.00000000E+00	 0.00000000E+00	 0.00000000E+00

	 0.00000000E+00	 0.00000000E+00	 0.00000000E+00
	 0.00000000E+00	 0.00000000E+00	 0.00000000E+00
	 0.00000000E+00	 0.00000000E+00	 0.00000000E+00

	 0.00000000E+00	 0.00000000E+00	 0.00000000E+00
	 0.00000000E+00	 0.00000000E+00	 0.00000000E+00
	 0.00000000E+00	 0.00000000E+00	 0.00000000E+00

	 0.00000000E+00	 0.00000000E+00	 0.00000000E+00
	 0.00000000E+00	 0.00000000E+00	 0.00000000E+00
	 0.00000000E+00	 0.00000000E+00	 0.00000000E+00

	 0.00000000E+00	 0.00000000E+00	 0.00000000E+00
	 0.00000000E+00	 0.00000000E+00	 0.00000000E+00
	 0.00000000E+00	 0.00000000E+00	 0.00000000E+00

	 0.00000000E+00	 0.00000000E+00	 0.00000000E+00
	 0.00000000E+00	 0.00000000E+00	 0.00000000E+00
	 0.00000000E+00	 0.00000000E+00	 0.00000000E+00

	 0.00000000E+00	 0.00000000E+00	 0.00000000E+00
	 0.00000000E+00	 0.00000000E+00	 0.00000000E+00
	 0.00000000E+00	 0.00000000E+00	 0.00000000E+00

	 0.00000000E+00	 0.00000000E+00	 0.00000000E+00
	 0.00000000E+00	 0.00000000E+00	 0.00000000E+00
	 0.00000000E+00	 0.00000000E+00	 0.00000000E+00

	 0.00000000E+00	 0.00000000E+00	 0.00000000E+00
	 0.00000000E+00	 0.00000000E+00	 0.00000000E+00
	 0.00000000E+00	 0.00000000E+00	 0.00000000E+00

	 0.00000000E+00	 0.00000000E+00	 0.00000000E+00
	 0.00000000E+00	 0.00000000E+00	 0.00000000E+00
	 0.00000000E+00	 0.00000000E+00	 0.00000000E+00

	 0.00000000E+00	 0.00000000E+00	 0.00000000E+00
	 0.00000000E+00	 0.00000000E+00	 0.00000000E+00
	 0.00000000E+00	 0.00000000E+00	 0.00000000E+00

	 0.00000000E+00	 0.00000000E+00	 0.00000000E+00
	 0.00000000E+00	 0.00000000E+00	 0.00000000E+00
	 0.00000000E+00	 0.00000000E+00	 0.00000000E+00

	 0.00000000E+00	 0.00000000E+00	 0.00000000E+00
	 0.00000000E+00	 0.00000000E+00	 0.00000000E+00
	 0.00000000E+00	 0.00000000E+00	 0.00000000E+00

	 0.00000000E+00	 0.00000000E+00	 0.00000000E+00
	 0.00000000E+00	 0.00000000E+00	 0.00000000E+00
	 0.00000000E+00	 0.00000000E+00	 0.00000000E+00

	 0.00000000E+00	 0.00000000E+00	 0.00000000E+00
	 0.00000000E+00	 0.00000000E+00	 0.00000000E+00
	 0.00000000E+00	 0.00000000E+00	 0.00000000E+00

	 0.00000000E+00	 0.00000000E+00	 0.00000000E+00
	 0.00000000E+00	 0.00000000E+00	 0.00000000E+00
	 0.00000000E+00	 0.00000000E+00	 0.00000000E+00

	 0.00000000E+00	 0.00000000E+00	 0.00000000E+00
	 0.00000000E+00	 0.00000000E+00	 0.00000000E+00
	 0.00000000E+00	 0.00000000E+00	 0.00000000E+00

	 0.00000000E+00	 0.00000000E+00	 0.00000000E+00
	 0.00000000E+00	 0.00000000E+00	 0.00000000E+00
	 0.00000000E+00	 0.00000000E+00	 0.00000000E+00

	 0.00000000E+00	 0.00000000E+00	 0.00000000E+00
	 0.00000000E+00	 0.00000000E+00	 0.00000000E+00
	 0.00000000E+00	 0.00000000E+00	 0.00000000E+00

	 0.00000000E+00	 0.00000000E+00	 0.00000000E+00
	 0.00000000E+00	 0.00000000E+00	 0.00000000E+00
	 0.00000000E+00	 0.00000000E+00	 0.00000000E+00

	 0.00000000E+00	 0.00000000E+00	 0.00000000E+00
	 0.00000000E+00	 0.00000000E+00	 0.00000000E+00
	 0.00000000E+00	 0.00000000E+00	 0.00000000E+00

	 0.00000000E+00	 0.00000000E+00	 0.00000000E+00
	 0.00000000E+00	 0.00000000E+00	 0.00000000E+00
	 0.00000000E+00	 0.00000000E+00	 0.00000000E+00

	 0.00000000E+00	 0.00000000E+00	 0.00000000E+00
	 0.00000000E+00	 0.00000000E+00	 0.00000000E+00
	 0.00000000E+00	 0.00000000E+00	 0.00000000E+00

	 0.00000000E+00	 0.00000000E+00	 0.00000000E+00
	 0.00000000E+00	 0.00000000E+00	 0.00000000E+00
	 0.00000000E+00	 0.00000000E+00	 0.00000000E+00

	 0.00000000E+00	 0.00000000E+00	 0.00000000E+00
	 0.00000000E+00	 0.00000000E+00	 0.00000000E+00
	 0.00000000E+00	 0.00000000E+00	 0.00000000E+00

	 0.00000000E+00	 0.00000000E+00	 0.00000000E+00
	 0.00000000E+00	 0.00000000E+00	 0.00000000E+00
	 0.00000000E+00	 0.00000000E+00	 0.00000000E+00

	 0.00000000E+00	 0.00000000E+00	 0.00000000E+00
	 0.00000000E+00	 0.00000000E+00	 0.00000000E+00
	 0.00000000E+00	 0.00000000E+00	 0.00000000E+00

	 0.00000000E+00	 0.00000000E+00	 0.00000000E+00
	 0.00000000E+00	 0.00000000E+00	 0.00000000E+00
	 0.00000000E+00	 0.00000000E+00	 0.00000000E+00

	 0.00000000E+00	 0.00000000E+00	 0.00000000E+00
	 0.00000000E+00	 0.00000000E+00	 0.00000000E+00
	 0.00000000E+00	 0.00000000E+00	 0.00000000E+00

	 0.00000000E+00	 0.00000000E+00	 0.00000000E+00
	 0.00000000E+00	 0.00000000E+00	 0.00000000E+00
	 0.00000000E+00	 0.00000000E+00	 0.00000000E+00

	 0.00000000E+00	 0.00000000E+00	 0.00000000E+00
	 0.00000000E+00	 0.00000000E+00	 0.00000000E+00
	 0.00000000E+00	 0.00000000E+00	 0.00000000E+00

	 0.00000000E+00	 0.00000000E+00	 0.00000000E+00
	 0.00000000E+00	 0.00000000E+00	 0.00000000E+00
	 0.00000000E+00	 0.00000000E+00	 0.00000000E+00

	 0.00000000E+00	 0.00000000E+00	 0.00000000E+00
	 0.00000000E+00	 0.00000000E+00	 0.00000000E+00
	 0.00000000E+00	 0.00000000E+00	 0.00000000E+00

	 0.00000000E+00	 0.00000000E+00	 0.00000000E+00
	 0.00000000E+00	 0.00000000E+00	 0.00000000E+00
	 0.00000000E+00	 0.00000000E+00	 0.00000000E+00

	 0.00000000E+00	 0.00000000E+00	 0.00000000E+00
	 0.00000000E+00	 0.00000000E+00	 0.00000000E+00
	 0.00000000E+00	 0.00000000E+00	 0.00000000E+00

	 0.00000000E+00	 0.00000000E+00	 0.00000000E+00
	 0.00000000E+00	 0.00000000E+00	 0.00000000E+00
	 0.00000000E+00	 0.00000000E+00	 0.00000000E+00

	 0.00000000E+00	 0.00000000E+00	 0.00000000E+00
	 0.00000000E+00	 0.00000000E+00	 0.00000000E+00
	 0.00000000E+00	 0.00000000E+00	 0.00000000E+00

	 0.00000000E+00	 0.00000000E+00	 0.00000000E+00
	 0.00000000E+00	 0.00000000E+00	 0.00000000E+00
	 0.00000000E+00	 0.00000000E+00	 0.00000000E+00

	 0.00000000E+00	 0.00000000E+00	 0.00000000E+00
	 0.00000000E+00	 0.00000000E+00	 0.00000000E+00
	 0.00000000E+00	 0.00000000E+00	 0.00000000E+00

	 0.00000000E+00	 0.00000000E+00	 0.00000000E+00
	 0.00000000E+00	 0.00000000E+00	 0.00000000E+00
	 0.00000000E+00	 0.00000000E+00	 0.00000000E+00

	 0.00000000E+00	 0.00000000E+00	 0.00000000E+00
	 0.00000000E+00	 0.00000000E+00	 0.00000000E+00
	 0.00000000E+00	 0.00000000E+00	 0.00000000E+00

	 0.00000000E+00	 0.00000000E+00	 0.00000000E+00
	 0.00000000E+00	 0.00000000E+00	 0.00000000E+00
	 0.00000000E+00	 0.00000000E+00	 0.00000000E+00

	 0.00000000E+00	 0.00000000E+00	 0.00000000E+00
	 0.00000000E+00	 0.00000000E+00	 0.00000000E+00
	 0.00000000E+00	 0.00000000E+00	 0.00000000E+00

	 0.00000000E+00	 0.00000000E+00	 0.00000000E+00
	 0.00000000E+00	 0.00000000E+00	 0.00000000E+00
	 0.00000000E+00	 0.00000000E+00	 0.00000000E+00

	 0.00000000E+00	 0.00000000E+00	 0.00000000E+00
	 0.00000000E+00	 0.00000000E+00	 0.00000000E+00
	 0.00000000E+00	 0.00000000E+00	 0.00000000E+00

	 0.00000000E+00	 0.00000000E+00	 0.00000000E+00
	 0.00000000E+00	 0.00000000E+00	 0.00000000E+00
	 0.00000000E+00	 0.00000000E+00	 0.00000000E+00

	 0.00000000E+00	 0.00000000E+00	 0.00000000E+00
	 0.00000000E+00	 0.00000000E+00	 0.00000000E+00
	 0.00000000E+00	 0.00000000E+00	 0.00000000E+00

	 0.00000000E+00	 0.00000000E+00	 0.00000000E+00
	 0.00000000E+00	 0.00000000E+00	 0.00000000E+00
	 0.00000000E+00	 0.00000000E+00	 0.00000000E+00

	 0.00000000E+00	 0.00000000E+00	 0.00000000E+00
	 0.00000000E+00	 0.00000000E+00	 0.00000000E+00
	 0.00000000E+00	 0.00000000E+00	 0.00000000E+00

	 0.00000000E+00	 0.00000000E+00	 0.00000000E+00
	 0.00000000E+00	 0.00000000E+00	 0.00000000E+00
	 0.00000000E+00	 0.00000000E+00	 0.00000000E+00

	 0.00000000E+00	 0.00000000E+00	 0.00000000E+00
	 0.00000000E+00	 0.00000000E+00	 0.00000000E+00
	 0.00000000E+00	 0.00000000E+00	 0.00000000E+00

	 0.00000000E+00	 0.00000000E+00	 0.00000000E+00
	 0.00000000E+00	 0.00000000E+00	 0.00000000E+00
	 0.00000000E+00	 0.00000000E+00	 0.00000000E+00

	 0.00000000E+00	 0.00000000E+00	 0.00000000E+00
	 0.00000000E+00	 0.00000000E+00	 0.00000000E+00
	 0.00000000E+00	 0.00000000E+00	 0.00000000E+00

	 0.00000000E+00	 0.00000000E+00	 0.00000000E+00
	 0.00000000E+00	 0.00000000E+00	 0.00000000E+00
	 0.00000000E+00	 0.00000000E+00	 0.00000000E+00

	 0.00000000E+00	 0.00000000E+00	 0.00000000E+00
	 0.00000000E+00	 0.00000000E+00	 0.00000000E+00
	 0.00000000E+00	 0.00000000E+00	 0.00000000E+00

	 0.00000000E+00	 0.00000000E+00	 0.00000000E+00
	 0.00000000E+00	 0.00000000E+00	 0.00000000E+00
	 0.00000000E+00	 0.00000000E+00	 0.00000000E+00

	 0.00000000E+00	 0.00000000E+00	 0.00000000E+00
	 0.00000000E+00	 0.00000000E+00	 0.00000000E+00
	 0.00000000E+00	 0.00000000E+00	 0.00000000E+00

	 0.00000000E+00	 0.00000000E+00	 0.00000000E+00
	 0.00000000E+00	 0.00000000E+00	 0.00000000E+00
	 0.00000000E+00	 0.00000000E+00	 0.00000000E+00

	 0.00000000E+00	 0.00000000E+00	 0.00000000E+00
	 0.00000000E+00	 0.00000000E+00	 0.00000000E+00
	 0.00000000E+00	 0.00000000E+00	 0.00000000E+00

	 0.00000000E+00	 0.00000000E+00	 0.00000000E+00
	 0.00000000E+00	 0.00000000E+00	 0.00000000E+00
	 0.00000000E+00	 0.00000000E+00	 0.00000000E+00

	 0.00000000E+00	 0.00000000E+00	 0.00000000E+00
	 0.00000000E+00	 0.00000000E+00	 0.00000000E+00
	 0.00000000E+00	 0.00000000E+00	 0.00000000E+00

	 0.00000000E+00	 0.00000000E+00	 0.00000000E+00
	 0.00000000E+00	 0.00000000E+00	 0.00000000E+00
	 0.00000000E+00	 0.00000000E+00	 0.00000000E+00

	 0.00000000E+00	 0.00000000E+00	 0.00000000E+00
	 0.00000000E+00	 0.00000000E+00	 0.00000000E+00
	 0.00000000E+00	 0.00000000E+00	 0.00000000E+00

	 0.00000000E+00	 0.00000000E+00	 0.00000000E+00
	 0.00000000E+00	 0.00000000E+00	 0.00000000E+00
	 0.00000000E+00	 0.00000000E+00	 0.00000000E+00

	 0.00000000E+00	 0.00000000E+00	 0.00000000E+00
	 0.00000000E+00	 0.00000000E+00	 0.00000000E+00
	 0.00000000E+00	 0.00000000E+00	 0.00000000E+00

	 0.00000000E+00	 0.00000000E+00	 0.00000000E+00
	 0.00000000E+00	 0.00000000E+00	 0.00000000E+00
	 0.00000000E+00	 0.00000000E+00	 0.00000000E+00

	 0.00000000E+00	 0.00000000E+00	 0.00000000E+00
	 0.00000000E+00	 0.00000000E+00	 0.00000000E+00
	 0.00000000E+00	 0.00000000E+00	 0.00000000E+00

	 0.00000000E+00	 0.00000000E+00	 0.00000000E+00
	 0.00000000E+00	 0.00000000E+00	 0.00000000E+00
	 0.00000000E+00	 0.00000000E+00	 0.00000000E+00

	 0.00000000E+00	 0.00000000E+00	 0.00000000E+00
	 0.00000000E+00	 0.00000000E+00	 0.00000000E+00
	 0.00000000E+00	 0.00000000E+00	 0.00000000E+00

	 0.00000000E+00	 0.00000000E+00	 0.00000000E+00
	 0.00000000E+00	 0.00000000E+00	 0.00000000E+00
	 0.00000000E+00	 0.00000000E+00	 0.00000000E+00

	 0.00000000E+00	 0.00000000E+00	 0.00000000E+00
	 0.00000000E+00	 0.00000000E+00	 0.00000000E+00
	 0.00000000E+00	 0.00000000E+00	 0.00000000E+00

	 0.00000000E+00	 0.00000000E+00	 0.00000000E+00
	 0.00000000E+00	 0.00000000E+00	 0.00000000E+00
	 0.00000000E+00	 0.00000000E+00	 0.00000000E+00

	 0.00000000E+00	 0.00000000E+00	 0.00000000E+00
	 0.00000000E+00	 0.00000000E+00	 0.00000000E+00
	 0.00000000E+00	 0.00000000E+00	 0.00000000E+00

	 0.00000000E+00	 0.00000000E+00	 0.00000000E+00
	 0.00000000E+00	 0.00000000E+00	 0.00000000E+00
	 0.00000000E+00	 0.00000000E+00	 0.00000000E+00

	 0.00000000E+00	 0.00000000E+00	 0.00000000E+00
	 0.00000000E+00	 0.00000000E+00	 0.00000000E+00
	 0.00000000E+00	 0.00000000E+00	 0.00000000E+00

	 0.00000000E+00	 0.00000000E+00	 0.00000000E+00
	 0.00000000E+00	 0.00000000E+00	 0.00000000E+00
	 0.00000000E+00	 0.00000000E+00	 0.00000000E+00

	 0.00000000E+00	 0.00000000E+00	 0.00000000E+00
	 0.00000000E+00	 0.00000000E+00	 0.00000000E+00
	 0.00000000E+00	 0.00000000E+00	 0.00000000E+00

	 0.00000000E+00	 0.00000000E+00	 0.00000000E+00
	 0.00000000E+00	 0.00000000E+00	 0.00000000E+00
	 0.00000000E+00	 0.00000000E+00	 0.00000000E+00

	 0.00000000E+00	 0.00000000E+00	 0.00000000E+00
	 0.00000000E+00	 0.00000000E+00	 0.00000000E+00
	 0.00000000E+00	 0.00000000E+00	 0.00000000E+00

	 0.00000000E+00	 0.00000000E+00	 0.00000000E+00
	 0.00000000E+00	 0.00000000E+00	 0.00000000E+00
	 0.00000000E+00	 0.00000000E+00	 0.00000000E+00

	 0.00000000E+00	 0.00000000E+00	 0.00000000E+00
	 0.00000000E+00	 0.00000000E+00	 0.00000000E+00
	 0.00000000E+00	 0.00000000E+00	 0.00000000E+00

	 0.00000000E+00	 0.00000000E+00	 0.00000000E+00
	 0.00000000E+00	 0.00000000E+00	 0.00000000E+00
	 0.00000000E+00	 0.00000000E+00	 0.00000000E+00

	 0.00000000E+00	 0.00000000E+00	 0.00000000E+00
	 0.00000000E+00	 0.00000000E+00	 0.00000000E+00
	 0.00000000E+00	 0.00000000E+00	 0.00000000E+00

	 0.00000000E+00	 0.00000000E+00	 0.00000000E+00
	 0.00000000E+00	 0.00000000E+00	 0.00000000E+00
	 0.00000000E+00	 0.00000000E+00	 0.00000000E+00

	 0.00000000E+00	 0.00000000E+00	 0.00000000E+00
	 0.00000000E+00	 0.00000000E+00	 0.00000000E+00
	 0.00000000E+00	 0.00000000E+00	 0.00000000E+00

	 0.00000000E+00	 0.00000000E+00	 0.00000000E+00
	 0.00000000E+00	 0.00000000E+00	 0.00000000E+00
	 0.00000000E+00	 0.00000000E+00	 0.00000000E+00

	 0.00000000E+00	 0.00000000E+00	 0.00000000E+00
	 0.00000000E+00	 0.00000000E+00	 0.00000000E+00
	 0.00000000E+00	 0.00000000E+00	 0.00000000E+00

	 0.00000000E+00	 0.00000000E+00	 0.00000000E+00
	 0.00000000E+00	 0.00000000E+00	 0.00000000E+00
	 0.00000000E+00	 0.00000000E+00	 0.00000000E+00

	 0.00000000E+00	 0.00000000E+00	 0.00000000E+00
	 0.00000000E+00	 0.00000000E+00	 0.00000000E+00
	 0.00000000E+00	 0.00000000E+00	 0.00000000E+00

	 0.00000000E+00	 0.00000000E+00	 0.00000000E+00
	 0.00000000E+00	 0.00000000E+00	 0.00000000E+00
	 0.00000000E+00	 0.00000000E+00	 0.00000000E+00

	 0.00000000E+00	 0.00000000E+00	 0.00000000E+00
	 0.00000000E+00	 0.00000000E+00	 0.00000000E+00
	 0.00000000E+00	 0.00000000E+00	 0.00000000E+00

	 0.00000000E+00	 0.00000000E+00	 0.00000000E+00
	 0.00000000E+00	 0.00000000E+00	 0.00000000E+00
	 0.00000000E+00	 0.00000000E+00	 0.00000000E+00

	 0.00000000E+00	 0.00000000E+00	 0.00000000E+00
	 0.00000000E+00	 0.00000000E+00	 0.00000000E+00
	 0.00000000E+00	 0.00000000E+00	 0.00000000E+00

	 0.00000000E+00	 0.00000000E+00	 0.00000000E+00
	 0.00000000E+00	 0.00000000E+00	 0.00000000E+00
	 0.00000000E+00	 0.00000000E+00	 0.00000000E+00

	 0.00000000E+00	 0.00000000E+00	 0.00000000E+00
	 0.00000000E+00	 0.00000000E+00	 0.00000000E+00
	 0.00000000E+00	 0.00000000E+00	 0.00000000E+00

	 0.00000000E+00	 0.00000000E+00	 0.00000000E+00
	 0.00000000E+00	 0.00000000E+00	 0.00000000E+00
	 0.00000000E+00	 0.00000000E+00	 0.00000000E+00

	 0.00000000E+00	 0.00000000E+00	 0.00000000E+00
	 0.00000000E+00	 0.00000000E+00	 0.00000000E+00
	 0.00000000E+00	 0.00000000E+00	 0.00000000E+00

	 0.00000000E+00	 0.00000000E+00	 0.00000000E+00
	 0.00000000E+00	 0.00000000E+00	 0.00000000E+00
	 0.00000000E+00	 0.00000000E+00	 0.00000000E+00

	 0.00000000E+00	 0.00000000E+00	 0.00000000E+00
	 0.00000000E+00	 0.00000000E+00	 0.00000000E+00
	 0.00000000E+00	 0.00000000E+00	 0.00000000E+00

	 0.00000000E+00	 0.00000000E+00	 0.00000000E+00
	 0.00000000E+00	 0.00000000E+00	 0.00000000E+00
	 0.00000000E+00	 0.00000000E+00	 0.00000000E+00

	 0.00000000E+00	 0.00000000E+00	 0.00000000E+00
	 0.00000000E+00	 0.00000000E+00	 0.00000000E+00
	 0.00000000E+00	 0.00000000E+00	 0.00000000E+00

	 0.00000000E+00	 0.00000000E+00	 0.00000000E+00
	 0.00000000E+00	 0.00000000E+00	 0.00000000E+00
	 0.00000000E+00	 0.00000000E+00	 0.00000000E+00

	 0.00000000E+00	 0.00000000E+00	 0.00000000E+00
	 0.00000000E+00	 0.00000000E+00	 0.00000000E+00
	 0.00000000E+00	 0.00000000E+00	 0.00000000E+00

	 0.00000000E+00	 0.00000000E+00	 0.00000000E+00
	 0.00000000E+00	 0.00000000E+00	 0.00000000E+00
	 0.00000000E+00	 0.00000000E+00	 0.00000000E+00

	 0.00000000E+00	 0.00000000E+00	 0.00000000E+00
	 0.00000000E+00	 0.00000000E+00	 0.00000000E+00
	 0.00000000E+00	 0.00000000E+00	 0.00000000E+00

	 0.00000000E+00	 0.00000000E+00	 0.00000000E+00
	 0.00000000E+00	 0.00000000E+00	 0.00000000E+00
	 0.00000000E+00	 0.00000000E+00	 0.00000000E+00

	 0.00000000E+00	 0.00000000E+00	 0.00000000E+00
	 0.00000000E+00	 0.00000000E+00	 0.00000000E+00
	 0.00000000E+00	 0.00000000E+00	 0.00000000E+00

	 0.00000000E+00	 0.00000000E+00	 0.00000000E+00
	 0.00000000E+00	 0.00000000E+00	 0.00000000E+00
	 0.00000000E+00	 0.00000000E+00	 0.00000000E+00

	 0.00000000E+00	 0.00000000E+00	 0.00000000E+00
	 0.00000000E+00	 0.00000000E+00	 0.00000000E+00
	 0.00000000E+00	 0.00000000E+00	 0.00000000E+00

	 0.00000000E+00	 0.00000000E+00	 0.00000000E+00
	 0.00000000E+00	 0.00000000E+00	 0.00000000E+00
	 0.00000000E+00	 0.00000000E+00	 0.00000000E+00

	 0.00000000E+00	 0.00000000E+00	 0.00000000E+00
	 0.00000000E+00	 0.00000000E+00	 0.00000000E+00
	 0.00000000E+00	 0.00000000E+00	 0.00000000E+00

	 0.00000000E+00	 0.00000000E+00	 0.00000000E+00
	 0.00000000E+00	 0.00000000E+00	 0.00000000E+00
	 0.00000000E+00	 0.00000000E+00	 0.00000000E+00

	 0.00000000E+00	 0.00000000E+00	 0.00000000E+00
	 0.00000000E+00	 0.00000000E+00	 0.00000000E+00
	 0.00000000E+00	 0.00000000E+00	 0.00000000E+00

	 0.00000000E+00	 0.00000000E+00	 0.00000000E+00
	 0.00000000E+00	 0.00000000E+00	 0.00000000E+00
	 0.00000000E+00	 0.00000000E+00	 0.00000000E+00

	 0.00000000E+00	 0.00000000E+00	 0.00000000E+00
	 0.00000000E+00	 0.00000000E+00	 0.00000000E+00
	 0.00000000E+00	 0.00000000E+00	 0.00000000E+00

	 0.00000000E+00	 0.00000000E+00	 0.00000000E+00
	 0.00000000E+00	 0.00000000E+00	 0.00000000E+00
	 0.00000000E+00	 0.00000000E+00	 0.00000000E+00

	 0.00000000E+00	 0.00000000E+00	 0.00000000E+00
	 0.00000000E+00	 0.00000000E+00	 0.00000000E+00
	 0.00000000E+00	 0.00000000E+00	 0.00000000E+00

	 0.00000000E+00	 0.00000000E+00	 0.00000000E+00
	 0.00000000E+00	 0.00000000E+00	 0.00000000E+00
	 0.00000000E+00	 0.00000000E+00	 0.00000000E+00

	 0.00000000E+00	 0.00000000E+00	 0.00000000E+00
	 0.00000000E+00	 0.00000000E+00	 0.00000000E+00
	 0.00000000E+00	 0.00000000E+00	 0.00000000E+00

	 0.00000000E+00	 0.00000000E+00	 0.00000000E+00
	 0.00000000E+00	 0.00000000E+00	 0.00000000E+00
	 0.00000000E+00	 0.00000000E+00	 0.00000000E+00

	 0.00000000E+00	 0.00000000E+00	 0.00000000E+00
	 0.00000000E+00	 0.00000000E+00	 0.00000000E+00
	 0.00000000E+00	 0.00000000E+00	 0.00000000E+00

	 0.00000000E+00	 0.00000000E+00	 0.00000000E+00
	 0.00000000E+00	 0.00000000E+00	 0.00000000E+00
	 0.00000000E+00	 0.00000000E+00	 0.00000000E+00

	 0.00000000E+00	 0.00000000E+00	 0.00000000E+00
	 0.00000000E+00	 0.00000000E+00	 0.00000000E+00
	 0.00000000E+00	 0.00000000E+00	 0.00000000E+00

	 0.00000000E+00	 0.00000000E+00	 0.00000000E+00
	 0.00000000E+00	 0.00000000E+00	 0.00000000E+00
	 0.00000000E+00	 0.00000000E+00	 0.00000000E+00

	 0.00000000E+00	 0.00000000E+00	 0.00000000E+00
	 0.00000000E+00	 0.00000000E+00	 0.00000000E+00
	 0.00000000E+00	 0.00000000E+00	 0.00000000E+00

	 0.00000000E+00	 0.00000000E+00	 0.00000000E+00
	 0.00000000E+00	 0.00000000E+00	 0.00000000E+00
	 0.00000000E+00	 0.00000000E+00	 0.00000000E+00

	 0.00000000E+00	 0.00000000E+00	 0.00000000E+00
	 0.00000000E+00	 0.00000000E+00	 0.00000000E+00
	 0.00000000E+00	 0.00000000E+00	 0.00000000E+00

	 0.00000000E+00	 0.00000000E+00	 0.00000000E+00
	 0.00000000E+00	 0.00000000E+00	 0.00000000E+00
	 0.00000000E+00	 0.00000000E+00	 0.00000000E+00

	 0.00000000E+00	 0.00000000E+00	 0.00000000E+00
	 0.00000000E+00	 0.00000000E+00	 0.00000000E+00
	 0.00000000E+00	 0.00000000E+00	 0.00000000E+00

	 0.00000000E+00	 0.00000000E+00	 0.00000000E+00
	 0.00000000E+00	 0.00000000E+00	 0.00000000E+00
	 0.00000000E+00	 0.00000000E+00	 0.00000000E+00

	 0.00000000E+00	 0.00000000E+00	 0.00000000E+00
	 0.00000000E+00	 0.00000000E+00	 0.00000000E+00
	 0.00000000E+00	 0.00000000E+00	 0.00000000E+00

	 0.00000000E+00	 0.00000000E+00	 0.00000000E+00
	 0.00000000E+00	 0.00000000E+00	 0.00000000E+00
	 0.00000000E+00	 0.00000000E+00	 0.00000000E+00

	 0.00000000E+00	 0.00000000E+00	 0.00000000E+00
	 0.00000000E+00	 0.00000000E+00	 0.00000000E+00
	 0.00000000E+00	 0.00000000E+00	 0.00000000E+00

	 0.00000000E+00	 0.00000000E+00	 0.00000000E+00
	 0.00000000E+00	 0.00000000E+00	 0.00000000E+00
	 0.00000000E+00	 0.00000000E+00	 0.00000000E+00

	 0.00000000E+00	 0.00000000E+00	 0.00000000E+00
	 0.00000000E+00	 0.00000000E+00	 0.00000000E+00
	 0.00000000E+00	 0.00000000E+00	 0.00000000E+00

	 0.00000000E+00	 0.00000000E+00	 0.00000000E+00
	 0.00000000E+00	 0.00000000E+00	 0.00000000E+00
	 0.00000000E+00	 0.00000000E+00	 0.00000000E+00

	 0.00000000E+00	 0.00000000E+00	 0.00000000E+00
	 0.00000000E+00	 0.00000000E+00	 0.00000000E+00
	 0.00000000E+00	 0.00000000E+00	 0.00000000E+00

	 0.00000000E+00	 0.00000000E+00	 0.00000000E+00
	 0.00000000E+00	 0.00000000E+00	 0.00000000E+00
	 0.00000000E+00	 0.00000000E+00	 0.00000000E+00

	 0.00000000E+00	 0.00000000E+00	 0.00000000E+00
	 0.00000000E+00	 0.00000000E+00	 0.00000000E+00
	 0.00000000E+00	 0.00000000E+00	 0.00000000E+00

	 0.00000000E+00	 0.00000000E+00	 0.00000000E+00
	 0.00000000E+00	 0.00000000E+00	 0.00000000E+00
	 0.00000000E+00	 0.00000000E+00	 0.00000000E+00

	 0.00000000E+00	 0.00000000E+00	 0.00000000E+00
	 0.00000000E+00	 0.00000000E+00	 0.00000000E+00
	 0.00000000E+00	 0.00000000E+00	 0.00000000E+00

	 0.00000000E+00	 0.00000000E+00	 0.00000000E+00
	 0.00000000E+00	 0.00000000E+00	 0.00000000E+00
	 0.00000000E+00	 0.00000000E+00	 0.00000000E+00

	 0.00000000E+00	 0.00000000E+00	 0.00000000E+00
	 0.00000000E+00	 0.00000000E+00	 0.00000000E+00
	 0.00000000E+00	 0.00000000E+00	 0.00000000E+00

	 0.00000000E+00	 0.00000000E+00	 0.00000000E+00
	 0.00000000E+00	 0.00000000E+00	 0.00000000E+00
	 0.00000000E+00	 0.00000000E+00	 0.00000000E+00

	 0.00000000E+00	 0.00000000E+00	 0.00000000E+00
	 0.00000000E+00	 0.00000000E+00	 0.00000000E+00
	 0.00000000E+00	 0.00000000E+00	 0.00000000E+00

	 0.00000000E+00	 0.00000000E+00	 0.00000000E+00
	 0.00000000E+00	 0.00000000E+00	 0.00000000E+00
	 0.00000000E+00	 0.00000000E+00	 0.00000000E+00

	 0.00000000E+00	 0.00000000E+00	 0.00000000E+00
	 0.00000000E+00	 0.00000000E+00	 0.00000000E+00
	 0.00000000E+00	 0.00000000E+00	 0.00000000E+00

	 0.00000000E+00	 0.00000000E+00	 0.00000000E+00
	 0.00000000E+00	 0.00000000E+00	 0.00000000E+00
	 0.00000000E+00	 0.00000000E+00	 0.00000000E+00

	 0.00000000E+00	 0.00000000E+00	 0.00000000E+00
	 0.00000000E+00	 0.00000000E+00	 0.00000000E+00
	 0.00000000E+00	 0.00000000E+00	 0.00000000E+00

	 0.00000000E+00	 0.00000000E+00	 0.00000000E+00
	 0.00000000E+00	 0.00000000E+00	 0.00000000E+00
	 0.00000000E+00	 0.00000000E+00	 0.00000000E+00

	 0.00000000E+00	 0.00000000E+00	 0.00000000E+00
	 0.00000000E+00	 0.00000000E+00	 0.00000000E+00
	 0.00000000E+00	 0.00000000E+00	 0.00000000E+00

	 0.00000000E+00	 0.00000000E+00	 0.00000000E+00
	 0.00000000E+00	 0.00000000E+00	 0.00000000E+00
	 0.00000000E+00	 0.00000000E+00	 0.00000000E+00

	 0.00000000E+00	 0.00000000E+00	 0.00000000E+00
	 0.00000000E+00	 0.00000000E+00	 0.00000000E+00
	 0.00000000E+00	 0.00000000E+00	 0.00000000E+00

	 0.00000000E+00	 0.00000000E+00	 0.00000000E+00
	 0.00000000E+00	 0.00000000E+00	 0.00000000E+00
	 0.00000000E+00	 0.00000000E+00	 0.00000000E+00

	 0.00000000E+00	 0.00000000E+00	 0.00000000E+00
	 0.00000000E+00	 0.00000000E+00	 0.00000000E+00
	 0.00000000E+00	 0.00000000E+00	 0.00000000E+00

	 0.00000000E+00	 0.00000000E+00	 0.00000000E+00
	 0.00000000E+00	 0.00000000E+00	 0.00000000E+00
	 0.00000000E+00	 0.00000000E+00	 0.00000000E+00

	 0.00000000E+00	 0.00000000E+00	 0.00000000E+00
	 0.00000000E+00	 0.00000000E+00	 0.00000000E+00
	 0.00000000E+00	 0.00000000E+00	 0.00000000E+00

	 0.00000000E+00	 0.00000000E+00	 0.00000000E+00
	 0.00000000E+00	 0.00000000E+00	 0.00000000E+00
	 0.00000000E+00	 0.00000000E+00	 0.00000000E+00

	 0.00000000E+00	 0.00000000E+00	 0.00000000E+00
	 0.00000000E+00	 0.00000000E+00	 0.00000000E+00
	 0.00000000E+00	 0.00000000E+00	 0.00000000E+00

	 0.00000000E+00	 0.00000000E+00	 0.00000000E+00
	 0.00000000E+00	 0.00000000E+00	 0.00000000E+00
	 0.00000000E+00	 0.00000000E+00	 0.00000000E+00

	 0.00000000E+00	 0.00000000E+00	 0.00000000E+00
	 0.00000000E+00	 0.00000000E+00	 0.00000000E+00
	 0.00000000E+00	 0.00000000E+00	 0.00000000E+00

	 0.00000000E+00	 0.00000000E+00	 0.00000000E+00
	 0.00000000E+00	 0.00000000E+00	 0.00000000E+00
	 0.00000000E+00	 0.00000000E+00	 0.00000000E+00

	 0.00000000E+00	 0.00000000E+00	 0.00000000E+00
	 0.00000000E+00	 0.00000000E+00	 0.00000000E+00
	 0.00000000E+00	 0.00000000E+00	 0.00000000E+00

	 0.00000000E+00	 0.00000000E+00	 0.00000000E+00
	 0.00000000E+00	 0.00000000E+00	 0.00000000E+00
	 0.00000000E+00	 0.00000000E+00	 0.00000000E+00

	 0.00000000E+00	 0.00000000E+00	 0.00000000E+00
	 0.00000000E+00	 0.00000000E+00	 0.00000000E+00
	 0.00000000E+00	 0.00000000E+00	 0.00000000E+00

	 0.00000000E+00	 0.00000000E+00	 0.00000000E+00
	 0.00000000E+00	 0.00000000E+00	 0.00000000E+00
	 0.00000000E+00	 0.00000000E+00	 0.00000000E+00

	 0.00000000E+00	 0.00000000E+00	 0.00000000E+00
	 0.00000000E+00	 0.00000000E+00	 0.00000000E+00
	 0.00000000E+00	 0.00000000E+00	 0.00000000E+00

	 0.00000000E+00	 0.00000000E+00	 0.00000000E+00
	 0.00000000E+00	 0.00000000E+00	 0.00000000E+00
	 0.00000000E+00	 0.00000000E+00	 0.00000000E+00

	 0.00000000E+00	 0.00000000E+00	 0.00000000E+00
	 0.00000000E+00	 0.00000000E+00	 0.00000000E+00
	 0.00000000E+00	 0.00000000E+00	 0.00000000E+00

	 0.00000000E+00	 0.00000000E+00	 0.00000000E+00
	 0.00000000E+00	 0.00000000E+00	 0.00000000E+00
	 0.00000000E+00	 0.00000000E+00	 0.00000000E+00

	 0.00000000E+00	 0.00000000E+00	 0.00000000E+00
	 0.00000000E+00	 0.00000000E+00	 0.00000000E+00
	 0.00000000E+00	 0.00000000E+00	 0.00000000E+00

	 0.00000000E+00	 0.00000000E+00	 0.00000000E+00
	 0.00000000E+00	 0.00000000E+00	 0.00000000E+00
	 0.00000000E+00	 0.00000000E+00	 0.00000000E+00

	 0.00000000E+00	 0.00000000E+00	 0.00000000E+00
	 0.00000000E+00	 0.00000000E+00	 0.00000000E+00
	 0.00000000E+00	 0.00000000E+00	 0.00000000E+00

	 0.00000000E+00	 0.00000000E+00	 0.00000000E+00
	 0.00000000E+00	 0.00000000E+00	 0.00000000E+00
	 0.00000000E+00	 0.00000000E+00	 0.00000000E+00

	 0.00000000E+00	 0.00000000E+00	 0.00000000E+00
	 0.00000000E+00	 0.00000000E+00	 0.00000000E+00
	 0.00000000E+00	 0.00000000E+00	 0.00000000E+00

	 0.00000000E+00	 0.00000000E+00	 0.00000000E+00
	 0.00000000E+00	 0.00000000E+00	 0.00000000E+00
	 0.00000000E+00	 0.00000000E+00	 0.00000000E+00

	 0.00000000E+00	 0.00000000E+00	 0.00000000E+00
	 0.00000000E+00	 0.00000000E+00	 0.00000000E+00
	 0.00000000E+00	 0.00000000E+00	 0.00000000E+00

	 0.00000000E+00	 0.00000000E+00	 0.00000000E+00
	 0.00000000E+00	 0.00000000E+00	 0.00000000E+00
	 0.00000000E+00	 0.00000000E+00	 0.00000000E+00

	 0.00000000E+00	 0.00000000E+00	 0.00000000E+00
	 0.00000000E+00	 0.00000000E+00	 0.00000000E+00
	 0.00000000E+00	 0.00000000E+00	 0.00000000E+00

	 0.00000000E+00	 0.00000000E+00	 0.00000000E+00
	 0.00000000E+00	 0.00000000E+00	 0.00000000E+00
	 0.00000000E+00	 0.00000000E+00	 0.00000000E+00

	 0.00000000E+00	 0.00000000E+00	 0.00000000E+00
	 0.00000000E+00	 0.00000000E+00	 0.00000000E+00
	 0.00000000E+00	 0.00000000E+00	 0.00000000E+00

	 0.00000000E+00	 0.00000000E+00	 0.00000000E+00
	 0.00000000E+00	 0.00000000E+00	 0.00000000E+00
	 0.00000000E+00	 0.00000000E+00	 0.00000000E+00

	 0.00000000E+00	 0.00000000E+00	 0.00000000E+00
	 0.00000000E+00	 0.00000000E+00	 0.00000000E+00
	 0.00000000E+00	 0.00000000E+00	 0.00000000E+00

	 0.00000000E+00	 0.00000000E+00	 0.00000000E+00
	 0.00000000E+00	 0.00000000E+00	 0.00000000E+00
	 0.00000000E+00	 0.00000000E+00	 0.00000000E+00

	 0.00000000E+00	 0.00000000E+00	 0.00000000E+00
	 0.00000000E+00	 0.00000000E+00	 0.00000000E+00
	 0.00000000E+00	 0.00000000E+00	 0.00000000E+00

	 0.00000000E+00	 0.00000000E+00	 0.00000000E+00
	 0.00000000E+00	 0.00000000E+00	 0.00000000E+00
	 0.00000000E+00	 0.00000000E+00	 0.00000000E+00

	 0.00000000E+00	 0.00000000E+00	 0.00000000E+00
	 0.00000000E+00	 0.00000000E+00	 0.00000000E+00
	 0.00000000E+00	 0.00000000E+00	 0.00000000E+00

	 0.00000000E+00	 0.00000000E+00	 0.00000000E+00
	 0.00000000E+00	 0.00000000E+00	 0.00000000E+00
	 0.00000000E+00	 0.00000000E+00	 0.00000000E+00

	 0.00000000E+00	 0.00000000E+00	 0.00000000E+00
	 0.00000000E+00	 0.00000000E+00	 0.00000000E+00
	 0.00000000E+00	 0.00000000E+00	 0.00000000E+00

	 0.00000000E+00	 0.00000000E+00	 0.00000000E+00
	 0.00000000E+00	 0.00000000E+00	 0.00000000E+00
	 0.00000000E+00	 0.00000000E+00	 0.00000000E+00

	 0.00000000E+00	 0.00000000E+00	 0.00000000E+00
	 0.00000000E+00	 0.00000000E+00	 0.00000000E+00
	 0.00000000E+00	 0.00000000E+00	 0.00000000E+00

	 0.00000000E+00	 0.00000000E+00	 0.00000000E+00
	 0.00000000E+00	 0.00000000E+00	 0.00000000E+00
	 0.00000000E+00	 0.00000000E+00	 0.00000000E+00

	 0.00000000E+00	 0.00000000E+00	 0.00000000E+00
	 0.00000000E+00	 0.00000000E+00	 0.00000000E+00
	 0.00000000E+00	 0.00000000E+00	 0.00000000E+00

	 0.00000000E+00	 0.00000000E+00	 0.00000000E+00
	 0.00000000E+00	 0.00000000E+00	 0.00000000E+00
	 0.00000000E+00	 0.00000000E+00	 0.00000000E+00

	 0.00000000E+00	 0.00000000E+00	 0.00000000E+00
	 0.00000000E+00	 0.00000000E+00	 0.00000000E+00
	 0.00000000E+00	 0.00000000E+00	 0.00000000E+00

	 0.00000000E+00	 0.00000000E+00	 0.00000000E+00
	 0.00000000E+00	 0.00000000E+00	 0.00000000E+00
	 0.00000000E+00	 0.00000000E+00	 0.00000000E+00

	 0.00000000E+00	 0.00000000E+00	 0.00000000E+00
	 0.00000000E+00	 0.00000000E+00	 0.00000000E+00
	 0.00000000E+00	 0.00000000E+00	 0.00000000E+00

	 0.00000000E+00	 0.00000000E+00	 0.00000000E+00
	 0.00000000E+00	 0.00000000E+00	 0.00000000E+00
	 0.00000000E+00	 0.00000000E+00	 0.00000000E+00

	 0.00000000E+00	 0.00000000E+00	 0.00000000E+00
	 0.00000000E+00	 0.00000000E+00	 0.00000000E+00
	 0.00000000E+00	 0.00000000E+00	 0.00000000E+00

	 0.00000000E+00	 0.00000000E+00	 0.00000000E+00
	 0.00000000E+00	 0.00000000E+00	 0.00000000E+00
	 0.00000000E+00	 0.00000000E+00	 0.00000000E+00

	 0.00000000E+00	 0.00000000E+00	 0.00000000E+00
	 0.00000000E+00	 0.00000000E+00	 0.00000000E+00
	 0.00000000E+00	 0.00000000E+00	 0.00000000E+00

	 0.00000000E+00	 0.00000000E+00	 0.00000000E+00
	 0.00000000E+00	 0.00000000E+00	 0.00000000E+00
	 0.00000000E+00	 0.00000000E+00	 0.00000000E+00

	 0.00000000E+00	 0.00000000E+00	 0.00000000E+00
	 0.00000000E+00	 0.00000000E+00	 0.00000000E+00
	 0.00000000E+00	 0.00000000E+00	 0.00000000E+00

	 0.00000000E+00	 0.00000000E+00	 0.00000000E+00
	 0.00000000E+00	 0.00000000E+00	 0.00000000E+00
	 0.00000000E+00	 0.00000000E+00	 0.00000000E+00

	 0.00000000E+00	 0.00000000E+00	 0.00000000E+00
	 0.00000000E+00	 0.00000000E+00	 0.00000000E+00
	 0.00000000E+00	 0.00000000E+00	 0.00000000E+00

	 0.00000000E+00	 0.00000000E+00	 0.00000000E+00
	 0.00000000E+00	 0.00000000E+00	 0.00000000E+00
	 0.00000000E+00	 0.00000000E+00	 0.00000000E+00

	 0.00000000E+00	 0.00000000E+00	 0.00000000E+00
	 0.00000000E+00	 0.00000000E+00	 0.00000000E+00
	 0.00000000E+00	 0.00000000E+00	 0.00000000E+00

	 0.00000000E+00	 0.00000000E+00	 0.00000000E+00
	 0.00000000E+00	 0.00000000E+00	 0.00000000E+00
	 0.00000000E+00	 0.00000000E+00	 0.00000000E+00

	 0.00000000E+00	 0.00000000E+00	 0.00000000E+00
	 0.00000000E+00	 0.00000000E+00	 0.00000000E+00
	 0.00000000E+00	 0.00000000E+00	 0.00000000E+00

	 0.00000000E+00	 0.00000000E+00	 0.00000000E+00
	 0.00000000E+00	 0.00000000E+00	 0.00000000E+00
	 0.00000000E+00	 0.00000000E+00	 0.00000000E+00

	 0.00000000E+00	 0.00000000E+00	 0.00000000E+00
	 0.00000000E+00	 0.00000000E+00	 0.00000000E+00
	 0.00000000E+00	 0.00000000E+00	 0.00000000E+00

	 0.00000000E+00	 0.00000000E+00	 0.00000000E+00
	 0.00000000E+00	 0.00000000E+00	 0.00000000E+00
	 0.00000000E+00	 0.00000000E+00	 0.00000000E+00

	 0.00000000E+00	 0.00000000E+00	 0.00000000E+00
	 0.00000000E+00	 0.00000000E+00	 0.00000000E+00
	 0.00000000E+00	 0.00000000E+00	 0.00000000E+00

	 0.00000000E+00	 0.00000000E+00	 0.00000000E+00
	 0.00000000E+00	 0.00000000E+00	 0.00000000E+00
	 0.00000000E+00	 0.00000000E+00	 0.00000000E+00

	 0.00000000E+00	 0.00000000E+00	 0.00000000E+00
	 0.00000000E+00	 0.00000000E+00	 0.00000000E+00
	 0.00000000E+00	 0.00000000E+00	 0.00000000E+00

	 0.00000000E+00	 0.00000000E+00	 0.00000000E+00
	 0.00000000E+00	 0.00000000E+00	 0.00000000E+00
	 0.00000000E+00	 0.00000000E+00	 0.00000000E+00

	 0.00000000E+00	 0.00000000E+00	 0.00000000E+00
	 0.00000000E+00	 0.00000000E+00	 0.00000000E+00
	 0.00000000E+00	 0.00000000E+00	 0.00000000E+00

	 0.00000000E+00	 0.00000000E+00	 0.00000000E+00
	 0.00000000E+00	 0.00000000E+00	 0.00000000E+00
	 0.00000000E+00	 0.00000000E+00	 0.00000000E+00

	 0.00000000E+00	 0.00000000E+00	 0.00000000E+00
	 0.00000000E+00	 0.00000000E+00	 0.00000000E+00
	 0.00000000E+00	 0.00000000E+00	 0.00000000E+00

	 0.00000000E+00	 0.00000000E+00	 0.00000000E+00
	 0.00000000E+00	 0.00000000E+00	 0.00000000E+00
	 0.00000000E+00	 0.00000000E+00	 0.00000000E+00

	 0.00000000E+00	 0.00000000E+00	 0.00000000E+00
	 0.00000000E+00	 0.00000000E+00	 0.00000000E+00
	 0.00000000E+00	 0.00000000E+00	 0.00000000E+00

	 0.00000000E+00	 0.00000000E+00	 0.00000000E+00
	 0.00000000E+00	 0.00000000E+00	 0.00000000E+00
	 0.00000000E+00	 0.00000000E+00	 0.00000000E+00

	 0.00000000E+00	 0.00000000E+00	 0.00000000E+00
	 0.00000000E+00	 0.00000000E+00	 0.00000000E+00
	 0.00000000E+00	 0.00000000E+00	 0.00000000E+00

	 0.00000000E+00	 0.00000000E+00	 0.00000000E+00
	 0.00000000E+00	 0.00000000E+00	 0.00000000E+00
	 0.00000000E+00	 0.00000000E+00	 0.00000000E+00

	 0.00000000E+00	 0.00000000E+00	 0.00000000E+00
	 0.00000000E+00	 0.00000000E+00	 0.00000000E+00
	 0.00000000E+00	 0.00000000E+00	 0.00000000E+00

	 0.00000000E+00	 0.00000000E+00	 0.00000000E+00
	 0.00000000E+00	 0.00000000E+00	 0.00000000E+00
	 0.00000000E+00	 0.00000000E+00	 0.00000000E+00

	 0.00000000E+00	 0.00000000E+00	 0.00000000E+00
	 0.00000000E+00	 0.00000000E+00	 0.00000000E+00
	 0.00000000E+00	 0.00000000E+00	 0.00000000E+00

	 0.00000000E+00	 0.00000000E+00	 0.00000000E+00
	 0.00000000E+00	 0.00000000E+00	 0.00000000E+00
	 0.00000000E+00	 0.00000000E+00	 0.00000000E+00

	 0.00000000E+00	 0.00000000E+00	 0.00000000E+00
	 0.00000000E+00	 0.00000000E+00	 0.00000000E+00
	 0.00000000E+00	 0.00000000E+00	 0.00000000E+00

	 0.00000000E+00	 0.00000000E+00	 0.00000000E+00
	 0.00000000E+00	 0.00000000E+00	 0.00000000E+00
	 0.00000000E+00	 0.00000000E+00	 0.00000000E+00

	 0.00000000E+00	 0.00000000E+00	 0.00000000E+00
	 0.00000000E+00	 0.00000000E+00	 0.00000000E+00
	 0.00000000E+00	 0.00000000E+00	 0.00000000E+00

	 0.00000000E+00	 0.00000000E+00	 0.00000000E+00
	 0.00000000E+00	 0.00000000E+00	 0.00000000E+00
	 0.00000000E+00	 0.00000000E+00	 0.00000000E+00

	 0.00000000E+00	 0.00000000E+00	 0.00000000E+00
	 0.00000000E+00	 0.00000000E+00	 0.00000000E+00
	 0.00000000E+00	 0.00000000E+00	 0.00000000E+00

	 0.00000000E+00	 0.00000000E+00	 0.00000000E+00
	 0.00000000E+00	 0.00000000E+00	 0.00000000E+00
	 0.00000000E+00	 0.00000000E+00	 0.00000000E+00

	 0.00000000E+00	 0.00000000E+00	 0.00000000E+00
	 0.00000000E+00	 0.00000000E+00	 0.00000000E+00
	 0.00000000E+00	 0.00000000E+00	 0.00000000E+00

	 0.00000000E+00	 0.00000000E+00	 0.00000000E+00
	 0.00000000E+00	 0.00000000E+00	 0.00000000E+00
	 0.00000000E+00	 0.00000000E+00	 0.00000000E+00

	 0.00000000E+00	 0.00000000E+00	 0.00000000E+00
	 0.00000000E+00	 0.00000000E+00	 0.00000000E+00
	 0.00000000E+00	 0.00000000E+00	 0.00000000E+00

	 0.00000000E+00	 0.00000000E+00	 0.00000000E+00
	 0.00000000E+00	 0.00000000E+00	 0.00000000E+00
	 0.00000000E+00	 0.00000000E+00	 0.00000000E+00

	 0.00000000E+00	 0.00000000E+00	 0.00000000E+00
	 0.00000000E+00	 0.00000000E+00	 0.00000000E+00
	 0.00000000E+00	 0.00000000E+00	 0.00000000E+00

	 0.00000000E+00	 0.00000000E+00	 0.00000000E+00
	 0.00000000E+00	 0.00000000E+00	 0.00000000E+00
	 0.00000000E+00	 0.00000000E+00	 0.00000000E+00

	 0.00000000E+00	 0.00000000E+00	 0.00000000E+00
	 0.00000000E+00	 0.00000000E+00	 0.00000000E+00
	 0.00000000E+00	 0.00000000E+00	 0.00000000E+00

	 0.00000000E+00	 0.00000000E+00	 0.00000000E+00
	 0.00000000E+00	 0.00000000E+00	 0.00000000E+00
	 0.00000000E+00	 0.00000000E+00	 0.00000000E+00

	 0.00000000E+00	 0.00000000E+00	 0.00000000E+00
	 0.00000000E+00	 0.00000000E+00	 0.00000000E+00
	 0.00000000E+00	 0.00000000E+00	 0.00000000E+00

	 0.00000000E+00	 0.00000000E+00	 0.00000000E+00
	 0.00000000E+00	 0.00000000E+00	 0.00000000E+00
	 0.00000000E+00	 0.00000000E+00	 0.00000000E+00

	 0.00000000E+00	 0.00000000E+00	 0.00000000E+00
	 0.00000000E+00	 0.00000000E+00	 0.00000000E+00
	 0.00000000E+00	 0.00000000E+00	 0.00000000E+00

	 0.00000000E+00	 0.00000000E+00	 0.00000000E+00
	 0.00000000E+00	 0.00000000E+00	 0.00000000E+00
	 0.00000000E+00	 0.00000000E+00	 0.00000000E+00

	 0.00000000E+00	 0.00000000E+00	 0.00000000E+00
	 0.00000000E+00	 0.00000000E+00	 0.00000000E+00
	 0.00000000E+00	 0.00000000E+00	 0.00000000E+00

	 0.00000000E+00	 0.00000000E+00	 0.00000000E+00
	 0.00000000E+00	 0.00000000E+00	 0.00000000E+00
	 0.00000000E+00	 0.00000000E+00	 0.00000000E+00

	 0.00000000E+00	 0.00000000E+00	 0.00000000E+00
	 0.00000000E+00	 0.00000000E+00	 0.00000000E+00
	 0.00000000E+00	 0.00000000E+00	 0.00000000E+00

	 0.00000000E+00	 0.00000000E+00	 0.00000000E+00
	 0.00000000E+00	 0.00000000E+00	 0.00000000E+00
	 0.00000000E+00	 0.00000000E+00	 0.00000000E+00

	 0.00000000E+00	 0.00000000E+00	 0.00000000E+00
	 0.00000000E+00	 0.00000000E+00	 0.00000000E+00
	 0.00000000E+00	 0.00000000E+00	 0.00000000E+00

	 0.00000000E+00	 0.00000000E+00	 0.00000000E+00
	 0.00000000E+00	 0.00000000E+00	 0.00000000E+00
	 0.00000000E+00	 0.00000000E+00	 0.00000000E+00

	 0.00000000E+00	 0.00000000E+00	 0.00000000E+00
	 0.00000000E+00	 0.00000000E+00	 0.00000000E+00
	 0.00000000E+00	 0.00000000E+00	 0.00000000E+00

	 0.00000000E+00	 0.00000000E+00	 0.00000000E+00
	 0.00000000E+00	 0.00000000E+00	 0.00000000E+00
	 0.00000000E+00	 0.00000000E+00	 0.00000000E+00

	 0.00000000E+00	 0.00000000E+00	 0.00000000E+00
	 0.00000000E+00	 0.00000000E+00	 0.00000000E+00
	 0.00000000E+00	 0.00000000E+00	 0.00000000E+00

	 0.00000000E+00	 0.00000000E+00	 0.00000000E+00
	 0.00000000E+00	 0.00000000E+00	 0.00000000E+00
	 0.00000000E+00	 0.00000000E+00	 0.00000000E+00

	 0.00000000E+00	 0.00000000E+00	 0.00000000E+00
	 0.00000000E+00	 0.00000000E+00	 0.00000000E+00
	 0.00000000E+00	 0.00000000E+00	 0.00000000E+00

	 0.00000000E+00	 0.00000000E+00	 0.00000000E+00
	 0.00000000E+00	 0.00000000E+00	 0.00000000E+00
	 0.00000000E+00	 0.00000000E+00	 0.00000000E+00

	 0.00000000E+00	 0.00000000E+00	 0.00000000E+00
	 0.00000000E+00	 0.00000000E+00	 0.00000000E+00
	 0.00000000E+00	 0.00000000E+00	 0.00000000E+00

	 0.00000000E+00	 0.00000000E+00	 0.00000000E+00
	 0.00000000E+00	 0.00000000E+00	 0.00000000E+00
	 0.00000000E+00	 0.00000000E+00	 0.00000000E+00

	 0.00000000E+00	 0.00000000E+00	 0.00000000E+00
	 0.00000000E+00	 0.00000000E+00	 0.00000000E+00
	 0.00000000E+00	 0.00000000E+00	 0.00000000E+00

	 0.00000000E+00	 0.00000000E+00	 0.00000000E+00
	 0.00000000E+00	 0.00000000E+00	 0.00000000E+00
	 0.00000000E+00	 0.00000000E+00	 0.00000000E+00

	 0.00000000E+00	 0.00000000E+00	 0.00000000E+00
	 0.00000000E+00	 0.00000000E+00	 0.00000000E+00
	 0.00000000E+00	 0.00000000E+00	 0.00000000E+00

	 0.00000000E+00	 0.00000000E+00	 0.00000000E+00
	 0.00000000E+00	 0.00000000E+00	 0.00000000E+00
	 0.00000000E+00	 0.00000000E+00	 0.00000000E+00

	 0.00000000E+00	 0.00000000E+00	 0.00000000E+00
	 0.00000000E+00	 0.00000000E+00	 0.00000000E+00
	 0.00000000E+00	 0.00000000E+00	 0.00000000E+00

	 0.00000000E+00	 0.00000000E+00	 0.00000000E+00
	 0.00000000E+00	 0.00000000E+00	 0.00000000E+00
	 0.00000000E+00	 0.00000000E+00	 0.00000000E+00

	 0.00000000E+00	 0.00000000E+00	 0.00000000E+00
	 0.00000000E+00	 0.00000000E+00	 0.00000000E+00
	 0.00000000E+00	 0.00000000E+00	 0.00000000E+00

	 0.00000000E+00	 0.00000000E+00	 0.00000000E+00
	 0.00000000E+00	 0.00000000E+00	 0.00000000E+00
	 0.00000000E+00	 0.00000000E+00	 0.00000000E+00

	 0.00000000E+00	 0.00000000E+00	 0.00000000E+00
	 0.00000000E+00	 0.00000000E+00	 0.00000000E+00
	 0.00000000E+00	 0.00000000E+00	 0.00000000E+00

	 0.00000000E+00	 0.00000000E+00	 0.00000000E+00
	 0.00000000E+00	 0.00000000E+00	 0.00000000E+00
	 0.00000000E+00	 0.00000000E+00	 0.00000000E+00

	 0.00000000E+00	 0.00000000E+00	 0.00000000E+00
	 0.00000000E+00	 0.00000000E+00	 0.00000000E+00
	 0.00000000E+00	 0.00000000E+00	 0.00000000E+00

	 0.00000000E+00	 0.00000000E+00	 0.00000000E+00
	 0.00000000E+00	 0.00000000E+00	 0.00000000E+00
	 0.00000000E+00	 0.00000000E+00	 0.00000000E+00

	 0.00000000E+00	 0.00000000E+00	 0.00000000E+00
	 0.00000000E+00	 0.00000000E+00	 0.00000000E+00
	 0.00000000E+00	 0.00000000E+00	 0.00000000E+00

	 0.00000000E+00	 0.00000000E+00	 0.00000000E+00
	 0.00000000E+00	 0.00000000E+00	 0.00000000E+00
	 0.00000000E+00	 0.00000000E+00	 0.00000000E+00

	 0.00000000E+00	 0.00000000E+00	 0.00000000E+00
	 0.00000000E+00	 0.00000000E+00	 0.00000000E+00
	 0.00000000E+00	 0.00000000E+00	 0.00000000E+00

	 0.00000000E+00	 0.00000000E+00	 0.00000000E+00
	 0.00000000E+00	 0.00000000E+00	 0.00000000E+00
	 0.00000000E+00	 0.00000000E+00	 0.00000000E+00

	 0.00000000E+00	 0.00000000E+00	 0.00000000E+00
	 0.00000000E+00	 0.00000000E+00	 0.00000000E+00
	 0.00000000E+00	 0.00000000E+00	 0.00000000E+00

	 0.00000000E+00	 0.00000000E+00	 0.00000000E+00
	 0.00000000E+00	 0.00000000E+00	 0.00000000E+00
	 0.00000000E+00	 0.00000000E+00	 0.00000000E+00

	 0.00000000E+00	 0.00000000E+00	 0.00000000E+00
	 0.00000000E+00	 0.00000000E+00	 0.00000000E+00
	 0.00000000E+00	 0.00000000E+00	 0.00000000E+00

	 0.00000000E+00	 0.00000000E+00	 0.00000000E+00
	 0.00000000E+00	 0.00000000E+00	 0.00000000E+00
	 0.00000000E+00	 0.00000000E+00	 0.00000000E+00

	 0.00000000E+00	 0.00000000E+00	 0.00000000E+00
	 0.00000000E+00	 0.00000000E+00	 0.00000000E+00
	 0.00000000E+00	 0.00000000E+00	 0.00000000E+00

	 0.00000000E+00	 0.00000000E+00	 0.00000000E+00
	 0.00000000E+00	 0.00000000E+00	 0.00000000E+00
	 0.00000000E+00	 0.00000000E+00	 0.00000000E+00

	 0.00000000E+00	 0.00000000E+00	 0.00000000E+00
	 0.00000000E+00	 0.00000000E+00	 0.00000000E+00
	 0.00000000E+00	 0.00000000E+00	 0.00000000E+00

	 0.00000000E+00	 0.00000000E+00	 0.00000000E+00
	 0.00000000E+00	 0.00000000E+00	 0.00000000E+00
	 0.00000000E+00	 0.00000000E+00	 0.00000000E+00

	 0.00000000E+00	 0.00000000E+00	 0.00000000E+00
	 0.00000000E+00	 0.00000000E+00	 0.00000000E+00
	 0.00000000E+00	 0.00000000E+00	 0.00000000E+00

	 0.00000000E+00	 0.00000000E+00	 0.00000000E+00
	 0.00000000E+00	 0.00000000E+00	 0.00000000E+00
	 0.00000000E+00	 0.00000000E+00	 0.00000000E+00

	 0.00000000E+00	 0.00000000E+00	 0.00000000E+00
	 0.00000000E+00	 0.00000000E+00	 0.00000000E+00
	 0.00000000E+00	 0.00000000E+00	 0.00000000E+00

	 0.00000000E+00	 0.00000000E+00	 0.00000000E+00
	 0.00000000E+00	 0.00000000E+00	 0.00000000E+00
	 0.00000000E+00	 0.00000000E+00	 0.00000000E+00

	 0.00000000E+00	 0.00000000E+00	 0.00000000E+00
	 0.00000000E+00	 0.00000000E+00	 0.00000000E+00
	 0.00000000E+00	 0.00000000E+00	 0.00000000E+00

	 0.00000000E+00	 0.00000000E+00	 0.00000000E+00
	 0.00000000E+00	 0.00000000E+00	 0.00000000E+00
	 0.00000000E+00	 0.00000000E+00	 0.00000000E+00

	 0.00000000E+00	 0.00000000E+00	 0.00000000E+00
	 0.00000000E+00	 0.00000000E+00	 0.00000000E+00
	 0.00000000E+00	 0.00000000E+00	 0.00000000E+00

	 0.00000000E+00	 0.00000000E+00	 0.00000000E+00
	 0.00000000E+00	 0.00000000E+00	 0.00000000E+00
	 0.00000000E+00	 0.00000000E+00	 0.00000000E+00

	 0.00000000E+00	 0.00000000E+00	 0.00000000E+00
	 0.00000000E+00	 0.00000000E+00	 0.00000000E+00
	 0.00000000E+00	 0.00000000E+00	 0.00000000E+00

	 0.00000000E+00	 0.00000000E+00	 0.00000000E+00
	 0.00000000E+00	 0.00000000E+00	 0.00000000E+00
	 0.00000000E+00	 0.00000000E+00	 0.00000000E+00

	 0.00000000E+00	 0.00000000E+00	 0.00000000E+00
	 0.00000000E+00	 0.00000000E+00	 0.00000000E+00
	 0.00000000E+00	 0.00000000E+00	 0.00000000E+00

	 0.00000000E+00	 0.00000000E+00	 0.00000000E+00
	 0.00000000E+00	 0.00000000E+00	 0.00000000E+00
	 0.00000000E+00	 0.00000000E+00	 0.00000000E+00

	 0.00000000E+00	 0.00000000E+00	 0.00000000E+00
	 0.00000000E+00	 0.00000000E+00	 0.00000000E+00
	 0.00000000E+00	 0.00000000E+00	 0.00000000E+00

	 0.00000000E+00	 0.00000000E+00	 0.00000000E+00
	 0.00000000E+00	 0.00000000E+00	 0.00000000E+00
	 0.00000000E+00	 0.00000000E+00	 0.00000000E+00

	 0.00000000E+00	 0.00000000E+00	 0.00000000E+00
	 0.00000000E+00	 0.00000000E+00	 0.00000000E+00
	 0.00000000E+00	 0.00000000E+00	 0.00000000E+00

	 0.00000000E+00	 0.00000000E+00	 0.00000000E+00
	 0.00000000E+00	 0.00000000E+00	 0.00000000E+00
	 0.00000000E+00	 0.00000000E+00	 0.00000000E+00

	 0.00000000E+00	 0.00000000E+00	 0.00000000E+00
	 0.00000000E+00	 0.00000000E+00	 0.00000000E+00
	 0.00000000E+00	 0.00000000E+00	 0.00000000E+00

	 0.00000000E+00	 0.00000000E+00	 0.00000000E+00
	 0.00000000E+00	 0.00000000E+00	 0.00000000E+00
	 0.00000000E+00	 0.00000000E+00	 0.00000000E+00

	 0.00000000E+00	 0.00000000E+00	 0.00000000E+00
	 0.00000000E+00	 0.00000000E+00	 0.00000000E+00
	 0.00000000E+00	 0.00000000E+00	 0.00000000E+00

	 0.00000000E+00	 0.00000000E+00	 0.00000000E+00
	 0.00000000E+00	 0.00000000E+00	 0.00000000E+00
	 0.00000000E+00	 0.00000000E+00	 0.00000000E+00

	 0.00000000E+00	 0.00000000E+00	 0.00000000E+00
	 0.00000000E+00	 0.00000000E+00	 0.00000000E+00
	 0.00000000E+00	 0.00000000E+00	 0.00000000E+00

	 0.00000000E+00	 0.00000000E+00	 0.00000000E+00
	 0.00000000E+00	 0.00000000E+00	 0.00000000E+00
	 0.00000000E+00	 0.00000000E+00	 0.00000000E+00

	 0.00000000E+00	 0.00000000E+00	 0.00000000E+00
	 0.00000000E+00	 0.00000000E+00	 0.00000000E+00
	 0.00000000E+00	 0.00000000E+00	 0.00000000E+00

	 0.00000000E+00	 0.00000000E+00	 0.00000000E+00
	 0.00000000E+00	 0.00000000E+00	 0.00000000E+00
	 0.00000000E+00	 0.00000000E+00	 0.00000000E+00

	 0.00000000E+00	 0.00000000E+00	 0.00000000E+00
	 0.00000000E+00	 0.00000000E+00	 0.00000000E+00
	 0.00000000E+00	 0.00000000E+00	 0.00000000E+00

	 0.00000000E+00	 0.00000000E+00	 0.00000000E+00
	 0.00000000E+00	 0.00000000E+00	 0.00000000E+00
	 0.00000000E+00	 0.00000000E+00	 0.00000000E+00

	 0.00000000E+00	 0.00000000E+00	 0.00000000E+00
	 0.00000000E+00	 0.00000000E+00	 0.00000000E+00
	 0.00000000E+00	 0.00000000E+00	 0.00000000E+00

	 0.00000000E+00	 0.00000000E+00	 0.00000000E+00
	 0.00000000E+00	 0.00000000E+00	 0.00000000E+00
	 0.00000000E+00	 0.00000000E+00	 0.00000000E+00

	 0.00000000E+00	 0.00000000E+00	 0.00000000E+00
	 0.00000000E+00	 0.00000000E+00	 0.00000000E+00
	 0.00000000E+00	 0.00000000E+00	 0.00000000E+00

	 0.00000000E+00	 0.00000000E+00	 0.00000000E+00
	 0.00000000E+00	 0.00000000E+00	 0.00000000E+00
	 0.00000000E+00	 0.00000000E+00	 0.00000000E+00

	 0.00000000E+00	 0.00000000E+00	 0.00000000E+00
	 0.00000000E+00	 0.00000000E+00	 0.00000000E+00
	 0.00000000E+00	 0.00000000E+00	 0.00000000E+00

	 0.00000000E+00	 0.00000000E+00	 0.00000000E+00
	 0.00000000E+00	 0.00000000E+00	 0.00000000E+00
	 0.00000000E+00	 0.00000000E+00	 0.00000000E+00

	 0.00000000E+00	 0.00000000E+00	 0.00000000E+00
	 0.00000000E+00	 0.00000000E+00	 0.00000000E+00
	 0.00000000E+00	 0.00000000E+00	 0.00000000E+00

	 0.00000000E+00	 0.00000000E+00	 0.00000000E+00
	 0.00000000E+00	 0.00000000E+00	 0.00000000E+00
	 0.00000000E+00	 0.00000000E+00	 0.00000000E+00

	 0.00000000E+00	 0.00000000E+00	 0.00000000E+00
	 0.00000000E+00	 0.00000000E+00	 0.00000000E+00
	 0.00000000E+00	 0.00000000E+00	 0.00000000E+00

	 0.00000000E+00	 0.00000000E+00	 0.00000000E+00
	 0.00000000E+00	 0.00000000E+00	 0.00000000E+00
	 0.00000000E+00	 0.00000000E+00	 0.00000000E+00

	 0.00000000E+00	 0.00000000E+00	 0.00000000E+00
	 0.00000000E+00	 0.00000000E+00	 0.00000000E+00
	 0.00000000E+00	 0.00000000E+00	 0.00000000E+00

	 0.00000000E+00	 0.00000000E+00	 0.00000000E+00
	 0.00000000E+00	 0.00000000E+00	 0.00000000E+00
	 0.00000000E+00	 0.00000000E+00	 0.00000000E+00

	 0.00000000E+00	 0.00000000E+00	 0.00000000E+00
	 0.00000000E+00	 0.00000000E+00	 0.00000000E+00
	 0.00000000E+00	 0.00000000E+00	 0.00000000E+00

	 0.00000000E+00	 0.00000000E+00	 0.00000000E+00
	 0.00000000E+00	 0.00000000E+00	 0.00000000E+00
	 0.00000000E+00	 0.00000000E+00	 0.00000000E+00

	 0.00000000E+00	 0.00000000E+00	 0.00000000E+00
	 0.00000000E+00	 0.00000000E+00	 0.00000000E+00
	 0.00000000E+00	 0.00000000E+00	 0.00000000E+00

	 0.00000000E+00	 0.00000000E+00	 0.00000000E+00
	 0.00000000E+00	 0.00000000E+00	 0.00000000E+00
	 0.00000000E+00	 0.00000000E+00	 0.00000000E+00

	 0.00000000E+00	 0.00000000E+00	 0.00000000E+00
	 0.00000000E+00	 0.00000000E+00	 0.00000000E+00
	 0.00000000E+00	 0.00000000E+00	 0.00000000E+00

	 0.00000000E+00	 0.00000000E+00	 0.00000000E+00
	 0.00000000E+00	 0.00000000E+00	 0.00000000E+00
	 0.00000000E+00	 0.00000000E+00	 0.00000000E+00

	 0.00000000E+00	 0.00000000E+00	 0.00000000E+00
	 0.00000000E+00	 0.00000000E+00	 0.00000000E+00
	 0.00000000E+00	 0.00000000E+00	 0.00000000E+00

	 0.00000000E+00	 0.00000000E+00	 0.00000000E+00
	 0.00000000E+00	 0.00000000E+00	 0.00000000E+00
	 0.00000000E+00	 0.00000000E+00	 0.00000000E+00

	 0.00000000E+00	 0.00000000E+00	 0.00000000E+00
	 0.00000000E+00	 0.00000000E+00	 0.00000000E+00
	 0.00000000E+00	 0.00000000E+00	 0.00000000E+00

	 0.00000000E+00	 0.00000000E+00	 0.00000000E+00
	 0.00000000E+00	 0.00000000E+00	 0.00000000E+00
	 0.00000000E+00	 0.00000000E+00	 0.00000000E+00

	 0.00000000E+00	 0.00000000E+00	 0.00000000E+00
	 0.00000000E+00	 0.00000000E+00	 0.00000000E+00
	 0.00000000E+00	 0.00000000E+00	 0.00000000E+00

	 0.00000000E+00	 0.00000000E+00	 0.00000000E+00
	 0.00000000E+00	 0.00000000E+00	 0.00000000E+00
	 0.00000000E+00	 0.00000000E+00	 0.00000000E+00

	 0.00000000E+00	 0.00000000E+00	 0.00000000E+00
	 0.00000000E+00	 0.00000000E+00	 0.00000000E+00
	 0.00000000E+00	 0.00000000E+00	 0.00000000E+00

	 0.00000000E+00	 0.00000000E+00	 0.00000000E+00
	 0.00000000E+00	 0.00000000E+00	 0.00000000E+00
	 0.00000000E+00	 0.00000000E+00	 0.00000000E+00

	 0.00000000E+00	 0.00000000E+00	 0.00000000E+00
	 0.00000000E+00	 0.00000000E+00	 0.00000000E+00
	 0.00000000E+00	 0.00000000E+00	 0.00000000E+00

	 0.00000000E+00	 0.00000000E+00	 0.00000000E+00
	 0.00000000E+00	 0.00000000E+00	 0.00000000E+00
	 0.00000000E+00	 0.00000000E+00	 0.00000000E+00

	 0.00000000E+00	 0.00000000E+00	 0.00000000E+00
	 0.00000000E+00	 0.00000000E+00	 0.00000000E+00
	 0.00000000E+00	 0.00000000E+00	 0.00000000E+00

	 0.00000000E+00	 0.00000000E+00	 0.00000000E+00
	 0.00000000E+00	 0.00000000E+00	 0.00000000E+00
	 0.00000000E+00	 0.00000000E+00	 0.00000000E+00

	 0.00000000E+00	 0.00000000E+00	 0.00000000E+00
	 0.00000000E+00	 0.00000000E+00	 0.00000000E+00
	 0.00000000E+00	 0.00000000E+00	 0.00000000E+00

	 0.00000000E+00	 0.00000000E+00	 0.00000000E+00
	 0.00000000E+00	 0.00000000E+00	 0.00000000E+00
	 0.00000000E+00	 0.00000000E+00	 0.00000000E+00

	 0.00000000E+00	 0.00000000E+00	 0.00000000E+00
	 0.00000000E+00	 0.00000000E+00	 0.00000000E+00
	 0.00000000E+00	 0.00000000E+00	 0.00000000E+00

	 0.00000000E+00	 0.00000000E+00	 0.00000000E+00
	 0.00000000E+00	 0.00000000E+00	 0.00000000E+00
	 0.00000000E+00	 0.00000000E+00	 0.00000000E+00

	 0.00000000E+00	 0.00000000E+00	 0.00000000E+00
	 0.00000000E+00	 0.00000000E+00	 0.00000000E+00
	 0.00000000E+00	 0.00000000E+00	 0.00000000E+00

	 0.00000000E+00	 0.00000000E+00	 0.00000000E+00
	 0.00000000E+00	 0.00000000E+00	 0.00000000E+00
	 0.00000000E+00	 0.00000000E+00	 0.00000000E+00

	 0.00000000E+00	 0.00000000E+00	 0.00000000E+00
	 0.00000000E+00	 0.00000000E+00	 0.00000000E+00
	 0.00000000E+00	 0.00000000E+00	 0.00000000E+00

	 0.00000000E+00	 0.00000000E+00	 0.00000000E+00
	 0.00000000E+00	 0.00000000E+00	 0.00000000E+00
	 0.00000000E+00	 0.00000000E+00	 0.00000000E+00

	 0.00000000E+00	 0.00000000E+00	 0.00000000E+00
	 0.00000000E+00	 0.00000000E+00	 0.00000000E+00
	 0.00000000E+00	 0.00000000E+00	 0.00000000E+00

	 0.00000000E+00	 0.00000000E+00	 0.00000000E+00
	 0.00000000E+00	 0.00000000E+00	 0.00000000E+00
	 0.00000000E+00	 0.00000000E+00	 0.00000000E+00

	 0.00000000E+00	 0.00000000E+00	 0.00000000E+00
	 0.00000000E+00	 0.00000000E+00	 0.00000000E+00
	 0.00000000E+00	 0.00000000E+00	 0.00000000E+00

	 0.00000000E+00	 0.00000000E+00	 0.00000000E+00
	 0.00000000E+00	 0.00000000E+00	 0.00000000E+00
	 0.00000000E+00	 0.00000000E+00	 0.00000000E+00

	 0.00000000E+00	 0.00000000E+00	 0.00000000E+00
	 0.00000000E+00	 0.00000000E+00	 0.00000000E+00
	 0.00000000E+00	 0.00000000E+00	 0.00000000E+00

	 0.00000000E+00	 0.00000000E+00	 0.00000000E+00
	 0.00000000E+00	 0.00000000E+00	 0.00000000E+00
	 0.00000000E+00	 0.00000000E+00	 0.00000000E+00

	 0.00000000E+00	 0.00000000E+00	 0.00000000E+00
	 0.00000000E+00	 0.00000000E+00	 0.00000000E+00
	 0.00000000E+00	 0.00000000E+00	 0.00000000E+00

	 0.00000000E+00	 0.00000000E+00	 0.00000000E+00
	 0.00000000E+00	 0.00000000E+00	 0.00000000E+00
	 0.00000000E+00	 0.00000000E+00	 0.00000000E+00

	 0.00000000E+00	 0.00000000E+00	 0.00000000E+00
	 0.00000000E+00	 0.00000000E+00	 0.00000000E+00
	 0.00000000E+00	 0.00000000E+00	 0.00000000E+00

	 0.00000000E+00	 0.00000000E+00	 0.00000000E+00
	 0.00000000E+00	 0.00000000E+00	 0.00000000E+00
	 0.00000000E+00	 0.00000000E+00	 0.00000000E+00

	 0.00000000E+00	 0.00000000E+00	 0.00000000E+00
	 0.00000000E+00	 0.00000000E+00	 0.00000000E+00
	 0.00000000E+00	 0.00000000E+00	 0.00000000E+00

	 0.00000000E+00	 0.00000000E+00	 0.00000000E+00
	 0.00000000E+00	 0.00000000E+00	 0.00000000E+00
	 0.00000000E+00	 0.00000000E+00	 0.00000000E+00

	 0.00000000E+00	 0.00000000E+00	 0.00000000E+00
	 0.00000000E+00	 0.00000000E+00	 0.00000000E+00
	 0.00000000E+00	 0.00000000E+00	 0.00000000E+00

	 0.00000000E+00	 0.00000000E+00	 0.00000000E+00
	 0.00000000E+00	 0.00000000E+00	 0.00000000E+00
	 0.00000000E+00	 0.00000000E+00	 0.00000000E+00

	 0.00000000E+00	 0.00000000E+00	 0.00000000E+00
	 0.00000000E+00	 0.00000000E+00	 0.00000000E+00
	 0.00000000E+00	 0.00000000E+00	 0.00000000E+00

	 0.00000000E+00	 0.00000000E+00	 0.00000000E+00
	 0.00000000E+00	 0.00000000E+00	 0.00000000E+00
	 0.00000000E+00	 0.00000000E+00	 0.00000000E+00

	 0.00000000E+00	 0.00000000E+00	 0.00000000E+00
	 0.00000000E+00	 0.00000000E+00	 0.00000000E+00
	 0.00000000E+00	 0.00000000E+00	 0.00000000E+00

	 0.00000000E+00	 0.00000000E+00	 0.00000000E+00
	 0.00000000E+00	 0.00000000E+00	 0.00000000E+00
	 0.00000000E+00	 0.00000000E+00	 0.00000000E+00

	 0.00000000E+00	 0.00000000E+00	 0.00000000E+00
	 0.00000000E+00	 0.00000000E+00	 0.00000000E+00
	 0.00000000E+00	 0.00000000E+00	 0.00000000E+00

	 0.00000000E+00	 0.00000000E+00	 0.00000000E+00
	 0.00000000E+00	 0.00000000E+00	 0.00000000E+00
	 0.00000000E+00	 0.00000000E+00	 0.00000000E+00

	 0.00000000E+00	 0.00000000E+00	 0.00000000E+00
	 0.00000000E+00	 0.00000000E+00	 0.00000000E+00
	 0.00000000E+00	 0.00000000E+00	 0.00000000E+00

	 0.00000000E+00	 0.00000000E+00	 0.00000000E+00
	 0.00000000E+00	 0.00000000E+00	 0.00000000E+00
	 0.00000000E+00	 0.00000000E+00	 0.00000000E+00

	 0.00000000E+00	 0.00000000E+00	 0.00000000E+00
	 0.00000000E+00	 0.00000000E+00	 0.00000000E+00
	 0.00000000E+00	 0.00000000E+00	 0.00000000E+00

	 0.00000000E+00	 0.00000000E+00	 0.00000000E+00
	 0.00000000E+00	 0.00000000E+00	 0.00000000E+00
	 0.00000000E+00	 0.00000000E+00	 0.00000000E+00

	 0.00000000E+00	 0.00000000E+00	 0.00000000E+00
	 0.00000000E+00	 0.00000000E+00	 0.00000000E+00
	 0.00000000E+00	 0.00000000E+00	 0.00000000E+00

	 0.00000000E+00	 0.00000000E+00	 0.00000000E+00
	 0.00000000E+00	 0.00000000E+00	 0.00000000E+00
	 0.00000000E+00	 0.00000000E+00	 0.00000000E+00

	 0.00000000E+00	 0.00000000E+00	 0.00000000E+00
	 0.00000000E+00	 0.00000000E+00	 0.00000000E+00
	 0.00000000E+00	 0.00000000E+00	 0.00000000E+00

	 0.00000000E+00	 0.00000000E+00	 0.00000000E+00
	 0.00000000E+00	 0.00000000E+00	 0.00000000E+00
	 0.00000000E+00	 0.00000000E+00	 0.00000000E+00

	 0.00000000E+00	 0.00000000E+00	 0.00000000E+00
	 0.00000000E+00	 0.00000000E+00	 0.00000000E+00
	 0.00000000E+00	 0.00000000E+00	 0.00000000E+00

	 0.00000000E+00	 0.00000000E+00	 0.00000000E+00
	 0.00000000E+00	 0.00000000E+00	 0.00000000E+00
	 0.00000000E+00	 0.00000000E+00	 0.00000000E+00

	 0.00000000E+00	 0.00000000E+00	 0.00000000E+00
	 0.00000000E+00	 0.00000000E+00	 0.00000000E+00
	 0.00000000E+00	 0.00000000E+00	 0.00000000E+00

	 0.00000000E+00	 0.00000000E+00	 0.00000000E+00
	 0.00000000E+00	 0.00000000E+00	 0.00000000E+00
	 0.00000000E+00	 0.00000000E+00	 0.00000000E+00

	 0.00000000E+00	 0.00000000E+00	 0.00000000E+00
	 0.00000000E+00	 0.00000000E+00	 0.00000000E+00
	 0.00000000E+00	 0.00000000E+00	 0.00000000E+00

	 0.00000000E+00	 0.00000000E+00	 0.00000000E+00
	 0.00000000E+00	 0.00000000E+00	 0.00000000E+00
	 0.00000000E+00	 0.00000000E+00	 0.00000000E+00

	 0.00000000E+00	 0.00000000E+00	 0.00000000E+00
	 0.00000000E+00	 0.00000000E+00	 0.00000000E+00
	 0.00000000E+00	 0.00000000E+00	 0.00000000E+00

	 0.00000000E+00	 0.00000000E+00	 0.00000000E+00
	 0.00000000E+00	 0.00000000E+00	 0.00000000E+00
	 0.00000000E+00	 0.00000000E+00	 0.00000000E+00

	 0.00000000E+00	 0.00000000E+00	 0.00000000E+00
	 0.00000000E+00	 0.00000000E+00	 0.00000000E+00
	 0.00000000E+00	 0.00000000E+00	 0.00000000E+00

	 0.00000000E+00	 0.00000000E+00	 0.00000000E+00
	 0.00000000E+00	 0.00000000E+00	 0.00000000E+00
	 0.00000000E+00	 0.00000000E+00	 0.00000000E+00

	 0.00000000E+00	 0.00000000E+00	 0.00000000E+00
	 0.00000000E+00	 0.00000000E+00	 0.00000000E+00
	 0.00000000E+00	 0.00000000E+00	 0.00000000E+00

	 0.00000000E+00	 0.00000000E+00	 0.00000000E+00
	 0.00000000E+00	 0.00000000E+00	 0.00000000E+00
	 0.00000000E+00	 0.00000000E+00	 0.00000000E+00

	 0.00000000E+00	 0.00000000E+00	 0.00000000E+00
	 0.00000000E+00	 0.00000000E+00	 0.00000000E+00
	 0.00000000E+00	 0.00000000E+00	 0.00000000E+00

	 0.00000000E+00	 0.00000000E+00	 0.00000000E+00
	 0.00000000E+00	 0.00000000E+00	 0.00000000E+00
	 0.00000000E+00	 0.00000000E+00	 0.00000000E+00

	 0.00000000E+00	 0.00000000E+00	 0.00000000E+00
	 0.00000000E+00	 0.00000000E+00	 0.00000000E+00
	 0.00000000E+00	 0.00000000E+00	 0.00000000E+00

	 0.00000000E+00	 0.00000000E+00	 0.00000000E+00
	 0.00000000E+00	 0.00000000E+00	 0.00000000E+00
	 0.00000000E+00	 0.00000000E+00	 0.00000000E+00

	 0.00000000E+00	 0.00000000E+00	 0.00000000E+00
	 0.00000000E+00	 0.00000000E+00	 0.00000000E+00
	 0.00000000E+00	 0.00000000E+00	 0.00000000E+00

	 0.00000000E+00	 0.00000000E+00	 0.00000000E+00
	 0.00000000E+00	 0.00000000E+00	 0.00000000E+00
	 0.00000000E+00	 0.00000000E+00	 0.00000000E+00

	 0.00000000E+00	 0.00000000E+00	 0.00000000E+00
	 0.00000000E+00	 0.00000000E+00	 0.00000000E+00
	 0.00000000E+00	 0.00000000E+00	 0.00000000E+00

	 0.00000000E+00	 0.00000000E+00	 0.00000000E+00
	 0.00000000E+00	 0.00000000E+00	 0.00000000E+00
	 0.00000000E+00	 0.00000000E+00	 0.00000000E+00

	 0.00000000E+00	 0.00000000E+00	 0.00000000E+00
	 0.00000000E+00	 0.00000000E+00	 0.00000000E+00
	 0.00000000E+00	 0.00000000E+00	 0.00000000E+00

	 0.00000000E+00	 0.00000000E+00	 0.00000000E+00
	 0.00000000E+00	 0.00000000E+00	 0.00000000E+00
	 0.00000000E+00	 0.00000000E+00	 0.00000000E+00

	 0.00000000E+00	 0.00000000E+00	 0.00000000E+00
	 0.00000000E+00	 0.00000000E+00	 0.00000000E+00
	 0.00000000E+00	 0.00000000E+00	 0.00000000E+00

	 0.00000000E+00	 0.00000000E+00	 0.00000000E+00
	 0.00000000E+00	 0.00000000E+00	 0.00000000E+00
	 0.00000000E+00	 0.00000000E+00	 0.00000000E+00

	 0.00000000E+00	 0.00000000E+00	 0.00000000E+00
	 0.00000000E+00	 0.00000000E+00	 0.00000000E+00
	 0.00000000E+00	 0.00000000E+00	 0.00000000E+00

	 0.00000000E+00	 0.00000000E+00	 0.00000000E+00
	 0.00000000E+00	 0.00000000E+00	 0.00000000E+00
	 0.00000000E+00	 0.00000000E+00	 0.00000000E+00

	 0.00000000E+00	 0.00000000E+00	 0.00000000E+00
	 0.00000000E+00	 0.00000000E+00	 0.00000000E+00
	 0.00000000E+00	 0.00000000E+00	 0.00000000E+00

	 0.00000000E+00	 0.00000000E+00	 0.00000000E+00
	 0.00000000E+00	 0.00000000E+00	 0.00000000E+00
	 0.00000000E+00	 0.00000000E+00	 0.00000000E+00

	 0.00000000E+00	 0.00000000E+00	 0.00000000E+00
	 0.00000000E+00	 0.00000000E+00	 0.00000000E+00
	 0.00000000E+00	 0.00000000E+00	 0.00000000E+00

	 0.00000000E+00	 0.00000000E+00	 0.00000000E+00
	 0.00000000E+00	 0.00000000E+00	 0.00000000E+00
	 0.00000000E+00	 0.00000000E+00	 0.00000000E+00

	 0.00000000E+00	 0.00000000E+00	 0.00000000E+00
	 0.00000000E+00	 0.00000000E+00	 0.00000000E+00
	 0.00000000E+00	 0.00000000E+00	 0.00000000E+00

	 0.00000000E+00	 0.00000000E+00	 0.00000000E+00
	 0.00000000E+00	 0.00000000E+00	 0.00000000E+00
	 0.00000000E+00	 0.00000000E+00	 0.00000000E+00

	 0.00000000E+00	 0.00000000E+00	 0.00000000E+00
	 0.00000000E+00	 0.00000000E+00	 0.00000000E+00
	 0.00000000E+00	 0.00000000E+00	 0.00000000E+00

	 0.00000000E+00	 0.00000000E+00	 0.00000000E+00
	 0.00000000E+00	 0.00000000E+00	 0.00000000E+00
	 0.00000000E+00	 0.00000000E+00	 0.00000000E+00

	 0.00000000E+00	 0.00000000E+00	 0.00000000E+00
	 0.00000000E+00	 0.00000000E+00	 0.00000000E+00
	 0.00000000E+00	 0.00000000E+00	 0.00000000E+00

	 0.00000000E+00	 0.00000000E+00	 0.00000000E+00
	 0.00000000E+00	 0.00000000E+00	 0.00000000E+00
	 0.00000000E+00	 0.00000000E+00	 0.00000000E+00

	 0.00000000E+00	 0.00000000E+00	 0.00000000E+00
	 0.00000000E+00	 0.00000000E+00	 0.00000000E+00
	 0.00000000E+00	 0.00000000E+00	 0.00000000E+00

	 0.00000000E+00	 0.00000000E+00	 0.00000000E+00
	 0.00000000E+00	 0.00000000E+00	 0.00000000E+00
	 0.00000000E+00	 0.00000000E+00	 0.00000000E+00

	 0.00000000E+00	 0.00000000E+00	 0.00000000E+00
	 0.00000000E+00	 0.00000000E+00	 0.00000000E+00
	 0.00000000E+00	 0.00000000E+00	 0.00000000E+00

	 0.00000000E+00	 0.00000000E+00	 0.00000000E+00
	 0.00000000E+00	 0.00000000E+00	 0.00000000E+00
	 0.00000000E+00	 0.00000000E+00	 0.00000000E+00

	 0.00000000E+00	 0.00000000E+00	 0.00000000E+00
	 0.00000000E+00	 0.00000000E+00	 0.00000000E+00
	 0.00000000E+00	 0.00000000E+00	 0.00000000E+00

	 0.00000000E+00	 0.00000000E+00	 0.00000000E+00
	 0.00000000E+00	 0.00000000E+00	 0.00000000E+00
	 0.00000000E+00	 0.00000000E+00	 0.00000000E+00

	 0.00000000E+00	 0.00000000E+00	 0.00000000E+00
	 0.00000000E+00	 0.00000000E+00	 0.00000000E+00
	 0.00000000E+00	 0.00000000E+00	 0.00000000E+00

	 0.00000000E+00	 0.00000000E+00	 0.00000000E+00
	 0.00000000E+00	 0.00000000E+00	 0.00000000E+00
	 0.00000000E+00	 0.00000000E+00	 0.00000000E+00

	 0.00000000E+00	 0.00000000E+00	 0.00000000E+00
	 0.00000000E+00	 0.00000000E+00	 0.00000000E+00
	 0.00000000E+00	 0.00000000E+00	 0.00000000E+00

	 0.00000000E+00	 0.00000000E+00	 0.00000000E+00
	 0.00000000E+00	 0.00000000E+00	 0.00000000E+00
	 0.00000000E+00	 0.00000000E+00	 0.00000000E+00

	 0.00000000E+00	 0.00000000E+00	 0.00000000E+00
	 0.00000000E+00	 0.00000000E+00	 0.00000000E+00
	 0.00000000E+00	 0.00000000E+00	 0.00000000E+00

	 0.00000000E+00	 0.00000000E+00	 0.00000000E+00
	 0.00000000E+00	 0.00000000E+00	 0.00000000E+00
	 0.00000000E+00	 0.00000000E+00	 0.00000000E+00

	 0.00000000E+00	 0.00000000E+00	 0.00000000E+00
	 0.00000000E+00	 0.00000000E+00	 0.00000000E+00
	 0.00000000E+00	 0.00000000E+00	 0.00000000E+00

	 0.00000000E+00	 0.00000000E+00	 0.00000000E+00
	 0.00000000E+00	 0.00000000E+00	 0.00000000E+00
	 0.00000000E+00	 0.00000000E+00	 0.00000000E+00

	 0.00000000E+00	 0.00000000E+00	 0.00000000E+00
	 0.00000000E+00	 0.00000000E+00	 0.00000000E+00
	 0.00000000E+00	 0.00000000E+00	 0.00000000E+00

	 0.00000000E+00	 0.00000000E+00	 0.00000000E+00
	 0.00000000E+00	 0.00000000E+00	 0.00000000E+00
	 0.00000000E+00	 0.00000000E+00	 0.00000000E+00

	 0.00000000E+00	 0.00000000E+00	 0.00000000E+00
	 0.00000000E+00	 0.00000000E+00	 0.00000000E+00
	 0.00000000E+00	 0.00000000E+00	 0.00000000E+00

	 0.00000000E+00	 0.00000000E+00	 0.00000000E+00
	 0.00000000E+00	 0.00000000E+00	 0.00000000E+00
	 0.00000000E+00	 0.00000000E+00	 0.00000000E+00

	 0.00000000E+00	 0.00000000E+00	 0.00000000E+00
	 0.00000000E+00	 0.00000000E+00	 0.00000000E+00
	 0.00000000E+00	 0.00000000E+00	 0.00000000E+00

	 0.00000000E+00	 0.00000000E+00	 0.00000000E+00
	 0.00000000E+00	 0.00000000E+00	 0.00000000E+00
	 0.00000000E+00	 0.00000000E+00	 0.00000000E+00

	 0.00000000E+00	 0.00000000E+00	 0.00000000E+00
	 0.00000000E+00	 0.00000000E+00	 0.00000000E+00
	 0.00000000E+00	 0.00000000E+00	 0.00000000E+00

	 0.00000000E+00	 0.00000000E+00	 0.00000000E+00
	 0.00000000E+00	 0.00000000E+00	 0.00000000E+00
	 0.00000000E+00	 0.00000000E+00	 0.00000000E+00

	 0.00000000E+00	 0.00000000E+00	 0.00000000E+00
	 0.00000000E+00	 0.00000000E+00	 0.00000000E+00
	 0.00000000E+00	 0.00000000E+00	 0.00000000E+00

	 0.00000000E+00	 0.00000000E+00	 0.00000000E+00
	 0.00000000E+00	 0.00000000E+00	 0.00000000E+00
	 0.00000000E+00	 0.00000000E+00	 0.00000000E+00

	 0.00000000E+00	 0.00000000E+00	 0.00000000E+00
	 0.00000000E+00	 0.00000000E+00	 0.00000000E+00
	 0.00000000E+00	 0.00000000E+00	 0.00000000E+00

	 0.00000000E+00	 0.00000000E+00	 0.00000000E+00
	 0.00000000E+00	 0.00000000E+00	 0.00000000E+00
	 0.00000000E+00	 0.00000000E+00	 0.00000000E+00

	 0.00000000E+00	 0.00000000E+00	 0.00000000E+00
	 0.00000000E+00	 0.00000000E+00	 0.00000000E+00
	 0.00000000E+00	 0.00000000E+00	 0.00000000E+00

	 0.00000000E+00	 0.00000000E+00	 0.00000000E+00
	 0.00000000E+00	 0.00000000E+00	 0.00000000E+00
	 0.00000000E+00	 0.00000000E+00	 0.00000000E+00

	 0.00000000E+00	 0.00000000E+00	 0.00000000E+00
	 0.00000000E+00	 0.00000000E+00	 0.00000000E+00
	 0.00000000E+00	 0.00000000E+00	 0.00000000E+00

	 0.00000000E+00	 0.00000000E+00	 0.00000000E+00
	 0.00000000E+00	 0.00000000E+00	 0.00000000E+00
	 0.00000000E+00	 0.00000000E+00	 0.00000000E+00

	 0.00000000E+00	 0.00000000E+00	 0.00000000E+00
	 0.00000000E+00	 0.00000000E+00	 0.00000000E+00
	 0.00000000E+00	 0.00000000E+00	 0.00000000E+00

	 0.00000000E+00	 0.00000000E+00	 0.00000000E+00
	 0.00000000E+00	 0.00000000E+00	 0.00000000E+00
	 0.00000000E+00	 0.00000000E+00	 0.00000000E+00

	 0.00000000E+00	 0.00000000E+00	 0.00000000E+00
	 0.00000000E+00	 0.00000000E+00	 0.00000000E+00
	 0.00000000E+00	 0.00000000E+00	 0.00000000E+00

	 0.00000000E+00	 0.00000000E+00	 0.00000000E+00
	 0.00000000E+00	 0.00000000E+00	 0.00000000E+00
	 0.00000000E+00	 0.00000000E+00	 0.00000000E+00

	 0.00000000E+00	 0.00000000E+00	 0.00000000E+00
	 0.00000000E+00	 0.00000000E+00	 0.00000000E+00
	 0.00000000E+00	 0.00000000E+00	 0.00000000E+00

	 0.00000000E+00	 0.00000000E+00	 0.00000000E+00
	 0.00000000E+00	 0.00000000E+00	 0.00000000E+00
	 0.00000000E+00	 0.00000000E+00	 0.00000000E+00

	 0.00000000E+00	 0.00000000E+00	 0.00000000E+00
	 0.00000000E+00	 0.00000000E+00	 0.00000000E+00
	 0.00000000E+00	 0.00000000E+00	 0.00000000E+00

	 0.00000000E+00	 0.00000000E+00	 0.00000000E+00
	 0.00000000E+00	 0.00000000E+00	 0.00000000E+00
	 0.00000000E+00	 0.00000000E+00	 0.00000000E+00

	 0.00000000E+00	 0.00000000E+00	 0.00000000E+00
	 0.00000000E+00	 0.00000000E+00	 0.00000000E+00
	 0.00000000E+00	 0.00000000E+00	 0.00000000E+00

	 0.00000000E+00	 0.00000000E+00	 0.00000000E+00
	 0.00000000E+00	 0.00000000E+00	 0.00000000E+00
	 0.00000000E+00	 0.00000000E+00	 0.00000000E+00

	 0.00000000E+00	 0.00000000E+00	 0.00000000E+00
	 0.00000000E+00	 0.00000000E+00	 0.00000000E+00
	 0.00000000E+00	 0.00000000E+00	 0.00000000E+00

	 0.00000000E+00	 0.00000000E+00	 0.00000000E+00
	 0.00000000E+00	 0.00000000E+00	 0.00000000E+00
	 0.00000000E+00	 0.00000000E+00	 0.00000000E+00

	 0.00000000E+00	 0.00000000E+00	 0.00000000E+00
	 0.00000000E+00	 0.00000000E+00	 0.00000000E+00
	 0.00000000E+00	 0.00000000E+00	 0.00000000E+00

	 0.00000000E+00	 0.00000000E+00	 0.00000000E+00
	 0.00000000E+00	 0.00000000E+00	 0.00000000E+00
	 0.00000000E+00	 0.00000000E+00	 0.00000000E+00

	 0.00000000E+00	 0.00000000E+00	 0.00000000E+00
	 0.00000000E+00	 0.00000000E+00	 0.00000000E+00
	 0.00000000E+00	 0.00000000E+00	 0.00000000E+00

	 0.00000000E+00	 0.00000000E+00	 0.00000000E+00
	 0.00000000E+00	 0.00000000E+00	 0.00000000E+00
	 0.00000000E+00	 0.00000000E+00	 0.00000000E+00

	 0.00000000E+00	 0.00000000E+00	 0.00000000E+00
	 0.00000000E+00	 0.00000000E+00	 0.00000000E+00
	 0.00000000E+00	 0.00000000E+00	 0.00000000E+00

	 0.00000000E+00	 0.00000000E+00	 0.00000000E+00
	 0.00000000E+00	 0.00000000E+00	 0.00000000E+00
	 0.00000000E+00	 0.00000000E+00	 0.00000000E+00

	 0.00000000E+00	 0.00000000E+00	 0.00000000E+00
	 0.00000000E+00	 0.00000000E+00	 0.00000000E+00
	 0.00000000E+00	 0.00000000E+00	 0.00000000E+00

	 0.00000000E+00	 0.00000000E+00	 0.00000000E+00
	 0.00000000E+00	 0.00000000E+00	 0.00000000E+00
	 0.00000000E+00	 0.00000000E+00	 0.00000000E+00

	 0.00000000E+00	 0.00000000E+00	 0.00000000E+00
	 0.00000000E+00	 0.00000000E+00	 0.00000000E+00
	 0.00000000E+00	 0.00000000E+00	 0.00000000E+00

	 0.00000000E+00	 0.00000000E+00	 0.00000000E+00
	 0.00000000E+00	 0.00000000E+00	 0.00000000E+00
	 0.00000000E+00	 0.00000000E+00	 0.00000000E+00

	 0.00000000E+00	 0.00000000E+00	 0.00000000E+00
	 0.00000000E+00	 0.00000000E+00	 0.00000000E+00
	 0.00000000E+00	 0.00000000E+00	 0.00000000E+00

	 0.00000000E+00	 0.00000000E+00	 0.00000000E+00
	 0.00000000E+00	 0.00000000E+00	 0.00000000E+00
	 0.00000000E+00	 0.00000000E+00	 0.00000000E+00

	 0.00000000E+00	 0.00000000E+00	 0.00000000E+00
	 0.00000000E+00	 0.00000000E+00	 0.00000000E+00
	 0.00000000E+00	 0.00000000E+00	 0.00000000E+00

	 0.00000000E+00	 0.00000000E+00	 0.00000000E+00
	 0.00000000E+00	 0.00000000E+00	 0.00000000E+00
	 0.00000000E+00	 0.00000000E+00	 0.00000000E+00

	 0.00000000E+00	 0.00000000E+00	 0.00000000E+00
	 0.00000000E+00	 0.00000000E+00	 0.00000000E+00
	 0.00000000E+00	 0.00000000E+00	 0.00000000E+00

	 0.00000000E+00	 0.00000000E+00	 0.00000000E+00
	 0.00000000E+00	 0.00000000E+00	 0.00000000E+00
	 0.00000000E+00	 0.00000000E+00	 0.00000000E+00

	 0.00000000E+00	 0.00000000E+00	 0.00000000E+00
	 0.00000000E+00	 0.00000000E+00	 0.00000000E+00
	 0.00000000E+00	 0.00000000E+00	 0.00000000E+00

	 0.00000000E+00	 0.00000000E+00	 0.00000000E+00
	 0.00000000E+00	 0.00000000E+00	 0.00000000E+00
	 0.00000000E+00	 0.00000000E+00	 0.00000000E+00

	 0.00000000E+00	 0.00000000E+00	 0.00000000E+00
	 0.00000000E+00	 0.00000000E+00	 0.00000000E+00
	 0.00000000E+00	 0.00000000E+00	 0.00000000E+00

	 0.00000000E+00	 0.00000000E+00	 0.00000000E+00
	 0.00000000E+00	 0.00000000E+00	 0.00000000E+00
	 0.00000000E+00	 0.00000000E+00	 0.00000000E+00

	 0.00000000E+00	 0.00000000E+00	 0.00000000E+00
	 0.00000000E+00	 0.00000000E+00	 0.00000000E+00
	 0.00000000E+00	 0.00000000E+00	 0.00000000E+00

	 0.00000000E+00	 0.00000000E+00	 0.00000000E+00
	 0.00000000E+00	 0.00000000E+00	 0.00000000E+00
	 0.00000000E+00	 0.00000000E+00	 0.00000000E+00

	 0.00000000E+00	 0.00000000E+00	 0.00000000E+00
	 0.00000000E+00	 0.00000000E+00	 0.00000000E+00
	 0.00000000E+00	 0.00000000E+00	 0.00000000E+00

	 0.00000000E+00	 0.00000000E+00	 0.00000000E+00
	 0.00000000E+00	 0.00000000E+00	 0.00000000E+00
	 0.00000000E+00	 0.00000000E+00	 0.00000000E+00

	 0.00000000E+00	 0.00000000E+00	 0.00000000E+00
	 0.00000000E+00	 0.00000000E+00	 0.00000000E+00
	 0.00000000E+00	 0.00000000E+00	 0.00000000E+00

	 0.00000000E+00	 0.00000000E+00	 0.00000000E+00
	 0.00000000E+00	 0.00000000E+00	 0.00000000E+00
	 0.00000000E+00	 0.00000000E+00	 0.00000000E+00

	 0.00000000E+00	 0.00000000E+00	 0.00000000E+00
	 0.00000000E+00	 0.00000000E+00	 0.00000000E+00
	 0.00000000E+00	 0.00000000E+00	 0.00000000E+00

	 0.00000000E+00	 0.00000000E+00	 0.00000000E+00
	 0.00000000E+00	 0.00000000E+00	 0.00000000E+00
	 0.00000000E+00	 0.00000000E+00	 0.00000000E+00

	 0.00000000E+00	 0.00000000E+00	 0.00000000E+00
	 0.00000000E+00	 0.00000000E+00	 0.00000000E+00
	 0.00000000E+00	 0.00000000E+00	 0.00000000E+00

	 0.00000000E+00	 0.00000000E+00	 0.00000000E+00
	 0.00000000E+00	 0.00000000E+00	 0.00000000E+00
	 0.00000000E+00	 0.00000000E+00	 0.00000000E+00

	 0.00000000E+00	 0.00000000E+00	 0.00000000E+00
	 0.00000000E+00	 0.00000000E+00	 0.00000000E+00
	 0.00000000E+00	 0.00000000E+00	 0.00000000E+00

	 0.00000000E+00	 0.00000000E+00	 0.00000000E+00
	 0.00000000E+00	 0.00000000E+00	 0.00000000E+00
	 0.00000000E+00	 0.00000000E+00	 0.00000000E+00

	 0.00000000E+00	 0.00000000E+00	 0.00000000E+00
	 0.00000000E+00	 0.00000000E+00	 0.00000000E+00
	 0.00000000E+00	 0.00000000E+00	 0.00000000E+00

	 0.00000000E+00	 0.00000000E+00	 0.00000000E+00
	 0.00000000E+00	 0.00000000E+00	 0.00000000E+00
	 0.00000000E+00	 0.00000000E+00	 0.00000000E+00

	 0.00000000E+00	 0.00000000E+00	 0.00000000E+00
	 0.00000000E+00	 0.00000000E+00	 0.00000000E+00
	 0.00000000E+00	 0.00000000E+00	 0.00000000E+00

	 0.00000000E+00	 0.00000000E+00	 0.00000000E+00
	 0.00000000E+00	 0.00000000E+00	 0.00000000E+00
	 0.00000000E+00	 0.00000000E+00	 0.00000000E+00

	 0.00000000E+00	 0.00000000E+00	 0.00000000E+00
	 0.00000000E+00	 0.00000000E+00	 0.00000000E+00
	 0.00000000E+00	 0.00000000E+00	 0.00000000E+00

	 0.00000000E+00	 0.00000000E+00	 0.00000000E+00
	 0.00000000E+00	 0.00000000E+00	 0.00000000E+00
	 0.00000000E+00	 0.00000000E+00	 0.00000000E+00

	 0.00000000E+00	 0.00000000E+00	 0.00000000E+00
	 0.00000000E+00	 0.00000000E+00	 0.00000000E+00
	 0.00000000E+00	 0.00000000E+00	 0.00000000E+00

	 0.00000000E+00	 0.00000000E+00	 0.00000000E+00
	 0.00000000E+00	 0.00000000E+00	 0.00000000E+00
	 0.00000000E+00	 0.00000000E+00	 0.00000000E+00

	 0.00000000E+00	 0.00000000E+00	 0.00000000E+00
	 0.00000000E+00	 0.00000000E+00	 0.00000000E+00
	 0.00000000E+00	 0.00000000E+00	 0.00000000E+00

	 0.00000000E+00	 0.00000000E+00	 0.00000000E+00
	 0.00000000E+00	 0.00000000E+00	 0.00000000E+00
	 0.00000000E+00	 0.00000000E+00	 0.00000000E+00

	 0.00000000E+00	 0.00000000E+00	 0.00000000E+00
	 0.00000000E+00	 0.00000000E+00	 0.00000000E+00
	 0.00000000E+00	 0.00000000E+00	 0.00000000E+00

	 0.00000000E+00	 0.00000000E+00	 0.00000000E+00
	 0.00000000E+00	 0.00000000E+00	 0.00000000E+00
	 0.00000000E+00	 0.00000000E+00	 0.00000000E+00

	 0.00000000E+00	 0.00000000E+00	 0.00000000E+00
	 0.00000000E+00	 0.00000000E+00	 0.00000000E+00
	 0.00000000E+00	 0.00000000E+00	 0.00000000E+00

	 0.00000000E+00	 0.00000000E+00	 0.00000000E+00
	 0.00000000E+00	 0.00000000E+00	 0.00000000E+00
	 0.00000000E+00	 0.00000000E+00	 0.00000000E+00

	 0.00000000E+00	 0.00000000E+00	 0.00000000E+00
	 0.00000000E+00	 0.00000000E+00	 0.00000000E+00
	 0.00000000E+00	 0.00000000E+00	 0.00000000E+00

	 0.00000000E+00	 0.00000000E+00	 0.00000000E+00
	 0.00000000E+00	 0.00000000E+00	 0.00000000E+00
	 0.00000000E+00	 0.00000000E+00	 0.00000000E+00

	 0.00000000E+00	 0.00000000E+00	 0.00000000E+00
	 0.00000000E+00	 0.00000000E+00	 0.00000000E+00
	 0.00000000E+00	 0.00000000E+00	 0.00000000E+00

	 0.00000000E+00	 0.00000000E+00	 0.00000000E+00
	 0.00000000E+00	 0.00000000E+00	 0.00000000E+00
	 0.00000000E+00	 0.00000000E+00	 0.00000000E+00

	 0.00000000E+00	 0.00000000E+00	 0.00000000E+00
	 0.00000000E+00	 0.00000000E+00	 0.00000000E+00
	 0.00000000E+00	 0.00000000E+00	 0.00000000E+00

	 0.00000000E+00	 0.00000000E+00	 0.00000000E+00
	 0.00000000E+00	 0.00000000E+00	 0.00000000E+00
	 0.00000000E+00	 0.00000000E+00	 0.00000000E+00

	 0.00000000E+00	 0.00000000E+00	 0.00000000E+00
	 0.00000000E+00	 0.00000000E+00	 0.00000000E+00
	 0.00000000E+00	 0.00000000E+00	 0.00000000E+00

	 0.00000000E+00	 0.00000000E+00	 0.00000000E+00
	 0.00000000E+00	 0.00000000E+00	 0.00000000E+00
	 0.00000000E+00	 0.00000000E+00	 0.00000000E+00

	 0.00000000E+00	 0.00000000E+00	 0.00000000E+00
	 0.00000000E+00	 0.00000000E+00	 0.00000000E+00
	 0.00000000E+00	 0.00000000E+00	 0.00000000E+00

	 0.00000000E+00	 0.00000000E+00	 0.00000000E+00
	 0.00000000E+00	 0.00000000E+00	 0.00000000E+00
	 0.00000000E+00	 0.00000000E+00	 0.00000000E+00

	 0.00000000E+00	 0.00000000E+00	 0.00000000E+00
	 0.00000000E+00	 0.00000000E+00	 0.00000000E+00
	 0.00000000E+00	 0.00000000E+00	 0.00000000E+00

	 0.00000000E+00	 0.00000000E+00	 0.00000000E+00
	 0.00000000E+00	 0.00000000E+00	 0.00000000E+00
	 0.00000000E+00	 0.00000000E+00	 0.00000000E+00

	 0.00000000E+00	 0.00000000E+00	 0.00000000E+00
	 0.00000000E+00	 0.00000000E+00	 0.00000000E+00
	 0.00000000E+00	 0.00000000E+00	 0.00000000E+00

	 0.00000000E+00	 0.00000000E+00	 0.00000000E+00
	 0.00000000E+00	 0.00000000E+00	 0.00000000E+00
	 0.00000000E+00	 0.00000000E+00	 0.00000000E+00

	 0.00000000E+00	 0.00000000E+00	 0.00000000E+00
	 0.00000000E+00	 0.00000000E+00	 0.00000000E+00
	 0.00000000E+00	 0.00000000E+00	 0.00000000E+00

	 0.00000000E+00	 0.00000000E+00	 0.00000000E+00
	 0.00000000E+00	 0.00000000E+00	 0.00000000E+00
	 0.00000000E+00	 0.00000000E+00	 0.00000000E+00

	 0.00000000E+00	 0.00000000E+00	 0.00000000E+00
	 0.00000000E+00	 0.00000000E+00	 0.00000000E+00
	 0.00000000E+00	 0.00000000E+00	 0.00000000E+00

	 0.00000000E+00	 0.00000000E+00	 0.00000000E+00
	 0.00000000E+00	 0.00000000E+00	 0.00000000E+00
	 0.00000000E+00	 0.00000000E+00	 0.00000000E+00

	 0.00000000E+00	 0.00000000E+00	 0.00000000E+00
	 0.00000000E+00	 0.00000000E+00	 0.00000000E+00
	 0.00000000E+00	 0.00000000E+00	 0.00000000E+00

	 0.00000000E+00	 0.00000000E+00	 0.00000000E+00
	 0.00000000E+00	 0.00000000E+00	 0.00000000E+00
	 0.00000000E+00	 0.00000000E+00	 0.00000000E+00

	 0.00000000E+00	 0.00000000E+00	 0.00000000E+00
	 0.00000000E+00	 0.00000000E+00	 0.00000000E+00
	 0.00000000E+00	 0.00000000E+00	 0.00000000E+00

	 0.00000000E+00	 0.00000000E+00	 0.00000000E+00
	 0.00000000E+00	 0.00000000E+00	 0.00000000E+00
	 0.00000000E+00	 0.00000000E+00	 0.00000000E+00

	 0.00000000E+00	 0.00000000E+00	 0.00000000E+00
	 0.00000000E+00	 0.00000000E+00	 0.00000000E+00
	 0.00000000E+00	 0.00000000E+00	 0.00000000E+00

	 0.00000000E+00	 0.00000000E+00	 0.00000000E+00
	 0.00000000E+00	 0.00000000E+00	 0.00000000E+00
	 0.00000000E+00	 0.00000000E+00	 0.00000000E+00

	 0.00000000E+00	 0.00000000E+00	 0.00000000E+00
	 0.00000000E+00	 0.00000000E+00	 0.00000000E+00
	 0.00000000E+00	 0.00000000E+00	 0.00000000E+00

	 0.00000000E+00	 0.00000000E+00	 0.00000000E+00
	 0.00000000E+00	 0.00000000E+00	 0.00000000E+00
	 0.00000000E+00	 0.00000000E+00	 0.00000000E+00

	 0.00000000E+00	 0.00000000E+00	 0.00000000E+00
	 0.00000000E+00	 0.00000000E+00	 0.00000000E+00
	 0.00000000E+00	 0.00000000E+00	 0.00000000E+00

	 0.00000000E+00	 0.00000000E+00	 0.00000000E+00
	 0.00000000E+00	 0.00000000E+00	 0.00000000E+00
	 0.00000000E+00	 0.00000000E+00	 0.00000000E+00

	 0.00000000E+00	 0.00000000E+00	 0.00000000E+00
	 0.00000000E+00	 0.00000000E+00	 0.00000000E+00
	 0.00000000E+00	 0.00000000E+00	 0.00000000E+00

	 0.00000000E+00	 0.00000000E+00	 0.00000000E+00
	 0.00000000E+00	 0.00000000E+00	 0.00000000E+00
	 0.00000000E+00	 0.00000000E+00	 0.00000000E+00

	 0.00000000E+00	 0.00000000E+00	 0.00000000E+00
	 0.00000000E+00	 0.00000000E+00	 0.00000000E+00
	 0.00000000E+00	 0.00000000E+00	 0.00000000E+00

	 0.00000000E+00	 0.00000000E+00	 0.00000000E+00
	 0.00000000E+00	 0.00000000E+00	 0.00000000E+00
	 0.00000000E+00	 0.00000000E+00	 0.00000000E+00

	 0.00000000E+00	 0.00000000E+00	 0.00000000E+00
	 0.00000000E+00	 0.00000000E+00	 0.00000000E+00
	 0.00000000E+00	 0.00000000E+00	 0.00000000E+00

	 0.00000000E+00	 0.00000000E+00	 0.00000000E+00
	 0.00000000E+00	 0.00000000E+00	 0.00000000E+00
	 0.00000000E+00	 0.00000000E+00	 0.00000000E+00

	 0.00000000E+00	 0.00000000E+00	 0.00000000E+00
	 0.00000000E+00	 0.00000000E+00	 0.00000000E+00
	 0.00000000E+00	 0.00000000E+00	 0.00000000E+00

	 0.00000000E+00	 0.00000000E+00	 0.00000000E+00
	 0.00000000E+00	 0.00000000E+00	 0.00000000E+00
	 0.00000000E+00	 0.00000000E+00	 0.00000000E+00

	 0.00000000E+00	 0.00000000E+00	 0.00000000E+00
	 0.00000000E+00	 0.00000000E+00	 0.00000000E+00
	 0.00000000E+00	 0.00000000E+00	 0.00000000E+00

	 0.00000000E+00	 0.00000000E+00	 0.00000000E+00
	 0.00000000E+00	 0.00000000E+00	 0.00000000E+00
	 0.00000000E+00	 0.00000000E+00	 0.00000000E+00

	 0.00000000E+00	 0.00000000E+00	 0.00000000E+00
	 0.00000000E+00	 0.00000000E+00	 0.00000000E+00
	 0.00000000E+00	 0.00000000E+00	 0.00000000E+00

	 0.00000000E+00	 0.00000000E+00	 0.00000000E+00
	 0.00000000E+00	 0.00000000E+00	 0.00000000E+00
	 0.00000000E+00	 0.00000000E+00	 0.00000000E+00

	 0.00000000E+00	 0.00000000E+00	 0.00000000E+00
	 0.00000000E+00	 0.00000000E+00	 0.00000000E+00
	 0.00000000E+00	 0.00000000E+00	 0.00000000E+00

	 0.00000000E+00	 0.00000000E+00	 0.00000000E+00
	 0.00000000E+00	 0.00000000E+00	 0.00000000E+00
	 0.00000000E+00	 0.00000000E+00	 0.00000000E+00

	 0.00000000E+00	 0.00000000E+00	 0.00000000E+00
	 0.00000000E+00	 0.00000000E+00	 0.00000000E+00
	 0.00000000E+00	 0.00000000E+00	 0.00000000E+00

	 0.00000000E+00	 0.00000000E+00	 0.00000000E+00
	 0.00000000E+00	 0.00000000E+00	 0.00000000E+00
	 0.00000000E+00	 0.00000000E+00	 0.00000000E+00

	 0.00000000E+00	 0.00000000E+00	 0.00000000E+00
	 0.00000000E+00	 0.00000000E+00	 0.00000000E+00
	 0.00000000E+00	 0.00000000E+00	 0.00000000E+00

	 0.00000000E+00	 0.00000000E+00	 0.00000000E+00
	 0.00000000E+00	 0.00000000E+00	 0.00000000E+00
	 0.00000000E+00	 0.00000000E+00	 0.00000000E+00

	 0.00000000E+00	 0.00000000E+00	 0.00000000E+00
	 0.00000000E+00	 0.00000000E+00	 0.00000000E+00
	 0.00000000E+00	 0.00000000E+00	 0.00000000E+00

	 0.00000000E+00	 0.00000000E+00	 0.00000000E+00
	 0.00000000E+00	 0.00000000E+00	 0.00000000E+00
	 0.00000000E+00	 0.00000000E+00	 0.00000000E+00

	 0.00000000E+00	 0.00000000E+00	 0.00000000E+00
	 0.00000000E+00	 0.00000000E+00	 0.00000000E+00
	 0.00000000E+00	 0.00000000E+00	 0.00000000E+00

	 0.00000000E+00	 0.00000000E+00	 0.00000000E+00
	 0.00000000E+00	 0.00000000E+00	 0.00000000E+00
	 0.00000000E+00	 0.00000000E+00	 0.00000000E+00

	 0.00000000E+00	 0.00000000E+00	 0.00000000E+00
	 0.00000000E+00	 0.00000000E+00	 0.00000000E+00
	 0.00000000E+00	 0.00000000E+00	 0.00000000E+00

	 0.00000000E+00	 0.00000000E+00	 0.00000000E+00
	 0.00000000E+00	 0.00000000E+00	 0.00000000E+00
	 0.00000000E+00	 0.00000000E+00	 0.00000000E+00

	 0.00000000E+00	 0.00000000E+00	 0.00000000E+00
	 0.00000000E+00	 0.00000000E+00	 0.00000000E+00
	 0.00000000E+00	 0.00000000E+00	 0.00000000E+00

	 0.00000000E+00	 0.00000000E+00	 0.00000000E+00
	 0.00000000E+00	 0.00000000E+00	 0.00000000E+00
	 0.00000000E+00	 0.00000000E+00	 0.00000000E+00

	 0.00000000E+00	 0.00000000E+00	 0.00000000E+00
	 0.00000000E+00	 0.00000000E+00	 0.00000000E+00
	 0.00000000E+00	 0.00000000E+00	 0.00000000E+00

	 0.00000000E+00	 0.00000000E+00	 0.00000000E+00
	 0.00000000E+00	 0.00000000E+00	 0.00000000E+00
	 0.00000000E+00	 0.00000000E+00	 0.00000000E+00

	 0.00000000E+00	 0.00000000E+00	 0.00000000E+00
	 0.00000000E+00	 0.00000000E+00	 0.00000000E+00
	 0.00000000E+00	 0.00000000E+00	 0.00000000E+00

	 0.00000000E+00	 0.00000000E+00	 0.00000000E+00
	 0.00000000E+00	 0.00000000E+00	 0.00000000E+00
	 0.00000000E+00	 0.00000000E+00	 0.00000000E+00

	 0.00000000E+00	 0.00000000E+00	 0.00000000E+00
	 0.00000000E+00	 0.00000000E+00	 0.00000000E+00
	 0.00000000E+00	 0.00000000E+00	 0.00000000E+00

	 0.00000000E+00	 0.00000000E+00	 0.00000000E+00
	 0.00000000E+00	 0.00000000E+00	 0.00000000E+00
	 0.00000000E+00	 0.00000000E+00	 0.00000000E+00

	 0.00000000E+00	 0.00000000E+00	 0.00000000E+00
	 0.00000000E+00	 0.00000000E+00	 0.00000000E+00
	 0.00000000E+00	 0.00000000E+00	 0.00000000E+00

	 0.00000000E+00	 0.00000000E+00	 0.00000000E+00
	 0.00000000E+00	 0.00000000E+00	 0.00000000E+00
	 0.00000000E+00	 0.00000000E+00	 0.00000000E+00

	 0.00000000E+00	 0.00000000E+00	 0.00000000E+00
	 0.00000000E+00	 0.00000000E+00	 0.00000000E+00
	 0.00000000E+00	 0.00000000E+00	 0.00000000E+00

	 0.00000000E+00	 0.00000000E+00	 0.00000000E+00
	 0.00000000E+00	 0.00000000E+00	 0.00000000E+00
	 0.00000000E+00	 0.00000000E+00	 0.00000000E+00

	 0.00000000E+00	 0.00000000E+00	 0.00000000E+00
	 0.00000000E+00	 0.00000000E+00	 0.00000000E+00
	 0.00000000E+00	 0.00000000E+00	 0.00000000E+00

	 0.00000000E+00	 0.00000000E+00	 0.00000000E+00
	 0.00000000E+00	 0.00000000E+00	 0.00000000E+00
	 0.00000000E+00	 0.00000000E+00	 0.00000000E+00

	 0.00000000E+00	 0.00000000E+00	 0.00000000E+00
	 0.00000000E+00	 0.00000000E+00	 0.00000000E+00
	 0.00000000E+00	 0.00000000E+00	 0.00000000E+00

	 0.00000000E+00	 0.00000000E+00	 0.00000000E+00
	 0.00000000E+00	 0.00000000E+00	 0.00000000E+00
	 0.00000000E+00	 0.00000000E+00	 0.00000000E+00

	 0.00000000E+00	 0.00000000E+00	 0.00000000E+00
	 0.00000000E+00	 0.00000000E+00	 0.00000000E+00
	 0.00000000E+00	 0.00000000E+00	 0.00000000E+00

	 0.00000000E+00	 0.00000000E+00	 0.00000000E+00
	 0.00000000E+00	 0.00000000E+00	 0.00000000E+00
	 0.00000000E+00	 0.00000000E+00	 0.00000000E+00

	 0.00000000E+00	 0.00000000E+00	 0.00000000E+00
	 0.00000000E+00	 0.00000000E+00	 0.00000000E+00
	 0.00000000E+00	 0.00000000E+00	 0.00000000E+00

	 0.00000000E+00	 0.00000000E+00	 0.00000000E+00
	 0.00000000E+00	 0.00000000E+00	 0.00000000E+00
	 0.00000000E+00	 0.00000000E+00	 0.00000000E+00

	 0.00000000E+00	 0.00000000E+00	 0.00000000E+00
	 0.00000000E+00	 0.00000000E+00	 0.00000000E+00
	 0.00000000E+00	 0.00000000E+00	 0.00000000E+00

	 0.00000000E+00	 0.00000000E+00	 0.00000000E+00
	 0.00000000E+00	 0.00000000E+00	 0.00000000E+00
	 0.00000000E+00	 0.00000000E+00	 0.00000000E+00

	 0.00000000E+00	 0.00000000E+00	 0.00000000E+00
	 0.00000000E+00	 0.00000000E+00	 0.00000000E+00
	 0.00000000E+00	 0.00000000E+00	 0.00000000E+00

	 0.00000000E+00	 0.00000000E+00	 0.00000000E+00
	 0.00000000E+00	 0.00000000E+00	 0.00000000E+00
	 0.00000000E+00	 0.00000000E+00	 0.00000000E+00

	 0.00000000E+00	 0.00000000E+00	 0.00000000E+00
	 0.00000000E+00	 0.00000000E+00	 0.00000000E+00
	 0.00000000E+00	 0.00000000E+00	 0.00000000E+00

	 0.00000000E+00	 0.00000000E+00	 0.00000000E+00
	 0.00000000E+00	 0.00000000E+00	 0.00000000E+00
	 0.00000000E+00	 0.00000000E+00	 0.00000000E+00

	 0.00000000E+00	 0.00000000E+00	 0.00000000E+00
	 0.00000000E+00	 0.00000000E+00	 0.00000000E+00
	 0.00000000E+00	 0.00000000E+00	 0.00000000E+00

	 0.00000000E+00	 0.00000000E+00	 0.00000000E+00
	 0.00000000E+00	 0.00000000E+00	 0.00000000E+00
	 0.00000000E+00	 0.00000000E+00	 0.00000000E+00

	 0.00000000E+00	 0.00000000E+00	 0.00000000E+00
	 0.00000000E+00	 0.00000000E+00	 0.00000000E+00
	 0.00000000E+00	 0.00000000E+00	 0.00000000E+00

	 0.00000000E+00	 0.00000000E+00	 0.00000000E+00
	 0.00000000E+00	 0.00000000E+00	 0.00000000E+00
	 0.00000000E+00	 0.00000000E+00	 0.00000000E+00

	 0.00000000E+00	 0.00000000E+00	 0.00000000E+00
	 0.00000000E+00	 0.00000000E+00	 0.00000000E+00
	 0.00000000E+00	 0.00000000E+00	 0.00000000E+00

	 0.00000000E+00	 0.00000000E+00	 0.00000000E+00
	 0.00000000E+00	 0.00000000E+00	 0.00000000E+00
	 0.00000000E+00	 0.00000000E+00	 0.00000000E+00

	 0.00000000E+00	 0.00000000E+00	 0.00000000E+00
	 0.00000000E+00	 0.00000000E+00	 0.00000000E+00
	 0.00000000E+00	 0.00000000E+00	 0.00000000E+00

	 0.00000000E+00	 0.00000000E+00	 0.00000000E+00
	 0.00000000E+00	 0.00000000E+00	 0.00000000E+00
	 0.00000000E+00	 0.00000000E+00	 0.00000000E+00

	 0.00000000E+00	 0.00000000E+00	 0.00000000E+00
	 0.00000000E+00	 0.00000000E+00	 0.00000000E+00
	 0.00000000E+00	 0.00000000E+00	 0.00000000E+00

	 0.00000000E+00	 0.00000000E+00	 0.00000000E+00
	 0.00000000E+00	 0.00000000E+00	 0.00000000E+00
	 0.00000000E+00	 0.00000000E+00	 0.00000000E+00

	 0.00000000E+00	 0.00000000E+00	 0.00000000E+00
	 0.00000000E+00	 0.00000000E+00	 0.00000000E+00
	 0.00000000E+00	 0.00000000E+00	 0.00000000E+00

	 0.00000000E+00	 0.00000000E+00	 0.00000000E+00
	 0.00000000E+00	 0.00000000E+00	 0.00000000E+00
	 0.00000000E+00	 0.00000000E+00	 0.00000000E+00

	 0.00000000E+00	 0.00000000E+00	 0.00000000E+00
	 0.00000000E+00	 0.00000000E+00	 0.00000000E+00
	 0.00000000E+00	 0.00000000E+00	 0.00000000E+00

	 0.00000000E+00	 0.00000000E+00	 0.00000000E+00
	 0.00000000E+00	 0.00000000E+00	 0.00000000E+00
	 0.00000000E+00	 0.00000000E+00	 0.00000000E+00

	 0.00000000E+00	 0.00000000E+00	 0.00000000E+00
	 0.00000000E+00	 0.00000000E+00	 0.00000000E+00
	 0.00000000E+00	 0.00000000E+00	 0.00000000E+00

	 0.00000000E+00	 0.00000000E+00	 0.00000000E+00
	 0.00000000E+00	 0.00000000E+00	 0.00000000E+00
	 0.00000000E+00	 0.00000000E+00	 0.00000000E+00

	 0.00000000E+00	 0.00000000E+00	 0.00000000E+00
	 0.00000000E+00	 0.00000000E+00	 0.00000000E+00
	 0.00000000E+00	 0.00000000E+00	 0.00000000E+00

	 0.00000000E+00	 0.00000000E+00	 0.00000000E+00
	 0.00000000E+00	 0.00000000E+00	 0.00000000E+00
	 0.00000000E+00	 0.00000000E+00	 0.00000000E+00

	 0.00000000E+00	 0.00000000E+00	 0.00000000E+00
	 0.00000000E+00	 0.00000000E+00	 0.00000000E+00
	 0.00000000E+00	 0.00000000E+00	 0.00000000E+00

	 0.00000000E+00	 0.00000000E+00	 0.00000000E+00
	 0.00000000E+00	 0.00000000E+00	 0.00000000E+00
	 0.00000000E+00	 0.00000000E+00	 0.00000000E+00

	 0.00000000E+00	 0.00000000E+00	 0.00000000E+00
	 0.00000000E+00	 0.00000000E+00	 0.00000000E+00
	 0.00000000E+00	 0.00000000E+00	 0.00000000E+00

	 0.00000000E+00	 0.00000000E+00	 0.00000000E+00
	 0.00000000E+00	 0.00000000E+00	 0.00000000E+00
	 0.00000000E+00	 0.00000000E+00	 0.00000000E+00

	 0.00000000E+00	 0.00000000E+00	 0.00000000E+00
	 0.00000000E+00	 0.00000000E+00	 0.00000000E+00
	 0.00000000E+00	 0.00000000E+00	 0.00000000E+00

	 0.00000000E+00	 0.00000000E+00	 0.00000000E+00
	 0.00000000E+00	 0.00000000E+00	 0.00000000E+00
	 0.00000000E+00	 0.00000000E+00	 0.00000000E+00

	 0.00000000E+00	 0.00000000E+00	 0.00000000E+00
	 0.00000000E+00	 0.00000000E+00	 0.00000000E+00
	 0.00000000E+00	 0.00000000E+00	 0.00000000E+00

	 0.00000000E+00	 0.00000000E+00	 0.00000000E+00
	 0.00000000E+00	 0.00000000E+00	 0.00000000E+00
	 0.00000000E+00	 0.00000000E+00	 0.00000000E+00

	 0.00000000E+00	 0.00000000E+00	 0.00000000E+00
	 0.00000000E+00	 0.00000000E+00	 0.00000000E+00
	 0.00000000E+00	 0.00000000E+00	 0.00000000E+00

	 0.00000000E+00	 0.00000000E+00	 0.00000000E+00
	 0.00000000E+00	 0.00000000E+00	 0.00000000E+00
	 0.00000000E+00	 0.00000000E+00	 0.00000000E+00

	 0.00000000E+00	 0.00000000E+00	 0.00000000E+00
	 0.00000000E+00	 0.00000000E+00	 0.00000000E+00
	 0.00000000E+00	 0.00000000E+00	 0.00000000E+00

	 0.00000000E+00	 0.00000000E+00	 0.00000000E+00
	 0.00000000E+00	 0.00000000E+00	 0.00000000E+00
	 0.00000000E+00	 0.00000000E+00	 0.00000000E+00

	 0.00000000E+00	 0.00000000E+00	 0.00000000E+00
	 0.00000000E+00	 0.00000000E+00	 0.00000000E+00
	 0.00000000E+00	 0.00000000E+00	 0.00000000E+00

	 0.00000000E+00	 0.00000000E+00	 0.00000000E+00
	 0.00000000E+00	 0.00000000E+00	 0.00000000E+00
	 0.00000000E+00	 0.00000000E+00	 0.00000000E+00

	 0.00000000E+00	 0.00000000E+00	 0.00000000E+00
	 0.00000000E+00	 0.00000000E+00	 0.00000000E+00
	 0.00000000E+00	 0.00000000E+00	 0.00000000E+00

	 0.00000000E+00	 0.00000000E+00	 0.00000000E+00
	 0.00000000E+00	 0.00000000E+00	 0.00000000E+00
	 0.00000000E+00	 0.00000000E+00	 0.00000000E+00

	 0.00000000E+00	 0.00000000E+00	 0.00000000E+00
	 0.00000000E+00	 0.00000000E+00	 0.00000000E+00
	 0.00000000E+00	 0.00000000E+00	 0.00000000E+00

	 0.00000000E+00	 0.00000000E+00	 0.00000000E+00
	 0.00000000E+00	 0.00000000E+00	 0.00000000E+00
	 0.00000000E+00	 0.00000000E+00	 0.00000000E+00

	 0.00000000E+00	 0.00000000E+00	 0.00000000E+00
	 0.00000000E+00	 0.00000000E+00	 0.00000000E+00
	 0.00000000E+00	 0.00000000E+00	 0.00000000E+00

	 0.00000000E+00	 0.00000000E+00	 0.00000000E+00
	 0.00000000E+00	 0.00000000E+00	 0.00000000E+00
	 0.00000000E+00	 0.00000000E+00	 0.00000000E+00

	 0.00000000E+00	 0.00000000E+00	 0.00000000E+00
	 0.00000000E+00	 0.00000000E+00	 0.00000000E+00
	 0.00000000E+00	 0.00000000E+00	 0.00000000E+00

	 0.00000000E+00	 0.00000000E+00	 0.00000000E+00
	 0.00000000E+00	 0.00000000E+00	 0.00000000E+00
	 0.00000000E+00	 0.00000000E+00	 0.00000000E+00

	 0.00000000E+00	 0.00000000E+00	 0.00000000E+00
	 0.00000000E+00	 0.00000000E+00	 0.00000000E+00
	 0.00000000E+00	 0.00000000E+00	 0.00000000E+00

	 0.00000000E+00	 0.00000000E+00	 0.00000000E+00
	 0.00000000E+00	 0.00000000E+00	 0.00000000E+00
	 0.00000000E+00	 0.00000000E+00	 0.00000000E+00

	 0.00000000E+00	 0.00000000E+00	 0.00000000E+00
	 0.00000000E+00	 0.00000000E+00	 0.00000000E+00
	 0.00000000E+00	 0.00000000E+00	 0.00000000E+00

	 0.00000000E+00	 0.00000000E+00	 0.00000000E+00
	 0.00000000E+00	 0.00000000E+00	 0.00000000E+00
	 0.00000000E+00	 0.00000000E+00	 0.00000000E+00

	 0.00000000E+00	 0.00000000E+00	 0.00000000E+00
	 0.00000000E+00	 0.00000000E+00	 0.00000000E+00
	 0.00000000E+00	 0.00000000E+00	 0.00000000E+00

	 0.00000000E+00	 0.00000000E+00	 0.00000000E+00
	 0.00000000E+00	 0.00000000E+00	 0.00000000E+00
	 0.00000000E+00	 0.00000000E+00	 0.00000000E+00

	 0.00000000E+00	 0.00000000E+00	 0.00000000E+00
	 0.00000000E+00	 0.00000000E+00	 0.00000000E+00
	 0.00000000E+00	 0.00000000E+00	 0.00000000E+00

	 0.00000000E+00	 0.00000000E+00	 0.00000000E+00
	 0.00000000E+00	 0.00000000E+00	 0.00000000E+00
	 0.00000000E+00	 0.00000000E+00	 0.00000000E+00

	 0.00000000E+00	 0.00000000E+00	 0.00000000E+00
	 0.00000000E+00	 0.00000000E+00	 0.00000000E+00
	 0.00000000E+00	 0.00000000E+00	 0.00000000E+00

	 0.00000000E+00	 0.00000000E+00	 0.00000000E+00
	 0.00000000E+00	 0.00000000E+00	 0.00000000E+00
	 0.00000000E+00	 0.00000000E+00	 0.00000000E+00

	 0.00000000E+00	 0.00000000E+00	 0.00000000E+00
	 0.00000000E+00	 0.00000000E+00	 0.00000000E+00
	 0.00000000E+00	 0.00000000E+00	 0.00000000E+00

	 0.00000000E+00	 0.00000000E+00	 0.00000000E+00
	 0.00000000E+00	 0.00000000E+00	 0.00000000E+00
	 0.00000000E+00	 0.00000000E+00	 0.00000000E+00

	 0.00000000E+00	 0.00000000E+00	 0.00000000E+00
	 0.00000000E+00	 0.00000000E+00	 0.00000000E+00
	 0.00000000E+00	 0.00000000E+00	 0.00000000E+00

	 0.00000000E+00	 0.00000000E+00	 0.00000000E+00
	 0.00000000E+00	 0.00000000E+00	 0.00000000E+00
	 0.00000000E+00	 0.00000000E+00	 0.00000000E+00

	 0.00000000E+00	 0.00000000E+00	 0.00000000E+00
	 0.00000000E+00	 0.00000000E+00	 0.00000000E+00
	 0.00000000E+00	 0.00000000E+00	 0.00000000E+00

	 0.00000000E+00	 0.00000000E+00	 0.00000000E+00
	 0.00000000E+00	 0.00000000E+00	 0.00000000E+00
	 0.00000000E+00	 0.00000000E+00	 0.00000000E+00

	 0.00000000E+00	 0.00000000E+00	 0.00000000E+00
	 0.00000000E+00	 0.00000000E+00	 0.00000000E+00
	 0.00000000E+00	 0.00000000E+00	 0.00000000E+00

	 0.00000000E+00	 0.00000000E+00	 0.00000000E+00
	 0.00000000E+00	 0.00000000E+00	 0.00000000E+00
	 0.00000000E+00	 0.00000000E+00	 0.00000000E+00

	 0.00000000E+00	 0.00000000E+00	 0.00000000E+00
	 0.00000000E+00	 0.00000000E+00	 0.00000000E+00
	 0.00000000E+00	 0.00000000E+00	 0.00000000E+00

	 0.00000000E+00	 0.00000000E+00	 0.00000000E+00
	 0.00000000E+00	 0.00000000E+00	 0.00000000E+00
	 0.00000000E+00	 0.00000000E+00	 0.00000000E+00

	 0.00000000E+00	 0.00000000E+00	 0.00000000E+00
	 0.00000000E+00	 0.00000000E+00	 0.00000000E+00
	 0.00000000E+00	 0.00000000E+00	 0.00000000E+00

	 0.00000000E+00	 0.00000000E+00	 0.00000000E+00
	 0.00000000E+00	 0.00000000E+00	 0.00000000E+00
	 0.00000000E+00	 0.00000000E+00	 0.00000000E+00

	 0.00000000E+00	 0.00000000E+00	 0.00000000E+00
	 0.00000000E+00	 0.00000000E+00	 0.00000000E+00
	 0.00000000E+00	 0.00000000E+00	 0.00000000E+00

	 0.00000000E+00	 0.00000000E+00	 0.00000000E+00
	 0.00000000E+00	 0.00000000E+00	 0.00000000E+00
	 0.00000000E+00	 0.00000000E+00	 0.00000000E+00

	 0.00000000E+00	 0.00000000E+00	 0.00000000E+00
	 0.00000000E+00	 0.00000000E+00	 0.00000000E+00
	 0.00000000E+00	 0.00000000E+00	 0.00000000E+00

	 0.00000000E+00	 0.00000000E+00	 0.00000000E+00
	 0.00000000E+00	 0.00000000E+00	 0.00000000E+00
	 0.00000000E+00	 0.00000000E+00	 0.00000000E+00

	 0.00000000E+00	 0.00000000E+00	 0.00000000E+00
	 0.00000000E+00	 0.00000000E+00	 0.00000000E+00
	 0.00000000E+00	 0.00000000E+00	 0.00000000E+00

	 0.00000000E+00	 0.00000000E+00	 0.00000000E+00
	 0.00000000E+00	 0.00000000E+00	 0.00000000E+00
	 0.00000000E+00	 0.00000000E+00	 0.00000000E+00

	 0.00000000E+00	 0.00000000E+00	 0.00000000E+00
	 0.00000000E+00	 0.00000000E+00	 0.00000000E+00
	 0.00000000E+00	 0.00000000E+00	 0.00000000E+00

	 0.00000000E+00	 0.00000000E+00	 0.00000000E+00
	 0.00000000E+00	 0.00000000E+00	 0.00000000E+00
	 0.00000000E+00	 0.00000000E+00	 0.00000000E+00

	 0.00000000E+00	 0.00000000E+00	 0.00000000E+00
	 0.00000000E+00	 0.00000000E+00	 0.00000000E+00
	 0.00000000E+00	 0.00000000E+00	 0.00000000E+00

	 0.00000000E+00	 0.00000000E+00	 0.00000000E+00
	 0.00000000E+00	 0.00000000E+00	 0.00000000E+00
	 0.00000000E+00	 0.00000000E+00	 0.00000000E+00

	 0.00000000E+00	 0.00000000E+00	 0.00000000E+00
	 0.00000000E+00	 0.00000000E+00	 0.00000000E+00
	 0.00000000E+00	 0.00000000E+00	 0.00000000E+00

	 0.00000000E+00	 0.00000000E+00	 0.00000000E+00
	 0.00000000E+00	 0.00000000E+00	 0.00000000E+00
	 0.00000000E+00	 0.00000000E+00	 0.00000000E+00

	 0.00000000E+00	 0.00000000E+00	 0.00000000E+00
	 0.00000000E+00	 0.00000000E+00	 0.00000000E+00
	 0.00000000E+00	 0.00000000E+00	 0.00000000E+00

	 0.00000000E+00	 0.00000000E+00	 0.00000000E+00
	 0.00000000E+00	 0.00000000E+00	 0.00000000E+00
	 0.00000000E+00	 0.00000000E+00	 0.00000000E+00

	 0.00000000E+00	 0.00000000E+00	 0.00000000E+00
	 0.00000000E+00	 0.00000000E+00	 0.00000000E+00
	 0.00000000E+00	 0.00000000E+00	 0.00000000E+00

	 0.00000000E+00	 0.00000000E+00	 0.00000000E+00
	 0.00000000E+00	 0.00000000E+00	 0.00000000E+00
	 0.00000000E+00	 0.00000000E+00	 0.00000000E+00

	 0.00000000E+00	 0.00000000E+00	 0.00000000E+00
	 0.00000000E+00	 0.00000000E+00	 0.00000000E+00
	 0.00000000E+00	 0.00000000E+00	 0.00000000E+00

	 0.00000000E+00	 0.00000000E+00	 0.00000000E+00
	 0.00000000E+00	 0.00000000E+00	 0.00000000E+00
	 0.00000000E+00	 0.00000000E+00	 0.00000000E+00

	 0.00000000E+00	 0.00000000E+00	 0.00000000E+00
	 0.00000000E+00	 0.00000000E+00	 0.00000000E+00
	 0.00000000E+00	 0.00000000E+00	 0.00000000E+00

	 0.00000000E+00	 0.00000000E+00	 0.00000000E+00
	 0.00000000E+00	 0.00000000E+00	 0.00000000E+00
	 0.00000000E+00	 0.00000000E+00	 0.00000000E+00

	 0.00000000E+00	 0.00000000E+00	 0.00000000E+00
	 0.00000000E+00	 0.00000000E+00	 0.00000000E+00
	 0.00000000E+00	 0.00000000E+00	 0.00000000E+00

	 0.00000000E+00	 0.00000000E+00	 0.00000000E+00
	 0.00000000E+00	 0.00000000E+00	 0.00000000E+00
	 0.00000000E+00	 0.00000000E+00	 0.00000000E+00

	 0.00000000E+00	 0.00000000E+00	 0.00000000E+00
	 0.00000000E+00	 0.00000000E+00	 0.00000000E+00
	 0.00000000E+00	 0.00000000E+00	 0.00000000E+00

	 0.00000000E+00	 0.00000000E+00	 0.00000000E+00
	 0.00000000E+00	 0.00000000E+00	 0.00000000E+00
	 0.00000000E+00	 0.00000000E+00	 0.00000000E+00

	 0.00000000E+00	 0.00000000E+00	 0.00000000E+00
	 0.00000000E+00	 0.00000000E+00	 0.00000000E+00
	 0.00000000E+00	 0.00000000E+00	 0.00000000E+00

	 0.00000000E+00	 0.00000000E+00	 0.00000000E+00
	 0.00000000E+00	 0.00000000E+00	 0.00000000E+00
	 0.00000000E+00	 0.00000000E+00	 0.00000000E+00

	 0.00000000E+00	 0.00000000E+00	 0.00000000E+00
	 0.00000000E+00	 0.00000000E+00	 0.00000000E+00
	 0.00000000E+00	 0.00000000E+00	 0.00000000E+00

	 0.00000000E+00	 0.00000000E+00	 0.00000000E+00
	 0.00000000E+00	 0.00000000E+00	 0.00000000E+00
	 0.00000000E+00	 0.00000000E+00	 0.00000000E+00

	 0.00000000E+00	 0.00000000E+00	 0.00000000E+00
	 0.00000000E+00	 0.00000000E+00	 0.00000000E+00
	 0.00000000E+00	 0.00000000E+00	 0.00000000E+00

	 0.00000000E+00	 0.00000000E+00	 0.00000000E+00
	 0.00000000E+00	 0.00000000E+00	 0.00000000E+00
	 0.00000000E+00	 0.00000000E+00	 0.00000000E+00

	 0.00000000E+00	 0.00000000E+00	 0.00000000E+00
	 0.00000000E+00	 0.00000000E+00	 0.00000000E+00
	 0.00000000E+00	 0.00000000E+00	 0.00000000E+00

	 0.00000000E+00	 0.00000000E+00	 0.00000000E+00
	 0.00000000E+00	 0.00000000E+00	 0.00000000E+00
	 0.00000000E+00	 0.00000000E+00	 0.00000000E+00

	 0.00000000E+00	 0.00000000E+00	 0.00000000E+00
	 0.00000000E+00	 0.00000000E+00	 0.00000000E+00
	 0.00000000E+00	 0.00000000E+00	 0.00000000E+00

	 0.00000000E+00	 0.00000000E+00	 0.00000000E+00
	 0.00000000E+00	 0.00000000E+00	 0.00000000E+00
	 0.00000000E+00	 0.00000000E+00	 0.00000000E+00

	 0.00000000E+00	 0.00000000E+00	 0.00000000E+00
	 0.00000000E+00	 0.00000000E+00	 0.00000000E+00
	 0.00000000E+00	 0.00000000E+00	 0.00000000E+00

	 0.00000000E+00	 0.00000000E+00	 0.00000000E+00
	 0.00000000E+00	 0.00000000E+00	 0.00000000E+00
	 0.00000000E+00	 0.00000000E+00	 0.00000000E+00

	 0.00000000E+00	 0.00000000E+00	 0.00000000E+00
	 0.00000000E+00	 0.00000000E+00	 0.00000000E+00
	 0.00000000E+00	 0.00000000E+00	 0.00000000E+00

	 0.00000000E+00	 0.00000000E+00	 0.00000000E+00
	 0.00000000E+00	 0.00000000E+00	 0.00000000E+00
	 0.00000000E+00	 0.00000000E+00	 0.00000000E+00

	 0.00000000E+00	 0.00000000E+00	 0.00000000E+00
	 0.00000000E+00	 0.00000000E+00	 0.00000000E+00
	 0.00000000E+00	 0.00000000E+00	 0.00000000E+00

	 0.00000000E+00	 0.00000000E+00	 0.00000000E+00
	 0.00000000E+00	 0.00000000E+00	 0.00000000E+00
	 0.00000000E+00	 0.00000000E+00	 0.00000000E+00

	 0.00000000E+00	 0.00000000E+00	 0.00000000E+00
	 0.00000000E+00	 0.00000000E+00	 0.00000000E+00
	 0.00000000E+00	 0.00000000E+00	 0.00000000E+00

	 0.00000000E+00	 0.00000000E+00	 0.00000000E+00
	 0.00000000E+00	 0.00000000E+00	 0.00000000E+00
	 0.00000000E+00	 0.00000000E+00	 0.00000000E+00

	 0.00000000E+00	 0.00000000E+00	 0.00000000E+00
	 0.00000000E+00	 0.00000000E+00	 0.00000000E+00
	 0.00000000E+00	 0.00000000E+00	 0.00000000E+00

	 0.00000000E+00	 0.00000000E+00	 0.00000000E+00
	 0.00000000E+00	 0.00000000E+00	 0.00000000E+00
	 0.00000000E+00	 0.00000000E+00	 0.00000000E+00

	 0.00000000E+00	 0.00000000E+00	 0.00000000E+00
	 0.00000000E+00	 0.00000000E+00	 0.00000000E+00
	 0.00000000E+00	 0.00000000E+00	 0.00000000E+00

	 0.00000000E+00	 0.00000000E+00	 0.00000000E+00
	 0.00000000E+00	 0.00000000E+00	 0.00000000E+00
	 0.00000000E+00	 0.00000000E+00	 0.00000000E+00

	 0.00000000E+00	 0.00000000E+00	 0.00000000E+00
	 0.00000000E+00	 0.00000000E+00	 0.00000000E+00
	 0.00000000E+00	 0.00000000E+00	 0.00000000E+00

	 0.00000000E+00	 0.00000000E+00	 0.00000000E+00
	 0.00000000E+00	 0.00000000E+00	 0.00000000E+00
	 0.00000000E+00	 0.00000000E+00	 0.00000000E+00

	 0.00000000E+00	 0.00000000E+00	 0.00000000E+00
	 0.00000000E+00	 0.00000000E+00	 0.00000000E+00
	 0.00000000E+00	 0.00000000E+00	 0.00000000E+00

	 0.00000000E+00	 0.00000000E+00	 0.00000000E+00
	 0.00000000E+00	 0.00000000E+00	 0.00000000E+00
	 0.00000000E+00	 0.00000000E+00	 0.00000000E+00

	 0.00000000E+00	 0.00000000E+00	 0.00000000E+00
	 0.00000000E+00	 0.00000000E+00	 0.00000000E+00
	 0.00000000E+00	 0.00000000E+00	 0.00000000E+00

	 0.00000000E+00	 0.00000000E+00	 0.00000000E+00
	 0.00000000E+00	 0.00000000E+00	 0.00000000E+00
	 0.00000000E+00	 0.00000000E+00	 0.00000000E+00

	 0.00000000E+00	 0.00000000E+00	 0.00000000E+00
	 0.00000000E+00	 0.00000000E+00	 0.00000000E+00
	 0.00000000E+00	 0.00000000E+00	 0.00000000E+00

	 0.00000000E+00	 0.00000000E+00	 0.00000000E+00
	 0.00000000E+00	 0.00000000E+00	 0.00000000E+00
	 0.00000000E+00	 0.00000000E+00	 0.00000000E+00

	 0.00000000E+00	 0.00000000E+00	 0.00000000E+00
	 0.00000000E+00	 0.00000000E+00	 0.00000000E+00
	 0.00000000E+00	 0.00000000E+00	 0.00000000E+00

	 0.00000000E+00	 0.00000000E+00	 0.00000000E+00
	 0.00000000E+00	 0.00000000E+00	 0.00000000E+00
	 0.00000000E+00	 0.00000000E+00	 0.00000000E+00

	 0.00000000E+00	 0.00000000E+00	 0.00000000E+00
	 0.00000000E+00	 0.00000000E+00	 0.00000000E+00
	 0.00000000E+00	 0.00000000E+00	 0.00000000E+00

	 0.00000000E+00	 0.00000000E+00	 0.00000000E+00
	 0.00000000E+00	 0.00000000E+00	 0.00000000E+00
	 0.00000000E+00	 0.00000000E+00	 0.00000000E+00

	 0.00000000E+00	 0.00000000E+00	 0.00000000E+00
	 0.00000000E+00	 0.00000000E+00	 0.00000000E+00
	 0.00000000E+00	 0.00000000E+00	 0.00000000E+00

	 0.00000000E+00	 0.00000000E+00	 0.00000000E+00
	 0.00000000E+00	 0.00000000E+00	 0.00000000E+00
	 0.00000000E+00	 0.00000000E+00	 0.00000000E+00

	 0.00000000E+00	 0.00000000E+00	 0.00000000E+00
	 0.00000000E+00	 0.00000000E+00	 0.00000000E+00
	 0.00000000E+00	 0.00000000E+00	 0.00000000E+00

	 0.00000000E+00	 0.00000000E+00	 0.00000000E+00
	 0.00000000E+00	 0.00000000E+00	 0.00000000E+00
	 0.00000000E+00	 0.00000000E+00	 0.00000000E+00

	 0.00000000E+00	 0.00000000E+00	 0.00000000E+00
	 0.00000000E+00	 0.00000000E+00	 0.00000000E+00
	 0.00000000E+00	 0.00000000E+00	 0.00000000E+00

	 0.00000000E+00	 0.00000000E+00	 0.00000000E+00
	 0.00000000E+00	 0.00000000E+00	 0.00000000E+00
	 0.00000000E+00	 0.00000000E+00	 0.00000000E+00

	 0.00000000E+00	 0.00000000E+00	 0.00000000E+00
	 0.00000000E+00	 0.00000000E+00	 0.00000000E+00
	 0.00000000E+00	 0.00000000E+00	 0.00000000E+00

	 0.00000000E+00	 0.00000000E+00	 0.00000000E+00
	 0.00000000E+00	 0.00000000E+00	 0.00000000E+00
	 0.00000000E+00	 0.00000000E+00	 0.00000000E+00

	 0.00000000E+00	 0.00000000E+00	 0.00000000E+00
	 0.00000000E+00	 0.00000000E+00	 0.00000000E+00
	 0.00000000E+00	 0.00000000E+00	 0.00000000E+00

	 0.00000000E+00	 0.00000000E+00	 0.00000000E+00
	 0.00000000E+00	 0.00000000E+00	 0.00000000E+00
	 0.00000000E+00	 0.00000000E+00	 0.00000000E+00

	 0.00000000E+00	 0.00000000E+00	 0.00000000E+00
	 0.00000000E+00	 0.00000000E+00	 0.00000000E+00
	 0.00000000E+00	 0.00000000E+00	 0.00000000E+00

	 0.00000000E+00	 0.00000000E+00	 0.00000000E+00
	 0.00000000E+00	 0.00000000E+00	 0.00000000E+00
	 0.00000000E+00	 0.00000000E+00	 0.00000000E+00

	 0.00000000E+00	 0.00000000E+00	 0.00000000E+00
	 0.00000000E+00	 0.00000000E+00	 0.00000000E+00
	 0.00000000E+00	 0.00000000E+00	 0.00000000E+00

	 0.00000000E+00	 0.00000000E+00	 0.00000000E+00
	 0.00000000E+00	 0.00000000E+00	 0.00000000E+00
	 0.00000000E+00	 0.00000000E+00	 0.00000000E+00

	 0.00000000E+00	 0.00000000E+00	 0.00000000E+00
	 0.00000000E+00	 0.00000000E+00	 0.00000000E+00
	 0.00000000E+00	 0.00000000E+00	 0.00000000E+00

	 0.00000000E+00	 0.00000000E+00	 0.00000000E+00
	 0.00000000E+00	 0.00000000E+00	 0.00000000E+00
	 0.00000000E+00	 0.00000000E+00	 0.00000000E+00

	 0.00000000E+00	 0.00000000E+00	 0.00000000E+00
	 0.00000000E+00	 0.00000000E+00	 0.00000000E+00
	 0.00000000E+00	 0.00000000E+00	 0.00000000E+00

	 0.00000000E+00	 0.00000000E+00	 0.00000000E+00
	 0.00000000E+00	 0.00000000E+00	 0.00000000E+00
	 0.00000000E+00	 0.00000000E+00	 0.00000000E+00

	 0.00000000E+00	 0.00000000E+00	 0.00000000E+00
	 0.00000000E+00	 0.00000000E+00	 0.00000000E+00
	 0.00000000E+00	 0.00000000E+00	 0.00000000E+00

	 0.00000000E+00	 0.00000000E+00	 0.00000000E+00
	 0.00000000E+00	 0.00000000E+00	 0.00000000E+00
	 0.00000000E+00	 0.00000000E+00	 0.00000000E+00

	 0.00000000E+00	 0.00000000E+00	 0.00000000E+00
	 0.00000000E+00	 0.00000000E+00	 0.00000000E+00
	 0.00000000E+00	 0.00000000E+00	 0.00000000E+00

	 0.00000000E+00	 0.00000000E+00	 0.00000000E+00
	 0.00000000E+00	 0.00000000E+00	 0.00000000E+00
	 0.00000000E+00	 0.00000000E+00	 0.00000000E+00

	 0.00000000E+00	 0.00000000E+00	 0.00000000E+00
	 0.00000000E+00	 0.00000000E+00	 0.00000000E+00
	 0.00000000E+00	 0.00000000E+00	 0.00000000E+00

	 0.00000000E+00	 0.00000000E+00	 0.00000000E+00
	 0.00000000E+00	 0.00000000E+00	 0.00000000E+00
	 0.00000000E+00	 0.00000000E+00	 0.00000000E+00

	 0.00000000E+00	 0.00000000E+00	 0.00000000E+00
	 0.00000000E+00	 0.00000000E+00	 0.00000000E+00
	 0.00000000E+00	 0.00000000E+00	 0.00000000E+00

	 0.00000000E+00	 0.00000000E+00	 0.00000000E+00
	 0.00000000E+00	 0.00000000E+00	 0.00000000E+00
	 0.00000000E+00	 0.00000000E+00	 0.00000000E+00

	 0.00000000E+00	 0.00000000E+00	 0.00000000E+00
	 0.00000000E+00	 0.00000000E+00	 0.00000000E+00
	 0.00000000E+00	 0.00000000E+00	 0.00000000E+00

	 0.00000000E+00	 0.00000000E+00	 0.00000000E+00
	 0.00000000E+00	 0.00000000E+00	 0.00000000E+00
	 0.00000000E+00	 0.00000000E+00	 0.00000000E+00

	 0.00000000E+00	 0.00000000E+00	 0.00000000E+00
	 0.00000000E+00	 0.00000000E+00	 0.00000000E+00
	 0.00000000E+00	 0.00000000E+00	 0.00000000E+00

	 0.00000000E+00	 0.00000000E+00	 0.00000000E+00
	 0.00000000E+00	 0.00000000E+00	 0.00000000E+00
	 0.00000000E+00	 0.00000000E+00	 0.00000000E+00

	 0.00000000E+00	 0.00000000E+00	 0.00000000E+00
	 0.00000000E+00	 0.00000000E+00	 0.00000000E+00
	 0.00000000E+00	 0.00000000E+00	 0.00000000E+00

	 0.00000000E+00	 0.00000000E+00	 0.00000000E+00
	 0.00000000E+00	 0.00000000E+00	 0.00000000E+00
	 0.00000000E+00	 0.00000000E+00	 0.00000000E+00

	 0.00000000E+00	 0.00000000E+00	 0.00000000E+00
	 0.00000000E+00	 0.00000000E+00	 0.00000000E+00
	 0.00000000E+00	 0.00000000E+00	 0.00000000E+00

	 0.00000000E+00	 0.00000000E+00	 0.00000000E+00
	 0.00000000E+00	 0.00000000E+00	 0.00000000E+00
	 0.00000000E+00	 0.00000000E+00	 0.00000000E+00

	 0.00000000E+00	 0.00000000E+00	 0.00000000E+00
	 0.00000000E+00	 0.00000000E+00	 0.00000000E+00
	 0.00000000E+00	 0.00000000E+00	 0.00000000E+00

	 0.00000000E+00	 0.00000000E+00	 0.00000000E+00
	 0.00000000E+00	 0.00000000E+00	 0.00000000E+00
	 0.00000000E+00	 0.00000000E+00	 0.00000000E+00

	 0.00000000E+00	 0.00000000E+00	 0.00000000E+00
	 0.00000000E+00	 0.00000000E+00	 0.00000000E+00
	 0.00000000E+00	 0.00000000E+00	 0.00000000E+00

	 0.00000000E+00	 0.00000000E+00	 0.00000000E+00
	 0.00000000E+00	 0.00000000E+00	 0.00000000E+00
	 0.00000000E+00	 0.00000000E+00	 0.00000000E+00

	 0.00000000E+00	 0.00000000E+00	 0.00000000E+00
	 0.00000000E+00	 0.00000000E+00	 0.00000000E+00
	 0.00000000E+00	 0.00000000E+00	 0.00000000E+00

	 0.00000000E+00	 0.00000000E+00	 0.00000000E+00
	 0.00000000E+00	 0.00000000E+00	 0.00000000E+00
	 0.00000000E+00	 0.00000000E+00	 0.00000000E+00

	 0.00000000E+00	 0.00000000E+00	 0.00000000E+00
	 0.00000000E+00	 0.00000000E+00	 0.00000000E+00
	 0.00000000E+00	 0.00000000E+00	 0.00000000E+00

	 0.00000000E+00	 0.00000000E+00	 0.00000000E+00
	 0.00000000E+00	 0.00000000E+00	 0.00000000E+00
	 0.00000000E+00	 0.00000000E+00	 0.00000000E+00

	 0.00000000E+00	 0.00000000E+00	 0.00000000E+00
	 0.00000000E+00	 0.00000000E+00	 0.00000000E+00
	 0.00000000E+00	 0.00000000E+00	 0.00000000E+00

	 0.00000000E+00	 0.00000000E+00	 0.00000000E+00
	 0.00000000E+00	 0.00000000E+00	 0.00000000E+00
	 0.00000000E+00	 0.00000000E+00	 0.00000000E+00

	 0.00000000E+00	 0.00000000E+00	 0.00000000E+00
	 0.00000000E+00	 0.00000000E+00	 0.00000000E+00
	 0.00000000E+00	 0.00000000E+00	 0.00000000E+00

	 0.00000000E+00	 0.00000000E+00	 0.00000000E+00
	 0.00000000E+00	 0.00000000E+00	 0.00000000E+00
	 0.00000000E+00	 0.00000000E+00	 0.00000000E+00

	 0.00000000E+00	 0.00000000E+00	 0.00000000E+00
	 0.00000000E+00	 0.00000000E+00	 0.00000000E+00
	 0.00000000E+00	 0.00000000E+00	 0.00000000E+00

	 0.00000000E+00	 0.00000000E+00	 0.00000000E+00
	 0.00000000E+00	 0.00000000E+00	 0.00000000E+00
	 0.00000000E+00	 0.00000000E+00	 0.00000000E+00

	 0.00000000E+00	 0.00000000E+00	 0.00000000E+00
	 0.00000000E+00	 0.00000000E+00	 0.00000000E+00
	 0.00000000E+00	 0.00000000E+00	 0.00000000E+00

	 0.00000000E+00	 0.00000000E+00	 0.00000000E+00
	 0.00000000E+00	 0.00000000E+00	 0.00000000E+00
	 0.00000000E+00	 0.00000000E+00	 0.00000000E+00

	 0.00000000E+00	 0.00000000E+00	 0.00000000E+00
	 0.00000000E+00	 0.00000000E+00	 0.00000000E+00
	 0.00000000E+00	 0.00000000E+00	 0.00000000E+00

	 0.00000000E+00	 0.00000000E+00	 0.00000000E+00
	 0.00000000E+00	 0.00000000E+00	 0.00000000E+00
	 0.00000000E+00	 0.00000000E+00	 0.00000000E+00

	 0.00000000E+00	 0.00000000E+00	 0.00000000E+00
	 0.00000000E+00	 0.00000000E+00	 0.00000000E+00
	 0.00000000E+00	 0.00000000E+00	 0.00000000E+00

	 0.00000000E+00	 0.00000000E+00	 0.00000000E+00
	 0.00000000E+00	 0.00000000E+00	 0.00000000E+00
	 0.00000000E+00	 0.00000000E+00	 0.00000000E+00

	 0.00000000E+00	 0.00000000E+00	 0.00000000E+00
	 0.00000000E+00	 0.00000000E+00	 0.00000000E+00
	 0.00000000E+00	 0.00000000E+00	 0.00000000E+00

	 0.00000000E+00	 0.00000000E+00	 0.00000000E+00
	 0.00000000E+00	 0.00000000E+00	 0.00000000E+00
	 0.00000000E+00	 0.00000000E+00	 0.00000000E+00

	 0.00000000E+00	 0.00000000E+00	 0.00000000E+00
	 0.00000000E+00	 0.00000000E+00	 0.00000000E+00
	 0.00000000E+00	 0.00000000E+00	 0.00000000E+00

	 0.00000000E+00	 0.00000000E+00	 0.00000000E+00
	 0.00000000E+00	 0.00000000E+00	 0.00000000E+00
	 0.00000000E+00	 0.00000000E+00	 0.00000000E+00

	 0.00000000E+00	 0.00000000E+00	 0.00000000E+00
	 0.00000000E+00	 0.00000000E+00	 0.00000000E+00
	 0.00000000E+00	 0.00000000E+00	 0.00000000E+00

	 0.00000000E+00	 0.00000000E+00	 0.00000000E+00
	 0.00000000E+00	 0.00000000E+00	 0.00000000E+00
	 0.00000000E+00	 0.00000000E+00	 0.00000000E+00

	 0.00000000E+00	 0.00000000E+00	 0.00000000E+00
	 0.00000000E+00	 0.00000000E+00	 0.00000000E+00
	 0.00000000E+00	 0.00000000E+00	 0.00000000E+00

	 0.00000000E+00	 0.00000000E+00	 0.00000000E+00
	 0.00000000E+00	 0.00000000E+00	 0.00000000E+00
	 0.00000000E+00	 0.00000000E+00	 0.00000000E+00

	 0.00000000E+00	 0.00000000E+00	 0.00000000E+00
	 0.00000000E+00	 0.00000000E+00	 0.00000000E+00
	 0.00000000E+00	 0.00000000E+00	 0.00000000E+00

	 0.00000000E+00	 0.00000000E+00	 0.00000000E+00
	 0.00000000E+00	 0.00000000E+00	 0.00000000E+00
	 0.00000000E+00	 0.00000000E+00	 0.00000000E+00

	 0.00000000E+00	 0.00000000E+00	 0.00000000E+00
	 0.00000000E+00	 0.00000000E+00	 0.00000000E+00
	 0.00000000E+00	 0.00000000E+00	 0.00000000E+00

	 0.00000000E+00	 0.00000000E+00	 0.00000000E+00
	 0.00000000E+00	 0.00000000E+00	 0.00000000E+00
	 0.00000000E+00	 0.00000000E+00	 0.00000000E+00

	 0.00000000E+00	 0.00000000E+00	 0.00000000E+00
	 0.00000000E+00	 0.00000000E+00	 0.00000000E+00
	 0.00000000E+00	 0.00000000E+00	 0.00000000E+00

	 0.00000000E+00	 0.00000000E+00	 0.00000000E+00
	 0.00000000E+00	 0.00000000E+00	 0.00000000E+00
	 0.00000000E+00	 0.00000000E+00	 0.00000000E+00

	 0.00000000E+00	 0.00000000E+00	 0.00000000E+00
	 0.00000000E+00	 0.00000000E+00	 0.00000000E+00
	 0.00000000E+00	 0.00000000E+00	 0.00000000E+00

	 0.00000000E+00	 0.00000000E+00	 0.00000000E+00
	 0.00000000E+00	 0.00000000E+00	 0.00000000E+00
	 0.00000000E+00	 0.00000000E+00	 0.00000000E+00

	 0.00000000E+00	 0.00000000E+00	 0.00000000E+00
	 0.00000000E+00	 0.00000000E+00	 0.00000000E+00
	 0.00000000E+00	 0.00000000E+00	 0.00000000E+00

	 0.00000000E+00	 0.00000000E+00	 0.00000000E+00
	 0.00000000E+00	 0.00000000E+00	 0.00000000E+00
	 0.00000000E+00	 0.00000000E+00	 0.00000000E+00

	 0.00000000E+00	 0.00000000E+00	 0.00000000E+00
	 0.00000000E+00	 0.00000000E+00	 0.00000000E+00
	 0.00000000E+00	 0.00000000E+00	 0.00000000E+00

	 0.00000000E+00	 0.00000000E+00	 0.00000000E+00
	 0.00000000E+00	 0.00000000E+00	 0.00000000E+00
	 0.00000000E+00	 0.00000000E+00	 0.00000000E+00

	 0.00000000E+00	 0.00000000E+00	 0.00000000E+00
	 0.00000000E+00	 0.00000000E+00	 0.00000000E+00
	 0.00000000E+00	 0.00000000E+00	 0.00000000E+00

	 0.00000000E+00	 0.00000000E+00	 0.00000000E+00
	 0.00000000E+00	 0.00000000E+00	 0.00000000E+00
	 0.00000000E+00	 0.00000000E+00	 0.00000000E+00

	 0.00000000E+00	 0.00000000E+00	 0.00000000E+00
	 0.00000000E+00	 0.00000000E+00	 0.00000000E+00
	 0.00000000E+00	 0.00000000E+00	 0.00000000E+00

	 0.00000000E+00	 0.00000000E+00	 0.00000000E+00
	 0.00000000E+00	 0.00000000E+00	 0.00000000E+00
	 0.00000000E+00	 0.00000000E+00	 0.00000000E+00

	 0.00000000E+00	 0.00000000E+00	 0.00000000E+00
	 0.00000000E+00	 0.00000000E+00	 0.00000000E+00
	 0.00000000E+00	 0.00000000E+00	 0.00000000E+00

	 0.00000000E+00	 0.00000000E+00	 0.00000000E+00
	 0.00000000E+00	 0.00000000E+00	 0.00000000E+00
	 0.00000000E+00	 0.00000000E+00	 0.00000000E+00

	 0.00000000E+00	 0.00000000E+00	 0.00000000E+00
	 0.00000000E+00	 0.00000000E+00	 0.00000000E+00
	 0.00000000E+00	 0.00000000E+00	 0.00000000E+00

	 0.00000000E+00	 0.00000000E+00	 0.00000000E+00
	 0.00000000E+00	 0.00000000E+00	 0.00000000E+00
	 0.00000000E+00	 0.00000000E+00	 0.00000000E+00

	 0.00000000E+00	 0.00000000E+00	 0.00000000E+00
	 0.00000000E+00	 0.00000000E+00	 0.00000000E+00
	 0.00000000E+00	 0.00000000E+00	 0.00000000E+00

	 0.00000000E+00	 0.00000000E+00	 0.00000000E+00
	 0.00000000E+00	 0.00000000E+00	 0.00000000E+00
	 0.00000000E+00	 0.00000000E+00	 0.00000000E+00

	 0.00000000E+00	 0.00000000E+00	 0.00000000E+00
	 0.00000000E+00	 0.00000000E+00	 0.00000000E+00
	 0.00000000E+00	 0.00000000E+00	 0.00000000E+00

	 0.00000000E+00	 0.00000000E+00	 0.00000000E+00
	 0.00000000E+00	 0.00000000E+00	 0.00000000E+00
	 0.00000000E+00	 0.00000000E+00	 0.00000000E+00

	 0.00000000E+00	 0.00000000E+00	 0.00000000E+00
	 0.00000000E+00	 0.00000000E+00	 0.00000000E+00
	 0.00000000E+00	 0.00000000E+00	 0.00000000E+00

	 0.00000000E+00	 0.00000000E+00	 0.00000000E+00
	 0.00000000E+00	 0.00000000E+00	 0.00000000E+00
	 0.00000000E+00	 0.00000000E+00	 0.00000000E+00

	 0.00000000E+00	 0.00000000E+00	 0.00000000E+00
	 0.00000000E+00	 0.00000000E+00	 0.00000000E+00
	 0.00000000E+00	 0.00000000E+00	 0.00000000E+00

	 0.00000000E+00	 0.00000000E+00	 0.00000000E+00
	 0.00000000E+00	 0.00000000E+00	 0.00000000E+00
	 0.00000000E+00	 0.00000000E+00	 0.00000000E+00

	 0.00000000E+00	 0.00000000E+00	 0.00000000E+00
	 0.00000000E+00	 0.00000000E+00	 0.00000000E+00
	 0.00000000E+00	 0.00000000E+00	 0.00000000E+00

	 0.00000000E+00	 0.00000000E+00	 0.00000000E+00
	 0.00000000E+00	 0.00000000E+00	 0.00000000E+00
	 0.00000000E+00	 0.00000000E+00	 0.00000000E+00

	 0.00000000E+00	 0.00000000E+00	 0.00000000E+00
	 0.00000000E+00	 0.00000000E+00	 0.00000000E+00
	 0.00000000E+00	 0.00000000E+00	 0.00000000E+00

	 0.00000000E+00	 0.00000000E+00	 0.00000000E+00
	 0.00000000E+00	 0.00000000E+00	 0.00000000E+00
	 0.00000000E+00	 0.00000000E+00	 0.00000000E+00

	 0.00000000E+00	 0.00000000E+00	 0.00000000E+00
	 0.00000000E+00	 0.00000000E+00	 0.00000000E+00
	 0.00000000E+00	 0.00000000E+00	 0.00000000E+00

	 0.00000000E+00	 0.00000000E+00	 0.00000000E+00
	 0.00000000E+00	 0.00000000E+00	 0.00000000E+00
	 0.00000000E+00	 0.00000000E+00	 0.00000000E+00

	 0.00000000E+00	 0.00000000E+00	 0.00000000E+00
	 0.00000000E+00	 0.00000000E+00	 0.00000000E+00
	 0.00000000E+00	 0.00000000E+00	 0.00000000E+00

	 0.00000000E+00	 0.00000000E+00	 0.00000000E+00
	 0.00000000E+00	 0.00000000E+00	 0.00000000E+00
	 0.00000000E+00	 0.00000000E+00	 0.00000000E+00

	 0.00000000E+00	 0.00000000E+00	 0.00000000E+00
	 0.00000000E+00	 0.00000000E+00	 0.00000000E+00
	 0.00000000E+00	 0.00000000E+00	 0.00000000E+00

	 0.00000000E+00	 0.00000000E+00	 0.00000000E+00
	 0.00000000E+00	 0.00000000E+00	 0.00000000E+00
	 0.00000000E+00	 0.00000000E+00	 0.00000000E+00

	 0.00000000E+00	 0.00000000E+00	 0.00000000E+00
	 0.00000000E+00	 0.00000000E+00	 0.00000000E+00
	 0.00000000E+00	 0.00000000E+00	 0.00000000E+00

	 0.00000000E+00	 0.00000000E+00	 0.00000000E+00
	 0.00000000E+00	 0.00000000E+00	 0.00000000E+00
	 0.00000000E+00	 0.00000000E+00	 0.00000000E+00

	 0.00000000E+00	 0.00000000E+00	 0.00000000E+00
	 0.00000000E+00	 0.00000000E+00	 0.00000000E+00
	 0.00000000E+00	 0.00000000E+00	 0.00000000E+00

	 0.00000000E+00	 0.00000000E+00	 0.00000000E+00
	 0.00000000E+00	 0.00000000E+00	 0.00000000E+00
	 0.00000000E+00	 0.00000000E+00	 0.00000000E+00

	 0.00000000E+00	 0.00000000E+00	 0.00000000E+00
	 0.00000000E+00	 0.00000000E+00	 0.00000000E+00
	 0.00000000E+00	 0.00000000E+00	 0.00000000E+00

	 0.00000000E+00	 0.00000000E+00	 0.00000000E+00
	 0.00000000E+00	 0.00000000E+00	 0.00000000E+00
	 0.00000000E+00	 0.00000000E+00	 0.00000000E+00

	 0.00000000E+00	 0.00000000E+00	 0.00000000E+00
	 0.00000000E+00	 0.00000000E+00	 0.00000000E+00
	 0.00000000E+00	 0.00000000E+00	 0.00000000E+00

	 0.00000000E+00	 0.00000000E+00	 0.00000000E+00
	 0.00000000E+00	 0.00000000E+00	 0.00000000E+00
	 0.00000000E+00	 0.00000000E+00	 0.00000000E+00

	 0.00000000E+00	 0.00000000E+00	 0.00000000E+00
	 0.00000000E+00	 0.00000000E+00	 0.00000000E+00
	 0.00000000E+00	 0.00000000E+00	 0.00000000E+00

	 0.00000000E+00	 0.00000000E+00	 0.00000000E+00
	 0.00000000E+00	 0.00000000E+00	 0.00000000E+00
	 0.00000000E+00	 0.00000000E+00	 0.00000000E+00

	 0.00000000E+00	 0.00000000E+00	 0.00000000E+00
	 0.00000000E+00	 0.00000000E+00	 0.00000000E+00
	 0.00000000E+00	 0.00000000E+00	 0.00000000E+00

	 0.00000000E+00	 0.00000000E+00	 0.00000000E+00
	 0.00000000E+00	 0.00000000E+00	 0.00000000E+00
	 0.00000000E+00	 0.00000000E+00	 0.00000000E+00

	 0.00000000E+00	 0.00000000E+00	 0.00000000E+00
	 0.00000000E+00	 0.00000000E+00	 0.00000000E+00
	 0.00000000E+00	 0.00000000E+00	 0.00000000E+00

	 0.00000000E+00	 0.00000000E+00	 0.00000000E+00
	 0.00000000E+00	 0.00000000E+00	 0.00000000E+00
	 0.00000000E+00	 0.00000000E+00	 0.00000000E+00

	 0.00000000E+00	 0.00000000E+00	 0.00000000E+00
	 0.00000000E+00	 0.00000000E+00	 0.00000000E+00
	 0.00000000E+00	 0.00000000E+00	 0.00000000E+00

	 0.00000000E+00	 0.00000000E+00	 0.00000000E+00
	 0.00000000E+00	 0.00000000E+00	 0.00000000E+00
	 0.00000000E+00	 0.00000000E+00	 0.00000000E+00

	 0.00000000E+00	 0.00000000E+00	 0.00000000E+00
	 0.00000000E+00	 0.00000000E+00	 0.00000000E+00
	 0.00000000E+00	 0.00000000E+00	 0.00000000E+00

	 0.00000000E+00	 0.00000000E+00	 0.00000000E+00
	 0.00000000E+00	 0.00000000E+00	 0.00000000E+00
	 0.00000000E+00	 0.00000000E+00	 0.00000000E+00

	 0.00000000E+00	 0.00000000E+00	 0.00000000E+00
	 0.00000000E+00	 0.00000000E+00	 0.00000000E+00
	 0.00000000E+00	 0.00000000E+00	 0.00000000E+00

	 0.00000000E+00	 0.00000000E+00	 0.00000000E+00
	 0.00000000E+00	 0.00000000E+00	 0.00000000E+00
	 0.00000000E+00	 0.00000000E+00	 0.00000000E+00

	 0.00000000E+00	 0.00000000E+00	 0.00000000E+00
	 0.00000000E+00	 0.00000000E+00	 0.00000000E+00
	 0.00000000E+00	 0.00000000E+00	 0.00000000E+00

	 0.00000000E+00	 0.00000000E+00	 0.00000000E+00
	 0.00000000E+00	 0.00000000E+00	 0.00000000E+00
	 0.00000000E+00	 0.00000000E+00	 0.00000000E+00

	 0.00000000E+00	 0.00000000E+00	 0.00000000E+00
	 0.00000000E+00	 0.00000000E+00	 0.00000000E+00
	 0.00000000E+00	 0.00000000E+00	 0.00000000E+00

	 0.00000000E+00	 0.00000000E+00	 0.00000000E+00
	 0.00000000E+00	 0.00000000E+00	 0.00000000E+00
	 0.00000000E+00	 0.00000000E+00	 0.00000000E+00

	 0.00000000E+00	 0.00000000E+00	 0.00000000E+00
	 0.00000000E+00	 0.00000000E+00	 0.00000000E+00
	 0.00000000E+00	 0.00000000E+00	 0.00000000E+00

	 0.00000000E+00	 0.00000000E+00	 0.00000000E+00
	 0.00000000E+00	 0.00000000E+00	 0.00000000E+00
	 0.00000000E+00	 0.00000000E+00	 0.00000000E+00

	 0.00000000E+00	 0.00000000E+00	 0.00000000E+00
	 0.00000000E+00	 0.00000000E+00	 0.00000000E+00
	 0.00000000E+00	 0.00000000E+00	 0.00000000E+00

	 0.00000000E+00	 0.00000000E+00	 0.00000000E+00
	 0.00000000E+00	 0.00000000E+00	 0.00000000E+00
	 0.00000000E+00	 0.00000000E+00	 0.00000000E+00

	 0.00000000E+00	 0.00000000E+00	 0.00000000E+00
	 0.00000000E+00	 0.00000000E+00	 0.00000000E+00
	 0.00000000E+00	 0.00000000E+00	 0.00000000E+00

	 0.00000000E+00	 0.00000000E+00	 0.00000000E+00
	 0.00000000E+00	 0.00000000E+00	 0.00000000E+00
	 0.00000000E+00	 0.00000000E+00	 0.00000000E+00

	 0.00000000E+00	 0.00000000E+00	 0.00000000E+00
	 0.00000000E+00	 0.00000000E+00	 0.00000000E+00
	 0.00000000E+00	 0.00000000E+00	 0.00000000E+00

	 0.00000000E+00	 0.00000000E+00	 0.00000000E+00
	 0.00000000E+00	 0.00000000E+00	 0.00000000E+00
	 0.00000000E+00	 0.00000000E+00	 0.00000000E+00

	 0.00000000E+00	 0.00000000E+00	 0.00000000E+00
	 0.00000000E+00	 0.00000000E+00	 0.00000000E+00
	 0.00000000E+00	 0.00000000E+00	 0.00000000E+00

	 0.00000000E+00	 0.00000000E+00	 0.00000000E+00
	 0.00000000E+00	 0.00000000E+00	 0.00000000E+00
	 0.00000000E+00	 0.00000000E+00	 0.00000000E+00

	 0.00000000E+00	 0.00000000E+00	 0.00000000E+00
	 0.00000000E+00	 0.00000000E+00	 0.00000000E+00
	 0.00000000E+00	 0.00000000E+00	 0.00000000E+00

	 0.00000000E+00	 0.00000000E+00	 0.00000000E+00
	 0.00000000E+00	 0.00000000E+00	 0.00000000E+00
	 0.00000000E+00	 0.00000000E+00	 0.00000000E+00

	 0.00000000E+00	 0.00000000E+00	 0.00000000E+00
	 0.00000000E+00	 0.00000000E+00	 0.00000000E+00
	 0.00000000E+00	 0.00000000E+00	 0.00000000E+00

	 0.00000000E+00	 0.00000000E+00	 0.00000000E+00
	 0.00000000E+00	 0.00000000E+00	 0.00000000E+00
	 0.00000000E+00	 0.00000000E+00	 0.00000000E+00

	 0.00000000E+00	 0.00000000E+00	 0.00000000E+00
	 0.00000000E+00	 0.00000000E+00	 0.00000000E+00
	 0.00000000E+00	 0.00000000E+00	 0.00000000E+00

	 0.00000000E+00	 0.00000000E+00	 0.00000000E+00
	 0.00000000E+00	 0.00000000E+00	 0.00000000E+00
	 0.00000000E+00	 0.00000000E+00	 0.00000000E+00

	 0.00000000E+00	 0.00000000E+00	 0.00000000E+00
	 0.00000000E+00	 0.00000000E+00	 0.00000000E+00
	 0.00000000E+00	 0.00000000E+00	 0.00000000E+00

	 0.00000000E+00	 0.00000000E+00	 0.00000000E+00
	 0.00000000E+00	 0.00000000E+00	 0.00000000E+00
	 0.00000000E+00	 0.00000000E+00	 0.00000000E+00

	 0.00000000E+00	 0.00000000E+00	 0.00000000E+00
	 0.00000000E+00	 0.00000000E+00	 0.00000000E+00
	 0.00000000E+00	 0.00000000E+00	 0.00000000E+00

	 0.00000000E+00	 0.00000000E+00	 0.00000000E+00
	 0.00000000E+00	 0.00000000E+00	 0.00000000E+00
	 0.00000000E+00	 0.00000000E+00	 0.00000000E+00

	 0.00000000E+00	 0.00000000E+00	 0.00000000E+00
	 0.00000000E+00	 0.00000000E+00	 0.00000000E+00
	 0.00000000E+00	 0.00000000E+00	 0.00000000E+00

	 0.00000000E+00	 0.00000000E+00	 0.00000000E+00
	 0.00000000E+00	 0.00000000E+00	 0.00000000E+00
	 0.00000000E+00	 0.00000000E+00	 0.00000000E+00

	 0.00000000E+00	 0.00000000E+00	 0.00000000E+00
	 0.00000000E+00	 0.00000000E+00	 0.00000000E+00
	 0.00000000E+00	 0.00000000E+00	 0.00000000E+00

	 0.00000000E+00	 0.00000000E+00	 0.00000000E+00
	 0.00000000E+00	 0.00000000E+00	 0.00000000E+00
	 0.00000000E+00	 0.00000000E+00	 0.00000000E+00

	 0.00000000E+00	 0.00000000E+00	 0.00000000E+00
	 0.00000000E+00	 0.00000000E+00	 0.00000000E+00
	 0.00000000E+00	 0.00000000E+00	 0.00000000E+00

	 0.00000000E+00	 0.00000000E+00	 0.00000000E+00
	 0.00000000E+00	 0.00000000E+00	 0.00000000E+00
	 0.00000000E+00	 0.00000000E+00	 0.00000000E+00

	 0.00000000E+00	 0.00000000E+00	 0.00000000E+00
	 0.00000000E+00	 0.00000000E+00	 0.00000000E+00
	 0.00000000E+00	 0.00000000E+00	 0.00000000E+00

	 0.00000000E+00	 0.00000000E+00	 0.00000000E+00
	 0.00000000E+00	 0.00000000E+00	 0.00000000E+00
	 0.00000000E+00	 0.00000000E+00	 0.00000000E+00

	 0.00000000E+00	 0.00000000E+00	 0.00000000E+00
	 0.00000000E+00	 0.00000000E+00	 0.00000000E+00
	 0.00000000E+00	 0.00000000E+00	 0.00000000E+00

	 0.00000000E+00	 0.00000000E+00	 0.00000000E+00
	 0.00000000E+00	 0.00000000E+00	 0.00000000E+00
	 0.00000000E+00	 0.00000000E+00	 0.00000000E+00

	 0.00000000E+00	 0.00000000E+00	 0.00000000E+00
	 0.00000000E+00	 0.00000000E+00	 0.00000000E+00
	 0.00000000E+00	 0.00000000E+00	 0.00000000E+00

	 0.00000000E+00	 0.00000000E+00	 0.00000000E+00
	 0.00000000E+00	 0.00000000E+00	 0.00000000E+00
	 0.00000000E+00	 0.00000000E+00	 0.00000000E+00

	 0.00000000E+00	 0.00000000E+00	 0.00000000E+00
	 0.00000000E+00	 0.00000000E+00	 0.00000000E+00
	 0.00000000E+00	 0.00000000E+00	 0.00000000E+00

	 0.00000000E+00	 0.00000000E+00	 0.00000000E+00
	 0.00000000E+00	 0.00000000E+00	 0.00000000E+00
	 0.00000000E+00	 0.00000000E+00	 0.00000000E+00

	 0.00000000E+00	 0.00000000E+00	 0.00000000E+00
	 0.00000000E+00	 0.00000000E+00	 0.00000000E+00
	 0.00000000E+00	 0.00000000E+00	 0.00000000E+00

	 0.00000000E+00	 0.00000000E+00	 0.00000000E+00
	 0.00000000E+00	 0.00000000E+00	 0.00000000E+00
	 0.00000000E+00	 0.00000000E+00	 0.00000000E+00

	 0.00000000E+00	 0.00000000E+00	 0.00000000E+00
	 0.00000000E+00	 0.00000000E+00	 0.00000000E+00
	 0.00000000E+00	 0.00000000E+00	 0.00000000E+00

	 0.00000000E+00	 0.00000000E+00	 0.00000000E+00
	 0.00000000E+00	 0.00000000E+00	 0.00000000E+00
	 0.00000000E+00	 0.00000000E+00	 0.00000000E+00

	 0.00000000E+00	 0.00000000E+00	 0.00000000E+00
	 0.00000000E+00	 0.00000000E+00	 0.00000000E+00
	 0.00000000E+00	 0.00000000E+00	 0.00000000E+00

	 0.00000000E+00	 0.00000000E+00	 0.00000000E+00
	 0.00000000E+00	 0.00000000E+00	 0.00000000E+00
	 0.00000000E+00	 0.00000000E+00	 0.00000000E+00

	 0.00000000E+00	 0.00000000E+00	 0.00000000E+00
	 0.00000000E+00	 0.00000000E+00	 0.00000000E+00
	 0.00000000E+00	 0.00000000E+00	 0.00000000E+00

	 0.00000000E+00	 0.00000000E+00	 0.00000000E+00
	 0.00000000E+00	 0.00000000E+00	 0.00000000E+00
	 0.00000000E+00	 0.00000000E+00	 0.00000000E+00

	 0.00000000E+00	 0.00000000E+00	 0.00000000E+00
	 0.00000000E+00	 0.00000000E+00	 0.00000000E+00
	 0.00000000E+00	 0.00000000E+00	 0.00000000E+00

	 0.00000000E+00	 0.00000000E+00	 0.00000000E+00
	 0.00000000E+00	 0.00000000E+00	 0.00000000E+00
	 0.00000000E+00	 0.00000000E+00	 0.00000000E+00

	 0.00000000E+00	 0.00000000E+00	 0.00000000E+00
	 0.00000000E+00	 0.00000000E+00	 0.00000000E+00
	 0.00000000E+00	 0.00000000E+00	 0.00000000E+00

	 0.00000000E+00	 0.00000000E+00	 0.00000000E+00
	 0.00000000E+00	 0.00000000E+00	 0.00000000E+00
	 0.00000000E+00	 0.00000000E+00	 0.00000000E+00

	 0.00000000E+00	 0.00000000E+00	 0.00000000E+00
	 0.00000000E+00	 0.00000000E+00	 0.00000000E+00
	 0.00000000E+00	 0.00000000E+00	 0.00000000E+00

	 0.00000000E+00	 0.00000000E+00	 0.00000000E+00
	 0.00000000E+00	 0.00000000E+00	 0.00000000E+00
	 0.00000000E+00	 0.00000000E+00	 0.00000000E+00

	 0.00000000E+00	 0.00000000E+00	 0.00000000E+00
	 0.00000000E+00	 0.00000000E+00	 0.00000000E+00
	 0.00000000E+00	 0.00000000E+00	 0.00000000E+00

	 0.00000000E+00	 0.00000000E+00	 0.00000000E+00
	 0.00000000E+00	 0.00000000E+00	 0.00000000E+00
	 0.00000000E+00	 0.00000000E+00	 0.00000000E+00

	 0.00000000E+00	 0.00000000E+00	 0.00000000E+00
	 0.00000000E+00	 0.00000000E+00	 0.00000000E+00
	 0.00000000E+00	 0.00000000E+00	 0.00000000E+00

	 0.00000000E+00	 0.00000000E+00	 0.00000000E+00
	 0.00000000E+00	 0.00000000E+00	 0.00000000E+00
	 0.00000000E+00	 0.00000000E+00	 0.00000000E+00

	 0.00000000E+00	 0.00000000E+00	 0.00000000E+00
	 0.00000000E+00	 0.00000000E+00	 0.00000000E+00
	 0.00000000E+00	 0.00000000E+00	 0.00000000E+00

	 0.00000000E+00	 0.00000000E+00	 0.00000000E+00
	 0.00000000E+00	 0.00000000E+00	 0.00000000E+00
	 0.00000000E+00	 0.00000000E+00	 0.00000000E+00

	 0.00000000E+00	 0.00000000E+00	 0.00000000E+00
	 0.00000000E+00	 0.00000000E+00	 0.00000000E+00
	 0.00000000E+00	 0.00000000E+00	 0.00000000E+00

	 0.00000000E+00	 0.00000000E+00	 0.00000000E+00
	 0.00000000E+00	 0.00000000E+00	 0.00000000E+00
	 0.00000000E+00	 0.00000000E+00	 0.00000000E+00

	 0.00000000E+00	 0.00000000E+00	 0.00000000E+00
	 0.00000000E+00	 0.00000000E+00	 0.00000000E+00
	 0.00000000E+00	 0.00000000E+00	 0.00000000E+00

	 0.00000000E+00	 0.00000000E+00	 0.00000000E+00
	 0.00000000E+00	 0.00000000E+00	 0.00000000E+00
	 0.00000000E+00	 0.00000000E+00	 0.00000000E+00

	 0.00000000E+00	 0.00000000E+00	 0.00000000E+00
	 0.00000000E+00	 0.00000000E+00	 0.00000000E+00
	 0.00000000E+00	 0.00000000E+00	 0.00000000E+00

	 0.00000000E+00	 0.00000000E+00	 0.00000000E+00
	 0.00000000E+00	 0.00000000E+00	 0.00000000E+00
	 0.00000000E+00	 0.00000000E+00	 0.00000000E+00

	 0.00000000E+00	 0.00000000E+00	 0.00000000E+00
	 0.00000000E+00	 0.00000000E+00	 0.00000000E+00
	 0.00000000E+00	 0.00000000E+00	 0.00000000E+00

	 0.00000000E+00	 0.00000000E+00	 0.00000000E+00
	 0.00000000E+00	 0.00000000E+00	 0.00000000E+00
	 0.00000000E+00	 0.00000000E+00	 0.00000000E+00

	 0.00000000E+00	 0.00000000E+00	 0.00000000E+00
	 0.00000000E+00	 0.00000000E+00	 0.00000000E+00
	 0.00000000E+00	 0.00000000E+00	 0.00000000E+00

	 0.00000000E+00	 0.00000000E+00	 0.00000000E+00
	 0.00000000E+00	 0.00000000E+00	 0.00000000E+00
	 0.00000000E+00	 0.00000000E+00	 0.00000000E+00

	 0.00000000E+00	 0.00000000E+00	 0.00000000E+00
	 0.00000000E+00	 0.00000000E+00	 0.00000000E+00
	 0.00000000E+00	 0.00000000E+00	 0.00000000E+00

	 0.00000000E+00	 0.00000000E+00	 0.00000000E+00
	 0.00000000E+00	 0.00000000E+00	 0.00000000E+00
	 0.00000000E+00	 0.00000000E+00	 0.00000000E+00

	 0.00000000E+00	 0.00000000E+00	 0.00000000E+00
	 0.00000000E+00	 0.00000000E+00	 0.00000000E+00
	 0.00000000E+00	 0.00000000E+00	 0.00000000E+00

	 0.00000000E+00	 0.00000000E+00	 0.00000000E+00
	 0.00000000E+00	 0.00000000E+00	 0.00000000E+00
	 0.00000000E+00	 0.00000000E+00	 0.00000000E+00

	 0.00000000E+00	 0.00000000E+00	 0.00000000E+00
	 0.00000000E+00	 0.00000000E+00	 0.00000000E+00
	 0.00000000E+00	 0.00000000E+00	 0.00000000E+00

	 0.00000000E+00	 0.00000000E+00	 0.00000000E+00
	 0.00000000E+00	 0.00000000E+00	 0.00000000E+00
	 0.00000000E+00	 0.00000000E+00	 0.00000000E+00

	 0.00000000E+00	 0.00000000E+00	 0.00000000E+00
	 0.00000000E+00	 0.00000000E+00	 0.00000000E+00
	 0.00000000E+00	 0.00000000E+00	 0.00000000E+00

	 0.00000000E+00	 0.00000000E+00	 0.00000000E+00
	 0.00000000E+00	 0.00000000E+00	 0.00000000E+00
	 0.00000000E+00	 0.00000000E+00	 0.00000000E+00

	 0.00000000E+00	 0.00000000E+00	 0.00000000E+00
	 0.00000000E+00	 0.00000000E+00	 0.00000000E+00
	 0.00000000E+00	 0.00000000E+00	 0.00000000E+00

	 0.00000000E+00	 0.00000000E+00	 0.00000000E+00
	 0.00000000E+00	 0.00000000E+00	 0.00000000E+00
	 0.00000000E+00	 0.00000000E+00	 0.00000000E+00

	 0.00000000E+00	 0.00000000E+00	 0.00000000E+00
	 0.00000000E+00	 0.00000000E+00	 0.00000000E+00
	 0.00000000E+00	 0.00000000E+00	 0.00000000E+00

	 0.00000000E+00	 0.00000000E+00	 0.00000000E+00
	 0.00000000E+00	 0.00000000E+00	 0.00000000E+00
	 0.00000000E+00	 0.00000000E+00	 0.00000000E+00

	 0.00000000E+00	 0.00000000E+00	 0.00000000E+00
	 0.00000000E+00	 0.00000000E+00	 0.00000000E+00
	 0.00000000E+00	 0.00000000E+00	 0.00000000E+00

	 0.00000000E+00	 0.00000000E+00	 0.00000000E+00
	 0.00000000E+00	 0.00000000E+00	 0.00000000E+00
	 0.00000000E+00	 0.00000000E+00	 0.00000000E+00

	 0.00000000E+00	 0.00000000E+00	 0.00000000E+00
	 0.00000000E+00	 0.00000000E+00	 0.00000000E+00
	 0.00000000E+00	 0.00000000E+00	 0.00000000E+00

	 0.00000000E+00	 0.00000000E+00	 0.00000000E+00
	 0.00000000E+00	 0.00000000E+00	 0.00000000E+00
	 0.00000000E+00	 0.00000000E+00	 0.00000000E+00

	 0.00000000E+00	 0.00000000E+00	 0.00000000E+00
	 0.00000000E+00	 0.00000000E+00	 0.00000000E+00
	 0.00000000E+00	 0.00000000E+00	 0.00000000E+00

	 0.00000000E+00	 0.00000000E+00	 0.00000000E+00
	 0.00000000E+00	 0.00000000E+00	 0.00000000E+00
	 0.00000000E+00	 0.00000000E+00	 0.00000000E+00

	 0.00000000E+00	 0.00000000E+00	 0.00000000E+00
	 0.00000000E+00	 0.00000000E+00	 0.00000000E+00
	 0.00000000E+00	 0.00000000E+00	 0.00000000E+00

	 0.00000000E+00	 0.00000000E+00	 0.00000000E+00
	 0.00000000E+00	 0.00000000E+00	 0.00000000E+00
	 0.00000000E+00	 0.00000000E+00	 0.00000000E+00

	 0.00000000E+00	 0.00000000E+00	 0.00000000E+00
	 0.00000000E+00	 0.00000000E+00	 0.00000000E+00
	 0.00000000E+00	 0.00000000E+00	 0.00000000E+00

	 0.00000000E+00	 0.00000000E+00	 0.00000000E+00
	 0.00000000E+00	 0.00000000E+00	 0.00000000E+00
	 0.00000000E+00	 0.00000000E+00	 0.00000000E+00

	 0.00000000E+00	 0.00000000E+00	 0.00000000E+00
	 0.00000000E+00	 0.00000000E+00	 0.00000000E+00
	 0.00000000E+00	 0.00000000E+00	 0.00000000E+00

	 0.00000000E+00	 0.00000000E+00	 0.00000000E+00
	 0.00000000E+00	 0.00000000E+00	 0.00000000E+00
	 0.00000000E+00	 0.00000000E+00	 0.00000000E+00

	 0.00000000E+00	 0.00000000E+00	 0.00000000E+00
	 0.00000000E+00	 0.00000000E+00	 0.00000000E+00
	 0.00000000E+00	 0.00000000E+00	 0.00000000E+00

	 0.00000000E+00	 0.00000000E+00	 0.00000000E+00
	 0.00000000E+00	 0.00000000E+00	 0.00000000E+00
	 0.00000000E+00	 0.00000000E+00	 0.00000000E+00

	 0.00000000E+00	 0.00000000E+00	 0.00000000E+00
	 0.00000000E+00	 0.00000000E+00	 0.00000000E+00
	 0.00000000E+00	 0.00000000E+00	 0.00000000E+00

	 0.00000000E+00	 0.00000000E+00	 0.00000000E+00
	 0.00000000E+00	 0.00000000E+00	 0.00000000E+00
	 0.00000000E+00	 0.00000000E+00	 0.00000000E+00

	 0.00000000E+00	 0.00000000E+00	 0.00000000E+00
	 0.00000000E+00	 0.00000000E+00	 0.00000000E+00
	 0.00000000E+00	 0.00000000E+00	 0.00000000E+00

	 0.00000000E+00	 0.00000000E+00	 0.00000000E+00
	 0.00000000E+00	 0.00000000E+00	 0.00000000E+00
	 0.00000000E+00	 0.00000000E+00	 0.00000000E+00

	 0.00000000E+00	 0.00000000E+00	 0.00000000E+00
	 0.00000000E+00	 0.00000000E+00	 0.00000000E+00
	 0.00000000E+00	 0.00000000E+00	 0.00000000E+00

	 0.00000000E+00	 0.00000000E+00	 0.00000000E+00
	 0.00000000E+00	 0.00000000E+00	 0.00000000E+00
	 0.00000000E+00	 0.00000000E+00	 0.00000000E+00

	 0.00000000E+00	 0.00000000E+00	 0.00000000E+00
	 0.00000000E+00	 0.00000000E+00	 0.00000000E+00
	 0.00000000E+00	 0.00000000E+00	 0.00000000E+00

	 0.00000000E+00	 0.00000000E+00	 0.00000000E+00
	 0.00000000E+00	 0.00000000E+00	 0.00000000E+00
	 0.00000000E+00	 0.00000000E+00	 0.00000000E+00

	 0.00000000E+00	 0.00000000E+00	 0.00000000E+00
	 0.00000000E+00	 0.00000000E+00	 0.00000000E+00
	 0.00000000E+00	 0.00000000E+00	 0.00000000E+00

	 0.00000000E+00	 0.00000000E+00	 0.00000000E+00
	 0.00000000E+00	 0.00000000E+00	 0.00000000E+00
	 0.00000000E+00	 0.00000000E+00	 0.00000000E+00

	 0.00000000E+00	 0.00000000E+00	 0.00000000E+00
	 0.00000000E+00	 0.00000000E+00	 0.00000000E+00
	 0.00000000E+00	 0.00000000E+00	 0.00000000E+00

	 0.00000000E+00	 0.00000000E+00	 0.00000000E+00
	 0.00000000E+00	 0.00000000E+00	 0.00000000E+00
	 0.00000000E+00	 0.00000000E+00	 0.00000000E+00

	 0.00000000E+00	 0.00000000E+00	 0.00000000E+00
	 0.00000000E+00	 0.00000000E+00	 0.00000000E+00
	 0.00000000E+00	 0.00000000E+00	 0.00000000E+00

	 0.00000000E+00	 0.00000000E+00	 0.00000000E+00
	 0.00000000E+00	 0.00000000E+00	 0.00000000E+00
	 0.00000000E+00	 0.00000000E+00	 0.00000000E+00

	 0.00000000E+00	 0.00000000E+00	 0.00000000E+00
	 0.00000000E+00	 0.00000000E+00	 0.00000000E+00
	 0.00000000E+00	 0.00000000E+00	 0.00000000E+00

	 0.00000000E+00	 0.00000000E+00	 0.00000000E+00
	 0.00000000E+00	 0.00000000E+00	 0.00000000E+00
	 0.00000000E+00	 0.00000000E+00	 0.00000000E+00

	 0.00000000E+00	 0.00000000E+00	 0.00000000E+00
	 0.00000000E+00	 0.00000000E+00	 0.00000000E+00
	 0.00000000E+00	 0.00000000E+00	 0.00000000E+00

	 0.00000000E+00	 0.00000000E+00	 0.00000000E+00
	 0.00000000E+00	 0.00000000E+00	 0.00000000E+00
	 0.00000000E+00	 0.00000000E+00	 0.00000000E+00

	 0.00000000E+00	 0.00000000E+00	 0.00000000E+00
	 0.00000000E+00	 0.00000000E+00	 0.00000000E+00
	 0.00000000E+00	 0.00000000E+00	 0.00000000E+00

	 0.00000000E+00	 0.00000000E+00	 0.00000000E+00
	 0.00000000E+00	 0.00000000E+00	 0.00000000E+00
	 0.00000000E+00	 0.00000000E+00	 0.00000000E+00

	 0.00000000E+00	 0.00000000E+00	 0.00000000E+00
	 0.00000000E+00	 0.00000000E+00	 0.00000000E+00
	 0.00000000E+00	 0.00000000E+00	 0.00000000E+00

	 0.00000000E+00	 0.00000000E+00	 0.00000000E+00
	 0.00000000E+00	 0.00000000E+00	 0.00000000E+00
	 0.00000000E+00	 0.00000000E+00	 0.00000000E+00

	 0.00000000E+00	 0.00000000E+00	 0.00000000E+00
	 0.00000000E+00	 0.00000000E+00	 0.00000000E+00
	 0.00000000E+00	 0.00000000E+00	 0.00000000E+00

	 0.00000000E+00	 0.00000000E+00	 0.00000000E+00
	 0.00000000E+00	 0.00000000E+00	 0.00000000E+00
	 0.00000000E+00	 0.00000000E+00	 0.00000000E+00

	 0.00000000E+00	 0.00000000E+00	 0.00000000E+00
	 0.00000000E+00	 0.00000000E+00	 0.00000000E+00
	 0.00000000E+00	 0.00000000E+00	 0.00000000E+00

	 0.00000000E+00	 0.00000000E+00	 0.00000000E+00
	 0.00000000E+00	 0.00000000E+00	 0.00000000E+00
	 0.00000000E+00	 0.00000000E+00	 0.00000000E+00

	 0.00000000E+00	 0.00000000E+00	 0.00000000E+00
	 0.00000000E+00	 0.00000000E+00	 0.00000000E+00
	 0.00000000E+00	 0.00000000E+00	 0.00000000E+00

	 0.00000000E+00	 0.00000000E+00	 0.00000000E+00
	 0.00000000E+00	 0.00000000E+00	 0.00000000E+00
	 0.00000000E+00	 0.00000000E+00	 0.00000000E+00

	 0.00000000E+00	 0.00000000E+00	 0.00000000E+00
	 0.00000000E+00	 0.00000000E+00	 0.00000000E+00
	 0.00000000E+00	 0.00000000E+00	 0.00000000E+00

	 0.00000000E+00	 0.00000000E+00	 0.00000000E+00
	 0.00000000E+00	 0.00000000E+00	 0.00000000E+00
	 0.00000000E+00	 0.00000000E+00	 0.00000000E+00

	 0.00000000E+00	 0.00000000E+00	 0.00000000E+00
	 0.00000000E+00	 0.00000000E+00	 0.00000000E+00
	 0.00000000E+00	 0.00000000E+00	 0.00000000E+00

	 0.00000000E+00	 0.00000000E+00	 0.00000000E+00
	 0.00000000E+00	 0.00000000E+00	 0.00000000E+00
	 0.00000000E+00	 0.00000000E+00	 0.00000000E+00

	 0.00000000E+00	 0.00000000E+00	 0.00000000E+00
	 0.00000000E+00	 0.00000000E+00	 0.00000000E+00
	 0.00000000E+00	 0.00000000E+00	 0.00000000E+00

	 0.00000000E+00	 0.00000000E+00	 0.00000000E+00
	 0.00000000E+00	 0.00000000E+00	 0.00000000E+00
	 0.00000000E+00	 0.00000000E+00	 0.00000000E+00

	 0.00000000E+00	 0.00000000E+00	 0.00000000E+00
	 0.00000000E+00	 0.00000000E+00	 0.00000000E+00
	 0.00000000E+00	 0.00000000E+00	 0.00000000E+00

	 0.00000000E+00	 0.00000000E+00	 0.00000000E+00
	 0.00000000E+00	 0.00000000E+00	 0.00000000E+00
	 0.00000000E+00	 0.00000000E+00	 0.00000000E+00

	 0.00000000E+00	 0.00000000E+00	 0.00000000E+00
	 0.00000000E+00	 0.00000000E+00	 0.00000000E+00
	 0.00000000E+00	 0.00000000E+00	 0.00000000E+00

	 0.00000000E+00	 0.00000000E+00	 0.00000000E+00
	 0.00000000E+00	 0.00000000E+00	 0.00000000E+00
	 0.00000000E+00	 0.00000000E+00	 0.00000000E+00

	 0.00000000E+00	 0.00000000E+00	 0.00000000E+00
	 0.00000000E+00	 0.00000000E+00	 0.00000000E+00
	 0.00000000E+00	 0.00000000E+00	 0.00000000E+00

	 0.00000000E+00	 0.00000000E+00	 0.00000000E+00
	 0.00000000E+00	 0.00000000E+00	 0.00000000E+00
	 0.00000000E+00	 0.00000000E+00	 0.00000000E+00

	 0.00000000E+00	 0.00000000E+00	 0.00000000E+00
	 0.00000000E+00	 0.00000000E+00	 0.00000000E+00
	 0.00000000E+00	 0.00000000E+00	 0.00000000E+00

	 0.00000000E+00	 0.00000000E+00	 0.00000000E+00
	 0.00000000E+00	 0.00000000E+00	 0.00000000E+00
	 0.00000000E+00	 0.00000000E+00	 0.00000000E+00

	 0.00000000E+00	 0.00000000E+00	 0.00000000E+00
	 0.00000000E+00	 0.00000000E+00	 0.00000000E+00
	 0.00000000E+00	 0.00000000E+00	 0.00000000E+00

	 0.00000000E+00	 0.00000000E+00	 0.00000000E+00
	 0.00000000E+00	 0.00000000E+00	 0.00000000E+00
	 0.00000000E+00	 0.00000000E+00	 0.00000000E+00

	 0.00000000E+00	 0.00000000E+00	 0.00000000E+00
	 0.00000000E+00	 0.00000000E+00	 0.00000000E+00
	 0.00000000E+00	 0.00000000E+00	 0.00000000E+00

	 0.00000000E+00	 0.00000000E+00	 0.00000000E+00
	 0.00000000E+00	 0.00000000E+00	 0.00000000E+00
	 0.00000000E+00	 0.00000000E+00	 0.00000000E+00

	 0.00000000E+00	 0.00000000E+00	 0.00000000E+00
	 0.00000000E+00	 0.00000000E+00	 0.00000000E+00
	 0.00000000E+00	 0.00000000E+00	 0.00000000E+00

	 0.00000000E+00	 0.00000000E+00	 0.00000000E+00
	 0.00000000E+00	 0.00000000E+00	 0.00000000E+00
	 0.00000000E+00	 0.00000000E+00	 0.00000000E+00

	 0.00000000E+00	 0.00000000E+00	 0.00000000E+00
	 0.00000000E+00	 0.00000000E+00	 0.00000000E+00
	 0.00000000E+00	 0.00000000E+00	 0.00000000E+00

	 0.00000000E+00	 0.00000000E+00	 0.00000000E+00
	 0.00000000E+00	 0.00000000E+00	 0.00000000E+00
	 0.00000000E+00	 0.00000000E+00	 0.00000000E+00

	 0.00000000E+00	 0.00000000E+00	 0.00000000E+00
	 0.00000000E+00	 0.00000000E+00	 0.00000000E+00
	 0.00000000E+00	 0.00000000E+00	 0.00000000E+00

	 0.00000000E+00	 0.00000000E+00	 0.00000000E+00
	 0.00000000E+00	 0.00000000E+00	 0.00000000E+00
	 0.00000000E+00	 0.00000000E+00	 0.00000000E+00

	 0.00000000E+00	 0.00000000E+00	 0.00000000E+00
	 0.00000000E+00	 0.00000000E+00	 0.00000000E+00
	 0.00000000E+00	 0.00000000E+00	 0.00000000E+00

	 0.00000000E+00	 0.00000000E+00	 0.00000000E+00
	 0.00000000E+00	 0.00000000E+00	 0.00000000E+00
	 0.00000000E+00	 0.00000000E+00	 0.00000000E+00

	 0.00000000E+00	 0.00000000E+00	 0.00000000E+00
	 0.00000000E+00	 0.00000000E+00	 0.00000000E+00
	 0.00000000E+00	 0.00000000E+00	 0.00000000E+00

	 0.00000000E+00	 0.00000000E+00	 0.00000000E+00
	 0.00000000E+00	 0.00000000E+00	 0.00000000E+00
	 0.00000000E+00	 0.00000000E+00	 0.00000000E+00

	 0.00000000E+00	 0.00000000E+00	 0.00000000E+00
	 0.00000000E+00	 0.00000000E+00	 0.00000000E+00
	 0.00000000E+00	 0.00000000E+00	 0.00000000E+00

	 0.00000000E+00	 0.00000000E+00	 0.00000000E+00
	 0.00000000E+00	 0.00000000E+00	 0.00000000E+00
	 0.00000000E+00	 0.00000000E+00	 0.00000000E+00

	 0.00000000E+00	 0.00000000E+00	 0.00000000E+00
	 0.00000000E+00	 0.00000000E+00	 0.00000000E+00
	 0.00000000E+00	 0.00000000E+00	 0.00000000E+00

	 0.00000000E+00	 0.00000000E+00	 0.00000000E+00
	 0.00000000E+00	 0.00000000E+00	 0.00000000E+00
	 0.00000000E+00	 0.00000000E+00	 0.00000000E+00

	 0.00000000E+00	 0.00000000E+00	 0.00000000E+00
	 0.00000000E+00	 0.00000000E+00	 0.00000000E+00
	 0.00000000E+00	 0.00000000E+00	 0.00000000E+00

	 0.00000000E+00	 0.00000000E+00	 0.00000000E+00
	 0.00000000E+00	 0.00000000E+00	 0.00000000E+00
	 0.00000000E+00	 0.00000000E+00	 0.00000000E+00

	 0.00000000E+00	 0.00000000E+00	 0.00000000E+00
	 0.00000000E+00	 0.00000000E+00	 0.00000000E+00
	 0.00000000E+00	 0.00000000E+00	 0.00000000E+00

	 0.00000000E+00	 0.00000000E+00	 0.00000000E+00
	 0.00000000E+00	 0.00000000E+00	 0.00000000E+00
	 0.00000000E+00	 0.00000000E+00	 0.00000000E+00

	 0.00000000E+00	 0.00000000E+00	 0.00000000E+00
	 0.00000000E+00	 0.00000000E+00	 0.00000000E+00
	 0.00000000E+00	 0.00000000E+00	 0.00000000E+00

	 0.00000000E+00	 0.00000000E+00	 0.00000000E+00
	 0.00000000E+00	 0.00000000E+00	 0.00000000E+00
	 0.00000000E+00	 0.00000000E+00	 0.00000000E+00

	 0.00000000E+00	 0.00000000E+00	 0.00000000E+00
	 0.00000000E+00	 0.00000000E+00	 0.00000000E+00
	 0.00000000E+00	 0.00000000E+00	 0.00000000E+00

	 0.00000000E+00	 0.00000000E+00	 0.00000000E+00
	 0.00000000E+00	 0.00000000E+00	 0.00000000E+00
	 0.00000000E+00	 0.00000000E+00	 0.00000000E+00

	 0.00000000E+00	 0.00000000E+00	 0.00000000E+00
	 0.00000000E+00	 0.00000000E+00	 0.00000000E+00
	 0.00000000E+00	 0.00000000E+00	 0.00000000E+00

	 0.00000000E+00	 0.00000000E+00	 0.00000000E+00
	 0.00000000E+00	 0.00000000E+00	 0.00000000E+00
	 0.00000000E+00	 0.00000000E+00	 0.00000000E+00

	 0.00000000E+00	 0.00000000E+00	 0.00000000E+00
	 0.00000000E+00	 0.00000000E+00	 0.00000000E+00
	 0.00000000E+00	 0.00000000E+00	 0.00000000E+00

	 0.00000000E+00	 0.00000000E+00	 0.00000000E+00
	 0.00000000E+00	 0.00000000E+00	 0.00000000E+00
	 0.00000000E+00	 0.00000000E+00	 0.00000000E+00

	 0.00000000E+00	 0.00000000E+00	 0.00000000E+00
	 0.00000000E+00	 0.00000000E+00	 0.00000000E+00
	 0.00000000E+00	 0.00000000E+00	 0.00000000E+00

	 0.00000000E+00	 0.00000000E+00	 0.00000000E+00
	 0.00000000E+00	 0.00000000E+00	 0.00000000E+00
	 0.00000000E+00	 0.00000000E+00	 0.00000000E+00

	 0.00000000E+00	 0.00000000E+00	 0.00000000E+00
	 0.00000000E+00	 0.00000000E+00	 0.00000000E+00
	 0.00000000E+00	 0.00000000E+00	 0.00000000E+00

	 0.00000000E+00	 0.00000000E+00	 0.00000000E+00
	 0.00000000E+00	 0.00000000E+00	 0.00000000E+00
	 0.00000000E+00	 0.00000000E+00	 0.00000000E+00

	 0.00000000E+00	 0.00000000E+00	 0.00000000E+00
	 0.00000000E+00	 0.00000000E+00	 0.00000000E+00
	 0.00000000E+00	 0.00000000E+00	 0.00000000E+00

	 0.00000000E+00	 0.00000000E+00	 0.00000000E+00
	 0.00000000E+00	 0.00000000E+00	 0.00000000E+00
	 0.00000000E+00	 0.00000000E+00	 0.00000000E+00

	 0.00000000E+00	 0.00000000E+00	 0.00000000E+00
	 0.00000000E+00	 0.00000000E+00	 0.00000000E+00
	 0.00000000E+00	 0.00000000E+00	 0.00000000E+00

	 0.00000000E+00	 0.00000000E+00	 0.00000000E+00
	 0.00000000E+00	 0.00000000E+00	 0.00000000E+00
	 0.00000000E+00	 0.00000000E+00	 0.00000000E+00

	 0.00000000E+00	 0.00000000E+00	 0.00000000E+00
	 0.00000000E+00	 0.00000000E+00	 0.00000000E+00
	 0.00000000E+00	 0.00000000E+00	 0.00000000E+00

	 0.00000000E+00	 0.00000000E+00	 0.00000000E+00
	 0.00000000E+00	 0.00000000E+00	 0.00000000E+00
	 0.00000000E+00	 0.00000000E+00	 0.00000000E+00

	 0.00000000E+00	 0.00000000E+00	 0.00000000E+00
	 0.00000000E+00	 0.00000000E+00	 0.00000000E+00
	 0.00000000E+00	 0.00000000E+00	 0.00000000E+00

	 0.00000000E+00	 0.00000000E+00	 0.00000000E+00
	 0.00000000E+00	 0.00000000E+00	 0.00000000E+00
	 0.00000000E+00	 0.00000000E+00	 0.00000000E+00

	 0.00000000E+00	 0.00000000E+00	 0.00000000E+00
	 0.00000000E+00	 0.00000000E+00	 0.00000000E+00
	 0.00000000E+00	 0.00000000E+00	 0.00000000E+00

	 0.00000000E+00	 0.00000000E+00	 0.00000000E+00
	 0.00000000E+00	 0.00000000E+00	 0.00000000E+00
	 0.00000000E+00	 0.00000000E+00	 0.00000000E+00

	 0.00000000E+00	 0.00000000E+00	 0.00000000E+00
	 0.00000000E+00	 0.00000000E+00	 0.00000000E+00
	 0.00000000E+00	 0.00000000E+00	 0.00000000E+00

	 0.00000000E+00	 0.00000000E+00	 0.00000000E+00
	 0.00000000E+00	 0.00000000E+00	 0.00000000E+00
	 0.00000000E+00	 0.00000000E+00	 0.00000000E+00

	 0.00000000E+00	 0.00000000E+00	 0.00000000E+00
	 0.00000000E+00	 0.00000000E+00	 0.00000000E+00
	 0.00000000E+00	 0.00000000E+00	 0.00000000E+00

	 0.00000000E+00	 0.00000000E+00	 0.00000000E+00
	 0.00000000E+00	 0.00000000E+00	 0.00000000E+00
	 0.00000000E+00	 0.00000000E+00	 0.00000000E+00

	 0.00000000E+00	 0.00000000E+00	 0.00000000E+00
	 0.00000000E+00	 0.00000000E+00	 0.00000000E+00
	 0.00000000E+00	 0.00000000E+00	 0.00000000E+00

	 0.00000000E+00	 0.00000000E+00	 0.00000000E+00
	 0.00000000E+00	 0.00000000E+00	 0.00000000E+00
	 0.00000000E+00	 0.00000000E+00	 0.00000000E+00

	 0.00000000E+00	 0.00000000E+00	 0.00000000E+00
	 0.00000000E+00	 0.00000000E+00	 0.00000000E+00
	 0.00000000E+00	 0.00000000E+00	 0.00000000E+00

	 0.00000000E+00	 0.00000000E+00	 0.00000000E+00
	 0.00000000E+00	 0.00000000E+00	 0.00000000E+00
	 0.00000000E+00	 0.00000000E+00	 0.00000000E+00

	 0.00000000E+00	 0.00000000E+00	 0.00000000E+00
	 0.00000000E+00	 0.00000000E+00	 0.00000000E+00
	 0.00000000E+00	 0.00000000E+00	 0.00000000E+00

	 0.00000000E+00	 0.00000000E+00	 0.00000000E+00
	 0.00000000E+00	 0.00000000E+00	 0.00000000E+00
	 0.00000000E+00	 0.00000000E+00	 0.00000000E+00

	 0.00000000E+00	 0.00000000E+00	 0.00000000E+00
	 0.00000000E+00	 0.00000000E+00	 0.00000000E+00
	 0.00000000E+00	 0.00000000E+00	 0.00000000E+00

	 0.00000000E+00	 0.00000000E+00	 0.00000000E+00
	 0.00000000E+00	 0.00000000E+00	 0.00000000E+00
	 0.00000000E+00	 0.00000000E+00	 0.00000000E+00

	 0.00000000E+00	 0.00000000E+00	 0.00000000E+00
	 0.00000000E+00	 0.00000000E+00	 0.00000000E+00
	 0.00000000E+00	 0.00000000E+00	 0.00000000E+00

	 0.00000000E+00	 0.00000000E+00	 0.00000000E+00
	 0.00000000E+00	 0.00000000E+00	 0.00000000E+00
	 0.00000000E+00	 0.00000000E+00	 0.00000000E+00

	 0.00000000E+00	 0.00000000E+00	 0.00000000E+00
	 0.00000000E+00	 0.00000000E+00	 0.00000000E+00
	 0.00000000E+00	 0.00000000E+00	 0.00000000E+00

	 0.00000000E+00	 0.00000000E+00	 0.00000000E+00
	 0.00000000E+00	 0.00000000E+00	 0.00000000E+00
	 0.00000000E+00	 0.00000000E+00	 0.00000000E+00

	 0.00000000E+00	 0.00000000E+00	 0.00000000E+00
	 0.00000000E+00	 0.00000000E+00	 0.00000000E+00
	 0.00000000E+00	 0.00000000E+00	 0.00000000E+00

	 0.00000000E+00	 0.00000000E+00	 0.00000000E+00
	 0.00000000E+00	 0.00000000E+00	 0.00000000E+00
	 0.00000000E+00	 0.00000000E+00	 0.00000000E+00

	 0.00000000E+00	 0.00000000E+00	 0.00000000E+00
	 0.00000000E+00	 0.00000000E+00	 0.00000000E+00
	 0.00000000E+00	 0.00000000E+00	 0.00000000E+00

	 0.00000000E+00	 0.00000000E+00	 0.00000000E+00
	 0.00000000E+00	 0.00000000E+00	 0.00000000E+00
	 0.00000000E+00	 0.00000000E+00	 0.00000000E+00

	 0.00000000E+00	 0.00000000E+00	 0.00000000E+00
	 0.00000000E+00	 0.00000000E+00	 0.00000000E+00
	 0.00000000E+00	 0.00000000E+00	 0.00000000E+00

	 0.00000000E+00	 0.00000000E+00	 0.00000000E+00
	 0.00000000E+00	 0.00000000E+00	 0.00000000E+00
	 0.00000000E+00	 0.00000000E+00	 0.00000000E+00

	 0.00000000E+00	 0.00000000E+00	 0.00000000E+00
	 0.00000000E+00	 0.00000000E+00	 0.00000000E+00
	 0.00000000E+00	 0.00000000E+00	 0.00000000E+00

	 0.00000000E+00	 0.00000000E+00	 0.00000000E+00
	 0.00000000E+00	 0.00000000E+00	 0.00000000E+00
	 0.00000000E+00	 0.00000000E+00	 0.00000000E+00

	 0.00000000E+00	 0.00000000E+00	 0.00000000E+00
	 0.00000000E+00	 0.00000000E+00	 0.00000000E+00
	 0.00000000E+00	 0.00000000E+00	 0.00000000E+00

	 0.00000000E+00	 0.00000000E+00	 0.00000000E+00
	 0.00000000E+00	 0.00000000E+00	 0.00000000E+00
	 0.00000000E+00	 0.00000000E+00	 0.00000000E+00

	 0.00000000E+00	 0.00000000E+00	 0.00000000E+00
	 0.00000000E+00	 0.00000000E+00	 0.00000000E+00
	 0.00000000E+00	 0.00000000E+00	 0.00000000E+00

	 0.00000000E+00	 0.00000000E+00	 0.00000000E+00
	 0.00000000E+00	 0.00000000E+00	 0.00000000E+00
	 0.00000000E+00	 0.00000000E+00	 0.00000000E+00

	 0.00000000E+00	 0.00000000E+00	 0.00000000E+00
	 0.00000000E+00	 0.00000000E+00	 0.00000000E+00
	 0.00000000E+00	 0.00000000E+00	 0.00000000E+00

	 0.00000000E+00	 0.00000000E+00	 0.00000000E+00
	 0.00000000E+00	 0.00000000E+00	 0.00000000E+00
	 0.00000000E+00	 0.00000000E+00	 0.00000000E+00

	 0.00000000E+00	 0.00000000E+00	 0.00000000E+00
	 0.00000000E+00	 0.00000000E+00	 0.00000000E+00
	 0.00000000E+00	 0.00000000E+00	 0.00000000E+00

	 0.00000000E+00	 0.00000000E+00	 0.00000000E+00
	 0.00000000E+00	 0.00000000E+00	 0.00000000E+00
	 0.00000000E+00	 0.00000000E+00	 0.00000000E+00

	 0.00000000E+00	 0.00000000E+00	 0.00000000E+00
	 0.00000000E+00	 0.00000000E+00	 0.00000000E+00
	 0.00000000E+00	 0.00000000E+00	 0.00000000E+00

	 0.00000000E+00	 0.00000000E+00	 0.00000000E+00
	 0.00000000E+00	 0.00000000E+00	 0.00000000E+00
	 0.00000000E+00	 0.00000000E+00	 0.00000000E+00

	 0.00000000E+00	 0.00000000E+00	 0.00000000E+00
	 0.00000000E+00	 0.00000000E+00	 0.00000000E+00
	 0.00000000E+00	 0.00000000E+00	 0.00000000E+00

	 0.00000000E+00	 0.00000000E+00	 0.00000000E+00
	 0.00000000E+00	 0.00000000E+00	 0.00000000E+00
	 0.00000000E+00	 0.00000000E+00	 0.00000000E+00

	 0.00000000E+00	 0.00000000E+00	 0.00000000E+00
	 0.00000000E+00	 0.00000000E+00	 0.00000000E+00
	 0.00000000E+00	 0.00000000E+00	 0.00000000E+00

	 0.00000000E+00	 0.00000000E+00	 0.00000000E+00
	 0.00000000E+00	 0.00000000E+00	 0.00000000E+00
	 0.00000000E+00	 0.00000000E+00	 0.00000000E+00

	 0.00000000E+00	 0.00000000E+00	 0.00000000E+00
	 0.00000000E+00	 0.00000000E+00	 0.00000000E+00
	 0.00000000E+00	 0.00000000E+00	 0.00000000E+00

	 0.00000000E+00	 0.00000000E+00	 0.00000000E+00
	 0.00000000E+00	 0.00000000E+00	 0.00000000E+00
	 0.00000000E+00	 0.00000000E+00	 0.00000000E+00

	 0.00000000E+00	 0.00000000E+00	 0.00000000E+00
	 0.00000000E+00	 0.00000000E+00	 0.00000000E+00
	 0.00000000E+00	 0.00000000E+00	 0.00000000E+00

	 0.00000000E+00	 0.00000000E+00	 0.00000000E+00
	 0.00000000E+00	 0.00000000E+00	 0.00000000E+00
	 0.00000000E+00	 0.00000000E+00	 0.00000000E+00

	 0.00000000E+00	 0.00000000E+00	 0.00000000E+00
	 0.00000000E+00	 0.00000000E+00	 0.00000000E+00
	 0.00000000E+00	 0.00000000E+00	 0.00000000E+00

	 0.00000000E+00	 0.00000000E+00	 0.00000000E+00
	 0.00000000E+00	 0.00000000E+00	 0.00000000E+00
	 0.00000000E+00	 0.00000000E+00	 0.00000000E+00

	 0.00000000E+00	 0.00000000E+00	 0.00000000E+00
	 0.00000000E+00	 0.00000000E+00	 0.00000000E+00
	 0.00000000E+00	 0.00000000E+00	 0.00000000E+00

	 0.00000000E+00	 0.00000000E+00	 0.00000000E+00
	 0.00000000E+00	 0.00000000E+00	 0.00000000E+00
	 0.00000000E+00	 0.00000000E+00	 0.00000000E+00

	 0.00000000E+00	 0.00000000E+00	 0.00000000E+00
	 0.00000000E+00	 0.00000000E+00	 0.00000000E+00
	 0.00000000E+00	 0.00000000E+00	 0.00000000E+00

	 0.00000000E+00	 0.00000000E+00	 0.00000000E+00
	 0.00000000E+00	 0.00000000E+00	 0.00000000E+00
	 0.00000000E+00	 0.00000000E+00	 0.00000000E+00

	 0.00000000E+00	 0.00000000E+00	 0.00000000E+00
	 0.00000000E+00	 0.00000000E+00	 0.00000000E+00
	 0.00000000E+00	 0.00000000E+00	 0.00000000E+00

	 0.00000000E+00	 0.00000000E+00	 0.00000000E+00
	 0.00000000E+00	 0.00000000E+00	 0.00000000E+00
	 0.00000000E+00	 0.00000000E+00	 0.00000000E+00

	 0.00000000E+00	 0.00000000E+00	 0.00000000E+00
	 0.00000000E+00	 0.00000000E+00	 0.00000000E+00
	 0.00000000E+00	 0.00000000E+00	 0.00000000E+00

	 0.00000000E+00	 0.00000000E+00	 0.00000000E+00
	 0.00000000E+00	 0.00000000E+00	 0.00000000E+00
	 0.00000000E+00	 0.00000000E+00	 0.00000000E+00

	 0.00000000E+00	 0.00000000E+00	 0.00000000E+00
	 0.00000000E+00	 0.00000000E+00	 0.00000000E+00
	 0.00000000E+00	 0.00000000E+00	 0.00000000E+00

	 0.00000000E+00	 0.00000000E+00	 0.00000000E+00
	 0.00000000E+00	 0.00000000E+00	 0.00000000E+00
	 0.00000000E+00	 0.00000000E+00	 0.00000000E+00

	 0.00000000E+00	 0.00000000E+00	 0.00000000E+00
	 0.00000000E+00	 0.00000000E+00	 0.00000000E+00
	 0.00000000E+00	 0.00000000E+00	 0.00000000E+00

	 0.00000000E+00	 0.00000000E+00	 0.00000000E+00
	 0.00000000E+00	 0.00000000E+00	 0.00000000E+00
	 0.00000000E+00	 0.00000000E+00	 0.00000000E+00

	 0.00000000E+00	 0.00000000E+00	 0.00000000E+00
	 0.00000000E+00	 0.00000000E+00	 0.00000000E+00
	 0.00000000E+00	 0.00000000E+00	 0.00000000E+00

	 0.00000000E+00	 0.00000000E+00	 0.00000000E+00
	 0.00000000E+00	 0.00000000E+00	 0.00000000E+00
	 0.00000000E+00	 0.00000000E+00	 0.00000000E+00

	 0.00000000E+00	 0.00000000E+00	 0.00000000E+00
	 0.00000000E+00	 0.00000000E+00	 0.00000000E+00
	 0.00000000E+00	 0.00000000E+00	 0.00000000E+00

	 0.00000000E+00	 0.00000000E+00	 0.00000000E+00
	 0.00000000E+00	 0.00000000E+00	 0.00000000E+00
	 0.00000000E+00	 0.00000000E+00	 0.00000000E+00

	 0.00000000E+00	 0.00000000E+00	 0.00000000E+00
	 0.00000000E+00	 0.00000000E+00	 0.00000000E+00
	 0.00000000E+00	 0.00000000E+00	 0.00000000E+00

	 0.00000000E+00	 0.00000000E+00	 0.00000000E+00
	 0.00000000E+00	 0.00000000E+00	 0.00000000E+00
	 0.00000000E+00	 0.00000000E+00	 0.00000000E+00

	 0.00000000E+00	 0.00000000E+00	 0.00000000E+00
	 0.00000000E+00	 0.00000000E+00	 0.00000000E+00
	 0.00000000E+00	 0.00000000E+00	 0.00000000E+00

	 0.00000000E+00	 0.00000000E+00	 0.00000000E+00
	 0.00000000E+00	 0.00000000E+00	 0.00000000E+00
	 0.00000000E+00	 0.00000000E+00	 0.00000000E+00

	 0.00000000E+00	 0.00000000E+00	 0.00000000E+00
	 0.00000000E+00	 0.00000000E+00	 0.00000000E+00
	 0.00000000E+00	 0.00000000E+00	 0.00000000E+00

	 0.00000000E+00	 0.00000000E+00	 0.00000000E+00
	 0.00000000E+00	 0.00000000E+00	 0.00000000E+00
	 0.00000000E+00	 0.00000000E+00	 0.00000000E+00

	 0.00000000E+00	 0.00000000E+00	 0.00000000E+00
	 0.00000000E+00	 0.00000000E+00	 0.00000000E+00
	 0.00000000E+00	 0.00000000E+00	 0.00000000E+00

	 0.00000000E+00	 0.00000000E+00	 0.00000000E+00
	 0.00000000E+00	 0.00000000E+00	 0.00000000E+00
	 0.00000000E+00	 0.00000000E+00	 0.00000000E+00

	 0.00000000E+00	 0.00000000E+00	 0.00000000E+00
	 0.00000000E+00	 0.00000000E+00	 0.00000000E+00
	 0.00000000E+00	 0.00000000E+00	 0.00000000E+00

	 0.00000000E+00	 0.00000000E+00	 0.00000000E+00
	 0.00000000E+00	 0.00000000E+00	 0.00000000E+00
	 0.00000000E+00	 0.00000000E+00	 0.00000000E+00

	 0.00000000E+00	 0.00000000E+00	 0.00000000E+00
	 0.00000000E+00	 0.00000000E+00	 0.00000000E+00
	 0.00000000E+00	 0.00000000E+00	 0.00000000E+00

	 0.00000000E+00	 0.00000000E+00	 0.00000000E+00
	 0.00000000E+00	 0.00000000E+00	 0.00000000E+00
	 0.00000000E+00	 0.00000000E+00	 0.00000000E+00

	 0.00000000E+00	 0.00000000E+00	 0.00000000E+00
	 0.00000000E+00	 0.00000000E+00	 0.00000000E+00
	 0.00000000E+00	 0.00000000E+00	 0.00000000E+00

	 0.00000000E+00	 0.00000000E+00	 0.00000000E+00
	 0.00000000E+00	 0.00000000E+00	 0.00000000E+00
	 0.00000000E+00	 0.00000000E+00	 0.00000000E+00

	 0.00000000E+00	 0.00000000E+00	 0.00000000E+00
	 0.00000000E+00	 0.00000000E+00	 0.00000000E+00
	 0.00000000E+00	 0.00000000E+00	 0.00000000E+00

	 0.00000000E+00	 0.00000000E+00	 0.00000000E+00
	 0.00000000E+00	 0.00000000E+00	 0.00000000E+00
	 0.00000000E+00	 0.00000000E+00	 0.00000000E+00

	 0.00000000E+00	 0.00000000E+00	 0.00000000E+00
	 0.00000000E+00	 0.00000000E+00	 0.00000000E+00
	 0.00000000E+00	 0.00000000E+00	 0.00000000E+00

	 0.00000000E+00	 0.00000000E+00	 0.00000000E+00
	 0.00000000E+00	 0.00000000E+00	 0.00000000E+00
	 0.00000000E+00	 0.00000000E+00	 0.00000000E+00

	 0.00000000E+00	 0.00000000E+00	 0.00000000E+00
	 0.00000000E+00	 0.00000000E+00	 0.00000000E+00
	 0.00000000E+00	 0.00000000E+00	 0.00000000E+00

	 0.00000000E+00	 0.00000000E+00	 0.00000000E+00
	 0.00000000E+00	 0.00000000E+00	 0.00000000E+00
	 0.00000000E+00	 0.00000000E+00	 0.00000000E+00

	 0.00000000E+00	 0.00000000E+00	 0.00000000E+00
	 0.00000000E+00	 0.00000000E+00	 0.00000000E+00
	 0.00000000E+00	 0.00000000E+00	 0.00000000E+00

	 0.00000000E+00	 0.00000000E+00	 0.00000000E+00
	 0.00000000E+00	 0.00000000E+00	 0.00000000E+00
	 0.00000000E+00	 0.00000000E+00	 0.00000000E+00

	 0.00000000E+00	 0.00000000E+00	 0.00000000E+00
	 0.00000000E+00	 0.00000000E+00	 0.00000000E+00
	 0.00000000E+00	 0.00000000E+00	 0.00000000E+00

	 0.00000000E+00	 0.00000000E+00	 0.00000000E+00
	 0.00000000E+00	 0.00000000E+00	 0.00000000E+00
	 0.00000000E+00	 0.00000000E+00	 0.00000000E+00

	 0.00000000E+00	 0.00000000E+00	 0.00000000E+00
	 0.00000000E+00	 0.00000000E+00	 0.00000000E+00
	 0.00000000E+00	 0.00000000E+00	 0.00000000E+00

	 0.00000000E+00	 0.00000000E+00	 0.00000000E+00
	 0.00000000E+00	 0.00000000E+00	 0.00000000E+00
	 0.00000000E+00	 0.00000000E+00	 0.00000000E+00

	 0.00000000E+00	 0.00000000E+00	 0.00000000E+00
	 0.00000000E+00	 0.00000000E+00	 0.00000000E+00
	 0.00000000E+00	 0.00000000E+00	 0.00000000E+00

	 0.00000000E+00	 0.00000000E+00	 0.00000000E+00
	 0.00000000E+00	 0.00000000E+00	 0.00000000E+00
	 0.00000000E+00	 0.00000000E+00	 0.00000000E+00

	 0.00000000E+00	 0.00000000E+00	 0.00000000E+00
	 0.00000000E+00	 0.00000000E+00	 0.00000000E+00
	 0.00000000E+00	 0.00000000E+00	 0.00000000E+00

	 0.00000000E+00	 0.00000000E+00	 0.00000000E+00
	 0.00000000E+00	 0.00000000E+00	 0.00000000E+00
	 0.00000000E+00	 0.00000000E+00	 0.00000000E+00

	 0.00000000E+00	 0.00000000E+00	 0.00000000E+00
	 0.00000000E+00	 0.00000000E+00	 0.00000000E+00
	 0.00000000E+00	 0.00000000E+00	 0.00000000E+00

	 0.00000000E+00	 0.00000000E+00	 0.00000000E+00
	 0.00000000E+00	 0.00000000E+00	 0.00000000E+00
	 0.00000000E+00	 0.00000000E+00	 0.00000000E+00

	 0.00000000E+00	 0.00000000E+00	 0.00000000E+00
	 0.00000000E+00	 0.00000000E+00	 0.00000000E+00
	 0.00000000E+00	 0.00000000E+00	 0.00000000E+00

	 0.00000000E+00	 0.00000000E+00	 0.00000000E+00
	 0.00000000E+00	 0.00000000E+00	 0.00000000E+00
	 0.00000000E+00	 0.00000000E+00	 0.00000000E+00

	 0.00000000E+00	 0.00000000E+00	 0.00000000E+00
	 0.00000000E+00	 0.00000000E+00	 0.00000000E+00
	 0.00000000E+00	 0.00000000E+00	 0.00000000E+00

	 0.00000000E+00	 0.00000000E+00	 0.00000000E+00
	 0.00000000E+00	 0.00000000E+00	 0.00000000E+00
	 0.00000000E+00	 0.00000000E+00	 0.00000000E+00

	 0.00000000E+00	 0.00000000E+00	 0.00000000E+00
	 0.00000000E+00	 0.00000000E+00	 0.00000000E+00
	 0.00000000E+00	 0.00000000E+00	 0.00000000E+00

	 0.00000000E+00	 0.00000000E+00	 0.00000000E+00
	 0.00000000E+00	 0.00000000E+00	 0.00000000E+00
	 0.00000000E+00	 0.00000000E+00	 0.00000000E+00

	 0.00000000E+00	 0.00000000E+00	 0.00000000E+00
	 0.00000000E+00	 0.00000000E+00	 0.00000000E+00
	 0.00000000E+00	 0.00000000E+00	 0.00000000E+00

	 0.00000000E+00	 0.00000000E+00	 0.00000000E+00
	 0.00000000E+00	 0.00000000E+00	 0.00000000E+00
	 0.00000000E+00	 0.00000000E+00	 0.00000000E+00

	 0.00000000E+00	 0.00000000E+00	 0.00000000E+00
	 0.00000000E+00	 0.00000000E+00	 0.00000000E+00
	 0.00000000E+00	 0.00000000E+00	 0.00000000E+00

	 0.00000000E+00	 0.00000000E+00	 0.00000000E+00
	 0.00000000E+00	 0.00000000E+00	 0.00000000E+00
	 0.00000000E+00	 0.00000000E+00	 0.00000000E+00

	 0.00000000E+00	 0.00000000E+00	 0.00000000E+00
	 0.00000000E+00	 0.00000000E+00	 0.00000000E+00
	 0.00000000E+00	 0.00000000E+00	 0.00000000E+00

	 0.00000000E+00	 0.00000000E+00	 0.00000000E+00
	 0.00000000E+00	 0.00000000E+00	 0.00000000E+00
	 0.00000000E+00	 0.00000000E+00	 0.00000000E+00

	 0.00000000E+00	 0.00000000E+00	 0.00000000E+00
	 0.00000000E+00	 0.00000000E+00	 0.00000000E+00
	 0.00000000E+00	 0.00000000E+00	 0.00000000E+00

	 0.00000000E+00	 0.00000000E+00	 0.00000000E+00
	 0.00000000E+00	 0.00000000E+00	 0.00000000E+00
	 0.00000000E+00	 0.00000000E+00	 0.00000000E+00

	 0.00000000E+00	 0.00000000E+00	 0.00000000E+00
	 0.00000000E+00	 0.00000000E+00	 0.00000000E+00
	 0.00000000E+00	 0.00000000E+00	 0.00000000E+00

	 0.00000000E+00	 0.00000000E+00	 0.00000000E+00
	 0.00000000E+00	 0.00000000E+00	 0.00000000E+00
	 0.00000000E+00	 0.00000000E+00	 0.00000000E+00

	 0.00000000E+00	 0.00000000E+00	 0.00000000E+00
	 0.00000000E+00	 0.00000000E+00	 0.00000000E+00
	 0.00000000E+00	 0.00000000E+00	 0.00000000E+00

	 0.00000000E+00	 0.00000000E+00	 0.00000000E+00
	 0.00000000E+00	 0.00000000E+00	 0.00000000E+00
	 0.00000000E+00	 0.00000000E+00	 0.00000000E+00

	 0.00000000E+00	 0.00000000E+00	 0.00000000E+00
	 0.00000000E+00	 0.00000000E+00	 0.00000000E+00
	 0.00000000E+00	 0.00000000E+00	 0.00000000E+00

	 0.00000000E+00	 0.00000000E+00	 0.00000000E+00
	 0.00000000E+00	 0.00000000E+00	 0.00000000E+00
	 0.00000000E+00	 0.00000000E+00	 0.00000000E+00

	 0.00000000E+00	 0.00000000E+00	 0.00000000E+00
	 0.00000000E+00	 0.00000000E+00	 0.00000000E+00
	 0.00000000E+00	 0.00000000E+00	 0.00000000E+00

	 0.00000000E+00	 0.00000000E+00	 0.00000000E+00
	 0.00000000E+00	 0.00000000E+00	 0.00000000E+00
	 0.00000000E+00	 0.00000000E+00	 0.00000000E+00

	 0.00000000E+00	 0.00000000E+00	 0.00000000E+00
	 0.00000000E+00	 0.00000000E+00	 0.00000000E+00
	 0.00000000E+00	 0.00000000E+00	 0.00000000E+00

	 0.00000000E+00	 0.00000000E+00	 0.00000000E+00
	 0.00000000E+00	 0.00000000E+00	 0.00000000E+00
	 0.00000000E+00	 0.00000000E+00	 0.00000000E+00

	 0.00000000E+00	 0.00000000E+00	 0.00000000E+00
	 0.00000000E+00	 0.00000000E+00	 0.00000000E+00
	 0.00000000E+00	 0.00000000E+00	 0.00000000E+00

	 0.00000000E+00	 0.00000000E+00	 0.00000000E+00
	 0.00000000E+00	 0.00000000E+00	 0.00000000E+00
	 0.00000000E+00	 0.00000000E+00	 0.00000000E+00

	 0.00000000E+00	 0.00000000E+00	 0.00000000E+00
	 0.00000000E+00	 0.00000000E+00	 0.00000000E+00
	 0.00000000E+00	 0.00000000E+00	 0.00000000E+00

	 0.00000000E+00	 0.00000000E+00	 0.00000000E+00
	 0.00000000E+00	 0.00000000E+00	 0.00000000E+00
	 0.00000000E+00	 0.00000000E+00	 0.00000000E+00

	 0.00000000E+00	 0.00000000E+00	 0.00000000E+00
	 0.00000000E+00	 0.00000000E+00	 0.00000000E+00
	 0.00000000E+00	 0.00000000E+00	 0.00000000E+00

	 0.00000000E+00	 0.00000000E+00	 0.00000000E+00
	 0.00000000E+00	 0.00000000E+00	 0.00000000E+00
	 0.00000000E+00	 0.00000000E+00	 0.00000000E+00

	 0.00000000E+00	 0.00000000E+00	 0.00000000E+00
	 0.00000000E+00	 0.00000000E+00	 0.00000000E+00
	 0.00000000E+00	 0.00000000E+00	 0.00000000E+00

	 0.00000000E+00	 0.00000000E+00	 0.00000000E+00
	 0.00000000E+00	 0.00000000E+00	 0.00000000E+00
	 0.00000000E+00	 0.00000000E+00	 0.00000000E+00

	 0.00000000E+00	 0.00000000E+00	 0.00000000E+00
	 0.00000000E+00	 0.00000000E+00	 0.00000000E+00
	 0.00000000E+00	 0.00000000E+00	 0.00000000E+00

	 0.00000000E+00	 0.00000000E+00	 0.00000000E+00
	 0.00000000E+00	 0.00000000E+00	 0.00000000E+00
	 0.00000000E+00	 0.00000000E+00	 0.00000000E+00

	 0.00000000E+00	 0.00000000E+00	 0.00000000E+00
	 0.00000000E+00	 0.00000000E+00	 0.00000000E+00
	 0.00000000E+00	 0.00000000E+00	 0.00000000E+00

	 0.00000000E+00	 0.00000000E+00	 0.00000000E+00
	 0.00000000E+00	 0.00000000E+00	 0.00000000E+00
	 0.00000000E+00	 0.00000000E+00	 0.00000000E+00

	 0.00000000E+00	 0.00000000E+00	 0.00000000E+00
	 0.00000000E+00	 0.00000000E+00	 0.00000000E+00
	 0.00000000E+00	 0.00000000E+00	 0.00000000E+00

	 0.00000000E+00	 0.00000000E+00	 0.00000000E+00
	 0.00000000E+00	 0.00000000E+00	 0.00000000E+00
	 0.00000000E+00	 0.00000000E+00	 0.00000000E+00

	 0.00000000E+00	 0.00000000E+00	 0.00000000E+00
	 0.00000000E+00	 0.00000000E+00	 0.00000000E+00
	 0.00000000E+00	 0.00000000E+00	 0.00000000E+00

	 0.00000000E+00	 0.00000000E+00	 0.00000000E+00
	 0.00000000E+00	 0.00000000E+00	 0.00000000E+00
	 0.00000000E+00	 0.00000000E+00	 0.00000000E+00

	 0.00000000E+00	 0.00000000E+00	 0.00000000E+00
	 0.00000000E+00	 0.00000000E+00	 0.00000000E+00
	 0.00000000E+00	 0.00000000E+00	 0.00000000E+00

	 0.00000000E+00	 0.00000000E+00	 0.00000000E+00
	 0.00000000E+00	 0.00000000E+00	 0.00000000E+00
	 0.00000000E+00	 0.00000000E+00	 0.00000000E+00

	 0.00000000E+00	 0.00000000E+00	 0.00000000E+00
	 0.00000000E+00	 0.00000000E+00	 0.00000000E+00
	 0.00000000E+00	 0.00000000E+00	 0.00000000E+00

	 0.00000000E+00	 0.00000000E+00	 0.00000000E+00
	 0.00000000E+00	 0.00000000E+00	 0.00000000E+00
	 0.00000000E+00	 0.00000000E+00	 0.00000000E+00

	 0.00000000E+00	 0.00000000E+00	 0.00000000E+00
	 0.00000000E+00	 0.00000000E+00	 0.00000000E+00
	 0.00000000E+00	 0.00000000E+00	 0.00000000E+00

	 0.00000000E+00	 0.00000000E+00	 0.00000000E+00
	 0.00000000E+00	 0.00000000E+00	 0.00000000E+00
	 0.00000000E+00	 0.00000000E+00	 0.00000000E+00

	 0.00000000E+00	 0.00000000E+00	 0.00000000E+00
	 0.00000000E+00	 0.00000000E+00	 0.00000000E+00
	 0.00000000E+00	 0.00000000E+00	 0.00000000E+00

	 0.00000000E+00	 0.00000000E+00	 0.00000000E+00
	 0.00000000E+00	 0.00000000E+00	 0.00000000E+00
	 0.00000000E+00	 0.00000000E+00	 0.00000000E+00

	 0.00000000E+00	 0.00000000E+00	 0.00000000E+00
	 0.00000000E+00	 0.00000000E+00	 0.00000000E+00
	 0.00000000E+00	 0.00000000E+00	 0.00000000E+00

	 0.00000000E+00	 0.00000000E+00	 0.00000000E+00
	 0.00000000E+00	 0.00000000E+00	 0.00000000E+00
	 0.00000000E+00	 0.00000000E+00	 0.00000000E+00

	 0.00000000E+00	 0.00000000E+00	 0.00000000E+00
	 0.00000000E+00	 0.00000000E+00	 0.00000000E+00
	 0.00000000E+00	 0.00000000E+00	 0.00000000E+00

	 0.00000000E+00	 0.00000000E+00	 0.00000000E+00
	 0.00000000E+00	 0.00000000E+00	 0.00000000E+00
	 0.00000000E+00	 0.00000000E+00	 0.00000000E+00

	 0.00000000E+00	 0.00000000E+00	 0.00000000E+00
	 0.00000000E+00	 0.00000000E+00	 0.00000000E+00
	 0.00000000E+00	 0.00000000E+00	 0.00000000E+00

	 0.00000000E+00	 0.00000000E+00	 0.00000000E+00
	 0.00000000E+00	 0.00000000E+00	 0.00000000E+00
	 0.00000000E+00	 0.00000000E+00	 0.00000000E+00

	 0.00000000E+00	 0.00000000E+00	 0.00000000E+00
	 0.00000000E+00	 0.00000000E+00	 0.00000000E+00
	 0.00000000E+00	 0.00000000E+00	 0.00000000E+00

	 0.00000000E+00	 0.00000000E+00	 0.00000000E+00
	 0.00000000E+00	 0.00000000E+00	 0.00000000E+00
	 0.00000000E+00	 0.00000000E+00	 0.00000000E+00

	 0.00000000E+00	 0.00000000E+00	 0.00000000E+00
	 0.00000000E+00	 0.00000000E+00	 0.00000000E+00
	 0.00000000E+00	 0.00000000E+00	 0.00000000E+00

	 0.00000000E+00	 0.00000000E+00	 0.00000000E+00
	 0.00000000E+00	 0.00000000E+00	 0.00000000E+00
	 0.00000000E+00	 0.00000000E+00	 0.00000000E+00

	 0.00000000E+00	 0.00000000E+00	 0.00000000E+00
	 0.00000000E+00	 0.00000000E+00	 0.00000000E+00
	 0.00000000E+00	 0.00000000E+00	 0.00000000E+00

	 0.00000000E+00	 0.00000000E+00	 0.00000000E+00
	 0.00000000E+00	 0.00000000E+00	 0.00000000E+00
	 0.00000000E+00	 0.00000000E+00	 0.00000000E+00

	 0.00000000E+00	 0.00000000E+00	 0.00000000E+00
	 0.00000000E+00	 0.00000000E+00	 0.00000000E+00
	 0.00000000E+00	 0.00000000E+00	 0.00000000E+00

	 0.00000000E+00	 0.00000000E+00	 0.00000000E+00
	 0.00000000E+00	 0.00000000E+00	 0.00000000E+00
	 0.00000000E+00	 0.00000000E+00	 0.00000000E+00

	 0.00000000E+00	 0.00000000E+00	 0.00000000E+00
	 0.00000000E+00	 0.00000000E+00	 0.00000000E+00
	 0.00000000E+00	 0.00000000E+00	 0.00000000E+00

	 0.00000000E+00	 0.00000000E+00	 0.00000000E+00
	 0.00000000E+00	 0.00000000E+00	 0.00000000E+00
	 0.00000000E+00	 0.00000000E+00	 0.00000000E+00

	 0.00000000E+00	 0.00000000E+00	 0.00000000E+00
	 0.00000000E+00	 0.00000000E+00	 0.00000000E+00
	 0.00000000E+00	 0.00000000E+00	 0.00000000E+00

	 0.00000000E+00	 0.00000000E+00	 0.00000000E+00
	 0.00000000E+00	 0.00000000E+00	 0.00000000E+00
	 0.00000000E+00	 0.00000000E+00	 0.00000000E+00

	 0.00000000E+00	 0.00000000E+00	 0.00000000E+00
	 0.00000000E+00	 0.00000000E+00	 0.00000000E+00
	 0.00000000E+00	 0.00000000E+00	 0.00000000E+00

	 0.00000000E+00	 0.00000000E+00	 0.00000000E+00
	 0.00000000E+00	 0.00000000E+00	 0.00000000E+00
	 0.00000000E+00	 0.00000000E+00	 0.00000000E+00

	 0.00000000E+00	 0.00000000E+00	 0.00000000E+00
	 0.00000000E+00	 0.00000000E+00	 0.00000000E+00
	 0.00000000E+00	 0.00000000E+00	 0.00000000E+00

	 0.00000000E+00	 0.00000000E+00	 0.00000000E+00
	 0.00000000E+00	 0.00000000E+00	 0.00000000E+00
	 0.00000000E+00	 0.00000000E+00	 0.00000000E+00

	 0.00000000E+00	 0.00000000E+00	 0.00000000E+00
	 0.00000000E+00	 0.00000000E+00	 0.00000000E+00
	 0.00000000E+00	 0.00000000E+00	 0.00000000E+00

	 0.00000000E+00	 0.00000000E+00	 0.00000000E+00
	 0.00000000E+00	 0.00000000E+00	 0.00000000E+00
	 0.00000000E+00	 0.00000000E+00	 0.00000000E+00

	 0.00000000E+00	 0.00000000E+00	 0.00000000E+00
	 0.00000000E+00	 0.00000000E+00	 0.00000000E+00
	 0.00000000E+00	 0.00000000E+00	 0.00000000E+00

	 0.00000000E+00	 0.00000000E+00	 0.00000000E+00
	 0.00000000E+00	 0.00000000E+00	 0.00000000E+00
	 0.00000000E+00	 0.00000000E+00	 0.00000000E+00

	 0.00000000E+00	 0.00000000E+00	 0.00000000E+00
	 0.00000000E+00	 0.00000000E+00	 0.00000000E+00
	 0.00000000E+00	 0.00000000E+00	 0.00000000E+00

	 0.00000000E+00	 0.00000000E+00	 0.00000000E+00
	 0.00000000E+00	 0.00000000E+00	 0.00000000E+00
	 0.00000000E+00	 0.00000000E+00	 0.00000000E+00

	 0.00000000E+00	 0.00000000E+00	 0.00000000E+00
	 0.00000000E+00	 0.00000000E+00	 0.00000000E+00
	 0.00000000E+00	 0.00000000E+00	 0.00000000E+00

	 0.00000000E+00	 0.00000000E+00	 0.00000000E+00
	 0.00000000E+00	 0.00000000E+00	 0.00000000E+00
	 0.00000000E+00	 0.00000000E+00	 0.00000000E+00

	 0.00000000E+00	 0.00000000E+00	 0.00000000E+00
	 0.00000000E+00	 0.00000000E+00	 0.00000000E+00
	 0.00000000E+00	 0.00000000E+00	 0.00000000E+00

	 0.00000000E+00	 0.00000000E+00	 0.00000000E+00
	 0.00000000E+00	 0.00000000E+00	 0.00000000E+00
	 0.00000000E+00	 0.00000000E+00	 0.00000000E+00

	 0.00000000E+00	 0.00000000E+00	 0.00000000E+00
	 0.00000000E+00	 0.00000000E+00	 0.00000000E+00
	 0.00000000E+00	 0.00000000E+00	 0.00000000E+00

	 0.00000000E+00	 0.00000000E+00	 0.00000000E+00
	 0.00000000E+00	 0.00000000E+00	 0.00000000E+00
	 0.00000000E+00	 0.00000000E+00	 0.00000000E+00

	 0.00000000E+00	 0.00000000E+00	 0.00000000E+00
	 0.00000000E+00	 0.00000000E+00	 0.00000000E+00
	 0.00000000E+00	 0.00000000E+00	 0.00000000E+00

	 0.00000000E+00	 0.00000000E+00	 0.00000000E+00
	 0.00000000E+00	 0.00000000E+00	 0.00000000E+00
	 0.00000000E+00	 0.00000000E+00	 0.00000000E+00

	 0.00000000E+00	 0.00000000E+00	 0.00000000E+00
	 0.00000000E+00	 0.00000000E+00	 0.00000000E+00
	 0.00000000E+00	 0.00000000E+00	 0.00000000E+00

	 0.00000000E+00	 0.00000000E+00	 0.00000000E+00
	 0.00000000E+00	 0.00000000E+00	 0.00000000E+00
	 0.00000000E+00	 0.00000000E+00	 0.00000000E+00

	 0.00000000E+00	 0.00000000E+00	 0.00000000E+00
	 0.00000000E+00	 0.00000000E+00	 0.00000000E+00
	 0.00000000E+00	 0.00000000E+00	 0.00000000E+00

	 0.00000000E+00	 0.00000000E+00	 0.00000000E+00
	 0.00000000E+00	 0.00000000E+00	 0.00000000E+00
	 0.00000000E+00	 0.00000000E+00	 0.00000000E+00

	 0.00000000E+00	 0.00000000E+00	 0.00000000E+00
	 0.00000000E+00	 0.00000000E+00	 0.00000000E+00
	 0.00000000E+00	 0.00000000E+00	 0.00000000E+00

	 0.00000000E+00	 0.00000000E+00	 0.00000000E+00
	 0.00000000E+00	 0.00000000E+00	 0.00000000E+00
	 0.00000000E+00	 0.00000000E+00	 0.00000000E+00

	 0.00000000E+00	 0.00000000E+00	 0.00000000E+00
	 0.00000000E+00	 0.00000000E+00	 0.00000000E+00
	 0.00000000E+00	 0.00000000E+00	 0.00000000E+00

	 0.00000000E+00	 0.00000000E+00	 0.00000000E+00
	 0.00000000E+00	 0.00000000E+00	 0.00000000E+00
	 0.00000000E+00	 0.00000000E+00	 0.00000000E+00

	 0.00000000E+00	 0.00000000E+00	 0.00000000E+00
	 0.00000000E+00	 0.00000000E+00	 0.00000000E+00
	 0.00000000E+00	 0.00000000E+00	 0.00000000E+00

	 0.00000000E+00	 0.00000000E+00	 0.00000000E+00
	 0.00000000E+00	 0.00000000E+00	 0.00000000E+00
	 0.00000000E+00	 0.00000000E+00	 0.00000000E+00

	 0.00000000E+00	 0.00000000E+00	 0.00000000E+00
	 0.00000000E+00	 0.00000000E+00	 0.00000000E+00
	 0.00000000E+00	 0.00000000E+00	 0.00000000E+00

	 0.00000000E+00	 0.00000000E+00	 0.00000000E+00
	 0.00000000E+00	 0.00000000E+00	 0.00000000E+00
	 0.00000000E+00	 0.00000000E+00	 0.00000000E+00

	 0.00000000E+00	 0.00000000E+00	 0.00000000E+00
	 0.00000000E+00	 0.00000000E+00	 0.00000000E+00
	 0.00000000E+00	 0.00000000E+00	 0.00000000E+00

	 0.00000000E+00	 0.00000000E+00	 0.00000000E+00
	 0.00000000E+00	 0.00000000E+00	 0.00000000E+00
	 0.00000000E+00	 0.00000000E+00	 0.00000000E+00

	 0.00000000E+00	 0.00000000E+00	 0.00000000E+00
	 0.00000000E+00	 0.00000000E+00	 0.00000000E+00
	 0.00000000E+00	 0.00000000E+00	 0.00000000E+00

	 0.00000000E+00	 0.00000000E+00	 0.00000000E+00
	 0.00000000E+00	 0.00000000E+00	 0.00000000E+00
	 0.00000000E+00	 0.00000000E+00	 0.00000000E+00

	 0.00000000E+00	 0.00000000E+00	 0.00000000E+00
	 0.00000000E+00	 0.00000000E+00	 0.00000000E+00
	 0.00000000E+00	 0.00000000E+00	 0.00000000E+00

	 0.00000000E+00	 0.00000000E+00	 0.00000000E+00
	 0.00000000E+00	 0.00000000E+00	 0.00000000E+00
	 0.00000000E+00	 0.00000000E+00	 0.00000000E+00

	 0.00000000E+00	 0.00000000E+00	 0.00000000E+00
	 0.00000000E+00	 0.00000000E+00	 0.00000000E+00
	 0.00000000E+00	 0.00000000E+00	 0.00000000E+00

	 0.00000000E+00	 0.00000000E+00	 0.00000000E+00
	 0.00000000E+00	 0.00000000E+00	 0.00000000E+00
	 0.00000000E+00	 0.00000000E+00	 0.00000000E+00

	 0.00000000E+00	 0.00000000E+00	 0.00000000E+00
	 0.00000000E+00	 0.00000000E+00	 0.00000000E+00
	 0.00000000E+00	 0.00000000E+00	 0.00000000E+00

	 0.00000000E+00	 0.00000000E+00	 0.00000000E+00
	 0.00000000E+00	 0.00000000E+00	 0.00000000E+00
	 0.00000000E+00	 0.00000000E+00	 0.00000000E+00

	 0.00000000E+00	 0.00000000E+00	 0.00000000E+00
	 0.00000000E+00	 0.00000000E+00	 0.00000000E+00
	 0.00000000E+00	 0.00000000E+00	 0.00000000E+00

	 0.00000000E+00	 0.00000000E+00	 0.00000000E+00
	 0.00000000E+00	 0.00000000E+00	 0.00000000E+00
	 0.00000000E+00	 0.00000000E+00	 0.00000000E+00

	 0.00000000E+00	 0.00000000E+00	 0.00000000E+00
	 0.00000000E+00	 0.00000000E+00	 0.00000000E+00
	 0.00000000E+00	 0.00000000E+00	 0.00000000E+00

	 0.00000000E+00	 0.00000000E+00	 0.00000000E+00
	 0.00000000E+00	 0.00000000E+00	 0.00000000E+00
	 0.00000000E+00	 0.00000000E+00	 0.00000000E+00

	 0.00000000E+00	 0.00000000E+00	 0.00000000E+00
	 0.00000000E+00	 0.00000000E+00	 0.00000000E+00
	 0.00000000E+00	 0.00000000E+00	 0.00000000E+00

	 0.00000000E+00	 0.00000000E+00	 0.00000000E+00
	 0.00000000E+00	 0.00000000E+00	 0.00000000E+00
	 0.00000000E+00	 0.00000000E+00	 0.00000000E+00

	 0.00000000E+00	 0.00000000E+00	 0.00000000E+00
	 0.00000000E+00	 0.00000000E+00	 0.00000000E+00
	 0.00000000E+00	 0.00000000E+00	 0.00000000E+00

	 0.00000000E+00	 0.00000000E+00	 0.00000000E+00
	 0.00000000E+00	 0.00000000E+00	 0.00000000E+00
	 0.00000000E+00	 0.00000000E+00	 0.00000000E+00

	 0.00000000E+00	 0.00000000E+00	 0.00000000E+00
	 0.00000000E+00	 0.00000000E+00	 0.00000000E+00
	 0.00000000E+00	 0.00000000E+00	 0.00000000E+00

	 0.00000000E+00	 0.00000000E+00	 0.00000000E+00
	 0.00000000E+00	 0.00000000E+00	 0.00000000E+00
	 0.00000000E+00	 0.00000000E+00	 0.00000000E+00

	 0.00000000E+00	 0.00000000E+00	 0.00000000E+00
	 0.00000000E+00	 0.00000000E+00	 0.00000000E+00
	 0.00000000E+00	 0.00000000E+00	 0.00000000E+00

	 0.00000000E+00	 0.00000000E+00	 0.00000000E+00
	 0.00000000E+00	 0.00000000E+00	 0.00000000E+00
	 0.00000000E+00	 0.00000000E+00	 0.00000000E+00

	 0.00000000E+00	 0.00000000E+00	 0.00000000E+00
	 0.00000000E+00	 0.00000000E+00	 0.00000000E+00
	 0.00000000E+00	 0.00000000E+00	 0.00000000E+00

	 0.00000000E+00	 0.00000000E+00	 0.00000000E+00
	 0.00000000E+00	 0.00000000E+00	 0.00000000E+00
	 0.00000000E+00	 0.00000000E+00	 0.00000000E+00

	 0.00000000E+00	 0.00000000E+00	 0.00000000E+00
	 0.00000000E+00	 0.00000000E+00	 0.00000000E+00
	 0.00000000E+00	 0.00000000E+00	 0.00000000E+00

	 0.00000000E+00	 0.00000000E+00	 0.00000000E+00
	 0.00000000E+00	 0.00000000E+00	 0.00000000E+00
	 0.00000000E+00	 0.00000000E+00	 0.00000000E+00

	 0.00000000E+00	 0.00000000E+00	 0.00000000E+00
	 0.00000000E+00	 0.00000000E+00	 0.00000000E+00
	 0.00000000E+00	 0.00000000E+00	 0.00000000E+00

	 0.00000000E+00	 0.00000000E+00	 0.00000000E+00
	 0.00000000E+00	 0.00000000E+00	 0.00000000E+00
	 0.00000000E+00	 0.00000000E+00	 0.00000000E+00

	 0.00000000E+00	 0.00000000E+00	 0.00000000E+00
	 0.00000000E+00	 0.00000000E+00	 0.00000000E+00
	 0.00000000E+00	 0.00000000E+00	 0.00000000E+00

	 0.00000000E+00	 0.00000000E+00	 0.00000000E+00
	 0.00000000E+00	 0.00000000E+00	 0.00000000E+00
	 0.00000000E+00	 0.00000000E+00	 0.00000000E+00

	 0.00000000E+00	 0.00000000E+00	 0.00000000E+00
	 0.00000000E+00	 0.00000000E+00	 0.00000000E+00
	 0.00000000E+00	 0.00000000E+00	 0.00000000E+00

	 0.00000000E+00	 0.00000000E+00	 0.00000000E+00
	 0.00000000E+00	 0.00000000E+00	 0.00000000E+00
	 0.00000000E+00	 0.00000000E+00	 0.00000000E+00

	 0.00000000E+00	 0.00000000E+00	 0.00000000E+00
	 0.00000000E+00	 0.00000000E+00	 0.00000000E+00
	 0.00000000E+00	 0.00000000E+00	 0.00000000E+00

	 0.00000000E+00	 0.00000000E+00	 0.00000000E+00
	 0.00000000E+00	 0.00000000E+00	 0.00000000E+00
	 0.00000000E+00	 0.00000000E+00	 0.00000000E+00

	 0.00000000E+00	 0.00000000E+00	 0.00000000E+00
	 0.00000000E+00	 0.00000000E+00	 0.00000000E+00
	 0.00000000E+00	 0.00000000E+00	 0.00000000E+00

	 0.00000000E+00	 0.00000000E+00	 0.00000000E+00
	 0.00000000E+00	 0.00000000E+00	 0.00000000E+00
	 0.00000000E+00	 0.00000000E+00	 0.00000000E+00

	 0.00000000E+00	 0.00000000E+00	 0.00000000E+00
	 0.00000000E+00	 0.00000000E+00	 0.00000000E+00
	 0.00000000E+00	 0.00000000E+00	 0.00000000E+00

	 0.00000000E+00	 0.00000000E+00	 0.00000000E+00
	 0.00000000E+00	 0.00000000E+00	 0.00000000E+00
	 0.00000000E+00	 0.00000000E+00	 0.00000000E+00

	 0.00000000E+00	 0.00000000E+00	 0.00000000E+00
	 0.00000000E+00	 0.00000000E+00	 0.00000000E+00
	 0.00000000E+00	 0.00000000E+00	 0.00000000E+00

	 0.00000000E+00	 0.00000000E+00	 0.00000000E+00
	 0.00000000E+00	 0.00000000E+00	 0.00000000E+00
	 0.00000000E+00	 0.00000000E+00	 0.00000000E+00

	 0.00000000E+00	 0.00000000E+00	 0.00000000E+00
	 0.00000000E+00	 0.00000000E+00	 0.00000000E+00
	 0.00000000E+00	 0.00000000E+00	 0.00000000E+00

	 0.00000000E+00	 0.00000000E+00	 0.00000000E+00
	 0.00000000E+00	 0.00000000E+00	 0.00000000E+00
	 0.00000000E+00	 0.00000000E+00	 0.00000000E+00

	 0.00000000E+00	 0.00000000E+00	 0.00000000E+00
	 0.00000000E+00	 0.00000000E+00	 0.00000000E+00
	 0.00000000E+00	 0.00000000E+00	 0.00000000E+00

	 0.00000000E+00	 0.00000000E+00	 0.00000000E+00
	 0.00000000E+00	 0.00000000E+00	 0.00000000E+00
	 0.00000000E+00	 0.00000000E+00	 0.00000000E+00

	 0.00000000E+00	 0.00000000E+00	 0.00000000E+00
	 0.00000000E+00	 0.00000000E+00	 0.00000000E+00
	 0.00000000E+00	 0.00000000E+00	 0.00000000E+00

	 0.00000000E+00	 0.00000000E+00	 0.00000000E+00
	 0.00000000E+00	 0.00000000E+00	 0.00000000E+00
	 0.00000000E+00	 0.00000000E+00	 0.00000000E+00

	 0.00000000E+00	 0.00000000E+00	 0.00000000E+00
	 0.00000000E+00	 0.00000000E+00	 0.00000000E+00
	 0.00000000E+00	 0.00000000E+00	 0.00000000E+00

	 0.00000000E+00	 0.00000000E+00	 0.00000000E+00
	 0.00000000E+00	 0.00000000E+00	 0.00000000E+00
	 0.00000000E+00	 0.00000000E+00	 0.00000000E+00

	 0.00000000E+00	 0.00000000E+00	 0.00000000E+00
	 0.00000000E+00	 0.00000000E+00	 0.00000000E+00
	 0.00000000E+00	 0.00000000E+00	 0.00000000E+00

	 0.00000000E+00	 0.00000000E+00	 0.00000000E+00
	 0.00000000E+00	 0.00000000E+00	 0.00000000E+00
	 0.00000000E+00	 0.00000000E+00	 0.00000000E+00

	 0.00000000E+00	 0.00000000E+00	 0.00000000E+00
	 0.00000000E+00	 0.00000000E+00	 0.00000000E+00
	 0.00000000E+00	 0.00000000E+00	 0.00000000E+00

	 0.00000000E+00	 0.00000000E+00	 0.00000000E+00
	 0.00000000E+00	 0.00000000E+00	 0.00000000E+00
	 0.00000000E+00	 0.00000000E+00	 0.00000000E+00

	 0.00000000E+00	 0.00000000E+00	 0.00000000E+00
	 0.00000000E+00	 0.00000000E+00	 0.00000000E+00
	 0.00000000E+00	 0.00000000E+00	 0.00000000E+00

	 0.00000000E+00	 0.00000000E+00	 0.00000000E+00
	 0.00000000E+00	 0.00000000E+00	 0.00000000E+00
	 0.00000000E+00	 0.00000000E+00	 0.00000000E+00

	 0.00000000E+00	 0.00000000E+00	 0.00000000E+00
	 0.00000000E+00	 0.00000000E+00	 0.00000000E+00
	 0.00000000E+00	 0.00000000E+00	 0.00000000E+00

	 0.00000000E+00	 0.00000000E+00	 0.00000000E+00
	 0.00000000E+00	 0.00000000E+00	 0.00000000E+00
	 0.00000000E+00	 0.00000000E+00	 0.00000000E+00

	 0.00000000E+00	 0.00000000E+00	 0.00000000E+00
	 0.00000000E+00	 0.00000000E+00	 0.00000000E+00
	 0.00000000E+00	 0.00000000E+00	 0.00000000E+00

	 0.00000000E+00	 0.00000000E+00	 0.00000000E+00
	 0.00000000E+00	 0.00000000E+00	 0.00000000E+00
	 0.00000000E+00	 0.00000000E+00	 0.00000000E+00

	 0.00000000E+00	 0.00000000E+00	 0.00000000E+00
	 0.00000000E+00	 0.00000000E+00	 0.00000000E+00
	 0.00000000E+00	 0.00000000E+00	 0.00000000E+00

	 0.00000000E+00	 0.00000000E+00	 0.00000000E+00
	 0.00000000E+00	 0.00000000E+00	 0.00000000E+00
	 0.00000000E+00	 0.00000000E+00	 0.00000000E+00

	 0.00000000E+00	 0.00000000E+00	 0.00000000E+00
	 0.00000000E+00	 0.00000000E+00	 0.00000000E+00
	 0.00000000E+00	 0.00000000E+00	 0.00000000E+00

	 0.00000000E+00	 0.00000000E+00	 0.00000000E+00
	 0.00000000E+00	 0.00000000E+00	 0.00000000E+00
	 0.00000000E+00	 0.00000000E+00	 0.00000000E+00

	 0.00000000E+00	 0.00000000E+00	 0.00000000E+00
	 0.00000000E+00	 0.00000000E+00	 0.00000000E+00
	 0.00000000E+00	 0.00000000E+00	 0.00000000E+00

	 0.00000000E+00	 0.00000000E+00	 0.00000000E+00
	 0.00000000E+00	 0.00000000E+00	 0.00000000E+00
	 0.00000000E+00	 0.00000000E+00	 0.00000000E+00

	 0.00000000E+00	 0.00000000E+00	 0.00000000E+00
	 0.00000000E+00	 0.00000000E+00	 0.00000000E+00
	 0.00000000E+00	 0.00000000E+00	 0.00000000E+00

	 0.00000000E+00	 0.00000000E+00	 0.00000000E+00
	 0.00000000E+00	 0.00000000E+00	 0.00000000E+00
	 0.00000000E+00	 0.00000000E+00	 0.00000000E+00

	 0.00000000E+00	 0.00000000E+00	 0.00000000E+00
	 0.00000000E+00	 0.00000000E+00	 0.00000000E+00
	 0.00000000E+00	 0.00000000E+00	 0.00000000E+00

	 0.00000000E+00	 0.00000000E+00	 0.00000000E+00
	 0.00000000E+00	 0.00000000E+00	 0.00000000E+00
	 0.00000000E+00	 0.00000000E+00	 0.00000000E+00

	 0.00000000E+00	 0.00000000E+00	 0.00000000E+00
	 0.00000000E+00	 0.00000000E+00	 0.00000000E+00
	 0.00000000E+00	 0.00000000E+00	 0.00000000E+00

	 0.00000000E+00	 0.00000000E+00	 0.00000000E+00
	 0.00000000E+00	 0.00000000E+00	 0.00000000E+00
	 0.00000000E+00	 0.00000000E+00	 0.00000000E+00

	 0.00000000E+00	 0.00000000E+00	 0.00000000E+00
	 0.00000000E+00	 0.00000000E+00	 0.00000000E+00
	 0.00000000E+00	 0.00000000E+00	 0.00000000E+00

	 0.00000000E+00	 0.00000000E+00	 0.00000000E+00
	 0.00000000E+00	 0.00000000E+00	 0.00000000E+00
	 0.00000000E+00	 0.00000000E+00	 0.00000000E+00

	 0.00000000E+00	 0.00000000E+00	 0.00000000E+00
	 0.00000000E+00	 0.00000000E+00	 0.00000000E+00
	 0.00000000E+00	 0.00000000E+00	 0.00000000E+00

	 0.00000000E+00	 0.00000000E+00	 0.00000000E+00
	 0.00000000E+00	 0.00000000E+00	 0.00000000E+00
	 0.00000000E+00	 0.00000000E+00	 0.00000000E+00

	 0.00000000E+00	 0.00000000E+00	 0.00000000E+00
	 0.00000000E+00	 0.00000000E+00	 0.00000000E+00
	 0.00000000E+00	 0.00000000E+00	 0.00000000E+00

	 0.00000000E+00	 0.00000000E+00	 0.00000000E+00
	 0.00000000E+00	 0.00000000E+00	 0.00000000E+00
	 0.00000000E+00	 0.00000000E+00	 0.00000000E+00

	 0.00000000E+00	 0.00000000E+00	 0.00000000E+00
	 0.00000000E+00	 0.00000000E+00	 0.00000000E+00
	 0.00000000E+00	 0.00000000E+00	 0.00000000E+00

	 0.00000000E+00	 0.00000000E+00	 0.00000000E+00
	 0.00000000E+00	 0.00000000E+00	 0.00000000E+00
	 0.00000000E+00	 0.00000000E+00	 0.00000000E+00

	 0.00000000E+00	 0.00000000E+00	 0.00000000E+00
	 0.00000000E+00	 0.00000000E+00	 0.00000000E+00
	 0.00000000E+00	 0.00000000E+00	 0.00000000E+00

	 0.00000000E+00	 0.00000000E+00	 0.00000000E+00
	 0.00000000E+00	 0.00000000E+00	 0.00000000E+00
	 0.00000000E+00	 0.00000000E+00	 0.00000000E+00

	 0.00000000E+00	 0.00000000E+00	 0.00000000E+00
	 0.00000000E+00	 0.00000000E+00	 0.00000000E+00
	 0.00000000E+00	 0.00000000E+00	 0.00000000E+00

	 0.00000000E+00	 0.00000000E+00	 0.00000000E+00
	 0.00000000E+00	 0.00000000E+00	 0.00000000E+00
	 0.00000000E+00	 0.00000000E+00	 0.00000000E+00

	 0.00000000E+00	 0.00000000E+00	 0.00000000E+00
	 0.00000000E+00	 0.00000000E+00	 0.00000000E+00
	 0.00000000E+00	 0.00000000E+00	 0.00000000E+00

	 0.00000000E+00	 0.00000000E+00	 0.00000000E+00
	 0.00000000E+00	 0.00000000E+00	 0.00000000E+00
	 0.00000000E+00	 0.00000000E+00	 0.00000000E+00

	 0.00000000E+00	 0.00000000E+00	 0.00000000E+00
	 0.00000000E+00	 0.00000000E+00	 0.00000000E+00
	 0.00000000E+00	 0.00000000E+00	 0.00000000E+00

	 0.00000000E+00	 0.00000000E+00	 0.00000000E+00
	 0.00000000E+00	 0.00000000E+00	 0.00000000E+00
	 0.00000000E+00	 0.00000000E+00	 0.00000000E+00

	 0.00000000E+00	 0.00000000E+00	 0.00000000E+00
	 0.00000000E+00	 0.00000000E+00	 0.00000000E+00
	 0.00000000E+00	 0.00000000E+00	 0.00000000E+00

	 0.00000000E+00	 0.00000000E+00	 0.00000000E+00
	 0.00000000E+00	 0.00000000E+00	 0.00000000E+00
	 0.00000000E+00	 0.00000000E+00	 0.00000000E+00

	 0.00000000E+00	 0.00000000E+00	 0.00000000E+00
	 0.00000000E+00	 0.00000000E+00	 0.00000000E+00
	 0.00000000E+00	 0.00000000E+00	 0.00000000E+00

	 0.00000000E+00	 0.00000000E+00	 0.00000000E+00
	 0.00000000E+00	 0.00000000E+00	 0.00000000E+00
	 0.00000000E+00	 0.00000000E+00	 0.00000000E+00

	 0.00000000E+00	 0.00000000E+00	 0.00000000E+00
	 0.00000000E+00	 0.00000000E+00	 0.00000000E+00
	 0.00000000E+00	 0.00000000E+00	 0.00000000E+00

	 0.00000000E+00	 0.00000000E+00	 0.00000000E+00
	 0.00000000E+00	 0.00000000E+00	 0.00000000E+00
	 0.00000000E+00	 0.00000000E+00	 0.00000000E+00

	 0.00000000E+00	 0.00000000E+00	 0.00000000E+00
	 0.00000000E+00	 0.00000000E+00	 0.00000000E+00
	 0.00000000E+00	 0.00000000E+00	 0.00000000E+00

	 0.00000000E+00	 0.00000000E+00	 0.00000000E+00
	 0.00000000E+00	 0.00000000E+00	 0.00000000E+00
	 0.00000000E+00	 0.00000000E+00	 0.00000000E+00

	 0.00000000E+00	 0.00000000E+00	 0.00000000E+00
	 0.00000000E+00	 0.00000000E+00	 0.00000000E+00
	 0.00000000E+00	 0.00000000E+00	 0.00000000E+00

	 0.00000000E+00	 0.00000000E+00	 0.00000000E+00
	 0.00000000E+00	 0.00000000E+00	 0.00000000E+00
	 0.00000000E+00	 0.00000000E+00	 0.00000000E+00

	 0.00000000E+00	 0.00000000E+00	 0.00000000E+00
	 0.00000000E+00	 0.00000000E+00	 0.00000000E+00
	 0.00000000E+00	 0.00000000E+00	 0.00000000E+00

	 0.00000000E+00	 0.00000000E+00	 0.00000000E+00
	 0.00000000E+00	 0.00000000E+00	 0.00000000E+00
	 0.00000000E+00	 0.00000000E+00	 0.00000000E+00

	 0.00000000E+00	 0.00000000E+00	 0.00000000E+00
	 0.00000000E+00	 0.00000000E+00	 0.00000000E+00
	 0.00000000E+00	 0.00000000E+00	 0.00000000E+00

	 0.00000000E+00	 0.00000000E+00	 0.00000000E+00
	 0.00000000E+00	 0.00000000E+00	 0.00000000E+00
	 0.00000000E+00	 0.00000000E+00	 0.00000000E+00

	 0.00000000E+00	 0.00000000E+00	 0.00000000E+00
	 0.00000000E+00	 0.00000000E+00	 0.00000000E+00
	 0.00000000E+00	 0.00000000E+00	 0.00000000E+00

	 0.00000000E+00	 0.00000000E+00	 0.00000000E+00
	 0.00000000E+00	 0.00000000E+00	 0.00000000E+00
	 0.00000000E+00	 0.00000000E+00	 0.00000000E+00

	 0.00000000E+00	 0.00000000E+00	 0.00000000E+00
	 0.00000000E+00	 0.00000000E+00	 0.00000000E+00
	 0.00000000E+00	 0.00000000E+00	 0.00000000E+00

	 0.00000000E+00	 0.00000000E+00	 0.00000000E+00
	 0.00000000E+00	 0.00000000E+00	 0.00000000E+00
	 0.00000000E+00	 0.00000000E+00	 0.00000000E+00

	 0.00000000E+00	 0.00000000E+00	 0.00000000E+00
	 0.00000000E+00	 0.00000000E+00	 0.00000000E+00
	 0.00000000E+00	 0.00000000E+00	 0.00000000E+00

	 0.00000000E+00	 0.00000000E+00	 0.00000000E+00
	 0.00000000E+00	 0.00000000E+00	 0.00000000E+00
	 0.00000000E+00	 0.00000000E+00	 0.00000000E+00

	 0.00000000E+00	 0.00000000E+00	 0.00000000E+00
	 0.00000000E+00	 0.00000000E+00	 0.00000000E+00
	 0.00000000E+00	 0.00000000E+00	 0.00000000E+00

	 0.00000000E+00	 0.00000000E+00	 0.00000000E+00
	 0.00000000E+00	 0.00000000E+00	 0.00000000E+00
	 0.00000000E+00	 0.00000000E+00	 0.00000000E+00

	 0.00000000E+00	 0.00000000E+00	 0.00000000E+00
	 0.00000000E+00	 0.00000000E+00	 0.00000000E+00
	 0.00000000E+00	 0.00000000E+00	 0.00000000E+00

	 0.00000000E+00	 0.00000000E+00	 0.00000000E+00
	 0.00000000E+00	 0.00000000E+00	 0.00000000E+00
	 0.00000000E+00	 0.00000000E+00	 0.00000000E+00

	 0.00000000E+00	 0.00000000E+00	 0.00000000E+00
	 0.00000000E+00	 0.00000000E+00	 0.00000000E+00
	 0.00000000E+00	 0.00000000E+00	 0.00000000E+00

	 0.00000000E+00	 0.00000000E+00	 0.00000000E+00
	 0.00000000E+00	 0.00000000E+00	 0.00000000E+00
	 0.00000000E+00	 0.00000000E+00	 0.00000000E+00

	 0.00000000E+00	 0.00000000E+00	 0.00000000E+00
	 0.00000000E+00	 0.00000000E+00	 0.00000000E+00
	 0.00000000E+00	 0.00000000E+00	 0.00000000E+00

	 0.00000000E+00	 0.00000000E+00	 0.00000000E+00
	 0.00000000E+00	 0.00000000E+00	 0.00000000E+00
	 0.00000000E+00	 0.00000000E+00	 0.00000000E+00

	 0.00000000E+00	 0.00000000E+00	 0.00000000E+00
	 0.00000000E+00	 0.00000000E+00	 0.00000000E+00
	 0.00000000E+00	 0.00000000E+00	 0.00000000E+00

	 0.00000000E+00	 0.00000000E+00	 0.00000000E+00
	 0.00000000E+00	 0.00000000E+00	 0.00000000E+00
	 0.00000000E+00	 0.00000000E+00	 0.00000000E+00

	 0.00000000E+00	 0.00000000E+00	 0.00000000E+00
	 0.00000000E+00	 0.00000000E+00	 0.00000000E+00
	 0.00000000E+00	 0.00000000E+00	 0.00000000E+00

	 0.00000000E+00	 0.00000000E+00	 0.00000000E+00
	 0.00000000E+00	 0.00000000E+00	 0.00000000E+00
	 0.00000000E+00	 0.00000000E+00	 0.00000000E+00

	 0.00000000E+00	 0.00000000E+00	 0.00000000E+00
	 0.00000000E+00	 0.00000000E+00	 0.00000000E+00
	 0.00000000E+00	 0.00000000E+00	 0.00000000E+00

	 0.00000000E+00	 0.00000000E+00	 0.00000000E+00
	 0.00000000E+00	 0.00000000E+00	 0.00000000E+00
	 0.00000000E+00	 0.00000000E+00	 0.00000000E+00

	 0.00000000E+00	 0.00000000E+00	 0.00000000E+00
	 0.00000000E+00	 0.00000000E+00	 0.00000000E+00
	 0.00000000E+00	 0.00000000E+00	 0.00000000E+00

	 0.00000000E+00	 0.00000000E+00	 0.00000000E+00
	 0.00000000E+00	 0.00000000E+00	 0.00000000E+00
	 0.00000000E+00	 0.00000000E+00	 0.00000000E+00

	 0.00000000E+00	 0.00000000E+00	 0.00000000E+00
	 0.00000000E+00	 0.00000000E+00	 0.00000000E+00
	 0.00000000E+00	 0.00000000E+00	 0.00000000E+00

	 0.00000000E+00	 0.00000000E+00	 0.00000000E+00
	 0.00000000E+00	 0.00000000E+00	 0.00000000E+00
	 0.00000000E+00	 0.00000000E+00	 0.00000000E+00

	 0.00000000E+00	 0.00000000E+00	 0.00000000E+00
	 0.00000000E+00	 0.00000000E+00	 0.00000000E+00
	 0.00000000E+00	 0.00000000E+00	 0.00000000E+00

	 0.00000000E+00	 0.00000000E+00	 0.00000000E+00
	 0.00000000E+00	 0.00000000E+00	 0.00000000E+00
	 0.00000000E+00	 0.00000000E+00	 0.00000000E+00

	 0.00000000E+00	 0.00000000E+00	 0.00000000E+00
	 0.00000000E+00	 0.00000000E+00	 0.00000000E+00
	 0.00000000E+00	 0.00000000E+00	 0.00000000E+00

	 0.00000000E+00	 0.00000000E+00	 0.00000000E+00
	 0.00000000E+00	 0.00000000E+00	 0.00000000E+00
	 0.00000000E+00	 0.00000000E+00	 0.00000000E+00

	 0.00000000E+00	 0.00000000E+00	 0.00000000E+00
	 0.00000000E+00	 0.00000000E+00	 0.00000000E+00
	 0.00000000E+00	 0.00000000E+00	 0.00000000E+00

	 0.00000000E+00	 0.00000000E+00	 0.00000000E+00
	 0.00000000E+00	 0.00000000E+00	 0.00000000E+00
	 0.00000000E+00	 0.00000000E+00	 0.00000000E+00

	 0.00000000E+00	 0.00000000E+00	 0.00000000E+00
	 0.00000000E+00	 0.00000000E+00	 0.00000000E+00
	 0.00000000E+00	 0.00000000E+00	 0.00000000E+00

	 0.00000000E+00	 0.00000000E+00	 0.00000000E+00
	 0.00000000E+00	 0.00000000E+00	 0.00000000E+00
	 0.00000000E+00	 0.00000000E+00	 0.00000000E+00

	 0.00000000E+00	 0.00000000E+00	 0.00000000E+00
	 0.00000000E+00	 0.00000000E+00	 0.00000000E+00
	 0.00000000E+00	 0.00000000E+00	 0.00000000E+00

	 0.00000000E+00	 0.00000000E+00	 0.00000000E+00
	 0.00000000E+00	 0.00000000E+00	 0.00000000E+00
	 0.00000000E+00	 0.00000000E+00	 0.00000000E+00

	 0.00000000E+00	 0.00000000E+00	 0.00000000E+00
	 0.00000000E+00	 0.00000000E+00	 0.00000000E+00
	 0.00000000E+00	 0.00000000E+00	 0.00000000E+00

	 0.00000000E+00	 0.00000000E+00	 0.00000000E+00
	 0.00000000E+00	 0.00000000E+00	 0.00000000E+00
	 0.00000000E+00	 0.00000000E+00	 0.00000000E+00

	 0.00000000E+00	 0.00000000E+00	 0.00000000E+00
	 0.00000000E+00	 0.00000000E+00	 0.00000000E+00
	 0.00000000E+00	 0.00000000E+00	 0.00000000E+00

	 0.00000000E+00	 0.00000000E+00	 0.00000000E+00
	 0.00000000E+00	 0.00000000E+00	 0.00000000E+00
	 0.00000000E+00	 0.00000000E+00	 0.00000000E+00

	 0.00000000E+00	 0.00000000E+00	 0.00000000E+00
	 0.00000000E+00	 0.00000000E+00	 0.00000000E+00
	 0.00000000E+00	 0.00000000E+00	 0.00000000E+00

	 0.00000000E+00	 0.00000000E+00	 0.00000000E+00
	 0.00000000E+00	 0.00000000E+00	 0.00000000E+00
	 0.00000000E+00	 0.00000000E+00	 0.00000000E+00

	 0.00000000E+00	 0.00000000E+00	 0.00000000E+00
	 0.00000000E+00	 0.00000000E+00	 0.00000000E+00
	 0.00000000E+00	 0.00000000E+00	 0.00000000E+00

	 0.00000000E+00	 0.00000000E+00	 0.00000000E+00
	 0.00000000E+00	 0.00000000E+00	 0.00000000E+00
	 0.00000000E+00	 0.00000000E+00	 0.00000000E+00

	 0.00000000E+00	 0.00000000E+00	 0.00000000E+00
	 0.00000000E+00	 0.00000000E+00	 0.00000000E+00
	 0.00000000E+00	 0.00000000E+00	 0.00000000E+00

	 0.00000000E+00	 0.00000000E+00	 0.00000000E+00
	 0.00000000E+00	 0.00000000E+00	 0.00000000E+00
	 0.00000000E+00	 0.00000000E+00	 0.00000000E+00

	 0.00000000E+00	 0.00000000E+00	 0.00000000E+00
	 0.00000000E+00	 0.00000000E+00	 0.00000000E+00
	 0.00000000E+00	 0.00000000E+00	 0.00000000E+00

	 0.00000000E+00	 0.00000000E+00	 0.00000000E+00
	 0.00000000E+00	 0.00000000E+00	 0.00000000E+00
	 0.00000000E+00	 0.00000000E+00	 0.00000000E+00

	 0.00000000E+00	 0.00000000E+00	 0.00000000E+00
	 0.00000000E+00	 0.00000000E+00	 0.00000000E+00
	 0.00000000E+00	 0.00000000E+00	 0.00000000E+00

	 0.00000000E+00	 0.00000000E+00	 0.00000000E+00
	 0.00000000E+00	 0.00000000E+00	 0.00000000E+00
	 0.00000000E+00	 0.00000000E+00	 0.00000000E+00

	 0.00000000E+00	 0.00000000E+00	 0.00000000E+00
	 0.00000000E+00	 0.00000000E+00	 0.00000000E+00
	 0.00000000E+00	 0.00000000E+00	 0.00000000E+00

	 0.00000000E+00	 0.00000000E+00	 0.00000000E+00
	 0.00000000E+00	 0.00000000E+00	 0.00000000E+00
	 0.00000000E+00	 0.00000000E+00	 0.00000000E+00

	 0.00000000E+00	 0.00000000E+00	 0.00000000E+00
	 0.00000000E+00	 0.00000000E+00	 0.00000000E+00
	 0.00000000E+00	 0.00000000E+00	 0.00000000E+00

	 0.00000000E+00	 0.00000000E+00	 0.00000000E+00
	 0.00000000E+00	 0.00000000E+00	 0.00000000E+00
	 0.00000000E+00	 0.00000000E+00	 0.00000000E+00

	 0.00000000E+00	 0.00000000E+00	 0.00000000E+00
	 0.00000000E+00	 0.00000000E+00	 0.00000000E+00
	 0.00000000E+00	 0.00000000E+00	 0.00000000E+00

	 0.00000000E+00	 0.00000000E+00	 0.00000000E+00
	 0.00000000E+00	 0.00000000E+00	 0.00000000E+00
	 0.00000000E+00	 0.00000000E+00	 0.00000000E+00

	 0.00000000E+00	 0.00000000E+00	 0.00000000E+00
	 0.00000000E+00	 0.00000000E+00	 0.00000000E+00
	 0.00000000E+00	 0.00000000E+00	 0.00000000E+00

	 0.00000000E+00	 0.00000000E+00	 0.00000000E+00
	 0.00000000E+00	 0.00000000E+00	 0.00000000E+00
	 0.00000000E+00	 0.00000000E+00	 0.00000000E+00

	 0.00000000E+00	 0.00000000E+00	 0.00000000E+00
	 0.00000000E+00	 0.00000000E+00	 0.00000000E+00
	 0.00000000E+00	 0.00000000E+00	 0.00000000E+00

	 0.00000000E+00	 0.00000000E+00	 0.00000000E+00
	 0.00000000E+00	 0.00000000E+00	 0.00000000E+00
	 0.00000000E+00	 0.00000000E+00	 0.00000000E+00

	 0.00000000E+00	 0.00000000E+00	 0.00000000E+00
	 0.00000000E+00	 0.00000000E+00	 0.00000000E+00
	 0.00000000E+00	 0.00000000E+00	 0.00000000E+00

	 0.00000000E+00	 0.00000000E+00	 0.00000000E+00
	 0.00000000E+00	 0.00000000E+00	 0.00000000E+00
	 0.00000000E+00	 0.00000000E+00	 0.00000000E+00

	 0.00000000E+00	 0.00000000E+00	 0.00000000E+00
	 0.00000000E+00	 0.00000000E+00	 0.00000000E+00
	 0.00000000E+00	 0.00000000E+00	 0.00000000E+00

	 0.00000000E+00	 0.00000000E+00	 0.00000000E+00
	 0.00000000E+00	 0.00000000E+00	 0.00000000E+00
	 0.00000000E+00	 0.00000000E+00	 0.00000000E+00

	 0.00000000E+00	 0.00000000E+00	 0.00000000E+00
	 0.00000000E+00	 0.00000000E+00	 0.00000000E+00
	 0.00000000E+00	 0.00000000E+00	 0.00000000E+00

	 0.00000000E+00	 0.00000000E+00	 0.00000000E+00
	 0.00000000E+00	 0.00000000E+00	 0.00000000E+00
	 0.00000000E+00	 0.00000000E+00	 0.00000000E+00

	 0.00000000E+00	 0.00000000E+00	 0.00000000E+00
	 0.00000000E+00	 0.00000000E+00	 0.00000000E+00
	 0.00000000E+00	 0.00000000E+00	 0.00000000E+00

	 0.00000000E+00	 0.00000000E+00	 0.00000000E+00
	 0.00000000E+00	 0.00000000E+00	 0.00000000E+00
	 0.00000000E+00	 0.00000000E+00	 0.00000000E+00

	 0.00000000E+00	 0.00000000E+00	 0.00000000E+00
	 0.00000000E+00	 0.00000000E+00	 0.00000000E+00
	 0.00000000E+00	 0.00000000E+00	 0.00000000E+00

	 0.00000000E+00	 0.00000000E+00	 0.00000000E+00
	 0.00000000E+00	 0.00000000E+00	 0.00000000E+00
	 0.00000000E+00	 0.00000000E+00	 0.00000000E+00

	 0.00000000E+00	 0.00000000E+00	 0.00000000E+00
	 0.00000000E+00	 0.00000000E+00	 0.00000000E+00
	 0.00000000E+00	 0.00000000E+00	 0.00000000E+00

	 0.00000000E+00	 0.00000000E+00	 0.00000000E+00
	 0.00000000E+00	 0.00000000E+00	 0.00000000E+00
	 0.00000000E+00	 0.00000000E+00	 0.00000000E+00

	 0.00000000E+00	 0.00000000E+00	 0.00000000E+00
	 0.00000000E+00	 0.00000000E+00	 0.00000000E+00
	 0.00000000E+00	 0.00000000E+00	 0.00000000E+00

	 0.00000000E+00	 0.00000000E+00	 0.00000000E+00
	 0.00000000E+00	 0.00000000E+00	 0.00000000E+00
	 0.00000000E+00	 0.00000000E+00	 0.00000000E+00

	 0.00000000E+00	 0.00000000E+00	 0.00000000E+00
	 0.00000000E+00	 0.00000000E+00	 0.00000000E+00
	 0.00000000E+00	 0.00000000E+00	 0.00000000E+00

	 0.00000000E+00	 0.00000000E+00	 0.00000000E+00
	 0.00000000E+00	 0.00000000E+00	 0.00000000E+00
	 0.00000000E+00	 0.00000000E+00	 0.00000000E+00

	 0.00000000E+00	 0.00000000E+00	 0.00000000E+00
	 0.00000000E+00	 0.00000000E+00	 0.00000000E+00
	 0.00000000E+00	 0.00000000E+00	 0.00000000E+00

	 0.00000000E+00	 0.00000000E+00	 0.00000000E+00
	 0.00000000E+00	 0.00000000E+00	 0.00000000E+00
	 0.00000000E+00	 0.00000000E+00	 0.00000000E+00

	 0.00000000E+00	 0.00000000E+00	 0.00000000E+00
	 0.00000000E+00	 0.00000000E+00	 0.00000000E+00
	 0.00000000E+00	 0.00000000E+00	 0.00000000E+00

	 0.00000000E+00	 0.00000000E+00	 0.00000000E+00
	 0.00000000E+00	 0.00000000E+00	 0.00000000E+00
	 0.00000000E+00	 0.00000000E+00	 0.00000000E+00

	 0.00000000E+00	 0.00000000E+00	 0.00000000E+00
	 0.00000000E+00	 0.00000000E+00	 0.00000000E+00
	 0.00000000E+00	 0.00000000E+00	 0.00000000E+00

	 0.00000000E+00	 0.00000000E+00	 0.00000000E+00
	 0.00000000E+00	 0.00000000E+00	 0.00000000E+00
	 0.00000000E+00	 0.00000000E+00	 0.00000000E+00

	 0.00000000E+00	 0.00000000E+00	 0.00000000E+00
	 0.00000000E+00	 0.00000000E+00	 0.00000000E+00
	 0.00000000E+00	 0.00000000E+00	 0.00000000E+00

	 0.00000000E+00	 0.00000000E+00	 0.00000000E+00
	 0.00000000E+00	 0.00000000E+00	 0.00000000E+00
	 0.00000000E+00	 0.00000000E+00	 0.00000000E+00

	 0.00000000E+00	 0.00000000E+00	 0.00000000E+00
	 0.00000000E+00	 0.00000000E+00	 0.00000000E+00
	 0.00000000E+00	 0.00000000E+00	 0.00000000E+00

	 0.00000000E+00	 0.00000000E+00	 0.00000000E+00
	 0.00000000E+00	 0.00000000E+00	 0.00000000E+00
	 0.00000000E+00	 0.00000000E+00	 0.00000000E+00

	 0.00000000E+00	 0.00000000E+00	 0.00000000E+00
	 0.00000000E+00	 0.00000000E+00	 0.00000000E+00
	 0.00000000E+00	 0.00000000E+00	 0.00000000E+00

	 0.00000000E+00	 0.00000000E+00	 0.00000000E+00
	 0.00000000E+00	 0.00000000E+00	 0.00000000E+00
	 0.00000000E+00	 0.00000000E+00	 0.00000000E+00

	 0.00000000E+00	 0.00000000E+00	 0.00000000E+00
	 0.00000000E+00	 0.00000000E+00	 0.00000000E+00
	 0.00000000E+00	 0.00000000E+00	 0.00000000E+00

	 0.00000000E+00	 0.00000000E+00	 0.00000000E+00
	 0.00000000E+00	 0.00000000E+00	 0.00000000E+00
	 0.00000000E+00	 0.00000000E+00	 0.00000000E+00

	 0.00000000E+00	 0.00000000E+00	 0.00000000E+00
	 0.00000000E+00	 0.00000000E+00	 0.00000000E+00
	 0.00000000E+00	 0.00000000E+00	 0.00000000E+00

	 0.00000000E+00	 0.00000000E+00	 0.00000000E+00
	 0.00000000E+00	 0.00000000E+00	 0.00000000E+00
	 0.00000000E+00	 0.00000000E+00	 0.00000000E+00

	 0.00000000E+00	 0.00000000E+00	 0.00000000E+00
	 0.00000000E+00	 0.00000000E+00	 0.00000000E+00
	 0.00000000E+00	 0.00000000E+00	 0.00000000E+00

	 0.00000000E+00	 0.00000000E+00	 0.00000000E+00
	 0.00000000E+00	 0.00000000E+00	 0.00000000E+00
	 0.00000000E+00	 0.00000000E+00	 0.00000000E+00

	 0.00000000E+00	 0.00000000E+00	 0.00000000E+00
	 0.00000000E+00	 0.00000000E+00	 0.00000000E+00
	 0.00000000E+00	 0.00000000E+00	 0.00000000E+00

	 0.00000000E+00	 0.00000000E+00	 0.00000000E+00
	 0.00000000E+00	 0.00000000E+00	 0.00000000E+00
	 0.00000000E+00	 0.00000000E+00	 0.00000000E+00

	 0.00000000E+00	 0.00000000E+00	 0.00000000E+00
	 0.00000000E+00	 0.00000000E+00	 0.00000000E+00
	 0.00000000E+00	 0.00000000E+00	 0.00000000E+00

	 0.00000000E+00	 0.00000000E+00	 0.00000000E+00
	 0.00000000E+00	 0.00000000E+00	 0.00000000E+00
	 0.00000000E+00	 0.00000000E+00	 0.00000000E+00

	 0.00000000E+00	 0.00000000E+00	 0.00000000E+00
	 0.00000000E+00	 0.00000000E+00	 0.00000000E+00
	 0.00000000E+00	 0.00000000E+00	 0.00000000E+00

	 0.00000000E+00	 0.00000000E+00	 0.00000000E+00
	 0.00000000E+00	 0.00000000E+00	 0.00000000E+00
	 0.00000000E+00	 0.00000000E+00	 0.00000000E+00

	 0.00000000E+00	 0.00000000E+00	 0.00000000E+00
	 0.00000000E+00	 0.00000000E+00	 0.00000000E+00
	 0.00000000E+00	 0.00000000E+00	 0.00000000E+00

	 0.00000000E+00	 0.00000000E+00	 0.00000000E+00
	 0.00000000E+00	 0.00000000E+00	 0.00000000E+00
	 0.00000000E+00	 0.00000000E+00	 0.00000000E+00

	 0.00000000E+00	 0.00000000E+00	 0.00000000E+00
	 0.00000000E+00	 0.00000000E+00	 0.00000000E+00
	 0.00000000E+00	 0.00000000E+00	 0.00000000E+00

	 0.00000000E+00	 0.00000000E+00	 0.00000000E+00
	 0.00000000E+00	 0.00000000E+00	 0.00000000E+00
	 0.00000000E+00	 0.00000000E+00	 0.00000000E+00

	 0.00000000E+00	 0.00000000E+00	 0.00000000E+00
	 0.00000000E+00	 0.00000000E+00	 0.00000000E+00
	 0.00000000E+00	 0.00000000E+00	 0.00000000E+00

	 0.00000000E+00	 0.00000000E+00	 0.00000000E+00
	 0.00000000E+00	 0.00000000E+00	 0.00000000E+00
	 0.00000000E+00	 0.00000000E+00	 0.00000000E+00

	 0.00000000E+00	 0.00000000E+00	 0.00000000E+00
	 0.00000000E+00	 0.00000000E+00	 0.00000000E+00
	 0.00000000E+00	 0.00000000E+00	 0.00000000E+00

	 0.00000000E+00	 0.00000000E+00	 0.00000000E+00
	 0.00000000E+00	 0.00000000E+00	 0.00000000E+00
	 0.00000000E+00	 0.00000000E+00	 0.00000000E+00

	 0.00000000E+00	 0.00000000E+00	 0.00000000E+00
	 0.00000000E+00	 0.00000000E+00	 0.00000000E+00
	 0.00000000E+00	 0.00000000E+00	 0.00000000E+00

	 0.00000000E+00	 0.00000000E+00	 0.00000000E+00
	 0.00000000E+00	 0.00000000E+00	 0.00000000E+00
	 0.00000000E+00	 0.00000000E+00	 0.00000000E+00

	 0.00000000E+00	 0.00000000E+00	 0.00000000E+00
	 0.00000000E+00	 0.00000000E+00	 0.00000000E+00
	 0.00000000E+00	 0.00000000E+00	 0.00000000E+00

	 0.00000000E+00	 0.00000000E+00	 0.00000000E+00
	 0.00000000E+00	 0.00000000E+00	 0.00000000E+00
	 0.00000000E+00	 0.00000000E+00	 0.00000000E+00

	 0.00000000E+00	 0.00000000E+00	 0.00000000E+00
	 0.00000000E+00	 0.00000000E+00	 0.00000000E+00
	 0.00000000E+00	 0.00000000E+00	 0.00000000E+00

	 0.00000000E+00	 0.00000000E+00	 0.00000000E+00
	 0.00000000E+00	 0.00000000E+00	 0.00000000E+00
	 0.00000000E+00	 0.00000000E+00	 0.00000000E+00

	 0.00000000E+00	 0.00000000E+00	 0.00000000E+00
	 0.00000000E+00	 0.00000000E+00	 0.00000000E+00
	 0.00000000E+00	 0.00000000E+00	 0.00000000E+00

	 0.00000000E+00	 0.00000000E+00	 0.00000000E+00
	 0.00000000E+00	 0.00000000E+00	 0.00000000E+00
	 0.00000000E+00	 0.00000000E+00	 0.00000000E+00

	 0.00000000E+00	 0.00000000E+00	 0.00000000E+00
	 0.00000000E+00	 0.00000000E+00	 0.00000000E+00
	 0.00000000E+00	 0.00000000E+00	 0.00000000E+00

	 0.00000000E+00	 0.00000000E+00	 0.00000000E+00
	 0.00000000E+00	 0.00000000E+00	 0.00000000E+00
	 0.00000000E+00	 0.00000000E+00	 0.00000000E+00

	 0.00000000E+00	 0.00000000E+00	 0.00000000E+00
	 0.00000000E+00	 0.00000000E+00	 0.00000000E+00
	 0.00000000E+00	 0.00000000E+00	 0.00000000E+00

	 0.00000000E+00	 0.00000000E+00	 0.00000000E+00
	 0.00000000E+00	 0.00000000E+00	 0.00000000E+00
	 0.00000000E+00	 0.00000000E+00	 0.00000000E+00

	 0.00000000E+00	 0.00000000E+00	 0.00000000E+00
	 0.00000000E+00	 0.00000000E+00	 0.00000000E+00
	 0.00000000E+00	 0.00000000E+00	 0.00000000E+00

	 0.00000000E+00	 0.00000000E+00	 0.00000000E+00
	 0.00000000E+00	 0.00000000E+00	 0.00000000E+00
	 0.00000000E+00	 0.00000000E+00	 0.00000000E+00

	 0.00000000E+00	 0.00000000E+00	 0.00000000E+00
	 0.00000000E+00	 0.00000000E+00	 0.00000000E+00
	 0.00000000E+00	 0.00000000E+00	 0.00000000E+00

	 0.00000000E+00	 0.00000000E+00	 0.00000000E+00
	 0.00000000E+00	 0.00000000E+00	 0.00000000E+00
	 0.00000000E+00	 0.00000000E+00	 0.00000000E+00

	 0.00000000E+00	 0.00000000E+00	 0.00000000E+00
	 0.00000000E+00	 0.00000000E+00	 0.00000000E+00
	 0.00000000E+00	 0.00000000E+00	 0.00000000E+00

	 0.00000000E+00	 0.00000000E+00	 0.00000000E+00
	 0.00000000E+00	 0.00000000E+00	 0.00000000E+00
	 0.00000000E+00	 0.00000000E+00	 0.00000000E+00

	 0.00000000E+00	 0.00000000E+00	 0.00000000E+00
	 0.00000000E+00	 0.00000000E+00	 0.00000000E+00
	 0.00000000E+00	 0.00000000E+00	 0.00000000E+00

	 0.00000000E+00	 0.00000000E+00	 0.00000000E+00
	 0.00000000E+00	 0.00000000E+00	 0.00000000E+00
	 0.00000000E+00	 0.00000000E+00	 0.00000000E+00

	 0.00000000E+00	 0.00000000E+00	 0.00000000E+00
	 0.00000000E+00	 0.00000000E+00	 0.00000000E+00
	 0.00000000E+00	 0.00000000E+00	 0.00000000E+00

	 0.00000000E+00	 0.00000000E+00	 0.00000000E+00
	 0.00000000E+00	 0.00000000E+00	 0.00000000E+00
	 0.00000000E+00	 0.00000000E+00	 0.00000000E+00

	 0.00000000E+00	 0.00000000E+00	 0.00000000E+00
	 0.00000000E+00	 0.00000000E+00	 0.00000000E+00
	 0.00000000E+00	 0.00000000E+00	 0.00000000E+00

	 0.00000000E+00	 0.00000000E+00	 0.00000000E+00
	 0.00000000E+00	 0.00000000E+00	 0.00000000E+00
	 0.00000000E+00	 0.00000000E+00	 0.00000000E+00

	 0.00000000E+00	 0.00000000E+00	 0.00000000E+00
	 0.00000000E+00	 0.00000000E+00	 0.00000000E+00
	 0.00000000E+00	 0.00000000E+00	 0.00000000E+00

	 0.00000000E+00	 0.00000000E+00	 0.00000000E+00
	 0.00000000E+00	 0.00000000E+00	 0.00000000E+00
	 0.00000000E+00	 0.00000000E+00	 0.00000000E+00

	 0.00000000E+00	 0.00000000E+00	 0.00000000E+00
	 0.00000000E+00	 0.00000000E+00	 0.00000000E+00
	 0.00000000E+00	 0.00000000E+00	 0.00000000E+00

	 0.00000000E+00	 0.00000000E+00	 0.00000000E+00
	 0.00000000E+00	 0.00000000E+00	 0.00000000E+00
	 0.00000000E+00	 0.00000000E+00	 0.00000000E+00

	 0.00000000E+00	 0.00000000E+00	 0.00000000E+00
	 0.00000000E+00	 0.00000000E+00	 0.00000000E+00
	 0.00000000E+00	 0.00000000E+00	 0.00000000E+00

	 0.00000000E+00	 0.00000000E+00	 0.00000000E+00
	 0.00000000E+00	 0.00000000E+00	 0.00000000E+00
	 0.00000000E+00	 0.00000000E+00	 0.00000000E+00

	 0.00000000E+00	 0.00000000E+00	 0.00000000E+00
	 0.00000000E+00	 0.00000000E+00	 0.00000000E+00
	 0.00000000E+00	 0.00000000E+00	 0.00000000E+00

	 0.00000000E+00	 0.00000000E+00	 0.00000000E+00
	 0.00000000E+00	 0.00000000E+00	 0.00000000E+00
	 0.00000000E+00	 0.00000000E+00	 0.00000000E+00

	 0.00000000E+00	 0.00000000E+00	 0.00000000E+00
	 0.00000000E+00	 0.00000000E+00	 0.00000000E+00
	 0.00000000E+00	 0.00000000E+00	 0.00000000E+00

	 0.00000000E+00	 0.00000000E+00	 0.00000000E+00
	 0.00000000E+00	 0.00000000E+00	 0.00000000E+00
	 0.00000000E+00	 0.00000000E+00	 0.00000000E+00

	 0.00000000E+00	 0.00000000E+00	 0.00000000E+00
	 0.00000000E+00	 0.00000000E+00	 0.00000000E+00
	 0.00000000E+00	 0.00000000E+00	 0.00000000E+00

	 0.00000000E+00	 0.00000000E+00	 0.00000000E+00
	 0.00000000E+00	 0.00000000E+00	 0.00000000E+00
	 0.00000000E+00	 0.00000000E+00	 0.00000000E+00

	 0.00000000E+00	 0.00000000E+00	 0.00000000E+00
	 0.00000000E+00	 0.00000000E+00	 0.00000000E+00
	 0.00000000E+00	 0.00000000E+00	 0.00000000E+00

	 0.00000000E+00	 0.00000000E+00	 0.00000000E+00
	 0.00000000E+00	 0.00000000E+00	 0.00000000E+00
	 0.00000000E+00	 0.00000000E+00	 0.00000000E+00

	 0.00000000E+00	 0.00000000E+00	 0.00000000E+00
	 0.00000000E+00	 0.00000000E+00	 0.00000000E+00
	 0.00000000E+00	 0.00000000E+00	 0.00000000E+00

	 0.00000000E+00	 0.00000000E+00	 0.00000000E+00
	 0.00000000E+00	 0.00000000E+00	 0.00000000E+00
	 0.00000000E+00	 0.00000000E+00	 0.00000000E+00

	 0.00000000E+00	 0.00000000E+00	 0.00000000E+00
	 0.00000000E+00	 0.00000000E+00	 0.00000000E+00
	 0.00000000E+00	 0.00000000E+00	 0.00000000E+00

	 0.00000000E+00	 0.00000000E+00	 0.00000000E+00
	 0.00000000E+00	 0.00000000E+00	 0.00000000E+00
	 0.00000000E+00	 0.00000000E+00	 0.00000000E+00

	 0.00000000E+00	 0.00000000E+00	 0.00000000E+00
	 0.00000000E+00	 0.00000000E+00	 0.00000000E+00
	 0.00000000E+00	 0.00000000E+00	 0.00000000E+00

	 0.00000000E+00	 0.00000000E+00	 0.00000000E+00
	 0.00000000E+00	 0.00000000E+00	 0.00000000E+00
	 0.00000000E+00	 0.00000000E+00	 0.00000000E+00

	 0.00000000E+00	 0.00000000E+00	 0.00000000E+00
	 0.00000000E+00	 0.00000000E+00	 0.00000000E+00
	 0.00000000E+00	 0.00000000E+00	 0.00000000E+00

	 0.00000000E+00	 0.00000000E+00	 0.00000000E+00
	 0.00000000E+00	 0.00000000E+00	 0.00000000E+00
	 0.00000000E+00	 0.00000000E+00	 0.00000000E+00

	 0.00000000E+00	 0.00000000E+00	 0.00000000E+00
	 0.00000000E+00	 0.00000000E+00	 0.00000000E+00
	 0.00000000E+00	 0.00000000E+00	 0.00000000E+00

	 0.00000000E+00	 0.00000000E+00	 0.00000000E+00
	 0.00000000E+00	 0.00000000E+00	 0.00000000E+00
	 0.00000000E+00	 0.00000000E+00	 0.00000000E+00

	 0.00000000E+00	 0.00000000E+00	 0.00000000E+00
	 0.00000000E+00	 0.00000000E+00	 0.00000000E+00
	 0.00000000E+00	 0.00000000E+00	 0.00000000E+00

	 0.00000000E+00	 0.00000000E+00	 0.00000000E+00
	 0.00000000E+00	 0.00000000E+00	 0.00000000E+00
	 0.00000000E+00	 0.00000000E+00	 0.00000000E+00

	 0.00000000E+00	 0.00000000E+00	 0.00000000E+00
	 0.00000000E+00	 0.00000000E+00	 0.00000000E+00
	 0.00000000E+00	 0.00000000E+00	 0.00000000E+00

	 0.00000000E+00	 0.00000000E+00	 0.00000000E+00
	 0.00000000E+00	 0.00000000E+00	 0.00000000E+00
	 0.00000000E+00	 0.00000000E+00	 0.00000000E+00

	 0.00000000E+00	 0.00000000E+00	 0.00000000E+00
	 0.00000000E+00	 0.00000000E+00	 0.00000000E+00
	 0.00000000E+00	 0.00000000E+00	 0.00000000E+00

	 0.00000000E+00	 0.00000000E+00	 0.00000000E+00
	 0.00000000E+00	 0.00000000E+00	 0.00000000E+00
	 0.00000000E+00	 0.00000000E+00	 0.00000000E+00

	 0.00000000E+00	 0.00000000E+00	 0.00000000E+00
	 0.00000000E+00	 0.00000000E+00	 0.00000000E+00
	 0.00000000E+00	 0.00000000E+00	 0.00000000E+00

	 0.00000000E+00	 0.00000000E+00	 0.00000000E+00
	 0.00000000E+00	 0.00000000E+00	 0.00000000E+00
	 0.00000000E+00	 0.00000000E+00	 0.00000000E+00

	 0.00000000E+00	 0.00000000E+00	 0.00000000E+00
	 0.00000000E+00	 0.00000000E+00	 0.00000000E+00
	 0.00000000E+00	 0.00000000E+00	 0.00000000E+00

	 0.00000000E+00	 0.00000000E+00	 0.00000000E+00
	 0.00000000E+00	 0.00000000E+00	 0.00000000E+00
	 0.00000000E+00	 0.00000000E+00	 0.00000000E+00

	 0.00000000E+00	 0.00000000E+00	 0.00000000E+00
	 0.00000000E+00	 0.00000000E+00	 0.00000000E+00
	 0.00000000E+00	 0.00000000E+00	 0.00000000E+00

	 0.00000000E+00	 0.00000000E+00	 0.00000000E+00
	 0.00000000E+00	 0.00000000E+00	 0.00000000E+00
	 0.00000000E+00	 0.00000000E+00	 0.00000000E+00

	 0.00000000E+00	 0.00000000E+00	 0.00000000E+00
	 0.00000000E+00	 0.00000000E+00	 0.00000000E+00
	 0.00000000E+00	 0.00000000E+00	 0.00000000E+00

	 0.00000000E+00	 0.00000000E+00	 0.00000000E+00
	 0.00000000E+00	 0.00000000E+00	 0.00000000E+00
	 0.00000000E+00	 0.00000000E+00	 0.00000000E+00

	 0.00000000E+00	 0.00000000E+00	 0.00000000E+00
	 0.00000000E+00	 0.00000000E+00	 0.00000000E+00
	 0.00000000E+00	 0.00000000E+00	 0.00000000E+00

	 0.00000000E+00	 0.00000000E+00	 0.00000000E+00
	 0.00000000E+00	 0.00000000E+00	 0.00000000E+00
	 0.00000000E+00	 0.00000000E+00	 0.00000000E+00

	 0.00000000E+00	 0.00000000E+00	 0.00000000E+00
	 0.00000000E+00	 0.00000000E+00	 0.00000000E+00
	 0.00000000E+00	 0.00000000E+00	 0.00000000E+00

	 0.00000000E+00	 0.00000000E+00	 0.00000000E+00
	 0.00000000E+00	 0.00000000E+00	 0.00000000E+00
	 0.00000000E+00	 0.00000000E+00	 0.00000000E+00

	 0.00000000E+00	 0.00000000E+00	 0.00000000E+00
	 0.00000000E+00	 0.00000000E+00	 0.00000000E+00
	 0.00000000E+00	 0.00000000E+00	 0.00000000E+00

	 0.00000000E+00	 0.00000000E+00	 0.00000000E+00
	 0.00000000E+00	 0.00000000E+00	 0.00000000E+00
	 0.00000000E+00	 0.00000000E+00	 0.00000000E+00

	 0.00000000E+00	 0.00000000E+00	 0.00000000E+00
	 0.00000000E+00	 0.00000000E+00	 0.00000000E+00
	 0.00000000E+00	 0.00000000E+00	 0.00000000E+00

	 0.00000000E+00	 0.00000000E+00	 0.00000000E+00
	 0.00000000E+00	 0.00000000E+00	 0.00000000E+00
	 0.00000000E+00	 0.00000000E+00	 0.00000000E+00

	 0.00000000E+00	 0.00000000E+00	 0.00000000E+00
	 0.00000000E+00	 0.00000000E+00	 0.00000000E+00
	 0.00000000E+00	 0.00000000E+00	 0.00000000E+00

	 0.00000000E+00	 0.00000000E+00	 0.00000000E+00
	 0.00000000E+00	 0.00000000E+00	 0.00000000E+00
	 0.00000000E+00	 0.00000000E+00	 0.00000000E+00

	 0.00000000E+00	 0.00000000E+00	 0.00000000E+00
	 0.00000000E+00	 0.00000000E+00	 0.00000000E+00
	 0.00000000E+00	 0.00000000E+00	 0.00000000E+00

	 0.00000000E+00	 0.00000000E+00	 0.00000000E+00
	 0.00000000E+00	 0.00000000E+00	 0.00000000E+00
	 0.00000000E+00	 0.00000000E+00	 0.00000000E+00

	 0.00000000E+00	 0.00000000E+00	 0.00000000E+00
	 0.00000000E+00	 0.00000000E+00	 0.00000000E+00
	 0.00000000E+00	 0.00000000E+00	 0.00000000E+00

	 0.00000000E+00	 0.00000000E+00	 0.00000000E+00
	 0.00000000E+00	 0.00000000E+00	 0.00000000E+00
	 0.00000000E+00	 0.00000000E+00	 0.00000000E+00

	 0.00000000E+00	 0.00000000E+00	 0.00000000E+00
	 0.00000000E+00	 0.00000000E+00	 0.00000000E+00
	 0.00000000E+00	 0.00000000E+00	 0.00000000E+00

	 0.00000000E+00	 0.00000000E+00	 0.00000000E+00
	 0.00000000E+00	 0.00000000E+00	 0.00000000E+00
	 0.00000000E+00	 0.00000000E+00	 0.00000000E+00

	 0.00000000E+00	 0.00000000E+00	 0.00000000E+00
	 0.00000000E+00	 0.00000000E+00	 0.00000000E+00
	 0.00000000E+00	 0.00000000E+00	 0.00000000E+00

	 0.00000000E+00	 0.00000000E+00	 0.00000000E+00
	 0.00000000E+00	 0.00000000E+00	 0.00000000E+00
	 0.00000000E+00	 0.00000000E+00	 0.00000000E+00

	 0.00000000E+00	 0.00000000E+00	 0.00000000E+00
	 0.00000000E+00	 0.00000000E+00	 0.00000000E+00
	 0.00000000E+00	 0.00000000E+00	 0.00000000E+00

	 0.00000000E+00	 0.00000000E+00	 0.00000000E+00
	 0.00000000E+00	 0.00000000E+00	 0.00000000E+00
	 0.00000000E+00	 0.00000000E+00	 0.00000000E+00

	 0.00000000E+00	 0.00000000E+00	 0.00000000E+00
	 0.00000000E+00	 0.00000000E+00	 0.00000000E+00
	 0.00000000E+00	 0.00000000E+00	 0.00000000E+00

	 0.00000000E+00	 0.00000000E+00	 0.00000000E+00
	 0.00000000E+00	 0.00000000E+00	 0.00000000E+00
	 0.00000000E+00	 0.00000000E+00	 0.00000000E+00

	 0.00000000E+00	 0.00000000E+00	 0.00000000E+00
	 0.00000000E+00	 0.00000000E+00	 0.00000000E+00
	 0.00000000E+00	 0.00000000E+00	 0.00000000E+00

	 0.00000000E+00	 0.00000000E+00	 0.00000000E+00
	 0.00000000E+00	 0.00000000E+00	 0.00000000E+00
	 0.00000000E+00	 0.00000000E+00	 0.00000000E+00

	 0.00000000E+00	 0.00000000E+00	 0.00000000E+00
	 0.00000000E+00	 0.00000000E+00	 0.00000000E+00
	 0.00000000E+00	 0.00000000E+00	 0.00000000E+00

	 0.00000000E+00	 0.00000000E+00	 0.00000000E+00
	 0.00000000E+00	 0.00000000E+00	 0.00000000E+00
	 0.00000000E+00	 0.00000000E+00	 0.00000000E+00

	 0.00000000E+00	 0.00000000E+00	 0.00000000E+00
	 0.00000000E+00	 0.00000000E+00	 0.00000000E+00
	 0.00000000E+00	 0.00000000E+00	 0.00000000E+00

	 0.00000000E+00	 0.00000000E+00	 0.00000000E+00
	 0.00000000E+00	 0.00000000E+00	 0.00000000E+00
	 0.00000000E+00	 0.00000000E+00	 0.00000000E+00

	 0.00000000E+00	 0.00000000E+00	 0.00000000E+00
	 0.00000000E+00	 0.00000000E+00	 0.00000000E+00
	 0.00000000E+00	 0.00000000E+00	 0.00000000E+00

	 0.00000000E+00	 0.00000000E+00	 0.00000000E+00
	 0.00000000E+00	 0.00000000E+00	 0.00000000E+00
	 0.00000000E+00	 0.00000000E+00	 0.00000000E+00

	 0.00000000E+00	 0.00000000E+00	 0.00000000E+00
	 0.00000000E+00	 0.00000000E+00	 0.00000000E+00
	 0.00000000E+00	 0.00000000E+00	 0.00000000E+00

	 0.00000000E+00	 0.00000000E+00	 0.00000000E+00
	 0.00000000E+00	 0.00000000E+00	 0.00000000E+00
	 0.00000000E+00	 0.00000000E+00	 0.00000000E+00

	 0.00000000E+00	 0.00000000E+00	 0.00000000E+00
	 0.00000000E+00	 0.00000000E+00	 0.00000000E+00
	 0.00000000E+00	 0.00000000E+00	 0.00000000E+00

	 0.00000000E+00	 0.00000000E+00	 0.00000000E+00
	 0.00000000E+00	 0.00000000E+00	 0.00000000E+00
	 0.00000000E+00	 0.00000000E+00	 0.00000000E+00

	 0.00000000E+00	 0.00000000E+00	 0.00000000E+00
	 0.00000000E+00	 0.00000000E+00	 0.00000000E+00
	 0.00000000E+00	 0.00000000E+00	 0.00000000E+00

	 0.00000000E+00	 0.00000000E+00	 0.00000000E+00
	 0.00000000E+00	 0.00000000E+00	 0.00000000E+00
	 0.00000000E+00	 0.00000000E+00	 0.00000000E+00

	 0.00000000E+00	 0.00000000E+00	 0.00000000E+00
	 0.00000000E+00	 0.00000000E+00	 0.00000000E+00
	 0.00000000E+00	 0.00000000E+00	 0.00000000E+00

	 0.00000000E+00	 0.00000000E+00	 0.00000000E+00
	 0.00000000E+00	 0.00000000E+00	 0.00000000E+00
	 0.00000000E+00	 0.00000000E+00	 0.00000000E+00

	 0.00000000E+00	 0.00000000E+00	 0.00000000E+00
	 0.00000000E+00	 0.00000000E+00	 0.00000000E+00
	 0.00000000E+00	 0.00000000E+00	 0.00000000E+00

	 0.00000000E+00	 0.00000000E+00	 0.00000000E+00
	 0.00000000E+00	 0.00000000E+00	 0.00000000E+00
	 0.00000000E+00	 0.00000000E+00	 0.00000000E+00

	 0.00000000E+00	 0.00000000E+00	 0.00000000E+00
	 0.00000000E+00	 0.00000000E+00	 0.00000000E+00
	 0.00000000E+00	 0.00000000E+00	 0.00000000E+00

	 0.00000000E+00	 0.00000000E+00	 0.00000000E+00
	 0.00000000E+00	 0.00000000E+00	 0.00000000E+00
	 0.00000000E+00	 0.00000000E+00	 0.00000000E+00

	 0.00000000E+00	 0.00000000E+00	 0.00000000E+00
	 0.00000000E+00	 0.00000000E+00	 0.00000000E+00
	 0.00000000E+00	 0.00000000E+00	 0.00000000E+00

	 0.00000000E+00	 0.00000000E+00	 0.00000000E+00
	 0.00000000E+00	 0.00000000E+00	 0.00000000E+00
	 0.00000000E+00	 0.00000000E+00	 0.00000000E+00

	 0.00000000E+00	 0.00000000E+00	 0.00000000E+00
	 0.00000000E+00	 0.00000000E+00	 0.00000000E+00
	 0.00000000E+00	 0.00000000E+00	 0.00000000E+00

	 0.00000000E+00	 0.00000000E+00	 0.00000000E+00
	 0.00000000E+00	 0.00000000E+00	 0.00000000E+00
	 0.00000000E+00	 0.00000000E+00	 0.00000000E+00

	 0.00000000E+00	 0.00000000E+00	 0.00000000E+00
	 0.00000000E+00	 0.00000000E+00	 0.00000000E+00
	 0.00000000E+00	 0.00000000E+00	 0.00000000E+00

	 0.00000000E+00	 0.00000000E+00	 0.00000000E+00
	 0.00000000E+00	 0.00000000E+00	 0.00000000E+00
	 0.00000000E+00	 0.00000000E+00	 0.00000000E+00

	 0.00000000E+00	 0.00000000E+00	 0.00000000E+00
	 0.00000000E+00	 0.00000000E+00	 0.00000000E+00
	 0.00000000E+00	 0.00000000E+00	 0.00000000E+00

	 0.00000000E+00	 0.00000000E+00	 0.00000000E+00
	 0.00000000E+00	 0.00000000E+00	 0.00000000E+00
	 0.00000000E+00	 0.00000000E+00	 0.00000000E+00

	 0.00000000E+00	 0.00000000E+00	 0.00000000E+00
	 0.00000000E+00	 0.00000000E+00	 0.00000000E+00
	 0.00000000E+00	 0.00000000E+00	 0.00000000E+00

	 0.00000000E+00	 0.00000000E+00	 0.00000000E+00
	 0.00000000E+00	 0.00000000E+00	 0.00000000E+00
	 0.00000000E+00	 0.00000000E+00	 0.00000000E+00

	 0.00000000E+00	 0.00000000E+00	 0.00000000E+00
	 0.00000000E+00	 0.00000000E+00	 0.00000000E+00
	 0.00000000E+00	 0.00000000E+00	 0.00000000E+00

	 0.00000000E+00	 0.00000000E+00	 0.00000000E+00
	 0.00000000E+00	 0.00000000E+00	 0.00000000E+00
	 0.00000000E+00	 0.00000000E+00	 0.00000000E+00

	 0.00000000E+00	 0.00000000E+00	 0.00000000E+00
	 0.00000000E+00	 0.00000000E+00	 0.00000000E+00
	 0.00000000E+00	 0.00000000E+00	 0.00000000E+00

	 0.00000000E+00	 0.00000000E+00	 0.00000000E+00
	 0.00000000E+00	 0.00000000E+00	 0.00000000E+00
	 0.00000000E+00	 0.00000000E+00	 0.00000000E+00

	 0.00000000E+00	 0.00000000E+00	 0.00000000E+00
	 0.00000000E+00	 0.00000000E+00	 0.00000000E+00
	 0.00000000E+00	 0.00000000E+00	 0.00000000E+00

	 0.00000000E+00	 0.00000000E+00	 0.00000000E+00
	 0.00000000E+00	 0.00000000E+00	 0.00000000E+00
	 0.00000000E+00	 0.00000000E+00	 0.00000000E+00

	 0.00000000E+00	 0.00000000E+00	 0.00000000E+00
	 0.00000000E+00	 0.00000000E+00	 0.00000000E+00
	 0.00000000E+00	 0.00000000E+00	 0.00000000E+00

	 0.00000000E+00	 0.00000000E+00	 0.00000000E+00
	 0.00000000E+00	 0.00000000E+00	 0.00000000E+00
	 0.00000000E+00	 0.00000000E+00	 0.00000000E+00

	 0.00000000E+00	 0.00000000E+00	 0.00000000E+00
	 0.00000000E+00	 0.00000000E+00	 0.00000000E+00
	 0.00000000E+00	 0.00000000E+00	 0.00000000E+00

	 0.00000000E+00	 0.00000000E+00	 0.00000000E+00
	 0.00000000E+00	 0.00000000E+00	 0.00000000E+00
	 0.00000000E+00	 0.00000000E+00	 0.00000000E+00

	 0.00000000E+00	 0.00000000E+00	 0.00000000E+00
	 0.00000000E+00	 0.00000000E+00	 0.00000000E+00
	 0.00000000E+00	 0.00000000E+00	 0.00000000E+00

	 0.00000000E+00	 0.00000000E+00	 0.00000000E+00
	 0.00000000E+00	 0.00000000E+00	 0.00000000E+00
	 0.00000000E+00	 0.00000000E+00	 0.00000000E+00

	 0.00000000E+00	 0.00000000E+00	 0.00000000E+00
	 0.00000000E+00	 0.00000000E+00	 0.00000000E+00
	 0.00000000E+00	 0.00000000E+00	 0.00000000E+00

	 0.00000000E+00	 0.00000000E+00	 0.00000000E+00
	 0.00000000E+00	 0.00000000E+00	 0.00000000E+00
	 0.00000000E+00	 0.00000000E+00	 0.00000000E+00

	 0.00000000E+00	 0.00000000E+00	 0.00000000E+00
	 0.00000000E+00	 0.00000000E+00	 0.00000000E+00
	 0.00000000E+00	 0.00000000E+00	 0.00000000E+00

	 0.00000000E+00	 0.00000000E+00	 0.00000000E+00
	 0.00000000E+00	 0.00000000E+00	 0.00000000E+00
	 0.00000000E+00	 0.00000000E+00	 0.00000000E+00

	 0.00000000E+00	 0.00000000E+00	 0.00000000E+00
	 0.00000000E+00	 0.00000000E+00	 0.00000000E+00
	 0.00000000E+00	 0.00000000E+00	 0.00000000E+00

	 0.00000000E+00	 0.00000000E+00	 0.00000000E+00
	 0.00000000E+00	 0.00000000E+00	 0.00000000E+00
	 0.00000000E+00	 0.00000000E+00	 0.00000000E+00

	 0.00000000E+00	 0.00000000E+00	 0.00000000E+00
	 0.00000000E+00	 0.00000000E+00	 0.00000000E+00
	 0.00000000E+00	 0.00000000E+00	 0.00000000E+00

	 0.00000000E+00	 0.00000000E+00	 0.00000000E+00
	 0.00000000E+00	 0.00000000E+00	 0.00000000E+00
	 0.00000000E+00	 0.00000000E+00	 0.00000000E+00

	 0.00000000E+00	 0.00000000E+00	 0.00000000E+00
	 0.00000000E+00	 0.00000000E+00	 0.00000000E+00
	 0.00000000E+00	 0.00000000E+00	 0.00000000E+00

	 0.00000000E+00	 0.00000000E+00	 0.00000000E+00
	 0.00000000E+00	 0.00000000E+00	 0.00000000E+00
	 0.00000000E+00	 0.00000000E+00	 0.00000000E+00

	 0.00000000E+00	 0.00000000E+00	 0.00000000E+00
	 0.00000000E+00	 0.00000000E+00	 0.00000000E+00
	 0.00000000E+00	 0.00000000E+00	 0.00000000E+00

	 0.00000000E+00	 0.00000000E+00	 0.00000000E+00
	 0.00000000E+00	 0.00000000E+00	 0.00000000E+00
	 0.00000000E+00	 0.00000000E+00	 0.00000000E+00

	 0.00000000E+00	 0.00000000E+00	 0.00000000E+00
	 0.00000000E+00	 0.00000000E+00	 0.00000000E+00
	 0.00000000E+00	 0.00000000E+00	 0.00000000E+00

	 0.00000000E+00	 0.00000000E+00	 0.00000000E+00
	 0.00000000E+00	 0.00000000E+00	 0.00000000E+00
	 0.00000000E+00	 0.00000000E+00	 0.00000000E+00

	 0.00000000E+00	 0.00000000E+00	 0.00000000E+00
	 0.00000000E+00	 0.00000000E+00	 0.00000000E+00
	 0.00000000E+00	 0.00000000E+00	 0.00000000E+00

	 0.00000000E+00	 0.00000000E+00	 0.00000000E+00
	 0.00000000E+00	 0.00000000E+00	 0.00000000E+00
	 0.00000000E+00	 0.00000000E+00	 0.00000000E+00

	 0.00000000E+00	 0.00000000E+00	 0.00000000E+00
	 0.00000000E+00	 0.00000000E+00	 0.00000000E+00
	 0.00000000E+00	 0.00000000E+00	 0.00000000E+00

	 0.00000000E+00	 0.00000000E+00	 0.00000000E+00
	 0.00000000E+00	 0.00000000E+00	 0.00000000E+00
	 0.00000000E+00	 0.00000000E+00	 0.00000000E+00

	 0.00000000E+00	 0.00000000E+00	 0.00000000E+00
	 0.00000000E+00	 0.00000000E+00	 0.00000000E+00
	 0.00000000E+00	 0.00000000E+00	 0.00000000E+00

	 0.00000000E+00	 0.00000000E+00	 0.00000000E+00
	 0.00000000E+00	 0.00000000E+00	 0.00000000E+00
	 0.00000000E+00	 0.00000000E+00	 0.00000000E+00

	 0.00000000E+00	 0.00000000E+00	 0.00000000E+00
	 0.00000000E+00	 0.00000000E+00	 0.00000000E+00
	 0.00000000E+00	 0.00000000E+00	 0.00000000E+00

	 0.00000000E+00	 0.00000000E+00	 0.00000000E+00
	 0.00000000E+00	 0.00000000E+00	 0.00000000E+00
	 0.00000000E+00	 0.00000000E+00	 0.00000000E+00

	 0.00000000E+00	 0.00000000E+00	 0.00000000E+00
	 0.00000000E+00	 0.00000000E+00	 0.00000000E+00
	 0.00000000E+00	 0.00000000E+00	 0.00000000E+00

	 0.00000000E+00	 0.00000000E+00	 0.00000000E+00
	 0.00000000E+00	 0.00000000E+00	 0.00000000E+00
	 0.00000000E+00	 0.00000000E+00	 0.00000000E+00

	 0.00000000E+00	 0.00000000E+00	 0.00000000E+00
	 0.00000000E+00	 0.00000000E+00	 0.00000000E+00
	 0.00000000E+00	 0.00000000E+00	 0.00000000E+00

	 0.00000000E+00	 0.00000000E+00	 0.00000000E+00
	 0.00000000E+00	 0.00000000E+00	 0.00000000E+00
	 0.00000000E+00	 0.00000000E+00	 0.00000000E+00

	 0.00000000E+00	 0.00000000E+00	 0.00000000E+00
	 0.00000000E+00	 0.00000000E+00	 0.00000000E+00
	 0.00000000E+00	 0.00000000E+00	 0.00000000E+00

	 0.00000000E+00	 0.00000000E+00	 0.00000000E+00
	 0.00000000E+00	 0.00000000E+00	 0.00000000E+00
	 0.00000000E+00	 0.00000000E+00	 0.00000000E+00

	 0.00000000E+00	 0.00000000E+00	 0.00000000E+00
	 0.00000000E+00	 0.00000000E+00	 0.00000000E+00
	 0.00000000E+00	 0.00000000E+00	 0.00000000E+00

	 0.00000000E+00	 0.00000000E+00	 0.00000000E+00
	 0.00000000E+00	 0.00000000E+00	 0.00000000E+00
	 0.00000000E+00	 0.00000000E+00	 0.00000000E+00

	 0.00000000E+00	 0.00000000E+00	 0.00000000E+00
	 0.00000000E+00	 0.00000000E+00	 0.00000000E+00
	 0.00000000E+00	 0.00000000E+00	 0.00000000E+00

	 0.00000000E+00	 0.00000000E+00	 0.00000000E+00
	 0.00000000E+00	 0.00000000E+00	 0.00000000E+00
	 0.00000000E+00	 0.00000000E+00	 0.00000000E+00

	 0.00000000E+00	 0.00000000E+00	 0.00000000E+00
	 0.00000000E+00	 0.00000000E+00	 0.00000000E+00
	 0.00000000E+00	 0.00000000E+00	 0.00000000E+00

	 0.00000000E+00	 0.00000000E+00	 0.00000000E+00
	 0.00000000E+00	 0.00000000E+00	 0.00000000E+00
	 0.00000000E+00	 0.00000000E+00	 0.00000000E+00

	 0.00000000E+00	 0.00000000E+00	 0.00000000E+00
	 0.00000000E+00	 0.00000000E+00	 0.00000000E+00
	 0.00000000E+00	 0.00000000E+00	 0.00000000E+00

	 0.00000000E+00	 0.00000000E+00	 0.00000000E+00
	 0.00000000E+00	 0.00000000E+00	 0.00000000E+00
	 0.00000000E+00	 0.00000000E+00	 0.00000000E+00

	 0.00000000E+00	 0.00000000E+00	 0.00000000E+00
	 0.00000000E+00	 0.00000000E+00	 0.00000000E+00
	 0.00000000E+00	 0.00000000E+00	 0.00000000E+00

	 0.00000000E+00	 0.00000000E+00	 0.00000000E+00
	 0.00000000E+00	 0.00000000E+00	 0.00000000E+00
	 0.00000000E+00	 0.00000000E+00	 0.00000000E+00

	 0.00000000E+00	 0.00000000E+00	 0.00000000E+00
	 0.00000000E+00	 0.00000000E+00	 0.00000000E+00
	 0.00000000E+00	 0.00000000E+00	 0.00000000E+00

	 0.00000000E+00	 0.00000000E+00	 0.00000000E+00
	 0.00000000E+00	 0.00000000E+00	 0.00000000E+00
	 0.00000000E+00	 0.00000000E+00	 0.00000000E+00

	 0.00000000E+00	 0.00000000E+00	 0.00000000E+00
	 0.00000000E+00	 0.00000000E+00	 0.00000000E+00
	 0.00000000E+00	 0.00000000E+00	 0.00000000E+00

	 0.00000000E+00	 0.00000000E+00	 0.00000000E+00
	 0.00000000E+00	 0.00000000E+00	 0.00000000E+00
	 0.00000000E+00	 0.00000000E+00	 0.00000000E+00

	 0.00000000E+00	 0.00000000E+00	 0.00000000E+00
	 0.00000000E+00	 0.00000000E+00	 0.00000000E+00
	 0.00000000E+00	 0.00000000E+00	 0.00000000E+00

	 0.00000000E+00	 0.00000000E+00	 0.00000000E+00
	 0.00000000E+00	 0.00000000E+00	 0.00000000E+00
	 0.00000000E+00	 0.00000000E+00	 0.00000000E+00

	 0.00000000E+00	 0.00000000E+00	 0.00000000E+00
	 0.00000000E+00	 0.00000000E+00	 0.00000000E+00
	 0.00000000E+00	 0.00000000E+00	 0.00000000E+00

	 0.00000000E+00	 0.00000000E+00	 0.00000000E+00
	 0.00000000E+00	 0.00000000E+00	 0.00000000E+00
	 0.00000000E+00	 0.00000000E+00	 0.00000000E+00

	 0.00000000E+00	 0.00000000E+00	 0.00000000E+00
	 0.00000000E+00	 0.00000000E+00	 0.00000000E+00
	 0.00000000E+00	 0.00000000E+00	 0.00000000E+00

	 0.00000000E+00	 0.00000000E+00	 0.00000000E+00
	 0.00000000E+00	 0.00000000E+00	 0.00000000E+00
	 0.00000000E+00	 0.00000000E+00	 0.00000000E+00

	 0.00000000E+00	 0.00000000E+00	 0.00000000E+00
	 0.00000000E+00	 0.00000000E+00	 0.00000000E+00
	 0.00000000E+00	 0.00000000E+00	 0.00000000E+00

	 0.00000000E+00	 0.00000000E+00	 0.00000000E+00
	 0.00000000E+00	 0.00000000E+00	 0.00000000E+00
	 0.00000000E+00	 0.00000000E+00	 0.00000000E+00

	 0.00000000E+00	 0.00000000E+00	 0.00000000E+00
	 0.00000000E+00	 0.00000000E+00	 0.00000000E+00
	 0.00000000E+00	 0.00000000E+00	 0.00000000E+00

	 0.00000000E+00	 0.00000000E+00	 0.00000000E+00
	 0.00000000E+00	 0.00000000E+00	 0.00000000E+00
	 0.00000000E+00	 0.00000000E+00	 0.00000000E+00

	 0.00000000E+00	 0.00000000E+00	 0.00000000E+00
	 0.00000000E+00	 0.00000000E+00	 0.00000000E+00
	 0.00000000E+00	 0.00000000E+00	 0.00000000E+00

	 0.00000000E+00	 0.00000000E+00	 0.00000000E+00
	 0.00000000E+00	 0.00000000E+00	 0.00000000E+00
	 0.00000000E+00	 0.00000000E+00	 0.00000000E+00

	 0.00000000E+00	 0.00000000E+00	 0.00000000E+00
	 0.00000000E+00	 0.00000000E+00	 0.00000000E+00
	 0.00000000E+00	 0.00000000E+00	 0.00000000E+00

	 0.00000000E+00	 0.00000000E+00	 0.00000000E+00
	 0.00000000E+00	 0.00000000E+00	 0.00000000E+00
	 0.00000000E+00	 0.00000000E+00	 0.00000000E+00

	 0.00000000E+00	 0.00000000E+00	 0.00000000E+00
	 0.00000000E+00	 0.00000000E+00	 0.00000000E+00
	 0.00000000E+00	 0.00000000E+00	 0.00000000E+00

	 0.00000000E+00	 0.00000000E+00	 0.00000000E+00
	 0.00000000E+00	 0.00000000E+00	 0.00000000E+00
	 0.00000000E+00	 0.00000000E+00	 0.00000000E+00

	 0.00000000E+00	 0.00000000E+00	 0.00000000E+00
	 0.00000000E+00	 0.00000000E+00	 0.00000000E+00
	 0.00000000E+00	 0.00000000E+00	 0.00000000E+00

	 0.00000000E+00	 0.00000000E+00	 0.00000000E+00
	 0.00000000E+00	 0.00000000E+00	 0.00000000E+00
	 0.00000000E+00	 0.00000000E+00	 0.00000000E+00

	 0.00000000E+00	 0.00000000E+00	 0.00000000E+00
	 0.00000000E+00	 0.00000000E+00	 0.00000000E+00
	 0.00000000E+00	 0.00000000E+00	 0.00000000E+00

	 0.00000000E+00	 0.00000000E+00	 0.00000000E+00
	 0.00000000E+00	 0.00000000E+00	 0.00000000E+00
	 0.00000000E+00	 0.00000000E+00	 0.00000000E+00

	 0.00000000E+00	 0.00000000E+00	 0.00000000E+00
	 0.00000000E+00	 0.00000000E+00	 0.00000000E+00
	 0.00000000E+00	 0.00000000E+00	 0.00000000E+00

	 0.00000000E+00	 0.00000000E+00	 0.00000000E+00
	 0.00000000E+00	 0.00000000E+00	 0.00000000E+00
	 0.00000000E+00	 0.00000000E+00	 0.00000000E+00

	 0.00000000E+00	 0.00000000E+00	 0.00000000E+00
	 0.00000000E+00	 0.00000000E+00	 0.00000000E+00
	 0.00000000E+00	 0.00000000E+00	 0.00000000E+00

	 0.00000000E+00	 0.00000000E+00	 0.00000000E+00
	 0.00000000E+00	 0.00000000E+00	 0.00000000E+00
	 0.00000000E+00	 0.00000000E+00	 0.00000000E+00

	 0.00000000E+00	 0.00000000E+00	 0.00000000E+00
	 0.00000000E+00	 0.00000000E+00	 0.00000000E+00
	 0.00000000E+00	 0.00000000E+00	 0.00000000E+00

	 0.00000000E+00	 0.00000000E+00	 0.00000000E+00
	 0.00000000E+00	 0.00000000E+00	 0.00000000E+00
	 0.00000000E+00	 0.00000000E+00	 0.00000000E+00

	 0.00000000E+00	 0.00000000E+00	 0.00000000E+00
	 0.00000000E+00	 0.00000000E+00	 0.00000000E+00
	 0.00000000E+00	 0.00000000E+00	 0.00000000E+00

	 0.00000000E+00	 0.00000000E+00	 0.00000000E+00
	 0.00000000E+00	 0.00000000E+00	 0.00000000E+00
	 0.00000000E+00	 0.00000000E+00	 0.00000000E+00

	 0.00000000E+00	 0.00000000E+00	 0.00000000E+00
	 0.00000000E+00	 0.00000000E+00	 0.00000000E+00
	 0.00000000E+00	 0.00000000E+00	 0.00000000E+00

	 0.00000000E+00	 0.00000000E+00	 0.00000000E+00
	 0.00000000E+00	 0.00000000E+00	 0.00000000E+00
	 0.00000000E+00	 0.00000000E+00	 0.00000000E+00

	 0.00000000E+00	 0.00000000E+00	 0.00000000E+00
	 0.00000000E+00	 0.00000000E+00	 0.00000000E+00
	 0.00000000E+00	 0.00000000E+00	 0.00000000E+00

	 0.00000000E+00	 0.00000000E+00	 0.00000000E+00
	 0.00000000E+00	 0.00000000E+00	 0.00000000E+00
	 0.00000000E+00	 0.00000000E+00	 0.00000000E+00

	 0.00000000E+00	 0.00000000E+00	 0.00000000E+00
	 0.00000000E+00	 0.00000000E+00	 0.00000000E+00
	 0.00000000E+00	 0.00000000E+00	 0.00000000E+00

	 0.00000000E+00	 0.00000000E+00	 0.00000000E+00
	 0.00000000E+00	 0.00000000E+00	 0.00000000E+00
	 0.00000000E+00	 0.00000000E+00	 0.00000000E+00

	 0.00000000E+00	 0.00000000E+00	 0.00000000E+00
	 0.00000000E+00	 0.00000000E+00	 0.00000000E+00
	 0.00000000E+00	 0.00000000E+00	 0.00000000E+00

	 0.00000000E+00	 0.00000000E+00	 0.00000000E+00
	 0.00000000E+00	 0.00000000E+00	 0.00000000E+00
	 0.00000000E+00	 0.00000000E+00	 0.00000000E+00

	 0.00000000E+00	 0.00000000E+00	 0.00000000E+00
	 0.00000000E+00	 0.00000000E+00	 0.00000000E+00
	 0.00000000E+00	 0.00000000E+00	 0.00000000E+00

	 0.00000000E+00	 0.00000000E+00	 0.00000000E+00
	 0.00000000E+00	 0.00000000E+00	 0.00000000E+00
	 0.00000000E+00	 0.00000000E+00	 0.00000000E+00

	 0.00000000E+00	 0.00000000E+00	 0.00000000E+00
	 0.00000000E+00	 0.00000000E+00	 0.00000000E+00
	 0.00000000E+00	 0.00000000E+00	 0.00000000E+00

	 0.00000000E+00	 0.00000000E+00	 0.00000000E+00
	 0.00000000E+00	 0.00000000E+00	 0.00000000E+00
	 0.00000000E+00	 0.00000000E+00	 0.00000000E+00

	 0.00000000E+00	 0.00000000E+00	 0.00000000E+00
	 0.00000000E+00	 0.00000000E+00	 0.00000000E+00
	 0.00000000E+00	 0.00000000E+00	 0.00000000E+00

	 0.00000000E+00	 0.00000000E+00	 0.00000000E+00
	 0.00000000E+00	 0.00000000E+00	 0.00000000E+00
	 0.00000000E+00	 0.00000000E+00	 0.00000000E+00

	 0.00000000E+00	 0.00000000E+00	 0.00000000E+00
	 0.00000000E+00	 0.00000000E+00	 0.00000000E+00
	 0.00000000E+00	 0.00000000E+00	 0.00000000E+00

	 0.00000000E+00	 0.00000000E+00	 0.00000000E+00
	 0.00000000E+00	 0.00000000E+00	 0.00000000E+00
	 0.00000000E+00	 0.00000000E+00	 0.00000000E+00

	 0.00000000E+00	 0.00000000E+00	 0.00000000E+00
	 0.00000000E+00	 0.00000000E+00	 0.00000000E+00
	 0.00000000E+00	 0.00000000E+00	 0.00000000E+00

	 0.00000000E+00	 0.00000000E+00	 0.00000000E+00
	 0.00000000E+00	 0.00000000E+00	 0.00000000E+00
	 0.00000000E+00	 0.00000000E+00	 0.00000000E+00

	 0.00000000E+00	 0.00000000E+00	 0.00000000E+00
	 0.00000000E+00	 0.00000000E+00	 0.00000000E+00
	 0.00000000E+00	 0.00000000E+00	 0.00000000E+00

	 0.00000000E+00	 0.00000000E+00	 0.00000000E+00
	 0.00000000E+00	 0.00000000E+00	 0.00000000E+00
	 0.00000000E+00	 0.00000000E+00	 0.00000000E+00

	 0.00000000E+00	 0.00000000E+00	 0.00000000E+00
	 0.00000000E+00	 0.00000000E+00	 0.00000000E+00
	 0.00000000E+00	 0.00000000E+00	 0.00000000E+00

	 0.00000000E+00	 0.00000000E+00	 0.00000000E+00
	 0.00000000E+00	 0.00000000E+00	 0.00000000E+00
	 0.00000000E+00	 0.00000000E+00	 0.00000000E+00

	 0.00000000E+00	 0.00000000E+00	 0.00000000E+00
	 0.00000000E+00	 0.00000000E+00	 0.00000000E+00
	 0.00000000E+00	 0.00000000E+00	 0.00000000E+00

	 0.00000000E+00	 0.00000000E+00	 0.00000000E+00
	 0.00000000E+00	 0.00000000E+00	 0.00000000E+00
	 0.00000000E+00	 0.00000000E+00	 0.00000000E+00

	 0.00000000E+00	 0.00000000E+00	 0.00000000E+00
	 0.00000000E+00	 0.00000000E+00	 0.00000000E+00
	 0.00000000E+00	 0.00000000E+00	 0.00000000E+00

	 0.00000000E+00	 0.00000000E+00	 0.00000000E+00
	 0.00000000E+00	 0.00000000E+00	 0.00000000E+00
	 0.00000000E+00	 0.00000000E+00	 0.00000000E+00

	 0.00000000E+00	 0.00000000E+00	 0.00000000E+00
	 0.00000000E+00	 0.00000000E+00	 0.00000000E+00
	 0.00000000E+00	 0.00000000E+00	 0.00000000E+00

	 0.00000000E+00	 0.00000000E+00	 0.00000000E+00
	 0.00000000E+00	 0.00000000E+00	 0.00000000E+00
	 0.00000000E+00	 0.00000000E+00	 0.00000000E+00

	 0.00000000E+00	 0.00000000E+00	 0.00000000E+00
	 0.00000000E+00	 0.00000000E+00	 0.00000000E+00
	 0.00000000E+00	 0.00000000E+00	 0.00000000E+00

	 0.00000000E+00	 0.00000000E+00	 0.00000000E+00
	 0.00000000E+00	 0.00000000E+00	 0.00000000E+00
	 0.00000000E+00	 0.00000000E+00	 0.00000000E+00

	 0.00000000E+00	 0.00000000E+00	 0.00000000E+00
	 0.00000000E+00	 0.00000000E+00	 0.00000000E+00
	 0.00000000E+00	 0.00000000E+00	 0.00000000E+00

	 0.00000000E+00	 0.00000000E+00	 0.00000000E+00
	 0.00000000E+00	 0.00000000E+00	 0.00000000E+00
	 0.00000000E+00	 0.00000000E+00	 0.00000000E+00

	 0.00000000E+00	 0.00000000E+00	 0.00000000E+00
	 0.00000000E+00	 0.00000000E+00	 0.00000000E+00
	 0.00000000E+00	 0.00000000E+00	 0.00000000E+00

	 0.00000000E+00	 0.00000000E+00	 0.00000000E+00
	 0.00000000E+00	 0.00000000E+00	 0.00000000E+00
	 0.00000000E+00	 0.00000000E+00	 0.00000000E+00

	 0.00000000E+00	 0.00000000E+00	 0.00000000E+00
	 0.00000000E+00	 0.00000000E+00	 0.00000000E+00
	 0.00000000E+00	 0.00000000E+00	 0.00000000E+00

	 0.00000000E+00	 0.00000000E+00	 0.00000000E+00
	 0.00000000E+00	 0.00000000E+00	 0.00000000E+00
	 0.00000000E+00	 0.00000000E+00	 0.00000000E+00

	 0.00000000E+00	 0.00000000E+00	 0.00000000E+00
	 0.00000000E+00	 0.00000000E+00	 0.00000000E+00
	 0.00000000E+00	 0.00000000E+00	 0.00000000E+00

	 0.00000000E+00	 0.00000000E+00	 0.00000000E+00
	 0.00000000E+00	 0.00000000E+00	 0.00000000E+00
	 0.00000000E+00	 0.00000000E+00	 0.00000000E+00

	 0.00000000E+00	 0.00000000E+00	 0.00000000E+00
	 0.00000000E+00	 0.00000000E+00	 0.00000000E+00
	 0.00000000E+00	 0.00000000E+00	 0.00000000E+00

	 0.00000000E+00	 0.00000000E+00	 0.00000000E+00
	 0.00000000E+00	 0.00000000E+00	 0.00000000E+00
	 0.00000000E+00	 0.00000000E+00	 0.00000000E+00

	 0.00000000E+00	 0.00000000E+00	 0.00000000E+00
	 0.00000000E+00	 0.00000000E+00	 0.00000000E+00
	 0.00000000E+00	 0.00000000E+00	 0.00000000E+00

	 0.00000000E+00	 0.00000000E+00	 0.00000000E+00
	 0.00000000E+00	 0.00000000E+00	 0.00000000E+00
	 0.00000000E+00	 0.00000000E+00	 0.00000000E+00

	 0.00000000E+00	 0.00000000E+00	 0.00000000E+00
	 0.00000000E+00	 0.00000000E+00	 0.00000000E+00
	 0.00000000E+00	 0.00000000E+00	 0.00000000E+00

	 0.00000000E+00	 0.00000000E+00	 0.00000000E+00
	 0.00000000E+00	 0.00000000E+00	 0.00000000E+00
	 0.00000000E+00	 0.00000000E+00	 0.00000000E+00

	 0.00000000E+00	 0.00000000E+00	 0.00000000E+00
	 0.00000000E+00	 0.00000000E+00	 0.00000000E+00
	 0.00000000E+00	 0.00000000E+00	 0.00000000E+00

	 0.00000000E+00	 0.00000000E+00	 0.00000000E+00
	 0.00000000E+00	 0.00000000E+00	 0.00000000E+00
	 0.00000000E+00	 0.00000000E+00	 0.00000000E+00

	 0.00000000E+00	 0.00000000E+00	 0.00000000E+00
	 0.00000000E+00	 0.00000000E+00	 0.00000000E+00
	 0.00000000E+00	 0.00000000E+00	 0.00000000E+00

	 0.00000000E+00	 0.00000000E+00	 0.00000000E+00
	 0.00000000E+00	 0.00000000E+00	 0.00000000E+00
	 0.00000000E+00	 0.00000000E+00	 0.00000000E+00

	 0.00000000E+00	 0.00000000E+00	 0.00000000E+00
	 0.00000000E+00	 0.00000000E+00	 0.00000000E+00
	 0.00000000E+00	 0.00000000E+00	 0.00000000E+00

	 0.00000000E+00	 0.00000000E+00	 0.00000000E+00
	 0.00000000E+00	 0.00000000E+00	 0.00000000E+00
	 0.00000000E+00	 0.00000000E+00	 0.00000000E+00

	 0.00000000E+00	 0.00000000E+00	 0.00000000E+00
	 0.00000000E+00	 0.00000000E+00	 0.00000000E+00
	 0.00000000E+00	 0.00000000E+00	 0.00000000E+00

	 0.00000000E+00	 0.00000000E+00	 0.00000000E+00
	 0.00000000E+00	 0.00000000E+00	 0.00000000E+00
	 0.00000000E+00	 0.00000000E+00	 0.00000000E+00

	 0.00000000E+00	 0.00000000E+00	 0.00000000E+00
	 0.00000000E+00	 0.00000000E+00	 0.00000000E+00
	 0.00000000E+00	 0.00000000E+00	 0.00000000E+00

	 0.00000000E+00	 0.00000000E+00	 0.00000000E+00
	 0.00000000E+00	 0.00000000E+00	 0.00000000E+00
	 0.00000000E+00	 0.00000000E+00	 0.00000000E+00

	 0.00000000E+00	 0.00000000E+00	 0.00000000E+00
	 0.00000000E+00	 0.00000000E+00	 0.00000000E+00
	 0.00000000E+00	 0.00000000E+00	 0.00000000E+00

	 0.00000000E+00	 0.00000000E+00	 0.00000000E+00
	 0.00000000E+00	 0.00000000E+00	 0.00000000E+00
	 0.00000000E+00	 0.00000000E+00	 0.00000000E+00

	 0.00000000E+00	 0.00000000E+00	 0.00000000E+00
	 0.00000000E+00	 0.00000000E+00	 0.00000000E+00
	 0.00000000E+00	 0.00000000E+00	 0.00000000E+00

	 0.00000000E+00	 0.00000000E+00	 0.00000000E+00
	 0.00000000E+00	 0.00000000E+00	 0.00000000E+00
	 0.00000000E+00	 0.00000000E+00	 0.00000000E+00

	 0.00000000E+00	 0.00000000E+00	 0.00000000E+00
	 0.00000000E+00	 0.00000000E+00	 0.00000000E+00
	 0.00000000E+00	 0.00000000E+00	 0.00000000E+00

	 0.00000000E+00	 0.00000000E+00	 0.00000000E+00
	 0.00000000E+00	 0.00000000E+00	 0.00000000E+00
	 0.00000000E+00	 0.00000000E+00	 0.00000000E+00

	 0.00000000E+00	 0.00000000E+00	 0.00000000E+00
	 0.00000000E+00	 0.00000000E+00	 0.00000000E+00
	 0.00000000E+00	 0.00000000E+00	 0.00000000E+00

	 0.00000000E+00	 0.00000000E+00	 0.00000000E+00
	 0.00000000E+00	 0.00000000E+00	 0.00000000E+00
	 0.00000000E+00	 0.00000000E+00	 0.00000000E+00

	 0.00000000E+00	 0.00000000E+00	 0.00000000E+00
	 0.00000000E+00	 0.00000000E+00	 0.00000000E+00
	 0.00000000E+00	 0.00000000E+00	 0.00000000E+00

	 0.00000000E+00	 0.00000000E+00	 0.00000000E+00
	 0.00000000E+00	 0.00000000E+00	 0.00000000E+00
	 0.00000000E+00	 0.00000000E+00	 0.00000000E+00

	 0.00000000E+00	 0.00000000E+00	 0.00000000E+00
	 0.00000000E+00	 0.00000000E+00	 0.00000000E+00
	 0.00000000E+00	 0.00000000E+00	 0.00000000E+00

	 0.00000000E+00	 0.00000000E+00	 0.00000000E+00
	 0.00000000E+00	 0.00000000E+00	 0.00000000E+00
	 0.00000000E+00	 0.00000000E+00	 0.00000000E+00

	 0.00000000E+00	 0.00000000E+00	 0.00000000E+00
	 0.00000000E+00	 0.00000000E+00	 0.00000000E+00
	 0.00000000E+00	 0.00000000E+00	 0.00000000E+00

	 0.00000000E+00	 0.00000000E+00	 0.00000000E+00
	 0.00000000E+00	 0.00000000E+00	 0.00000000E+00
	 0.00000000E+00	 0.00000000E+00	 0.00000000E+00

	 0.00000000E+00	 0.00000000E+00	 0.00000000E+00
	 0.00000000E+00	 0.00000000E+00	 0.00000000E+00
	 0.00000000E+00	 0.00000000E+00	 0.00000000E+00

	 0.00000000E+00	 0.00000000E+00	 0.00000000E+00
	 0.00000000E+00	 0.00000000E+00	 0.00000000E+00
	 0.00000000E+00	 0.00000000E+00	 0.00000000E+00

	 0.00000000E+00	 0.00000000E+00	 0.00000000E+00
	 0.00000000E+00	 0.00000000E+00	 0.00000000E+00
	 0.00000000E+00	 0.00000000E+00	 0.00000000E+00

	 0.00000000E+00	 0.00000000E+00	 0.00000000E+00
	 0.00000000E+00	 0.00000000E+00	 0.00000000E+00
	 0.00000000E+00	 0.00000000E+00	 0.00000000E+00

	 0.00000000E+00	 0.00000000E+00	 0.00000000E+00
	 0.00000000E+00	 0.00000000E+00	 0.00000000E+00
	 0.00000000E+00	 0.00000000E+00	 0.00000000E+00

	 0.00000000E+00	 0.00000000E+00	 0.00000000E+00
	 0.00000000E+00	 0.00000000E+00	 0.00000000E+00
	 0.00000000E+00	 0.00000000E+00	 0.00000000E+00

	 0.00000000E+00	 0.00000000E+00	 0.00000000E+00
	 0.00000000E+00	 0.00000000E+00	 0.00000000E+00
	 0.00000000E+00	 0.00000000E+00	 0.00000000E+00

	 0.00000000E+00	 0.00000000E+00	 0.00000000E+00
	 0.00000000E+00	 0.00000000E+00	 0.00000000E+00
	 0.00000000E+00	 0.00000000E+00	 0.00000000E+00

	 0.00000000E+00	 0.00000000E+00	 0.00000000E+00
	 0.00000000E+00	 0.00000000E+00	 0.00000000E+00
	 0.00000000E+00	 0.00000000E+00	 0.00000000E+00

	 0.00000000E+00	 0.00000000E+00	 0.00000000E+00
	 0.00000000E+00	 0.00000000E+00	 0.00000000E+00
	 0.00000000E+00	 0.00000000E+00	 0.00000000E+00

	 0.00000000E+00	 0.00000000E+00	 0.00000000E+00
	 0.00000000E+00	 0.00000000E+00	 0.00000000E+00
	 0.00000000E+00	 0.00000000E+00	 0.00000000E+00

	 0.00000000E+00	 0.00000000E+00	 0.00000000E+00
	 0.00000000E+00	 0.00000000E+00	 0.00000000E+00
	 0.00000000E+00	 0.00000000E+00	 0.00000000E+00

	 0.00000000E+00	 0.00000000E+00	 0.00000000E+00
	 0.00000000E+00	 0.00000000E+00	 0.00000000E+00
	 0.00000000E+00	 0.00000000E+00	 0.00000000E+00

	 0.00000000E+00	 0.00000000E+00	 0.00000000E+00
	 0.00000000E+00	 0.00000000E+00	 0.00000000E+00
	 0.00000000E+00	 0.00000000E+00	 0.00000000E+00

	 0.00000000E+00	 0.00000000E+00	 0.00000000E+00
	 0.00000000E+00	 0.00000000E+00	 0.00000000E+00
	 0.00000000E+00	 0.00000000E+00	 0.00000000E+00

	 0.00000000E+00	 0.00000000E+00	 0.00000000E+00
	 0.00000000E+00	 0.00000000E+00	 0.00000000E+00
	 0.00000000E+00	 0.00000000E+00	 0.00000000E+00

	 0.00000000E+00	 0.00000000E+00	 0.00000000E+00
	 0.00000000E+00	 0.00000000E+00	 0.00000000E+00
	 0.00000000E+00	 0.00000000E+00	 0.00000000E+00

	 0.00000000E+00	 0.00000000E+00	 0.00000000E+00
	 0.00000000E+00	 0.00000000E+00	 0.00000000E+00
	 0.00000000E+00	 0.00000000E+00	 0.00000000E+00

	 0.00000000E+00	 0.00000000E+00	 0.00000000E+00
	 0.00000000E+00	 0.00000000E+00	 0.00000000E+00
	 0.00000000E+00	 0.00000000E+00	 0.00000000E+00

	 0.00000000E+00	 0.00000000E+00	 0.00000000E+00
	 0.00000000E+00	 0.00000000E+00	 0.00000000E+00
	 0.00000000E+00	 0.00000000E+00	 0.00000000E+00

	 0.00000000E+00	 0.00000000E+00	 0.00000000E+00
	 0.00000000E+00	 0.00000000E+00	 0.00000000E+00
	 0.00000000E+00	 0.00000000E+00	 0.00000000E+00

	 0.00000000E+00	 0.00000000E+00	 0.00000000E+00
	 0.00000000E+00	 0.00000000E+00	 0.00000000E+00
	 0.00000000E+00	 0.00000000E+00	 0.00000000E+00

	 0.00000000E+00	 0.00000000E+00	 0.00000000E+00
	 0.00000000E+00	 0.00000000E+00	 0.00000000E+00
	 0.00000000E+00	 0.00000000E+00	 0.00000000E+00

	 0.00000000E+00	 0.00000000E+00	 0.00000000E+00
	 0.00000000E+00	 0.00000000E+00	 0.00000000E+00
	 0.00000000E+00	 0.00000000E+00	 0.00000000E+00

	 0.00000000E+00	 0.00000000E+00	 0.00000000E+00
	 0.00000000E+00	 0.00000000E+00	 0.00000000E+00
	 0.00000000E+00	 0.00000000E+00	 0.00000000E+00

	 0.00000000E+00	 0.00000000E+00	 0.00000000E+00
	 0.00000000E+00	 0.00000000E+00	 0.00000000E+00
	 0.00000000E+00	 0.00000000E+00	 0.00000000E+00

	 0.00000000E+00	 0.00000000E+00	 0.00000000E+00
	 0.00000000E+00	 0.00000000E+00	 0.00000000E+00
	 0.00000000E+00	 0.00000000E+00	 0.00000000E+00

	 0.00000000E+00	 0.00000000E+00	 0.00000000E+00
	 0.00000000E+00	 0.00000000E+00	 0.00000000E+00
	 0.00000000E+00	 0.00000000E+00	 0.00000000E+00

	 0.00000000E+00	 0.00000000E+00	 0.00000000E+00
	 0.00000000E+00	 0.00000000E+00	 0.00000000E+00
	 0.00000000E+00	 0.00000000E+00	 0.00000000E+00

	 0.00000000E+00	 0.00000000E+00	 0.00000000E+00
	 0.00000000E+00	 0.00000000E+00	 0.00000000E+00
	 0.00000000E+00	 0.00000000E+00	 0.00000000E+00

	 0.00000000E+00	 0.00000000E+00	 0.00000000E+00
	 0.00000000E+00	 0.00000000E+00	 0.00000000E+00
	 0.00000000E+00	 0.00000000E+00	 0.00000000E+00

	 0.00000000E+00	 0.00000000E+00	 0.00000000E+00
	 0.00000000E+00	 0.00000000E+00	 0.00000000E+00
	 0.00000000E+00	 0.00000000E+00	 0.00000000E+00

	 0.00000000E+00	 0.00000000E+00	 0.00000000E+00
	 0.00000000E+00	 0.00000000E+00	 0.00000000E+00
	 0.00000000E+00	 0.00000000E+00	 0.00000000E+00

	 0.00000000E+00	 0.00000000E+00	 0.00000000E+00
	 0.00000000E+00	 0.00000000E+00	 0.00000000E+00
	 0.00000000E+00	 0.00000000E+00	 0.00000000E+00

	 0.00000000E+00	 0.00000000E+00	 0.00000000E+00
	 0.00000000E+00	 0.00000000E+00	 0.00000000E+00
	 0.00000000E+00	 0.00000000E+00	 0.00000000E+00

	 0.00000000E+00	 0.00000000E+00	 0.00000000E+00
	 0.00000000E+00	 0.00000000E+00	 0.00000000E+00
	 0.00000000E+00	 0.00000000E+00	 0.00000000E+00

	 0.00000000E+00	 0.00000000E+00	 0.00000000E+00
	 0.00000000E+00	 0.00000000E+00	 0.00000000E+00
	 0.00000000E+00	 0.00000000E+00	 0.00000000E+00

	 0.00000000E+00	 0.00000000E+00	 0.00000000E+00
	 0.00000000E+00	 0.00000000E+00	 0.00000000E+00
	 0.00000000E+00	 0.00000000E+00	 0.00000000E+00

	 0.00000000E+00	 0.00000000E+00	 0.00000000E+00
	 0.00000000E+00	 0.00000000E+00	 0.00000000E+00
	 0.00000000E+00	 0.00000000E+00	 0.00000000E+00

	 0.00000000E+00	 0.00000000E+00	 0.00000000E+00
	 0.00000000E+00	 0.00000000E+00	 0.00000000E+00
	 0.00000000E+00	 0.00000000E+00	 0.00000000E+00

	 0.00000000E+00	 0.00000000E+00	 0.00000000E+00
	 0.00000000E+00	 0.00000000E+00	 0.00000000E+00
	 0.00000000E+00	 0.00000000E+00	 0.00000000E+00

	 0.00000000E+00	 0.00000000E+00	 0.00000000E+00
	 0.00000000E+00	 0.00000000E+00	 0.00000000E+00
	 0.00000000E+00	 0.00000000E+00	 0.00000000E+00

	 0.00000000E+00	 0.00000000E+00	 0.00000000E+00
	 0.00000000E+00	 0.00000000E+00	 0.00000000E+00
	 0.00000000E+00	 0.00000000E+00	 0.00000000E+00

	 0.00000000E+00	 0.00000000E+00	 0.00000000E+00
	 0.00000000E+00	 0.00000000E+00	 0.00000000E+00
	 0.00000000E+00	 0.00000000E+00	 0.00000000E+00

	 0.00000000E+00	 0.00000000E+00	 0.00000000E+00
	 0.00000000E+00	 0.00000000E+00	 0.00000000E+00
	 0.00000000E+00	 0.00000000E+00	 0.00000000E+00

	 0.00000000E+00	 0.00000000E+00	 0.00000000E+00
	 0.00000000E+00	 0.00000000E+00	 0.00000000E+00
	 0.00000000E+00	 0.00000000E+00	 0.00000000E+00

	 0.00000000E+00	 0.00000000E+00	 0.00000000E+00
	 0.00000000E+00	 0.00000000E+00	 0.00000000E+00
	 0.00000000E+00	 0.00000000E+00	 0.00000000E+00

	 0.00000000E+00	 0.00000000E+00	 0.00000000E+00
	 0.00000000E+00	 0.00000000E+00	 0.00000000E+00
	 0.00000000E+00	 0.00000000E+00	 0.00000000E+00

	 0.00000000E+00	 0.00000000E+00	 0.00000000E+00
	 0.00000000E+00	 0.00000000E+00	 0.00000000E+00
	 0.00000000E+00	 0.00000000E+00	 0.00000000E+00

	 0.00000000E+00	 0.00000000E+00	 0.00000000E+00
	 0.00000000E+00	 0.00000000E+00	 0.00000000E+00
	 0.00000000E+00	 0.00000000E+00	 0.00000000E+00

	 0.00000000E+00	 0.00000000E+00	 0.00000000E+00
	 0.00000000E+00	 0.00000000E+00	 0.00000000E+00
	 0.00000000E+00	 0.00000000E+00	 0.00000000E+00

	 0.00000000E+00	 0.00000000E+00	 0.00000000E+00
	 0.00000000E+00	 0.00000000E+00	 0.00000000E+00
	 0.00000000E+00	 0.00000000E+00	 0.00000000E+00

	 0.00000000E+00	 0.00000000E+00	 0.00000000E+00
	 0.00000000E+00	 0.00000000E+00	 0.00000000E+00
	 0.00000000E+00	 0.00000000E+00	 0.00000000E+00

	 0.00000000E+00	 0.00000000E+00	 0.00000000E+00
	 0.00000000E+00	 0.00000000E+00	 0.00000000E+00
	 0.00000000E+00	 0.00000000E+00	 0.00000000E+00

	 0.00000000E+00	 0.00000000E+00	 0.00000000E+00
	 0.00000000E+00	 0.00000000E+00	 0.00000000E+00
	 0.00000000E+00	 0.00000000E+00	 0.00000000E+00

	 0.00000000E+00	 0.00000000E+00	 0.00000000E+00
	 0.00000000E+00	 0.00000000E+00	 0.00000000E+00
	 0.00000000E+00	 0.00000000E+00	 0.00000000E+00

	 0.00000000E+00	 0.00000000E+00	 0.00000000E+00
	 0.00000000E+00	 0.00000000E+00	 0.00000000E+00
	 0.00000000E+00	 0.00000000E+00	 0.00000000E+00

	 0.00000000E+00	 0.00000000E+00	 0.00000000E+00
	 0.00000000E+00	 0.00000000E+00	 0.00000000E+00
	 0.00000000E+00	 0.00000000E+00	 0.00000000E+00

	 0.00000000E+00	 0.00000000E+00	 0.00000000E+00
	 0.00000000E+00	 0.00000000E+00	 0.00000000E+00
	 0.00000000E+00	 0.00000000E+00	 0.00000000E+00

	 0.00000000E+00	 0.00000000E+00	 0.00000000E+00
	 0.00000000E+00	 0.00000000E+00	 0.00000000E+00
	 0.00000000E+00	 0.00000000E+00	 0.00000000E+00

	 0.00000000E+00	 0.00000000E+00	 0.00000000E+00
	 0.00000000E+00	 0.00000000E+00	 0.00000000E+00
	 0.00000000E+00	 0.00000000E+00	 0.00000000E+00

	 0.00000000E+00	 0.00000000E+00	 0.00000000E+00
	 0.00000000E+00	 0.00000000E+00	 0.00000000E+00
	 0.00000000E+00	 0.00000000E+00	 0.00000000E+00

	 0.00000000E+00	 0.00000000E+00	 0.00000000E+00
	 0.00000000E+00	 0.00000000E+00	 0.00000000E+00
	 0.00000000E+00	 0.00000000E+00	 0.00000000E+00

	 0.00000000E+00	 0.00000000E+00	 0.00000000E+00
	 0.00000000E+00	 0.00000000E+00	 0.00000000E+00
	 0.00000000E+00	 0.00000000E+00	 0.00000000E+00

	 0.00000000E+00	 0.00000000E+00	 0.00000000E+00
	 0.00000000E+00	 0.00000000E+00	 0.00000000E+00
	 0.00000000E+00	 0.00000000E+00	 0.00000000E+00

	 0.00000000E+00	 0.00000000E+00	 0.00000000E+00
	 0.00000000E+00	 0.00000000E+00	 0.00000000E+00
	 0.00000000E+00	 0.00000000E+00	 0.00000000E+00

	 0.00000000E+00	 0.00000000E+00	 0.00000000E+00
	 0.00000000E+00	 0.00000000E+00	 0.00000000E+00
	 0.00000000E+00	 0.00000000E+00	 0.00000000E+00

	 0.00000000E+00	 0.00000000E+00	 0.00000000E+00
	 0.00000000E+00	 0.00000000E+00	 0.00000000E+00
	 0.00000000E+00	 0.00000000E+00	 0.00000000E+00

	 0.00000000E+00	 0.00000000E+00	 0.00000000E+00
	 0.00000000E+00	 0.00000000E+00	 0.00000000E+00
	 0.00000000E+00	 0.00000000E+00	 0.00000000E+00

	 0.00000000E+00	 0.00000000E+00	 0.00000000E+00
	 0.00000000E+00	 0.00000000E+00	 0.00000000E+00
	 0.00000000E+00	 0.00000000E+00	 0.00000000E+00

	 0.00000000E+00	 0.00000000E+00	 0.00000000E+00
	 0.00000000E+00	 0.00000000E+00	 0.00000000E+00
	 0.00000000E+00	 0.00000000E+00	 0.00000000E+00

	 0.00000000E+00	 0.00000000E+00	 0.00000000E+00
	 0.00000000E+00	 0.00000000E+00	 0.00000000E+00
	 0.00000000E+00	 0.00000000E+00	 0.00000000E+00

	 0.00000000E+00	 0.00000000E+00	 0.00000000E+00
	 0.00000000E+00	 0.00000000E+00	 0.00000000E+00
	 0.00000000E+00	 0.00000000E+00	 0.00000000E+00

	 0.00000000E+00	 0.00000000E+00	 0.00000000E+00
	 0.00000000E+00	 0.00000000E+00	 0.00000000E+00
	 0.00000000E+00	 0.00000000E+00	 0.00000000E+00

	 0.00000000E+00	 0.00000000E+00	 0.00000000E+00
	 0.00000000E+00	 0.00000000E+00	 0.00000000E+00
	 0.00000000E+00	 0.00000000E+00	 0.00000000E+00

	 0.00000000E+00	 0.00000000E+00	 0.00000000E+00
	 0.00000000E+00	 0.00000000E+00	 0.00000000E+00
	 0.00000000E+00	 0.00000000E+00	 0.00000000E+00

	 0.00000000E+00	 0.00000000E+00	 0.00000000E+00
	 0.00000000E+00	 0.00000000E+00	 0.00000000E+00
	 0.00000000E+00	 0.00000000E+00	 0.00000000E+00

	 0.00000000E+00	 0.00000000E+00	 0.00000000E+00
	 0.00000000E+00	 0.00000000E+00	 0.00000000E+00
	 0.00000000E+00	 0.00000000E+00	 0.00000000E+00

	 0.00000000E+00	 0.00000000E+00	 0.00000000E+00
	 0.00000000E+00	 0.00000000E+00	 0.00000000E+00
	 0.00000000E+00	 0.00000000E+00	 0.00000000E+00

	 0.00000000E+00	 0.00000000E+00	 0.00000000E+00
	 0.00000000E+00	 0.00000000E+00	 0.00000000E+00
	 0.00000000E+00	 0.00000000E+00	 0.00000000E+00

	 0.00000000E+00	 0.00000000E+00	 0.00000000E+00
	 0.00000000E+00	 0.00000000E+00	 0.00000000E+00
	 0.00000000E+00	 0.00000000E+00	 0.00000000E+00

	 0.00000000E+00	 0.00000000E+00	 0.00000000E+00
	 0.00000000E+00	 0.00000000E+00	 0.00000000E+00
	 0.00000000E+00	 0.00000000E+00	 0.00000000E+00

	 0.00000000E+00	 0.00000000E+00	 0.00000000E+00
	 0.00000000E+00	 0.00000000E+00	 0.00000000E+00
	 0.00000000E+00	 0.00000000E+00	 0.00000000E+00

	 0.00000000E+00	 0.00000000E+00	 0.00000000E+00
	 0.00000000E+00	 0.00000000E+00	 0.00000000E+00
	 0.00000000E+00	 0.00000000E+00	 0.00000000E+00

	 0.00000000E+00	 0.00000000E+00	 0.00000000E+00
	 0.00000000E+00	 0.00000000E+00	 0.00000000E+00
	 0.00000000E+00	 0.00000000E+00	 0.00000000E+00

	 0.00000000E+00	 0.00000000E+00	 0.00000000E+00
	 0.00000000E+00	 0.00000000E+00	 0.00000000E+00
	 0.00000000E+00	 0.00000000E+00	 0.00000000E+00

	 0.00000000E+00	 0.00000000E+00	 0.00000000E+00
	 0.00000000E+00	 0.00000000E+00	 0.00000000E+00
	 0.00000000E+00	 0.00000000E+00	 0.00000000E+00

	 0.00000000E+00	 0.00000000E+00	 0.00000000E+00
	 0.00000000E+00	 0.00000000E+00	 0.00000000E+00
	 0.00000000E+00	 0.00000000E+00	 0.00000000E+00

	 0.00000000E+00	 0.00000000E+00	 0.00000000E+00
	 0.00000000E+00	 0.00000000E+00	 0.00000000E+00
	 0.00000000E+00	 0.00000000E+00	 0.00000000E+00

	 0.00000000E+00	 0.00000000E+00	 0.00000000E+00
	 0.00000000E+00	 0.00000000E+00	 0.00000000E+00
	 0.00000000E+00	 0.00000000E+00	 0.00000000E+00

	 0.00000000E+00	 0.00000000E+00	 0.00000000E+00
	 0.00000000E+00	 0.00000000E+00	 0.00000000E+00
	 0.00000000E+00	 0.00000000E+00	 0.00000000E+00

	 0.00000000E+00	 0.00000000E+00	 0.00000000E+00
	 0.00000000E+00	 0.00000000E+00	 0.00000000E+00
	 0.00000000E+00	 0.00000000E+00	 0.00000000E+00

	 0.00000000E+00	 0.00000000E+00	 0.00000000E+00
	 0.00000000E+00	 0.00000000E+00	 0.00000000E+00
	 0.00000000E+00	 0.00000000E+00	 0.00000000E+00

	 0.00000000E+00	 0.00000000E+00	 0.00000000E+00
	 0.00000000E+00	 0.00000000E+00	 0.00000000E+00
	 0.00000000E+00	 0.00000000E+00	 0.00000000E+00

	 0.00000000E+00	 0.00000000E+00	 0.00000000E+00
	 0.00000000E+00	 0.00000000E+00	 0.00000000E+00
	 0.00000000E+00	 0.00000000E+00	 0.00000000E+00

	 0.00000000E+00	 0.00000000E+00	 0.00000000E+00
	 0.00000000E+00	 0.00000000E+00	 0.00000000E+00
	 0.00000000E+00	 0.00000000E+00	 0.00000000E+00

	 0.00000000E+00	 0.00000000E+00	 0.00000000E+00
	 0.00000000E+00	 0.00000000E+00	 0.00000000E+00
	 0.00000000E+00	 0.00000000E+00	 0.00000000E+00

	 0.00000000E+00	 0.00000000E+00	 0.00000000E+00
	 0.00000000E+00	 0.00000000E+00	 0.00000000E+00
	 0.00000000E+00	 0.00000000E+00	 0.00000000E+00

	 0.00000000E+00	 0.00000000E+00	 0.00000000E+00
	 0.00000000E+00	 0.00000000E+00	 0.00000000E+00
	 0.00000000E+00	 0.00000000E+00	 0.00000000E+00

	 0.00000000E+00	 0.00000000E+00	 0.00000000E+00
	 0.00000000E+00	 0.00000000E+00	 0.00000000E+00
	 0.00000000E+00	 0.00000000E+00	 0.00000000E+00

	 0.00000000E+00	 0.00000000E+00	 0.00000000E+00
	 0.00000000E+00	 0.00000000E+00	 0.00000000E+00
	 0.00000000E+00	 0.00000000E+00	 0.00000000E+00

	 0.00000000E+00	 0.00000000E+00	 0.00000000E+00
	 0.00000000E+00	 0.00000000E+00	 0.00000000E+00
	 0.00000000E+00	 0.00000000E+00	 0.00000000E+00

	 0.00000000E+00	 0.00000000E+00	 0.00000000E+00
	 0.00000000E+00	 0.00000000E+00	 0.00000000E+00
	 0.00000000E+00	 0.00000000E+00	 0.00000000E+00

	 0.00000000E+00	 0.00000000E+00	 0.00000000E+00
	 0.00000000E+00	 0.00000000E+00	 0.00000000E+00
	 0.00000000E+00	 0.00000000E+00	 0.00000000E+00

	 0.00000000E+00	 0.00000000E+00	 0.00000000E+00
	 0.00000000E+00	 0.00000000E+00	 0.00000000E+00
	 0.00000000E+00	 0.00000000E+00	 0.00000000E+00

	 0.00000000E+00	 0.00000000E+00	 0.00000000E+00
	 0.00000000E+00	 0.00000000E+00	 0.00000000E+00
	 0.00000000E+00	 0.00000000E+00	 0.00000000E+00

	 0.00000000E+00	 0.00000000E+00	 0.00000000E+00
	 0.00000000E+00	 0.00000000E+00	 0.00000000E+00
	 0.00000000E+00	 0.00000000E+00	 0.00000000E+00

	 0.00000000E+00	 0.00000000E+00	 0.00000000E+00
	 0.00000000E+00	 0.00000000E+00	 0.00000000E+00
	 0.00000000E+00	 0.00000000E+00	 0.00000000E+00

	 0.00000000E+00	 0.00000000E+00	 0.00000000E+00
	 0.00000000E+00	 0.00000000E+00	 0.00000000E+00
	 0.00000000E+00	 0.00000000E+00	 0.00000000E+00

	 0.00000000E+00	 0.00000000E+00	 0.00000000E+00
	 0.00000000E+00	 0.00000000E+00	 0.00000000E+00
	 0.00000000E+00	 0.00000000E+00	 0.00000000E+00

	 0.00000000E+00	 0.00000000E+00	 0.00000000E+00
	 0.00000000E+00	 0.00000000E+00	 0.00000000E+00
	 0.00000000E+00	 0.00000000E+00	 0.00000000E+00

	 0.00000000E+00	 0.00000000E+00	 0.00000000E+00
	 0.00000000E+00	 0.00000000E+00	 0.00000000E+00
	 0.00000000E+00	 0.00000000E+00	 0.00000000E+00

	 0.00000000E+00	 0.00000000E+00	 0.00000000E+00
	 0.00000000E+00	 0.00000000E+00	 0.00000000E+00
	 0.00000000E+00	 0.00000000E+00	 0.00000000E+00

	 0.00000000E+00	 0.00000000E+00	 0.00000000E+00
	 0.00000000E+00	 0.00000000E+00	 0.00000000E+00
	 0.00000000E+00	 0.00000000E+00	 0.00000000E+00

	 0.00000000E+00	 0.00000000E+00	 0.00000000E+00
	 0.00000000E+00	 0.00000000E+00	 0.00000000E+00
	 0.00000000E+00	 0.00000000E+00	 0.00000000E+00

	 0.00000000E+00	 0.00000000E+00	 0.00000000E+00
	 0.00000000E+00	 0.00000000E+00	 0.00000000E+00
	 0.00000000E+00	 0.00000000E+00	 0.00000000E+00

	 0.00000000E+00	 0.00000000E+00	 0.00000000E+00
	 0.00000000E+00	 0.00000000E+00	 0.00000000E+00
	 0.00000000E+00	 0.00000000E+00	 0.00000000E+00

	 0.00000000E+00	 0.00000000E+00	 0.00000000E+00
	 0.00000000E+00	 0.00000000E+00	 0.00000000E+00
	 0.00000000E+00	 0.00000000E+00	 0.00000000E+00

	 0.00000000E+00	 0.00000000E+00	 0.00000000E+00
	 0.00000000E+00	 0.00000000E+00	 0.00000000E+00
	 0.00000000E+00	 0.00000000E+00	 0.00000000E+00

	 0.00000000E+00	 0.00000000E+00	 0.00000000E+00
	 0.00000000E+00	 0.00000000E+00	 0.00000000E+00
	 0.00000000E+00	 0.00000000E+00	 0.00000000E+00

	 0.00000000E+00	 0.00000000E+00	 0.00000000E+00
	 0.00000000E+00	 0.00000000E+00	 0.00000000E+00
	 0.00000000E+00	 0.00000000E+00	 0.00000000E+00

	 0.00000000E+00	 0.00000000E+00	 0.00000000E+00
	 0.00000000E+00	 0.00000000E+00	 0.00000000E+00
	 0.00000000E+00	 0.00000000E+00	 0.00000000E+00

	 0.00000000E+00	 0.00000000E+00	 0.00000000E+00
	 0.00000000E+00	 0.00000000E+00	 0.00000000E+00
	 0.00000000E+00	 0.00000000E+00	 0.00000000E+00

	 0.00000000E+00	 0.00000000E+00	 0.00000000E+00
	 0.00000000E+00	 0.00000000E+00	 0.00000000E+00
	 0.00000000E+00	 0.00000000E+00	 0.00000000E+00

	 0.00000000E+00	 0.00000000E+00	 0.00000000E+00
	 0.00000000E+00	 0.00000000E+00	 0.00000000E+00
	 0.00000000E+00	 0.00000000E+00	 0.00000000E+00

	 0.00000000E+00	 0.00000000E+00	 0.00000000E+00
	 0.00000000E+00	 0.00000000E+00	 0.00000000E+00
	 0.00000000E+00	 0.00000000E+00	 0.00000000E+00

	 0.00000000E+00	 0.00000000E+00	 0.00000000E+00
	 0.00000000E+00	 0.00000000E+00	 0.00000000E+00
	 0.00000000E+00	 0.00000000E+00	 0.00000000E+00

	 0.00000000E+00	 0.00000000E+00	 0.00000000E+00
	 0.00000000E+00	 0.00000000E+00	 0.00000000E+00
	 0.00000000E+00	 0.00000000E+00	 0.00000000E+00

	 0.00000000E+00	 0.00000000E+00	 0.00000000E+00
	 0.00000000E+00	 0.00000000E+00	 0.00000000E+00
	 0.00000000E+00	 0.00000000E+00	 0.00000000E+00

	 0.00000000E+00	 0.00000000E+00	 0.00000000E+00
	 0.00000000E+00	 0.00000000E+00	 0.00000000E+00
	 0.00000000E+00	 0.00000000E+00	 0.00000000E+00

	 0.00000000E+00	 0.00000000E+00	 0.00000000E+00
	 0.00000000E+00	 0.00000000E+00	 0.00000000E+00
	 0.00000000E+00	 0.00000000E+00	 0.00000000E+00

	 0.00000000E+00	 0.00000000E+00	 0.00000000E+00
	 0.00000000E+00	 0.00000000E+00	 0.00000000E+00
	 0.00000000E+00	 0.00000000E+00	 0.00000000E+00

	 0.00000000E+00	 0.00000000E+00	 0.00000000E+00
	 0.00000000E+00	 0.00000000E+00	 0.00000000E+00
	 0.00000000E+00	 0.00000000E+00	 0.00000000E+00

	 0.00000000E+00	 0.00000000E+00	 0.00000000E+00
	 0.00000000E+00	 0.00000000E+00	 0.00000000E+00
	 0.00000000E+00	 0.00000000E+00	 0.00000000E+00

	 0.00000000E+00	 0.00000000E+00	 0.00000000E+00
	 0.00000000E+00	 0.00000000E+00	 0.00000000E+00
	 0.00000000E+00	 0.00000000E+00	 0.00000000E+00

	 0.00000000E+00	 0.00000000E+00	 0.00000000E+00
	 0.00000000E+00	 0.00000000E+00	 0.00000000E+00
	 0.00000000E+00	 0.00000000E+00	 0.00000000E+00

	 0.00000000E+00	 0.00000000E+00	 0.00000000E+00
	 0.00000000E+00	 0.00000000E+00	 0.00000000E+00
	 0.00000000E+00	 0.00000000E+00	 0.00000000E+00

	 0.00000000E+00	 0.00000000E+00	 0.00000000E+00
	 0.00000000E+00	 0.00000000E+00	 0.00000000E+00
	 0.00000000E+00	 0.00000000E+00	 0.00000000E+00

	 0.00000000E+00	 0.00000000E+00	 0.00000000E+00
	 0.00000000E+00	 0.00000000E+00	 0.00000000E+00
	 0.00000000E+00	 0.00000000E+00	 0.00000000E+00

	 0.00000000E+00	 0.00000000E+00	 0.00000000E+00
	 0.00000000E+00	 0.00000000E+00	 0.00000000E+00
	 0.00000000E+00	 0.00000000E+00	 0.00000000E+00

	 0.00000000E+00	 0.00000000E+00	 0.00000000E+00
	 0.00000000E+00	 0.00000000E+00	 0.00000000E+00
	 0.00000000E+00	 0.00000000E+00	 0.00000000E+00

	 0.00000000E+00	 0.00000000E+00	 0.00000000E+00
	 0.00000000E+00	 0.00000000E+00	 0.00000000E+00
	 0.00000000E+00	 0.00000000E+00	 0.00000000E+00

	 0.00000000E+00	 0.00000000E+00	 0.00000000E+00
	 0.00000000E+00	 0.00000000E+00	 0.00000000E+00
	 0.00000000E+00	 0.00000000E+00	 0.00000000E+00

	 0.00000000E+00	 0.00000000E+00	 0.00000000E+00
	 0.00000000E+00	 0.00000000E+00	 0.00000000E+00
	 0.00000000E+00	 0.00000000E+00	 0.00000000E+00

	 0.00000000E+00	 0.00000000E+00	 0.00000000E+00
	 0.00000000E+00	 0.00000000E+00	 0.00000000E+00
	 0.00000000E+00	 0.00000000E+00	 0.00000000E+00

	 0.00000000E+00	 0.00000000E+00	 0.00000000E+00
	 0.00000000E+00	 0.00000000E+00	 0.00000000E+00
	 0.00000000E+00	 0.00000000E+00	 0.00000000E+00

	 0.00000000E+00	 0.00000000E+00	 0.00000000E+00
	 0.00000000E+00	 0.00000000E+00	 0.00000000E+00
	 0.00000000E+00	 0.00000000E+00	 0.00000000E+00

	 0.00000000E+00	 0.00000000E+00	 0.00000000E+00
	 0.00000000E+00	 0.00000000E+00	 0.00000000E+00
	 0.00000000E+00	 0.00000000E+00	 0.00000000E+00

	 0.00000000E+00	 0.00000000E+00	 0.00000000E+00
	 0.00000000E+00	 0.00000000E+00	 0.00000000E+00
	 0.00000000E+00	 0.00000000E+00	 0.00000000E+00

	 0.00000000E+00	 0.00000000E+00	 0.00000000E+00
	 0.00000000E+00	 0.00000000E+00	 0.00000000E+00
	 0.00000000E+00	 0.00000000E+00	 0.00000000E+00

	 0.00000000E+00	 0.00000000E+00	 0.00000000E+00
	 0.00000000E+00	 0.00000000E+00	 0.00000000E+00
	 0.00000000E+00	 0.00000000E+00	 0.00000000E+00

	 0.00000000E+00	 0.00000000E+00	 0.00000000E+00
	 0.00000000E+00	 0.00000000E+00	 0.00000000E+00
	 0.00000000E+00	 0.00000000E+00	 0.00000000E+00

	 0.00000000E+00	 0.00000000E+00	 0.00000000E+00
	 0.00000000E+00	 0.00000000E+00	 0.00000000E+00
	 0.00000000E+00	 0.00000000E+00	 0.00000000E+00

	 0.00000000E+00	 0.00000000E+00	 0.00000000E+00
	 0.00000000E+00	 0.00000000E+00	 0.00000000E+00
	 0.00000000E+00	 0.00000000E+00	 0.00000000E+00

	 0.00000000E+00	 0.00000000E+00	 0.00000000E+00
	 0.00000000E+00	 0.00000000E+00	 0.00000000E+00
	 0.00000000E+00	 0.00000000E+00	 0.00000000E+00

	 0.00000000E+00	 0.00000000E+00	 0.00000000E+00
	 0.00000000E+00	 0.00000000E+00	 0.00000000E+00
	 0.00000000E+00	 0.00000000E+00	 0.00000000E+00

	 0.00000000E+00	 0.00000000E+00	 0.00000000E+00
	 0.00000000E+00	 0.00000000E+00	 0.00000000E+00
	 0.00000000E+00	 0.00000000E+00	 0.00000000E+00

	 0.00000000E+00	 0.00000000E+00	 0.00000000E+00
	 0.00000000E+00	 0.00000000E+00	 0.00000000E+00
	 0.00000000E+00	 0.00000000E+00	 0.00000000E+00

	 0.00000000E+00	 0.00000000E+00	 0.00000000E+00
	 0.00000000E+00	 0.00000000E+00	 0.00000000E+00
	 0.00000000E+00	 0.00000000E+00	 0.00000000E+00

	 0.00000000E+00	 0.00000000E+00	 0.00000000E+00
	 0.00000000E+00	 0.00000000E+00	 0.00000000E+00
	 0.00000000E+00	 0.00000000E+00	 0.00000000E+00

	 0.00000000E+00	 0.00000000E+00	 0.00000000E+00
	 0.00000000E+00	 0.00000000E+00	 0.00000000E+00
	 0.00000000E+00	 0.00000000E+00	 0.00000000E+00

	 0.00000000E+00	 0.00000000E+00	 0.00000000E+00
	 0.00000000E+00	 0.00000000E+00	 0.00000000E+00
	 0.00000000E+00	 0.00000000E+00	 0.00000000E+00

	 0.00000000E+00	 0.00000000E+00	 0.00000000E+00
	 0.00000000E+00	 0.00000000E+00	 0.00000000E+00
	 0.00000000E+00	 0.00000000E+00	 0.00000000E+00

	 0.00000000E+00	 0.00000000E+00	 0.00000000E+00
	 0.00000000E+00	 0.00000000E+00	 0.00000000E+00
	 0.00000000E+00	 0.00000000E+00	 0.00000000E+00

	 0.00000000E+00	 0.00000000E+00	 0.00000000E+00
	 0.00000000E+00	 0.00000000E+00	 0.00000000E+00
	 0.00000000E+00	 0.00000000E+00	 0.00000000E+00

	 0.00000000E+00	 0.00000000E+00	 0.00000000E+00
	 0.00000000E+00	 0.00000000E+00	 0.00000000E+00
	 0.00000000E+00	 0.00000000E+00	 0.00000000E+00

	 0.00000000E+00	 0.00000000E+00	 0.00000000E+00
	 0.00000000E+00	 0.00000000E+00	 0.00000000E+00
	 0.00000000E+00	 0.00000000E+00	 0.00000000E+00

	 0.00000000E+00	 0.00000000E+00	 0.00000000E+00
	 0.00000000E+00	 0.00000000E+00	 0.00000000E+00
	 0.00000000E+00	 0.00000000E+00	 0.00000000E+00

	 0.00000000E+00	 0.00000000E+00	 0.00000000E+00
	 0.00000000E+00	 0.00000000E+00	 0.00000000E+00
	 0.00000000E+00	 0.00000000E+00	 0.00000000E+00

	 0.00000000E+00	 0.00000000E+00	 0.00000000E+00
	 0.00000000E+00	 0.00000000E+00	 0.00000000E+00
	 0.00000000E+00	 0.00000000E+00	 0.00000000E+00

	 0.00000000E+00	 0.00000000E+00	 0.00000000E+00
	 0.00000000E+00	 0.00000000E+00	 0.00000000E+00
	 0.00000000E+00	 0.00000000E+00	 0.00000000E+00

	 0.00000000E+00	 0.00000000E+00	 0.00000000E+00
	 0.00000000E+00	 0.00000000E+00	 0.00000000E+00
	 0.00000000E+00	 0.00000000E+00	 0.00000000E+00

	 0.00000000E+00	 0.00000000E+00	 0.00000000E+00
	 0.00000000E+00	 0.00000000E+00	 0.00000000E+00
	 0.00000000E+00	 0.00000000E+00	 0.00000000E+00

	 0.00000000E+00	 0.00000000E+00	 0.00000000E+00
	 0.00000000E+00	 0.00000000E+00	 0.00000000E+00
	 0.00000000E+00	 0.00000000E+00	 0.00000000E+00

	 0.00000000E+00	 0.00000000E+00	 0.00000000E+00
	 0.00000000E+00	 0.00000000E+00	 0.00000000E+00
	 0.00000000E+00	 0.00000000E+00	 0.00000000E+00

	 0.00000000E+00	 0.00000000E+00	 0.00000000E+00
	 0.00000000E+00	 0.00000000E+00	 0.00000000E+00
	 0.00000000E+00	 0.00000000E+00	 0.00000000E+00

	 0.00000000E+00	 0.00000000E+00	 0.00000000E+00
	 0.00000000E+00	 0.00000000E+00	 0.00000000E+00
	 0.00000000E+00	 0.00000000E+00	 0.00000000E+00

	 0.00000000E+00	 0.00000000E+00	 0.00000000E+00
	 0.00000000E+00	 0.00000000E+00	 0.00000000E+00
	 0.00000000E+00	 0.00000000E+00	 0.00000000E+00

	 0.00000000E+00	 0.00000000E+00	 0.00000000E+00
	 0.00000000E+00	 0.00000000E+00	 0.00000000E+00
	 0.00000000E+00	 0.00000000E+00	 0.00000000E+00

	 0.00000000E+00	 0.00000000E+00	 0.00000000E+00
	 0.00000000E+00	 0.00000000E+00	 0.00000000E+00
	 0.00000000E+00	 0.00000000E+00	 0.00000000E+00

	 0.00000000E+00	 0.00000000E+00	 0.00000000E+00
	 0.00000000E+00	 0.00000000E+00	 0.00000000E+00
	 0.00000000E+00	 0.00000000E+00	 0.00000000E+00

	 0.00000000E+00	 0.00000000E+00	 0.00000000E+00
	 0.00000000E+00	 0.00000000E+00	 0.00000000E+00
	 0.00000000E+00	 0.00000000E+00	 0.00000000E+00

	 0.00000000E+00	 0.00000000E+00	 0.00000000E+00
	 0.00000000E+00	 0.00000000E+00	 0.00000000E+00
	 0.00000000E+00	 0.00000000E+00	 0.00000000E+00

	 0.00000000E+00	 0.00000000E+00	 0.00000000E+00
	 0.00000000E+00	 0.00000000E+00	 0.00000000E+00
	 0.00000000E+00	 0.00000000E+00	 0.00000000E+00

	 0.00000000E+00	 0.00000000E+00	 0.00000000E+00
	 0.00000000E+00	 0.00000000E+00	 0.00000000E+00
	 0.00000000E+00	 0.00000000E+00	 0.00000000E+00

	 0.00000000E+00	 0.00000000E+00	 0.00000000E+00
	 0.00000000E+00	 0.00000000E+00	 0.00000000E+00
	 0.00000000E+00	 0.00000000E+00	 0.00000000E+00

	 0.00000000E+00	 0.00000000E+00	 0.00000000E+00
	 0.00000000E+00	 0.00000000E+00	 0.00000000E+00
	 0.00000000E+00	 0.00000000E+00	 0.00000000E+00

	 0.00000000E+00	 0.00000000E+00	 0.00000000E+00
	 0.00000000E+00	 0.00000000E+00	 0.00000000E+00
	 0.00000000E+00	 0.00000000E+00	 0.00000000E+00

	 0.00000000E+00	 0.00000000E+00	 0.00000000E+00
	 0.00000000E+00	 0.00000000E+00	 0.00000000E+00
	 0.00000000E+00	 0.00000000E+00	 0.00000000E+00

	 0.00000000E+00	 0.00000000E+00	 0.00000000E+00
	 0.00000000E+00	 0.00000000E+00	 0.00000000E+00
	 0.00000000E+00	 0.00000000E+00	 0.00000000E+00

	 0.00000000E+00	 0.00000000E+00	 0.00000000E+00
	 0.00000000E+00	 0.00000000E+00	 0.00000000E+00
	 0.00000000E+00	 0.00000000E+00	 0.00000000E+00

	 0.00000000E+00	 0.00000000E+00	 0.00000000E+00
	 0.00000000E+00	 0.00000000E+00	 0.00000000E+00
	 0.00000000E+00	 0.00000000E+00	 0.00000000E+00

	 0.00000000E+00	 0.00000000E+00	 0.00000000E+00
	 0.00000000E+00	 0.00000000E+00	 0.00000000E+00
	 0.00000000E+00	 0.00000000E+00	 0.00000000E+00

	 0.00000000E+00	 0.00000000E+00	 0.00000000E+00
	 0.00000000E+00	 0.00000000E+00	 0.00000000E+00
	 0.00000000E+00	 0.00000000E+00	 0.00000000E+00

	 0.00000000E+00	 0.00000000E+00	 0.00000000E+00
	 0.00000000E+00	 0.00000000E+00	 0.00000000E+00
	 0.00000000E+00	 0.00000000E+00	 0.00000000E+00

	 0.00000000E+00	 0.00000000E+00	 0.00000000E+00
	 0.00000000E+00	 0.00000000E+00	 0.00000000E+00
	 0.00000000E+00	 0.00000000E+00	 0.00000000E+00

	 0.00000000E+00	 0.00000000E+00	 0.00000000E+00
	 0.00000000E+00	 0.00000000E+00	 0.00000000E+00
	 0.00000000E+00	 0.00000000E+00	 0.00000000E+00

	 0.00000000E+00	 0.00000000E+00	 0.00000000E+00
	 0.00000000E+00	 0.00000000E+00	 0.00000000E+00
	 0.00000000E+00	 0.00000000E+00	 0.00000000E+00

	 0.00000000E+00	 0.00000000E+00	 0.00000000E+00
	 0.00000000E+00	 0.00000000E+00	 0.00000000E+00
	 0.00000000E+00	 0.00000000E+00	 0.00000000E+00

	 0.00000000E+00	 0.00000000E+00	 0.00000000E+00
	 0.00000000E+00	 0.00000000E+00	 0.00000000E+00
	 0.00000000E+00	 0.00000000E+00	 0.00000000E+00

	 0.00000000E+00	 0.00000000E+00	 0.00000000E+00
	 0.00000000E+00	 0.00000000E+00	 0.00000000E+00
	 0.00000000E+00	 0.00000000E+00	 0.00000000E+00

	 0.00000000E+00	 0.00000000E+00	 0.00000000E+00
	 0.00000000E+00	 0.00000000E+00	 0.00000000E+00
	 0.00000000E+00	 0.00000000E+00	 0.00000000E+00

	 0.00000000E+00	 0.00000000E+00	 0.00000000E+00
	 0.00000000E+00	 0.00000000E+00	 0.00000000E+00
	 0.00000000E+00	 0.00000000E+00	 0.00000000E+00

	 0.00000000E+00	 0.00000000E+00	 0.00000000E+00
	 0.00000000E+00	 0.00000000E+00	 0.00000000E+00
	 0.00000000E+00	 0.00000000E+00	 0.00000000E+00

	 0.00000000E+00	 0.00000000E+00	 0.00000000E+00
	 0.00000000E+00	 0.00000000E+00	 0.00000000E+00
	 0.00000000E+00	 0.00000000E+00	 0.00000000E+00

	 0.00000000E+00	 0.00000000E+00	 0.00000000E+00
	 0.00000000E+00	 0.00000000E+00	 0.00000000E+00
	 0.00000000E+00	 0.00000000E+00	 0.00000000E+00

	 0.00000000E+00	 0.00000000E+00	 0.00000000E+00
	 0.00000000E+00	 0.00000000E+00	 0.00000000E+00
	 0.00000000E+00	 0.00000000E+00	 0.00000000E+00

	 0.00000000E+00	 0.00000000E+00	 0.00000000E+00
	 0.00000000E+00	 0.00000000E+00	 0.00000000E+00
	 0.00000000E+00	 0.00000000E+00	 0.00000000E+00

	 0.00000000E+00	 0.00000000E+00	 0.00000000E+00
	 0.00000000E+00	 0.00000000E+00	 0.00000000E+00
	 0.00000000E+00	 0.00000000E+00	 0.00000000E+00

	 0.00000000E+00	 0.00000000E+00	 0.00000000E+00
	 0.00000000E+00	 0.00000000E+00	 0.00000000E+00
	 0.00000000E+00	 0.00000000E+00	 0.00000000E+00

	 0.00000000E+00	 0.00000000E+00	 0.00000000E+00
	 0.00000000E+00	 0.00000000E+00	 0.00000000E+00
	 0.00000000E+00	 0.00000000E+00	 0.00000000E+00

	 0.00000000E+00	 0.00000000E+00	 0.00000000E+00
	 0.00000000E+00	 0.00000000E+00	 0.00000000E+00
	 0.00000000E+00	 0.00000000E+00	 0.00000000E+00

	 0.00000000E+00	 0.00000000E+00	 0.00000000E+00
	 0.00000000E+00	 0.00000000E+00	 0.00000000E+00
	 0.00000000E+00	 0.00000000E+00	 0.00000000E+00

	 0.00000000E+00	 0.00000000E+00	 0.00000000E+00
	 0.00000000E+00	 0.00000000E+00	 0.00000000E+00
	 0.00000000E+00	 0.00000000E+00	 0.00000000E+00

	 0.00000000E+00	 0.00000000E+00	 0.00000000E+00
	 0.00000000E+00	 0.00000000E+00	 0.00000000E+00
	 0.00000000E+00	 0.00000000E+00	 0.00000000E+00

	 0.00000000E+00	 0.00000000E+00	 0.00000000E+00
	 0.00000000E+00	 0.00000000E+00	 0.00000000E+00
	 0.00000000E+00	 0.00000000E+00	 0.00000000E+00

	 0.00000000E+00	 0.00000000E+00	 0.00000000E+00
	 0.00000000E+00	 0.00000000E+00	 0.00000000E+00
	 0.00000000E+00	 0.00000000E+00	 0.00000000E+00

	 0.00000000E+00	 0.00000000E+00	 0.00000000E+00
	 0.00000000E+00	 0.00000000E+00	 0.00000000E+00
	 0.00000000E+00	 0.00000000E+00	 0.00000000E+00

	 0.00000000E+00	 0.00000000E+00	 0.00000000E+00
	 0.00000000E+00	 0.00000000E+00	 0.00000000E+00
	 0.00000000E+00	 0.00000000E+00	 0.00000000E+00

	 0.00000000E+00	 0.00000000E+00	 0.00000000E+00
	 0.00000000E+00	 0.00000000E+00	 0.00000000E+00
	 0.00000000E+00	 0.00000000E+00	 0.00000000E+00

	 0.00000000E+00	 0.00000000E+00	 0.00000000E+00
	 0.00000000E+00	 0.00000000E+00	 0.00000000E+00
	 0.00000000E+00	 0.00000000E+00	 0.00000000E+00

	 0.00000000E+00	 0.00000000E+00	 0.00000000E+00
	 0.00000000E+00	 0.00000000E+00	 0.00000000E+00
	 0.00000000E+00	 0.00000000E+00	 0.00000000E+00

	 0.00000000E+00	 0.00000000E+00	 0.00000000E+00
	 0.00000000E+00	 0.00000000E+00	 0.00000000E+00
	 0.00000000E+00	 0.00000000E+00	 0.00000000E+00

	 0.00000000E+00	 0.00000000E+00	 0.00000000E+00
	 0.00000000E+00	 0.00000000E+00	 0.00000000E+00
	 0.00000000E+00	 0.00000000E+00	 0.00000000E+00

	 0.00000000E+00	 0.00000000E+00	 0.00000000E+00
	 0.00000000E+00	 0.00000000E+00	 0.00000000E+00
	 0.00000000E+00	 0.00000000E+00	 0.00000000E+00

	 0.00000000E+00	 0.00000000E+00	 0.00000000E+00
	 0.00000000E+00	 0.00000000E+00	 0.00000000E+00
	 0.00000000E+00	 0.00000000E+00	 0.00000000E+00

	 0.00000000E+00	 0.00000000E+00	 0.00000000E+00
	 0.00000000E+00	 0.00000000E+00	 0.00000000E+00
	 0.00000000E+00	 0.00000000E+00	 0.00000000E+00

	 0.00000000E+00	 0.00000000E+00	 0.00000000E+00
	 0.00000000E+00	 0.00000000E+00	 0.00000000E+00
	 0.00000000E+00	 0.00000000E+00	 0.00000000E+00

	 0.00000000E+00	 0.00000000E+00	 0.00000000E+00
	 0.00000000E+00	 0.00000000E+00	 0.00000000E+00
	 0.00000000E+00	 0.00000000E+00	 0.00000000E+00

	 0.00000000E+00	 0.00000000E+00	 0.00000000E+00
	 0.00000000E+00	 0.00000000E+00	 0.00000000E+00
	 0.00000000E+00	 0.00000000E+00	 0.00000000E+00

	 0.00000000E+00	 0.00000000E+00	 0.00000000E+00
	 0.00000000E+00	 0.00000000E+00	 0.00000000E+00
	 0.00000000E+00	 0.00000000E+00	 0.00000000E+00

	 0.00000000E+00	 0.00000000E+00	 0.00000000E+00
	 0.00000000E+00	 0.00000000E+00	 0.00000000E+00
	 0.00000000E+00	 0.00000000E+00	 0.00000000E+00

	 0.00000000E+00	 0.00000000E+00	 0.00000000E+00
	 0.00000000E+00	 0.00000000E+00	 0.00000000E+00
	 0.00000000E+00	 0.00000000E+00	 0.00000000E+00

	 0.00000000E+00	 0.00000000E+00	 0.00000000E+00
	 0.00000000E+00	 0.00000000E+00	 0.00000000E+00
	 0.00000000E+00	 0.00000000E+00	 0.00000000E+00

	 0.00000000E+00	 0.00000000E+00	 0.00000000E+00
	 0.00000000E+00	 0.00000000E+00	 0.00000000E+00
	 0.00000000E+00	 0.00000000E+00	 0.00000000E+00

	 0.00000000E+00	 0.00000000E+00	 0.00000000E+00
	 0.00000000E+00	 0.00000000E+00	 0.00000000E+00
	 0.00000000E+00	 0.00000000E+00	 0.00000000E+00

	 0.00000000E+00	 0.00000000E+00	 0.00000000E+00
	 0.00000000E+00	 0.00000000E+00	 0.00000000E+00
	 0.00000000E+00	 0.00000000E+00	 0.00000000E+00

	 0.00000000E+00	 0.00000000E+00	 0.00000000E+00
	 0.00000000E+00	 0.00000000E+00	 0.00000000E+00
	 0.00000000E+00	 0.00000000E+00	 0.00000000E+00

	 0.00000000E+00	 0.00000000E+00	 0.00000000E+00
	 0.00000000E+00	 0.00000000E+00	 0.00000000E+00
	 0.00000000E+00	 0.00000000E+00	 0.00000000E+00

	 0.00000000E+00	 0.00000000E+00	 0.00000000E+00
	 0.00000000E+00	 0.00000000E+00	 0.00000000E+00
	 0.00000000E+00	 0.00000000E+00	 0.00000000E+00

	 0.00000000E+00	 0.00000000E+00	 0.00000000E+00
	 0.00000000E+00	 0.00000000E+00	 0.00000000E+00
	 0.00000000E+00	 0.00000000E+00	 0.00000000E+00

	 0.00000000E+00	 0.00000000E+00	 0.00000000E+00
	 0.00000000E+00	 0.00000000E+00	 0.00000000E+00
	 0.00000000E+00	 0.00000000E+00	 0.00000000E+00

	 0.00000000E+00	 0.00000000E+00	 0.00000000E+00
	 0.00000000E+00	 0.00000000E+00	 0.00000000E+00
	 0.00000000E+00	 0.00000000E+00	 0.00000000E+00

	 0.00000000E+00	 0.00000000E+00	 0.00000000E+00
	 0.00000000E+00	 0.00000000E+00	 0.00000000E+00
	 0.00000000E+00	 0.00000000E+00	 0.00000000E+00

	 0.00000000E+00	 0.00000000E+00	 0.00000000E+00
	 0.00000000E+00	 0.00000000E+00	 0.00000000E+00
	 0.00000000E+00	 0.00000000E+00	 0.00000000E+00

	 0.00000000E+00	 0.00000000E+00	 0.00000000E+00
	 0.00000000E+00	 0.00000000E+00	 0.00000000E+00
	 0.00000000E+00	 0.00000000E+00	 0.00000000E+00

	 0.00000000E+00	 0.00000000E+00	 0.00000000E+00
	 0.00000000E+00	 0.00000000E+00	 0.00000000E+00
	 0.00000000E+00	 0.00000000E+00	 0.00000000E+00

	 0.00000000E+00	 0.00000000E+00	 0.00000000E+00
	 0.00000000E+00	 0.00000000E+00	 0.00000000E+00
	 0.00000000E+00	 0.00000000E+00	 0.00000000E+00

	 0.00000000E+00	 0.00000000E+00	 0.00000000E+00
	 0.00000000E+00	 0.00000000E+00	 0.00000000E+00
	 0.00000000E+00	 0.00000000E+00	 0.00000000E+00

	 0.00000000E+00	 0.00000000E+00	 0.00000000E+00
	 0.00000000E+00	 0.00000000E+00	 0.00000000E+00
	 0.00000000E+00	 0.00000000E+00	 0.00000000E+00

	 0.00000000E+00	 0.00000000E+00	 0.00000000E+00
	 0.00000000E+00	 0.00000000E+00	 0.00000000E+00
	 0.00000000E+00	 0.00000000E+00	 0.00000000E+00

	 0.00000000E+00	 0.00000000E+00	 0.00000000E+00
	 0.00000000E+00	 0.00000000E+00	 0.00000000E+00
	 0.00000000E+00	 0.00000000E+00	 0.00000000E+00

	 0.00000000E+00	 0.00000000E+00	 0.00000000E+00
	 0.00000000E+00	 0.00000000E+00	 0.00000000E+00
	 0.00000000E+00	 0.00000000E+00	 0.00000000E+00

	 0.00000000E+00	 0.00000000E+00	 0.00000000E+00
	 0.00000000E+00	 0.00000000E+00	 0.00000000E+00
	 0.00000000E+00	 0.00000000E+00	 0.00000000E+00

	 0.00000000E+00	 0.00000000E+00	 0.00000000E+00
	 0.00000000E+00	 0.00000000E+00	 0.00000000E+00
	 0.00000000E+00	 0.00000000E+00	 0.00000000E+00

	 0.00000000E+00	 0.00000000E+00	 0.00000000E+00
	 0.00000000E+00	 0.00000000E+00	 0.00000000E+00
	 0.00000000E+00	 0.00000000E+00	 0.00000000E+00

	 0.00000000E+00	 0.00000000E+00	 0.00000000E+00
	 0.00000000E+00	 0.00000000E+00	 0.00000000E+00
	 0.00000000E+00	 0.00000000E+00	 0.00000000E+00

	 0.00000000E+00	 0.00000000E+00	 0.00000000E+00
	 0.00000000E+00	 0.00000000E+00	 0.00000000E+00
	 0.00000000E+00	 0.00000000E+00	 0.00000000E+00

	 0.00000000E+00	 0.00000000E+00	 0.00000000E+00
	 0.00000000E+00	 0.00000000E+00	 0.00000000E+00
	 0.00000000E+00	 0.00000000E+00	 0.00000000E+00

	 0.00000000E+00	 0.00000000E+00	 0.00000000E+00
	 0.00000000E+00	 0.00000000E+00	 0.00000000E+00
	 0.00000000E+00	 0.00000000E+00	 0.00000000E+00

	 0.00000000E+00	 0.00000000E+00	 0.00000000E+00
	 0.00000000E+00	 0.00000000E+00	 0.00000000E+00
	 0.00000000E+00	 0.00000000E+00	 0.00000000E+00

	 0.00000000E+00	 0.00000000E+00	 0.00000000E+00
	 0.00000000E+00	 0.00000000E+00	 0.00000000E+00
	 0.00000000E+00	 0.00000000E+00	 0.00000000E+00

	 0.00000000E+00	 0.00000000E+00	 0.00000000E+00
	 0.00000000E+00	 0.00000000E+00	 0.00000000E+00
	 0.00000000E+00	 0.00000000E+00	 0.00000000E+00

	 0.00000000E+00	 0.00000000E+00	 0.00000000E+00
	 0.00000000E+00	 0.00000000E+00	 0.00000000E+00
	 0.00000000E+00	 0.00000000E+00	 0.00000000E+00

	 0.00000000E+00	 0.00000000E+00	 0.00000000E+00
	 0.00000000E+00	 0.00000000E+00	 0.00000000E+00
	 0.00000000E+00	 0.00000000E+00	 0.00000000E+00

	 0.00000000E+00	 0.00000000E+00	 0.00000000E+00
	 0.00000000E+00	 0.00000000E+00	 0.00000000E+00
	 0.00000000E+00	 0.00000000E+00	 0.00000000E+00

	 0.00000000E+00	 0.00000000E+00	 0.00000000E+00
	 0.00000000E+00	 0.00000000E+00	 0.00000000E+00
	 0.00000000E+00	 0.00000000E+00	 0.00000000E+00

	 0.00000000E+00	 0.00000000E+00	 0.00000000E+00
	 0.00000000E+00	 0.00000000E+00	 0.00000000E+00
	 0.00000000E+00	 0.00000000E+00	 0.00000000E+00

	 0.00000000E+00	 0.00000000E+00	 0.00000000E+00
	 0.00000000E+00	 0.00000000E+00	 0.00000000E+00
	 0.00000000E+00	 0.00000000E+00	 0.00000000E+00

	 0.00000000E+00	 0.00000000E+00	 0.00000000E+00
	 0.00000000E+00	 0.00000000E+00	 0.00000000E+00
	 0.00000000E+00	 0.00000000E+00	 0.00000000E+00

	 0.00000000E+00	 0.00000000E+00	 0.00000000E+00
	 0.00000000E+00	 0.00000000E+00	 0.00000000E+00
	 0.00000000E+00	 0.00000000E+00	 0.00000000E+00

	 0.00000000E+00	 0.00000000E+00	 0.00000000E+00
	 0.00000000E+00	 0.00000000E+00	 0.00000000E+00
	 0.00000000E+00	 0.00000000E+00	 0.00000000E+00

	 0.00000000E+00	 0.00000000E+00	 0.00000000E+00
	 0.00000000E+00	 0.00000000E+00	 0.00000000E+00
	 0.00000000E+00	 0.00000000E+00	 0.00000000E+00

	 0.00000000E+00	 0.00000000E+00	 0.00000000E+00
	 0.00000000E+00	 0.00000000E+00	 0.00000000E+00
	 0.00000000E+00	 0.00000000E+00	 0.00000000E+00

	 0.00000000E+00	 0.00000000E+00	 0.00000000E+00
	 0.00000000E+00	 0.00000000E+00	 0.00000000E+00
	 0.00000000E+00	 0.00000000E+00	 0.00000000E+00

	 0.00000000E+00	 0.00000000E+00	 0.00000000E+00
	 0.00000000E+00	 0.00000000E+00	 0.00000000E+00
	 0.00000000E+00	 0.00000000E+00	 0.00000000E+00

	 0.00000000E+00	 0.00000000E+00	 0.00000000E+00
	 0.00000000E+00	 0.00000000E+00	 0.00000000E+00
	 0.00000000E+00	 0.00000000E+00	 0.00000000E+00

	 0.00000000E+00	 0.00000000E+00	 0.00000000E+00
	 0.00000000E+00	 0.00000000E+00	 0.00000000E+00
	 0.00000000E+00	 0.00000000E+00	 0.00000000E+00

	 0.00000000E+00	 0.00000000E+00	 0.00000000E+00
	 0.00000000E+00	 0.00000000E+00	 0.00000000E+00
	 0.00000000E+00	 0.00000000E+00	 0.00000000E+00

	 0.00000000E+00	 0.00000000E+00	 0.00000000E+00
	 0.00000000E+00	 0.00000000E+00	 0.00000000E+00
	 0.00000000E+00	 0.00000000E+00	 0.00000000E+00

	 0.00000000E+00	 0.00000000E+00	 0.00000000E+00
	 0.00000000E+00	 0.00000000E+00	 0.00000000E+00
	 0.00000000E+00	 0.00000000E+00	 0.00000000E+00

	 0.00000000E+00	 0.00000000E+00	 0.00000000E+00
	 0.00000000E+00	 0.00000000E+00	 0.00000000E+00
	 0.00000000E+00	 0.00000000E+00	 0.00000000E+00

	 0.00000000E+00	 0.00000000E+00	 0.00000000E+00
	 0.00000000E+00	 0.00000000E+00	 0.00000000E+00
	 0.00000000E+00	 0.00000000E+00	 0.00000000E+00

	 0.00000000E+00	 0.00000000E+00	 0.00000000E+00
	 0.00000000E+00	 0.00000000E+00	 0.00000000E+00
	 0.00000000E+00	 0.00000000E+00	 0.00000000E+00

	 0.00000000E+00	 0.00000000E+00	 0.00000000E+00
	 0.00000000E+00	 0.00000000E+00	 0.00000000E+00
	 0.00000000E+00	 0.00000000E+00	 0.00000000E+00

	 0.00000000E+00	 0.00000000E+00	 0.00000000E+00
	 0.00000000E+00	 0.00000000E+00	 0.00000000E+00
	 0.00000000E+00	 0.00000000E+00	 0.00000000E+00

	 0.00000000E+00	 0.00000000E+00	 0.00000000E+00
	 0.00000000E+00	 0.00000000E+00	 0.00000000E+00
	 0.00000000E+00	 0.00000000E+00	 0.00000000E+00

	 0.00000000E+00	 0.00000000E+00	 0.00000000E+00
	 0.00000000E+00	 0.00000000E+00	 0.00000000E+00
	 0.00000000E+00	 0.00000000E+00	 0.00000000E+00

	 0.00000000E+00	 0.00000000E+00	 0.00000000E+00
	 0.00000000E+00	 0.00000000E+00	 0.00000000E+00
	 0.00000000E+00	 0.00000000E+00	 0.00000000E+00

	 0.00000000E+00	 0.00000000E+00	 0.00000000E+00
	 0.00000000E+00	 0.00000000E+00	 0.00000000E+00
	 0.00000000E+00	 0.00000000E+00	 0.00000000E+00

	 0.00000000E+00	 0.00000000E+00	 0.00000000E+00
	 0.00000000E+00	 0.00000000E+00	 0.00000000E+00
	 0.00000000E+00	 0.00000000E+00	 0.00000000E+00

	 0.00000000E+00	 0.00000000E+00	 0.00000000E+00
	 0.00000000E+00	 0.00000000E+00	 0.00000000E+00
	 0.00000000E+00	 0.00000000E+00	 0.00000000E+00

	 0.00000000E+00	 0.00000000E+00	 0.00000000E+00
	 0.00000000E+00	 0.00000000E+00	 0.00000000E+00
	 0.00000000E+00	 0.00000000E+00	 0.00000000E+00

	 0.00000000E+00	 0.00000000E+00	 0.00000000E+00
	 0.00000000E+00	 0.00000000E+00	 0.00000000E+00
	 0.00000000E+00	 0.00000000E+00	 0.00000000E+00

	 0.00000000E+00	 0.00000000E+00	 0.00000000E+00
	 0.00000000E+00	 0.00000000E+00	 0.00000000E+00
	 0.00000000E+00	 0.00000000E+00	 0.00000000E+00

	 0.00000000E+00	 0.00000000E+00	 0.00000000E+00
	 0.00000000E+00	 0.00000000E+00	 0.00000000E+00
	 0.00000000E+00	 0.00000000E+00	 0.00000000E+00

	 0.00000000E+00	 0.00000000E+00	 0.00000000E+00
	 0.00000000E+00	 0.00000000E+00	 0.00000000E+00
	 0.00000000E+00	 0.00000000E+00	 0.00000000E+00

	 0.00000000E+00	 0.00000000E+00	 0.00000000E+00
	 0.00000000E+00	 0.00000000E+00	 0.00000000E+00
	 0.00000000E+00	 0.00000000E+00	 0.00000000E+00

	 0.00000000E+00	 0.00000000E+00	 0.00000000E+00
	 0.00000000E+00	 0.00000000E+00	 0.00000000E+00
	 0.00000000E+00	 0.00000000E+00	 0.00000000E+00

	 0.00000000E+00	 0.00000000E+00	 0.00000000E+00
	 0.00000000E+00	 0.00000000E+00	 0.00000000E+00
	 0.00000000E+00	 0.00000000E+00	 0.00000000E+00

	 0.00000000E+00	 0.00000000E+00	 0.00000000E+00
	 0.00000000E+00	 0.00000000E+00	 0.00000000E+00
	 0.00000000E+00	 0.00000000E+00	 0.00000000E+00

	 0.00000000E+00	 0.00000000E+00	 0.00000000E+00
	 0.00000000E+00	 0.00000000E+00	 0.00000000E+00
	 0.00000000E+00	 0.00000000E+00	 0.00000000E+00

	 0.00000000E+00	 0.00000000E+00	 0.00000000E+00
	 0.00000000E+00	 0.00000000E+00	 0.00000000E+00
	 0.00000000E+00	 0.00000000E+00	 0.00000000E+00

	 0.00000000E+00	 0.00000000E+00	 0.00000000E+00
	 0.00000000E+00	 0.00000000E+00	 0.00000000E+00
	 0.00000000E+00	 0.00000000E+00	 0.00000000E+00

	 0.00000000E+00	 0.00000000E+00	 0.00000000E+00
	 0.00000000E+00	 0.00000000E+00	 0.00000000E+00
	 0.00000000E+00	 0.00000000E+00	 0.00000000E+00

	 0.00000000E+00	 0.00000000E+00	 0.00000000E+00
	 0.00000000E+00	 0.00000000E+00	 0.00000000E+00
	 0.00000000E+00	 0.00000000E+00	 0.00000000E+00

	 0.00000000E+00	 0.00000000E+00	 0.00000000E+00
	 0.00000000E+00	 0.00000000E+00	 0.00000000E+00
	 0.00000000E+00	 0.00000000E+00	 0.00000000E+00

	 0.00000000E+00	 0.00000000E+00	 0.00000000E+00
	 0.00000000E+00	 0.00000000E+00	 0.00000000E+00
	 0.00000000E+00	 0.00000000E+00	 0.00000000E+00

	 0.00000000E+00	 0.00000000E+00	 0.00000000E+00
	 0.00000000E+00	 0.00000000E+00	 0.00000000E+00
	 0.00000000E+00	 0.00000000E+00	 0.00000000E+00

	 0.00000000E+00	 0.00000000E+00	 0.00000000E+00
	 0.00000000E+00	 0.00000000E+00	 0.00000000E+00
	 0.00000000E+00	 0.00000000E+00	 0.00000000E+00

	 0.00000000E+00	 0.00000000E+00	 0.00000000E+00
	 0.00000000E+00	 0.00000000E+00	 0.00000000E+00
	 0.00000000E+00	 0.00000000E+00	 0.00000000E+00

	 0.00000000E+00	 0.00000000E+00	 0.00000000E+00
	 0.00000000E+00	 0.00000000E+00	 0.00000000E+00
	 0.00000000E+00	 0.00000000E+00	 0.00000000E+00

	 0.00000000E+00	 0.00000000E+00	 0.00000000E+00
	 0.00000000E+00	 0.00000000E+00	 0.00000000E+00
	 0.00000000E+00	 0.00000000E+00	 0.00000000E+00

	 0.00000000E+00	 0.00000000E+00	 0.00000000E+00
	 0.00000000E+00	 0.00000000E+00	 0.00000000E+00
	 0.00000000E+00	 0.00000000E+00	 0.00000000E+00

	 0.00000000E+00	 0.00000000E+00	 0.00000000E+00
	 0.00000000E+00	 0.00000000E+00	 0.00000000E+00
	 0.00000000E+00	 0.00000000E+00	 0.00000000E+00

	 0.00000000E+00	 0.00000000E+00	 0.00000000E+00
	 0.00000000E+00	 0.00000000E+00	 0.00000000E+00
	 0.00000000E+00	 0.00000000E+00	 0.00000000E+00

	 0.00000000E+00	 0.00000000E+00	 0.00000000E+00
	 0.00000000E+00	 0.00000000E+00	 0.00000000E+00
	 0.00000000E+00	 0.00000000E+00	 0.00000000E+00

	 0.00000000E+00	 0.00000000E+00	 0.00000000E+00
	 0.00000000E+00	 0.00000000E+00	 0.00000000E+00
	 0.00000000E+00	 0.00000000E+00	 0.00000000E+00

	 0.00000000E+00	 0.00000000E+00	 0.00000000E+00
	 0.00000000E+00	 0.00000000E+00	 0.00000000E+00
	 0.00000000E+00	 0.00000000E+00	 0.00000000E+00

	 0.00000000E+00	 0.00000000E+00	 0.00000000E+00
	 0.00000000E+00	 0.00000000E+00	 0.00000000E+00
	 0.00000000E+00	 0.00000000E+00	 0.00000000E+00

	 0.00000000E+00	 0.00000000E+00	 0.00000000E+00
	 0.00000000E+00	 0.00000000E+00	 0.00000000E+00
	 0.00000000E+00	 0.00000000E+00	 0.00000000E+00

	 0.00000000E+00	 0.00000000E+00	 0.00000000E+00
	 0.00000000E+00	 0.00000000E+00	 0.00000000E+00
	 0.00000000E+00	 0.00000000E+00	 0.00000000E+00

	 0.00000000E+00	 0.00000000E+00	 0.00000000E+00
	 0.00000000E+00	 0.00000000E+00	 0.00000000E+00
	 0.00000000E+00	 0.00000000E+00	 0.00000000E+00

	 0.00000000E+00	 0.00000000E+00	 0.00000000E+00
	 0.00000000E+00	 0.00000000E+00	 0.00000000E+00
	 0.00000000E+00	 0.00000000E+00	 0.00000000E+00

	 0.00000000E+00	 0.00000000E+00	 0.00000000E+00
	 0.00000000E+00	 0.00000000E+00	 0.00000000E+00
	 0.00000000E+00	 0.00000000E+00	 0.00000000E+00

	 0.00000000E+00	 0.00000000E+00	 0.00000000E+00
	 0.00000000E+00	 0.00000000E+00	 0.00000000E+00
	 0.00000000E+00	 0.00000000E+00	 0.00000000E+00

	 0.00000000E+00	 0.00000000E+00	 0.00000000E+00
	 0.00000000E+00	 0.00000000E+00	 0.00000000E+00
	 0.00000000E+00	 0.00000000E+00	 0.00000000E+00

	 0.00000000E+00	 0.00000000E+00	 0.00000000E+00
	 0.00000000E+00	 0.00000000E+00	 0.00000000E+00
	 0.00000000E+00	 0.00000000E+00	 0.00000000E+00

	 0.00000000E+00	 0.00000000E+00	 0.00000000E+00
	 0.00000000E+00	 0.00000000E+00	 0.00000000E+00
	 0.00000000E+00	 0.00000000E+00	 0.00000000E+00

	 0.00000000E+00	 0.00000000E+00	 0.00000000E+00
	 0.00000000E+00	 0.00000000E+00	 0.00000000E+00
	 0.00000000E+00	 0.00000000E+00	 0.00000000E+00

	 0.00000000E+00	 0.00000000E+00	 0.00000000E+00
	 0.00000000E+00	 0.00000000E+00	 0.00000000E+00
	 0.00000000E+00	 0.00000000E+00	 0.00000000E+00

	 0.00000000E+00	 0.00000000E+00	 0.00000000E+00
	 0.00000000E+00	 0.00000000E+00	 0.00000000E+00
	 0.00000000E+00	 0.00000000E+00	 0.00000000E+00

	 0.00000000E+00	 0.00000000E+00	 0.00000000E+00
	 0.00000000E+00	 0.00000000E+00	 0.00000000E+00
	 0.00000000E+00	 0.00000000E+00	 0.00000000E+00

	 0.00000000E+00	 0.00000000E+00	 0.00000000E+00
	 0.00000000E+00	 0.00000000E+00	 0.00000000E+00
	 0.00000000E+00	 0.00000000E+00	 0.00000000E+00

	 0.00000000E+00	 0.00000000E+00	 0.00000000E+00
	 0.00000000E+00	 0.00000000E+00	 0.00000000E+00
	 0.00000000E+00	 0.00000000E+00	 0.00000000E+00

	 0.00000000E+00	 0.00000000E+00	 0.00000000E+00
	 0.00000000E+00	 0.00000000E+00	 0.00000000E+00
	 0.00000000E+00	 0.00000000E+00	 0.00000000E+00

	 0.00000000E+00	 0.00000000E+00	 0.00000000E+00
	 0.00000000E+00	 0.00000000E+00	 0.00000000E+00
	 0.00000000E+00	 0.00000000E+00	 0.00000000E+00

	 0.00000000E+00	 0.00000000E+00	 0.00000000E+00
	 0.00000000E+00	 0.00000000E+00	 0.00000000E+00
	 0.00000000E+00	 0.00000000E+00	 0.00000000E+00

	 0.00000000E+00	 0.00000000E+00	 0.00000000E+00
	 0.00000000E+00	 0.00000000E+00	 0.00000000E+00
	 0.00000000E+00	 0.00000000E+00	 0.00000000E+00

	 0.00000000E+00	 0.00000000E+00	 0.00000000E+00
	 0.00000000E+00	 0.00000000E+00	 0.00000000E+00
	 0.00000000E+00	 0.00000000E+00	 0.00000000E+00

	 0.00000000E+00	 0.00000000E+00	 0.00000000E+00
	 0.00000000E+00	 0.00000000E+00	 0.00000000E+00
	 0.00000000E+00	 0.00000000E+00	 0.00000000E+00

	 0.00000000E+00	 0.00000000E+00	 0.00000000E+00
	 0.00000000E+00	 0.00000000E+00	 0.00000000E+00
	 0.00000000E+00	 0.00000000E+00	 0.00000000E+00

	 0.00000000E+00	 0.00000000E+00	 0.00000000E+00
	 0.00000000E+00	 0.00000000E+00	 0.00000000E+00
	 0.00000000E+00	 0.00000000E+00	 0.00000000E+00

	 0.00000000E+00	 0.00000000E+00	 0.00000000E+00
	 0.00000000E+00	 0.00000000E+00	 0.00000000E+00
	 0.00000000E+00	 0.00000000E+00	 0.00000000E+00

	 0.00000000E+00	 0.00000000E+00	 0.00000000E+00
	 0.00000000E+00	 0.00000000E+00	 0.00000000E+00
	 0.00000000E+00	 0.00000000E+00	 0.00000000E+00

	 0.00000000E+00	 0.00000000E+00	 0.00000000E+00
	 0.00000000E+00	 0.00000000E+00	 0.00000000E+00
	 0.00000000E+00	 0.00000000E+00	 0.00000000E+00

	 0.00000000E+00	 0.00000000E+00	 0.00000000E+00
	 0.00000000E+00	 0.00000000E+00	 0.00000000E+00
	 0.00000000E+00	 0.00000000E+00	 0.00000000E+00

	 0.00000000E+00	 0.00000000E+00	 0.00000000E+00
	 0.00000000E+00	 0.00000000E+00	 0.00000000E+00
	 0.00000000E+00	 0.00000000E+00	 0.00000000E+00

	 0.00000000E+00	 0.00000000E+00	 0.00000000E+00
	 0.00000000E+00	 0.00000000E+00	 0.00000000E+00
	 0.00000000E+00	 0.00000000E+00	 0.00000000E+00

	 0.00000000E+00	 0.00000000E+00	 0.00000000E+00
	 0.00000000E+00	 0.00000000E+00	 0.00000000E+00
	 0.00000000E+00	 0.00000000E+00	 0.00000000E+00

	 0.00000000E+00	 0.00000000E+00	 0.00000000E+00
	 0.00000000E+00	 0.00000000E+00	 0.00000000E+00
	 0.00000000E+00	 0.00000000E+00	 0.00000000E+00

	 0.00000000E+00	 0.00000000E+00	 0.00000000E+00
	 0.00000000E+00	 0.00000000E+00	 0.00000000E+00
	 0.00000000E+00	 0.00000000E+00	 0.00000000E+00

	 0.00000000E+00	 0.00000000E+00	 0.00000000E+00
	 0.00000000E+00	 0.00000000E+00	 0.00000000E+00
	 0.00000000E+00	 0.00000000E+00	 0.00000000E+00

	 0.00000000E+00	 0.00000000E+00	 0.00000000E+00
	 0.00000000E+00	 0.00000000E+00	 0.00000000E+00
	 0.00000000E+00	 0.00000000E+00	 0.00000000E+00

	 0.00000000E+00	 0.00000000E+00	 0.00000000E+00
	 0.00000000E+00	 0.00000000E+00	 0.00000000E+00
	 0.00000000E+00	 0.00000000E+00	 0.00000000E+00

	 0.00000000E+00	 0.00000000E+00	 0.00000000E+00
	 0.00000000E+00	 0.00000000E+00	 0.00000000E+00
	 0.00000000E+00	 0.00000000E+00	 0.00000000E+00

	 0.00000000E+00	 0.00000000E+00	 0.00000000E+00
	 0.00000000E+00	 0.00000000E+00	 0.00000000E+00
	 0.00000000E+00	 0.00000000E+00	 0.00000000E+00

	 0.00000000E+00	 0.00000000E+00	 0.00000000E+00
	 0.00000000E+00	 0.00000000E+00	 0.00000000E+00
	 0.00000000E+00	 0.00000000E+00	 0.00000000E+00

	 0.00000000E+00	 0.00000000E+00	 0.00000000E+00
	 0.00000000E+00	 0.00000000E+00	 0.00000000E+00
	 0.00000000E+00	 0.00000000E+00	 0.00000000E+00

	 0.00000000E+00	 0.00000000E+00	 0.00000000E+00
	 0.00000000E+00	 0.00000000E+00	 0.00000000E+00
	 0.00000000E+00	 0.00000000E+00	 0.00000000E+00

	 0.00000000E+00	 0.00000000E+00	 0.00000000E+00
	 0.00000000E+00	 0.00000000E+00	 0.00000000E+00
	 0.00000000E+00	 0.00000000E+00	 0.00000000E+00

	 0.00000000E+00	 0.00000000E+00	 0.00000000E+00
	 0.00000000E+00	 0.00000000E+00	 0.00000000E+00
	 0.00000000E+00	 0.00000000E+00	 0.00000000E+00

	 0.00000000E+00	 0.00000000E+00	 0.00000000E+00
	 0.00000000E+00	 0.00000000E+00	 0.00000000E+00
	 0.00000000E+00	 0.00000000E+00	 0.00000000E+00

	 0.00000000E+00	 0.00000000E+00	 0.00000000E+00
	 0.00000000E+00	 0.00000000E+00	 0.00000000E+00
	 0.00000000E+00	 0.00000000E+00	 0.00000000E+00

	 0.00000000E+00	 0.00000000E+00	 0.00000000E+00
	 0.00000000E+00	 0.00000000E+00	 0.00000000E+00
	 0.00000000E+00	 0.00000000E+00	 0.00000000E+00

	 0.00000000E+00	 0.00000000E+00	 0.00000000E+00
	 0.00000000E+00	 0.00000000E+00	 0.00000000E+00
	 0.00000000E+00	 0.00000000E+00	 0.00000000E+00

	 0.00000000E+00	 0.00000000E+00	 0.00000000E+00
	 0.00000000E+00	 0.00000000E+00	 0.00000000E+00
	 0.00000000E+00	 0.00000000E+00	 0.00000000E+00

	 0.00000000E+00	 0.00000000E+00	 0.00000000E+00
	 0.00000000E+00	 0.00000000E+00	 0.00000000E+00
	 0.00000000E+00	 0.00000000E+00	 0.00000000E+00

	 0.00000000E+00	 0.00000000E+00	 0.00000000E+00
	 0.00000000E+00	 0.00000000E+00	 0.00000000E+00
	 0.00000000E+00	 0.00000000E+00	 0.00000000E+00

	 0.00000000E+00	 0.00000000E+00	 0.00000000E+00
	 0.00000000E+00	 0.00000000E+00	 0.00000000E+00
	 0.00000000E+00	 0.00000000E+00	 0.00000000E+00

	 0.00000000E+00	 0.00000000E+00	 0.00000000E+00
	 0.00000000E+00	 0.00000000E+00	 0.00000000E+00
	 0.00000000E+00	 0.00000000E+00	 0.00000000E+00

	 0.00000000E+00	 0.00000000E+00	 0.00000000E+00
	 0.00000000E+00	 0.00000000E+00	 0.00000000E+00
	 0.00000000E+00	 0.00000000E+00	 0.00000000E+00

	 0.00000000E+00	 0.00000000E+00	 0.00000000E+00
	 0.00000000E+00	 0.00000000E+00	 0.00000000E+00
	 0.00000000E+00	 0.00000000E+00	 0.00000000E+00

	 0.00000000E+00	 0.00000000E+00	 0.00000000E+00
	 0.00000000E+00	 0.00000000E+00	 0.00000000E+00
	 0.00000000E+00	 0.00000000E+00	 0.00000000E+00

	 0.00000000E+00	 0.00000000E+00	 0.00000000E+00
	 0.00000000E+00	 0.00000000E+00	 0.00000000E+00
	 0.00000000E+00	 0.00000000E+00	 0.00000000E+00

	 0.00000000E+00	 0.00000000E+00	 0.00000000E+00
	 0.00000000E+00	 0.00000000E+00	 0.00000000E+00
	 0.00000000E+00	 0.00000000E+00	 0.00000000E+00

	 0.00000000E+00	 0.00000000E+00	 0.00000000E+00
	 0.00000000E+00	 0.00000000E+00	 0.00000000E+00
	 0.00000000E+00	 0.00000000E+00	 0.00000000E+00

	 0.00000000E+00	 0.00000000E+00	 0.00000000E+00
	 0.00000000E+00	 0.00000000E+00	 0.00000000E+00
	 0.00000000E+00	 0.00000000E+00	 0.00000000E+00

	 0.00000000E+00	 0.00000000E+00	 0.00000000E+00
	 0.00000000E+00	 0.00000000E+00	 0.00000000E+00
	 0.00000000E+00	 0.00000000E+00	 0.00000000E+00

	 0.00000000E+00	 0.00000000E+00	 0.00000000E+00
	 0.00000000E+00	 0.00000000E+00	 0.00000000E+00
	 0.00000000E+00	 0.00000000E+00	 0.00000000E+00

	 0.00000000E+00	 0.00000000E+00	 0.00000000E+00
	 0.00000000E+00	 0.00000000E+00	 0.00000000E+00
	 0.00000000E+00	 0.00000000E+00	 0.00000000E+00

	 0.00000000E+00	 0.00000000E+00	 0.00000000E+00
	 0.00000000E+00	 0.00000000E+00	 0.00000000E+00
	 0.00000000E+00	 0.00000000E+00	 0.00000000E+00

	 0.00000000E+00	 0.00000000E+00	 0.00000000E+00
	 0.00000000E+00	 0.00000000E+00	 0.00000000E+00
	 0.00000000E+00	 0.00000000E+00	 0.00000000E+00

	 0.00000000E+00	 0.00000000E+00	 0.00000000E+00
	 0.00000000E+00	 0.00000000E+00	 0.00000000E+00
	 0.00000000E+00	 0.00000000E+00	 0.00000000E+00

	 0.00000000E+00	 0.00000000E+00	 0.00000000E+00
	 0.00000000E+00	 0.00000000E+00	 0.00000000E+00
	 0.00000000E+00	 0.00000000E+00	 0.00000000E+00

	 0.00000000E+00	 0.00000000E+00	 0.00000000E+00
	 0.00000000E+00	 0.00000000E+00	 0.00000000E+00
	 0.00000000E+00	 0.00000000E+00	 0.00000000E+00

	 0.00000000E+00	 0.00000000E+00	 0.00000000E+00
	 0.00000000E+00	 0.00000000E+00	 0.00000000E+00
	 0.00000000E+00	 0.00000000E+00	 0.00000000E+00

	 0.00000000E+00	 0.00000000E+00	 0.00000000E+00
	 0.00000000E+00	 0.00000000E+00	 0.00000000E+00
	 0.00000000E+00	 0.00000000E+00	 0.00000000E+00

	 0.00000000E+00	 0.00000000E+00	 0.00000000E+00
	 0.00000000E+00	 0.00000000E+00	 0.00000000E+00
	 0.00000000E+00	 0.00000000E+00	 0.00000000E+00

	 0.00000000E+00	 0.00000000E+00	 0.00000000E+00
	 0.00000000E+00	 0.00000000E+00	 0.00000000E+00
	 0.00000000E+00	 0.00000000E+00	 0.00000000E+00

	 0.00000000E+00	 0.00000000E+00	 0.00000000E+00
	 0.00000000E+00	 0.00000000E+00	 0.00000000E+00
	 0.00000000E+00	 0.00000000E+00	 0.00000000E+00

	 0.00000000E+00	 0.00000000E+00	 0.00000000E+00
	 0.00000000E+00	 0.00000000E+00	 0.00000000E+00
	 0.00000000E+00	 0.00000000E+00	 0.00000000E+00

	 0.00000000E+00	 0.00000000E+00	 0.00000000E+00
	 0.00000000E+00	 0.00000000E+00	 0.00000000E+00
	 0.00000000E+00	 0.00000000E+00	 0.00000000E+00

	 0.00000000E+00	 0.00000000E+00	 0.00000000E+00
	 0.00000000E+00	 0.00000000E+00	 0.00000000E+00
	 0.00000000E+00	 0.00000000E+00	 0.00000000E+00

	 0.00000000E+00	 0.00000000E+00	 0.00000000E+00
	 0.00000000E+00	 0.00000000E+00	 0.00000000E+00
	 0.00000000E+00	 0.00000000E+00	 0.00000000E+00

	 0.00000000E+00	 0.00000000E+00	 0.00000000E+00
	 0.00000000E+00	 0.00000000E+00	 0.00000000E+00
	 0.00000000E+00	 0.00000000E+00	 0.00000000E+00

	 0.00000000E+00	 0.00000000E+00	 0.00000000E+00
	 0.00000000E+00	 0.00000000E+00	 0.00000000E+00
	 0.00000000E+00	 0.00000000E+00	 0.00000000E+00

	 0.00000000E+00	 0.00000000E+00	 0.00000000E+00
	 0.00000000E+00	 0.00000000E+00	 0.00000000E+00
	 0.00000000E+00	 0.00000000E+00	 0.00000000E+00

	 0.00000000E+00	 0.00000000E+00	 0.00000000E+00
	 0.00000000E+00	 0.00000000E+00	 0.00000000E+00
	 0.00000000E+00	 0.00000000E+00	 0.00000000E+00

	 0.00000000E+00	 0.00000000E+00	 0.00000000E+00
	 0.00000000E+00	 0.00000000E+00	 0.00000000E+00
	 0.00000000E+00	 0.00000000E+00	 0.00000000E+00

	 0.00000000E+00	 0.00000000E+00	 0.00000000E+00
	 0.00000000E+00	 0.00000000E+00	 0.00000000E+00
	 0.00000000E+00	 0.00000000E+00	 0.00000000E+00

	 0.00000000E+00	 0.00000000E+00	 0.00000000E+00
	 0.00000000E+00	 0.00000000E+00	 0.00000000E+00
	 0.00000000E+00	 0.00000000E+00	 0.00000000E+00

	 0.00000000E+00	 0.00000000E+00	 0.00000000E+00
	 0.00000000E+00	 0.00000000E+00	 0.00000000E+00
	 0.00000000E+00	 0.00000000E+00	 0.00000000E+00

	 0.00000000E+00	 0.00000000E+00	 0.00000000E+00
	 0.00000000E+00	 0.00000000E+00	 0.00000000E+00
	 0.00000000E+00	 0.00000000E+00	 0.00000000E+00

	 0.00000000E+00	 0.00000000E+00	 0.00000000E+00
	 0.00000000E+00	 0.00000000E+00	 0.00000000E+00
	 0.00000000E+00	 0.00000000E+00	 0.00000000E+00

	 0.00000000E+00	 0.00000000E+00	 0.00000000E+00
	 0.00000000E+00	 0.00000000E+00	 0.00000000E+00
	 0.00000000E+00	 0.00000000E+00	 0.00000000E+00

	 0.00000000E+00	 0.00000000E+00	 0.00000000E+00
	 0.00000000E+00	 0.00000000E+00	 0.00000000E+00
	 0.00000000E+00	 0.00000000E+00	 0.00000000E+00

	 0.00000000E+00	 0.00000000E+00	 0.00000000E+00
	 0.00000000E+00	 0.00000000E+00	 0.00000000E+00
	 0.00000000E+00	 0.00000000E+00	 0.00000000E+00

	 0.00000000E+00	 0.00000000E+00	 0.00000000E+00
	 0.00000000E+00	 0.00000000E+00	 0.00000000E+00
	 0.00000000E+00	 0.00000000E+00	 0.00000000E+00

	 0.00000000E+00	 0.00000000E+00	 0.00000000E+00
	 0.00000000E+00	 0.00000000E+00	 0.00000000E+00
	 0.00000000E+00	 0.00000000E+00	 0.00000000E+00

	 0.00000000E+00	 0.00000000E+00	 0.00000000E+00
	 0.00000000E+00	 0.00000000E+00	 0.00000000E+00
	 0.00000000E+00	 0.00000000E+00	 0.00000000E+00

	 0.00000000E+00	 0.00000000E+00	 0.00000000E+00
	 0.00000000E+00	 0.00000000E+00	 0.00000000E+00
	 0.00000000E+00	 0.00000000E+00	 0.00000000E+00

	 0.00000000E+00	 0.00000000E+00	 0.00000000E+00
	 0.00000000E+00	 0.00000000E+00	 0.00000000E+00
	 0.00000000E+00	 0.00000000E+00	 0.00000000E+00

	 0.00000000E+00	 0.00000000E+00	 0.00000000E+00
	 0.00000000E+00	 0.00000000E+00	 0.00000000E+00
	 0.00000000E+00	 0.00000000E+00	 0.00000000E+00

	 0.00000000E+00	 0.00000000E+00	 0.00000000E+00
	 0.00000000E+00	 0.00000000E+00	 0.00000000E+00
	 0.00000000E+00	 0.00000000E+00	 0.00000000E+00

	 0.00000000E+00	 0.00000000E+00	 0.00000000E+00
	 0.00000000E+00	 0.00000000E+00	 0.00000000E+00
	 0.00000000E+00	 0.00000000E+00	 0.00000000E+00

	 0.00000000E+00	 0.00000000E+00	 0.00000000E+00
	 0.00000000E+00	 0.00000000E+00	 0.00000000E+00
	 0.00000000E+00	 0.00000000E+00	 0.00000000E+00

	 0.00000000E+00	 0.00000000E+00	 0.00000000E+00
	 0.00000000E+00	 0.00000000E+00	 0.00000000E+00
	 0.00000000E+00	 0.00000000E+00	 0.00000000E+00

	 0.00000000E+00	 0.00000000E+00	 0.00000000E+00
	 0.00000000E+00	 0.00000000E+00	 0.00000000E+00
	 0.00000000E+00	 0.00000000E+00	 0.00000000E+00

	 0.00000000E+00	 0.00000000E+00	 0.00000000E+00
	 0.00000000E+00	 0.00000000E+00	 0.00000000E+00
	 0.00000000E+00	 0.00000000E+00	 0.00000000E+00

	 0.00000000E+00	 0.00000000E+00	 0.00000000E+00
	 0.00000000E+00	 0.00000000E+00	 0.00000000E+00
	 0.00000000E+00	 0.00000000E+00	 0.00000000E+00

	 0.00000000E+00	 0.00000000E+00	 0.00000000E+00
	 0.00000000E+00	 0.00000000E+00	 0.00000000E+00
	 0.00000000E+00	 0.00000000E+00	 0.00000000E+00

	 0.00000000E+00	 0.00000000E+00	 0.00000000E+00
	 0.00000000E+00	 0.00000000E+00	 0.00000000E+00
	 0.00000000E+00	 0.00000000E+00	 0.00000000E+00

	 0.00000000E+00	 0.00000000E+00	 0.00000000E+00
	 0.00000000E+00	 0.00000000E+00	 0.00000000E+00
	 0.00000000E+00	 0.00000000E+00	 0.00000000E+00

	 0.00000000E+00	 0.00000000E+00	 0.00000000E+00
	 0.00000000E+00	 0.00000000E+00	 0.00000000E+00
	 0.00000000E+00	 0.00000000E+00	 0.00000000E+00

	 0.00000000E+00	 0.00000000E+00	 0.00000000E+00
	 0.00000000E+00	 0.00000000E+00	 0.00000000E+00
	 0.00000000E+00	 0.00000000E+00	 0.00000000E+00

	 0.00000000E+00	 0.00000000E+00	 0.00000000E+00
	 0.00000000E+00	 0.00000000E+00	 0.00000000E+00
	 0.00000000E+00	 0.00000000E+00	 0.00000000E+00

	 0.00000000E+00	 0.00000000E+00	 0.00000000E+00
	 0.00000000E+00	 0.00000000E+00	 0.00000000E+00
	 0.00000000E+00	 0.00000000E+00	 0.00000000E+00

	 0.00000000E+00	 0.00000000E+00	 0.00000000E+00
	 0.00000000E+00	 0.00000000E+00	 0.00000000E+00
	 0.00000000E+00	 0.00000000E+00	 0.00000000E+00

	 0.00000000E+00	 0.00000000E+00	 0.00000000E+00
	 0.00000000E+00	 0.00000000E+00	 0.00000000E+00
	 0.00000000E+00	 0.00000000E+00	 0.00000000E+00

	 0.00000000E+00	 0.00000000E+00	 0.00000000E+00
	 0.00000000E+00	 0.00000000E+00	 0.00000000E+00
	 0.00000000E+00	 0.00000000E+00	 0.00000000E+00

	 0.00000000E+00	 0.00000000E+00	 0.00000000E+00
	 0.00000000E+00	 0.00000000E+00	 0.00000000E+00
	 0.00000000E+00	 0.00000000E+00	 0.00000000E+00

	 0.00000000E+00	 0.00000000E+00	 0.00000000E+00
	 0.00000000E+00	 0.00000000E+00	 0.00000000E+00
	 0.00000000E+00	 0.00000000E+00	 0.00000000E+00

	 0.00000000E+00	 0.00000000E+00	 0.00000000E+00
	 0.00000000E+00	 0.00000000E+00	 0.00000000E+00
	 0.00000000E+00	 0.00000000E+00	 0.00000000E+00

	 0.00000000E+00	 0.00000000E+00	 0.00000000E+00
	 0.00000000E+00	 0.00000000E+00	 0.00000000E+00
	 0.00000000E+00	 0.00000000E+00	 0.00000000E+00

	 0.00000000E+00	 0.00000000E+00	 0.00000000E+00
	 0.00000000E+00	 0.00000000E+00	 0.00000000E+00
	 0.00000000E+00	 0.00000000E+00	 0.00000000E+00

	 0.00000000E+00	 0.00000000E+00	 0.00000000E+00
	 0.00000000E+00	 0.00000000E+00	 0.00000000E+00
	 0.00000000E+00	 0.00000000E+00	 0.00000000E+00

	 0.00000000E+00	 0.00000000E+00	 0.00000000E+00
	 0.00000000E+00	 0.00000000E+00	 0.00000000E+00
	 0.00000000E+00	 0.00000000E+00	 0.00000000E+00

	 0.00000000E+00	 0.00000000E+00	 0.00000000E+00
	 0.00000000E+00	 0.00000000E+00	 0.00000000E+00
	 0.00000000E+00	 0.00000000E+00	 0.00000000E+00

	 0.00000000E+00	 0.00000000E+00	 0.00000000E+00
	 0.00000000E+00	 0.00000000E+00	 0.00000000E+00
	 0.00000000E+00	 0.00000000E+00	 0.00000000E+00

	 0.00000000E+00	 0.00000000E+00	 0.00000000E+00
	 0.00000000E+00	 0.00000000E+00	 0.00000000E+00
	 0.00000000E+00	 0.00000000E+00	 0.00000000E+00

	 0.00000000E+00	 0.00000000E+00	 0.00000000E+00
	 0.00000000E+00	 0.00000000E+00	 0.00000000E+00
	 0.00000000E+00	 0.00000000E+00	 0.00000000E+00

	 0.00000000E+00	 0.00000000E+00	 0.00000000E+00
	 0.00000000E+00	 0.00000000E+00	 0.00000000E+00
	 0.00000000E+00	 0.00000000E+00	 0.00000000E+00

	 0.00000000E+00	 0.00000000E+00	 0.00000000E+00
	 0.00000000E+00	 0.00000000E+00	 0.00000000E+00
	 0.00000000E+00	 0.00000000E+00	 0.00000000E+00

	 0.00000000E+00	 0.00000000E+00	 0.00000000E+00
	 0.00000000E+00	 0.00000000E+00	 0.00000000E+00
	 0.00000000E+00	 0.00000000E+00	 0.00000000E+00

	 0.00000000E+00	 0.00000000E+00	 0.00000000E+00
	 0.00000000E+00	 0.00000000E+00	 0.00000000E+00
	 0.00000000E+00	 0.00000000E+00	 0.00000000E+00

	 0.00000000E+00	 0.00000000E+00	 0.00000000E+00
	 0.00000000E+00	 0.00000000E+00	 0.00000000E+00
	 0.00000000E+00	 0.00000000E+00	 0.00000000E+00

	 0.00000000E+00	 0.00000000E+00	 0.00000000E+00
	 0.00000000E+00	 0.00000000E+00	 0.00000000E+00
	 0.00000000E+00	 0.00000000E+00	 0.00000000E+00

	 0.00000000E+00	 0.00000000E+00	 0.00000000E+00
	 0.00000000E+00	 0.00000000E+00	 0.00000000E+00
	 0.00000000E+00	 0.00000000E+00	 0.00000000E+00

	 0.00000000E+00	 0.00000000E+00	 0.00000000E+00
	 0.00000000E+00	 0.00000000E+00	 0.00000000E+00
	 0.00000000E+00	 0.00000000E+00	 0.00000000E+00

	 0.00000000E+00	 0.00000000E+00	 0.00000000E+00
	 0.00000000E+00	 0.00000000E+00	 0.00000000E+00
	 0.00000000E+00	 0.00000000E+00	 0.00000000E+00

	 0.00000000E+00	 0.00000000E+00	 0.00000000E+00
	 0.00000000E+00	 0.00000000E+00	 0.00000000E+00
	 0.00000000E+00	 0.00000000E+00	 0.00000000E+00

	 0.00000000E+00	 0.00000000E+00	 0.00000000E+00
	 0.00000000E+00	 0.00000000E+00	 0.00000000E+00
	 0.00000000E+00	 0.00000000E+00	 0.00000000E+00

	 0.00000000E+00	 0.00000000E+00	 0.00000000E+00
	 0.00000000E+00	 0.00000000E+00	 0.00000000E+00
	 0.00000000E+00	 0.00000000E+00	 0.00000000E+00

	 0.00000000E+00	 0.00000000E+00	 0.00000000E+00
	 0.00000000E+00	 0.00000000E+00	 0.00000000E+00
	 0.00000000E+00	 0.00000000E+00	 0.00000000E+00

	 0.00000000E+00	 0.00000000E+00	 0.00000000E+00
	 0.00000000E+00	 0.00000000E+00	 0.00000000E+00
	 0.00000000E+00	 0.00000000E+00	 0.00000000E+00

	 0.00000000E+00	 0.00000000E+00	 0.00000000E+00
	 0.00000000E+00	 0.00000000E+00	 0.00000000E+00
	 0.00000000E+00	 0.00000000E+00	 0.00000000E+00

	 0.00000000E+00	 0.00000000E+00	 0.00000000E+00
	 0.00000000E+00	 0.00000000E+00	 0.00000000E+00
	 0.00000000E+00	 0.00000000E+00	 0.00000000E+00

	 0.00000000E+00	 0.00000000E+00	 0.00000000E+00
	 0.00000000E+00	 0.00000000E+00	 0.00000000E+00
	 0.00000000E+00	 0.00000000E+00	 0.00000000E+00

	 0.00000000E+00	 0.00000000E+00	 0.00000000E+00
	 0.00000000E+00	 0.00000000E+00	 0.00000000E+00
	 0.00000000E+00	 0.00000000E+00	 0.00000000E+00

	 0.00000000E+00	 0.00000000E+00	 0.00000000E+00
	 0.00000000E+00	 0.00000000E+00	 0.00000000E+00
	 0.00000000E+00	 0.00000000E+00	 0.00000000E+00

	 0.00000000E+00	 0.00000000E+00	 0.00000000E+00
	 0.00000000E+00	 0.00000000E+00	 0.00000000E+00
	 0.00000000E+00	 0.00000000E+00	 0.00000000E+00

	 0.00000000E+00	 0.00000000E+00	 0.00000000E+00
	 0.00000000E+00	 0.00000000E+00	 0.00000000E+00
	 0.00000000E+00	 0.00000000E+00	 0.00000000E+00

	 0.00000000E+00	 0.00000000E+00	 0.00000000E+00
	 0.00000000E+00	 0.00000000E+00	 0.00000000E+00
	 0.00000000E+00	 0.00000000E+00	 0.00000000E+00

	 0.00000000E+00	 0.00000000E+00	 0.00000000E+00
	 0.00000000E+00	 0.00000000E+00	 0.00000000E+00
	 0.00000000E+00	 0.00000000E+00	 0.00000000E+00

	 0.00000000E+00	 0.00000000E+00	 0.00000000E+00
	 0.00000000E+00	 0.00000000E+00	 0.00000000E+00
	 0.00000000E+00	 0.00000000E+00	 0.00000000E+00

	 0.00000000E+00	 0.00000000E+00	 0.00000000E+00
	 0.00000000E+00	 0.00000000E+00	 0.00000000E+00
	 0.00000000E+00	 0.00000000E+00	 0.00000000E+00

	 0.00000000E+00	 0.00000000E+00	 0.00000000E+00
	 0.00000000E+00	 0.00000000E+00	 0.00000000E+00
	 0.00000000E+00	 0.00000000E+00	 0.00000000E+00

	 0.00000000E+00	 0.00000000E+00	 0.00000000E+00
	 0.00000000E+00	 0.00000000E+00	 0.00000000E+00
	 0.00000000E+00	 0.00000000E+00	 0.00000000E+00

	 0.00000000E+00	 0.00000000E+00	 0.00000000E+00
	 0.00000000E+00	 0.00000000E+00	 0.00000000E+00
	 0.00000000E+00	 0.00000000E+00	 0.00000000E+00

	 0.00000000E+00	 0.00000000E+00	 0.00000000E+00
	 0.00000000E+00	 0.00000000E+00	 0.00000000E+00
	 0.00000000E+00	 0.00000000E+00	 0.00000000E+00

	 0.00000000E+00	 0.00000000E+00	 0.00000000E+00
	 0.00000000E+00	 0.00000000E+00	 0.00000000E+00
	 0.00000000E+00	 0.00000000E+00	 0.00000000E+00

	 0.00000000E+00	 0.00000000E+00	 0.00000000E+00
	 0.00000000E+00	 0.00000000E+00	 0.00000000E+00
	 0.00000000E+00	 0.00000000E+00	 0.00000000E+00

	 0.00000000E+00	 0.00000000E+00	 0.00000000E+00
	 0.00000000E+00	 0.00000000E+00	 0.00000000E+00
	 0.00000000E+00	 0.00000000E+00	 0.00000000E+00

	 0.00000000E+00	 0.00000000E+00	 0.00000000E+00
	 0.00000000E+00	 0.00000000E+00	 0.00000000E+00
	 0.00000000E+00	 0.00000000E+00	 0.00000000E+00

	 0.00000000E+00	 0.00000000E+00	 0.00000000E+00
	 0.00000000E+00	 0.00000000E+00	 0.00000000E+00
	 0.00000000E+00	 0.00000000E+00	 0.00000000E+00

	 0.00000000E+00	 0.00000000E+00	 0.00000000E+00
	 0.00000000E+00	 0.00000000E+00	 0.00000000E+00
	 0.00000000E+00	 0.00000000E+00	 0.00000000E+00

	 0.00000000E+00	 0.00000000E+00	 0.00000000E+00
	 0.00000000E+00	 0.00000000E+00	 0.00000000E+00
	 0.00000000E+00	 0.00000000E+00	 0.00000000E+00

	 0.00000000E+00	 0.00000000E+00	 0.00000000E+00
	 0.00000000E+00	 0.00000000E+00	 0.00000000E+00
	 0.00000000E+00	 0.00000000E+00	 0.00000000E+00

	 0.00000000E+00	 0.00000000E+00	 0.00000000E+00
	 0.00000000E+00	 0.00000000E+00	 0.00000000E+00
	 0.00000000E+00	 0.00000000E+00	 0.00000000E+00

	 0.00000000E+00	 0.00000000E+00	 0.00000000E+00
	 0.00000000E+00	 0.00000000E+00	 0.00000000E+00
	 0.00000000E+00	 0.00000000E+00	 0.00000000E+00

	 0.00000000E+00	 0.00000000E+00	 0.00000000E+00
	 0.00000000E+00	 0.00000000E+00	 0.00000000E+00
	 0.00000000E+00	 0.00000000E+00	 0.00000000E+00

	 0.00000000E+00	 0.00000000E+00	 0.00000000E+00
	 0.00000000E+00	 0.00000000E+00	 0.00000000E+00
	 0.00000000E+00	 0.00000000E+00	 0.00000000E+00

	 0.00000000E+00	 0.00000000E+00	 0.00000000E+00
	 0.00000000E+00	 0.00000000E+00	 0.00000000E+00
	 0.00000000E+00	 0.00000000E+00	 0.00000000E+00

	 0.00000000E+00	 0.00000000E+00	 0.00000000E+00
	 0.00000000E+00	 0.00000000E+00	 0.00000000E+00
	 0.00000000E+00	 0.00000000E+00	 0.00000000E+00

	 0.00000000E+00	 0.00000000E+00	 0.00000000E+00
	 0.00000000E+00	 0.00000000E+00	 0.00000000E+00
	 0.00000000E+00	 0.00000000E+00	 0.00000000E+00

	 0.00000000E+00	 0.00000000E+00	 0.00000000E+00
	 0.00000000E+00	 0.00000000E+00	 0.00000000E+00
	 0.00000000E+00	 0.00000000E+00	 0.00000000E+00

	 0.00000000E+00	 0.00000000E+00	 0.00000000E+00
	 0.00000000E+00	 0.00000000E+00	 0.00000000E+00
	 0.00000000E+00	 0.00000000E+00	 0.00000000E+00

	 0.00000000E+00	 0.00000000E+00	 0.00000000E+00
	 0.00000000E+00	 0.00000000E+00	 0.00000000E+00
	 0.00000000E+00	 0.00000000E+00	 0.00000000E+00

	 0.00000000E+00	 0.00000000E+00	 0.00000000E+00
	 0.00000000E+00	 0.00000000E+00	 0.00000000E+00
	 0.00000000E+00	 0.00000000E+00	 0.00000000E+00

	 0.00000000E+00	 0.00000000E+00	 0.00000000E+00
	 0.00000000E+00	 0.00000000E+00	 0.00000000E+00
	 0.00000000E+00	 0.00000000E+00	 0.00000000E+00

	 0.00000000E+00	 0.00000000E+00	 0.00000000E+00
	 0.00000000E+00	 0.00000000E+00	 0.00000000E+00
	 0.00000000E+00	 0.00000000E+00	 0.00000000E+00

	 0.00000000E+00	 0.00000000E+00	 0.00000000E+00
	 0.00000000E+00	 0.00000000E+00	 0.00000000E+00
	 0.00000000E+00	 0.00000000E+00	 0.00000000E+00

	 0.00000000E+00	 0.00000000E+00	 0.00000000E+00
	 0.00000000E+00	 0.00000000E+00	 0.00000000E+00
	 0.00000000E+00	 0.00000000E+00	 0.00000000E+00

	 0.00000000E+00	 0.00000000E+00	 0.00000000E+00
	 0.00000000E+00	 0.00000000E+00	 0.00000000E+00
	 0.00000000E+00	 0.00000000E+00	 0.00000000E+00

	 0.00000000E+00	 0.00000000E+00	 0.00000000E+00
	 0.00000000E+00	 0.00000000E+00	 0.00000000E+00
	 0.00000000E+00	 0.00000000E+00	 0.00000000E+00

	 0.00000000E+00	 0.00000000E+00	 0.00000000E+00
	 0.00000000E+00	 0.00000000E+00	 0.00000000E+00
	 0.00000000E+00	 0.00000000E+00	 0.00000000E+00

	 0.00000000E+00	 0.00000000E+00	 0.00000000E+00
	 0.00000000E+00	 0.00000000E+00	 0.00000000E+00
	 0.00000000E+00	 0.00000000E+00	 0.00000000E+00

	 0.00000000E+00	 0.00000000E+00	 0.00000000E+00
	 0.00000000E+00	 0.00000000E+00	 0.00000000E+00
	 0.00000000E+00	 0.00000000E+00	 0.00000000E+00

	 0.00000000E+00	 0.00000000E+00	 0.00000000E+00
	 0.00000000E+00	 0.00000000E+00	 0.00000000E+00
	 0.00000000E+00	 0.00000000E+00	 0.00000000E+00

	 0.00000000E+00	 0.00000000E+00	 0.00000000E+00
	 0.00000000E+00	 0.00000000E+00	 0.00000000E+00
	 0.00000000E+00	 0.00000000E+00	 0.00000000E+00

	 0.00000000E+00	 0.00000000E+00	 0.00000000E+00
	 0.00000000E+00	 0.00000000E+00	 0.00000000E+00
	 0.00000000E+00	 0.00000000E+00	 0.00000000E+00

	 0.00000000E+00	 0.00000000E+00	 0.00000000E+00
	 0.00000000E+00	 0.00000000E+00	 0.00000000E+00
	 0.00000000E+00	 0.00000000E+00	 0.00000000E+00

	 0.00000000E+00	 0.00000000E+00	 0.00000000E+00
	 0.00000000E+00	 0.00000000E+00	 0.00000000E+00
	 0.00000000E+00	 0.00000000E+00	 0.00000000E+00

	 0.00000000E+00	 0.00000000E+00	 0.00000000E+00
	 0.00000000E+00	 0.00000000E+00	 0.00000000E+00
	 0.00000000E+00	 0.00000000E+00	 0.00000000E+00

	 0.00000000E+00	 0.00000000E+00	 0.00000000E+00
	 0.00000000E+00	 0.00000000E+00	 0.00000000E+00
	 0.00000000E+00	 0.00000000E+00	 0.00000000E+00

	 0.00000000E+00	 0.00000000E+00	 0.00000000E+00
	 0.00000000E+00	 0.00000000E+00	 0.00000000E+00
	 0.00000000E+00	 0.00000000E+00	 0.00000000E+00

	 0.00000000E+00	 0.00000000E+00	 0.00000000E+00
	 0.00000000E+00	 0.00000000E+00	 0.00000000E+00
	 0.00000000E+00	 0.00000000E+00	 0.00000000E+00

	 0.00000000E+00	 0.00000000E+00	 0.00000000E+00
	 0.00000000E+00	 0.00000000E+00	 0.00000000E+00
	 0.00000000E+00	 0.00000000E+00	 0.00000000E+00

	 0.00000000E+00	 0.00000000E+00	 0.00000000E+00
	 0.00000000E+00	 0.00000000E+00	 0.00000000E+00
	 0.00000000E+00	 0.00000000E+00	 0.00000000E+00

	 0.00000000E+00	 0.00000000E+00	 0.00000000E+00
	 0.00000000E+00	 0.00000000E+00	 0.00000000E+00
	 0.00000000E+00	 0.00000000E+00	 0.00000000E+00

	 0.00000000E+00	 0.00000000E+00	 0.00000000E+00
	 0.00000000E+00	 0.00000000E+00	 0.00000000E+00
	 0.00000000E+00	 0.00000000E+00	 0.00000000E+00

	 0.00000000E+00	 0.00000000E+00	 0.00000000E+00
	 0.00000000E+00	 0.00000000E+00	 0.00000000E+00
	 0.00000000E+00	 0.00000000E+00	 0.00000000E+00

	 0.00000000E+00	 0.00000000E+00	 0.00000000E+00
	 0.00000000E+00	 0.00000000E+00	 0.00000000E+00
	 0.00000000E+00	 0.00000000E+00	 0.00000000E+00

	 0.00000000E+00	 0.00000000E+00	 0.00000000E+00
	 0.00000000E+00	 0.00000000E+00	 0.00000000E+00
	 0.00000000E+00	 0.00000000E+00	 0.00000000E+00

	 0.00000000E+00	 0.00000000E+00	 0.00000000E+00
	 0.00000000E+00	 0.00000000E+00	 0.00000000E+00
	 0.00000000E+00	 0.00000000E+00	 0.00000000E+00

	 0.00000000E+00	 0.00000000E+00	 0.00000000E+00
	 0.00000000E+00	 0.00000000E+00	 0.00000000E+00
	 0.00000000E+00	 0.00000000E+00	 0.00000000E+00

	 0.00000000E+00	 0.00000000E+00	 0.00000000E+00
	 0.00000000E+00	 0.00000000E+00	 0.00000000E+00
	 0.00000000E+00	 0.00000000E+00	 0.00000000E+00

	 0.00000000E+00	 0.00000000E+00	 0.00000000E+00
	 0.00000000E+00	 0.00000000E+00	 0.00000000E+00
	 0.00000000E+00	 0.00000000E+00	 0.00000000E+00

	 0.00000000E+00	 0.00000000E+00	 0.00000000E+00
	 0.00000000E+00	 0.00000000E+00	 0.00000000E+00
	 0.00000000E+00	 0.00000000E+00	 0.00000000E+00

	 0.00000000E+00	 0.00000000E+00	 0.00000000E+00
	 0.00000000E+00	 0.00000000E+00	 0.00000000E+00
	 0.00000000E+00	 0.00000000E+00	 0.00000000E+00

	 0.00000000E+00	 0.00000000E+00	 0.00000000E+00
	 0.00000000E+00	 0.00000000E+00	 0.00000000E+00
	 0.00000000E+00	 0.00000000E+00	 0.00000000E+00

	 0.00000000E+00	 0.00000000E+00	 0.00000000E+00
	 0.00000000E+00	 0.00000000E+00	 0.00000000E+00
	 0.00000000E+00	 0.00000000E+00	 0.00000000E+00

	 0.00000000E+00	 0.00000000E+00	 0.00000000E+00
	 0.00000000E+00	 0.00000000E+00	 0.00000000E+00
	 0.00000000E+00	 0.00000000E+00	 0.00000000E+00

	 0.00000000E+00	 0.00000000E+00	 0.00000000E+00
	 0.00000000E+00	 0.00000000E+00	 0.00000000E+00
	 0.00000000E+00	 0.00000000E+00	 0.00000000E+00

	 0.00000000E+00	 0.00000000E+00	 0.00000000E+00
	 0.00000000E+00	 0.00000000E+00	 0.00000000E+00
	 0.00000000E+00	 0.00000000E+00	 0.00000000E+00

	 0.00000000E+00	 0.00000000E+00	 0.00000000E+00
	 0.00000000E+00	 0.00000000E+00	 0.00000000E+00
	 0.00000000E+00	 0.00000000E+00	 0.00000000E+00

	 0.00000000E+00	 0.00000000E+00	 0.00000000E+00
	 0.00000000E+00	 0.00000000E+00	 0.00000000E+00
	 0.00000000E+00	 0.00000000E+00	 0.00000000E+00

	 0.00000000E+00	 0.00000000E+00	 0.00000000E+00
	 0.00000000E+00	 0.00000000E+00	 0.00000000E+00
	 0.00000000E+00	 0.00000000E+00	 0.00000000E+00

	 0.00000000E+00	 0.00000000E+00	 0.00000000E+00
	 0.00000000E+00	 0.00000000E+00	 0.00000000E+00
	 0.00000000E+00	 0.00000000E+00	 0.00000000E+00

	 0.00000000E+00	 0.00000000E+00	 0.00000000E+00
	 0.00000000E+00	 0.00000000E+00	 0.00000000E+00
	 0.00000000E+00	 0.00000000E+00	 0.00000000E+00

	 0.00000000E+00	 0.00000000E+00	 0.00000000E+00
	 0.00000000E+00	 0.00000000E+00	 0.00000000E+00
	 0.00000000E+00	 0.00000000E+00	 0.00000000E+00

	 0.00000000E+00	 0.00000000E+00	 0.00000000E+00
	 0.00000000E+00	 0.00000000E+00	 0.00000000E+00
	 0.00000000E+00	 0.00000000E+00	 0.00000000E+00

	 0.00000000E+00	 0.00000000E+00	 0.00000000E+00
	 0.00000000E+00	 0.00000000E+00	 0.00000000E+00
	 0.00000000E+00	 0.00000000E+00	 0.00000000E+00

	 0.00000000E+00	 0.00000000E+00	 0.00000000E+00
	 0.00000000E+00	 0.00000000E+00	 0.00000000E+00
	 0.00000000E+00	 0.00000000E+00	 0.00000000E+00

	 0.00000000E+00	 0.00000000E+00	 0.00000000E+00
	 0.00000000E+00	 0.00000000E+00	 0.00000000E+00
	 0.00000000E+00	 0.00000000E+00	 0.00000000E+00

	 0.00000000E+00	 0.00000000E+00	 0.00000000E+00
	 0.00000000E+00	 0.00000000E+00	 0.00000000E+00
	 0.00000000E+00	 0.00000000E+00	 0.00000000E+00

	 0.00000000E+00	 0.00000000E+00	 0.00000000E+00
	 0.00000000E+00	 0.00000000E+00	 0.00000000E+00
	 0.00000000E+00	 0.00000000E+00	 0.00000000E+00

	 0.00000000E+00	 0.00000000E+00	 0.00000000E+00
	 0.00000000E+00	 0.00000000E+00	 0.00000000E+00
	 0.00000000E+00	 0.00000000E+00	 0.00000000E+00

	 0.00000000E+00	 0.00000000E+00	 0.00000000E+00
	 0.00000000E+00	 0.00000000E+00	 0.00000000E+00
	 0.00000000E+00	 0.00000000E+00	 0.00000000E+00

	 0.00000000E+00	 0.00000000E+00	 0.00000000E+00
	 0.00000000E+00	 0.00000000E+00	 0.00000000E+00
	 0.00000000E+00	 0.00000000E+00	 0.00000000E+00

	 0.00000000E+00	 0.00000000E+00	 0.00000000E+00
	 0.00000000E+00	 0.00000000E+00	 0.00000000E+00
	 0.00000000E+00	 0.00000000E+00	 0.00000000E+00

	 0.00000000E+00	 0.00000000E+00	 0.00000000E+00
	 0.00000000E+00	 0.00000000E+00	 0.00000000E+00
	 0.00000000E+00	 0.00000000E+00	 0.00000000E+00

	 0.00000000E+00	 0.00000000E+00	 0.00000000E+00
	 0.00000000E+00	 0.00000000E+00	 0.00000000E+00
	 0.00000000E+00	 0.00000000E+00	 0.00000000E+00

	 0.00000000E+00	 0.00000000E+00	 0.00000000E+00
	 0.00000000E+00	 0.00000000E+00	 0.00000000E+00
	 0.00000000E+00	 0.00000000E+00	 0.00000000E+00

	 0.00000000E+00	 0.00000000E+00	 0.00000000E+00
	 0.00000000E+00	 0.00000000E+00	 0.00000000E+00
	 0.00000000E+00	 0.00000000E+00	 0.00000000E+00

	 0.00000000E+00	 0.00000000E+00	 0.00000000E+00
	 0.00000000E+00	 0.00000000E+00	 0.00000000E+00
	 0.00000000E+00	 0.00000000E+00	 0.00000000E+00

	 0.00000000E+00	 0.00000000E+00	 0.00000000E+00
	 0.00000000E+00	 0.00000000E+00	 0.00000000E+00
	 0.00000000E+00	 0.00000000E+00	 0.00000000E+00

	 0.00000000E+00	 0.00000000E+00	 0.00000000E+00
	 0.00000000E+00	 0.00000000E+00	 0.00000000E+00
	 0.00000000E+00	 0.00000000E+00	 0.00000000E+00

	 0.00000000E+00	 0.00000000E+00	 0.00000000E+00
	 0.00000000E+00	 0.00000000E+00	 0.00000000E+00
	 0.00000000E+00	 0.00000000E+00	 0.00000000E+00

	 0.00000000E+00	 0.00000000E+00	 0.00000000E+00
	 0.00000000E+00	 0.00000000E+00	 0.00000000E+00
	 0.00000000E+00	 0.00000000E+00	 0.00000000E+00

	 0.00000000E+00	 0.00000000E+00	 0.00000000E+00
	 0.00000000E+00	 0.00000000E+00	 0.00000000E+00
	 0.00000000E+00	 0.00000000E+00	 0.00000000E+00

	 0.00000000E+00	 0.00000000E+00	 0.00000000E+00
	 0.00000000E+00	 0.00000000E+00	 0.00000000E+00
	 0.00000000E+00	 0.00000000E+00	 0.00000000E+00

	 0.00000000E+00	 0.00000000E+00	 0.00000000E+00
	 0.00000000E+00	 0.00000000E+00	 0.00000000E+00
	 0.00000000E+00	 0.00000000E+00	 0.00000000E+00

	 0.00000000E+00	 0.00000000E+00	 0.00000000E+00
	 0.00000000E+00	 0.00000000E+00	 0.00000000E+00
	 0.00000000E+00	 0.00000000E+00	 0.00000000E+00

	 0.00000000E+00	 0.00000000E+00	 0.00000000E+00
	 0.00000000E+00	 0.00000000E+00	 0.00000000E+00
	 0.00000000E+00	 0.00000000E+00	 0.00000000E+00

	 0.00000000E+00	 0.00000000E+00	 0.00000000E+00
	 0.00000000E+00	 0.00000000E+00	 0.00000000E+00
	 0.00000000E+00	 0.00000000E+00	 0.00000000E+00

	 0.00000000E+00	 0.00000000E+00	 0.00000000E+00
	 0.00000000E+00	 0.00000000E+00	 0.00000000E+00
	 0.00000000E+00	 0.00000000E+00	 0.00000000E+00

	 0.00000000E+00	 0.00000000E+00	 0.00000000E+00
	 0.00000000E+00	 0.00000000E+00	 0.00000000E+00
	 0.00000000E+00	 0.00000000E+00	 0.00000000E+00

	 0.00000000E+00	 0.00000000E+00	 0.00000000E+00
	 0.00000000E+00	 0.00000000E+00	 0.00000000E+00
	 0.00000000E+00	 0.00000000E+00	 0.00000000E+00

	 0.00000000E+00	 0.00000000E+00	 0.00000000E+00
	 0.00000000E+00	 0.00000000E+00	 0.00000000E+00
	 0.00000000E+00	 0.00000000E+00	 0.00000000E+00

	 0.00000000E+00	 0.00000000E+00	 0.00000000E+00
	 0.00000000E+00	 0.00000000E+00	 0.00000000E+00
	 0.00000000E+00	 0.00000000E+00	 0.00000000E+00

	 0.00000000E+00	 0.00000000E+00	 0.00000000E+00
	 0.00000000E+00	 0.00000000E+00	 0.00000000E+00
	 0.00000000E+00	 0.00000000E+00	 0.00000000E+00

	 0.00000000E+00	 0.00000000E+00	 0.00000000E+00
	 0.00000000E+00	 0.00000000E+00	 0.00000000E+00
	 0.00000000E+00	 0.00000000E+00	 0.00000000E+00

	 0.00000000E+00	 0.00000000E+00	 0.00000000E+00
	 0.00000000E+00	 0.00000000E+00	 0.00000000E+00
	 0.00000000E+00	 0.00000000E+00	 0.00000000E+00

	 0.00000000E+00	 0.00000000E+00	 0.00000000E+00
	 0.00000000E+00	 0.00000000E+00	 0.00000000E+00
	 0.00000000E+00	 0.00000000E+00	 0.00000000E+00

	 0.00000000E+00	 0.00000000E+00	 0.00000000E+00
	 0.00000000E+00	 0.00000000E+00	 0.00000000E+00
	 0.00000000E+00	 0.00000000E+00	 0.00000000E+00

	 0.00000000E+00	 0.00000000E+00	 0.00000000E+00
	 0.00000000E+00	 0.00000000E+00	 0.00000000E+00
	 0.00000000E+00	 0.00000000E+00	 0.00000000E+00

	 0.00000000E+00	 0.00000000E+00	 0.00000000E+00
	 0.00000000E+00	 0.00000000E+00	 0.00000000E+00
	 0.00000000E+00	 0.00000000E+00	 0.00000000E+00

	 0.00000000E+00	 0.00000000E+00	 0.00000000E+00
	 0.00000000E+00	 0.00000000E+00	 0.00000000E+00
	 0.00000000E+00	 0.00000000E+00	 0.00000000E+00

	 0.00000000E+00	 0.00000000E+00	 0.00000000E+00
	 0.00000000E+00	 0.00000000E+00	 0.00000000E+00
	 0.00000000E+00	 0.00000000E+00	 0.00000000E+00

	 0.00000000E+00	 0.00000000E+00	 0.00000000E+00
	 0.00000000E+00	 0.00000000E+00	 0.00000000E+00
	 0.00000000E+00	 0.00000000E+00	 0.00000000E+00

	 0.00000000E+00	 0.00000000E+00	 0.00000000E+00
	 0.00000000E+00	 0.00000000E+00	 0.00000000E+00
	 0.00000000E+00	 0.00000000E+00	 0.00000000E+00

	 0.00000000E+00	 0.00000000E+00	 0.00000000E+00
	 0.00000000E+00	 0.00000000E+00	 0.00000000E+00
	 0.00000000E+00	 0.00000000E+00	 0.00000000E+00

	 0.00000000E+00	 0.00000000E+00	 0.00000000E+00
	 0.00000000E+00	 0.00000000E+00	 0.00000000E+00
	 0.00000000E+00	 0.00000000E+00	 0.00000000E+00

	 0.00000000E+00	 0.00000000E+00	 0.00000000E+00
	 0.00000000E+00	 0.00000000E+00	 0.00000000E+00
	 0.00000000E+00	 0.00000000E+00	 0.00000000E+00

	 0.00000000E+00	 0.00000000E+00	 0.00000000E+00
	 0.00000000E+00	 0.00000000E+00	 0.00000000E+00
	 0.00000000E+00	 0.00000000E+00	 0.00000000E+00

	 0.00000000E+00	 0.00000000E+00	 0.00000000E+00
	 0.00000000E+00	 0.00000000E+00	 0.00000000E+00
	 0.00000000E+00	 0.00000000E+00	 0.00000000E+00

	 0.00000000E+00	 0.00000000E+00	 0.00000000E+00
	 0.00000000E+00	 0.00000000E+00	 0.00000000E+00
	 0.00000000E+00	 0.00000000E+00	 0.00000000E+00

	 0.00000000E+00	 0.00000000E+00	 0.00000000E+00
	 0.00000000E+00	 0.00000000E+00	 0.00000000E+00
	 0.00000000E+00	 0.00000000E+00	 0.00000000E+00

	 0.00000000E+00	 0.00000000E+00	 0.00000000E+00
	 0.00000000E+00	 0.00000000E+00	 0.00000000E+00
	 0.00000000E+00	 0.00000000E+00	 0.00000000E+00

	 0.00000000E+00	 0.00000000E+00	 0.00000000E+00
	 0.00000000E+00	 0.00000000E+00	 0.00000000E+00
	 0.00000000E+00	 0.00000000E+00	 0.00000000E+00

	 0.00000000E+00	 0.00000000E+00	 0.00000000E+00
	 0.00000000E+00	 0.00000000E+00	 0.00000000E+00
	 0.00000000E+00	 0.00000000E+00	 0.00000000E+00

	 0.00000000E+00	 0.00000000E+00	 0.00000000E+00
	 0.00000000E+00	 0.00000000E+00	 0.00000000E+00
	 0.00000000E+00	 0.00000000E+00	 0.00000000E+00

	 0.00000000E+00	 0.00000000E+00	 0.00000000E+00
	 0.00000000E+00	 0.00000000E+00	 0.00000000E+00
	 0.00000000E+00	 0.00000000E+00	 0.00000000E+00

	 0.00000000E+00	 0.00000000E+00	 0.00000000E+00
	 0.00000000E+00	 0.00000000E+00	 0.00000000E+00
	 0.00000000E+00	 0.00000000E+00	 0.00000000E+00

	 0.00000000E+00	 0.00000000E+00	 0.00000000E+00
	 0.00000000E+00	 0.00000000E+00	 0.00000000E+00
	 0.00000000E+00	 0.00000000E+00	 0.00000000E+00

	 0.00000000E+00	 0.00000000E+00	 0.00000000E+00
	 0.00000000E+00	 0.00000000E+00	 0.00000000E+00
	 0.00000000E+00	 0.00000000E+00	 0.00000000E+00

	 0.00000000E+00	 0.00000000E+00	 0.00000000E+00
	 0.00000000E+00	 0.00000000E+00	 0.00000000E+00
	 0.00000000E+00	 0.00000000E+00	 0.00000000E+00

	 0.00000000E+00	 0.00000000E+00	 0.00000000E+00
	 0.00000000E+00	 0.00000000E+00	 0.00000000E+00
	 0.00000000E+00	 0.00000000E+00	 0.00000000E+00

	 0.00000000E+00	 0.00000000E+00	 0.00000000E+00
	 0.00000000E+00	 0.00000000E+00	 0.00000000E+00
	 0.00000000E+00	 0.00000000E+00	 0.00000000E+00

	 0.00000000E+00	 0.00000000E+00	 0.00000000E+00
	 0.00000000E+00	 0.00000000E+00	 0.00000000E+00
	 0.00000000E+00	 0.00000000E+00	 0.00000000E+00

	 0.00000000E+00	 0.00000000E+00	 0.00000000E+00
	 0.00000000E+00	 0.00000000E+00	 0.00000000E+00
	 0.00000000E+00	 0.00000000E+00	 0.00000000E+00

	 0.00000000E+00	 0.00000000E+00	 0.00000000E+00
	 0.00000000E+00	 0.00000000E+00	 0.00000000E+00
	 0.00000000E+00	 0.00000000E+00	 0.00000000E+00

	 0.00000000E+00	 0.00000000E+00	 0.00000000E+00
	 0.00000000E+00	 0.00000000E+00	 0.00000000E+00
	 0.00000000E+00	 0.00000000E+00	 0.00000000E+00

	 0.00000000E+00	 0.00000000E+00	 0.00000000E+00
	 0.00000000E+00	 0.00000000E+00	 0.00000000E+00
	 0.00000000E+00	 0.00000000E+00	 0.00000000E+00

	 0.00000000E+00	 0.00000000E+00	 0.00000000E+00
	 0.00000000E+00	 0.00000000E+00	 0.00000000E+00
	 0.00000000E+00	 0.00000000E+00	 0.00000000E+00

	 0.00000000E+00	 0.00000000E+00	 0.00000000E+00
	 0.00000000E+00	 0.00000000E+00	 0.00000000E+00
	 0.00000000E+00	 0.00000000E+00	 0.00000000E+00

	 0.00000000E+00	 0.00000000E+00	 0.00000000E+00
	 0.00000000E+00	 0.00000000E+00	 0.00000000E+00
	 0.00000000E+00	 0.00000000E+00	 0.00000000E+00

	 0.00000000E+00	 0.00000000E+00	 0.00000000E+00
	 0.00000000E+00	 0.00000000E+00	 0.00000000E+00
	 0.00000000E+00	 0.00000000E+00	 0.00000000E+00

	 0.00000000E+00	 0.00000000E+00	 0.00000000E+00
	 0.00000000E+00	 0.00000000E+00	 0.00000000E+00
	 0.00000000E+00	 0.00000000E+00	 0.00000000E+00

	 0.00000000E+00	 0.00000000E+00	 0.00000000E+00
	 0.00000000E+00	 0.00000000E+00	 0.00000000E+00
	 0.00000000E+00	 0.00000000E+00	 0.00000000E+00

	 0.00000000E+00	 0.00000000E+00	 0.00000000E+00
	 0.00000000E+00	 0.00000000E+00	 0.00000000E+00
	 0.00000000E+00	 0.00000000E+00	 0.00000000E+00

	 0.00000000E+00	 0.00000000E+00	 0.00000000E+00
	 0.00000000E+00	 0.00000000E+00	 0.00000000E+00
	 0.00000000E+00	 0.00000000E+00	 0.00000000E+00

	 0.00000000E+00	 0.00000000E+00	 0.00000000E+00
	 0.00000000E+00	 0.00000000E+00	 0.00000000E+00
	 0.00000000E+00	 0.00000000E+00	 0.00000000E+00

	 0.00000000E+00	 0.00000000E+00	 0.00000000E+00
	 0.00000000E+00	 0.00000000E+00	 0.00000000E+00
	 0.00000000E+00	 0.00000000E+00	 0.00000000E+00

	 0.00000000E+00	 0.00000000E+00	 0.00000000E+00
	 0.00000000E+00	 0.00000000E+00	 0.00000000E+00
	 0.00000000E+00	 0.00000000E+00	 0.00000000E+00

	 0.00000000E+00	 0.00000000E+00	 0.00000000E+00
	 0.00000000E+00	 0.00000000E+00	 0.00000000E+00
	 0.00000000E+00	 0.00000000E+00	 0.00000000E+00

	 0.00000000E+00	 0.00000000E+00	 0.00000000E+00
	 0.00000000E+00	 0.00000000E+00	 0.00000000E+00
	 0.00000000E+00	 0.00000000E+00	 0.00000000E+00

	 0.00000000E+00	 0.00000000E+00	 0.00000000E+00
	 0.00000000E+00	 0.00000000E+00	 0.00000000E+00
	 0.00000000E+00	 0.00000000E+00	 0.00000000E+00

	 0.00000000E+00	 0.00000000E+00	 0.00000000E+00
	 0.00000000E+00	 0.00000000E+00	 0.00000000E+00
	 0.00000000E+00	 0.00000000E+00	 0.00000000E+00

	 0.00000000E+00	 0.00000000E+00	 0.00000000E+00
	 0.00000000E+00	 0.00000000E+00	 0.00000000E+00
	 0.00000000E+00	 0.00000000E+00	 0.00000000E+00

	 0.00000000E+00	 0.00000000E+00	 0.00000000E+00
	 0.00000000E+00	 0.00000000E+00	 0.00000000E+00
	 0.00000000E+00	 0.00000000E+00	 0.00000000E+00

	 0.00000000E+00	 0.00000000E+00	 0.00000000E+00
	 0.00000000E+00	 0.00000000E+00	 0.00000000E+00
	 0.00000000E+00	 0.00000000E+00	 0.00000000E+00

	 0.00000000E+00	 0.00000000E+00	 0.00000000E+00
	 0.00000000E+00	 0.00000000E+00	 0.00000000E+00
	 0.00000000E+00	 0.00000000E+00	 0.00000000E+00

	 0.00000000E+00	 0.00000000E+00	 0.00000000E+00
	 0.00000000E+00	 0.00000000E+00	 0.00000000E+00
	 0.00000000E+00	 0.00000000E+00	 0.00000000E+00

	 0.00000000E+00	 0.00000000E+00	 0.00000000E+00
	 0.00000000E+00	 0.00000000E+00	 0.00000000E+00
	 0.00000000E+00	 0.00000000E+00	 0.00000000E+00

	 0.00000000E+00	 0.00000000E+00	 0.00000000E+00
	 0.00000000E+00	 0.00000000E+00	 0.00000000E+00
	 0.00000000E+00	 0.00000000E+00	 0.00000000E+00

	 0.00000000E+00	 0.00000000E+00	 0.00000000E+00
	 0.00000000E+00	 0.00000000E+00	 0.00000000E+00
	 0.00000000E+00	 0.00000000E+00	 0.00000000E+00

	 0.00000000E+00	 0.00000000E+00	 0.00000000E+00
	 0.00000000E+00	 0.00000000E+00	 0.00000000E+00
	 0.00000000E+00	 0.00000000E+00	 0.00000000E+00

	 0.00000000E+00	 0.00000000E+00	 0.00000000E+00
	 0.00000000E+00	 0.00000000E+00	 0.00000000E+00
	 0.00000000E+00	 0.00000000E+00	 0.00000000E+00

	 0.00000000E+00	 0.00000000E+00	 0.00000000E+00
	 0.00000000E+00	 0.00000000E+00	 0.00000000E+00
	 0.00000000E+00	 0.00000000E+00	 0.00000000E+00

	 0.00000000E+00	 0.00000000E+00	 0.00000000E+00
	 0.00000000E+00	 0.00000000E+00	 0.00000000E+00
	 0.00000000E+00	 0.00000000E+00	 0.00000000E+00

	 0.00000000E+00	 0.00000000E+00	 0.00000000E+00
	 0.00000000E+00	 0.00000000E+00	 0.00000000E+00
	 0.00000000E+00	 0.00000000E+00	 0.00000000E+00

	 0.00000000E+00	 0.00000000E+00	 0.00000000E+00
	 0.00000000E+00	 0.00000000E+00	 0.00000000E+00
	 0.00000000E+00	 0.00000000E+00	 0.00000000E+00

	 0.00000000E+00	 0.00000000E+00	 0.00000000E+00
	 0.00000000E+00	 0.00000000E+00	 0.00000000E+00
	 0.00000000E+00	 0.00000000E+00	 0.00000000E+00

	 0.00000000E+00	 0.00000000E+00	 0.00000000E+00
	 0.00000000E+00	 0.00000000E+00	 0.00000000E+00
	 0.00000000E+00	 0.00000000E+00	 0.00000000E+00

	 0.00000000E+00	 0.00000000E+00	 0.00000000E+00
	 0.00000000E+00	 0.00000000E+00	 0.00000000E+00
	 0.00000000E+00	 0.00000000E+00	 0.00000000E+00

	 0.00000000E+00	 0.00000000E+00	 0.00000000E+00
	 0.00000000E+00	 0.00000000E+00	 0.00000000E+00
	 0.00000000E+00	 0.00000000E+00	 0.00000000E+00

	 0.00000000E+00	 0.00000000E+00	 0.00000000E+00
	 0.00000000E+00	 0.00000000E+00	 0.00000000E+00
	 0.00000000E+00	 0.00000000E+00	 0.00000000E+00

	 0.00000000E+00	 0.00000000E+00	 0.00000000E+00
	 0.00000000E+00	 0.00000000E+00	 0.00000000E+00
	 0.00000000E+00	 0.00000000E+00	 0.00000000E+00

	 0.00000000E+00	 0.00000000E+00	 0.00000000E+00
	 0.00000000E+00	 0.00000000E+00	 0.00000000E+00
	 0.00000000E+00	 0.00000000E+00	 0.00000000E+00

	 0.00000000E+00	 0.00000000E+00	 0.00000000E+00
	 0.00000000E+00	 0.00000000E+00	 0.00000000E+00
	 0.00000000E+00	 0.00000000E+00	 0.00000000E+00

	 0.00000000E+00	 0.00000000E+00	 0.00000000E+00
	 0.00000000E+00	 0.00000000E+00	 0.00000000E+00
	 0.00000000E+00	 0.00000000E+00	 0.00000000E+00

	 0.00000000E+00	 0.00000000E+00	 0.00000000E+00
	 0.00000000E+00	 0.00000000E+00	 0.00000000E+00
	 0.00000000E+00	 0.00000000E+00	 0.00000000E+00

	 0.00000000E+00	 0.00000000E+00	 0.00000000E+00
	 0.00000000E+00	 0.00000000E+00	 0.00000000E+00
	 0.00000000E+00	 0.00000000E+00	 0.00000000E+00

	 0.00000000E+00	 0.00000000E+00	 0.00000000E+00
	 0.00000000E+00	 0.00000000E+00	 0.00000000E+00
	 0.00000000E+00	 0.00000000E+00	 0.00000000E+00

	 0.00000000E+00	 0.00000000E+00	 0.00000000E+00
	 0.00000000E+00	 0.00000000E+00	 0.00000000E+00
	 0.00000000E+00	 0.00000000E+00	 0.00000000E+00

	 0.00000000E+00	 0.00000000E+00	 0.00000000E+00
	 0.00000000E+00	 0.00000000E+00	 0.00000000E+00
	 0.00000000E+00	 0.00000000E+00	 0.00000000E+00

	 0.00000000E+00	 0.00000000E+00	 0.00000000E+00
	 0.00000000E+00	 0.00000000E+00	 0.00000000E+00
	 0.00000000E+00	 0.00000000E+00	 0.00000000E+00

	 0.00000000E+00	 0.00000000E+00	 0.00000000E+00
	 0.00000000E+00	 0.00000000E+00	 0.00000000E+00
	 0.00000000E+00	 0.00000000E+00	 0.00000000E+00

	 0.00000000E+00	 0.00000000E+00	 0.00000000E+00
	 0.00000000E+00	 0.00000000E+00	 0.00000000E+00
	 0.00000000E+00	 0.00000000E+00	 0.00000000E+00

	 0.00000000E+00	 0.00000000E+00	 0.00000000E+00
	 0.00000000E+00	 0.00000000E+00	 0.00000000E+00
	 0.00000000E+00	 0.00000000E+00	 0.00000000E+00

	 0.00000000E+00	 0.00000000E+00	 0.00000000E+00
	 0.00000000E+00	 0.00000000E+00	 0.00000000E+00
	 0.00000000E+00	 0.00000000E+00	 0.00000000E+00

	 0.00000000E+00	 0.00000000E+00	 0.00000000E+00
	 0.00000000E+00	 0.00000000E+00	 0.00000000E+00
	 0.00000000E+00	 0.00000000E+00	 0.00000000E+00

	 0.00000000E+00	 0.00000000E+00	 0.00000000E+00
	 0.00000000E+00	 0.00000000E+00	 0.00000000E+00
	 0.00000000E+00	 0.00000000E+00	 0.00000000E+00

	 0.00000000E+00	 0.00000000E+00	 0.00000000E+00
	 0.00000000E+00	 0.00000000E+00	 0.00000000E+00
	 0.00000000E+00	 0.00000000E+00	 0.00000000E+00

	 0.00000000E+00	 0.00000000E+00	 0.00000000E+00
	 0.00000000E+00	 0.00000000E+00	 0.00000000E+00
	 0.00000000E+00	 0.00000000E+00	 0.00000000E+00

	 0.00000000E+00	 0.00000000E+00	 0.00000000E+00
	 0.00000000E+00	 0.00000000E+00	 0.00000000E+00
	 0.00000000E+00	 0.00000000E+00	 0.00000000E+00

	 0.00000000E+00	 0.00000000E+00	 0.00000000E+00
	 0.00000000E+00	 0.00000000E+00	 0.00000000E+00
	 0.00000000E+00	 0.00000000E+00	 0.00000000E+00

	 0.00000000E+00	 0.00000000E+00	 0.00000000E+00
	 0.00000000E+00	 0.00000000E+00	 0.00000000E+00
	 0.00000000E+00	 0.00000000E+00	 0.00000000E+00

	 0.00000000E+00	 0.00000000E+00	 0.00000000E+00
	 0.00000000E+00	 0.00000000E+00	 0.00000000E+00
	 0.00000000E+00	 0.00000000E+00	 0.00000000E+00

	 0.00000000E+00	 0.00000000E+00	 0.00000000E+00
	 0.00000000E+00	 0.00000000E+00	 0.00000000E+00
	 0.00000000E+00	 0.00000000E+00	 0.00000000E+00

	 0.00000000E+00	 0.00000000E+00	 0.00000000E+00
	 0.00000000E+00	 0.00000000E+00	 0.00000000E+00
	 0.00000000E+00	 0.00000000E+00	 0.00000000E+00

	 0.00000000E+00	 0.00000000E+00	 0.00000000E+00
	 0.00000000E+00	 0.00000000E+00	 0.00000000E+00
	 0.00000000E+00	 0.00000000E+00	 0.00000000E+00

	 0.00000000E+00	 0.00000000E+00	 0.00000000E+00
	 0.00000000E+00	 0.00000000E+00	 0.00000000E+00
	 0.00000000E+00	 0.00000000E+00	 0.00000000E+00

	 0.00000000E+00	 0.00000000E+00	 0.00000000E+00
	 0.00000000E+00	 0.00000000E+00	 0.00000000E+00
	 0.00000000E+00	 0.00000000E+00	 0.00000000E+00

	 0.00000000E+00	 0.00000000E+00	 0.00000000E+00
	 0.00000000E+00	 0.00000000E+00	 0.00000000E+00
	 0.00000000E+00	 0.00000000E+00	 0.00000000E+00

	 0.00000000E+00	 0.00000000E+00	 0.00000000E+00
	 0.00000000E+00	 0.00000000E+00	 0.00000000E+00
	 0.00000000E+00	 0.00000000E+00	 0.00000000E+00

	 0.00000000E+00	 0.00000000E+00	 0.00000000E+00
	 0.00000000E+00	 0.00000000E+00	 0.00000000E+00
	 0.00000000E+00	 0.00000000E+00	 0.00000000E+00

	 0.00000000E+00	 0.00000000E+00	 0.00000000E+00
	 0.00000000E+00	 0.00000000E+00	 0.00000000E+00
	 0.00000000E+00	 0.00000000E+00	 0.00000000E+00

	 0.00000000E+00	 0.00000000E+00	 0.00000000E+00
	 0.00000000E+00	 0.00000000E+00	 0.00000000E+00
	 0.00000000E+00	 0.00000000E+00	 0.00000000E+00

	 0.00000000E+00	 0.00000000E+00	 0.00000000E+00
	 0.00000000E+00	 0.00000000E+00	 0.00000000E+00
	 0.00000000E+00	 0.00000000E+00	 0.00000000E+00

	 0.00000000E+00	 0.00000000E+00	 0.00000000E+00
	 0.00000000E+00	 0.00000000E+00	 0.00000000E+00
	 0.00000000E+00	 0.00000000E+00	 0.00000000E+00

	 0.00000000E+00	 0.00000000E+00	 0.00000000E+00
	 0.00000000E+00	 0.00000000E+00	 0.00000000E+00
	 0.00000000E+00	 0.00000000E+00	 0.00000000E+00

	 0.00000000E+00	 0.00000000E+00	 0.00000000E+00
	 0.00000000E+00	 0.00000000E+00	 0.00000000E+00
	 0.00000000E+00	 0.00000000E+00	 0.00000000E+00

	 0.00000000E+00	 0.00000000E+00	 0.00000000E+00
	 0.00000000E+00	 0.00000000E+00	 0.00000000E+00
	 0.00000000E+00	 0.00000000E+00	 0.00000000E+00

	 0.00000000E+00	 0.00000000E+00	 0.00000000E+00
	 0.00000000E+00	 0.00000000E+00	 0.00000000E+00
	 0.00000000E+00	 0.00000000E+00	 0.00000000E+00

	 0.00000000E+00	 0.00000000E+00	 0.00000000E+00
	 0.00000000E+00	 0.00000000E+00	 0.00000000E+00
	 0.00000000E+00	 0.00000000E+00	 0.00000000E+00

	 0.00000000E+00	 0.00000000E+00	 0.00000000E+00
	 0.00000000E+00	 0.00000000E+00	 0.00000000E+00
	 0.00000000E+00	 0.00000000E+00	 0.00000000E+00

	 0.00000000E+00	 0.00000000E+00	 0.00000000E+00
	 0.00000000E+00	 0.00000000E+00	 0.00000000E+00
	 0.00000000E+00	 0.00000000E+00	 0.00000000E+00

	 0.00000000E+00	 0.00000000E+00	 0.00000000E+00
	 0.00000000E+00	 0.00000000E+00	 0.00000000E+00
	 0.00000000E+00	 0.00000000E+00	 0.00000000E+00

	 0.00000000E+00	 0.00000000E+00	 0.00000000E+00
	 0.00000000E+00	 0.00000000E+00	 0.00000000E+00
	 0.00000000E+00	 0.00000000E+00	 0.00000000E+00

	 0.00000000E+00	 0.00000000E+00	 0.00000000E+00
	 0.00000000E+00	 0.00000000E+00	 0.00000000E+00
	 0.00000000E+00	 0.00000000E+00	 0.00000000E+00

	 0.00000000E+00	 0.00000000E+00	 0.00000000E+00
	 0.00000000E+00	 0.00000000E+00	 0.00000000E+00
	 0.00000000E+00	 0.00000000E+00	 0.00000000E+00

	 0.00000000E+00	 0.00000000E+00	 0.00000000E+00
	 0.00000000E+00	 0.00000000E+00	 0.00000000E+00
	 0.00000000E+00	 0.00000000E+00	 0.00000000E+00

	 0.00000000E+00	 0.00000000E+00	 0.00000000E+00
	 0.00000000E+00	 0.00000000E+00	 0.00000000E+00
	 0.00000000E+00	 0.00000000E+00	 0.00000000E+00

	 0.00000000E+00	 0.00000000E+00	 0.00000000E+00
	 0.00000000E+00	 0.00000000E+00	 0.00000000E+00
	 0.00000000E+00	 0.00000000E+00	 0.00000000E+00

	 0.00000000E+00	 0.00000000E+00	 0.00000000E+00
	 0.00000000E+00	 0.00000000E+00	 0.00000000E+00
	 0.00000000E+00	 0.00000000E+00	 0.00000000E+00

	 0.00000000E+00	 0.00000000E+00	 0.00000000E+00
	 0.00000000E+00	 0.00000000E+00	 0.00000000E+00
	 0.00000000E+00	 0.00000000E+00	 0.00000000E+00

	 0.00000000E+00	 0.00000000E+00	 0.00000000E+00
	 0.00000000E+00	 0.00000000E+00	 0.00000000E+00
	 0.00000000E+00	 0.00000000E+00	 0.00000000E+00

	 0.00000000E+00	 0.00000000E+00	 0.00000000E+00
	 0.00000000E+00	 0.00000000E+00	 0.00000000E+00
	 0.00000000E+00	 0.00000000E+00	 0.00000000E+00

	 0.00000000E+00	 0.00000000E+00	 0.00000000E+00
	 0.00000000E+00	 0.00000000E+00	 0.00000000E+00
	 0.00000000E+00	 0.00000000E+00	 0.00000000E+00

	 0.00000000E+00	 0.00000000E+00	 0.00000000E+00
	 0.00000000E+00	 0.00000000E+00	 0.00000000E+00
	 0.00000000E+00	 0.00000000E+00	 0.00000000E+00

	 0.00000000E+00	 0.00000000E+00	 0.00000000E+00
	 0.00000000E+00	 0.00000000E+00	 0.00000000E+00
	 0.00000000E+00	 0.00000000E+00	 0.00000000E+00

	 0.00000000E+00	 0.00000000E+00	 0.00000000E+00
	 0.00000000E+00	 0.00000000E+00	 0.00000000E+00
	 0.00000000E+00	 0.00000000E+00	 0.00000000E+00

	 0.00000000E+00	 0.00000000E+00	 0.00000000E+00
	 0.00000000E+00	 0.00000000E+00	 0.00000000E+00
	 0.00000000E+00	 0.00000000E+00	 0.00000000E+00

	 0.00000000E+00	 0.00000000E+00	 0.00000000E+00
	 0.00000000E+00	 0.00000000E+00	 0.00000000E+00
	 0.00000000E+00	 0.00000000E+00	 0.00000000E+00

	 0.00000000E+00	 0.00000000E+00	 0.00000000E+00
	 0.00000000E+00	 0.00000000E+00	 0.00000000E+00
	 0.00000000E+00	 0.00000000E+00	 0.00000000E+00

	 0.00000000E+00	 0.00000000E+00	 0.00000000E+00
	 0.00000000E+00	 0.00000000E+00	 0.00000000E+00
	 0.00000000E+00	 0.00000000E+00	 0.00000000E+00

	 0.00000000E+00	 0.00000000E+00	 0.00000000E+00
	 0.00000000E+00	 0.00000000E+00	 0.00000000E+00
	 0.00000000E+00	 0.00000000E+00	 0.00000000E+00

	 0.00000000E+00	 0.00000000E+00	 0.00000000E+00
	 0.00000000E+00	 0.00000000E+00	 0.00000000E+00
	 0.00000000E+00	 0.00000000E+00	 0.00000000E+00

	 0.00000000E+00	 0.00000000E+00	 0.00000000E+00
	 0.00000000E+00	 0.00000000E+00	 0.00000000E+00
	 0.00000000E+00	 0.00000000E+00	 0.00000000E+00

	 0.00000000E+00	 0.00000000E+00	 0.00000000E+00
	 0.00000000E+00	 0.00000000E+00	 0.00000000E+00
	 0.00000000E+00	 0.00000000E+00	 0.00000000E+00

	 0.00000000E+00	 0.00000000E+00	 0.00000000E+00
	 0.00000000E+00	 0.00000000E+00	 0.00000000E+00
	 0.00000000E+00	 0.00000000E+00	 0.00000000E+00

	 0.00000000E+00	 0.00000000E+00	 0.00000000E+00
	 0.00000000E+00	 0.00000000E+00	 0.00000000E+00
	 0.00000000E+00	 0.00000000E+00	 0.00000000E+00

	 0.00000000E+00	 0.00000000E+00	 0.00000000E+00
	 0.00000000E+00	 0.00000000E+00	 0.00000000E+00
	 0.00000000E+00	 0.00000000E+00	 0.00000000E+00

	 0.00000000E+00	 0.00000000E+00	 0.00000000E+00
	 0.00000000E+00	 0.00000000E+00	 0.00000000E+00
	 0.00000000E+00	 0.00000000E+00	 0.00000000E+00

	 0.00000000E+00	 0.00000000E+00	 0.00000000E+00
	 0.00000000E+00	 0.00000000E+00	 0.00000000E+00
	 0.00000000E+00	 0.00000000E+00	 0.00000000E+00

	 0.00000000E+00	 0.00000000E+00	 0.00000000E+00
	 0.00000000E+00	 0.00000000E+00	 0.00000000E+00
	 0.00000000E+00	 0.00000000E+00	 0.00000000E+00

	 0.00000000E+00	 0.00000000E+00	 0.00000000E+00
	 0.00000000E+00	 0.00000000E+00	 0.00000000E+00
	 0.00000000E+00	 0.00000000E+00	 0.00000000E+00

	 0.00000000E+00	 0.00000000E+00	 0.00000000E+00
	 0.00000000E+00	 0.00000000E+00	 0.00000000E+00
	 0.00000000E+00	 0.00000000E+00	 0.00000000E+00

	 0.00000000E+00	 0.00000000E+00	 0.00000000E+00
	 0.00000000E+00	 0.00000000E+00	 0.00000000E+00
	 0.00000000E+00	 0.00000000E+00	 0.00000000E+00

	 0.00000000E+00	 0.00000000E+00	 0.00000000E+00
	 0.00000000E+00	 0.00000000E+00	 0.00000000E+00
	 0.00000000E+00	 0.00000000E+00	 0.00000000E+00

	 0.00000000E+00	 0.00000000E+00	 0.00000000E+00
	 0.00000000E+00	 0.00000000E+00	 0.00000000E+00
	 0.00000000E+00	 0.00000000E+00	 0.00000000E+00

	 0.00000000E+00	 0.00000000E+00	 0.00000000E+00
	 0.00000000E+00	 0.00000000E+00	 0.00000000E+00
	 0.00000000E+00	 0.00000000E+00	 0.00000000E+00

	 0.00000000E+00	 0.00000000E+00	 0.00000000E+00
	 0.00000000E+00	 0.00000000E+00	 0.00000000E+00
	 0.00000000E+00	 0.00000000E+00	 0.00000000E+00

	 0.00000000E+00	 0.00000000E+00	 0.00000000E+00
	 0.00000000E+00	 0.00000000E+00	 0.00000000E+00
	 0.00000000E+00	 0.00000000E+00	 0.00000000E+00

	 0.00000000E+00	 0.00000000E+00	 0.00000000E+00
	 0.00000000E+00	 0.00000000E+00	 0.00000000E+00
	 0.00000000E+00	 0.00000000E+00	 0.00000000E+00

	 0.00000000E+00	 0.00000000E+00	 0.00000000E+00
	 0.00000000E+00	 0.00000000E+00	 0.00000000E+00
	 0.00000000E+00	 0.00000000E+00	 0.00000000E+00

	 0.00000000E+00	 0.00000000E+00	 0.00000000E+00
	 0.00000000E+00	 0.00000000E+00	 0.00000000E+00
	 0.00000000E+00	 0.00000000E+00	 0.00000000E+00

	 0.00000000E+00	 0.00000000E+00	 0.00000000E+00
	 0.00000000E+00	 0.00000000E+00	 0.00000000E+00
	 0.00000000E+00	 0.00000000E+00	 0.00000000E+00

	 0.00000000E+00	 0.00000000E+00	 0.00000000E+00
	 0.00000000E+00	 0.00000000E+00	 0.00000000E+00
	 0.00000000E+00	 0.00000000E+00	 0.00000000E+00

	 0.00000000E+00	 0.00000000E+00	 0.00000000E+00
	 0.00000000E+00	 0.00000000E+00	 0.00000000E+00
	 0.00000000E+00	 0.00000000E+00	 0.00000000E+00

	 0.00000000E+00	 0.00000000E+00	 0.00000000E+00
	 0.00000000E+00	 0.00000000E+00	 0.00000000E+00
	 0.00000000E+00	 0.00000000E+00	 0.00000000E+00

	 0.00000000E+00	 0.00000000E+00	 0.00000000E+00
	 0.00000000E+00	 0.00000000E+00	 0.00000000E+00
	 0.00000000E+00	 0.00000000E+00	 0.00000000E+00

	 0.00000000E+00	 0.00000000E+00	 0.00000000E+00
	 0.00000000E+00	 0.00000000E+00	 0.00000000E+00
	 0.00000000E+00	 0.00000000E+00	 0.00000000E+00

	 0.00000000E+00	 0.00000000E+00	 0.00000000E+00
	 0.00000000E+00	 0.00000000E+00	 0.00000000E+00
	 0.00000000E+00	 0.00000000E+00	 0.00000000E+00

	 0.00000000E+00	 0.00000000E+00	 0.00000000E+00
	 0.00000000E+00	 0.00000000E+00	 0.00000000E+00
	 0.00000000E+00	 0.00000000E+00	 0.00000000E+00

	 0.00000000E+00	 0.00000000E+00	 0.00000000E+00
	 0.00000000E+00	 0.00000000E+00	 0.00000000E+00
	 0.00000000E+00	 0.00000000E+00	 0.00000000E+00

	 0.00000000E+00	 0.00000000E+00	 0.00000000E+00
	 0.00000000E+00	 0.00000000E+00	 0.00000000E+00
	 0.00000000E+00	 0.00000000E+00	 0.00000000E+00

	 0.00000000E+00	 0.00000000E+00	 0.00000000E+00
	 0.00000000E+00	 0.00000000E+00	 0.00000000E+00
	 0.00000000E+00	 0.00000000E+00	 0.00000000E+00

	 0.00000000E+00	 0.00000000E+00	 0.00000000E+00
	 0.00000000E+00	 0.00000000E+00	 0.00000000E+00
	 0.00000000E+00	 0.00000000E+00	 0.00000000E+00

	 0.00000000E+00	 0.00000000E+00	 0.00000000E+00
	 0.00000000E+00	 0.00000000E+00	 0.00000000E+00
	 0.00000000E+00	 0.00000000E+00	 0.00000000E+00

	 0.00000000E+00	 0.00000000E+00	 0.00000000E+00
	 0.00000000E+00	 0.00000000E+00	 0.00000000E+00
	 0.00000000E+00	 0.00000000E+00	 0.00000000E+00

	 0.00000000E+00	 0.00000000E+00	 0.00000000E+00
	 0.00000000E+00	 0.00000000E+00	 0.00000000E+00
	 0.00000000E+00	 0.00000000E+00	 0.00000000E+00

	 0.00000000E+00	 0.00000000E+00	 0.00000000E+00
	 0.00000000E+00	 0.00000000E+00	 0.00000000E+00
	 0.00000000E+00	 0.00000000E+00	 0.00000000E+00

	 0.00000000E+00	 0.00000000E+00	 0.00000000E+00
	 0.00000000E+00	 0.00000000E+00	 0.00000000E+00
	 0.00000000E+00	 0.00000000E+00	 0.00000000E+00

	 0.00000000E+00	 0.00000000E+00	 0.00000000E+00
	 0.00000000E+00	 0.00000000E+00	 0.00000000E+00
	 0.00000000E+00	 0.00000000E+00	 0.00000000E+00

	 0.00000000E+00	 0.00000000E+00	 0.00000000E+00
	 0.00000000E+00	 0.00000000E+00	 0.00000000E+00
	 0.00000000E+00	 0.00000000E+00	 0.00000000E+00

	 0.00000000E+00	 0.00000000E+00	 0.00000000E+00
	 0.00000000E+00	 0.00000000E+00	 0.00000000E+00
	 0.00000000E+00	 0.00000000E+00	 0.00000000E+00

	 0.00000000E+00	 0.00000000E+00	 0.00000000E+00
	 0.00000000E+00	 0.00000000E+00	 0.00000000E+00
	 0.00000000E+00	 0.00000000E+00	 0.00000000E+00

	 0.00000000E+00	 0.00000000E+00	 0.00000000E+00
	 0.00000000E+00	 0.00000000E+00	 0.00000000E+00
	 0.00000000E+00	 0.00000000E+00	 0.00000000E+00

	 0.00000000E+00	 0.00000000E+00	 0.00000000E+00
	 0.00000000E+00	 0.00000000E+00	 0.00000000E+00
	 0.00000000E+00	 0.00000000E+00	 0.00000000E+00

	 0.00000000E+00	 0.00000000E+00	 0.00000000E+00
	 0.00000000E+00	 0.00000000E+00	 0.00000000E+00
	 0.00000000E+00	 0.00000000E+00	 0.00000000E+00

	 0.00000000E+00	 0.00000000E+00	 0.00000000E+00
	 0.00000000E+00	 0.00000000E+00	 0.00000000E+00
	 0.00000000E+00	 0.00000000E+00	 0.00000000E+00

	 0.00000000E+00	 0.00000000E+00	 0.00000000E+00
	 0.00000000E+00	 0.00000000E+00	 0.00000000E+00
	 0.00000000E+00	 0.00000000E+00	 0.00000000E+00

	 0.00000000E+00	 0.00000000E+00	 0.00000000E+00
	 0.00000000E+00	 0.00000000E+00	 0.00000000E+00
	 0.00000000E+00	 0.00000000E+00	 0.00000000E+00

	 0.00000000E+00	 0.00000000E+00	 0.00000000E+00
	 0.00000000E+00	 0.00000000E+00	 0.00000000E+00
	 0.00000000E+00	 0.00000000E+00	 0.00000000E+00

	 0.00000000E+00	 0.00000000E+00	 0.00000000E+00
	 0.00000000E+00	 0.00000000E+00	 0.00000000E+00
	 0.00000000E+00	 0.00000000E+00	 0.00000000E+00

	 0.00000000E+00	 0.00000000E+00	 0.00000000E+00
	 0.00000000E+00	 0.00000000E+00	 0.00000000E+00
	 0.00000000E+00	 0.00000000E+00	 0.00000000E+00

	 0.00000000E+00	 0.00000000E+00	 0.00000000E+00
	 0.00000000E+00	 0.00000000E+00	 0.00000000E+00
	 0.00000000E+00	 0.00000000E+00	 0.00000000E+00

	 0.00000000E+00	 0.00000000E+00	 0.00000000E+00
	 0.00000000E+00	 0.00000000E+00	 0.00000000E+00
	 0.00000000E+00	 0.00000000E+00	 0.00000000E+00

	 0.00000000E+00	 0.00000000E+00	 0.00000000E+00
	 0.00000000E+00	 0.00000000E+00	 0.00000000E+00
	 0.00000000E+00	 0.00000000E+00	 0.00000000E+00

	 0.00000000E+00	 0.00000000E+00	 0.00000000E+00
	 0.00000000E+00	 0.00000000E+00	 0.00000000E+00
	 0.00000000E+00	 0.00000000E+00	 0.00000000E+00

	 0.00000000E+00	 0.00000000E+00	 0.00000000E+00
	 0.00000000E+00	 0.00000000E+00	 0.00000000E+00
	 0.00000000E+00	 0.00000000E+00	 0.00000000E+00

	 0.00000000E+00	 0.00000000E+00	 0.00000000E+00
	 0.00000000E+00	 0.00000000E+00	 0.00000000E+00
	 0.00000000E+00	 0.00000000E+00	 0.00000000E+00

	 0.00000000E+00	 0.00000000E+00	 0.00000000E+00
	 0.00000000E+00	 0.00000000E+00	 0.00000000E+00
	 0.00000000E+00	 0.00000000E+00	 0.00000000E+00

	 0.00000000E+00	 0.00000000E+00	 0.00000000E+00
	 0.00000000E+00	 0.00000000E+00	 0.00000000E+00
	 0.00000000E+00	 0.00000000E+00	 0.00000000E+00

	 0.00000000E+00	 0.00000000E+00	 0.00000000E+00
	 0.00000000E+00	 0.00000000E+00	 0.00000000E+00
	 0.00000000E+00	 0.00000000E+00	 0.00000000E+00

	 0.00000000E+00	 0.00000000E+00	 0.00000000E+00
	 0.00000000E+00	 0.00000000E+00	 0.00000000E+00
	 0.00000000E+00	 0.00000000E+00	 0.00000000E+00

	 0.00000000E+00	 0.00000000E+00	 0.00000000E+00
	 0.00000000E+00	 0.00000000E+00	 0.00000000E+00
	 0.00000000E+00	 0.00000000E+00	 0.00000000E+00

	 0.00000000E+00	 0.00000000E+00	 0.00000000E+00
	 0.00000000E+00	 0.00000000E+00	 0.00000000E+00
	 0.00000000E+00	 0.00000000E+00	 0.00000000E+00

	 0.00000000E+00	 0.00000000E+00	 0.00000000E+00
	 0.00000000E+00	 0.00000000E+00	 0.00000000E+00
	 0.00000000E+00	 0.00000000E+00	 0.00000000E+00

	 0.00000000E+00	 0.00000000E+00	 0.00000000E+00
	 0.00000000E+00	 0.00000000E+00	 0.00000000E+00
	 0.00000000E+00	 0.00000000E+00	 0.00000000E+00

	 0.00000000E+00	 0.00000000E+00	 0.00000000E+00
	 0.00000000E+00	 0.00000000E+00	 0.00000000E+00
	 0.00000000E+00	 0.00000000E+00	 0.00000000E+00

	 0.00000000E+00	 0.00000000E+00	 0.00000000E+00
	 0.00000000E+00	 0.00000000E+00	 0.00000000E+00
	 0.00000000E+00	 0.00000000E+00	 0.00000000E+00

	 0.00000000E+00	 0.00000000E+00	 0.00000000E+00
	 0.00000000E+00	 0.00000000E+00	 0.00000000E+00
	 0.00000000E+00	 0.00000000E+00	 0.00000000E+00

	 0.00000000E+00	 0.00000000E+00	 0.00000000E+00
	 0.00000000E+00	 0.00000000E+00	 0.00000000E+00
	 0.00000000E+00	 0.00000000E+00	 0.00000000E+00

	 0.00000000E+00	 0.00000000E+00	 0.00000000E+00
	 0.00000000E+00	 0.00000000E+00	 0.00000000E+00
	 0.00000000E+00	 0.00000000E+00	 0.00000000E+00

	 0.00000000E+00	 0.00000000E+00	 0.00000000E+00
	 0.00000000E+00	 0.00000000E+00	 0.00000000E+00
	 0.00000000E+00	 0.00000000E+00	 0.00000000E+00

	 0.00000000E+00	 0.00000000E+00	 0.00000000E+00
	 0.00000000E+00	 0.00000000E+00	 0.00000000E+00
	 0.00000000E+00	 0.00000000E+00	 0.00000000E+00

	 0.00000000E+00	 0.00000000E+00	 0.00000000E+00
	 0.00000000E+00	 0.00000000E+00	 0.00000000E+00
	 0.00000000E+00	 0.00000000E+00	 0.00000000E+00

	 0.00000000E+00	 0.00000000E+00	 0.00000000E+00
	 0.00000000E+00	 0.00000000E+00	 0.00000000E+00
	 0.00000000E+00	 0.00000000E+00	 0.00000000E+00

	 0.00000000E+00	 0.00000000E+00	 0.00000000E+00
	 0.00000000E+00	 0.00000000E+00	 0.00000000E+00
	 0.00000000E+00	 0.00000000E+00	 0.00000000E+00

	 0.00000000E+00	 0.00000000E+00	 0.00000000E+00
	 0.00000000E+00	 0.00000000E+00	 0.00000000E+00
	 0.00000000E+00	 0.00000000E+00	 0.00000000E+00

	 0.00000000E+00	 0.00000000E+00	 0.00000000E+00
	 0.00000000E+00	 0.00000000E+00	 0.00000000E+00
	 0.00000000E+00	 0.00000000E+00	 0.00000000E+00

	 0.00000000E+00	 0.00000000E+00	 0.00000000E+00
	 0.00000000E+00	 0.00000000E+00	 0.00000000E+00
	 0.00000000E+00	 0.00000000E+00	 0.00000000E+00

	 0.00000000E+00	 0.00000000E+00	 0.00000000E+00
	 0.00000000E+00	 0.00000000E+00	 0.00000000E+00
	 0.00000000E+00	 0.00000000E+00	 0.00000000E+00

	 0.00000000E+00	 0.00000000E+00	 0.00000000E+00
	 0.00000000E+00	 0.00000000E+00	 0.00000000E+00
	 0.00000000E+00	 0.00000000E+00	 0.00000000E+00

	 0.00000000E+00	 0.00000000E+00	 0.00000000E+00
	 0.00000000E+00	 0.00000000E+00	 0.00000000E+00
	 0.00000000E+00	 0.00000000E+00	 0.00000000E+00

	 0.00000000E+00	 0.00000000E+00	 0.00000000E+00
	 0.00000000E+00	 0.00000000E+00	 0.00000000E+00
	 0.00000000E+00	 0.00000000E+00	 0.00000000E+00

	 0.00000000E+00	 0.00000000E+00	 0.00000000E+00
	 0.00000000E+00	 0.00000000E+00	 0.00000000E+00
	 0.00000000E+00	 0.00000000E+00	 0.00000000E+00

	 0.00000000E+00	 0.00000000E+00	 0.00000000E+00
	 0.00000000E+00	 0.00000000E+00	 0.00000000E+00
	 0.00000000E+00	 0.00000000E+00	 0.00000000E+00

	 0.00000000E+00	 0.00000000E+00	 0.00000000E+00
	 0.00000000E+00	 0.00000000E+00	 0.00000000E+00
	 0.00000000E+00	 0.00000000E+00	 0.00000000E+00

	 0.00000000E+00	 0.00000000E+00	 0.00000000E+00
	 0.00000000E+00	 0.00000000E+00	 0.00000000E+00
	 0.00000000E+00	 0.00000000E+00	 0.00000000E+00

	 0.00000000E+00	 0.00000000E+00	 0.00000000E+00
	 0.00000000E+00	 0.00000000E+00	 0.00000000E+00
	 0.00000000E+00	 0.00000000E+00	 0.00000000E+00

	 0.00000000E+00	 0.00000000E+00	 0.00000000E+00
	 0.00000000E+00	 0.00000000E+00	 0.00000000E+00
	 0.00000000E+00	 0.00000000E+00	 0.00000000E+00

	 0.00000000E+00	 0.00000000E+00	 0.00000000E+00
	 0.00000000E+00	 0.00000000E+00	 0.00000000E+00
	 0.00000000E+00	 0.00000000E+00	 0.00000000E+00

	 0.00000000E+00	 0.00000000E+00	 0.00000000E+00
	 0.00000000E+00	 0.00000000E+00	 0.00000000E+00
	 0.00000000E+00	 0.00000000E+00	 0.00000000E+00

	 0.00000000E+00	 0.00000000E+00	 0.00000000E+00
	 0.00000000E+00	 0.00000000E+00	 0.00000000E+00
	 0.00000000E+00	 0.00000000E+00	 0.00000000E+00

	 0.00000000E+00	 0.00000000E+00	 0.00000000E+00
	 0.00000000E+00	 0.00000000E+00	 0.00000000E+00
	 0.00000000E+00	 0.00000000E+00	 0.00000000E+00

	 0.00000000E+00	 0.00000000E+00	 0.00000000E+00
	 0.00000000E+00	 0.00000000E+00	 0.00000000E+00
	 0.00000000E+00	 0.00000000E+00	 0.00000000E+00

	 0.00000000E+00	 0.00000000E+00	 0.00000000E+00
	 0.00000000E+00	 0.00000000E+00	 0.00000000E+00
	 0.00000000E+00	 0.00000000E+00	 0.00000000E+00

	 0.00000000E+00	 0.00000000E+00	 0.00000000E+00
	 0.00000000E+00	 0.00000000E+00	 0.00000000E+00
	 0.00000000E+00	 0.00000000E+00	 0.00000000E+00

	 0.00000000E+00	 0.00000000E+00	 0.00000000E+00
	 0.00000000E+00	 0.00000000E+00	 0.00000000E+00
	 0.00000000E+00	 0.00000000E+00	 0.00000000E+00

	 0.00000000E+00	 0.00000000E+00	 0.00000000E+00
	 0.00000000E+00	 0.00000000E+00	 0.00000000E+00
	 0.00000000E+00	 0.00000000E+00	 0.00000000E+00

	 0.00000000E+00	 0.00000000E+00	 0.00000000E+00
	 0.00000000E+00	 0.00000000E+00	 0.00000000E+00
	 0.00000000E+00	 0.00000000E+00	 0.00000000E+00

	 0.00000000E+00	 0.00000000E+00	 0.00000000E+00
	 0.00000000E+00	 0.00000000E+00	 0.00000000E+00
	 0.00000000E+00	 0.00000000E+00	 0.00000000E+00

	 0.00000000E+00	 0.00000000E+00	 0.00000000E+00
	 0.00000000E+00	 0.00000000E+00	 0.00000000E+00
	 0.00000000E+00	 0.00000000E+00	 0.00000000E+00

	 0.00000000E+00	 0.00000000E+00	 0.00000000E+00
	 0.00000000E+00	 0.00000000E+00	 0.00000000E+00
	 0.00000000E+00	 0.00000000E+00	 0.00000000E+00

	 0.00000000E+00	 0.00000000E+00	 0.00000000E+00
	 0.00000000E+00	 0.00000000E+00	 0.00000000E+00
	 0.00000000E+00	 0.00000000E+00	 0.00000000E+00

	 0.00000000E+00	 0.00000000E+00	 0.00000000E+00
	 0.00000000E+00	 0.00000000E+00	 0.00000000E+00
	 0.00000000E+00	 0.00000000E+00	 0.00000000E+00

	 0.00000000E+00	 0.00000000E+00	 0.00000000E+00
	 0.00000000E+00	 0.00000000E+00	 0.00000000E+00
	 0.00000000E+00	 0.00000000E+00	 0.00000000E+00

	 0.00000000E+00	 0.00000000E+00	 0.00000000E+00
	 0.00000000E+00	 0.00000000E+00	 0.00000000E+00
	 0.00000000E+00	 0.00000000E+00	 0.00000000E+00

	 0.00000000E+00	 0.00000000E+00	 0.00000000E+00
	 0.00000000E+00	 0.00000000E+00	 0.00000000E+00
	 0.00000000E+00	 0.00000000E+00	 0.00000000E+00

	 0.00000000E+00	 0.00000000E+00	 0.00000000E+00
	 0.00000000E+00	 0.00000000E+00	 0.00000000E+00
	 0.00000000E+00	 0.00000000E+00	 0.00000000E+00

	 0.00000000E+00	 0.00000000E+00	 0.00000000E+00
	 0.00000000E+00	 0.00000000E+00	 0.00000000E+00
	 0.00000000E+00	 0.00000000E+00	 0.00000000E+00

	 0.00000000E+00	 0.00000000E+00	 0.00000000E+00
	 0.00000000E+00	 0.00000000E+00	 0.00000000E+00
	 0.00000000E+00	 0.00000000E+00	 0.00000000E+00

	 0.00000000E+00	 0.00000000E+00	 0.00000000E+00
	 0.00000000E+00	 0.00000000E+00	 0.00000000E+00
	 0.00000000E+00	 0.00000000E+00	 0.00000000E+00

	 0.00000000E+00	 0.00000000E+00	 0.00000000E+00
	 0.00000000E+00	 0.00000000E+00	 0.00000000E+00
	 0.00000000E+00	 0.00000000E+00	 0.00000000E+00

	 0.00000000E+00	 0.00000000E+00	 0.00000000E+00
	 0.00000000E+00	 0.00000000E+00	 0.00000000E+00
	 0.00000000E+00	 0.00000000E+00	 0.00000000E+00

	 0.00000000E+00	 0.00000000E+00	 0.00000000E+00
	 0.00000000E+00	 0.00000000E+00	 0.00000000E+00
	 0.00000000E+00	 0.00000000E+00	 0.00000000E+00

	 0.00000000E+00	 0.00000000E+00	 0.00000000E+00
	 0.00000000E+00	 0.00000000E+00	 0.00000000E+00
	 0.00000000E+00	 0.00000000E+00	 0.00000000E+00

	 0.00000000E+00	 0.00000000E+00	 0.00000000E+00
	 0.00000000E+00	 0.00000000E+00	 0.00000000E+00
	 0.00000000E+00	 0.00000000E+00	 0.00000000E+00

	 0.00000000E+00	 0.00000000E+00	 0.00000000E+00
	 0.00000000E+00	 0.00000000E+00	 0.00000000E+00
	 0.00000000E+00	 0.00000000E+00	 0.00000000E+00

	 0.00000000E+00	 0.00000000E+00	 0.00000000E+00
	 0.00000000E+00	 0.00000000E+00	 0.00000000E+00
	 0.00000000E+00	 0.00000000E+00	 0.00000000E+00

	 0.00000000E+00	 0.00000000E+00	 0.00000000E+00
	 0.00000000E+00	 0.00000000E+00	 0.00000000E+00
	 0.00000000E+00	 0.00000000E+00	 0.00000000E+00

	 0.00000000E+00	 0.00000000E+00	 0.00000000E+00
	 0.00000000E+00	 0.00000000E+00	 0.00000000E+00
	 0.00000000E+00	 0.00000000E+00	 0.00000000E+00

	 0.00000000E+00	 0.00000000E+00	 0.00000000E+00
	 0.00000000E+00	 0.00000000E+00	 0.00000000E+00
	 0.00000000E+00	 0.00000000E+00	 0.00000000E+00

	 0.00000000E+00	 0.00000000E+00	 0.00000000E+00
	 0.00000000E+00	 0.00000000E+00	 0.00000000E+00
	 0.00000000E+00	 0.00000000E+00	 0.00000000E+00

	 0.00000000E+00	 0.00000000E+00	 0.00000000E+00
	 0.00000000E+00	 0.00000000E+00	 0.00000000E+00
	 0.00000000E+00	 0.00000000E+00	 0.00000000E+00

	 0.00000000E+00	 0.00000000E+00	 0.00000000E+00
	 0.00000000E+00	 0.00000000E+00	 0.00000000E+00
	 0.00000000E+00	 0.00000000E+00	 0.00000000E+00

	 0.00000000E+00	 0.00000000E+00	 0.00000000E+00
	 0.00000000E+00	 0.00000000E+00	 0.00000000E+00
	 0.00000000E+00	 0.00000000E+00	 0.00000000E+00

	 0.00000000E+00	 0.00000000E+00	 0.00000000E+00
	 0.00000000E+00	 0.00000000E+00	 0.00000000E+00
	 0.00000000E+00	 0.00000000E+00	 0.00000000E+00

	 0.00000000E+00	 0.00000000E+00	 0.00000000E+00
	 0.00000000E+00	 0.00000000E+00	 0.00000000E+00
	 0.00000000E+00	 0.00000000E+00	 0.00000000E+00

	 0.00000000E+00	 0.00000000E+00	 0.00000000E+00
	 0.00000000E+00	 0.00000000E+00	 0.00000000E+00
	 0.00000000E+00	 0.00000000E+00	 0.00000000E+00

	 0.00000000E+00	 0.00000000E+00	 0.00000000E+00
	 0.00000000E+00	 0.00000000E+00	 0.00000000E+00
	 0.00000000E+00	 0.00000000E+00	 0.00000000E+00

	 0.00000000E+00	 0.00000000E+00	 0.00000000E+00
	 0.00000000E+00	 0.00000000E+00	 0.00000000E+00
	 0.00000000E+00	 0.00000000E+00	 0.00000000E+00

	 0.00000000E+00	 0.00000000E+00	 0.00000000E+00
	 0.00000000E+00	 0.00000000E+00	 0.00000000E+00
	 0.00000000E+00	 0.00000000E+00	 0.00000000E+00

	 0.00000000E+00	 0.00000000E+00	 0.00000000E+00
	 0.00000000E+00	 0.00000000E+00	 0.00000000E+00
	 0.00000000E+00	 0.00000000E+00	 0.00000000E+00

	 0.00000000E+00	 0.00000000E+00	 0.00000000E+00
	 0.00000000E+00	 0.00000000E+00	 0.00000000E+00
	 0.00000000E+00	 0.00000000E+00	 0.00000000E+00

	 0.00000000E+00	 0.00000000E+00	 0.00000000E+00
	 0.00000000E+00	 0.00000000E+00	 0.00000000E+00
	 0.00000000E+00	 0.00000000E+00	 0.00000000E+00

	 0.00000000E+00	 0.00000000E+00	 0.00000000E+00
	 0.00000000E+00	 0.00000000E+00	 0.00000000E+00
	 0.00000000E+00	 0.00000000E+00	 0.00000000E+00

	 0.00000000E+00	 0.00000000E+00	 0.00000000E+00
	 0.00000000E+00	 0.00000000E+00	 0.00000000E+00
	 0.00000000E+00	 0.00000000E+00	 0.00000000E+00

	 0.00000000E+00	 0.00000000E+00	 0.00000000E+00
	 0.00000000E+00	 0.00000000E+00	 0.00000000E+00
	 0.00000000E+00	 0.00000000E+00	 0.00000000E+00

	 0.00000000E+00	 0.00000000E+00	 0.00000000E+00
	 0.00000000E+00	 0.00000000E+00	 0.00000000E+00
	 0.00000000E+00	 0.00000000E+00	 0.00000000E+00

	 0.00000000E+00	 0.00000000E+00	 0.00000000E+00
	 0.00000000E+00	 0.00000000E+00	 0.00000000E+00
	 0.00000000E+00	 0.00000000E+00	 0.00000000E+00

	 0.00000000E+00	 0.00000000E+00	 0.00000000E+00
	 0.00000000E+00	 0.00000000E+00	 0.00000000E+00
	 0.00000000E+00	 0.00000000E+00	 0.00000000E+00

	 0.00000000E+00	 0.00000000E+00	 0.00000000E+00
	 0.00000000E+00	 0.00000000E+00	 0.00000000E+00
	 0.00000000E+00	 0.00000000E+00	 0.00000000E+00

	 0.00000000E+00	 0.00000000E+00	 0.00000000E+00
	 0.00000000E+00	 0.00000000E+00	 0.00000000E+00
	 0.00000000E+00	 0.00000000E+00	 0.00000000E+00

	 0.00000000E+00	 0.00000000E+00	 0.00000000E+00
	 0.00000000E+00	 0.00000000E+00	 0.00000000E+00
	 0.00000000E+00	 0.00000000E+00	 0.00000000E+00

	 0.00000000E+00	 0.00000000E+00	 0.00000000E+00
	 0.00000000E+00	 0.00000000E+00	 0.00000000E+00
	 0.00000000E+00	 0.00000000E+00	 0.00000000E+00

	 0.00000000E+00	 0.00000000E+00	 0.00000000E+00
	 0.00000000E+00	 0.00000000E+00	 0.00000000E+00
	 0.00000000E+00	 0.00000000E+00	 0.00000000E+00

	 0.00000000E+00	 0.00000000E+00	 0.00000000E+00
	 0.00000000E+00	 0.00000000E+00	 0.00000000E+00
	 0.00000000E+00	 0.00000000E+00	 0.00000000E+00

	 0.00000000E+00	 0.00000000E+00	 0.00000000E+00
	 0.00000000E+00	 0.00000000E+00	 0.00000000E+00
	 0.00000000E+00	 0.00000000E+00	 0.00000000E+00

	 0.00000000E+00	 0.00000000E+00	 0.00000000E+00
	 0.00000000E+00	 0.00000000E+00	 0.00000000E+00
	 0.00000000E+00	 0.00000000E+00	 0.00000000E+00

	 0.00000000E+00	 0.00000000E+00	 0.00000000E+00
	 0.00000000E+00	 0.00000000E+00	 0.00000000E+00
	 0.00000000E+00	 0.00000000E+00	 0.00000000E+00

	 0.00000000E+00	 0.00000000E+00	 0.00000000E+00
	 0.00000000E+00	 0.00000000E+00	 0.00000000E+00
	 0.00000000E+00	 0.00000000E+00	 0.00000000E+00

	 0.00000000E+00	 0.00000000E+00	 0.00000000E+00
	 0.00000000E+00	 0.00000000E+00	 0.00000000E+00
	 0.00000000E+00	 0.00000000E+00	 0.00000000E+00

	 0.00000000E+00	 0.00000000E+00	 0.00000000E+00
	 0.00000000E+00	 0.00000000E+00	 0.00000000E+00
	 0.00000000E+00	 0.00000000E+00	 0.00000000E+00

	 0.00000000E+00	 0.00000000E+00	 0.00000000E+00
	 0.00000000E+00	 0.00000000E+00	 0.00000000E+00
	 0.00000000E+00	 0.00000000E+00	 0.00000000E+00

	 0.00000000E+00	 0.00000000E+00	 0.00000000E+00
	 0.00000000E+00	 0.00000000E+00	 0.00000000E+00
	 0.00000000E+00	 0.00000000E+00	 0.00000000E+00

	 0.00000000E+00	 0.00000000E+00	 0.00000000E+00
	 0.00000000E+00	 0.00000000E+00	 0.00000000E+00
	 0.00000000E+00	 0.00000000E+00	 0.00000000E+00

	 0.00000000E+00	 0.00000000E+00	 0.00000000E+00
	 0.00000000E+00	 0.00000000E+00	 0.00000000E+00
	 0.00000000E+00	 0.00000000E+00	 0.00000000E+00

	 0.00000000E+00	 0.00000000E+00	 0.00000000E+00
	 0.00000000E+00	 0.00000000E+00	 0.00000000E+00
	 0.00000000E+00	 0.00000000E+00	 0.00000000E+00

	 0.00000000E+00	 0.00000000E+00	 0.00000000E+00
	 0.00000000E+00	 0.00000000E+00	 0.00000000E+00
	 0.00000000E+00	 0.00000000E+00	 0.00000000E+00

	 0.00000000E+00	 0.00000000E+00	 0.00000000E+00
	 0.00000000E+00	 0.00000000E+00	 0.00000000E+00
	 0.00000000E+00	 0.00000000E+00	 0.00000000E+00

	 0.00000000E+00	 0.00000000E+00	 0.00000000E+00
	 0.00000000E+00	 0.00000000E+00	 0.00000000E+00
	 0.00000000E+00	 0.00000000E+00	 0.00000000E+00

	 0.00000000E+00	 0.00000000E+00	 0.00000000E+00
	 0.00000000E+00	 0.00000000E+00	 0.00000000E+00
	 0.00000000E+00	 0.00000000E+00	 0.00000000E+00

	 0.00000000E+00	 0.00000000E+00	 0.00000000E+00
	 0.00000000E+00	 0.00000000E+00	 0.00000000E+00
	 0.00000000E+00	 0.00000000E+00	 0.00000000E+00

	 0.00000000E+00	 0.00000000E+00	 0.00000000E+00
	 0.00000000E+00	 0.00000000E+00	 0.00000000E+00
	 0.00000000E+00	 0.00000000E+00	 0.00000000E+00

	 0.00000000E+00	 0.00000000E+00	 0.00000000E+00
	 0.00000000E+00	 0.00000000E+00	 0.00000000E+00
	 0.00000000E+00	 0.00000000E+00	 0.00000000E+00

	 0.00000000E+00	 0.00000000E+00	 0.00000000E+00
	 0.00000000E+00	 0.00000000E+00	 0.00000000E+00
	 0.00000000E+00	 0.00000000E+00	 0.00000000E+00

	 0.00000000E+00	 0.00000000E+00	 0.00000000E+00
	 0.00000000E+00	 0.00000000E+00	 0.00000000E+00
	 0.00000000E+00	 0.00000000E+00	 0.00000000E+00

	 0.00000000E+00	 0.00000000E+00	 0.00000000E+00
	 0.00000000E+00	 0.00000000E+00	 0.00000000E+00
	 0.00000000E+00	 0.00000000E+00	 0.00000000E+00

	 0.00000000E+00	 0.00000000E+00	 0.00000000E+00
	 0.00000000E+00	 0.00000000E+00	 0.00000000E+00
	 0.00000000E+00	 0.00000000E+00	 0.00000000E+00

	 0.00000000E+00	 0.00000000E+00	 0.00000000E+00
	 0.00000000E+00	 0.00000000E+00	 0.00000000E+00
	 0.00000000E+00	 0.00000000E+00	 0.00000000E+00

	 0.00000000E+00	 0.00000000E+00	 0.00000000E+00
	 0.00000000E+00	 0.00000000E+00	 0.00000000E+00
	 0.00000000E+00	 0.00000000E+00	 0.00000000E+00

	 0.00000000E+00	 0.00000000E+00	 0.00000000E+00
	 0.00000000E+00	 0.00000000E+00	 0.00000000E+00
	 0.00000000E+00	 0.00000000E+00	 0.00000000E+00

	 0.00000000E+00	 0.00000000E+00	 0.00000000E+00
	 0.00000000E+00	 0.00000000E+00	 0.00000000E+00
	 0.00000000E+00	 0.00000000E+00	 0.00000000E+00

	 0.00000000E+00	 0.00000000E+00	 0.00000000E+00
	 0.00000000E+00	 0.00000000E+00	 0.00000000E+00
	 0.00000000E+00	 0.00000000E+00	 0.00000000E+00

	 0.00000000E+00	 0.00000000E+00	 0.00000000E+00
	 0.00000000E+00	 0.00000000E+00	 0.00000000E+00
	 0.00000000E+00	 0.00000000E+00	 0.00000000E+00

	 0.00000000E+00	 0.00000000E+00	 0.00000000E+00
	 0.00000000E+00	 0.00000000E+00	 0.00000000E+00
	 0.00000000E+00	 0.00000000E+00	 0.00000000E+00

	 0.00000000E+00	 0.00000000E+00	 0.00000000E+00
	 0.00000000E+00	 0.00000000E+00	 0.00000000E+00
	 0.00000000E+00	 0.00000000E+00	 0.00000000E+00

	 0.00000000E+00	 0.00000000E+00	 0.00000000E+00
	 0.00000000E+00	 0.00000000E+00	 0.00000000E+00
	 0.00000000E+00	 0.00000000E+00	 0.00000000E+00

	 0.00000000E+00	 0.00000000E+00	 0.00000000E+00
	 0.00000000E+00	 0.00000000E+00	 0.00000000E+00
	 0.00000000E+00	 0.00000000E+00	 0.00000000E+00

	 0.00000000E+00	 0.00000000E+00	 0.00000000E+00
	 0.00000000E+00	 0.00000000E+00	 0.00000000E+00
	 0.00000000E+00	 0.00000000E+00	 0.00000000E+00

	 0.00000000E+00	 0.00000000E+00	 0.00000000E+00
	 0.00000000E+00	 0.00000000E+00	 0.00000000E+00
	 0.00000000E+00	 0.00000000E+00	 0.00000000E+00

	 0.00000000E+00	 0.00000000E+00	 0.00000000E+00
	 0.00000000E+00	 0.00000000E+00	 0.00000000E+00
	 0.00000000E+00	 0.00000000E+00	 0.00000000E+00

	 0.00000000E+00	 0.00000000E+00	 0.00000000E+00
	 0.00000000E+00	 0.00000000E+00	 0.00000000E+00
	 0.00000000E+00	 0.00000000E+00	 0.00000000E+00

	 0.00000000E+00	 0.00000000E+00	 0.00000000E+00
	 0.00000000E+00	 0.00000000E+00	 0.00000000E+00
	 0.00000000E+00	 0.00000000E+00	 0.00000000E+00

	 0.00000000E+00	 0.00000000E+00	 0.00000000E+00
	 0.00000000E+00	 0.00000000E+00	 0.00000000E+00
	 0.00000000E+00	 0.00000000E+00	 0.00000000E+00

	 0.00000000E+00	 0.00000000E+00	 0.00000000E+00
	 0.00000000E+00	 0.00000000E+00	 0.00000000E+00
	 0.00000000E+00	 0.00000000E+00	 0.00000000E+00

	 0.00000000E+00	 0.00000000E+00	 0.00000000E+00
	 0.00000000E+00	 0.00000000E+00	 0.00000000E+00
	 0.00000000E+00	 0.00000000E+00	 0.00000000E+00

	 0.00000000E+00	 0.00000000E+00	 0.00000000E+00
	 0.00000000E+00	 0.00000000E+00	 0.00000000E+00
	 0.00000000E+00	 0.00000000E+00	 0.00000000E+00

	 0.00000000E+00	 0.00000000E+00	 0.00000000E+00
	 0.00000000E+00	 0.00000000E+00	 0.00000000E+00
	 0.00000000E+00	 0.00000000E+00	 0.00000000E+00

	 0.00000000E+00	 0.00000000E+00	 0.00000000E+00
	 0.00000000E+00	 0.00000000E+00	 0.00000000E+00
	 0.00000000E+00	 0.00000000E+00	 0.00000000E+00

	 0.00000000E+00	 0.00000000E+00	 0.00000000E+00
	 0.00000000E+00	 0.00000000E+00	 0.00000000E+00
	 0.00000000E+00	 0.00000000E+00	 0.00000000E+00

	 0.00000000E+00	 0.00000000E+00	 0.00000000E+00
	 0.00000000E+00	 0.00000000E+00	 0.00000000E+00
	 0.00000000E+00	 0.00000000E+00	 0.00000000E+00

	 0.00000000E+00	 0.00000000E+00	 0.00000000E+00
	 0.00000000E+00	 0.00000000E+00	 0.00000000E+00
	 0.00000000E+00	 0.00000000E+00	 0.00000000E+00

	 0.00000000E+00	 0.00000000E+00	 0.00000000E+00
	 0.00000000E+00	 0.00000000E+00	 0.00000000E+00
	 0.00000000E+00	 0.00000000E+00	 0.00000000E+00

	 0.00000000E+00	 0.00000000E+00	 0.00000000E+00
	 0.00000000E+00	 0.00000000E+00	 0.00000000E+00
	 0.00000000E+00	 0.00000000E+00	 0.00000000E+00

	 0.00000000E+00	 0.00000000E+00	 0.00000000E+00
	 0.00000000E+00	 0.00000000E+00	 0.00000000E+00
	 0.00000000E+00	 0.00000000E+00	 0.00000000E+00

	 0.00000000E+00	 0.00000000E+00	 0.00000000E+00
	 0.00000000E+00	 0.00000000E+00	 0.00000000E+00
	 0.00000000E+00	 0.00000000E+00	 0.00000000E+00

	 0.00000000E+00	 0.00000000E+00	 0.00000000E+00
	 0.00000000E+00	 0.00000000E+00	 0.00000000E+00
	 0.00000000E+00	 0.00000000E+00	 0.00000000E+00

	 0.00000000E+00	 0.00000000E+00	 0.00000000E+00
	 0.00000000E+00	 0.00000000E+00	 0.00000000E+00
	 0.00000000E+00	 0.00000000E+00	 0.00000000E+00

	 0.00000000E+00	 0.00000000E+00	 0.00000000E+00
	 0.00000000E+00	 0.00000000E+00	 0.00000000E+00
	 0.00000000E+00	 0.00000000E+00	 0.00000000E+00

	 0.00000000E+00	 0.00000000E+00	 0.00000000E+00
	 0.00000000E+00	 0.00000000E+00	 0.00000000E+00
	 0.00000000E+00	 0.00000000E+00	 0.00000000E+00

	 0.00000000E+00	 0.00000000E+00	 0.00000000E+00
	 0.00000000E+00	 0.00000000E+00	 0.00000000E+00
	 0.00000000E+00	 0.00000000E+00	 0.00000000E+00

	 0.00000000E+00	 0.00000000E+00	 0.00000000E+00
	 0.00000000E+00	 0.00000000E+00	 0.00000000E+00
	 0.00000000E+00	 0.00000000E+00	 0.00000000E+00

	 0.00000000E+00	 0.00000000E+00	 0.00000000E+00
	 0.00000000E+00	 0.00000000E+00	 0.00000000E+00
	 0.00000000E+00	 0.00000000E+00	 0.00000000E+00

	 0.00000000E+00	 0.00000000E+00	 0.00000000E+00
	 0.00000000E+00	 0.00000000E+00	 0.00000000E+00
	 0.00000000E+00	 0.00000000E+00	 0.00000000E+00

	 0.00000000E+00	 0.00000000E+00	 0.00000000E+00
	 0.00000000E+00	 0.00000000E+00	 0.00000000E+00
	 0.00000000E+00	 0.00000000E+00	 0.00000000E+00

	 0.00000000E+00	 0.00000000E+00	 0.00000000E+00
	 0.00000000E+00	 0.00000000E+00	 0.00000000E+00
	 0.00000000E+00	 0.00000000E+00	 0.00000000E+00

	 0.00000000E+00	 0.00000000E+00	 0.00000000E+00
	 0.00000000E+00	 0.00000000E+00	 0.00000000E+00
	 0.00000000E+00	 0.00000000E+00	 0.00000000E+00

	 0.00000000E+00	 0.00000000E+00	 0.00000000E+00
	 0.00000000E+00	 0.00000000E+00	 0.00000000E+00
	 0.00000000E+00	 0.00000000E+00	 0.00000000E+00

	 0.00000000E+00	 0.00000000E+00	 0.00000000E+00
	 0.00000000E+00	 0.00000000E+00	 0.00000000E+00
	 0.00000000E+00	 0.00000000E+00	 0.00000000E+00

	 0.00000000E+00	 0.00000000E+00	 0.00000000E+00
	 0.00000000E+00	 0.00000000E+00	 0.00000000E+00
	 0.00000000E+00	 0.00000000E+00	 0.00000000E+00

	 0.00000000E+00	 0.00000000E+00	 0.00000000E+00
	 0.00000000E+00	 0.00000000E+00	 0.00000000E+00
	 0.00000000E+00	 0.00000000E+00	 0.00000000E+00

	 0.00000000E+00	 0.00000000E+00	 0.00000000E+00
	 0.00000000E+00	 0.00000000E+00	 0.00000000E+00
	 0.00000000E+00	 0.00000000E+00	 0.00000000E+00

	 0.00000000E+00	 0.00000000E+00	 0.00000000E+00
	 0.00000000E+00	 0.00000000E+00	 0.00000000E+00
	 0.00000000E+00	 0.00000000E+00	 0.00000000E+00

	 0.00000000E+00	 0.00000000E+00	 0.00000000E+00
	 0.00000000E+00	 0.00000000E+00	 0.00000000E+00
	 0.00000000E+00	 0.00000000E+00	 0.00000000E+00

	 0.00000000E+00	 0.00000000E+00	 0.00000000E+00
	 0.00000000E+00	 0.00000000E+00	 0.00000000E+00
	 0.00000000E+00	 0.00000000E+00	 0.00000000E+00

	 0.00000000E+00	 0.00000000E+00	 0.00000000E+00
	 0.00000000E+00	 0.00000000E+00	 0.00000000E+00
	 0.00000000E+00	 0.00000000E+00	 0.00000000E+00

	 0.00000000E+00	 0.00000000E+00	 0.00000000E+00
	 0.00000000E+00	 0.00000000E+00	 0.00000000E+00
	 0.00000000E+00	 0.00000000E+00	 0.00000000E+00

	 0.00000000E+00	 0.00000000E+00	 0.00000000E+00
	 0.00000000E+00	 0.00000000E+00	 0.00000000E+00
	 0.00000000E+00	 0.00000000E+00	 0.00000000E+00

	 0.00000000E+00	 0.00000000E+00	 0.00000000E+00
	 0.00000000E+00	 0.00000000E+00	 0.00000000E+00
	 0.00000000E+00	 0.00000000E+00	 0.00000000E+00

	 0.00000000E+00	 0.00000000E+00	 0.00000000E+00
	 0.00000000E+00	 0.00000000E+00	 0.00000000E+00
	 0.00000000E+00	 0.00000000E+00	 0.00000000E+00

	 0.00000000E+00	 0.00000000E+00	 0.00000000E+00
	 0.00000000E+00	 0.00000000E+00	 0.00000000E+00
	 0.00000000E+00	 0.00000000E+00	 0.00000000E+00

	 0.00000000E+00	 0.00000000E+00	 0.00000000E+00
	 0.00000000E+00	 0.00000000E+00	 0.00000000E+00
	 0.00000000E+00	 0.00000000E+00	 0.00000000E+00

	 0.00000000E+00	 0.00000000E+00	 0.00000000E+00
	 0.00000000E+00	 0.00000000E+00	 0.00000000E+00
	 0.00000000E+00	 0.00000000E+00	 0.00000000E+00

	 0.00000000E+00	 0.00000000E+00	 0.00000000E+00
	 0.00000000E+00	 0.00000000E+00	 0.00000000E+00
	 0.00000000E+00	 0.00000000E+00	 0.00000000E+00

	 0.00000000E+00	 0.00000000E+00	 0.00000000E+00
	 0.00000000E+00	 0.00000000E+00	 0.00000000E+00
	 0.00000000E+00	 0.00000000E+00	 0.00000000E+00

	 0.00000000E+00	 0.00000000E+00	 0.00000000E+00
	 0.00000000E+00	 0.00000000E+00	 0.00000000E+00
	 0.00000000E+00	 0.00000000E+00	 0.00000000E+00

	 0.00000000E+00	 0.00000000E+00	 0.00000000E+00
	 0.00000000E+00	 0.00000000E+00	 0.00000000E+00
	 0.00000000E+00	 0.00000000E+00	 0.00000000E+00

	 0.00000000E+00	 0.00000000E+00	 0.00000000E+00
	 0.00000000E+00	 0.00000000E+00	 0.00000000E+00
	 0.00000000E+00	 0.00000000E+00	 0.00000000E+00

	 0.00000000E+00	 0.00000000E+00	 0.00000000E+00
	 0.00000000E+00	 0.00000000E+00	 0.00000000E+00
	 0.00000000E+00	 0.00000000E+00	 0.00000000E+00

	 0.00000000E+00	 0.00000000E+00	 0.00000000E+00
	 0.00000000E+00	 0.00000000E+00	 0.00000000E+00
	 0.00000000E+00	 0.00000000E+00	 0.00000000E+00

	 0.00000000E+00	 0.00000000E+00	 0.00000000E+00
	 0.00000000E+00	 0.00000000E+00	 0.00000000E+00
	 0.00000000E+00	 0.00000000E+00	 0.00000000E+00

	 0.00000000E+00	 0.00000000E+00	 0.00000000E+00
	 0.00000000E+00	 0.00000000E+00	 0.00000000E+00
	 0.00000000E+00	 0.00000000E+00	 0.00000000E+00

	 0.00000000E+00	 0.00000000E+00	 0.00000000E+00
	 0.00000000E+00	 0.00000000E+00	 0.00000000E+00
	 0.00000000E+00	 0.00000000E+00	 0.00000000E+00

	 0.00000000E+00	 0.00000000E+00	 0.00000000E+00
	 0.00000000E+00	 0.00000000E+00	 0.00000000E+00
	 0.00000000E+00	 0.00000000E+00	 0.00000000E+00

	 0.00000000E+00	 0.00000000E+00	 0.00000000E+00
	 0.00000000E+00	 0.00000000E+00	 0.00000000E+00
	 0.00000000E+00	 0.00000000E+00	 0.00000000E+00

	 0.00000000E+00	 0.00000000E+00	 0.00000000E+00
	 0.00000000E+00	 0.00000000E+00	 0.00000000E+00
	 0.00000000E+00	 0.00000000E+00	 0.00000000E+00

	 0.00000000E+00	 0.00000000E+00	 0.00000000E+00
	 0.00000000E+00	 0.00000000E+00	 0.00000000E+00
	 0.00000000E+00	 0.00000000E+00	 0.00000000E+00

	 0.00000000E+00	 0.00000000E+00	 0.00000000E+00
	 0.00000000E+00	 0.00000000E+00	 0.00000000E+00
	 0.00000000E+00	 0.00000000E+00	 0.00000000E+00

	 0.00000000E+00	 0.00000000E+00	 0.00000000E+00
	 0.00000000E+00	 0.00000000E+00	 0.00000000E+00
	 0.00000000E+00	 0.00000000E+00	 0.00000000E+00

	 0.00000000E+00	 0.00000000E+00	 0.00000000E+00
	 0.00000000E+00	 0.00000000E+00	 0.00000000E+00
	 0.00000000E+00	 0.00000000E+00	 0.00000000E+00

	 0.00000000E+00	 0.00000000E+00	 0.00000000E+00
	 0.00000000E+00	 0.00000000E+00	 0.00000000E+00
	 0.00000000E+00	 0.00000000E+00	 0.00000000E+00

	 0.00000000E+00	 0.00000000E+00	 0.00000000E+00
	 0.00000000E+00	 0.00000000E+00	 0.00000000E+00
	 0.00000000E+00	 0.00000000E+00	 0.00000000E+00

	 0.00000000E+00	 0.00000000E+00	 0.00000000E+00
	 0.00000000E+00	 0.00000000E+00	 0.00000000E+00
	 0.00000000E+00	 0.00000000E+00	 0.00000000E+00

	 0.00000000E+00	 0.00000000E+00	 0.00000000E+00
	 0.00000000E+00	 0.00000000E+00	 0.00000000E+00
	 0.00000000E+00	 0.00000000E+00	 0.00000000E+00

	 0.00000000E+00	 0.00000000E+00	 0.00000000E+00
	 0.00000000E+00	 0.00000000E+00	 0.00000000E+00
	 0.00000000E+00	 0.00000000E+00	 0.00000000E+00

	 0.00000000E+00	 0.00000000E+00	 0.00000000E+00
	 0.00000000E+00	 0.00000000E+00	 0.00000000E+00
	 0.00000000E+00	 0.00000000E+00	 0.00000000E+00

	 0.00000000E+00	 0.00000000E+00	 0.00000000E+00
	 0.00000000E+00	 0.00000000E+00	 0.00000000E+00
	 0.00000000E+00	 0.00000000E+00	 0.00000000E+00

	 0.00000000E+00	 0.00000000E+00	 0.00000000E+00
	 0.00000000E+00	 0.00000000E+00	 0.00000000E+00
	 0.00000000E+00	 0.00000000E+00	 0.00000000E+00

	 0.00000000E+00	 0.00000000E+00	 0.00000000E+00
	 0.00000000E+00	 0.00000000E+00	 0.00000000E+00
	 0.00000000E+00	 0.00000000E+00	 0.00000000E+00

	 0.00000000E+00	 0.00000000E+00	 0.00000000E+00
	 0.00000000E+00	 0.00000000E+00	 0.00000000E+00
	 0.00000000E+00	 0.00000000E+00	 0.00000000E+00

	 0.00000000E+00	 0.00000000E+00	 0.00000000E+00
	 0.00000000E+00	 0.00000000E+00	 0.00000000E+00
	 0.00000000E+00	 0.00000000E+00	 0.00000000E+00

	 0.00000000E+00	 0.00000000E+00	 0.00000000E+00
	 0.00000000E+00	 0.00000000E+00	 0.00000000E+00
	 0.00000000E+00	 0.00000000E+00	 0.00000000E+00

	 0.00000000E+00	 0.00000000E+00	 0.00000000E+00
	 0.00000000E+00	 0.00000000E+00	 0.00000000E+00
	 0.00000000E+00	 0.00000000E+00	 0.00000000E+00

	 0.00000000E+00	 0.00000000E+00	 0.00000000E+00
	 0.00000000E+00	 0.00000000E+00	 0.00000000E+00
	 0.00000000E+00	 0.00000000E+00	 0.00000000E+00

	 0.00000000E+00	 0.00000000E+00	 0.00000000E+00
	 0.00000000E+00	 0.00000000E+00	 0.00000000E+00
	 0.00000000E+00	 0.00000000E+00	 0.00000000E+00

	 0.00000000E+00	 0.00000000E+00	 0.00000000E+00
	 0.00000000E+00	 0.00000000E+00	 0.00000000E+00
	 0.00000000E+00	 0.00000000E+00	 0.00000000E+00

	 0.00000000E+00	 0.00000000E+00	 0.00000000E+00
	 0.00000000E+00	 0.00000000E+00	 0.00000000E+00
	 0.00000000E+00	 0.00000000E+00	 0.00000000E+00

	 0.00000000E+00	 0.00000000E+00	 0.00000000E+00
	 0.00000000E+00	 0.00000000E+00	 0.00000000E+00
	 0.00000000E+00	 0.00000000E+00	 0.00000000E+00

	 0.00000000E+00	 0.00000000E+00	 0.00000000E+00
	 0.00000000E+00	 0.00000000E+00	 0.00000000E+00
	 0.00000000E+00	 0.00000000E+00	 0.00000000E+00

	 0.00000000E+00	 0.00000000E+00	 0.00000000E+00
	 0.00000000E+00	 0.00000000E+00	 0.00000000E+00
	 0.00000000E+00	 0.00000000E+00	 0.00000000E+00

	 0.00000000E+00	 0.00000000E+00	 0.00000000E+00
	 0.00000000E+00	 0.00000000E+00	 0.00000000E+00
	 0.00000000E+00	 0.00000000E+00	 0.00000000E+00

	 0.00000000E+00	 0.00000000E+00	 0.00000000E+00
	 0.00000000E+00	 0.00000000E+00	 0.00000000E+00
	 0.00000000E+00	 0.00000000E+00	 0.00000000E+00

	 0.00000000E+00	 0.00000000E+00	 0.00000000E+00
	 0.00000000E+00	 0.00000000E+00	 0.00000000E+00
	 0.00000000E+00	 0.00000000E+00	 0.00000000E+00

	 0.00000000E+00	 0.00000000E+00	 0.00000000E+00
	 0.00000000E+00	 0.00000000E+00	 0.00000000E+00
	 0.00000000E+00	 0.00000000E+00	 0.00000000E+00

	 0.00000000E+00	 0.00000000E+00	 0.00000000E+00
	 0.00000000E+00	 0.00000000E+00	 0.00000000E+00
	 0.00000000E+00	 0.00000000E+00	 0.00000000E+00

	 0.00000000E+00	 0.00000000E+00	 0.00000000E+00
	 0.00000000E+00	 0.00000000E+00	 0.00000000E+00
	 0.00000000E+00	 0.00000000E+00	 0.00000000E+00

	 0.00000000E+00	 0.00000000E+00	 0.00000000E+00
	 0.00000000E+00	 0.00000000E+00	 0.00000000E+00
	 0.00000000E+00	 0.00000000E+00	 0.00000000E+00

	 0.00000000E+00	 0.00000000E+00	 0.00000000E+00
	 0.00000000E+00	 0.00000000E+00	 0.00000000E+00
	 0.00000000E+00	 0.00000000E+00	 0.00000000E+00

	 0.00000000E+00	 0.00000000E+00	 0.00000000E+00
	 0.00000000E+00	 0.00000000E+00	 0.00000000E+00
	 0.00000000E+00	 0.00000000E+00	 0.00000000E+00

	 0.00000000E+00	 0.00000000E+00	 0.00000000E+00
	 0.00000000E+00	 0.00000000E+00	 0.00000000E+00
	 0.00000000E+00	 0.00000000E+00	 0.00000000E+00

	 0.00000000E+00	 0.00000000E+00	 0.00000000E+00
	 0.00000000E+00	 0.00000000E+00	 0.00000000E+00
	 0.00000000E+00	 0.00000000E+00	 0.00000000E+00

	 0.00000000E+00	 0.00000000E+00	 0.00000000E+00
	 0.00000000E+00	 0.00000000E+00	 0.00000000E+00
	 0.00000000E+00	 0.00000000E+00	 0.00000000E+00

	 0.00000000E+00	 0.00000000E+00	 0.00000000E+00
	 0.00000000E+00	 0.00000000E+00	 0.00000000E+00
	 0.00000000E+00	 0.00000000E+00	 0.00000000E+00

	 0.00000000E+00	 0.00000000E+00	 0.00000000E+00
	 0.00000000E+00	 0.00000000E+00	 0.00000000E+00
	 0.00000000E+00	 0.00000000E+00	 0.00000000E+00

	 0.00000000E+00	 0.00000000E+00	 0.00000000E+00
	 0.00000000E+00	 0.00000000E+00	 0.00000000E+00
	 0.00000000E+00	 0.00000000E+00	 0.00000000E+00

	 0.00000000E+00	 0.00000000E+00	 0.00000000E+00
	 0.00000000E+00	 0.00000000E+00	 0.00000000E+00
	 0.00000000E+00	 0.00000000E+00	 0.00000000E+00

	 0.00000000E+00	 0.00000000E+00	 0.00000000E+00
	 0.00000000E+00	 0.00000000E+00	 0.00000000E+00
	 0.00000000E+00	 0.00000000E+00	 0.00000000E+00

	 0.00000000E+00	 0.00000000E+00	 0.00000000E+00
	 0.00000000E+00	 0.00000000E+00	 0.00000000E+00
	 0.00000000E+00	 0.00000000E+00	 0.00000000E+00

	 0.00000000E+00	 0.00000000E+00	 0.00000000E+00
	 0.00000000E+00	 0.00000000E+00	 0.00000000E+00
	 0.00000000E+00	 0.00000000E+00	 0.00000000E+00

	 0.00000000E+00	 0.00000000E+00	 0.00000000E+00
	 0.00000000E+00	 0.00000000E+00	 0.00000000E+00
	 0.00000000E+00	 0.00000000E+00	 0.00000000E+00

	 0.00000000E+00	 0.00000000E+00	 0.00000000E+00
	 0.00000000E+00	 0.00000000E+00	 0.00000000E+00
	 0.00000000E+00	 0.00000000E+00	 0.00000000E+00

	 0.00000000E+00	 0.00000000E+00	 0.00000000E+00
	 0.00000000E+00	 0.00000000E+00	 0.00000000E+00
	 0.00000000E+00	 0.00000000E+00	 0.00000000E+00

	 0.00000000E+00	 0.00000000E+00	 0.00000000E+00
	 0.00000000E+00	 0.00000000E+00	 0.00000000E+00
	 0.00000000E+00	 0.00000000E+00	 0.00000000E+00

	 0.00000000E+00	 0.00000000E+00	 0.00000000E+00
	 0.00000000E+00	 0.00000000E+00	 0.00000000E+00
	 0.00000000E+00	 0.00000000E+00	 0.00000000E+00

	 0.00000000E+00	 0.00000000E+00	 0.00000000E+00
	 0.00000000E+00	 0.00000000E+00	 0.00000000E+00
	 0.00000000E+00	 0.00000000E+00	 0.00000000E+00

	 0.00000000E+00	 0.00000000E+00	 0.00000000E+00
	 0.00000000E+00	 0.00000000E+00	 0.00000000E+00
	 0.00000000E+00	 0.00000000E+00	 0.00000000E+00

	 0.00000000E+00	 0.00000000E+00	 0.00000000E+00
	 0.00000000E+00	 0.00000000E+00	 0.00000000E+00
	 0.00000000E+00	 0.00000000E+00	 0.00000000E+00

	 0.00000000E+00	 0.00000000E+00	 0.00000000E+00
	 0.00000000E+00	 0.00000000E+00	 0.00000000E+00
	 0.00000000E+00	 0.00000000E+00	 0.00000000E+00

	 0.00000000E+00	 0.00000000E+00	 0.00000000E+00
	 0.00000000E+00	 0.00000000E+00	 0.00000000E+00
	 0.00000000E+00	 0.00000000E+00	 0.00000000E+00

	 0.00000000E+00	 0.00000000E+00	 0.00000000E+00
	 0.00000000E+00	 0.00000000E+00	 0.00000000E+00
	 0.00000000E+00	 0.00000000E+00	 0.00000000E+00

	 0.00000000E+00	 0.00000000E+00	 0.00000000E+00
	 0.00000000E+00	 0.00000000E+00	 0.00000000E+00
	 0.00000000E+00	 0.00000000E+00	 0.00000000E+00

	 0.00000000E+00	 0.00000000E+00	 0.00000000E+00
	 0.00000000E+00	 0.00000000E+00	 0.00000000E+00
	 0.00000000E+00	 0.00000000E+00	 0.00000000E+00

	 0.00000000E+00	 0.00000000E+00	 0.00000000E+00
	 0.00000000E+00	 0.00000000E+00	 0.00000000E+00
	 0.00000000E+00	 0.00000000E+00	 0.00000000E+00

	 0.00000000E+00	 0.00000000E+00	 0.00000000E+00
	 0.00000000E+00	 0.00000000E+00	 0.00000000E+00
	 0.00000000E+00	 0.00000000E+00	 0.00000000E+00

	 0.00000000E+00	 0.00000000E+00	 0.00000000E+00
	 0.00000000E+00	 0.00000000E+00	 0.00000000E+00
	 0.00000000E+00	 0.00000000E+00	 0.00000000E+00

	 0.00000000E+00	 0.00000000E+00	 0.00000000E+00
	 0.00000000E+00	 0.00000000E+00	 0.00000000E+00
	 0.00000000E+00	 0.00000000E+00	 0.00000000E+00

	 0.00000000E+00	 0.00000000E+00	 0.00000000E+00
	 0.00000000E+00	 0.00000000E+00	 0.00000000E+00
	 0.00000000E+00	 0.00000000E+00	 0.00000000E+00

	 0.00000000E+00	 0.00000000E+00	 0.00000000E+00
	 0.00000000E+00	 0.00000000E+00	 0.00000000E+00
	 0.00000000E+00	 0.00000000E+00	 0.00000000E+00

	 0.00000000E+00	 0.00000000E+00	 0.00000000E+00
	 0.00000000E+00	 0.00000000E+00	 0.00000000E+00
	 0.00000000E+00	 0.00000000E+00	 0.00000000E+00

	 0.00000000E+00	 0.00000000E+00	 0.00000000E+00
	 0.00000000E+00	 0.00000000E+00	 0.00000000E+00
	 0.00000000E+00	 0.00000000E+00	 0.00000000E+00

	 0.00000000E+00	 0.00000000E+00	 0.00000000E+00
	 0.00000000E+00	 0.00000000E+00	 0.00000000E+00
	 0.00000000E+00	 0.00000000E+00	 0.00000000E+00

	 0.00000000E+00	 0.00000000E+00	 0.00000000E+00
	 0.00000000E+00	 0.00000000E+00	 0.00000000E+00
	 0.00000000E+00	 0.00000000E+00	 0.00000000E+00

	 0.00000000E+00	 0.00000000E+00	 0.00000000E+00
	 0.00000000E+00	 0.00000000E+00	 0.00000000E+00
	 0.00000000E+00	 0.00000000E+00	 0.00000000E+00

	 0.00000000E+00	 0.00000000E+00	 0.00000000E+00
	 0.00000000E+00	 0.00000000E+00	 0.00000000E+00
	 0.00000000E+00	 0.00000000E+00	 0.00000000E+00

	 0.00000000E+00	 0.00000000E+00	 0.00000000E+00
	 0.00000000E+00	 0.00000000E+00	 0.00000000E+00
	 0.00000000E+00	 0.00000000E+00	 0.00000000E+00

	 0.00000000E+00	 0.00000000E+00	 0.00000000E+00
	 0.00000000E+00	 0.00000000E+00	 0.00000000E+00
	 0.00000000E+00	 0.00000000E+00	 0.00000000E+00

	 0.00000000E+00	 0.00000000E+00	 0.00000000E+00
	 0.00000000E+00	 0.00000000E+00	 0.00000000E+00
	 0.00000000E+00	 0.00000000E+00	 0.00000000E+00

	 0.00000000E+00	 0.00000000E+00	 0.00000000E+00
	 0.00000000E+00	 0.00000000E+00	 0.00000000E+00
	 0.00000000E+00	 0.00000000E+00	 0.00000000E+00

	 0.00000000E+00	 0.00000000E+00	 0.00000000E+00
	 0.00000000E+00	 0.00000000E+00	 0.00000000E+00
	 0.00000000E+00	 0.00000000E+00	 0.00000000E+00

	 0.00000000E+00	 0.00000000E+00	 0.00000000E+00
	 0.00000000E+00	 0.00000000E+00	 0.00000000E+00
	 0.00000000E+00	 0.00000000E+00	 0.00000000E+00

	 0.00000000E+00	 0.00000000E+00	 0.00000000E+00
	 0.00000000E+00	 0.00000000E+00	 0.00000000E+00
	 0.00000000E+00	 0.00000000E+00	 0.00000000E+00

	 0.00000000E+00	 0.00000000E+00	 0.00000000E+00
	 0.00000000E+00	 0.00000000E+00	 0.00000000E+00
	 0.00000000E+00	 0.00000000E+00	 0.00000000E+00

	 0.00000000E+00	 0.00000000E+00	 0.00000000E+00
	 0.00000000E+00	 0.00000000E+00	 0.00000000E+00
	 0.00000000E+00	 0.00000000E+00	 0.00000000E+00

	 0.00000000E+00	 0.00000000E+00	 0.00000000E+00
	 0.00000000E+00	 0.00000000E+00	 0.00000000E+00
	 0.00000000E+00	 0.00000000E+00	 0.00000000E+00

	 0.00000000E+00	 0.00000000E+00	 0.00000000E+00
	 0.00000000E+00	 0.00000000E+00	 0.00000000E+00
	 0.00000000E+00	 0.00000000E+00	 0.00000000E+00

	 0.00000000E+00	 0.00000000E+00	 0.00000000E+00
	 0.00000000E+00	 0.00000000E+00	 0.00000000E+00
	 0.00000000E+00	 0.00000000E+00	 0.00000000E+00

	 0.00000000E+00	 0.00000000E+00	 0.00000000E+00
	 0.00000000E+00	 0.00000000E+00	 0.00000000E+00
	 0.00000000E+00	 0.00000000E+00	 0.00000000E+00

	 0.00000000E+00	 0.00000000E+00	 0.00000000E+00
	 0.00000000E+00	 0.00000000E+00	 0.00000000E+00
	 0.00000000E+00	 0.00000000E+00	 0.00000000E+00

	 0.00000000E+00	 0.00000000E+00	 0.00000000E+00
	 0.00000000E+00	 0.00000000E+00	 0.00000000E+00
	 0.00000000E+00	 0.00000000E+00	 0.00000000E+00

	 0.00000000E+00	 0.00000000E+00	 0.00000000E+00
	 0.00000000E+00	 0.00000000E+00	 0.00000000E+00
	 0.00000000E+00	 0.00000000E+00	 0.00000000E+00

	 0.00000000E+00	 0.00000000E+00	 0.00000000E+00
	 0.00000000E+00	 0.00000000E+00	 0.00000000E+00
	 0.00000000E+00	 0.00000000E+00	 0.00000000E+00

	 0.00000000E+00	 0.00000000E+00	 0.00000000E+00
	 0.00000000E+00	 0.00000000E+00	 0.00000000E+00
	 0.00000000E+00	 0.00000000E+00	 0.00000000E+00

	 0.00000000E+00	 0.00000000E+00	 0.00000000E+00
	 0.00000000E+00	 0.00000000E+00	 0.00000000E+00
	 0.00000000E+00	 0.00000000E+00	 0.00000000E+00

	 0.00000000E+00	 0.00000000E+00	 0.00000000E+00
	 0.00000000E+00	 0.00000000E+00	 0.00000000E+00
	 0.00000000E+00	 0.00000000E+00	 0.00000000E+00

	 0.00000000E+00	 0.00000000E+00	 0.00000000E+00
	 0.00000000E+00	 0.00000000E+00	 0.00000000E+00
	 0.00000000E+00	 0.00000000E+00	 0.00000000E+00

	 0.00000000E+00	 0.00000000E+00	 0.00000000E+00
	 0.00000000E+00	 0.00000000E+00	 0.00000000E+00
	 0.00000000E+00	 0.00000000E+00	 0.00000000E+00

	 0.00000000E+00	 0.00000000E+00	 0.00000000E+00
	 0.00000000E+00	 0.00000000E+00	 0.00000000E+00
	 0.00000000E+00	 0.00000000E+00	 0.00000000E+00

	 0.00000000E+00	 0.00000000E+00	 0.00000000E+00
	 0.00000000E+00	 0.00000000E+00	 0.00000000E+00
	 0.00000000E+00	 0.00000000E+00	 0.00000000E+00

	 0.00000000E+00	 0.00000000E+00	 0.00000000E+00
	 0.00000000E+00	 0.00000000E+00	 0.00000000E+00
	 0.00000000E+00	 0.00000000E+00	 0.00000000E+00

	 0.00000000E+00	 0.00000000E+00	 0.00000000E+00
	 0.00000000E+00	 0.00000000E+00	 0.00000000E+00
	 0.00000000E+00	 0.00000000E+00	 0.00000000E+00

	 0.00000000E+00	 0.00000000E+00	 0.00000000E+00
	 0.00000000E+00	 0.00000000E+00	 0.00000000E+00
	 0.00000000E+00	 0.00000000E+00	 0.00000000E+00

	 0.00000000E+00	 0.00000000E+00	 0.00000000E+00
	 0.00000000E+00	 0.00000000E+00	 0.00000000E+00
	 0.00000000E+00	 0.00000000E+00	 0.00000000E+00

	 0.00000000E+00	 0.00000000E+00	 0.00000000E+00
	 0.00000000E+00	 0.00000000E+00	 0.00000000E+00
	 0.00000000E+00	 0.00000000E+00	 0.00000000E+00

	 0.00000000E+00	 0.00000000E+00	 0.00000000E+00
	 0.00000000E+00	 0.00000000E+00	 0.00000000E+00
	 0.00000000E+00	 0.00000000E+00	 0.00000000E+00

	 0.00000000E+00	 0.00000000E+00	 0.00000000E+00
	 0.00000000E+00	 0.00000000E+00	 0.00000000E+00
	 0.00000000E+00	 0.00000000E+00	 0.00000000E+00

	 0.00000000E+00	 0.00000000E+00	 0.00000000E+00
	 0.00000000E+00	 0.00000000E+00	 0.00000000E+00
	 0.00000000E+00	 0.00000000E+00	 0.00000000E+00

	 0.00000000E+00	 0.00000000E+00	 0.00000000E+00
	 0.00000000E+00	 0.00000000E+00	 0.00000000E+00
	 0.00000000E+00	 0.00000000E+00	 0.00000000E+00

	 0.00000000E+00	 0.00000000E+00	 0.00000000E+00
	 0.00000000E+00	 0.00000000E+00	 0.00000000E+00
	 0.00000000E+00	 0.00000000E+00	 0.00000000E+00

	 0.00000000E+00	 0.00000000E+00	 0.00000000E+00
	 0.00000000E+00	 0.00000000E+00	 0.00000000E+00
	 0.00000000E+00	 0.00000000E+00	 0.00000000E+00

	 0.00000000E+00	 0.00000000E+00	 0.00000000E+00
	 0.00000000E+00	 0.00000000E+00	 0.00000000E+00
	 0.00000000E+00	 0.00000000E+00	 0.00000000E+00

	 0.00000000E+00	 0.00000000E+00	 0.00000000E+00
	 0.00000000E+00	 0.00000000E+00	 0.00000000E+00
	 0.00000000E+00	 0.00000000E+00	 0.00000000E+00

	 0.00000000E+00	 0.00000000E+00	 0.00000000E+00
	 0.00000000E+00	 0.00000000E+00	 0.00000000E+00
	 0.00000000E+00	 0.00000000E+00	 0.00000000E+00

	 0.00000000E+00	 0.00000000E+00	 0.00000000E+00
	 0.00000000E+00	 0.00000000E+00	 0.00000000E+00
	 0.00000000E+00	 0.00000000E+00	 0.00000000E+00

	 0.00000000E+00	 0.00000000E+00	 0.00000000E+00
	 0.00000000E+00	 0.00000000E+00	 0.00000000E+00
	 0.00000000E+00	 0.00000000E+00	 0.00000000E+00

	 0.00000000E+00	 0.00000000E+00	 0.00000000E+00
	 0.00000000E+00	 0.00000000E+00	 0.00000000E+00
	 0.00000000E+00	 0.00000000E+00	 0.00000000E+00

	 0.00000000E+00	 0.00000000E+00	 0.00000000E+00
	 0.00000000E+00	 0.00000000E+00	 0.00000000E+00
	 0.00000000E+00	 0.00000000E+00	 0.00000000E+00

	 0.00000000E+00	 0.00000000E+00	 0.00000000E+00
	 0.00000000E+00	 0.00000000E+00	 0.00000000E+00
	 0.00000000E+00	 0.00000000E+00	 0.00000000E+00

	 0.00000000E+00	 0.00000000E+00	 0.00000000E+00
	 0.00000000E+00	 0.00000000E+00	 0.00000000E+00
	 0.00000000E+00	 0.00000000E+00	 0.00000000E+00

	 0.00000000E+00	 0.00000000E+00	 0.00000000E+00
	 0.00000000E+00	 0.00000000E+00	 0.00000000E+00
	 0.00000000E+00	 0.00000000E+00	 0.00000000E+00

	 0.00000000E+00	 0.00000000E+00	 0.00000000E+00
	 0.00000000E+00	 0.00000000E+00	 0.00000000E+00
	 0.00000000E+00	 0.00000000E+00	 0.00000000E+00

	 0.00000000E+00	 0.00000000E+00	 0.00000000E+00
	 0.00000000E+00	 0.00000000E+00	 0.00000000E+00
	 0.00000000E+00	 0.00000000E+00	 0.00000000E+00

	 0.00000000E+00	 0.00000000E+00	 0.00000000E+00
	 0.00000000E+00	 0.00000000E+00	 0.00000000E+00
	 0.00000000E+00	 0.00000000E+00	 0.00000000E+00

	 0.00000000E+00	 0.00000000E+00	 0.00000000E+00
	 0.00000000E+00	 0.00000000E+00	 0.00000000E+00
	 0.00000000E+00	 0.00000000E+00	 0.00000000E+00

	 0.00000000E+00	 0.00000000E+00	 0.00000000E+00
	 0.00000000E+00	 0.00000000E+00	 0.00000000E+00
	 0.00000000E+00	 0.00000000E+00	 0.00000000E+00

	 0.00000000E+00	 0.00000000E+00	 0.00000000E+00
	 0.00000000E+00	 0.00000000E+00	 0.00000000E+00
	 0.00000000E+00	 0.00000000E+00	 0.00000000E+00

	 0.00000000E+00	 0.00000000E+00	 0.00000000E+00
	 0.00000000E+00	 0.00000000E+00	 0.00000000E+00
	 0.00000000E+00	 0.00000000E+00	 0.00000000E+00

	 0.00000000E+00	 0.00000000E+00	 0.00000000E+00
	 0.00000000E+00	 0.00000000E+00	 0.00000000E+00
	 0.00000000E+00	 0.00000000E+00	 0.00000000E+00

	 0.00000000E+00	 0.00000000E+00	 0.00000000E+00
	 0.00000000E+00	 0.00000000E+00	 0.00000000E+00
	 0.00000000E+00	 0.00000000E+00	 0.00000000E+00

	 0.00000000E+00	 0.00000000E+00	 0.00000000E+00
	 0.00000000E+00	 0.00000000E+00	 0.00000000E+00
	 0.00000000E+00	 0.00000000E+00	 0.00000000E+00

	 0.00000000E+00	 0.00000000E+00	 0.00000000E+00
	 0.00000000E+00	 0.00000000E+00	 0.00000000E+00
	 0.00000000E+00	 0.00000000E+00	 0.00000000E+00

	 0.00000000E+00	 0.00000000E+00	 0.00000000E+00
	 0.00000000E+00	 0.00000000E+00	 0.00000000E+00
	 0.00000000E+00	 0.00000000E+00	 0.00000000E+00

	 0.00000000E+00	 0.00000000E+00	 0.00000000E+00
	 0.00000000E+00	 0.00000000E+00	 0.00000000E+00
	 0.00000000E+00	 0.00000000E+00	 0.00000000E+00

	 0.00000000E+00	 0.00000000E+00	 0.00000000E+00
	 0.00000000E+00	 0.00000000E+00	 0.00000000E+00
	 0.00000000E+00	 0.00000000E+00	 0.00000000E+00

	 0.00000000E+00	 0.00000000E+00	 0.00000000E+00
	 0.00000000E+00	 0.00000000E+00	 0.00000000E+00
	 0.00000000E+00	 0.00000000E+00	 0.00000000E+00

	 0.00000000E+00	 0.00000000E+00	 0.00000000E+00
	 0.00000000E+00	 0.00000000E+00	 0.00000000E+00
	 0.00000000E+00	 0.00000000E+00	 0.00000000E+00

	 0.00000000E+00	 0.00000000E+00	 0.00000000E+00
	 0.00000000E+00	 0.00000000E+00	 0.00000000E+00
	 0.00000000E+00	 0.00000000E+00	 0.00000000E+00

	 0.00000000E+00	 0.00000000E+00	 0.00000000E+00
	 0.00000000E+00	 0.00000000E+00	 0.00000000E+00
	 0.00000000E+00	 0.00000000E+00	 0.00000000E+00

	 0.00000000E+00	 0.00000000E+00	 0.00000000E+00
	 0.00000000E+00	 0.00000000E+00	 0.00000000E+00
	 0.00000000E+00	 0.00000000E+00	 0.00000000E+00

	 0.00000000E+00	 0.00000000E+00	 0.00000000E+00
	 0.00000000E+00	 0.00000000E+00	 0.00000000E+00
	 0.00000000E+00	 0.00000000E+00	 0.00000000E+00

	 0.00000000E+00	 0.00000000E+00	 0.00000000E+00
	 0.00000000E+00	 0.00000000E+00	 0.00000000E+00
	 0.00000000E+00	 0.00000000E+00	 0.00000000E+00

	 0.00000000E+00	 0.00000000E+00	 0.00000000E+00
	 0.00000000E+00	 0.00000000E+00	 0.00000000E+00
	 0.00000000E+00	 0.00000000E+00	 0.00000000E+00

	 0.00000000E+00	 0.00000000E+00	 0.00000000E+00
	 0.00000000E+00	 0.00000000E+00	 0.00000000E+00
	 0.00000000E+00	 0.00000000E+00	 0.00000000E+00

	 0.00000000E+00	 0.00000000E+00	 0.00000000E+00
	 0.00000000E+00	 0.00000000E+00	 0.00000000E+00
	 0.00000000E+00	 0.00000000E+00	 0.00000000E+00

	 0.00000000E+00	 0.00000000E+00	 0.00000000E+00
	 0.00000000E+00	 0.00000000E+00	 0.00000000E+00
	 0.00000000E+00	 0.00000000E+00	 0.00000000E+00

	 0.00000000E+00	 0.00000000E+00	 0.00000000E+00
	 0.00000000E+00	 0.00000000E+00	 0.00000000E+00
	 0.00000000E+00	 0.00000000E+00	 0.00000000E+00

	 0.00000000E+00	 0.00000000E+00	 0.00000000E+00
	 0.00000000E+00	 0.00000000E+00	 0.00000000E+00
	 0.00000000E+00	 0.00000000E+00	 0.00000000E+00

	 0.00000000E+00	 0.00000000E+00	 0.00000000E+00
	 0.00000000E+00	 0.00000000E+00	 0.00000000E+00
	 0.00000000E+00	 0.00000000E+00	 0.00000000E+00

	 0.00000000E+00	 0.00000000E+00	 0.00000000E+00
	 0.00000000E+00	 0.00000000E+00	 0.00000000E+00
	 0.00000000E+00	 0.00000000E+00	 0.00000000E+00

	 0.00000000E+00	 0.00000000E+00	 0.00000000E+00
	 0.00000000E+00	 0.00000000E+00	 0.00000000E+00
	 0.00000000E+00	 0.00000000E+00	 0.00000000E+00

	 0.00000000E+00	 0.00000000E+00	 0.00000000E+00
	 0.00000000E+00	 0.00000000E+00	 0.00000000E+00
	 0.00000000E+00	 0.00000000E+00	 0.00000000E+00

	 0.00000000E+00	 0.00000000E+00	 0.00000000E+00
	 0.00000000E+00	 0.00000000E+00	 0.00000000E+00
	 0.00000000E+00	 0.00000000E+00	 0.00000000E+00

	 0.00000000E+00	 0.00000000E+00	 0.00000000E+00
	 0.00000000E+00	 0.00000000E+00	 0.00000000E+00
	 0.00000000E+00	 0.00000000E+00	 0.00000000E+00

	 0.00000000E+00	 0.00000000E+00	 0.00000000E+00
	 0.00000000E+00	 0.00000000E+00	 0.00000000E+00
	 0.00000000E+00	 0.00000000E+00	 0.00000000E+00

	 0.00000000E+00	 0.00000000E+00	 0.00000000E+00
	 0.00000000E+00	 0.00000000E+00	 0.00000000E+00
	 0.00000000E+00	 0.00000000E+00	 0.00000000E+00

	 0.00000000E+00	 0.00000000E+00	 0.00000000E+00
	 0.00000000E+00	 0.00000000E+00	 0.00000000E+00
	 0.00000000E+00	 0.00000000E+00	 0.00000000E+00

	 0.00000000E+00	 0.00000000E+00	 0.00000000E+00
	 0.00000000E+00	 0.00000000E+00	 0.00000000E+00
	 0.00000000E+00	 0.00000000E+00	 0.00000000E+00

	 0.00000000E+00	 0.00000000E+00	 0.00000000E+00
	 0.00000000E+00	 0.00000000E+00	 0.00000000E+00
	 0.00000000E+00	 0.00000000E+00	 0.00000000E+00

	 0.00000000E+00	 0.00000000E+00	 0.00000000E+00
	 0.00000000E+00	 0.00000000E+00	 0.00000000E+00
	 0.00000000E+00	 0.00000000E+00	 0.00000000E+00

	 0.00000000E+00	 0.00000000E+00	 0.00000000E+00
	 0.00000000E+00	 0.00000000E+00	 0.00000000E+00
	 0.00000000E+00	 0.00000000E+00	 0.00000000E+00

	 0.00000000E+00	 0.00000000E+00	 0.00000000E+00
	 0.00000000E+00	 0.00000000E+00	 0.00000000E+00
	 0.00000000E+00	 0.00000000E+00	 0.00000000E+00

	 0.00000000E+00	 0.00000000E+00	 0.00000000E+00
	 0.00000000E+00	 0.00000000E+00	 0.00000000E+00
	 0.00000000E+00	 0.00000000E+00	 0.00000000E+00

	 0.00000000E+00	 0.00000000E+00	 0.00000000E+00
	 0.00000000E+00	 0.00000000E+00	 0.00000000E+00
	 0.00000000E+00	 0.00000000E+00	 0.00000000E+00

	 0.00000000E+00	 0.00000000E+00	 0.00000000E+00
	 0.00000000E+00	 0.00000000E+00	 0.00000000E+00
	 0.00000000E+00	 0.00000000E+00	 0.00000000E+00

	 0.00000000E+00	 0.00000000E+00	 0.00000000E+00
	 0.00000000E+00	 0.00000000E+00	 0.00000000E+00
	 0.00000000E+00	 0.00000000E+00	 0.00000000E+00

	 0.00000000E+00	 0.00000000E+00	 0.00000000E+00
	 0.00000000E+00	 0.00000000E+00	 0.00000000E+00
	 0.00000000E+00	 0.00000000E+00	 0.00000000E+00

	 0.00000000E+00	 0.00000000E+00	 0.00000000E+00
	 0.00000000E+00	 0.00000000E+00	 0.00000000E+00
	 0.00000000E+00	 0.00000000E+00	 0.00000000E+00

	 0.00000000E+00	 0.00000000E+00	 0.00000000E+00
	 0.00000000E+00	 0.00000000E+00	 0.00000000E+00
	 0.00000000E+00	 0.00000000E+00	 0.00000000E+00

	 0.00000000E+00	 0.00000000E+00	 0.00000000E+00
	 0.00000000E+00	 0.00000000E+00	 0.00000000E+00
	 0.00000000E+00	 0.00000000E+00	 0.00000000E+00

	 0.00000000E+00	 0.00000000E+00	 0.00000000E+00
	 0.00000000E+00	 0.00000000E+00	 0.00000000E+00
	 0.00000000E+00	 0.00000000E+00	 0.00000000E+00

	 0.00000000E+00	 0.00000000E+00	 0.00000000E+00
	 0.00000000E+00	 0.00000000E+00	 0.00000000E+00
	 0.00000000E+00	 0.00000000E+00	 0.00000000E+00

	 0.00000000E+00	 0.00000000E+00	 0.00000000E+00
	 0.00000000E+00	 0.00000000E+00	 0.00000000E+00
	 0.00000000E+00	 0.00000000E+00	 0.00000000E+00

	 0.00000000E+00	 0.00000000E+00	 0.00000000E+00
	 0.00000000E+00	 0.00000000E+00	 0.00000000E+00
	 0.00000000E+00	 0.00000000E+00	 0.00000000E+00

	 0.00000000E+00	 0.00000000E+00	 0.00000000E+00
	 0.00000000E+00	 0.00000000E+00	 0.00000000E+00
	 0.00000000E+00	 0.00000000E+00	 0.00000000E+00

	 0.00000000E+00	 0.00000000E+00	 0.00000000E+00
	 0.00000000E+00	 0.00000000E+00	 0.00000000E+00
	 0.00000000E+00	 0.00000000E+00	 0.00000000E+00

	 0.00000000E+00	 0.00000000E+00	 0.00000000E+00
	 0.00000000E+00	 0.00000000E+00	 0.00000000E+00
	 0.00000000E+00	 0.00000000E+00	 0.00000000E+00

	 0.00000000E+00	 0.00000000E+00	 0.00000000E+00
	 0.00000000E+00	 0.00000000E+00	 0.00000000E+00
	 0.00000000E+00	 0.00000000E+00	 0.00000000E+00

	 0.00000000E+00	 0.00000000E+00	 0.00000000E+00
	 0.00000000E+00	 0.00000000E+00	 0.00000000E+00
	 0.00000000E+00	 0.00000000E+00	 0.00000000E+00

	 0.00000000E+00	 0.00000000E+00	 0.00000000E+00
	 0.00000000E+00	 0.00000000E+00	 0.00000000E+00
	 0.00000000E+00	 0.00000000E+00	 0.00000000E+00

	 0.00000000E+00	 0.00000000E+00	 0.00000000E+00
	 0.00000000E+00	 0.00000000E+00	 0.00000000E+00
	 0.00000000E+00	 0.00000000E+00	 0.00000000E+00

	 0.00000000E+00	 0.00000000E+00	 0.00000000E+00
	 0.00000000E+00	 0.00000000E+00	 0.00000000E+00
	 0.00000000E+00	 0.00000000E+00	 0.00000000E+00

	 0.00000000E+00	 0.00000000E+00	 0.00000000E+00
	 0.00000000E+00	 0.00000000E+00	 0.00000000E+00
	 0.00000000E+00	 0.00000000E+00	 0.00000000E+00

	 0.00000000E+00	 0.00000000E+00	 0.00000000E+00
	 0.00000000E+00	 0.00000000E+00	 0.00000000E+00
	 0.00000000E+00	 0.00000000E+00	 0.00000000E+00

	 0.00000000E+00	 0.00000000E+00	 0.00000000E+00
	 0.00000000E+00	 0.00000000E+00	 0.00000000E+00
	 0.00000000E+00	 0.00000000E+00	 0.00000000E+00

	 0.00000000E+00	 0.00000000E+00	 0.00000000E+00
	 0.00000000E+00	 0.00000000E+00	 0.00000000E+00
	 0.00000000E+00	 0.00000000E+00	 0.00000000E+00

	 0.00000000E+00	 0.00000000E+00	 0.00000000E+00
	 0.00000000E+00	 0.00000000E+00	 0.00000000E+00
	 0.00000000E+00	 0.00000000E+00	 0.00000000E+00

	 0.00000000E+00	 0.00000000E+00	 0.00000000E+00
	 0.00000000E+00	 0.00000000E+00	 0.00000000E+00
	 0.00000000E+00	 0.00000000E+00	 0.00000000E+00

	 0.00000000E+00	 0.00000000E+00	 0.00000000E+00
	 0.00000000E+00	 0.00000000E+00	 0.00000000E+00
	 0.00000000E+00	 0.00000000E+00	 0.00000000E+00

	 0.00000000E+00	 0.00000000E+00	 0.00000000E+00
	 0.00000000E+00	 0.00000000E+00	 0.00000000E+00
	 0.00000000E+00	 0.00000000E+00	 0.00000000E+00

	 0.00000000E+00	 0.00000000E+00	 0.00000000E+00
	 0.00000000E+00	 0.00000000E+00	 0.00000000E+00
	 0.00000000E+00	 0.00000000E+00	 0.00000000E+00

	 0.00000000E+00	 0.00000000E+00	 0.00000000E+00
	 0.00000000E+00	 0.00000000E+00	 0.00000000E+00
	 0.00000000E+00	 0.00000000E+00	 0.00000000E+00

	 0.00000000E+00	 0.00000000E+00	 0.00000000E+00
	 0.00000000E+00	 0.00000000E+00	 0.00000000E+00
	 0.00000000E+00	 0.00000000E+00	 0.00000000E+00

	 0.00000000E+00	 0.00000000E+00	 0.00000000E+00
	 0.00000000E+00	 0.00000000E+00	 0.00000000E+00
	 0.00000000E+00	 0.00000000E+00	 0.00000000E+00

	 0.00000000E+00	 0.00000000E+00	 0.00000000E+00
	 0.00000000E+00	 0.00000000E+00	 0.00000000E+00
	 0.00000000E+00	 0.00000000E+00	 0.00000000E+00

	 0.00000000E+00	 0.00000000E+00	 0.00000000E+00
	 0.00000000E+00	 0.00000000E+00	 0.00000000E+00
	 0.00000000E+00	 0.00000000E+00	 0.00000000E+00

	 0.00000000E+00	 0.00000000E+00	 0.00000000E+00
	 0.00000000E+00	 0.00000000E+00	 0.00000000E+00
	 0.00000000E+00	 0.00000000E+00	 0.00000000E+00

	 0.00000000E+00	 0.00000000E+00	 0.00000000E+00
	 0.00000000E+00	 0.00000000E+00	 0.00000000E+00
	 0.00000000E+00	 0.00000000E+00	 0.00000000E+00

	 0.00000000E+00	 0.00000000E+00	 0.00000000E+00
	 0.00000000E+00	 0.00000000E+00	 0.00000000E+00
	 0.00000000E+00	 0.00000000E+00	 0.00000000E+00

	 0.00000000E+00	 0.00000000E+00	 0.00000000E+00
	 0.00000000E+00	 0.00000000E+00	 0.00000000E+00
	 0.00000000E+00	 0.00000000E+00	 0.00000000E+00

	 0.00000000E+00	 0.00000000E+00	 0.00000000E+00
	 0.00000000E+00	 0.00000000E+00	 0.00000000E+00
	 0.00000000E+00	 0.00000000E+00	 0.00000000E+00

	 0.00000000E+00	 0.00000000E+00	 0.00000000E+00
	 0.00000000E+00	 0.00000000E+00	 0.00000000E+00
	 0.00000000E+00	 0.00000000E+00	 0.00000000E+00

	 0.00000000E+00	 0.00000000E+00	 0.00000000E+00
	 0.00000000E+00	 0.00000000E+00	 0.00000000E+00
	 0.00000000E+00	 0.00000000E+00	 0.00000000E+00

	 0.00000000E+00	 0.00000000E+00	 0.00000000E+00
	 0.00000000E+00	 0.00000000E+00	 0.00000000E+00
	 0.00000000E+00	 0.00000000E+00	 0.00000000E+00

	 0.00000000E+00	 0.00000000E+00	 0.00000000E+00
	 0.00000000E+00	 0.00000000E+00	 0.00000000E+00
	 0.00000000E+00	 0.00000000E+00	 0.00000000E+00

	 0.00000000E+00	 0.00000000E+00	 0.00000000E+00
	 0.00000000E+00	 0.00000000E+00	 0.00000000E+00
	 0.00000000E+00	 0.00000000E+00	 0.00000000E+00

	 0.00000000E+00	 0.00000000E+00	 0.00000000E+00
	 0.00000000E+00	 0.00000000E+00	 0.00000000E+00
	 0.00000000E+00	 0.00000000E+00	 0.00000000E+00

	 0.00000000E+00	 0.00000000E+00	 0.00000000E+00
	 0.00000000E+00	 0.00000000E+00	 0.00000000E+00
	 0.00000000E+00	 0.00000000E+00	 0.00000000E+00

	 0.00000000E+00	 0.00000000E+00	 0.00000000E+00
	 0.00000000E+00	 0.00000000E+00	 0.00000000E+00
	 0.00000000E+00	 0.00000000E+00	 0.00000000E+00

	 0.00000000E+00	 0.00000000E+00	 0.00000000E+00
	 0.00000000E+00	 0.00000000E+00	 0.00000000E+00
	 0.00000000E+00	 0.00000000E+00	 0.00000000E+00

	 0.00000000E+00	 0.00000000E+00	 0.00000000E+00
	 0.00000000E+00	 0.00000000E+00	 0.00000000E+00
	 0.00000000E+00	 0.00000000E+00	 0.00000000E+00

	 0.00000000E+00	 0.00000000E+00	 0.00000000E+00
	 0.00000000E+00	 0.00000000E+00	 0.00000000E+00
	 0.00000000E+00	 0.00000000E+00	 0.00000000E+00

	 0.00000000E+00	 0.00000000E+00	 0.00000000E+00
	 0.00000000E+00	 0.00000000E+00	 0.00000000E+00
	 0.00000000E+00	 0.00000000E+00	 0.00000000E+00

	 0.00000000E+00	 0.00000000E+00	 0.00000000E+00
	 0.00000000E+00	 0.00000000E+00	 0.00000000E+00
	 0.00000000E+00	 0.00000000E+00	 0.00000000E+00

	 0.00000000E+00	 0.00000000E+00	 0.00000000E+00
	 0.00000000E+00	 0.00000000E+00	 0.00000000E+00
	 0.00000000E+00	 0.00000000E+00	 0.00000000E+00

	 0.00000000E+00	 0.00000000E+00	 0.00000000E+00
	 0.00000000E+00	 0.00000000E+00	 0.00000000E+00
	 0.00000000E+00	 0.00000000E+00	 0.00000000E+00

	 0.00000000E+00	 0.00000000E+00	 0.00000000E+00
	 0.00000000E+00	 0.00000000E+00	 0.00000000E+00
	 0.00000000E+00	 0.00000000E+00	 0.00000000E+00

	 0.00000000E+00	 0.00000000E+00	 0.00000000E+00
	 0.00000000E+00	 0.00000000E+00	 0.00000000E+00
	 0.00000000E+00	 0.00000000E+00	 0.00000000E+00

	 0.00000000E+00	 0.00000000E+00	 0.00000000E+00
	 0.00000000E+00	 0.00000000E+00	 0.00000000E+00
	 0.00000000E+00	 0.00000000E+00	 0.00000000E+00

	 0.00000000E+00	 0.00000000E+00	 0.00000000E+00
	 0.00000000E+00	 0.00000000E+00	 0.00000000E+00
	 0.00000000E+00	 0.00000000E+00	 0.00000000E+00

	 0.00000000E+00	 0.00000000E+00	 0.00000000E+00
	 0.00000000E+00	 0.00000000E+00	 0.00000000E+00
	 0.00000000E+00	 0.00000000E+00	 0.00000000E+00

	 0.00000000E+00	 0.00000000E+00	 0.00000000E+00
	 0.00000000E+00	 0.00000000E+00	 0.00000000E+00
	 0.00000000E+00	 0.00000000E+00	 0.00000000E+00

	 0.00000000E+00	 0.00000000E+00	 0.00000000E+00
	 0.00000000E+00	 0.00000000E+00	 0.00000000E+00
	 0.00000000E+00	 0.00000000E+00	 0.00000000E+00

	 0.00000000E+00	 0.00000000E+00	 0.00000000E+00
	 0.00000000E+00	 0.00000000E+00	 0.00000000E+00
	 0.00000000E+00	 0.00000000E+00	 0.00000000E+00

	 0.00000000E+00	 0.00000000E+00	 0.00000000E+00
	 0.00000000E+00	 0.00000000E+00	 0.00000000E+00
	 0.00000000E+00	 0.00000000E+00	 0.00000000E+00

	 0.00000000E+00	 0.00000000E+00	 0.00000000E+00
	 0.00000000E+00	 0.00000000E+00	 0.00000000E+00
	 0.00000000E+00	 0.00000000E+00	 0.00000000E+00

	 0.00000000E+00	 0.00000000E+00	 0.00000000E+00
	 0.00000000E+00	 0.00000000E+00	 0.00000000E+00
	 0.00000000E+00	 0.00000000E+00	 0.00000000E+00

	 0.00000000E+00	 0.00000000E+00	 0.00000000E+00
	 0.00000000E+00	 0.00000000E+00	 0.00000000E+00
	 0.00000000E+00	 0.00000000E+00	 0.00000000E+00

	 0.00000000E+00	 0.00000000E+00	 0.00000000E+00
	 0.00000000E+00	 0.00000000E+00	 0.00000000E+00
	 0.00000000E+00	 0.00000000E+00	 0.00000000E+00

	 0.00000000E+00	 0.00000000E+00	 0.00000000E+00
	 0.00000000E+00	 0.00000000E+00	 0.00000000E+00
	 0.00000000E+00	 0.00000000E+00	 0.00000000E+00

	 0.00000000E+00	 0.00000000E+00	 0.00000000E+00
	 0.00000000E+00	 0.00000000E+00	 0.00000000E+00
	 0.00000000E+00	 0.00000000E+00	 0.00000000E+00

	 0.00000000E+00	 0.00000000E+00	 0.00000000E+00
	 0.00000000E+00	 0.00000000E+00	 0.00000000E+00
	 0.00000000E+00	 0.00000000E+00	 0.00000000E+00

	 0.00000000E+00	 0.00000000E+00	 0.00000000E+00
	 0.00000000E+00	 0.00000000E+00	 0.00000000E+00
	 0.00000000E+00	 0.00000000E+00	 0.00000000E+00

	 0.00000000E+00	 0.00000000E+00	 0.00000000E+00
	 0.00000000E+00	 0.00000000E+00	 0.00000000E+00
	 0.00000000E+00	 0.00000000E+00	 0.00000000E+00

	 0.00000000E+00	 0.00000000E+00	 0.00000000E+00
	 0.00000000E+00	 0.00000000E+00	 0.00000000E+00
	 0.00000000E+00	 0.00000000E+00	 0.00000000E+00

	 0.00000000E+00	 0.00000000E+00	 0.00000000E+00
	 0.00000000E+00	 0.00000000E+00	 0.00000000E+00
	 0.00000000E+00	 0.00000000E+00	 0.00000000E+00

	 0.00000000E+00	 0.00000000E+00	 0.00000000E+00
	 0.00000000E+00	 0.00000000E+00	 0.00000000E+00
	 0.00000000E+00	 0.00000000E+00	 0.00000000E+00

	 0.00000000E+00	 0.00000000E+00	 0.00000000E+00
	 0.00000000E+00	 0.00000000E+00	 0.00000000E+00
	 0.00000000E+00	 0.00000000E+00	 0.00000000E+00

	 0.00000000E+00	 0.00000000E+00	 0.00000000E+00
	 0.00000000E+00	 0.00000000E+00	 0.00000000E+00
	 0.00000000E+00	 0.00000000E+00	 0.00000000E+00

	 0.00000000E+00	 0.00000000E+00	 0.00000000E+00
	 0.00000000E+00	 0.00000000E+00	 0.00000000E+00
	 0.00000000E+00	 0.00000000E+00	 0.00000000E+00

	 0.00000000E+00	 0.00000000E+00	 0.00000000E+00
	 0.00000000E+00	 0.00000000E+00	 0.00000000E+00
	 0.00000000E+00	 0.00000000E+00	 0.00000000E+00

	 0.00000000E+00	 0.00000000E+00	 0.00000000E+00
	 0.00000000E+00	 0.00000000E+00	 0.00000000E+00
	 0.00000000E+00	 0.00000000E+00	 0.00000000E+00

	 0.00000000E+00	 0.00000000E+00	 0.00000000E+00
	 0.00000000E+00	 0.00000000E+00	 0.00000000E+00
	 0.00000000E+00	 0.00000000E+00	 0.00000000E+00

	 0.00000000E+00	 0.00000000E+00	 0.00000000E+00
	 0.00000000E+00	 0.00000000E+00	 0.00000000E+00
	 0.00000000E+00	 0.00000000E+00	 0.00000000E+00

	 0.00000000E+00	 0.00000000E+00	 0.00000000E+00
	 0.00000000E+00	 0.00000000E+00	 0.00000000E+00
	 0.00000000E+00	 0.00000000E+00	 0.00000000E+00

	 0.00000000E+00	 0.00000000E+00	 0.00000000E+00
	 0.00000000E+00	 0.00000000E+00	 0.00000000E+00
	 0.00000000E+00	 0.00000000E+00	 0.00000000E+00

	 0.00000000E+00	 0.00000000E+00	 0.00000000E+00
	 0.00000000E+00	 0.00000000E+00	 0.00000000E+00
	 0.00000000E+00	 0.00000000E+00	 0.00000000E+00

	 0.00000000E+00	 0.00000000E+00	 0.00000000E+00
	 0.00000000E+00	 0.00000000E+00	 0.00000000E+00
	 0.00000000E+00	 0.00000000E+00	 0.00000000E+00

	 0.00000000E+00	 0.00000000E+00	 0.00000000E+00
	 0.00000000E+00	 0.00000000E+00	 0.00000000E+00
	 0.00000000E+00	 0.00000000E+00	 0.00000000E+00

	 0.00000000E+00	 0.00000000E+00	 0.00000000E+00
	 0.00000000E+00	 0.00000000E+00	 0.00000000E+00
	 0.00000000E+00	 0.00000000E+00	 0.00000000E+00

	 0.00000000E+00	 0.00000000E+00	 0.00000000E+00
	 0.00000000E+00	 0.00000000E+00	 0.00000000E+00
	 0.00000000E+00	 0.00000000E+00	 0.00000000E+00

	 0.00000000E+00	 0.00000000E+00	 0.00000000E+00
	 0.00000000E+00	 0.00000000E+00	 0.00000000E+00
	 0.00000000E+00	 0.00000000E+00	 0.00000000E+00

	 0.00000000E+00	 0.00000000E+00	 0.00000000E+00
	 0.00000000E+00	 0.00000000E+00	 0.00000000E+00
	 0.00000000E+00	 0.00000000E+00	 0.00000000E+00

	 0.00000000E+00	 0.00000000E+00	 0.00000000E+00
	 0.00000000E+00	 0.00000000E+00	 0.00000000E+00
	 0.00000000E+00	 0.00000000E+00	 0.00000000E+00

	 0.00000000E+00	 0.00000000E+00	 0.00000000E+00
	 0.00000000E+00	 0.00000000E+00	 0.00000000E+00
	 0.00000000E+00	 0.00000000E+00	 0.00000000E+00

	 0.00000000E+00	 0.00000000E+00	 0.00000000E+00
	 0.00000000E+00	 0.00000000E+00	 0.00000000E+00
	 0.00000000E+00	 0.00000000E+00	 0.00000000E+00

	 0.00000000E+00	 0.00000000E+00	 0.00000000E+00
	 0.00000000E+00	 0.00000000E+00	 0.00000000E+00
	 0.00000000E+00	 0.00000000E+00	 0.00000000E+00

	 0.00000000E+00	 0.00000000E+00	 0.00000000E+00
	 0.00000000E+00	 0.00000000E+00	 0.00000000E+00
	 0.00000000E+00	 0.00000000E+00	 0.00000000E+00

	 0.00000000E+00	 0.00000000E+00	 0.00000000E+00
	 0.00000000E+00	 0.00000000E+00	 0.00000000E+00
	 0.00000000E+00	 0.00000000E+00	 0.00000000E+00

	 0.00000000E+00	 0.00000000E+00	 0.00000000E+00
	 0.00000000E+00	 0.00000000E+00	 0.00000000E+00
	 0.00000000E+00	 0.00000000E+00	 0.00000000E+00

	 0.00000000E+00	 0.00000000E+00	 0.00000000E+00
	 0.00000000E+00	 0.00000000E+00	 0.00000000E+00
	 0.00000000E+00	 0.00000000E+00	 0.00000000E+00

	 0.00000000E+00	 0.00000000E+00	 0.00000000E+00
	 0.00000000E+00	 0.00000000E+00	 0.00000000E+00
	 0.00000000E+00	 0.00000000E+00	 0.00000000E+00

	 0.00000000E+00	 0.00000000E+00	 0.00000000E+00
	 0.00000000E+00	 0.00000000E+00	 0.00000000E+00
	 0.00000000E+00	 0.00000000E+00	 0.00000000E+00

	 0.00000000E+00	 0.00000000E+00	 0.00000000E+00
	 0.00000000E+00	 0.00000000E+00	 0.00000000E+00
	 0.00000000E+00	 0.00000000E+00	 0.00000000E+00

	 0.00000000E+00	 0.00000000E+00	 0.00000000E+00
	 0.00000000E+00	 0.00000000E+00	 0.00000000E+00
	 0.00000000E+00	 0.00000000E+00	 0.00000000E+00

	 0.00000000E+00	 0.00000000E+00	 0.00000000E+00
	 0.00000000E+00	 0.00000000E+00	 0.00000000E+00
	 0.00000000E+00	 0.00000000E+00	 0.00000000E+00

	 0.00000000E+00	 0.00000000E+00	 0.00000000E+00
	 0.00000000E+00	 0.00000000E+00	 0.00000000E+00
	 0.00000000E+00	 0.00000000E+00	 0.00000000E+00

	 0.00000000E+00	 0.00000000E+00	 0.00000000E+00
	 0.00000000E+00	 0.00000000E+00	 0.00000000E+00
	 0.00000000E+00	 0.00000000E+00	 0.00000000E+00

	 0.00000000E+00	 0.00000000E+00	 0.00000000E+00
	 0.00000000E+00	 0.00000000E+00	 0.00000000E+00
	 0.00000000E+00	 0.00000000E+00	 0.00000000E+00

	 0.00000000E+00	 0.00000000E+00	 0.00000000E+00
	 0.00000000E+00	 0.00000000E+00	 0.00000000E+00
	 0.00000000E+00	 0.00000000E+00	 0.00000000E+00

	 0.00000000E+00	 0.00000000E+00	 0.00000000E+00
	 0.00000000E+00	 0.00000000E+00	 0.00000000E+00
	 0.00000000E+00	 0.00000000E+00	 0.00000000E+00

	 0.00000000E+00	 0.00000000E+00	 0.00000000E+00
	 0.00000000E+00	 0.00000000E+00	 0.00000000E+00
	 0.00000000E+00	 0.00000000E+00	 0.00000000E+00

	 0.00000000E+00	 0.00000000E+00	 0.00000000E+00
	 0.00000000E+00	 0.00000000E+00	 0.00000000E+00
	 0.00000000E+00	 0.00000000E+00	 0.00000000E+00

	 0.00000000E+00	 0.00000000E+00	 0.00000000E+00
	 0.00000000E+00	 0.00000000E+00	 0.00000000E+00
	 0.00000000E+00	 0.00000000E+00	 0.00000000E+00

	 0.00000000E+00	 0.00000000E+00	 0.00000000E+00
	 0.00000000E+00	 0.00000000E+00	 0.00000000E+00
	 0.00000000E+00	 0.00000000E+00	 0.00000000E+00

	 0.00000000E+00	 0.00000000E+00	 0.00000000E+00
	 0.00000000E+00	 0.00000000E+00	 0.00000000E+00
	 0.00000000E+00	 0.00000000E+00	 0.00000000E+00

	 0.00000000E+00	 0.00000000E+00	 0.00000000E+00
	 0.00000000E+00	 0.00000000E+00	 0.00000000E+00
	 0.00000000E+00	 0.00000000E+00	 0.00000000E+00

	 0.00000000E+00	 0.00000000E+00	 0.00000000E+00
	 0.00000000E+00	 0.00000000E+00	 0.00000000E+00
	 0.00000000E+00	 0.00000000E+00	 0.00000000E+00

	 0.00000000E+00	 0.00000000E+00	 0.00000000E+00
	 0.00000000E+00	 0.00000000E+00	 0.00000000E+00
	 0.00000000E+00	 0.00000000E+00	 0.00000000E+00

	 0.00000000E+00	 0.00000000E+00	 0.00000000E+00
	 0.00000000E+00	 0.00000000E+00	 0.00000000E+00
	 0.00000000E+00	 0.00000000E+00	 0.00000000E+00

	 0.00000000E+00	 0.00000000E+00	 0.00000000E+00
	 0.00000000E+00	 0.00000000E+00	 0.00000000E+00
	 0.00000000E+00	 0.00000000E+00	 0.00000000E+00

	 0.00000000E+00	 0.00000000E+00	 0.00000000E+00
	 0.00000000E+00	 0.00000000E+00	 0.00000000E+00
	 0.00000000E+00	 0.00000000E+00	 0.00000000E+00

	 0.00000000E+00	 0.00000000E+00	 0.00000000E+00
	 0.00000000E+00	 0.00000000E+00	 0.00000000E+00
	 0.00000000E+00	 0.00000000E+00	 0.00000000E+00

	 0.00000000E+00	 0.00000000E+00	 0.00000000E+00
	 0.00000000E+00	 0.00000000E+00	 0.00000000E+00
	 0.00000000E+00	 0.00000000E+00	 0.00000000E+00

	 0.00000000E+00	 0.00000000E+00	 0.00000000E+00
	 0.00000000E+00	 0.00000000E+00	 0.00000000E+00
	 0.00000000E+00	 0.00000000E+00	 0.00000000E+00

	 0.00000000E+00	 0.00000000E+00	 0.00000000E+00
	 0.00000000E+00	 0.00000000E+00	 0.00000000E+00
	 0.00000000E+00	 0.00000000E+00	 0.00000000E+00

	 0.00000000E+00	 0.00000000E+00	 0.00000000E+00
	 0.00000000E+00	 0.00000000E+00	 0.00000000E+00
	 0.00000000E+00	 0.00000000E+00	 0.00000000E+00

	 0.00000000E+00	 0.00000000E+00	 0.00000000E+00
	 0.00000000E+00	 0.00000000E+00	 0.00000000E+00
	 0.00000000E+00	 0.00000000E+00	 0.00000000E+00

	 0.00000000E+00	 0.00000000E+00	 0.00000000E+00
	 0.00000000E+00	 0.00000000E+00	 0.00000000E+00
	 0.00000000E+00	 0.00000000E+00	 0.00000000E+00

	 0.00000000E+00	 0.00000000E+00	 0.00000000E+00
	 0.00000000E+00	 0.00000000E+00	 0.00000000E+00
	 0.00000000E+00	 0.00000000E+00	 0.00000000E+00

	 0.00000000E+00	 0.00000000E+00	 0.00000000E+00
	 0.00000000E+00	 0.00000000E+00	 0.00000000E+00
	 0.00000000E+00	 0.00000000E+00	 0.00000000E+00

	 0.00000000E+00	 0.00000000E+00	 0.00000000E+00
	 0.00000000E+00	 0.00000000E+00	 0.00000000E+00
	 0.00000000E+00	 0.00000000E+00	 0.00000000E+00

	 0.00000000E+00	 0.00000000E+00	 0.00000000E+00
	 0.00000000E+00	 0.00000000E+00	 0.00000000E+00
	 0.00000000E+00	 0.00000000E+00	 0.00000000E+00

	 0.00000000E+00	 0.00000000E+00	 0.00000000E+00
	 0.00000000E+00	 0.00000000E+00	 0.00000000E+00
	 0.00000000E+00	 0.00000000E+00	 0.00000000E+00

	 0.00000000E+00	 0.00000000E+00	 0.00000000E+00
	 0.00000000E+00	 0.00000000E+00	 0.00000000E+00
	 0.00000000E+00	 0.00000000E+00	 0.00000000E+00

	 0.00000000E+00	 0.00000000E+00	 0.00000000E+00
	 0.00000000E+00	 0.00000000E+00	 0.00000000E+00
	 0.00000000E+00	 0.00000000E+00	 0.00000000E+00

	 0.00000000E+00	 0.00000000E+00	 0.00000000E+00
	 0.00000000E+00	 0.00000000E+00	 0.00000000E+00
	 0.00000000E+00	 0.00000000E+00	 0.00000000E+00

	 0.00000000E+00	 0.00000000E+00	 0.00000000E+00
	 0.00000000E+00	 0.00000000E+00	 0.00000000E+00
	 0.00000000E+00	 0.00000000E+00	 0.00000000E+00

	 0.00000000E+00	 0.00000000E+00	 0.00000000E+00
	 0.00000000E+00	 0.00000000E+00	 0.00000000E+00
	 0.00000000E+00	 0.00000000E+00	 0.00000000E+00

	 0.00000000E+00	 0.00000000E+00	 0.00000000E+00
	 0.00000000E+00	 0.00000000E+00	 0.00000000E+00
	 0.00000000E+00	 0.00000000E+00	 0.00000000E+00

	 0.00000000E+00	 0.00000000E+00	 0.00000000E+00
	 0.00000000E+00	 0.00000000E+00	 0.00000000E+00
	 0.00000000E+00	 0.00000000E+00	 0.00000000E+00

	 0.00000000E+00	 0.00000000E+00	 0.00000000E+00
	 0.00000000E+00	 0.00000000E+00	 0.00000000E+00
	 0.00000000E+00	 0.00000000E+00	 0.00000000E+00

	 0.00000000E+00	 0.00000000E+00	 0.00000000E+00
	 0.00000000E+00	 0.00000000E+00	 0.00000000E+00
	 0.00000000E+00	 0.00000000E+00	 0.00000000E+00

	 0.00000000E+00	 0.00000000E+00	 0.00000000E+00
	 0.00000000E+00	 0.00000000E+00	 0.00000000E+00
	 0.00000000E+00	 0.00000000E+00	 0.00000000E+00

	 0.00000000E+00	 0.00000000E+00	 0.00000000E+00
	 0.00000000E+00	 0.00000000E+00	 0.00000000E+00
	 0.00000000E+00	 0.00000000E+00	 0.00000000E+00

	 0.00000000E+00	 0.00000000E+00	 0.00000000E+00
	 0.00000000E+00	 0.00000000E+00	 0.00000000E+00
	 0.00000000E+00	 0.00000000E+00	 0.00000000E+00

	 0.00000000E+00	 0.00000000E+00	 0.00000000E+00
	 0.00000000E+00	 0.00000000E+00	 0.00000000E+00
	 0.00000000E+00	 0.00000000E+00	 0.00000000E+00

	 0.00000000E+00	 0.00000000E+00	 0.00000000E+00
	 0.00000000E+00	 0.00000000E+00	 0.00000000E+00
	 0.00000000E+00	 0.00000000E+00	 0.00000000E+00

	 0.00000000E+00	 0.00000000E+00	 0.00000000E+00
	 0.00000000E+00	 0.00000000E+00	 0.00000000E+00
	 0.00000000E+00	 0.00000000E+00	 0.00000000E+00

	 0.00000000E+00	 0.00000000E+00	 0.00000000E+00
	 0.00000000E+00	 0.00000000E+00	 0.00000000E+00
	 0.00000000E+00	 0.00000000E+00	 0.00000000E+00

	 0.00000000E+00	 0.00000000E+00	 0.00000000E+00
	 0.00000000E+00	 0.00000000E+00	 0.00000000E+00
	 0.00000000E+00	 0.00000000E+00	 0.00000000E+00

	 0.00000000E+00	 0.00000000E+00	 0.00000000E+00
	 0.00000000E+00	 0.00000000E+00	 0.00000000E+00
	 0.00000000E+00	 0.00000000E+00	 0.00000000E+00

	 0.00000000E+00	 0.00000000E+00	 0.00000000E+00
	 0.00000000E+00	 0.00000000E+00	 0.00000000E+00
	 0.00000000E+00	 0.00000000E+00	 0.00000000E+00

	 0.00000000E+00	 0.00000000E+00	 0.00000000E+00
	 0.00000000E+00	 0.00000000E+00	 0.00000000E+00
	 0.00000000E+00	 0.00000000E+00	 0.00000000E+00

	 0.00000000E+00	 0.00000000E+00	 0.00000000E+00
	 0.00000000E+00	 0.00000000E+00	 0.00000000E+00
	 0.00000000E+00	 0.00000000E+00	 0.00000000E+00

	 0.00000000E+00	 0.00000000E+00	 0.00000000E+00
	 0.00000000E+00	 0.00000000E+00	 0.00000000E+00
	 0.00000000E+00	 0.00000000E+00	 0.00000000E+00

	 0.00000000E+00	 0.00000000E+00	 0.00000000E+00
	 0.00000000E+00	 0.00000000E+00	 0.00000000E+00
	 0.00000000E+00	 0.00000000E+00	 0.00000000E+00

	 0.00000000E+00	 0.00000000E+00	 0.00000000E+00
	 0.00000000E+00	 0.00000000E+00	 0.00000000E+00
	 0.00000000E+00	 0.00000000E+00	 0.00000000E+00

	 0.00000000E+00	 0.00000000E+00	 0.00000000E+00
	 0.00000000E+00	 0.00000000E+00	 0.00000000E+00
	 0.00000000E+00	 0.00000000E+00	 0.00000000E+00

	 0.00000000E+00	 0.00000000E+00	 0.00000000E+00
	 0.00000000E+00	 0.00000000E+00	 0.00000000E+00
	 0.00000000E+00	 0.00000000E+00	 0.00000000E+00

	 0.00000000E+00	 0.00000000E+00	 0.00000000E+00
	 0.00000000E+00	 0.00000000E+00	 0.00000000E+00
	 0.00000000E+00	 0.00000000E+00	 0.00000000E+00

	 0.00000000E+00	 0.00000000E+00	 0.00000000E+00
	 0.00000000E+00	 0.00000000E+00	 0.00000000E+00
	 0.00000000E+00	 0.00000000E+00	 0.00000000E+00

	 0.00000000E+00	 0.00000000E+00	 0.00000000E+00
	 0.00000000E+00	 0.00000000E+00	 0.00000000E+00
	 0.00000000E+00	 0.00000000E+00	 0.00000000E+00

	 0.00000000E+00	 0.00000000E+00	 0.00000000E+00
	 0.00000000E+00	 0.00000000E+00	 0.00000000E+00
	 0.00000000E+00	 0.00000000E+00	 0.00000000E+00

	 0.00000000E+00	 0.00000000E+00	 0.00000000E+00
	 0.00000000E+00	 0.00000000E+00	 0.00000000E+00
	 0.00000000E+00	 0.00000000E+00	 0.00000000E+00

	 0.00000000E+00	 0.00000000E+00	 0.00000000E+00
	 0.00000000E+00	 0.00000000E+00	 0.00000000E+00
	 0.00000000E+00	 0.00000000E+00	 0.00000000E+00

	 0.00000000E+00	 0.00000000E+00	 0.00000000E+00
	 0.00000000E+00	 0.00000000E+00	 0.00000000E+00
	 0.00000000E+00	 0.00000000E+00	 0.00000000E+00

	 0.00000000E+00	 0.00000000E+00	 0.00000000E+00
	 0.00000000E+00	 0.00000000E+00	 0.00000000E+00
	 0.00000000E+00	 0.00000000E+00	 0.00000000E+00

	 0.00000000E+00	 0.00000000E+00	 0.00000000E+00
	 0.00000000E+00	 0.00000000E+00	 0.00000000E+00
	 0.00000000E+00	 0.00000000E+00	 0.00000000E+00

	 0.00000000E+00	 0.00000000E+00	 0.00000000E+00
	 0.00000000E+00	 0.00000000E+00	 0.00000000E+00
	 0.00000000E+00	 0.00000000E+00	 0.00000000E+00

	 0.00000000E+00	 0.00000000E+00	 0.00000000E+00
	 0.00000000E+00	 0.00000000E+00	 0.00000000E+00
	 0.00000000E+00	 0.00000000E+00	 0.00000000E+00

	 0.00000000E+00	 0.00000000E+00	 0.00000000E+00
	 0.00000000E+00	 0.00000000E+00	 0.00000000E+00
	 0.00000000E+00	 0.00000000E+00	 0.00000000E+00

	 0.00000000E+00	 0.00000000E+00	 0.00000000E+00
	 0.00000000E+00	 0.00000000E+00	 0.00000000E+00
	 0.00000000E+00	 0.00000000E+00	 0.00000000E+00

	 0.00000000E+00	 0.00000000E+00	 0.00000000E+00
	 0.00000000E+00	 0.00000000E+00	 0.00000000E+00
	 0.00000000E+00	 0.00000000E+00	 0.00000000E+00

	 0.00000000E+00	 0.00000000E+00	 0.00000000E+00
	 0.00000000E+00	 0.00000000E+00	 0.00000000E+00
	 0.00000000E+00	 0.00000000E+00	 0.00000000E+00

	 0.00000000E+00	 0.00000000E+00	 0.00000000E+00
	 0.00000000E+00	 0.00000000E+00	 0.00000000E+00
	 0.00000000E+00	 0.00000000E+00	 0.00000000E+00

	 0.00000000E+00	 0.00000000E+00	 0.00000000E+00
	 0.00000000E+00	 0.00000000E+00	 0.00000000E+00
	 0.00000000E+00	 0.00000000E+00	 0.00000000E+00

	 0.00000000E+00	 0.00000000E+00	 0.00000000E+00
	 0.00000000E+00	 0.00000000E+00	 0.00000000E+00
	 0.00000000E+00	 0.00000000E+00	 0.00000000E+00

	 0.00000000E+00	 0.00000000E+00	 0.00000000E+00
	 0.00000000E+00	 0.00000000E+00	 0.00000000E+00
	 0.00000000E+00	 0.00000000E+00	 0.00000000E+00

	 0.00000000E+00	 0.00000000E+00	 0.00000000E+00
	 0.00000000E+00	 0.00000000E+00	 0.00000000E+00
	 0.00000000E+00	 0.00000000E+00	 0.00000000E+00

	 0.00000000E+00	 0.00000000E+00	 0.00000000E+00
	 0.00000000E+00	 0.00000000E+00	 0.00000000E+00
	 0.00000000E+00	 0.00000000E+00	 0.00000000E+00

	 0.00000000E+00	 0.00000000E+00	 0.00000000E+00
	 0.00000000E+00	 0.00000000E+00	 0.00000000E+00
	 0.00000000E+00	 0.00000000E+00	 0.00000000E+00

	 0.00000000E+00	 0.00000000E+00	 0.00000000E+00
	 0.00000000E+00	 0.00000000E+00	 0.00000000E+00
	 0.00000000E+00	 0.00000000E+00	 0.00000000E+00

	 0.00000000E+00	 0.00000000E+00	 0.00000000E+00
	 0.00000000E+00	 0.00000000E+00	 0.00000000E+00
	 0.00000000E+00	 0.00000000E+00	 0.00000000E+00

	 0.00000000E+00	 0.00000000E+00	 0.00000000E+00
	 0.00000000E+00	 0.00000000E+00	 0.00000000E+00
	 0.00000000E+00	 0.00000000E+00	 0.00000000E+00

	 0.00000000E+00	 0.00000000E+00	 0.00000000E+00
	 0.00000000E+00	 0.00000000E+00	 0.00000000E+00
	 0.00000000E+00	 0.00000000E+00	 0.00000000E+00

	 0.00000000E+00	 0.00000000E+00	 0.00000000E+00
	 0.00000000E+00	 0.00000000E+00	 0.00000000E+00
	 0.00000000E+00	 0.00000000E+00	 0.00000000E+00

	 0.00000000E+00	 0.00000000E+00	 0.00000000E+00
	 0.00000000E+00	 0.00000000E+00	 0.00000000E+00
	 0.00000000E+00	 0.00000000E+00	 0.00000000E+00

	 0.00000000E+00	 0.00000000E+00	 0.00000000E+00
	 0.00000000E+00	 0.00000000E+00	 0.00000000E+00
	 0.00000000E+00	 0.00000000E+00	 0.00000000E+00

	 0.00000000E+00	 0.00000000E+00	 0.00000000E+00
	 0.00000000E+00	 0.00000000E+00	 0.00000000E+00
	 0.00000000E+00	 0.00000000E+00	 0.00000000E+00

	 0.00000000E+00	 0.00000000E+00	 0.00000000E+00
	 0.00000000E+00	 0.00000000E+00	 0.00000000E+00
	 0.00000000E+00	 0.00000000E+00	 0.00000000E+00

	 0.00000000E+00	 0.00000000E+00	 0.00000000E+00
	 0.00000000E+00	 0.00000000E+00	 0.00000000E+00
	 0.00000000E+00	 0.00000000E+00	 0.00000000E+00

	 0.00000000E+00	 0.00000000E+00	 0.00000000E+00
	 0.00000000E+00	 0.00000000E+00	 0.00000000E+00
	 0.00000000E+00	 0.00000000E+00	 0.00000000E+00

	 0.00000000E+00	 0.00000000E+00	 0.00000000E+00
	 0.00000000E+00	 0.00000000E+00	 0.00000000E+00
	 0.00000000E+00	 0.00000000E+00	 0.00000000E+00

	 0.00000000E+00	 0.00000000E+00	 0.00000000E+00
	 0.00000000E+00	 0.00000000E+00	 0.00000000E+00
	 0.00000000E+00	 0.00000000E+00	 0.00000000E+00

	 0.00000000E+00	 0.00000000E+00	 0.00000000E+00
	 0.00000000E+00	 0.00000000E+00	 0.00000000E+00
	 0.00000000E+00	 0.00000000E+00	 0.00000000E+00

	 0.00000000E+00	 0.00000000E+00	 0.00000000E+00
	 0.00000000E+00	 0.00000000E+00	 0.00000000E+00
	 0.00000000E+00	 0.00000000E+00	 0.00000000E+00

	 0.00000000E+00	 0.00000000E+00	 0.00000000E+00
	 0.00000000E+00	 0.00000000E+00	 0.00000000E+00
	 0.00000000E+00	 0.00000000E+00	 0.00000000E+00

	 0.00000000E+00	 0.00000000E+00	 0.00000000E+00
	 0.00000000E+00	 0.00000000E+00	 0.00000000E+00
	 0.00000000E+00	 0.00000000E+00	 0.00000000E+00

	 0.00000000E+00	 0.00000000E+00	 0.00000000E+00
	 0.00000000E+00	 0.00000000E+00	 0.00000000E+00
	 0.00000000E+00	 0.00000000E+00	 0.00000000E+00

	 0.00000000E+00	 0.00000000E+00	 0.00000000E+00
	 0.00000000E+00	 0.00000000E+00	 0.00000000E+00
	 0.00000000E+00	 0.00000000E+00	 0.00000000E+00

	 0.00000000E+00	 0.00000000E+00	 0.00000000E+00
	 0.00000000E+00	 0.00000000E+00	 0.00000000E+00
	 0.00000000E+00	 0.00000000E+00	 0.00000000E+00

	 0.00000000E+00	 0.00000000E+00	 0.00000000E+00
	 0.00000000E+00	 0.00000000E+00	 0.00000000E+00
	 0.00000000E+00	 0.00000000E+00	 0.00000000E+00

	 0.00000000E+00	 0.00000000E+00	 0.00000000E+00
	 0.00000000E+00	 0.00000000E+00	 0.00000000E+00
	 0.00000000E+00	 0.00000000E+00	 0.00000000E+00

	 0.00000000E+00	 0.00000000E+00	 0.00000000E+00
	 0.00000000E+00	 0.00000000E+00	 0.00000000E+00
	 0.00000000E+00	 0.00000000E+00	 0.00000000E+00

	 0.00000000E+00	 0.00000000E+00	 0.00000000E+00
	 0.00000000E+00	 0.00000000E+00	 0.00000000E+00
	 0.00000000E+00	 0.00000000E+00	 0.00000000E+00

	 0.00000000E+00	 0.00000000E+00	 0.00000000E+00
	 0.00000000E+00	 0.00000000E+00	 0.00000000E+00
	 0.00000000E+00	 0.00000000E+00	 0.00000000E+00

	 0.00000000E+00	 0.00000000E+00	 0.00000000E+00
	 0.00000000E+00	 0.00000000E+00	 0.00000000E+00
	 0.00000000E+00	 0.00000000E+00	 0.00000000E+00

	 0.00000000E+00	 0.00000000E+00	 0.00000000E+00
	 0.00000000E+00	 0.00000000E+00	 0.00000000E+00
	 0.00000000E+00	 0.00000000E+00	 0.00000000E+00

	 0.00000000E+00	 0.00000000E+00	 0.00000000E+00
	 0.00000000E+00	 0.00000000E+00	 0.00000000E+00
	 0.00000000E+00	 0.00000000E+00	 0.00000000E+00

	 0.00000000E+00	 0.00000000E+00	 0.00000000E+00
	 0.00000000E+00	 0.00000000E+00	 0.00000000E+00
	 0.00000000E+00	 0.00000000E+00	 0.00000000E+00

	 0.00000000E+00	 0.00000000E+00	 0.00000000E+00
	 0.00000000E+00	 0.00000000E+00	 0.00000000E+00
	 0.00000000E+00	 0.00000000E+00	 0.00000000E+00

	 0.00000000E+00	 0.00000000E+00	 0.00000000E+00
	 0.00000000E+00	 0.00000000E+00	 0.00000000E+00
	 0.00000000E+00	 0.00000000E+00	 0.00000000E+00

	 0.00000000E+00	 0.00000000E+00	 0.00000000E+00
	 0.00000000E+00	 0.00000000E+00	 0.00000000E+00
	 0.00000000E+00	 0.00000000E+00	 0.00000000E+00

	 0.00000000E+00	 0.00000000E+00	 0.00000000E+00
	 0.00000000E+00	 0.00000000E+00	 0.00000000E+00
	 0.00000000E+00	 0.00000000E+00	 0.00000000E+00

	 0.00000000E+00	 0.00000000E+00	 0.00000000E+00
	 0.00000000E+00	 0.00000000E+00	 0.00000000E+00
	 0.00000000E+00	 0.00000000E+00	 0.00000000E+00

	 0.00000000E+00	 0.00000000E+00	 0.00000000E+00
	 0.00000000E+00	 0.00000000E+00	 0.00000000E+00
	 0.00000000E+00	 0.00000000E+00	 0.00000000E+00

	 0.00000000E+00	 0.00000000E+00	 0.00000000E+00
	 0.00000000E+00	 0.00000000E+00	 0.00000000E+00
	 0.00000000E+00	 0.00000000E+00	 0.00000000E+00

	 0.00000000E+00	 0.00000000E+00	 0.00000000E+00
	 0.00000000E+00	 0.00000000E+00	 0.00000000E+00
	 0.00000000E+00	 0.00000000E+00	 0.00000000E+00

	 0.00000000E+00	 0.00000000E+00	 0.00000000E+00
	 0.00000000E+00	 0.00000000E+00	 0.00000000E+00
	 0.00000000E+00	 0.00000000E+00	 0.00000000E+00

	 0.00000000E+00	 0.00000000E+00	 0.00000000E+00
	 0.00000000E+00	 0.00000000E+00	 0.00000000E+00
	 0.00000000E+00	 0.00000000E+00	 0.00000000E+00

	 0.00000000E+00	 0.00000000E+00	 0.00000000E+00
	 0.00000000E+00	 0.00000000E+00	 0.00000000E+00
	 0.00000000E+00	 0.00000000E+00	 0.00000000E+00

	 0.00000000E+00	 0.00000000E+00	 0.00000000E+00
	 0.00000000E+00	 0.00000000E+00	 0.00000000E+00
	 0.00000000E+00	 0.00000000E+00	 0.00000000E+00

	 0.00000000E+00	 0.00000000E+00	 0.00000000E+00
	 0.00000000E+00	 0.00000000E+00	 0.00000000E+00
	 0.00000000E+00	 0.00000000E+00	 0.00000000E+00

	 0.00000000E+00	 0.00000000E+00	 0.00000000E+00
	 0.00000000E+00	 0.00000000E+00	 0.00000000E+00
	 0.00000000E+00	 0.00000000E+00	 0.00000000E+00

	 0.00000000E+00	 0.00000000E+00	 0.00000000E+00
	 0.00000000E+00	 0.00000000E+00	 0.00000000E+00
	 0.00000000E+00	 0.00000000E+00	 0.00000000E+00

	 0.00000000E+00	 0.00000000E+00	 0.00000000E+00
	 0.00000000E+00	 0.00000000E+00	 0.00000000E+00
	 0.00000000E+00	 0.00000000E+00	 0.00000000E+00

	 0.00000000E+00	 0.00000000E+00	 0.00000000E+00
	 0.00000000E+00	 0.00000000E+00	 0.00000000E+00
	 0.00000000E+00	 0.00000000E+00	 0.00000000E+00

	 0.00000000E+00	 0.00000000E+00	 0.00000000E+00
	 0.00000000E+00	 0.00000000E+00	 0.00000000E+00
	 0.00000000E+00	 0.00000000E+00	 0.00000000E+00

	 0.00000000E+00	 0.00000000E+00	 0.00000000E+00
	 0.00000000E+00	 0.00000000E+00	 0.00000000E+00
	 0.00000000E+00	 0.00000000E+00	 0.00000000E+00

	 0.00000000E+00	 0.00000000E+00	 0.00000000E+00
	 0.00000000E+00	 0.00000000E+00	 0.00000000E+00
	 0.00000000E+00	 0.00000000E+00	 0.00000000E+00

	 0.00000000E+00	 0.00000000E+00	 0.00000000E+00
	 0.00000000E+00	 0.00000000E+00	 0.00000000E+00
	 0.00000000E+00	 0.00000000E+00	 0.00000000E+00

	 0.00000000E+00	 0.00000000E+00	 0.00000000E+00
	 0.00000000E+00	 0.00000000E+00	 0.00000000E+00
	 0.00000000E+00	 0.00000000E+00	 0.00000000E+00

	 0.00000000E+00	 0.00000000E+00	 0.00000000E+00
	 0.00000000E+00	 0.00000000E+00	 0.00000000E+00
	 0.00000000E+00	 0.00000000E+00	 0.00000000E+00

	 0.00000000E+00	 0.00000000E+00	 0.00000000E+00
	 0.00000000E+00	 0.00000000E+00	 0.00000000E+00
	 0.00000000E+00	 0.00000000E+00	 0.00000000E+00

	 0.00000000E+00	 0.00000000E+00	 0.00000000E+00
	 0.00000000E+00	 0.00000000E+00	 0.00000000E+00
	 0.00000000E+00	 0.00000000E+00	 0.00000000E+00

	 0.00000000E+00	 0.00000000E+00	 0.00000000E+00
	 0.00000000E+00	 0.00000000E+00	 0.00000000E+00
	 0.00000000E+00	 0.00000000E+00	 0.00000000E+00

	 0.00000000E+00	 0.00000000E+00	 0.00000000E+00
	 0.00000000E+00	 0.00000000E+00	 0.00000000E+00
	 0.00000000E+00	 0.00000000E+00	 0.00000000E+00

	 0.00000000E+00	 0.00000000E+00	 0.00000000E+00
	 0.00000000E+00	 0.00000000E+00	 0.00000000E+00
	 0.00000000E+00	 0.00000000E+00	 0.00000000E+00

	 0.00000000E+00	 0.00000000E+00	 0.00000000E+00
	 0.00000000E+00	 0.00000000E+00	 0.00000000E+00
	 0.00000000E+00	 0.00000000E+00	 0.00000000E+00

	 0.00000000E+00	 0.00000000E+00	 0.00000000E+00
	 0.00000000E+00	 0.00000000E+00	 0.00000000E+00
	 0.00000000E+00	 0.00000000E+00	 0.00000000E+00

	 0.00000000E+00	 0.00000000E+00	 0.00000000E+00
	 0.00000000E+00	 0.00000000E+00	 0.00000000E+00
	 0.00000000E+00	 0.00000000E+00	 0.00000000E+00

	 0.00000000E+00	 0.00000000E+00	 0.00000000E+00
	 0.00000000E+00	 0.00000000E+00	 0.00000000E+00
	 0.00000000E+00	 0.00000000E+00	 0.00000000E+00

	 0.00000000E+00	 0.00000000E+00	 0.00000000E+00
	 0.00000000E+00	 0.00000000E+00	 0.00000000E+00
	 0.00000000E+00	 0.00000000E+00	 0.00000000E+00

	 0.00000000E+00	 0.00000000E+00	 0.00000000E+00
	 0.00000000E+00	 0.00000000E+00	 0.00000000E+00
	 0.00000000E+00	 0.00000000E+00	 0.00000000E+00

	 0.00000000E+00	 0.00000000E+00	 0.00000000E+00
	 0.00000000E+00	 0.00000000E+00	 0.00000000E+00
	 0.00000000E+00	 0.00000000E+00	 0.00000000E+00

	 0.00000000E+00	 0.00000000E+00	 0.00000000E+00
	 0.00000000E+00	 0.00000000E+00	 0.00000000E+00
	 0.00000000E+00	 0.00000000E+00	 0.00000000E+00

	 0.00000000E+00	 0.00000000E+00	 0.00000000E+00
	 0.00000000E+00	 0.00000000E+00	 0.00000000E+00
	 0.00000000E+00	 0.00000000E+00	 0.00000000E+00

	 0.00000000E+00	 0.00000000E+00	 0.00000000E+00
	 0.00000000E+00	 0.00000000E+00	 0.00000000E+00
	 0.00000000E+00	 0.00000000E+00	 0.00000000E+00

	 0.00000000E+00	 0.00000000E+00	 0.00000000E+00
	 0.00000000E+00	 0.00000000E+00	 0.00000000E+00
	 0.00000000E+00	 0.00000000E+00	 0.00000000E+00

	 0.00000000E+00	 0.00000000E+00	 0.00000000E+00
	 0.00000000E+00	 0.00000000E+00	 0.00000000E+00
	 0.00000000E+00	 0.00000000E+00	 0.00000000E+00

	 0.00000000E+00	 0.00000000E+00	 0.00000000E+00
	 0.00000000E+00	 0.00000000E+00	 0.00000000E+00
	 0.00000000E+00	 0.00000000E+00	 0.00000000E+00

	 0.00000000E+00	 0.00000000E+00	 0.00000000E+00
	 0.00000000E+00	 0.00000000E+00	 0.00000000E+00
	 0.00000000E+00	 0.00000000E+00	 0.00000000E+00

	 0.00000000E+00	 0.00000000E+00	 0.00000000E+00
	 0.00000000E+00	 0.00000000E+00	 0.00000000E+00
	 0.00000000E+00	 0.00000000E+00	 0.00000000E+00

	 0.00000000E+00	 0.00000000E+00	 0.00000000E+00
	 0.00000000E+00	 0.00000000E+00	 0.00000000E+00
	 0.00000000E+00	 0.00000000E+00	 0.00000000E+00

	 0.00000000E+00	 0.00000000E+00	 0.00000000E+00
	 0.00000000E+00	 0.00000000E+00	 0.00000000E+00
	 0.00000000E+00	 0.00000000E+00	 0.00000000E+00

	 0.00000000E+00	 0.00000000E+00	 0.00000000E+00
	 0.00000000E+00	 0.00000000E+00	 0.00000000E+00
	 0.00000000E+00	 0.00000000E+00	 0.00000000E+00

	 0.00000000E+00	 0.00000000E+00	 0.00000000E+00
	 0.00000000E+00	 0.00000000E+00	 0.00000000E+00
	 0.00000000E+00	 0.00000000E+00	 0.00000000E+00

	 0.00000000E+00	 0.00000000E+00	 0.00000000E+00
	 0.00000000E+00	 0.00000000E+00	 0.00000000E+00
	 0.00000000E+00	 0.00000000E+00	 0.00000000E+00

	 0.00000000E+00	 0.00000000E+00	 0.00000000E+00
	 0.00000000E+00	 0.00000000E+00	 0.00000000E+00
	 0.00000000E+00	 0.00000000E+00	 0.00000000E+00

	 0.00000000E+00	 0.00000000E+00	 0.00000000E+00
	 0.00000000E+00	 0.00000000E+00	 0.00000000E+00
	 0.00000000E+00	 0.00000000E+00	 0.00000000E+00

	 0.00000000E+00	 0.00000000E+00	 0.00000000E+00
	 0.00000000E+00	 0.00000000E+00	 0.00000000E+00
	 0.00000000E+00	 0.00000000E+00	 0.00000000E+00

	 0.00000000E+00	 0.00000000E+00	 0.00000000E+00
	 0.00000000E+00	 0.00000000E+00	 0.00000000E+00
	 0.00000000E+00	 0.00000000E+00	 0.00000000E+00

	 0.00000000E+00	 0.00000000E+00	 0.00000000E+00
	 0.00000000E+00	 0.00000000E+00	 0.00000000E+00
	 0.00000000E+00	 0.00000000E+00	 0.00000000E+00

	 0.00000000E+00	 0.00000000E+00	 0.00000000E+00
	 0.00000000E+00	 0.00000000E+00	 0.00000000E+00
	 0.00000000E+00	 0.00000000E+00	 0.00000000E+00

	 0.00000000E+00	 0.00000000E+00	 0.00000000E+00
	 0.00000000E+00	 0.00000000E+00	 0.00000000E+00
	 0.00000000E+00	 0.00000000E+00	 0.00000000E+00

	 0.00000000E+00	 0.00000000E+00	 0.00000000E+00
	 0.00000000E+00	 0.00000000E+00	 0.00000000E+00
	 0.00000000E+00	 0.00000000E+00	 0.00000000E+00

	 0.00000000E+00	 0.00000000E+00	 0.00000000E+00
	 0.00000000E+00	 0.00000000E+00	 0.00000000E+00
	 0.00000000E+00	 0.00000000E+00	 0.00000000E+00

	 0.00000000E+00	 0.00000000E+00	 0.00000000E+00
	 0.00000000E+00	 0.00000000E+00	 0.00000000E+00
	 0.00000000E+00	 0.00000000E+00	 0.00000000E+00

	 0.00000000E+00	 0.00000000E+00	 0.00000000E+00
	 0.00000000E+00	 0.00000000E+00	 0.00000000E+00
	 0.00000000E+00	 0.00000000E+00	 0.00000000E+00

	 0.00000000E+00	 0.00000000E+00	 0.00000000E+00
	 0.00000000E+00	 0.00000000E+00	 0.00000000E+00
	 0.00000000E+00	 0.00000000E+00	 0.00000000E+00

	 0.00000000E+00	 0.00000000E+00	 0.00000000E+00
	 0.00000000E+00	 0.00000000E+00	 0.00000000E+00
	 0.00000000E+00	 0.00000000E+00	 0.00000000E+00

	 0.00000000E+00	 0.00000000E+00	 0.00000000E+00
	 0.00000000E+00	 0.00000000E+00	 0.00000000E+00
	 0.00000000E+00	 0.00000000E+00	 0.00000000E+00

	 0.00000000E+00	 0.00000000E+00	 0.00000000E+00
	 0.00000000E+00	 0.00000000E+00	 0.00000000E+00
	 0.00000000E+00	 0.00000000E+00	 0.00000000E+00

	 0.00000000E+00	 0.00000000E+00	 0.00000000E+00
	 0.00000000E+00	 0.00000000E+00	 0.00000000E+00
	 0.00000000E+00	 0.00000000E+00	 0.00000000E+00

	 0.00000000E+00	 0.00000000E+00	 0.00000000E+00
	 0.00000000E+00	 0.00000000E+00	 0.00000000E+00
	 0.00000000E+00	 0.00000000E+00	 0.00000000E+00

	 0.00000000E+00	 0.00000000E+00	 0.00000000E+00
	 0.00000000E+00	 0.00000000E+00	 0.00000000E+00
	 0.00000000E+00	 0.00000000E+00	 0.00000000E+00

	 0.00000000E+00	 0.00000000E+00	 0.00000000E+00
	 0.00000000E+00	 0.00000000E+00	 0.00000000E+00
	 0.00000000E+00	 0.00000000E+00	 0.00000000E+00

	 0.00000000E+00	 0.00000000E+00	 0.00000000E+00
	 0.00000000E+00	 0.00000000E+00	 0.00000000E+00
	 0.00000000E+00	 0.00000000E+00	 0.00000000E+00

	 0.00000000E+00	 0.00000000E+00	 0.00000000E+00
	 0.00000000E+00	 0.00000000E+00	 0.00000000E+00
	 0.00000000E+00	 0.00000000E+00	 0.00000000E+00

	 0.00000000E+00	 0.00000000E+00	 0.00000000E+00
	 0.00000000E+00	 0.00000000E+00	 0.00000000E+00
	 0.00000000E+00	 0.00000000E+00	 0.00000000E+00

	 0.00000000E+00	 0.00000000E+00	 0.00000000E+00
	 0.00000000E+00	 0.00000000E+00	 0.00000000E+00
	 0.00000000E+00	 0.00000000E+00	 0.00000000E+00

	 0.00000000E+00	 0.00000000E+00	 0.00000000E+00
	 0.00000000E+00	 0.00000000E+00	 0.00000000E+00
	 0.00000000E+00	 0.00000000E+00	 0.00000000E+00

	 0.00000000E+00	 0.00000000E+00	 0.00000000E+00
	 0.00000000E+00	 0.00000000E+00	 0.00000000E+00
	 0.00000000E+00	 0.00000000E+00	 0.00000000E+00

	 0.00000000E+00	 0.00000000E+00	 0.00000000E+00
	 0.00000000E+00	 0.00000000E+00	 0.00000000E+00
	 0.00000000E+00	 0.00000000E+00	 0.00000000E+00

	 0.00000000E+00	 0.00000000E+00	 0.00000000E+00
	 0.00000000E+00	 0.00000000E+00	 0.00000000E+00
	 0.00000000E+00	 0.00000000E+00	 0.00000000E+00

	 0.00000000E+00	 0.00000000E+00	 0.00000000E+00
	 0.00000000E+00	 0.00000000E+00	 0.00000000E+00
	 0.00000000E+00	 0.00000000E+00	 0.00000000E+00

	 0.00000000E+00	 0.00000000E+00	 0.00000000E+00
	 0.00000000E+00	 0.00000000E+00	 0.00000000E+00
	 0.00000000E+00	 0.00000000E+00	 0.00000000E+00

	 0.00000000E+00	 0.00000000E+00	 0.00000000E+00
	 0.00000000E+00	 0.00000000E+00	 0.00000000E+00
	 0.00000000E+00	 0.00000000E+00	 0.00000000E+00

	 0.00000000E+00	 0.00000000E+00	 0.00000000E+00
	 0.00000000E+00	 0.00000000E+00	 0.00000000E+00
	 0.00000000E+00	 0.00000000E+00	 0.00000000E+00

	 0.00000000E+00	 0.00000000E+00	 0.00000000E+00
	 0.00000000E+00	 0.00000000E+00	 0.00000000E+00
	 0.00000000E+00	 0.00000000E+00	 0.00000000E+00

	 0.00000000E+00	 0.00000000E+00	 0.00000000E+00
	 0.00000000E+00	 0.00000000E+00	 0.00000000E+00
	 0.00000000E+00	 0.00000000E+00	 0.00000000E+00

	 0.00000000E+00	 0.00000000E+00	 0.00000000E+00
	 0.00000000E+00	 0.00000000E+00	 0.00000000E+00
	 0.00000000E+00	 0.00000000E+00	 0.00000000E+00

	 0.00000000E+00	 0.00000000E+00	 0.00000000E+00
	 0.00000000E+00	 0.00000000E+00	 0.00000000E+00
	 0.00000000E+00	 0.00000000E+00	 0.00000000E+00

	 0.00000000E+00	 0.00000000E+00	 0.00000000E+00
	 0.00000000E+00	 0.00000000E+00	 0.00000000E+00
	 0.00000000E+00	 0.00000000E+00	 0.00000000E+00

	 0.00000000E+00	 0.00000000E+00	 0.00000000E+00
	 0.00000000E+00	 0.00000000E+00	 0.00000000E+00
	 0.00000000E+00	 0.00000000E+00	 0.00000000E+00

	 0.00000000E+00	 0.00000000E+00	 0.00000000E+00
	 0.00000000E+00	 0.00000000E+00	 0.00000000E+00
	 0.00000000E+00	 0.00000000E+00	 0.00000000E+00

	 0.00000000E+00	 0.00000000E+00	 0.00000000E+00
	 0.00000000E+00	 0.00000000E+00	 0.00000000E+00
	 0.00000000E+00	 0.00000000E+00	 0.00000000E+00

	 0.00000000E+00	 0.00000000E+00	 0.00000000E+00
	 0.00000000E+00	 0.00000000E+00	 0.00000000E+00
	 0.00000000E+00	 0.00000000E+00	 0.00000000E+00

	 0.00000000E+00	 0.00000000E+00	 0.00000000E+00
	 0.00000000E+00	 0.00000000E+00	 0.00000000E+00
	 0.00000000E+00	 0.00000000E+00	 0.00000000E+00

	 0.00000000E+00	 0.00000000E+00	 0.00000000E+00
	 0.00000000E+00	 0.00000000E+00	 0.00000000E+00
	 0.00000000E+00	 0.00000000E+00	 0.00000000E+00

	 0.00000000E+00	 0.00000000E+00	 0.00000000E+00
	 0.00000000E+00	 0.00000000E+00	 0.00000000E+00
	 0.00000000E+00	 0.00000000E+00	 0.00000000E+00

	 0.00000000E+00	 0.00000000E+00	 0.00000000E+00
	 0.00000000E+00	 0.00000000E+00	 0.00000000E+00
	 0.00000000E+00	 0.00000000E+00	 0.00000000E+00

	 0.00000000E+00	 0.00000000E+00	 0.00000000E+00
	 0.00000000E+00	 0.00000000E+00	 0.00000000E+00
	 0.00000000E+00	 0.00000000E+00	 0.00000000E+00

	 0.00000000E+00	 0.00000000E+00	 0.00000000E+00
	 0.00000000E+00	 0.00000000E+00	 0.00000000E+00
	 0.00000000E+00	 0.00000000E+00	 0.00000000E+00

	 0.00000000E+00	 0.00000000E+00	 0.00000000E+00
	 0.00000000E+00	 0.00000000E+00	 0.00000000E+00
	 0.00000000E+00	 0.00000000E+00	 0.00000000E+00

	 0.00000000E+00	 0.00000000E+00	 0.00000000E+00
	 0.00000000E+00	 0.00000000E+00	 0.00000000E+00
	 0.00000000E+00	 0.00000000E+00	 0.00000000E+00

	 0.00000000E+00	 0.00000000E+00	 0.00000000E+00
	 0.00000000E+00	 0.00000000E+00	 0.00000000E+00
	 0.00000000E+00	 0.00000000E+00	 0.00000000E+00

	 0.00000000E+00	 0.00000000E+00	 0.00000000E+00
	 0.00000000E+00	 0.00000000E+00	 0.00000000E+00
	 0.00000000E+00	 0.00000000E+00	 0.00000000E+00

	 0.00000000E+00	 0.00000000E+00	 0.00000000E+00
	 0.00000000E+00	 0.00000000E+00	 0.00000000E+00
	 0.00000000E+00	 0.00000000E+00	 0.00000000E+00

	 0.00000000E+00	 0.00000000E+00	 0.00000000E+00
	 0.00000000E+00	 0.00000000E+00	 0.00000000E+00
	 0.00000000E+00	 0.00000000E+00	 0.00000000E+00

	 0.00000000E+00	 0.00000000E+00	 0.00000000E+00
	 0.00000000E+00	 0.00000000E+00	 0.00000000E+00
	 0.00000000E+00	 0.00000000E+00	 0.00000000E+00

	 0.00000000E+00	 0.00000000E+00	 0.00000000E+00
	 0.00000000E+00	 0.00000000E+00	 0.00000000E+00
	 0.00000000E+00	 0.00000000E+00	 0.00000000E+00

	 0.00000000E+00	 0.00000000E+00	 0.00000000E+00
	 0.00000000E+00	 0.00000000E+00	 0.00000000E+00
	 0.00000000E+00	 0.00000000E+00	 0.00000000E+00

	 0.00000000E+00	 0.00000000E+00	 0.00000000E+00
	 0.00000000E+00	 0.00000000E+00	 0.00000000E+00
	 0.00000000E+00	 0.00000000E+00	 0.00000000E+00

	 0.00000000E+00	 0.00000000E+00	 0.00000000E+00
	 0.00000000E+00	 0.00000000E+00	 0.00000000E+00
	 0.00000000E+00	 0.00000000E+00	 0.00000000E+00

	 0.00000000E+00	 0.00000000E+00	 0.00000000E+00
	 0.00000000E+00	 0.00000000E+00	 0.00000000E+00
	 0.00000000E+00	 0.00000000E+00	 0.00000000E+00

	 0.00000000E+00	 0.00000000E+00	 0.00000000E+00
	 0.00000000E+00	 0.00000000E+00	 0.00000000E+00
	 0.00000000E+00	 0.00000000E+00	 0.00000000E+00

	 0.00000000E+00	 0.00000000E+00	 0.00000000E+00
	 0.00000000E+00	 0.00000000E+00	 0.00000000E+00
	 0.00000000E+00	 0.00000000E+00	 0.00000000E+00

	 0.00000000E+00	 0.00000000E+00	 0.00000000E+00
	 0.00000000E+00	 0.00000000E+00	 0.00000000E+00
	 0.00000000E+00	 0.00000000E+00	 0.00000000E+00

	 0.00000000E+00	 0.00000000E+00	 0.00000000E+00
	 0.00000000E+00	 0.00000000E+00	 0.00000000E+00
	 0.00000000E+00	 0.00000000E+00	 0.00000000E+00

	 0.00000000E+00	 0.00000000E+00	 0.00000000E+00
	 0.00000000E+00	 0.00000000E+00	 0.00000000E+00
	 0.00000000E+00	 0.00000000E+00	 0.00000000E+00

	 0.00000000E+00	 0.00000000E+00	 0.00000000E+00
	 0.00000000E+00	 0.00000000E+00	 0.00000000E+00
	 0.00000000E+00	 0.00000000E+00	 0.00000000E+00

	 0.00000000E+00	 0.00000000E+00	 0.00000000E+00
	 0.00000000E+00	 0.00000000E+00	 0.00000000E+00
	 0.00000000E+00	 0.00000000E+00	 0.00000000E+00

	 0.00000000E+00	 0.00000000E+00	 0.00000000E+00
	 0.00000000E+00	 0.00000000E+00	 0.00000000E+00
	 0.00000000E+00	 0.00000000E+00	 0.00000000E+00

	 0.00000000E+00	 0.00000000E+00	 0.00000000E+00
	 0.00000000E+00	 0.00000000E+00	 0.00000000E+00
	 0.00000000E+00	 0.00000000E+00	 0.00000000E+00

	 0.00000000E+00	 0.00000000E+00	 0.00000000E+00
	 0.00000000E+00	 0.00000000E+00	 0.00000000E+00
	 0.00000000E+00	 0.00000000E+00	 0.00000000E+00

	 0.00000000E+00	 0.00000000E+00	 0.00000000E+00
	 0.00000000E+00	 0.00000000E+00	 0.00000000E+00
	 0.00000000E+00	 0.00000000E+00	 0.00000000E+00

	 0.00000000E+00	 0.00000000E+00	 0.00000000E+00
	 0.00000000E+00	 0.00000000E+00	 0.00000000E+00
	 0.00000000E+00	 0.00000000E+00	 0.00000000E+00

	 0.00000000E+00	 0.00000000E+00	 0.00000000E+00
	 0.00000000E+00	 0.00000000E+00	 0.00000000E+00
	 0.00000000E+00	 0.00000000E+00	 0.00000000E+00

	 0.00000000E+00	 0.00000000E+00	 0.00000000E+00
	 0.00000000E+00	 0.00000000E+00	 0.00000000E+00
	 0.00000000E+00	 0.00000000E+00	 0.00000000E+00

	 0.00000000E+00	 0.00000000E+00	 0.00000000E+00
	 0.00000000E+00	 0.00000000E+00	 0.00000000E+00
	 0.00000000E+00	 0.00000000E+00	 0.00000000E+00

	 0.00000000E+00	 0.00000000E+00	 0.00000000E+00
	 0.00000000E+00	 0.00000000E+00	 0.00000000E+00
	 0.00000000E+00	 0.00000000E+00	 0.00000000E+00

	 0.00000000E+00	 0.00000000E+00	 0.00000000E+00
	 0.00000000E+00	 0.00000000E+00	 0.00000000E+00
	 0.00000000E+00	 0.00000000E+00	 0.00000000E+00

	 0.00000000E+00	 0.00000000E+00	 0.00000000E+00
	 0.00000000E+00	 0.00000000E+00	 0.00000000E+00
	 0.00000000E+00	 0.00000000E+00	 0.00000000E+00

	 0.00000000E+00	 0.00000000E+00	 0.00000000E+00
	 0.00000000E+00	 0.00000000E+00	 0.00000000E+00
	 0.00000000E+00	 0.00000000E+00	 0.00000000E+00

	 0.00000000E+00	 0.00000000E+00	 0.00000000E+00
	 0.00000000E+00	 0.00000000E+00	 0.00000000E+00
	 0.00000000E+00	 0.00000000E+00	 0.00000000E+00

	 0.00000000E+00	 0.00000000E+00	 0.00000000E+00
	 0.00000000E+00	 0.00000000E+00	 0.00000000E+00
	 0.00000000E+00	 0.00000000E+00	 0.00000000E+00

	 0.00000000E+00	 0.00000000E+00	 0.00000000E+00
	 0.00000000E+00	 0.00000000E+00	 0.00000000E+00
	 0.00000000E+00	 0.00000000E+00	 0.00000000E+00

	 0.00000000E+00	 0.00000000E+00	 0.00000000E+00
	 0.00000000E+00	 0.00000000E+00	 0.00000000E+00
	 0.00000000E+00	 0.00000000E+00	 0.00000000E+00

	 0.00000000E+00	 0.00000000E+00	 0.00000000E+00
	 0.00000000E+00	 0.00000000E+00	 0.00000000E+00
	 0.00000000E+00	 0.00000000E+00	 0.00000000E+00

	 0.00000000E+00	 0.00000000E+00	 0.00000000E+00
	 0.00000000E+00	 0.00000000E+00	 0.00000000E+00
	 0.00000000E+00	 0.00000000E+00	 0.00000000E+00

	 0.00000000E+00	 0.00000000E+00	 0.00000000E+00
	 0.00000000E+00	 0.00000000E+00	 0.00000000E+00
	 0.00000000E+00	 0.00000000E+00	 0.00000000E+00

	 0.00000000E+00	 0.00000000E+00	 0.00000000E+00
	 0.00000000E+00	 0.00000000E+00	 0.00000000E+00
	 0.00000000E+00	 0.00000000E+00	 0.00000000E+00

	 0.00000000E+00	 0.00000000E+00	 0.00000000E+00
	 0.00000000E+00	 0.00000000E+00	 0.00000000E+00
	 0.00000000E+00	 0.00000000E+00	 0.00000000E+00

	 0.00000000E+00	 0.00000000E+00	 0.00000000E+00
	 0.00000000E+00	 0.00000000E+00	 0.00000000E+00
	 0.00000000E+00	 0.00000000E+00	 0.00000000E+00

	 0.00000000E+00	 0.00000000E+00	 0.00000000E+00
	 0.00000000E+00	 0.00000000E+00	 0.00000000E+00
	 0.00000000E+00	 0.00000000E+00	 0.00000000E+00

	 0.00000000E+00	 0.00000000E+00	 0.00000000E+00
	 0.00000000E+00	 0.00000000E+00	 0.00000000E+00
	 0.00000000E+00	 0.00000000E+00	 0.00000000E+00

	 0.00000000E+00	 0.00000000E+00	 0.00000000E+00
	 0.00000000E+00	 0.00000000E+00	 0.00000000E+00
	 0.00000000E+00	 0.00000000E+00	 0.00000000E+00

	 0.00000000E+00	 0.00000000E+00	 0.00000000E+00
	 0.00000000E+00	 0.00000000E+00	 0.00000000E+00
	 0.00000000E+00	 0.00000000E+00	 0.00000000E+00

	 0.00000000E+00	 0.00000000E+00	 0.00000000E+00
	 0.00000000E+00	 0.00000000E+00	 0.00000000E+00
	 0.00000000E+00	 0.00000000E+00	 0.00000000E+00

	 0.00000000E+00	 0.00000000E+00	 0.00000000E+00
	 0.00000000E+00	 0.00000000E+00	 0.00000000E+00
	 0.00000000E+00	 0.00000000E+00	 0.00000000E+00

	 0.00000000E+00	 0.00000000E+00	 0.00000000E+00
	 0.00000000E+00	 0.00000000E+00	 0.00000000E+00
	 0.00000000E+00	 0.00000000E+00	 0.00000000E+00

	 0.00000000E+00	 0.00000000E+00	 0.00000000E+00
	 0.00000000E+00	 0.00000000E+00	 0.00000000E+00
	 0.00000000E+00	 0.00000000E+00	 0.00000000E+00

	 0.00000000E+00	 0.00000000E+00	 0.00000000E+00
	 0.00000000E+00	 0.00000000E+00	 0.00000000E+00
	 0.00000000E+00	 0.00000000E+00	 0.00000000E+00

	 0.00000000E+00	 0.00000000E+00	 0.00000000E+00
	 0.00000000E+00	 0.00000000E+00	 0.00000000E+00
	 0.00000000E+00	 0.00000000E+00	 0.00000000E+00

	 0.00000000E+00	 0.00000000E+00	 0.00000000E+00
	 0.00000000E+00	 0.00000000E+00	 0.00000000E+00
	 0.00000000E+00	 0.00000000E+00	 0.00000000E+00

	 0.00000000E+00	 0.00000000E+00	 0.00000000E+00
	 0.00000000E+00	 0.00000000E+00	 0.00000000E+00
	 0.00000000E+00	 0.00000000E+00	 0.00000000E+00

	 0.00000000E+00	 0.00000000E+00	 0.00000000E+00
	 0.00000000E+00	 0.00000000E+00	 0.00000000E+00
	 0.00000000E+00	 0.00000000E+00	 0.00000000E+00

	 0.00000000E+00	 0.00000000E+00	 0.00000000E+00
	 0.00000000E+00	 0.00000000E+00	 0.00000000E+00
	 0.00000000E+00	 0.00000000E+00	 0.00000000E+00

	 0.00000000E+00	 0.00000000E+00	 0.00000000E+00
	 0.00000000E+00	 0.00000000E+00	 0.00000000E+00
	 0.00000000E+00	 0.00000000E+00	 0.00000000E+00

	 0.00000000E+00	 0.00000000E+00	 0.00000000E+00
	 0.00000000E+00	 0.00000000E+00	 0.00000000E+00
	 0.00000000E+00	 0.00000000E+00	 0.00000000E+00

	 0.00000000E+00	 0.00000000E+00	 0.00000000E+00
	 0.00000000E+00	 0.00000000E+00	 0.00000000E+00
	 0.00000000E+00	 0.00000000E+00	 0.00000000E+00

	 0.00000000E+00	 0.00000000E+00	 0.00000000E+00
	 0.00000000E+00	 0.00000000E+00	 0.00000000E+00
	 0.00000000E+00	 0.00000000E+00	 0.00000000E+00

	 0.00000000E+00	 0.00000000E+00	 0.00000000E+00
	 0.00000000E+00	 0.00000000E+00	 0.00000000E+00
	 0.00000000E+00	 0.00000000E+00	 0.00000000E+00

	 0.00000000E+00	 0.00000000E+00	 0.00000000E+00
	 0.00000000E+00	 0.00000000E+00	 0.00000000E+00
	 0.00000000E+00	 0.00000000E+00	 0.00000000E+00

	 0.00000000E+00	 0.00000000E+00	 0.00000000E+00
	 0.00000000E+00	 0.00000000E+00	 0.00000000E+00
	 0.00000000E+00	 0.00000000E+00	 0.00000000E+00

	 0.00000000E+00	 0.00000000E+00	 0.00000000E+00
	 0.00000000E+00	 0.00000000E+00	 0.00000000E+00
	 0.00000000E+00	 0.00000000E+00	 0.00000000E+00

	 0.00000000E+00	 0.00000000E+00	 0.00000000E+00
	 0.00000000E+00	 0.00000000E+00	 0.00000000E+00
	 0.00000000E+00	 0.00000000E+00	 0.00000000E+00

	 0.00000000E+00	 0.00000000E+00	 0.00000000E+00
	 0.00000000E+00	 0.00000000E+00	 0.00000000E+00
	 0.00000000E+00	 0.00000000E+00	 0.00000000E+00

	 0.00000000E+00	 0.00000000E+00	 0.00000000E+00
	 0.00000000E+00	 0.00000000E+00	 0.00000000E+00
	 0.00000000E+00	 0.00000000E+00	 0.00000000E+00

	 0.00000000E+00	 0.00000000E+00	 0.00000000E+00
	 0.00000000E+00	 0.00000000E+00	 0.00000000E+00
	 0.00000000E+00	 0.00000000E+00	 0.00000000E+00

	 0.00000000E+00	 0.00000000E+00	 0.00000000E+00
	 0.00000000E+00	 0.00000000E+00	 0.00000000E+00
	 0.00000000E+00	 0.00000000E+00	 0.00000000E+00

	 0.00000000E+00	 0.00000000E+00	 0.00000000E+00
	 0.00000000E+00	 0.00000000E+00	 0.00000000E+00
	 0.00000000E+00	 0.00000000E+00	 0.00000000E+00

	 0.00000000E+00	 0.00000000E+00	 0.00000000E+00
	 0.00000000E+00	 0.00000000E+00	 0.00000000E+00
	 0.00000000E+00	 0.00000000E+00	 0.00000000E+00

	 0.00000000E+00	 0.00000000E+00	 0.00000000E+00
	 0.00000000E+00	 0.00000000E+00	 0.00000000E+00
	 0.00000000E+00	 0.00000000E+00	 0.00000000E+00

	 0.00000000E+00	 0.00000000E+00	 0.00000000E+00
	 0.00000000E+00	 0.00000000E+00	 0.00000000E+00
	 0.00000000E+00	 0.00000000E+00	 0.00000000E+00

	 0.00000000E+00	 0.00000000E+00	 0.00000000E+00
	 0.00000000E+00	 0.00000000E+00	 0.00000000E+00
	 0.00000000E+00	 0.00000000E+00	 0.00000000E+00

	 0.00000000E+00	 0.00000000E+00	 0.00000000E+00
	 0.00000000E+00	 0.00000000E+00	 0.00000000E+00
	 0.00000000E+00	 0.00000000E+00	 0.00000000E+00

	 0.00000000E+00	 0.00000000E+00	 0.00000000E+00
	 0.00000000E+00	 0.00000000E+00	 0.00000000E+00
	 0.00000000E+00	 0.00000000E+00	 0.00000000E+00

	 0.00000000E+00	 0.00000000E+00	 0.00000000E+00
	 0.00000000E+00	 0.00000000E+00	 0.00000000E+00
	 0.00000000E+00	 0.00000000E+00	 0.00000000E+00

	 0.00000000E+00	 0.00000000E+00	 0.00000000E+00
	 0.00000000E+00	 0.00000000E+00	 0.00000000E+00
	 0.00000000E+00	 0.00000000E+00	 0.00000000E+00

	 0.00000000E+00	 0.00000000E+00	 0.00000000E+00
	 0.00000000E+00	 0.00000000E+00	 0.00000000E+00
	 0.00000000E+00	 0.00000000E+00	 0.00000000E+00

	 0.00000000E+00	 0.00000000E+00	 0.00000000E+00
	 0.00000000E+00	 0.00000000E+00	 0.00000000E+00
	 0.00000000E+00	 0.00000000E+00	 0.00000000E+00

	 0.00000000E+00	 0.00000000E+00	 0.00000000E+00
	 0.00000000E+00	 0.00000000E+00	 0.00000000E+00
	 0.00000000E+00	 0.00000000E+00	 0.00000000E+00

	 0.00000000E+00	 0.00000000E+00	 0.00000000E+00
	 0.00000000E+00	 0.00000000E+00	 0.00000000E+00
	 0.00000000E+00	 0.00000000E+00	 0.00000000E+00

	 0.00000000E+00	 0.00000000E+00	 0.00000000E+00
	 0.00000000E+00	 0.00000000E+00	 0.00000000E+00
	 0.00000000E+00	 0.00000000E+00	 0.00000000E+00

	 0.00000000E+00	 0.00000000E+00	 0.00000000E+00
	 0.00000000E+00	 0.00000000E+00	 0.00000000E+00
	 0.00000000E+00	 0.00000000E+00	 0.00000000E+00

	 0.00000000E+00	 0.00000000E+00	 0.00000000E+00
	 0.00000000E+00	 0.00000000E+00	 0.00000000E+00
	 0.00000000E+00	 0.00000000E+00	 0.00000000E+00

	 0.00000000E+00	 0.00000000E+00	 0.00000000E+00
	 0.00000000E+00	 0.00000000E+00	 0.00000000E+00
	 0.00000000E+00	 0.00000000E+00	 0.00000000E+00

	 0.00000000E+00	 0.00000000E+00	 0.00000000E+00
	 0.00000000E+00	 0.00000000E+00	 0.00000000E+00
	 0.00000000E+00	 0.00000000E+00	 0.00000000E+00

	 0.00000000E+00	 0.00000000E+00	 0.00000000E+00
	 0.00000000E+00	 0.00000000E+00	 0.00000000E+00
	 0.00000000E+00	 0.00000000E+00	 0.00000000E+00

	 0.00000000E+00	 0.00000000E+00	 0.00000000E+00
	 0.00000000E+00	 0.00000000E+00	 0.00000000E+00
	 0.00000000E+00	 0.00000000E+00	 0.00000000E+00

	 0.00000000E+00	 0.00000000E+00	 0.00000000E+00
	 0.00000000E+00	 0.00000000E+00	 0.00000000E+00
	 0.00000000E+00	 0.00000000E+00	 0.00000000E+00

	 0.00000000E+00	 0.00000000E+00	 0.00000000E+00
	 0.00000000E+00	 0.00000000E+00	 0.00000000E+00
	 0.00000000E+00	 0.00000000E+00	 0.00000000E+00

	 0.00000000E+00	 0.00000000E+00	 0.00000000E+00
	 0.00000000E+00	 0.00000000E+00	 0.00000000E+00
	 0.00000000E+00	 0.00000000E+00	 0.00000000E+00

	 0.00000000E+00	 0.00000000E+00	 0.00000000E+00
	 0.00000000E+00	 0.00000000E+00	 0.00000000E+00
	 0.00000000E+00	 0.00000000E+00	 0.00000000E+00

	 0.00000000E+00	 0.00000000E+00	 0.00000000E+00
	 0.00000000E+00	 0.00000000E+00	 0.00000000E+00
	 0.00000000E+00	 0.00000000E+00	 0.00000000E+00

	 0.00000000E+00	 0.00000000E+00	 0.00000000E+00
	 0.00000000E+00	 0.00000000E+00	 0.00000000E+00
	 0.00000000E+00	 0.00000000E+00	 0.00000000E+00

	 0.00000000E+00	 0.00000000E+00	 0.00000000E+00
	 0.00000000E+00	 0.00000000E+00	 0.00000000E+00
	 0.00000000E+00	 0.00000000E+00	 0.00000000E+00

	 0.00000000E+00	 0.00000000E+00	 0.00000000E+00
	 0.00000000E+00	 0.00000000E+00	 0.00000000E+00
	 0.00000000E+00	 0.00000000E+00	 0.00000000E+00

	 0.00000000E+00	 0.00000000E+00	 0.00000000E+00
	 0.00000000E+00	 0.00000000E+00	 0.00000000E+00
	 0.00000000E+00	 0.00000000E+00	 0.00000000E+00

	 0.00000000E+00	 0.00000000E+00	 0.00000000E+00
	 0.00000000E+00	 0.00000000E+00	 0.00000000E+00
	 0.00000000E+00	 0.00000000E+00	 0.00000000E+00

	 0.00000000E+00	 0.00000000E+00	 0.00000000E+00
	 0.00000000E+00	 0.00000000E+00	 0.00000000E+00
	 0.00000000E+00	 0.00000000E+00	 0.00000000E+00

	 0.00000000E+00	 0.00000000E+00	 0.00000000E+00
	 0.00000000E+00	 0.00000000E+00	 0.00000000E+00
	 0.00000000E+00	 0.00000000E+00	 0.00000000E+00

	 0.00000000E+00	 0.00000000E+00	 0.00000000E+00
	 0.00000000E+00	 0.00000000E+00	 0.00000000E+00
	 0.00000000E+00	 0.00000000E+00	 0.00000000E+00

	 0.00000000E+00	 0.00000000E+00	 0.00000000E+00
	 0.00000000E+00	 0.00000000E+00	 0.00000000E+00
	 0.00000000E+00	 0.00000000E+00	 0.00000000E+00

	 0.00000000E+00	 0.00000000E+00	 0.00000000E+00
	 0.00000000E+00	 0.00000000E+00	 0.00000000E+00
	 0.00000000E+00	 0.00000000E+00	 0.00000000E+00

	 0.00000000E+00	 0.00000000E+00	 0.00000000E+00
	 0.00000000E+00	 0.00000000E+00	 0.00000000E+00
	 0.00000000E+00	 0.00000000E+00	 0.00000000E+00

	 0.00000000E+00	 0.00000000E+00	 0.00000000E+00
	 0.00000000E+00	 0.00000000E+00	 0.00000000E+00
	 0.00000000E+00	 0.00000000E+00	 0.00000000E+00

	 0.00000000E+00	 0.00000000E+00	 0.00000000E+00
	 0.00000000E+00	 0.00000000E+00	 0.00000000E+00
	 0.00000000E+00	 0.00000000E+00	 0.00000000E+00

	 0.00000000E+00	 0.00000000E+00	 0.00000000E+00
	 0.00000000E+00	 0.00000000E+00	 0.00000000E+00
	 0.00000000E+00	 0.00000000E+00	 0.00000000E+00

	 0.00000000E+00	 0.00000000E+00	 0.00000000E+00
	 0.00000000E+00	 0.00000000E+00	 0.00000000E+00
	 0.00000000E+00	 0.00000000E+00	 0.00000000E+00

	 0.00000000E+00	 0.00000000E+00	 0.00000000E+00
	 0.00000000E+00	 0.00000000E+00	 0.00000000E+00
	 0.00000000E+00	 0.00000000E+00	 0.00000000E+00

	 0.00000000E+00	 0.00000000E+00	 0.00000000E+00
	 0.00000000E+00	 0.00000000E+00	 0.00000000E+00
	 0.00000000E+00	 0.00000000E+00	 0.00000000E+00

	 0.00000000E+00	 0.00000000E+00	 0.00000000E+00
	 0.00000000E+00	 0.00000000E+00	 0.00000000E+00
	 0.00000000E+00	 0.00000000E+00	 0.00000000E+00

	 0.00000000E+00	 0.00000000E+00	 0.00000000E+00
	 0.00000000E+00	 0.00000000E+00	 0.00000000E+00
	 0.00000000E+00	 0.00000000E+00	 0.00000000E+00

	 0.00000000E+00	 0.00000000E+00	 0.00000000E+00
	 0.00000000E+00	 0.00000000E+00	 0.00000000E+00
	 0.00000000E+00	 0.00000000E+00	 0.00000000E+00

	 0.00000000E+00	 0.00000000E+00	 0.00000000E+00
	 0.00000000E+00	 0.00000000E+00	 0.00000000E+00
	 0.00000000E+00	 0.00000000E+00	 0.00000000E+00

	 0.00000000E+00	 0.00000000E+00	 0.00000000E+00
	 0.00000000E+00	 0.00000000E+00	 0.00000000E+00
	 0.00000000E+00	 0.00000000E+00	 0.00000000E+00

	 0.00000000E+00	 0.00000000E+00	 0.00000000E+00
	 0.00000000E+00	 0.00000000E+00	 0.00000000E+00
	 0.00000000E+00	 0.00000000E+00	 0.00000000E+00

	 0.00000000E+00	 0.00000000E+00	 0.00000000E+00
	 0.00000000E+00	 0.00000000E+00	 0.00000000E+00
	 0.00000000E+00	 0.00000000E+00	 0.00000000E+00

	 0.00000000E+00	 0.00000000E+00	 0.00000000E+00
	 0.00000000E+00	 0.00000000E+00	 0.00000000E+00
	 0.00000000E+00	 0.00000000E+00	 0.00000000E+00

	 0.00000000E+00	 0.00000000E+00	 0.00000000E+00
	 0.00000000E+00	 0.00000000E+00	 0.00000000E+00
	 0.00000000E+00	 0.00000000E+00	 0.00000000E+00

	 0.00000000E+00	 0.00000000E+00	 0.00000000E+00
	 0.00000000E+00	 0.00000000E+00	 0.00000000E+00
	 0.00000000E+00	 0.00000000E+00	 0.00000000E+00

	 0.00000000E+00	 0.00000000E+00	 0.00000000E+00
	 0.00000000E+00	 0.00000000E+00	 0.00000000E+00
	 0.00000000E+00	 0.00000000E+00	 0.00000000E+00

	 0.00000000E+00	 0.00000000E+00	 0.00000000E+00
	 0.00000000E+00	 0.00000000E+00	 0.00000000E+00
	 0.00000000E+00	 0.00000000E+00	 0.00000000E+00

	 0.00000000E+00	 0.00000000E+00	 0.00000000E+00
	 0.00000000E+00	 0.00000000E+00	 0.00000000E+00
	 0.00000000E+00	 0.00000000E+00	 0.00000000E+00

	 0.00000000E+00	 0.00000000E+00	 0.00000000E+00
	 0.00000000E+00	 0.00000000E+00	 0.00000000E+00
	 0.00000000E+00	 0.00000000E+00	 0.00000000E+00

	 0.00000000E+00	 0.00000000E+00	 0.00000000E+00
	 0.00000000E+00	 0.00000000E+00	 0.00000000E+00
	 0.00000000E+00	 0.00000000E+00	 0.00000000E+00

	 0.00000000E+00	 0.00000000E+00	 0.00000000E+00
	 0.00000000E+00	 0.00000000E+00	 0.00000000E+00
	 0.00000000E+00	 0.00000000E+00	 0.00000000E+00

	 0.00000000E+00	 0.00000000E+00	 0.00000000E+00
	 0.00000000E+00	 0.00000000E+00	 0.00000000E+00
	 0.00000000E+00	 0.00000000E+00	 0.00000000E+00

	 0.00000000E+00	 0.00000000E+00	 0.00000000E+00
	 0.00000000E+00	 0.00000000E+00	 0.00000000E+00
	 0.00000000E+00	 0.00000000E+00	 0.00000000E+00

	 0.00000000E+00	 0.00000000E+00	 0.00000000E+00
	 0.00000000E+00	 0.00000000E+00	 0.00000000E+00
	 0.00000000E+00	 0.00000000E+00	 0.00000000E+00

	 0.00000000E+00	 0.00000000E+00	 0.00000000E+00
	 0.00000000E+00	 0.00000000E+00	 0.00000000E+00
	 0.00000000E+00	 0.00000000E+00	 0.00000000E+00

	 0.00000000E+00	 0.00000000E+00	 0.00000000E+00
	 0.00000000E+00	 0.00000000E+00	 0.00000000E+00
	 0.00000000E+00	 0.00000000E+00	 0.00000000E+00

	 0.00000000E+00	 0.00000000E+00	 0.00000000E+00
	 0.00000000E+00	 0.00000000E+00	 0.00000000E+00
	 0.00000000E+00	 0.00000000E+00	 0.00000000E+00

	 0.00000000E+00	 0.00000000E+00	 0.00000000E+00
	 0.00000000E+00	 0.00000000E+00	 0.00000000E+00
	 0.00000000E+00	 0.00000000E+00	 0.00000000E+00

	 0.00000000E+00	 0.00000000E+00	 0.00000000E+00
	 0.00000000E+00	 0.00000000E+00	 0.00000000E+00
	 0.00000000E+00	 0.00000000E+00	 0.00000000E+00

	 0.00000000E+00	 0.00000000E+00	 0.00000000E+00
	 0.00000000E+00	 0.00000000E+00	 0.00000000E+00
	 0.00000000E+00	 0.00000000E+00	 0.00000000E+00

	 0.00000000E+00	 0.00000000E+00	 0.00000000E+00
	 0.00000000E+00	 0.00000000E+00	 0.00000000E+00
	 0.00000000E+00	 0.00000000E+00	 0.00000000E+00

	 0.00000000E+00	 0.00000000E+00	 0.00000000E+00
	 0.00000000E+00	 0.00000000E+00	 0.00000000E+00
	 0.00000000E+00	 0.00000000E+00	 0.00000000E+00

	 0.00000000E+00	 0.00000000E+00	 0.00000000E+00
	 0.00000000E+00	 0.00000000E+00	 0.00000000E+00
	 0.00000000E+00	 0.00000000E+00	 0.00000000E+00

	 0.00000000E+00	 0.00000000E+00	 0.00000000E+00
	 0.00000000E+00	 0.00000000E+00	 0.00000000E+00
	 0.00000000E+00	 0.00000000E+00	 0.00000000E+00

	 0.00000000E+00	 0.00000000E+00	 0.00000000E+00
	 0.00000000E+00	 0.00000000E+00	 0.00000000E+00
	 0.00000000E+00	 0.00000000E+00	 0.00000000E+00

	 0.00000000E+00	 0.00000000E+00	 0.00000000E+00
	 0.00000000E+00	 0.00000000E+00	 0.00000000E+00
	 0.00000000E+00	 0.00000000E+00	 0.00000000E+00

	 0.00000000E+00	 0.00000000E+00	 0.00000000E+00
	 0.00000000E+00	 0.00000000E+00	 0.00000000E+00
	 0.00000000E+00	 0.00000000E+00	 0.00000000E+00

	 0.00000000E+00	 0.00000000E+00	 0.00000000E+00
	 0.00000000E+00	 0.00000000E+00	 0.00000000E+00
	 0.00000000E+00	 0.00000000E+00	 0.00000000E+00

	 0.00000000E+00	 0.00000000E+00	 0.00000000E+00
	 0.00000000E+00	 0.00000000E+00	 0.00000000E+00
	 0.00000000E+00	 0.00000000E+00	 0.00000000E+00

	 0.00000000E+00	 0.00000000E+00	 0.00000000E+00
	 0.00000000E+00	 0.00000000E+00	 0.00000000E+00
	 0.00000000E+00	 0.00000000E+00	 0.00000000E+00

	 0.00000000E+00	 0.00000000E+00	 0.00000000E+00
	 0.00000000E+00	 0.00000000E+00	 0.00000000E+00
	 0.00000000E+00	 0.00000000E+00	 0.00000000E+00

	 0.00000000E+00	 0.00000000E+00	 0.00000000E+00
	 0.00000000E+00	 0.00000000E+00	 0.00000000E+00
	 0.00000000E+00	 0.00000000E+00	 0.00000000E+00

	 0.00000000E+00	 0.00000000E+00	 0.00000000E+00
	 0.00000000E+00	 0.00000000E+00	 0.00000000E+00
	 0.00000000E+00	 0.00000000E+00	 0.00000000E+00

	 0.00000000E+00	 0.00000000E+00	 0.00000000E+00
	 0.00000000E+00	 0.00000000E+00	 0.00000000E+00
	 0.00000000E+00	 0.00000000E+00	 0.00000000E+00

	 0.00000000E+00	 0.00000000E+00	 0.00000000E+00
	 0.00000000E+00	 0.00000000E+00	 0.00000000E+00
	 0.00000000E+00	 0.00000000E+00	 0.00000000E+00

	 0.00000000E+00	 0.00000000E+00	 0.00000000E+00
	 0.00000000E+00	 0.00000000E+00	 0.00000000E+00
	 0.00000000E+00	 0.00000000E+00	 0.00000000E+00

	 0.00000000E+00	 0.00000000E+00	 0.00000000E+00
	 0.00000000E+00	 0.00000000E+00	 0.00000000E+00
	 0.00000000E+00	 0.00000000E+00	 0.00000000E+00

	 0.00000000E+00	 0.00000000E+00	 0.00000000E+00
	 0.00000000E+00	 0.00000000E+00	 0.00000000E+00
	 0.00000000E+00	 0.00000000E+00	 0.00000000E+00

	 0.00000000E+00	 0.00000000E+00	 0.00000000E+00
	 0.00000000E+00	 0.00000000E+00	 0.00000000E+00
	 0.00000000E+00	 0.00000000E+00	 0.00000000E+00

	 0.00000000E+00	 0.00000000E+00	 0.00000000E+00
	 0.00000000E+00	 0.00000000E+00	 0.00000000E+00
	 0.00000000E+00	 0.00000000E+00	 0.00000000E+00

	 0.00000000E+00	 0.00000000E+00	 0.00000000E+00
	 0.00000000E+00	 0.00000000E+00	 0.00000000E+00
	 0.00000000E+00	 0.00000000E+00	 0.00000000E+00

	 0.00000000E+00	 0.00000000E+00	 0.00000000E+00
	 0.00000000E+00	 0.00000000E+00	 0.00000000E+00
	 0.00000000E+00	 0.00000000E+00	 0.00000000E+00

	 0.00000000E+00	 0.00000000E+00	 0.00000000E+00
	 0.00000000E+00	 0.00000000E+00	 0.00000000E+00
	 0.00000000E+00	 0.00000000E+00	 0.00000000E+00

	 0.00000000E+00	 0.00000000E+00	 0.00000000E+00
	 0.00000000E+00	 0.00000000E+00	 0.00000000E+00
	 0.00000000E+00	 0.00000000E+00	 0.00000000E+00

	 0.00000000E+00	 0.00000000E+00	 0.00000000E+00
	 0.00000000E+00	 0.00000000E+00	 0.00000000E+00
	 0.00000000E+00	 0.00000000E+00	 0.00000000E+00

	 0.00000000E+00	 0.00000000E+00	 0.00000000E+00
	 0.00000000E+00	 0.00000000E+00	 0.00000000E+00
	 0.00000000E+00	 0.00000000E+00	 0.00000000E+00

	 0.00000000E+00	 0.00000000E+00	 0.00000000E+00
	 0.00000000E+00	 0.00000000E+00	 0.00000000E+00
	 0.00000000E+00	 0.00000000E+00	 0.00000000E+00

	 0.00000000E+00	 0.00000000E+00	 0.00000000E+00
	 0.00000000E+00	 0.00000000E+00	 0.00000000E+00
	 0.00000000E+00	 0.00000000E+00	 0.00000000E+00

	 0.00000000E+00	 0.00000000E+00	 0.00000000E+00
	 0.00000000E+00	 0.00000000E+00	 0.00000000E+00
	 0.00000000E+00	 0.00000000E+00	 0.00000000E+00

	 0.00000000E+00	 0.00000000E+00	 0.00000000E+00
	 0.00000000E+00	 0.00000000E+00	 0.00000000E+00
	 0.00000000E+00	 0.00000000E+00	 0.00000000E+00

	 0.00000000E+00	 0.00000000E+00	 0.00000000E+00
	 0.00000000E+00	 0.00000000E+00	 0.00000000E+00
	 0.00000000E+00	 0.00000000E+00	 0.00000000E+00

	 0.00000000E+00	 0.00000000E+00	 0.00000000E+00
	 0.00000000E+00	 0.00000000E+00	 0.00000000E+00
	 0.00000000E+00	 0.00000000E+00	 0.00000000E+00

	 0.00000000E+00	 0.00000000E+00	 0.00000000E+00
	 0.00000000E+00	 0.00000000E+00	 0.00000000E+00
	 0.00000000E+00	 0.00000000E+00	 0.00000000E+00

	 0.00000000E+00	 0.00000000E+00	 0.00000000E+00
	 0.00000000E+00	 0.00000000E+00	 0.00000000E+00
	 0.00000000E+00	 0.00000000E+00	 0.00000000E+00

	 0.00000000E+00	 0.00000000E+00	 0.00000000E+00
	 0.00000000E+00	 0.00000000E+00	 0.00000000E+00
	 0.00000000E+00	 0.00000000E+00	 0.00000000E+00

	 0.00000000E+00	 0.00000000E+00	 0.00000000E+00
	 0.00000000E+00	 0.00000000E+00	 0.00000000E+00
	 0.00000000E+00	 0.00000000E+00	 0.00000000E+00

	 0.00000000E+00	 0.00000000E+00	 0.00000000E+00
	 0.00000000E+00	 0.00000000E+00	 0.00000000E+00
	 0.00000000E+00	 0.00000000E+00	 0.00000000E+00

	 0.00000000E+00	 0.00000000E+00	 0.00000000E+00
	 0.00000000E+00	 0.00000000E+00	 0.00000000E+00
	 0.00000000E+00	 0.00000000E+00	 0.00000000E+00

	 0.00000000E+00	 0.00000000E+00	 0.00000000E+00
	 0.00000000E+00	 0.00000000E+00	 0.00000000E+00
	 0.00000000E+00	 0.00000000E+00	 0.00000000E+00

	 0.00000000E+00	 0.00000000E+00	 0.00000000E+00
	 0.00000000E+00	 0.00000000E+00	 0.00000000E+00
	 0.00000000E+00	 0.00000000E+00	 0.00000000E+00

	 0.00000000E+00	 0.00000000E+00	 0.00000000E+00
	 0.00000000E+00	 0.00000000E+00	 0.00000000E+00
	 0.00000000E+00	 0.00000000E+00	 0.00000000E+00

	 0.00000000E+00	 0.00000000E+00	 0.00000000E+00
	 0.00000000E+00	 0.00000000E+00	 0.00000000E+00
	 0.00000000E+00	 0.00000000E+00	 0.00000000E+00

	 0.00000000E+00	 0.00000000E+00	 0.00000000E+00
	 0.00000000E+00	 0.00000000E+00	 0.00000000E+00
	 0.00000000E+00	 0.00000000E+00	 0.00000000E+00

	 0.00000000E+00	 0.00000000E+00	 0.00000000E+00
	 0.00000000E+00	 0.00000000E+00	 0.00000000E+00
	 0.00000000E+00	 0.00000000E+00	 0.00000000E+00

	 0.00000000E+00	 0.00000000E+00	 0.00000000E+00
	 0.00000000E+00	 0.00000000E+00	 0.00000000E+00
	 0.00000000E+00	 0.00000000E+00	 0.00000000E+00

	 0.00000000E+00	 0.00000000E+00	 0.00000000E+00
	 0.00000000E+00	 0.00000000E+00	 0.00000000E+00
	 0.00000000E+00	 0.00000000E+00	 0.00000000E+00

	 0.00000000E+00	 0.00000000E+00	 0.00000000E+00
	 0.00000000E+00	 0.00000000E+00	 0.00000000E+00
	 0.00000000E+00	 0.00000000E+00	 0.00000000E+00

	 0.00000000E+00	 0.00000000E+00	 0.00000000E+00
	 0.00000000E+00	 0.00000000E+00	 0.00000000E+00
	 0.00000000E+00	 0.00000000E+00	 0.00000000E+00

	 0.00000000E+00	 0.00000000E+00	 0.00000000E+00
	 0.00000000E+00	 0.00000000E+00	 0.00000000E+00
	 0.00000000E+00	 0.00000000E+00	 0.00000000E+00

	 0.00000000E+00	 0.00000000E+00	 0.00000000E+00
	 0.00000000E+00	 0.00000000E+00	 0.00000000E+00
	 0.00000000E+00	 0.00000000E+00	 0.00000000E+00

	 0.00000000E+00	 0.00000000E+00	 0.00000000E+00
	 0.00000000E+00	 0.00000000E+00	 0.00000000E+00
	 0.00000000E+00	 0.00000000E+00	 0.00000000E+00

	 0.00000000E+00	 0.00000000E+00	 0.00000000E+00
	 0.00000000E+00	 0.00000000E+00	 0.00000000E+00
	 0.00000000E+00	 0.00000000E+00	 0.00000000E+00

	 0.00000000E+00	 0.00000000E+00	 0.00000000E+00
	 0.00000000E+00	 0.00000000E+00	 0.00000000E+00
	 0.00000000E+00	 0.00000000E+00	 0.00000000E+00

	 0.00000000E+00	 0.00000000E+00	 0.00000000E+00
	 0.00000000E+00	 0.00000000E+00	 0.00000000E+00
	 0.00000000E+00	 0.00000000E+00	 0.00000000E+00

	 0.00000000E+00	 0.00000000E+00	 0.00000000E+00
	 0.00000000E+00	 0.00000000E+00	 0.00000000E+00
	 0.00000000E+00	 0.00000000E+00	 0.00000000E+00

	 0.00000000E+00	 0.00000000E+00	 0.00000000E+00
	 0.00000000E+00	 0.00000000E+00	 0.00000000E+00
	 0.00000000E+00	 0.00000000E+00	 0.00000000E+00

	 0.00000000E+00	 0.00000000E+00	 0.00000000E+00
	 0.00000000E+00	 0.00000000E+00	 0.00000000E+00
	 0.00000000E+00	 0.00000000E+00	 0.00000000E+00

	 0.00000000E+00	 0.00000000E+00	 0.00000000E+00
	 0.00000000E+00	 0.00000000E+00	 0.00000000E+00
	 0.00000000E+00	 0.00000000E+00	 0.00000000E+00

	 0.00000000E+00	 0.00000000E+00	 0.00000000E+00
	 0.00000000E+00	 0.00000000E+00	 0.00000000E+00
	 0.00000000E+00	 0.00000000E+00	 0.00000000E+00

	 0.00000000E+00	 0.00000000E+00	 0.00000000E+00
	 0.00000000E+00	 0.00000000E+00	 0.00000000E+00
	 0.00000000E+00	 0.00000000E+00	 0.00000000E+00

	 0.00000000E+00	 0.00000000E+00	 0.00000000E+00
	 0.00000000E+00	 0.00000000E+00	 0.00000000E+00
	 0.00000000E+00	 0.00000000E+00	 0.00000000E+00

	 0.00000000E+00	 0.00000000E+00	 0.00000000E+00
	 0.00000000E+00	 0.00000000E+00	 0.00000000E+00
	 0.00000000E+00	 0.00000000E+00	 0.00000000E+00

	 0.00000000E+00	 0.00000000E+00	 0.00000000E+00
	 0.00000000E+00	 0.00000000E+00	 0.00000000E+00
	 0.00000000E+00	 0.00000000E+00	 0.00000000E+00

	 0.00000000E+00	 0.00000000E+00	 0.00000000E+00
	 0.00000000E+00	 0.00000000E+00	 0.00000000E+00
	 0.00000000E+00	 0.00000000E+00	 0.00000000E+00

	 0.00000000E+00	 0.00000000E+00	 0.00000000E+00
	 0.00000000E+00	 0.00000000E+00	 0.00000000E+00
	 0.00000000E+00	 0.00000000E+00	 0.00000000E+00

	 0.00000000E+00	 0.00000000E+00	 0.00000000E+00
	 0.00000000E+00	 0.00000000E+00	 0.00000000E+00
	 0.00000000E+00	 0.00000000E+00	 0.00000000E+00

	 0.00000000E+00	 0.00000000E+00	 0.00000000E+00
	 0.00000000E+00	 0.00000000E+00	 0.00000000E+00
	 0.00000000E+00	 0.00000000E+00	 0.00000000E+00

	 0.00000000E+00	 0.00000000E+00	 0.00000000E+00
	 0.00000000E+00	 0.00000000E+00	 0.00000000E+00
	 0.00000000E+00	 0.00000000E+00	 0.00000000E+00

	 0.00000000E+00	 0.00000000E+00	 0.00000000E+00
	 0.00000000E+00	 0.00000000E+00	 0.00000000E+00
	 0.00000000E+00	 0.00000000E+00	 0.00000000E+00

	 0.00000000E+00	 0.00000000E+00	 0.00000000E+00
	 0.00000000E+00	 0.00000000E+00	 0.00000000E+00
	 0.00000000E+00	 0.00000000E+00	 0.00000000E+00

	 0.00000000E+00	 0.00000000E+00	 0.00000000E+00
	 0.00000000E+00	 0.00000000E+00	 0.00000000E+00
	 0.00000000E+00	 0.00000000E+00	 0.00000000E+00

	 0.00000000E+00	 0.00000000E+00	 0.00000000E+00
	 0.00000000E+00	 0.00000000E+00	 0.00000000E+00
	 0.00000000E+00	 0.00000000E+00	 0.00000000E+00

	 0.00000000E+00	 0.00000000E+00	 0.00000000E+00
	 0.00000000E+00	 0.00000000E+00	 0.00000000E+00
	 0.00000000E+00	 0.00000000E+00	 0.00000000E+00

	 0.00000000E+00	 0.00000000E+00	 0.00000000E+00
	 0.00000000E+00	 0.00000000E+00	 0.00000000E+00
	 0.00000000E+00	 0.00000000E+00	 0.00000000E+00

	 0.00000000E+00	 0.00000000E+00	 0.00000000E+00
	 0.00000000E+00	 0.00000000E+00	 0.00000000E+00
	 0.00000000E+00	 0.00000000E+00	 0.00000000E+00

	 0.00000000E+00	 0.00000000E+00	 0.00000000E+00
	 0.00000000E+00	 0.00000000E+00	 0.00000000E+00
	 0.00000000E+00	 0.00000000E+00	 0.00000000E+00

	 0.00000000E+00	 0.00000000E+00	 0.00000000E+00
	 0.00000000E+00	 0.00000000E+00	 0.00000000E+00
	 0.00000000E+00	 0.00000000E+00	 0.00000000E+00

	 0.00000000E+00	 0.00000000E+00	 0.00000000E+00
	 0.00000000E+00	 0.00000000E+00	 0.00000000E+00
	 0.00000000E+00	 0.00000000E+00	 0.00000000E+00

	 0.00000000E+00	 0.00000000E+00	 0.00000000E+00
	 0.00000000E+00	 0.00000000E+00	 0.00000000E+00
	 0.00000000E+00	 0.00000000E+00	 0.00000000E+00

	 0.00000000E+00	 0.00000000E+00	 0.00000000E+00
	 0.00000000E+00	 0.00000000E+00	 0.00000000E+00
	 0.00000000E+00	 0.00000000E+00	 0.00000000E+00

	 0.00000000E+00	 0.00000000E+00	 0.00000000E+00
	 0.00000000E+00	 0.00000000E+00	 0.00000000E+00
	 0.00000000E+00	 0.00000000E+00	 0.00000000E+00

	 0.00000000E+00	 0.00000000E+00	 0.00000000E+00
	 0.00000000E+00	 0.00000000E+00	 0.00000000E+00
	 0.00000000E+00	 0.00000000E+00	 0.00000000E+00

	 0.00000000E+00	 0.00000000E+00	 0.00000000E+00
	 0.00000000E+00	 0.00000000E+00	 0.00000000E+00
	 0.00000000E+00	 0.00000000E+00	 0.00000000E+00

	 0.00000000E+00	 0.00000000E+00	 0.00000000E+00
	 0.00000000E+00	 0.00000000E+00	 0.00000000E+00
	 0.00000000E+00	 0.00000000E+00	 0.00000000E+00

	 0.00000000E+00	 0.00000000E+00	 0.00000000E+00
	 0.00000000E+00	 0.00000000E+00	 0.00000000E+00
	 0.00000000E+00	 0.00000000E+00	 0.00000000E+00

	 0.00000000E+00	 0.00000000E+00	 0.00000000E+00
	 0.00000000E+00	 0.00000000E+00	 0.00000000E+00
	 0.00000000E+00	 0.00000000E+00	 0.00000000E+00

	 0.00000000E+00	 0.00000000E+00	 0.00000000E+00
	 0.00000000E+00	 0.00000000E+00	 0.00000000E+00
	 0.00000000E+00	 0.00000000E+00	 0.00000000E+00

	 0.00000000E+00	 0.00000000E+00	 0.00000000E+00
	 0.00000000E+00	 0.00000000E+00	 0.00000000E+00
	 0.00000000E+00	 0.00000000E+00	 0.00000000E+00

	 0.00000000E+00	 0.00000000E+00	 0.00000000E+00
	 0.00000000E+00	 0.00000000E+00	 0.00000000E+00
	 0.00000000E+00	 0.00000000E+00	 0.00000000E+00

