    1C
    1UBalken                                                            
    1UUSER                                                              
    1UDATE              01.august.2019                                  
    1UTIME              09:27:24                                        
    1UHOST                                                              
    1UPGM               CalculiX                                        
    1UVERSION           Version 2.15                             
    1UCOMPILETIME       Fri 15 Mar 11:57:46 CET 2019                    
    1UDIR                                                               
    1UDBN                                                               
    1UMAT    1STEEL                                                     
    2C                            68                                     1
 -1        12-2.50000E+01 2.50000E+01 0.00000E+00
 -1        13-2.50000E+01-2.50000E+01 0.00000E+00
 -1        14 2.50000E+01-2.50000E+01 0.00000E+00
 -1        15 2.50000E+01 2.50000E+01 0.00000E+00
 -1        16-2.50000E+01 0.00000E+00 0.00000E+00
 -1        17 0.00000E+00-2.50000E+01 0.00000E+00
 -1        18 2.50000E+01 0.00000E+00 0.00000E+00
 -1        19 0.00000E+00 2.50000E+01 0.00000E+00
 -1        20-2.50000E+01 2.50000E+01 1.00000E+02
 -1        21-2.50000E+01-2.50000E+01 1.00000E+02
 -1        22 2.50000E+01-2.50000E+01 1.00000E+02
 -1        23 2.50000E+01 2.50000E+01 1.00000E+02
 -1        28-2.50000E+01 2.50000E+01 2.00000E+02
 -1        29-2.50000E+01-2.50000E+01 2.00000E+02
 -1        30 2.50000E+01-2.50000E+01 2.00000E+02
 -1        31 2.50000E+01 2.50000E+01 2.00000E+02
 -1        32-2.50000E+01 0.00000E+00 2.00000E+02
 -1        33 0.00000E+00-2.50000E+01 2.00000E+02
 -1        34 2.50000E+01 0.00000E+00 2.00000E+02
 -1        35 0.00000E+00 2.50000E+01 2.00000E+02
 -1        36-2.50000E+01 2.50000E+01 3.00000E+02
 -1        37-2.50000E+01-2.50000E+01 3.00000E+02
 -1        38 2.50000E+01-2.50000E+01 3.00000E+02
 -1        39 2.50000E+01 2.50000E+01 3.00000E+02
 -1        44-2.50000E+01 2.50000E+01 4.00000E+02
 -1        45-2.50000E+01-2.50000E+01 4.00000E+02
 -1        46 2.50000E+01-2.50000E+01 4.00000E+02
 -1        47 2.50000E+01 2.50000E+01 4.00000E+02
 -1        48-2.50000E+01 0.00000E+00 4.00000E+02
 -1        49 0.00000E+00-2.50000E+01 4.00000E+02
 -1        50 2.50000E+01 0.00000E+00 4.00000E+02
 -1        51 0.00000E+00 2.50000E+01 4.00000E+02
 -1        52-2.50000E+01 2.50000E+01 5.00000E+02
 -1        53-2.50000E+01-2.50000E+01 5.00000E+02
 -1        54 2.50000E+01-2.50000E+01 5.00000E+02
 -1        55 2.50000E+01 2.50000E+01 5.00000E+02
 -1        60-2.50000E+01 2.50000E+01 6.00000E+02
 -1        61-2.50000E+01-2.50000E+01 6.00000E+02
 -1        62 2.50000E+01-2.50000E+01 6.00000E+02
 -1        63 2.50000E+01 2.50000E+01 6.00000E+02
 -1        64-2.50000E+01 0.00000E+00 6.00000E+02
 -1        65 0.00000E+00-2.50000E+01 6.00000E+02
 -1        66 2.50000E+01 0.00000E+00 6.00000E+02
 -1        67 0.00000E+00 2.50000E+01 6.00000E+02
 -1        68-2.50000E+01 2.50000E+01 7.00000E+02
 -1        69-2.50000E+01-2.50000E+01 7.00000E+02
 -1        70 2.50000E+01-2.50000E+01 7.00000E+02
 -1        71 2.50000E+01 2.50000E+01 7.00000E+02
 -1        76-2.50000E+01 2.50000E+01 8.00000E+02
 -1        77-2.50000E+01-2.50000E+01 8.00000E+02
 -1        78 2.50000E+01-2.50000E+01 8.00000E+02
 -1        79 2.50000E+01 2.50000E+01 8.00000E+02
 -1        80-2.50000E+01 0.00000E+00 8.00000E+02
 -1        81 0.00000E+00-2.50000E+01 8.00000E+02
 -1        82 2.50000E+01 0.00000E+00 8.00000E+02
 -1        83 0.00000E+00 2.50000E+01 8.00000E+02
 -1        84-2.50000E+01 2.50000E+01 9.00000E+02
 -1        85-2.50000E+01-2.50000E+01 9.00000E+02
 -1        86 2.50000E+01-2.50000E+01 9.00000E+02
 -1        87 2.50000E+01 2.50000E+01 9.00000E+02
 -1        92-2.50000E+01 2.50000E+01 1.00000E+03
 -1        93-2.50000E+01-2.50000E+01 1.00000E+03
 -1        94 2.50000E+01-2.50000E+01 1.00000E+03
 -1        95 2.50000E+01 2.50000E+01 1.00000E+03
 -1        96-2.50000E+01 0.00000E+00 1.00000E+03
 -1        97 0.00000E+00-2.50000E+01 1.00000E+03
 -1        98 2.50000E+01 0.00000E+00 1.00000E+03
 -1        99 0.00000E+00 2.50000E+01 1.00000E+03
 -3
    3C                             5                                     1
 -1         1    4    0    1
 -2        12        28        29        13        15        31        30        14        20        32
 -2        21        16        19        35        33        17        23        34        22        18
 -1         2    4    0    1
 -2        28        44        45        29        31        47        46        30        36        48
 -2        37        32        35        51        49        33        39        50        38        34
 -1         3    4    0    1
 -2        44        60        61        45        47        63        62        46        52        64
 -2        53        48        51        67        65        49        55        66        54        50
 -1         4    4    0    1
 -2        60        76        77        61        63        79        78        62        68        80
 -2        69        64        67        83        81        65        71        82        70        66
 -1         5    4    0    1
 -2        76        92        93        77        79        95        94        78        84        96
 -2        85        80        83        99        97        81        87        98        86        82
 -3
    1PSTEP                         1           1           1          
  100CL  101 1.000000000          68                     0    1           1
 -4  DISP        4    1
 -5  D1          1    2    1    0
 -5  D2          1    2    2    0
 -5  D3          1    2    3    0
 -5  ALL         1    2    0    0    1ALL
 -1        12 1.23486E-03 7.26984E-14-5.29871E-15
 -1        13-1.23486E-03-8.03803E-14 5.29871E-15
 -1        14 1.23486E-03 8.21715E-14-5.29871E-15
 -1        15-1.23486E-03-7.44896E-14 5.29871E-15
 -1        16 4.64472E-16-3.84100E-15 0.00000E+00
 -1        17-3.84100E-15 8.95578E-16 0.00000E+00
 -1        18-4.64472E-16 3.84100E-15 0.00000E+00
 -1        19 3.84100E-15-8.95578E-16 0.00000E+00
 -1        20 1.14520E-03-3.02886E-02 1.47710E-02
 -1        21-1.14520E-03-3.02886E-02-1.47710E-02
 -1        22 1.14520E-03-3.02886E-02-1.47710E-02
 -1        23-1.14520E-03-3.02886E-02 1.47710E-02
 -1        28 1.03936E-03-1.19129E-01 2.92766E-02
 -1        29-1.03936E-03-1.19129E-01-2.92766E-02
 -1        30 1.03936E-03-1.19129E-01-2.92766E-02
 -1        31-1.03936E-03-1.19129E-01 2.92766E-02
 -1        32-7.13824E-12-1.18440E-01-1.72378E-12
 -1        33-6.74907E-12-1.19814E-01-2.92743E-02
 -1        34-7.13928E-12-1.18440E-01 1.71888E-12
 -1        35-7.36987E-12-1.19814E-01 2.92743E-02
 -1        36 9.07674E-04-2.64220E-01 4.25940E-02
 -1        37-9.07674E-04-2.64220E-01-4.25940E-02
 -1        38 9.07674E-04-2.64220E-01-4.25940E-02
 -1        39-9.07674E-04-2.64220E-01 4.25940E-02
 -1        44 7.71841E-04-4.58366E-01 5.38089E-02
 -1        45-7.71841E-04-4.58366E-01-5.38089E-02
 -1        46 7.71841E-04-4.58366E-01-5.38089E-02
 -1        47-7.71841E-04-4.58366E-01 5.38089E-02
 -1        48-2.67247E-11-4.58025E-01-3.06142E-12
 -1        49-2.60720E-11-4.58709E-01-5.37952E-02
 -1        50-2.67258E-11-4.58025E-01 3.05177E-12
 -1        51-2.73104E-11-4.58709E-01 5.37952E-02
 -1        52 6.42855E-04-6.93471E-01 6.31549E-02
 -1        53-6.42855E-04-6.93471E-01-6.31549E-02
 -1        54 6.42855E-04-6.93471E-01-6.31549E-02
 -1        55-6.42855E-04-6.93471E-01 6.31549E-02
 -1        60 5.20173E-04-9.62737E-01 7.08871E-02
 -1        61-5.20174E-04-9.62737E-01-7.08871E-02
 -1        62 5.20173E-04-9.62737E-01-7.08871E-02
 -1        63-5.20174E-04-9.62737E-01 7.08871E-02
 -1        64-5.48215E-11-9.62466E-01-3.87946E-12
 -1        65-5.39292E-11-9.63006E-01-7.08793E-02
 -1        66-5.48219E-11-9.62466E-01 3.86635E-12
 -1        67-5.56665E-11-9.63006E-01 7.08793E-02
 -1        68 3.85056E-04-1.25961E+00 7.69348E-02
 -1        69-3.85056E-04-1.25961E+00-7.69348E-02
 -1        70 3.85056E-04-1.25961E+00-7.69348E-02
 -1        71-3.85056E-04-1.25961E+00 7.69348E-02
 -1        76 2.69994E-04-1.57718E+00 8.12388E-02
 -1        77-2.69995E-04-1.57718E+00-8.12388E-02
 -1        78 2.69994E-04-1.57718E+00-8.12388E-02
 -1        79-2.69995E-04-1.57718E+00 8.12388E-02
 -1        80-8.76713E-11-1.57705E+00-4.25350E-12
 -1        81-8.65857E-11-1.57731E+00-8.12297E-02
 -1        82-8.76724E-11-1.57705E+00 4.23654E-12
 -1        83-8.87479E-11-1.57731E+00 8.12297E-02
 -1        84 1.18639E-04-1.90849E+00 8.38087E-02
 -1        85-1.18639E-04-1.90849E+00-8.38087E-02
 -1        86 1.18639E-04-1.90849E+00-8.38087E-02
 -1        87-1.18639E-04-1.90849E+00 8.38087E-02
 -1        92 6.33957E-06-2.24667E+00 8.46752E-02
 -1        93-6.33981E-06-2.24667E+00-8.46752E-02
 -1        94 6.33957E-06-2.24667E+00-8.46752E-02
 -1        95-6.33981E-06-2.24667E+00 8.46752E-02
 -1        96-1.22026E-10-2.24666E+00-4.32295E-12
 -1        97-1.20862E-10-2.24666E+00-8.46640E-02
 -1        98-1.22027E-10-2.24666E+00 4.30163E-12
 -1        99-1.23191E-10-2.24666E+00 8.46640E-02
 -3
    1PSTEP                         2           1           1          
  100CL  101 1.000000000          68                     0    1           1
 -4  STRESS      6    1
 -5  SXX         1    4    1    1
 -5  SYY         1    4    2    2
 -5  SZZ         1    4    3    3
 -5  SXY         1    4    1    2
 -5  SYZ         1    4    2    3
 -5  SZX         1    4    3    1
 -1        12 1.34390E+00 4.01523E+00 1.20402E+01 1.33566E+00-1.77424E-01-2.19597E-02
 -1        13-1.34390E+00-4.01523E+00-1.20402E+01 1.33566E+00-1.77424E-01 2.19597E-02
 -1        14-1.34390E+00-4.01523E+00-1.20402E+01-1.33566E+00-1.77424E-01-2.19597E-02
 -1        15 1.34390E+00 4.01523E+00 1.20402E+01-1.33566E+00-1.77424E-01 2.19597E-02
 -1        16-2.43436E-10-8.16960E-11-7.30743E-10 1.33566E+00-1.77424E-01-1.38635E-11
 -1        17-1.34390E+00-4.01523E+00-1.20402E+01 8.04657E-11-1.77424E-01 3.03257E-11
 -1        18 2.43599E-10 8.21112E-11 7.28900E-10-1.33566E+00-1.77424E-01-1.29385E-11
 -1        19 1.34390E+00 4.01523E+00 1.20402E+01-8.11742E-11-1.77424E-01-5.71276E-11
 -1        20 4.93353E-01 1.47167E+00 1.08362E+01 4.92393E-01-1.77059E-01-2.87938E-02
 -1        21-4.93353E-01-1.47167E+00-1.08362E+01 4.92393E-01-1.77059E-01 2.87938E-02
 -1        22-4.93353E-01-1.47167E+00-1.08362E+01-4.92393E-01-1.77059E-01-2.87938E-02
 -1        23 4.93353E-01 1.47167E+00 1.08362E+01-4.92393E-01-1.77059E-01 2.87938E-02
 -1        28-3.50617E-01-1.06963E+00 9.63320E+00-3.53039E-01-1.76541E-01-3.77363E-02
 -1        29 3.50617E-01 1.06963E+00-9.63320E+00-3.53039E-01-1.76541E-01 3.77363E-02
 -1        30 3.50617E-01 1.06963E+00-9.63320E+00 3.53039E-01-1.76541E-01-3.77363E-02
 -1        31-3.50617E-01-1.06963E+00 9.63320E+00 3.53039E-01-1.76541E-01 3.77363E-02
 -1        32 6.49340E-11 2.18777E-11-5.47405E-10-3.53039E-01-1.76541E-01-1.32173E-11
 -1        33 3.50617E-01 1.06963E+00-9.63320E+00-2.22658E-11-1.76541E-01 2.97415E-11
 -1        34-6.43861E-11-2.10508E-11 5.45727E-10 3.53039E-01-1.76541E-01-1.31894E-11
 -1        35-3.50617E-01-1.06963E+00 9.63320E+00 2.07438E-11-1.76541E-01-5.61483E-11
 -1        36-1.27818E-01-3.91064E-01 8.43017E+00-1.30304E-01-1.74586E-01-5.31883E-02
 -1        37 1.27818E-01 3.91064E-01-8.43017E+00-1.30304E-01-1.74586E-01 5.31883E-02
 -1        38 1.27818E-01 3.91064E-01-8.43017E+00 1.30304E-01-1.74586E-01-5.31883E-02
 -1        39-1.27818E-01-3.91064E-01 8.43017E+00 1.30304E-01-1.74586E-01 5.31883E-02
 -1        44 9.29987E-02 2.86088E-01 7.22441E+00 9.27143E-02-1.72955E-01-6.57551E-02
 -1        45-9.29987E-02-2.86088E-01-7.22441E+00 9.27143E-02-1.72955E-01 6.57551E-02
 -1        46-9.29987E-02-2.86088E-01-7.22441E+00-9.27143E-02-1.72955E-01-6.57551E-02
 -1        47 9.29987E-02 2.86088E-01 7.22441E+00-9.27143E-02-1.72955E-01 6.57551E-02
 -1        48-1.72889E-11-6.22094E-12-3.70269E-10 9.27143E-02-1.72955E-01-1.20569E-11
 -1        49-9.29987E-02-2.86088E-01-7.22441E+00 5.31948E-12-1.72955E-01 2.70462E-11
 -1        50 1.69732E-11 6.44439E-12 3.68878E-10-9.27143E-02-1.72955E-01-1.21553E-11
 -1        51 9.29987E-02 2.86088E-01 7.22441E+00-5.64250E-12-1.72955E-01-5.12583E-11
 -1        52 3.36037E-02 1.03153E-01 6.01865E+00 3.50068E-02-1.74051E-01-5.69917E-02
 -1        53-3.36037E-02-1.03153E-01-6.01865E+00 3.50068E-02-1.74051E-01 5.69917E-02
 -1        54-3.36037E-02-1.03153E-01-6.01865E+00-3.50068E-02-1.74051E-01-5.69917E-02
 -1        55 3.36037E-02 1.03153E-01 6.01865E+00-3.50068E-02-1.74051E-01 5.69917E-02
 -1        60-2.30181E-02-7.81912E-02 4.81541E+00-2.32920E-02-1.74745E-01-5.24531E-02
 -1        61 2.30181E-02 7.81912E-02-4.81541E+00-2.32920E-02-1.74745E-01 5.24531E-02
 -1        62 2.30181E-02 7.81912E-02-4.81541E+00 2.32920E-02-1.74745E-01-5.24531E-02
 -1        63-2.30181E-02-7.81912E-02 4.81541E+00 2.32920E-02-1.74745E-01 5.24531E-02
 -1        64 5.41122E-12 5.49635E-12-2.06490E-10-2.32920E-02-1.74745E-01-1.14278E-11
 -1        65 2.30181E-02 7.81912E-02-4.81541E+00-5.04034E-13-1.74745E-01 2.11495E-11
 -1        66-4.73386E-12-6.42046E-12 2.05455E-10 2.32920E-02-1.74745E-01-1.13774E-11
 -1        67-2.30181E-02-7.81912E-02 4.81541E+00 1.42633E-12-1.74745E-01-4.39546E-11
 -1        68-1.13205E-02-2.48569E-02 3.61218E+00-1.09862E-02-1.74314E-01-5.18582E-02
 -1        69 1.13205E-02 2.48569E-02-3.61218E+00-1.09862E-02-1.74314E-01 5.18582E-02
 -1        70 1.13205E-02 2.48569E-02-3.61218E+00 1.09862E-02-1.74314E-01-5.18582E-02
 -1        71-1.13205E-02-2.48569E-02 3.61218E+00 1.09862E-02-1.74314E-01 5.18582E-02
 -1        76 2.79525E-03 2.90104E-02 2.40830E+00 3.77031E-04-1.74823E-01-5.66793E-02
 -1        77-2.79525E-03-2.90104E-02-2.40830E+00 3.77031E-04-1.74823E-01 5.66793E-02
 -1        78-2.79525E-03-2.90104E-02-2.40830E+00-3.77031E-04-1.74823E-01-5.66793E-02
 -1        79 2.79525E-03 2.90104E-02 2.40830E+00-3.77031E-04-1.74823E-01 5.66793E-02
 -1        80-1.79496E-12-4.00361E-12-5.25151E-11 3.77031E-04-1.74823E-01-8.37021E-12
 -1        81-2.79525E-03-2.90104E-02-2.40830E+00 2.44150E-12-1.74823E-01 1.16053E-11
 -1        82 2.17696E-12-1.53044E-12 4.98238E-11-3.77031E-04-1.74823E-01-8.19775E-12
 -1        83 2.79525E-03 2.90104E-02 2.40830E+00 3.23152E-12-1.74823E-01-2.81732E-11
 -1        84 9.74885E-03-3.88305E-03 1.20443E+00 1.04526E-02-1.75184E-01-5.73962E-02
 -1        85-9.74885E-03 3.88305E-03-1.20443E+00 1.04526E-02-1.75184E-01 5.73962E-02
 -1        86-9.74885E-03 3.88305E-03-1.20443E+00-1.04526E-02-1.75184E-01-5.73962E-02
 -1        87 9.74885E-03-3.88305E-03 1.20443E+00-1.04526E-02-1.75184E-01 5.73962E-02
 -1        92 6.91631E-03-3.97417E-02 4.57660E-04 2.39386E-02-1.74835E-01-4.92488E-02
 -1        93-6.91631E-03 3.97417E-02-4.57660E-04 2.39386E-02-1.74835E-01 4.92488E-02
 -1        94-6.91631E-03 3.97417E-02-4.57660E-04-2.39386E-02-1.74835E-01-4.92488E-02
 -1        95 6.91631E-03-3.97417E-02 4.57660E-04-2.39386E-02-1.74835E-01 4.92488E-02
 -1        96-6.84103E-13 3.29077E-13 1.71723E-12 2.39386E-02-1.74835E-01-2.40603E-12
 -1        97-6.91631E-03 3.97417E-02-4.57660E-04 4.45937E-12-1.74835E-01 3.16632E-12
 -1        98-1.56339E-12 2.87543E-12-2.41934E-12-2.39386E-02-1.74835E-01-3.05230E-12
 -1        99 6.91631E-03-3.97417E-02 4.57660E-04 2.30782E-12-1.74835E-01-8.62465E-12
 -3
    1PSTEP                         3           1           2          
    1PGM                1.000000E+00                                  
    1PGK                4.162203E+04                                  
    1PHID                         -1                                  
    1PSUBC                         0                                  
    1PMODE                         1                                  
  100CL  102 32.46996095          68                     2    2MODAL      1
 -4  DISP        4    1
 -5  D1          1    2    1    0
 -5  D2          1    2    2    0
 -5  D3          1    2    3    0
 -5  ALL         1    2    0    0    1ALL
 -1        12 2.69853E-03 1.91485E-02-5.71368E-14
 -1        13-2.69853E-03-1.91485E-02 5.71368E-14
 -1        14 2.69853E-03 1.91485E-02-5.71368E-14
 -1        15-2.69853E-03-1.91485E-02 5.71368E-14
 -1        16-1.99875E-14-4.70023E-14 0.00000E+00
 -1        17-4.70023E-14-1.26860E-14 0.00000E+00
 -1        18 1.99875E-14 4.70023E-14 0.00000E+00
 -1        19 4.70023E-14 1.26860E-14 0.00000E+00
 -1        20-4.67000E-01-4.89991E-02-1.93589E-01
 -1        21-4.71835E-01-8.33077E-02-2.57103E-01
 -1        22-4.67000E-01-4.89991E-02 1.93589E-01
 -1        23-4.71835E-01-8.33077E-02 2.57103E-01
 -1        28-1.80997E+00-2.40726E-01-3.75137E-01
 -1        29-1.81409E+00-2.70000E-01-4.98215E-01
 -1        30-1.80997E+00-2.40726E-01 3.75137E-01
 -1        31-1.81409E+00-2.70000E-01 4.98215E-01
 -1        32-1.82197E+00-2.53956E-01-4.36574E-01
 -1        33-1.80204E+00-2.56764E-01-6.15248E-02
 -1        34-1.82197E+00-2.53956E-01 4.36574E-01
 -1        35-1.80204E+00-2.56764E-01 6.15248E-02
 -1        36-3.95079E+00-5.44985E-01-5.32519E-01
 -1        37-3.95418E+00-5.69034E-01-7.07233E-01
 -1        38-3.95079E+00-5.44985E-01 5.32519E-01
 -1        39-3.95418E+00-5.69034E-01 7.07233E-01
 -1        44-6.74101E+00-9.40998E-01-6.54329E-01
 -1        45-6.74360E+00-9.59340E-01-8.69007E-01
 -1        46-6.74101E+00-9.40998E-01 6.54329E-01
 -1        47-6.74360E+00-9.59340E-01 8.69007E-01
 -1        48-6.74624E+00-9.49619E-01-7.61418E-01
 -1        49-6.73840E+00-9.50723E-01-1.07304E-01
 -1        50-6.74624E+00-9.49619E-01 7.61418E-01
 -1        51-6.73840E+00-9.50723E-01 1.07304E-01
 -1        52-1.00213E+01-1.40552E+00-7.45104E-01
 -1        53-1.00232E+01-1.41928E+00-9.89565E-01
 -1        54-1.00213E+01-1.40552E+00 7.45104E-01
 -1        55-1.00232E+01-1.41928E+00 9.89565E-01
 -1        60-1.36642E+01-1.92114E+00-8.10576E-01
 -1        61-1.36655E+01-1.93034E+00-1.07652E+00
 -1        62-1.36642E+01-1.92114E+00 8.10576E-01
 -1        63-1.36655E+01-1.93034E+00 1.07652E+00
 -1        64-1.36673E+01-1.92539E+00-9.43424E-01
 -1        65-1.36624E+01-1.92608E+00-1.32953E-01
 -1        66-1.36673E+01-1.92539E+00 9.43424E-01
 -1        67-1.36624E+01-1.92608E+00 1.32953E-01
 -1        68-1.75544E+01-2.47114E+00-8.52993E-01
 -1        69-1.75552E+01-2.47673E+00-1.13285E+00
 -1        70-1.75544E+01-2.47114E+00 8.52993E-01
 -1        71-1.75552E+01-2.47673E+00 1.13285E+00
 -1        76-2.15943E+01-3.04198E+00-8.75816E-01
 -1        77-2.15947E+01-3.04449E+00-1.16316E+00
 -1        78-2.15943E+01-3.04198E+00 8.75816E-01
 -1        79-2.15947E+01-3.04449E+00 1.16316E+00
 -1        80-2.15950E+01-3.04317E+00-1.01939E+00
 -1        81-2.15940E+01-3.04331E+00-1.43659E-01
 -1        82-2.15950E+01-3.04317E+00 1.01939E+00
 -1        83-2.15940E+01-3.04331E+00 1.43659E-01
 -1        84-2.57002E+01-3.62147E+00-8.84511E-01
 -1        85-2.57003E+01-3.62222E+00-1.17471E+00
 -1        86-2.57002E+01-3.62147E+00 8.84511E-01
 -1        87-2.57003E+01-3.62222E+00 1.17471E+00
 -1        92-2.98265E+01-4.20337E+00-8.85889E-01
 -1        93-2.98264E+01-4.20330E+00-1.17654E+00
 -1        94-2.98265E+01-4.20337E+00 8.85889E-01
 -1        95-2.98264E+01-4.20330E+00 1.17654E+00
 -1        96-2.98264E+01-4.20335E+00-1.03122E+00
 -1        97-2.98265E+01-4.20332E+00-1.45326E-01
 -1        98-2.98264E+01-4.20335E+00 1.03122E+00
 -1        99-2.98265E+01-4.20332E+00 1.45326E-01
 -3
    1PSTEP                         4           1           2          
    1PGM                1.000000E+00                                  
    1PGK                4.162203E+04                                  
    1PHID                         -1                                  
    1PSUBC                         0                                  
    1PMODE                         2                                  
  100CL  103 32.46996096          68                     2    3MODAL      1
 -4  DISP        4    1
 -5  D1          1    2    1    0
 -5  D2          1    2    2    0
 -5  D3          1    2    3    0
 -5  ALL         1    2    0    0    1ALL
 -1        12 1.91485E-02-2.69853E-03-6.51072E-14
 -1        13-1.91485E-02 2.69853E-03 6.51072E-14
 -1        14 1.91485E-02-2.69853E-03-6.51072E-14
 -1        15-1.91485E-02 2.69853E-03 6.51072E-14
 -1        16 3.53884E-16-4.66918E-14 0.00000E+00
 -1        17-4.66918E-14 2.44527E-14 0.00000E+00
 -1        18-3.53884E-16 4.66918E-14 0.00000E+00
 -1        19 4.66918E-14-2.44527E-14 0.00000E+00
 -1        20 8.33077E-02-4.71835E-01 2.57103E-01
 -1        21 4.89991E-02-4.67000E-01-1.93589E-01
 -1        22 8.33077E-02-4.71835E-01-2.57103E-01
 -1        23 4.89991E-02-4.67000E-01 1.93589E-01
 -1        28 2.70000E-01-1.81409E+00 4.98215E-01
 -1        29 2.40726E-01-1.80997E+00-3.75137E-01
 -1        30 2.70000E-01-1.81409E+00-4.98215E-01
 -1        31 2.40726E-01-1.80997E+00 3.75137E-01
 -1        32 2.56764E-01-1.80204E+00 6.15248E-02
 -1        33 2.53956E-01-1.82197E+00-4.36574E-01
 -1        34 2.56764E-01-1.80204E+00-6.15248E-02
 -1        35 2.53956E-01-1.82197E+00 4.36574E-01
 -1        36 5.69034E-01-3.95418E+00 7.07233E-01
 -1        37 5.44985E-01-3.95079E+00-5.32519E-01
 -1        38 5.69034E-01-3.95418E+00-7.07233E-01
 -1        39 5.44985E-01-3.95079E+00 5.32519E-01
 -1        44 9.59340E-01-6.74360E+00 8.69007E-01
 -1        45 9.40998E-01-6.74101E+00-6.54329E-01
 -1        46 9.59340E-01-6.74360E+00-8.69007E-01
 -1        47 9.40998E-01-6.74101E+00 6.54329E-01
 -1        48 9.50723E-01-6.73840E+00 1.07304E-01
 -1        49 9.49619E-01-6.74624E+00-7.61418E-01
 -1        50 9.50723E-01-6.73840E+00-1.07304E-01
 -1        51 9.49619E-01-6.74624E+00 7.61418E-01
 -1        52 1.41928E+00-1.00232E+01 9.89565E-01
 -1        53 1.40552E+00-1.00213E+01-7.45104E-01
 -1        54 1.41928E+00-1.00232E+01-9.89565E-01
 -1        55 1.40552E+00-1.00213E+01 7.45104E-01
 -1        60 1.93034E+00-1.36655E+01 1.07652E+00
 -1        61 1.92114E+00-1.36642E+01-8.10576E-01
 -1        62 1.93034E+00-1.36655E+01-1.07652E+00
 -1        63 1.92114E+00-1.36642E+01 8.10576E-01
 -1        64 1.92608E+00-1.36624E+01 1.32953E-01
 -1        65 1.92539E+00-1.36673E+01-9.43424E-01
 -1        66 1.92608E+00-1.36624E+01-1.32953E-01
 -1        67 1.92539E+00-1.36673E+01 9.43424E-01
 -1        68 2.47673E+00-1.75552E+01 1.13285E+00
 -1        69 2.47114E+00-1.75544E+01-8.52993E-01
 -1        70 2.47673E+00-1.75552E+01-1.13285E+00
 -1        71 2.47114E+00-1.75544E+01 8.52993E-01
 -1        76 3.04449E+00-2.15947E+01 1.16316E+00
 -1        77 3.04198E+00-2.15943E+01-8.75816E-01
 -1        78 3.04449E+00-2.15947E+01-1.16316E+00
 -1        79 3.04198E+00-2.15943E+01 8.75816E-01
 -1        80 3.04331E+00-2.15940E+01 1.43659E-01
 -1        81 3.04317E+00-2.15950E+01-1.01939E+00
 -1        82 3.04331E+00-2.15940E+01-1.43659E-01
 -1        83 3.04317E+00-2.15950E+01 1.01939E+00
 -1        84 3.62222E+00-2.57003E+01 1.17471E+00
 -1        85 3.62147E+00-2.57002E+01-8.84511E-01
 -1        86 3.62222E+00-2.57003E+01-1.17471E+00
 -1        87 3.62147E+00-2.57002E+01 8.84511E-01
 -1        92 4.20330E+00-2.98264E+01 1.17654E+00
 -1        93 4.20337E+00-2.98265E+01-8.85889E-01
 -1        94 4.20330E+00-2.98264E+01-1.17654E+00
 -1        95 4.20337E+00-2.98265E+01 8.85889E-01
 -1        96 4.20332E+00-2.98265E+01 1.45326E-01
 -1        97 4.20335E+00-2.98264E+01-1.03122E+00
 -1        98 4.20332E+00-2.98265E+01-1.45326E-01
 -1        99 4.20335E+00-2.98264E+01 1.03122E+00
 -3
    1PSTEP                         5           1           2          
    1PGM                1.000000E+00                                  
    1PGK                1.583191E+06                                  
    1PHID                         -1                                  
    1PSUBC                         0                                  
    1PMODE                         3                                  
  100CL  104 200.2565729          68                     2    4MODAL      1
 -4  DISP        4    1
 -5  D1          1    2    1    0
 -5  D2          1    2    2    0
 -5  D3          1    2    3    0
 -5  ALL         1    2    0    0    1ALL
 -1        12-1.46969E-02-1.16016E-01 9.32726E-14
 -1        13 1.46969E-02 1.16016E-01-9.32726E-14
 -1        14-1.46969E-02-1.16016E-01 9.32726E-14
 -1        15 1.46969E-02 1.16016E-01-9.32726E-14
 -1        16 6.49480E-15 8.91509E-14 0.00000E+00
 -1        17 8.91509E-14 6.34215E-15 0.00000E+00
 -1        18-6.49480E-15-8.91509E-14 0.00000E+00
 -1        19-8.91509E-14-6.34215E-15 0.00000E+00
 -1        20 2.75403E+00 2.83026E-01 9.85715E-01
 -1        21 2.77099E+00 4.16888E-01 1.27168E+00
 -1        22 2.75403E+00 2.83026E-01-9.85715E-01
 -1        23 2.77099E+00 4.16888E-01-1.27168E+00
 -1        28 8.77474E+00 1.10264E+00 1.42767E+00
 -1        29 8.77705E+00 1.12084E+00 1.84185E+00
 -1        30 8.77474E+00 1.10264E+00-1.42767E+00
 -1        31 8.77705E+00 1.12084E+00-1.84185E+00
 -1        32 8.79669E+00 1.10907E+00 1.63063E+00
 -1        33 8.75486E+00 1.11437E+00 2.06569E-01
 -1        34 8.79669E+00 1.10907E+00-1.63063E+00
 -1        35 8.75486E+00 1.11437E+00-2.06569E-01
 -1        36 1.54634E+01 1.99317E+00 1.30153E+00
 -1        37 1.54546E+01 1.92354E+00 1.67912E+00
 -1        38 1.54634E+01 1.99317E+00-1.30153E+00
 -1        39 1.54546E+01 1.92354E+00-1.67912E+00
 -1        44 2.03321E+01 2.64758E+00 6.63119E-01
 -1        45 2.03136E+01 2.50146E+00 8.55498E-01
 -1        46 2.03321E+01 2.64758E+00-6.63119E-01
 -1        47 2.03136E+01 2.50146E+00-8.55498E-01
 -1        48 2.02803E+01 2.57997E+00 7.57199E-01
 -1        49 2.03659E+01 2.56912E+00 9.59224E-02
 -1        50 2.02803E+01 2.57997E+00-7.57199E-01
 -1        51 2.03659E+01 2.56912E+00-9.59224E-02
 -1        52 2.13094E+01 2.78357E+00-2.82029E-01
 -1        53 2.12877E+01 2.61265E+00-3.63849E-01
 -1        54 2.13094E+01 2.78357E+00 2.82029E-01
 -1        55 2.12877E+01 2.61265E+00 3.63849E-01
 -1        60 1.77154E+01 2.32782E+00-1.29199E+00
 -1        61 1.76938E+01 2.15785E+00-1.66681E+00
 -1        62 1.77154E+01 2.32782E+00 1.29199E+00
 -1        63 1.76938E+01 2.15785E+00 1.66681E+00
 -1        64 1.76613E+01 2.24833E+00-1.47827E+00
 -1        65 1.77480E+01 2.23735E+00-1.87268E-01
 -1        66 1.76613E+01 2.24833E+00 1.47827E+00
 -1        67 1.77480E+01 2.23735E+00 1.87268E-01
 -1        68 9.60295E+00 1.27927E+00-2.16286E+00
 -1        69 9.58679E+00 1.15170E+00-2.79034E+00
 -1        70 9.60295E+00 1.27927E+00 2.16286E+00
 -1        71 9.58679E+00 1.15170E+00 2.79034E+00
 -1        76-1.91493E+00-2.04673E-01-2.76093E+00
 -1        77-1.92470E+00-2.81735E-01-3.56191E+00
 -1        78-1.91493E+00-2.04673E-01 2.76093E+00
 -1        79-1.92470E+00-2.81735E-01 3.56191E+00
 -1        80-1.93819E+00-2.40873E-01-3.15936E+00
 -1        81-1.90142E+00-2.45531E-01-4.00230E-01
 -1        82-1.93819E+00-2.40873E-01 3.15936E+00
 -1        83-1.90142E+00-2.45531E-01 4.00230E-01
 -1        84-1.54051E+01-1.94031E+00-3.03630E+00
 -1        85-1.54080E+01-1.96311E+00-3.91718E+00
 -1        86-1.54051E+01-1.94031E+00 3.03630E+00
 -1        87-1.54080E+01-1.96311E+00 3.91718E+00
 -1        92-2.95759E+01-3.74519E+00-3.08993E+00
 -1        93-2.95763E+01-3.74825E+00-3.98636E+00
 -1        94-2.95759E+01-3.74519E+00 3.08993E+00
 -1        95-2.95763E+01-3.74825E+00 3.98636E+00
 -1        96-2.95730E+01-3.74715E+00-3.53729E+00
 -1        97-2.95795E+01-3.74633E+00-4.48107E-01
 -1        98-2.95730E+01-3.74715E+00 3.53729E+00
 -1        99-2.95795E+01-3.74633E+00 4.48107E-01
 -3
    1PSTEP                         6           1           2          
    1PGM                1.000000E+00                                  
    1PGK                1.583191E+06                                  
    1PHID                         -1                                  
    1PSUBC                         0                                  
    1PMODE                         4                                  
  100CL  105 200.2565729          68                     2    5MODAL      1
 -4  DISP        4    1
 -5  D1          1    2    1    0
 -5  D2          1    2    2    0
 -5  D3          1    2    3    0
 -5  ALL         1    2    0    0    1ALL
 -1        12-1.16016E-01 1.46969E-02 7.33302E-14
 -1        13 1.16016E-01-1.46969E-02-7.33302E-14
 -1        14-1.16016E-01 1.46969E-02 7.33302E-14
 -1        15 1.16016E-01-1.46969E-02-7.33302E-14
 -1        16-6.11317E-15 5.60108E-14 0.00000E+00
 -1        17 5.60108E-14-4.38122E-14 0.00000E+00
 -1        18 6.11317E-15-5.60108E-14 0.00000E+00
 -1        19-5.60108E-14 4.38122E-14 0.00000E+00
 -1        20-4.16888E-01 2.77099E+00-1.27168E+00
 -1        21-2.83026E-01 2.75403E+00 9.85715E-01
 -1        22-4.16888E-01 2.77099E+00 1.27168E+00
 -1        23-2.83026E-01 2.75403E+00-9.85715E-01
 -1        28-1.12084E+00 8.77705E+00-1.84185E+00
 -1        29-1.10264E+00 8.77474E+00 1.42767E+00
 -1        30-1.12084E+00 8.77705E+00 1.84185E+00
 -1        31-1.10264E+00 8.77474E+00-1.42767E+00
 -1        32-1.11437E+00 8.75486E+00-2.06569E-01
 -1        33-1.10907E+00 8.79669E+00 1.63063E+00
 -1        34-1.11437E+00 8.75486E+00 2.06569E-01
 -1        35-1.10907E+00 8.79669E+00-1.63063E+00
 -1        36-1.92354E+00 1.54546E+01-1.67912E+00
 -1        37-1.99317E+00 1.54634E+01 1.30153E+00
 -1        38-1.92354E+00 1.54546E+01 1.67912E+00
 -1        39-1.99317E+00 1.54634E+01-1.30153E+00
 -1        44-2.50146E+00 2.03136E+01-8.55498E-01
 -1        45-2.64758E+00 2.03321E+01 6.63119E-01
 -1        46-2.50146E+00 2.03136E+01 8.55498E-01
 -1        47-2.64758E+00 2.03321E+01-6.63119E-01
 -1        48-2.56912E+00 2.03659E+01-9.59224E-02
 -1        49-2.57997E+00 2.02803E+01 7.57199E-01
 -1        50-2.56912E+00 2.03659E+01 9.59224E-02
 -1        51-2.57997E+00 2.02803E+01-7.57199E-01
 -1        52-2.61265E+00 2.12877E+01 3.63849E-01
 -1        53-2.78357E+00 2.13094E+01-2.82029E-01
 -1        54-2.61265E+00 2.12877E+01-3.63849E-01
 -1        55-2.78357E+00 2.13094E+01 2.82029E-01
 -1        60-2.15785E+00 1.76938E+01 1.66681E+00
 -1        61-2.32782E+00 1.77154E+01-1.29199E+00
 -1        62-2.15785E+00 1.76938E+01-1.66681E+00
 -1        63-2.32782E+00 1.77154E+01 1.29199E+00
 -1        64-2.23735E+00 1.77480E+01 1.87268E-01
 -1        65-2.24833E+00 1.76613E+01-1.47827E+00
 -1        66-2.23735E+00 1.77480E+01-1.87268E-01
 -1        67-2.24833E+00 1.76613E+01 1.47827E+00
 -1        68-1.15170E+00 9.58679E+00 2.79034E+00
 -1        69-1.27927E+00 9.60295E+00-2.16286E+00
 -1        70-1.15170E+00 9.58679E+00-2.79034E+00
 -1        71-1.27927E+00 9.60295E+00 2.16286E+00
 -1        76 2.81735E-01-1.92470E+00 3.56191E+00
 -1        77 2.04673E-01-1.91493E+00-2.76093E+00
 -1        78 2.81735E-01-1.92470E+00-3.56191E+00
 -1        79 2.04673E-01-1.91493E+00 2.76093E+00
 -1        80 2.45531E-01-1.90142E+00 4.00230E-01
 -1        81 2.40873E-01-1.93819E+00-3.15936E+00
 -1        82 2.45531E-01-1.90142E+00-4.00230E-01
 -1        83 2.40873E-01-1.93819E+00 3.15936E+00
 -1        84 1.96311E+00-1.54080E+01 3.91718E+00
 -1        85 1.94031E+00-1.54051E+01-3.03630E+00
 -1        86 1.96311E+00-1.54080E+01-3.91718E+00
 -1        87 1.94031E+00-1.54051E+01 3.03630E+00
 -1        92 3.74825E+00-2.95763E+01 3.98636E+00
 -1        93 3.74519E+00-2.95759E+01-3.08993E+00
 -1        94 3.74825E+00-2.95763E+01-3.98636E+00
 -1        95 3.74519E+00-2.95759E+01 3.08993E+00
 -1        96 3.74633E+00-2.95795E+01 4.48107E-01
 -1        97 3.74715E+00-2.95730E+01-3.53729E+00
 -1        98 3.74633E+00-2.95795E+01-4.48107E-01
 -1        99 3.74715E+00-2.95730E+01 3.53729E+00
 -3
    1PSTEP                         7           1           2          
    1PGM                1.000000E+00                                  
    1PGK                8.462652E+06                                  
    1PHID                         -1                                  
    1PSUBC                         0                                  
    1PMODE                         5                                  
  100CL  106 462.9918729          68                     2    6MODAL      1
 -4  DISP        4    1
 -5  D1          1    2    1    0
 -5  D2          1    2    2    0
 -5  D3          1    2    3    0
 -5  ALL         1    2    0    0    1ALL
 -1        12-2.67120E-13 3.71203E-13 6.72240E-14
 -1        13 2.37477E-13-2.63789E-13-6.72240E-14
 -1        14-1.30063E-13 2.81997E-13 6.72240E-14
 -1        15 1.59706E-13-3.89411E-13-6.72240E-14
 -1        16-1.48215E-14 5.37070E-14 0.00000E+00
 -1        17 5.37070E-14 9.10383E-15 0.00000E+00
 -1        18 1.48215E-14-5.37070E-14 0.00000E+00
 -1        19-5.37070E-14-9.10383E-15 0.00000E+00
 -1        20 3.06323E+00 3.06323E+00-2.21245E-12
 -1        21-3.06323E+00 3.06323E+00 1.77636E-15
 -1        22-3.06323E+00-3.06323E+00 2.30749E-12
 -1        23 3.06323E+00-3.06323E+00 8.52651E-14
 -1        28 6.05118E+00 6.05118E+00-1.60583E-12
 -1        29-6.05118E+00 6.05118E+00 1.95399E-13
 -1        30-6.05118E+00-6.05118E+00 1.79501E-12
 -1        31 6.05118E+00-6.05118E+00-3.90799E-14
 -1        32-8.39284E-12 6.05118E+00-7.01661E-13
 -1        33-6.05118E+00 8.26361E-12 1.04805E-12
 -1        34-8.45546E-12-6.05118E+00 8.50875E-13
 -1        35 6.05118E+00 8.33378E-12-7.81597E-13
 -1        36 8.88984E+00 8.88984E+00 6.28830E-13
 -1        37-8.88984E+00 8.88984E+00 3.90799E-13
 -1        38-8.88984E+00-8.88984E+00-5.31131E-13
 -1        39 8.88984E+00-8.88984E+00-1.54543E-13
 -1        44 1.15100E+01 1.15100E+01 3.82450E-12
 -1        45-1.15100E+01 1.15100E+01 3.73035E-14
 -1        46-1.15100E+01-1.15100E+01-3.91154E-12
 -1        47 1.15100E+01-1.15100E+01-1.19016E-13
 -1        48-4.71712E-12 1.15100E+01 1.92024E-12
 -1        49-1.15100E+01 6.27942E-12-1.99307E-12
 -1        50-4.51816E-12-1.15100E+01-1.99840E-12
 -1        51 1.15100E+01 6.19593E-12 1.83675E-12
 -1        52 1.38462E+01 1.38462E+01 5.56266E-12
 -1        53-1.38462E+01 1.38462E+01-4.26326E-13
 -1        54-1.38462E+01-1.38462E+01-5.78559E-12
 -1        55 1.38462E+01-1.38462E+01 6.39488E-14
 -1        60 1.58422E+01 1.58422E+01 4.21618E-12
 -1        61-1.58422E+01 1.58422E+01-7.05214E-13
 -1        62-1.58422E+01-1.58422E+01-4.93294E-12
 -1        63 1.58422E+01-1.58422E+01 4.97380E-14
 -1        64 1.64233E-11 1.58422E+01 1.74083E-12
 -1        65-1.58422E+01-1.65290E-11-2.81908E-12
 -1        66 1.65548E-11-1.58422E+01-2.44427E-12
 -1        67 1.58422E+01-1.62839E-11 2.10143E-12
 -1        68 1.74473E+01 1.74473E+01-7.01661E-14
 -1        69-1.74473E+01 1.74473E+01-7.60059E-13
 -1        70-1.74473E+01-1.74473E+01-1.36158E-12
 -1        71 1.74473E+01-1.74473E+01-6.01075E-13
 -1        76 1.86236E+01 1.86236E+01-3.86358E-12
 -1        77-1.86236E+01 1.86236E+01-8.30447E-13
 -1        78-1.86236E+01-1.86236E+01 2.20979E-12
 -1        79 1.86236E+01-1.86236E+01-8.15348E-13
 -1        80 1.88312E-11 1.86236E+01-2.29150E-12
 -1        81-1.86236E+01-2.00862E-11 6.51923E-13
 -1        82 1.90497E-11-1.86236E+01 7.01661E-13
 -1        83 1.86236E+01-1.99165E-11-2.36078E-12
 -1        84 1.93405E+01 1.93405E+01-6.20304E-12
 -1        85-1.93405E+01 1.93405E+01-6.25278E-13
 -1        86-1.93405E+01-1.93405E+01 4.26859E-12
 -1        87 1.93405E+01-1.93405E+01-1.19726E-12
 -1        92 1.95820E+01 1.95820E+01-7.68807E-12
 -1        93-1.95820E+01 1.95820E+01-1.04095E-12
 -1        94-1.95820E+01-1.95820E+01 5.75007E-12
 -1        95 1.95820E+01-1.95820E+01-1.56675E-12
 -1        96-8.26006E-13 1.95820E+01-4.49241E-12
 -1        97-1.95820E+01 1.49036E-12 2.36611E-12
 -1        98-3.65930E-13-1.95820E+01 2.19202E-12
 -1        99 1.95820E+01 1.60449E-12-4.61142E-12
 -3
 9999
