
 displacements (vx,vy,vz) for set MIDBOT and time  0.1000000E+01

         2  1.259921E-06 -2.249926E-06  0.000000E+00
         4  1.079911E-06 -2.249942E-06  0.000000E+00
         6  8.999344E-07 -2.249980E-06  0.000000E+00
         8  7.199564E-07 -2.249993E-06  0.000000E+00
        10  5.399715E-07 -2.249996E-06  0.000000E+00
        12  3.599829E-07 -2.249997E-06  0.000000E+00
        14  1.799920E-07 -2.249997E-06  0.000000E+00
        16  1.549613E-16 -2.249997E-06  0.000000E+00
        18 -1.799920E-07 -2.249997E-06  0.000000E+00
        20 -3.599829E-07 -2.249997E-06  0.000000E+00
        22 -5.399715E-07 -2.249996E-06  0.000000E+00
        24 -7.199564E-07 -2.249993E-06  0.000000E+00
        26 -8.999344E-07 -2.249980E-06  0.000000E+00
        28 -1.079911E-06 -2.249942E-06  0.000000E+00
        30 -1.259921E-06 -2.249926E-06  0.000000E+00

 displacements (vx,vy,vz) for set END_BOT and time  0.1000000E+01

         1  1.349920E-06 -2.249931E-06  0.000000E+00
         3  1.169914E-06 -2.249919E-06  0.000000E+00
         5  9.899220E-07 -2.249968E-06  0.000000E+00
         7  8.099466E-07 -2.249988E-06  0.000000E+00
         9  6.299646E-07 -2.249995E-06  0.000000E+00
        11  4.499776E-07 -2.249997E-06  0.000000E+00
        13  2.699877E-07 -2.249997E-06  0.000000E+00
        15  8.999606E-08 -2.249997E-06  0.000000E+00
        17 -8.999606E-08 -2.249997E-06  0.000000E+00
        19 -2.699877E-07 -2.249997E-06  0.000000E+00
        21 -4.499776E-07 -2.249997E-06  0.000000E+00
        23 -6.299646E-07 -2.249995E-06  0.000000E+00
        25 -8.099466E-07 -2.249988E-06  0.000000E+00
        27 -9.899220E-07 -2.249968E-06  0.000000E+00
        29 -1.169914E-06 -2.249919E-06  0.000000E+00
        31 -1.349920E-06 -2.249931E-06  0.000000E+00

 stresses (elem, integ.pnt.,sxx,syy,szz,sxy,sxz,syz) for set PLATE and time  0.1000000E+01

         1   1  7.760591E-05  8.999968E+00 -6.931137E-05 -1.147534E-05 -2.425481E-05  1.714970E-05 _shell_0000000001   
         1   2 -2.735661E-06  8.999996E+00  8.403586E-05  1.099730E-05 -5.663847E-05  1.438265E-05 _shell_0000000001   
         1   3  5.340612E-05  9.000442E+00  2.748146E-04  6.167150E-05 -8.902214E-05 -3.134601E-05 _shell_0000000001   
         1   4  3.229296E-07  8.999947E+00 -6.816545E-05  3.310595E-05 -6.159632E-05  8.907803E-05 _shell_0000000001   
         1   5 -6.582757E-05  8.999960E+00  2.555789E-05  4.840023E-05  2.617799E-05 -5.785931E-05 _shell_0000000001   
         1   6  4.746689E-05  9.000434E+00  2.569564E-04  9.189606E-05  1.139523E-04 -2.477583E-04 _shell_0000000001   
         1   7 -2.005900E-04  8.999879E+00 -9.737010E-05  7.737005E-05 -9.100821E-05  1.610064E-04 _shell_0000000001   
         1   8 -2.684087E-04  8.999861E+00 -1.002756E-04  8.548596E-05  1.169241E-04 -1.301013E-04 _shell_0000000001   
         1   9 -1.138208E-04  9.000347E+00  1.347379E-04  1.218034E-04  3.248564E-04 -4.641705E-04 _shell_0000000001   
         1  10  8.063764E-05  9.000149E+00 -1.413355E-05 -7.125836E-05 -1.953250E-14  9.778261E-14 _shell_0000000001   
         1  11 -1.797372E-04  8.999757E+00 -4.081955E-05  5.744337E-05 -6.865217E-15 -7.126483E-15 _shell_0000000001   
         1  12 -3.036286E-04  8.999783E+00 -3.007408E-05  2.143466E-04  2.169789E-14  1.594306E-14 _shell_0000000001   
         1  13  1.892556E-04  9.000207E+00  6.668419E-05 -8.668815E-05  1.621274E-14  7.658420E-14 _shell_0000000001   
         1  14 -5.692817E-05  8.999800E+00 -1.962571E-05  3.483522E-05  5.643536E-15 -4.841551E-15 _shell_0000000001   
         1  15 -1.236669E-04  8.999854E+00  3.173961E-05  1.845601E-04  7.672928E-15  1.285312E-14 _shell_0000000001   
         1  16  1.742435E-04  9.000220E+00  1.171513E-04 -1.024351E-04  6.569913E-15  7.334897E-14 _shell_0000000001   
         1  17 -7.360837E-05  8.999782E+00 -6.578739E-05  1.190987E-05 -5.993118E-15 -9.156889E-15 _shell_0000000001   
         1  18 -9.905372E-05  8.999847E+00 -1.080716E-05  1.544564E-04 -9.257680E-15  4.717435E-15 _shell_0000000001   
         1  19  7.760591E-05  8.999968E+00 -6.931137E-05 -1.147534E-05  2.425481E-05 -1.714970E-05 _shell_0000000001   
         1  20 -2.735661E-06  8.999996E+00  8.403586E-05  1.099730E-05  5.663847E-05 -1.438265E-05 _shell_0000000001   
         1  21  5.340612E-05  9.000442E+00  2.748146E-04  6.167150E-05  8.902214E-05  3.134601E-05 _shell_0000000001   
         1  22  3.229294E-07  8.999947E+00 -6.816545E-05  3.310595E-05  6.159632E-05 -8.907803E-05 _shell_0000000001   
         1  23 -6.582757E-05  8.999960E+00  2.555789E-05  4.840023E-05 -2.617799E-05  5.785931E-05 _shell_0000000001   
         1  24  4.746689E-05  9.000434E+00  2.569564E-04  9.189606E-05 -1.139523E-04  2.477583E-04 _shell_0000000001   
         1  25 -2.005900E-04  8.999879E+00 -9.737010E-05  7.737005E-05  9.100821E-05 -1.610064E-04 _shell_0000000001   
         1  26 -2.684087E-04  8.999861E+00 -1.002756E-04  8.548596E-05 -1.169241E-04  1.301013E-04 _shell_0000000001   
         1  27 -1.138208E-04  9.000347E+00  1.347379E-04  1.218034E-04 -3.248564E-04  4.641705E-04 _shell_0000000001   
         2   1 -8.789372E-05  9.000347E+00  1.953690E-04 -2.191104E-04 -9.916313E-05 -3.898143E-05 _shell_0000000002   
         2   2  1.123305E-04  8.999930E+00  7.157793E-05 -5.380493E-05 -1.008321E-05 -1.236248E-05 _shell_0000000002   
         2   3  4.877130E-04  9.000009E+00  3.591700E-05 -6.800994E-05  7.899670E-05 -1.766041E-05 _shell_0000000002   
         2   4  4.090807E-04  9.000550E+00  3.984666E-04 -4.320041E-04  1.335278E-04 -2.605253E-04 _shell_0000000002   
         2   5  2.834236E-04  8.999976E+00  1.239368E-04 -1.455641E-04  8.213522E-05 -1.073709E-04 _shell_0000000002   
         2   6  3.648416E-04  8.999929E+00  1.200994E-05 -3.863446E-05  3.074261E-05  1.386661E-05 _shell_0000000002   
         2   7  9.571080E-04  9.000764E+00  5.840490E-04 -6.477186E-04  3.597437E-04 -4.820692E-04 _shell_0000000002   
         2   8  5.185199E-04  9.000045E+00  1.889979E-04 -2.401439E-04  1.678785E-04 -2.023793E-04 _shell_0000000002   
         2   9  3.189238E-04  8.999885E+00  3.102242E-05 -1.207971E-05 -2.398662E-05  4.539363E-05 _shell_0000000002   
         2  10 -2.863149E-04  8.999743E+00 -4.538554E-05 -4.547952E-05  1.440567E-14  4.321414E-14 _shell_0000000002   
         2  11  7.083078E-05  8.999692E+00 -1.225513E-05  2.644034E-05 -2.507517E-14 -5.089865E-16 _shell_0000000002   
         2  12  6.031347E-04  9.000137E+00  1.090054E-04 -8.115023E-05 -3.270086E-14 -9.128496E-14 _shell_0000000002   
         2  13  4.723473E-05  8.999876E+00  8.767287E-05 -2.060661E-04  8.502371E-15  3.746498E-14 _shell_0000000002   
         2  14  7.849914E-05  8.999668E+00 -2.993541E-05 -1.301164E-05  3.257822E-15 -4.790652E-15 _shell_0000000002   
         2  15  3.168386E-04  8.999987E+00  1.505916E-05  5.324010E-07 -1.367655E-15 -7.937237E-14 _shell_0000000002   
         2  16  4.318373E-04  9.000020E+00  2.032162E-04 -3.694734E-04 -1.272474E-17  2.203832E-14 _shell_0000000002   
         2  17  1.501707E-04  8.999667E+00 -3.491347E-05 -5.528435E-05  1.605479E-14 -9.156840E-15 _shell_0000000002   
         2  18  1.074960E-04  8.999874E+00 -3.596753E-05  7.939430E-05  6.888334E-15 -5.450864E-14 _shell_0000000002   
         2  19 -8.789372E-05  9.000347E+00  1.953690E-04 -2.191104E-04  9.916313E-05  3.898143E-05 _shell_0000000002   
         2  20  1.123305E-04  8.999930E+00  7.157793E-05 -5.380493E-05  1.008321E-05  1.236248E-05 _shell_0000000002   
         2  21  4.877130E-04  9.000009E+00  3.591700E-05 -6.800994E-05 -7.899670E-05  1.766041E-05 _shell_0000000002   
         2  22  4.090807E-04  9.000550E+00  3.984666E-04 -4.320041E-04 -1.335278E-04  2.605253E-04 _shell_0000000002   
         2  23  2.834236E-04  8.999976E+00  1.239368E-04 -1.455641E-04 -8.213522E-05  1.073709E-04 _shell_0000000002   
         2  24  3.648416E-04  8.999929E+00  1.200994E-05 -3.863446E-05 -3.074261E-05 -1.386661E-05 _shell_0000000002   
         2  25  9.571080E-04  9.000764E+00  5.840490E-04 -6.477186E-04 -3.597437E-04  4.820692E-04 _shell_0000000002   
         2  26  5.185199E-04  9.000045E+00  1.889979E-04 -2.401439E-04 -1.678785E-04  2.023793E-04 _shell_0000000002   
         2  27  3.189238E-04  8.999885E+00  3.102242E-05 -1.207971E-05  2.398662E-05 -4.539363E-05 _shell_0000000002   
         3   1  3.659942E-04  9.000005E+00 -5.787446E-05  3.030829E-05  1.081606E-05 -1.669286E-05 _shell_0000000003   
         3   2  3.486768E-04  8.999991E+00 -2.324756E-05  1.539807E-05  7.483606E-07  2.394794E-06 _shell_0000000003   
         3   3  3.412100E-04  9.000010E+00  1.093758E-05  7.095839E-06 -9.319343E-06  5.777447E-06 _shell_0000000003   
         3   4  2.752263E-04  8.999946E+00 -5.571837E-05  3.371689E-05 -2.949259E-05  4.197060E-05 _shell_0000000003   
         3   5  2.655176E-04  8.999953E+00 -4.519757E-05  2.636458E-05 -1.807458E-05  2.777694E-05 _shell_0000000003   
         3   6  2.813647E-04  9.000008E+00  1.526455E-06  2.562025E-05 -6.656564E-06 -2.121721E-06 _shell_0000000003   
         3   7  1.950012E-04  8.999895E+00 -3.463284E-05  4.208384E-05 -6.735981E-05  1.006341E-04 _shell_0000000003   
         3   8  1.880185E-04  8.999918E+00 -5.961150E-05  4.228943E-05 -3.445608E-05  5.315908E-05 _shell_0000000003   
         3   9  2.222965E-04  9.000006E+00 -1.174195E-05  4.910301E-05 -1.552351E-06 -1.002089E-05 _shell_0000000003   
         3  10  4.222224E-04  9.000171E+00  8.799301E-06 -8.917134E-06 -1.835143E-14 -9.951907E-14 _shell_0000000003   
         3  11  3.619703E-04  9.000057E+00  4.914998E-07 -1.823691E-06  7.541218E-15 -4.296258E-14 _shell_0000000003   
         3  12  3.115688E-04  8.999976E+00 -8.258072E-06  1.187774E-05  1.553059E-14 -1.391178E-14 _shell_0000000003   
         3  13  3.699609E-04  9.000128E+00  2.745813E-05 -1.982010E-05 -2.847606E-15 -8.633215E-14 _shell_0000000003   
         3  14  3.173175E-04  9.000035E+00 -4.955769E-06 -5.168755E-06  3.545908E-21 -3.899775E-14 _shell_0000000003   
         3  15  2.902299E-04  8.999991E+00 -1.166448E-06  1.609058E-05  4.898708E-15 -1.343852E-14 _shell_0000000003   
         3  16  3.282422E-04  9.000094E+00  6.504641E-05 -2.576472E-05 -8.423766E-15 -6.755169E-14 _shell_0000000003   
         3  17  2.783248E-04  9.000017E+00 -2.866956E-06 -3.555466E-06 -2.433782E-14 -4.132797E-14 _shell_0000000003   
         3  18  2.696681E-04  9.000004E+00  2.067896E-06  2.526177E-05 -4.129732E-15 -2.078509E-14 _shell_0000000003   
         3  19  3.659942E-04  9.000005E+00 -5.787446E-05  3.030829E-05 -1.081606E-05  1.669286E-05 _shell_0000000003   
         3  20  3.486768E-04  8.999991E+00 -2.324756E-05  1.539807E-05 -7.483606E-07 -2.394794E-06 _shell_0000000003   
         3  21  3.412100E-04  9.000010E+00  1.093758E-05  7.095839E-06  9.319343E-06 -5.777447E-06 _shell_0000000003   
         3  22  2.752263E-04  8.999946E+00 -5.571837E-05  3.371689E-05  2.949259E-05 -4.197060E-05 _shell_0000000003   
         3  23  2.655176E-04  8.999953E+00 -4.519757E-05  2.636458E-05  1.807458E-05 -2.777694E-05 _shell_0000000003   
         3  24  2.813647E-04  9.000008E+00  1.526455E-06  2.562025E-05  6.656564E-06  2.121721E-06 _shell_0000000003   
         3  25  1.950012E-04  8.999895E+00 -3.463284E-05  4.208384E-05  6.735981E-05 -1.006341E-04 _shell_0000000003   
         3  26  1.880185E-04  8.999918E+00 -5.961150E-05  4.228943E-05  3.445608E-05 -5.315908E-05 _shell_0000000003   
         3  27  2.222965E-04  9.000006E+00 -1.174195E-05  4.910301E-05  1.552351E-06  1.002089E-05 _shell_0000000003   
         4   1  2.963672E-04  9.000005E+00  6.006597E-06  6.314107E-06 -8.498551E-06  3.205295E-06 _shell_0000000004   
         4   2  2.622211E-04  9.000001E+00  3.865539E-06  3.048608E-06 -2.805417E-06  1.022372E-06 _shell_0000000004   
         4   3  2.276065E-04  8.999998E+00 -1.931961E-06  6.145962E-06  2.887716E-06 -1.313339E-06 _shell_0000000004   
         4   4  2.749356E-04  9.000026E+00  1.738337E-05  1.752559E-05  4.089789E-06 -1.189751E-05 _shell_0000000004   
         4   5  2.444285E-04  9.000011E+00  9.995297E-06  1.433637E-05  2.971992E-06 -5.554350E-06 _shell_0000000004   
         4   6  2.136056E-04  8.999999E+00 -6.927162E-07  1.750999E-05  1.854194E-06  6.360212E-07 _shell_0000000004   
         4   7  2.494371E-04  9.000043E+00  2.115262E-05  2.686918E-05  1.574700E-05 -2.700031E-05 _shell_0000000004   
         4   8  2.244312E-04  9.000020E+00  1.286281E-05  2.375623E-05  7.818270E-06 -1.213107E-05 _shell_0000000004   
         4   9  1.992624E-04  8.999999E+00  1.629558E-06  2.700614E-05 -1.104585E-07  2.585381E-06 _shell_0000000004   
         4  10  2.818160E-04  8.999960E+00 -1.191790E-05  1.313968E-05  1.243017E-14 -3.497354E-14 _shell_0000000004   
         4  11  2.593568E-04  8.999983E+00 -2.372068E-06  4.823279E-06  1.021512E-14 -4.805285E-14 _shell_0000000004   
         4  12  2.364291E-04  9.000007E+00  3.517318E-06  2.869730E-06  3.132807E-15  5.826924E-14 _shell_0000000004   
         4  13  2.515453E-04  8.999977E+00 -4.329299E-06  2.824679E-05  4.154626E-15 -2.769388E-14 _shell_0000000004   
         4  14  2.327250E-04  8.999989E+00 -3.048756E-08  2.000667E-05 -3.311719E-15 -3.576295E-14 _shell_0000000004   
         4  15  2.135891E-04  9.000004E+00  9.683854E-07  1.812939E-05 -1.896902E-15  5.619737E-14 _shell_0000000004   
         4  16  2.172077E-04  8.999991E+00 -4.348228E-06  4.148601E-05 -1.083198E-15 -2.275670E-14 _shell_0000000004   
         4  17  2.038887E-04  8.999995E+00 -9.511557E-07  3.332216E-05 -7.879559E-15 -2.707490E-14 _shell_0000000004   
         4  18  1.904068E-04  9.000001E+00 -4.975181E-07  3.152116E-05 -2.386088E-15  3.284159E-14 _shell_0000000004   
         4  19  2.963672E-04  9.000005E+00  6.006597E-06  6.314106E-06  8.498551E-06 -3.205295E-06 _shell_0000000004   
         4  20  2.622211E-04  9.000001E+00  3.865539E-06  3.048608E-06  2.805417E-06 -1.022372E-06 _shell_0000000004   
         4  21  2.276065E-04  8.999998E+00 -1.931961E-06  6.145962E-06 -2.887716E-06  1.313339E-06 _shell_0000000004   
         4  22  2.749356E-04  9.000026E+00  1.738337E-05  1.752559E-05 -4.089789E-06  1.189751E-05 _shell_0000000004   
         4  23  2.444285E-04  9.000011E+00  9.995297E-06  1.433637E-05 -2.971992E-06  5.554350E-06 _shell_0000000004   
         4  24  2.136056E-04  8.999999E+00 -6.927162E-07  1.750999E-05 -1.854194E-06 -6.360211E-07 _shell_0000000004   
         4  25  2.494371E-04  9.000043E+00  2.115262E-05  2.686918E-05 -1.574700E-05  2.700031E-05 _shell_0000000004   
         4  26  2.244312E-04  9.000020E+00  1.286281E-05  2.375623E-05 -7.818270E-06  1.213107E-05 _shell_0000000004   
         4  27  1.992624E-04  8.999999E+00  1.629558E-06  2.700614E-05  1.104585E-07 -2.585381E-06 _shell_0000000004   
         5   1  2.132258E-04  8.999999E+00 -2.783536E-06  5.565046E-06  2.188575E-06 -1.554438E-06 _shell_0000000005   
         5   2  1.936491E-04  9.000000E+00 -4.273680E-07  3.300273E-06  6.481383E-07 -2.781259E-07 _shell_0000000005   
         5   3  1.734878E-04  9.000000E+00  5.933793E-07  3.344082E-06 -8.922983E-07  4.877511E-07 _shell_0000000005   
         5   4  1.977193E-04  8.999995E+00 -4.595536E-06  1.640462E-05 -5.658089E-07  2.240259E-06 _shell_0000000005   
         5   5  1.819099E-04  8.999999E+00 -1.937649E-06  1.265282E-05 -6.125144E-07  1.331975E-06 _shell_0000000005   
         5   6  1.660264E-04  9.000002E+00  5.758335E-07  1.120961E-05 -6.592200E-07 -8.674382E-08 _shell_0000000005   
         5   7  1.806651E-04  8.999992E+00 -5.085829E-06  2.744256E-05 -3.070380E-06  6.034955E-06 _shell_0000000005   
         5   8  1.681234E-04  8.999997E+00 -3.292017E-06  2.220374E-05 -1.623354E-06  2.942076E-06 _shell_0000000005   
         5   9  1.560181E-04  9.000002E+00 -4.515938E-07  1.927351E-05 -1.763286E-07 -6.612388E-07 _shell_0000000005   
         5  10  2.162758E-04  9.000010E+00  1.633005E-06  3.325009E-06 -1.617686E-15  6.866585E-14 _shell_0000000005   
         5  11  1.936793E-04  9.000004E+00  9.694239E-07  2.371947E-06 -4.629205E-15 -8.857191E-15 _shell_0000000005   
         5  12  1.704983E-04  8.999998E+00 -1.029579E-06  3.727469E-06 -5.492309E-15  2.734545E-14 _shell_0000000005   
         5  13  2.030648E-04  9.000008E+00  8.047888E-07  1.315800E-05 -2.417913E-15  5.863585E-14 _shell_0000000005   
         5  14  1.842357E-04  9.000004E+00  4.429266E-07  1.071791E-05 -3.203907E-15  4.982810E-15 _shell_0000000005   
         5  15  1.653325E-04  9.000000E+00 -6.334070E-08  1.058641E-05 -1.631917E-15  2.687945E-14 _shell_0000000005   
         5  16  1.883061E-04  9.000005E+00  1.298279E-06  2.318936E-05 -1.323489E-15  4.402860E-14 _shell_0000000005   
         5  17  1.727447E-04  9.000003E+00  7.234224E-08  1.926225E-05 -7.560664E-15 -2.437636E-15 _shell_0000000005   
         5  18  1.576196E-04  9.000002E+00 -1.069843E-07  1.764373E-05 -4.851528E-15  2.029389E-14 _shell_0000000005   
         5  19  2.132258E-04  8.999999E+00 -2.783536E-06  5.565046E-06 -2.188575E-06  1.554438E-06 _shell_0000000005   
         5  20  1.936491E-04  9.000000E+00 -4.273679E-07  3.300273E-06 -6.481383E-07  2.781259E-07 _shell_0000000005   
         5  21  1.734878E-04  9.000000E+00  5.933793E-07  3.344082E-06  8.922983E-07 -4.877511E-07 _shell_0000000005   
         5  22  1.977193E-04  8.999995E+00 -4.595537E-06  1.640462E-05  5.658089E-07 -2.240258E-06 _shell_0000000005   
         5  23  1.819099E-04  8.999999E+00 -1.937649E-06  1.265282E-05  6.125144E-07 -1.331975E-06 _shell_0000000005   
         5  24  1.660264E-04  9.000002E+00  5.758335E-07  1.120961E-05  6.592200E-07  8.674389E-08 _shell_0000000005   
         5  25  1.806651E-04  8.999992E+00 -5.085829E-06  2.744256E-05  3.070380E-06 -6.034955E-06 _shell_0000000005   
         5  26  1.681234E-04  8.999997E+00 -3.292017E-06  2.220374E-05  1.623354E-06 -2.942076E-06 _shell_0000000005   
         5  27  1.560181E-04  9.000002E+00 -4.515938E-07  1.927351E-05  1.763285E-07  6.612388E-07 _shell_0000000005   
         6   1  1.620486E-04  9.000000E+00 -1.413242E-08  3.076069E-06 -6.322297E-07  5.270386E-07 _shell_0000000006   
         6   2  1.495038E-04  9.000000E+00  1.089360E-07  1.748652E-06 -3.268684E-07  2.341919E-07 _shell_0000000006   
         6   3  1.365661E-04  9.000000E+00 -4.001801E-07  1.811658E-06 -2.150707E-08 -4.543322E-08 _shell_0000000006   
         6   4  1.574362E-04  9.000002E+00  9.975851E-07  9.643549E-06  9.726284E-08 -5.203143E-07 _shell_0000000006   
         6   5  1.463448E-04  9.000002E+00  7.813816E-07  7.228213E-06  3.471661E-08 -2.535378E-07 _shell_0000000006   
         6   6  1.348473E-04  9.000001E+00 -9.785685E-08  6.203301E-06 -2.782963E-08  2.646046E-08 _shell_0000000006   
         6   7  1.509754E-04  9.000004E+00  1.085577E-06  1.598496E-05  7.692732E-07 -1.567667E-06 _shell_0000000006   
         6   8  1.414523E-04  9.000003E+00  7.983519E-07  1.248171E-05  3.388194E-07 -7.412674E-07 _shell_0000000006   
         6   9  1.315099E-04  9.000001E+00 -1.827586E-07  1.036888E-05 -9.163439E-08  9.835411E-08 _shell_0000000006   
         6  10  1.610756E-04  8.999997E+00 -1.148808E-06  3.268043E-06 -3.942002E-15  4.810087E-14 _shell_0000000006   
         6  11  1.492897E-04  8.999999E+00 -2.668288E-07  1.659737E-06  3.883565E-15  1.048610E-14 _shell_0000000006   
         6  12  1.371109E-04  9.000000E+00 -1.703366E-08  1.441854E-06  1.557268E-14 -1.872216E-14 _shell_0000000006   
         6  13  1.559717E-04  8.999999E+00 -3.477574E-07  1.008849E-05  2.087040E-15  3.583601E-14 _shell_0000000006   
         6  14  1.456391E-04  9.000001E+00  1.949503E-07  7.392268E-06  7.126479E-15  6.634719E-15 _shell_0000000006   
         6  15  1.349005E-04  9.000001E+00  7.462306E-08  6.086468E-06  9.337764E-15 -1.099269E-14 _shell_0000000006   
         6  16  1.490193E-04  9.000001E+00 -4.704322E-07  1.668288E-05 -7.478104E-16  2.366723E-14 _shell_0000000006   
         6  17  1.402551E-04  9.000001E+00  1.253975E-09  1.289873E-05  7.057661E-15  2.856321E-15 _shell_0000000006   
         6  18  1.310716E-04  9.000001E+00 -2.209452E-07  1.050502E-05  6.290297E-15  1.408367E-14 _shell_0000000006   
         6  19  1.620486E-04  9.000000E+00 -1.413244E-08  3.076069E-06  6.322297E-07 -5.270385E-07 _shell_0000000006   
         6  20  1.495038E-04  9.000000E+00  1.089359E-07  1.748652E-06  3.268684E-07 -2.341918E-07 _shell_0000000006   
         6  21  1.365661E-04  9.000000E+00 -4.001801E-07  1.811658E-06  2.150709E-08  4.543317E-08 _shell_0000000006   
         6  22  1.574362E-04  9.000002E+00  9.975850E-07  9.643549E-06 -9.726284E-08  5.203144E-07 _shell_0000000006   
         6  23  1.463448E-04  9.000002E+00  7.813816E-07  7.228213E-06 -3.471660E-08  2.535378E-07 _shell_0000000006   
         6  24  1.348473E-04  9.000001E+00 -9.785677E-08  6.203301E-06  2.782963E-08 -2.646046E-08 _shell_0000000006   
         6  25  1.509754E-04  9.000004E+00  1.085577E-06  1.598496E-05 -7.692732E-07  1.567667E-06 _shell_0000000006   
         6  26  1.414523E-04  9.000003E+00  7.983519E-07  1.248171E-05 -3.388194E-07  7.412674E-07 _shell_0000000006   
         6  27  1.315099E-04  9.000001E+00 -1.827584E-07  1.036888E-05  9.163440E-08 -9.835408E-08 _shell_0000000006   
         7   1  1.314157E-04  9.000000E+00 -3.444372E-07  1.590125E-06  2.907789E-07 -8.416772E-08 _shell_0000000007   
         7   2  1.259058E-04  9.000000E+00  5.208580E-08  8.257773E-07  5.072247E-08  1.975325E-08 _shell_0000000007   
         7   3  1.200616E-04  9.000000E+00 -1.327515E-07  5.540296E-07 -1.893340E-07  7.091061E-08 _shell_0000000007   
         7   4  1.300716E-04  9.000000E+00 -2.761528E-07  5.217337E-06  1.308493E-07  1.126916E-07 _shell_0000000007   
         7   5  1.252339E-04  9.000001E+00  1.207151E-07  3.453415E-06 -1.274575E-08  8.643254E-08 _shell_0000000007   
         7   6  1.201145E-04  9.000001E+00  5.933781E-08  2.182094E-06 -1.563408E-07  7.409939E-09 _shell_0000000007   
         7   7  1.272499E-04  9.000000E+00 -4.893047E-07  8.826030E-06 -1.255122E-08  3.095508E-07 _shell_0000000007   
         7   8  1.230512E-04  9.000001E+00 -1.692278E-07  6.062534E-06 -5.968485E-08  1.531118E-07 _shell_0000000007   
         7   9  1.186237E-04  9.000001E+00 -1.842808E-07  3.791639E-06 -1.068185E-07 -5.609076E-08 _shell_0000000007   
         7  10  1.314083E-04  9.000000E+00 -1.023163E-07  1.404670E-06  1.829676E-14 -2.866149E-14 _shell_0000000007   
         7  11  1.257148E-04  9.000000E+00  1.105637E-07  7.324549E-07  1.360007E-14 -2.280473E-14 _shell_0000000007   
         7  12  1.196870E-04  9.000000E+00 -2.579165E-07  5.528397E-07  8.936519E-15  2.555474E-15 _shell_0000000007   
         7  13  1.302255E-04  9.000001E+00  3.506735E-08  4.970668E-06  7.171347E-15 -1.305673E-14 _shell_0000000007   
         7  14  1.252040E-04  9.000001E+00  2.482923E-07  3.298879E-06  5.306026E-15 -1.293520E-14 _shell_0000000007   
         7  15  1.199011E-04  9.000001E+00  3.272062E-09  2.119690E-06  5.145772E-15  1.809617E-14 _shell_0000000007   
         7  16  1.275650E-04  9.000001E+00 -1.089853E-07  8.518147E-06  1.771912E-15  5.749221E-15 _shell_0000000007   
         7  17  1.231826E-04  9.000001E+00  2.744871E-08  5.846783E-06 -6.590484E-15 -2.738031E-14 _shell_0000000007   
         7  18  1.185714E-04  9.000001E+00 -1.712473E-07  3.668020E-06 -5.786492E-16  3.495754E-15 _shell_0000000007   
         7  19  1.314157E-04  9.000000E+00 -3.444371E-07  1.590125E-06 -2.907789E-07  8.416765E-08 _shell_0000000007   
         7  20  1.259058E-04  9.000000E+00  5.208583E-08  8.257773E-07 -5.072245E-08 -1.975330E-08 _shell_0000000007   
         7  21  1.200616E-04  9.000000E+00 -1.327514E-07  5.540297E-07  1.893340E-07 -7.091063E-08 _shell_0000000007   
         7  22  1.300716E-04  9.000000E+00 -2.761527E-07  5.217337E-06 -1.308493E-07 -1.126916E-07 _shell_0000000007   
         7  23  1.252339E-04  9.000001E+00  1.207151E-07  3.453415E-06  1.274575E-08 -8.643257E-08 _shell_0000000007   
         7  24  1.201145E-04  9.000001E+00  5.933782E-08  2.182094E-06  1.563408E-07 -7.409926E-09 _shell_0000000007   
         7  25  1.272499E-04  9.000000E+00 -4.893047E-07  8.826030E-06  1.255122E-08 -3.095508E-07 _shell_0000000007   
         7  26  1.230512E-04  9.000001E+00 -1.692278E-07  6.062534E-06  5.968485E-08 -1.531119E-07 _shell_0000000007   
         7  27  1.186237E-04  9.000001E+00 -1.842809E-07  3.791639E-06  1.068185E-07  5.609076E-08 _shell_0000000007   
         8   1  1.182793E-04  9.000000E+00 -1.941953E-07  4.797686E-07  4.616155E-08  8.104499E-08 _shell_0000000008   
         8   2  1.184227E-04  9.000000E+00  3.175356E-08 -2.934582E-14  2.065088E-14  8.878300E-08 _shell_0000000008   
         8   3  1.182793E-04  9.000000E+00 -1.941949E-07 -4.797687E-07 -4.616152E-08  8.104477E-08 _shell_0000000008   
         8   4  1.185635E-04  9.000001E+00  5.159067E-08  1.371728E-06  8.575414E-08 -2.033736E-08 _shell_0000000008   
         8   5  1.186991E-04  9.000001E+00  2.594836E-07 -5.370311E-15  3.996555E-14 -1.259928E-08 _shell_0000000008   
         8   6  1.185635E-04  9.000001E+00  5.159054E-08 -1.371728E-06 -8.575406E-08 -2.033756E-08 _shell_0000000008   
         8   7  1.174908E-04  9.000001E+00 -7.655465E-08  2.263688E-06  1.253467E-07 -1.217197E-07 _shell_0000000008   
         8   8  1.176187E-04  9.000001E+00  1.132824E-07 -2.272838E-14  2.641251E-14 -1.139816E-07 _shell_0000000008   
         8   9  1.174908E-04  9.000001E+00 -7.655499E-08 -2.263688E-06 -1.253466E-07 -1.217198E-07 _shell_0000000008   
         8  10  1.181460E-04  9.000000E+00 -2.464355E-07  5.036592E-07  7.171345E-15  1.880562E-15 _shell_0000000008   
         8  11  1.182894E-04  9.000000E+00 -2.048647E-08 -1.322471E-13  9.065337E-15 -1.180959E-14 _shell_0000000008   
         8  12  1.181460E-04  9.000000E+00 -2.464349E-07 -5.036595E-07  3.393379E-15  3.017058E-14 _shell_0000000008   
         8  13  1.183884E-04  9.000001E+00 -1.856760E-08  1.395619E-06  5.497570E-15  2.117582E-14 _shell_0000000008   
         8  14  1.185241E-04  9.000001E+00  1.893254E-07 -7.075576E-14  3.410529E-15 -4.790652E-15 _shell_0000000008   
         8  15  1.183884E-04  9.000001E+00 -1.856752E-08 -1.395619E-06 -1.336215E-15  1.689749E-14 _shell_0000000008   
         8  16  1.172739E-04  9.000001E+00 -1.646312E-07  2.287578E-06  4.482520E-15  1.063595E-14 _shell_0000000008   
         8  17  1.174018E-04  9.000001E+00  2.520610E-08 -2.219389E-14  6.096544E-15  6.165713E-16 _shell_0000000008   
         8  18  1.172739E-04  9.000001E+00 -1.646311E-07 -2.287578E-06  6.763844E-15  2.808211E-14 _shell_0000000008   
         8  19  1.182793E-04  9.000000E+00 -1.941952E-07  4.797685E-07 -4.616154E-08 -8.104496E-08 _shell_0000000008   
         8  20  1.184227E-04  9.000000E+00  3.175358E-08 -3.680317E-14 -3.970467E-15 -8.878301E-08 _shell_0000000008   
         8  21  1.182793E-04  9.000000E+00 -1.941951E-07 -4.797686E-07  4.616153E-08 -8.104472E-08 _shell_0000000008   
         8  22  1.185635E-04  9.000001E+00  5.159069E-08  1.371728E-06 -8.575413E-08  2.033739E-08 _shell_0000000008   
         8  23  1.186991E-04  9.000001E+00  2.594836E-07 -1.432931E-14 -4.062093E-14  1.259928E-08 _shell_0000000008   
         8  24  1.185635E-04  9.000001E+00  5.159052E-08 -1.371728E-06  8.575405E-08  2.033758E-08 _shell_0000000008   
         8  25  1.174908E-04  9.000001E+00 -7.655480E-08  2.263688E-06 -1.253467E-07  1.217197E-07 _shell_0000000008   
         8  26  1.176187E-04  9.000001E+00  1.132824E-07  4.581308E-16 -2.565532E-14  1.139816E-07 _shell_0000000008   
         8  27  1.174908E-04  9.000001E+00 -7.655490E-08 -2.263688E-06  1.253466E-07  1.217199E-07 _shell_0000000008   
         9   1  1.200616E-04  9.000000E+00 -1.327511E-07 -5.540294E-07  1.893340E-07  7.091040E-08 _shell_0000000009   
         9   2  1.259058E-04  9.000000E+00  5.208609E-08 -8.257772E-07 -5.072244E-08  1.975312E-08 _shell_0000000009   
         9   3  1.314157E-04  9.000000E+00 -3.444371E-07 -1.590125E-06 -2.907789E-07 -8.416771E-08 _shell_0000000009   
         9   4  1.201145E-04  9.000001E+00  5.933761E-08 -2.182094E-06  1.563408E-07  7.409726E-09 _shell_0000000009   
         9   5  1.252339E-04  9.000001E+00  1.207149E-07 -3.453415E-06  1.274574E-08  8.643243E-08 _shell_0000000009   
         9   6  1.300716E-04  9.000000E+00 -2.761529E-07 -5.217337E-06 -1.308493E-07  1.126916E-07 _shell_0000000009   
         9   7  1.186237E-04  9.000001E+00 -1.842811E-07 -3.791639E-06  1.068185E-07 -5.609091E-08 _shell_0000000009   
         9   8  1.230512E-04  9.000001E+00 -1.692279E-07 -6.062534E-06  5.968486E-08  1.531117E-07 _shell_0000000009   
         9   9  1.272499E-04  9.000000E+00 -4.893048E-07 -8.826030E-06  1.255124E-08  3.095509E-07 _shell_0000000009   
         9  10  1.196870E-04  9.000000E+00 -2.579159E-07 -5.528395E-07  4.180772E-15  3.018286E-14 _shell_0000000009   
         9  11  1.257148E-04  9.000000E+00  1.105641E-07 -7.324549E-07  1.769497E-14  5.497571E-15 _shell_0000000009   
         9  12  1.314083E-04  9.000000E+00 -1.023161E-07 -1.404670E-06  1.232122E-14  7.870699E-14 _shell_0000000009   
         9  13  1.199011E-04  9.000001E+00  3.272126E-09 -2.119689E-06 -6.483633E-16  1.140236E-14 _shell_0000000009   
         9  14  1.252040E-04  9.000001E+00  2.482923E-07 -3.298879E-06  8.755389E-15 -1.532833E-15 _shell_0000000009   
         9  15  1.302255E-04  9.000001E+00  3.506739E-08 -4.970668E-06  9.092296E-15  9.406708E-14 _shell_0000000009   
         9  16  1.185714E-04  9.000001E+00 -1.712473E-07 -3.668020E-06  7.380996E-15  1.552268E-14 _shell_0000000009   
         9  17  1.231826E-04  9.000001E+00  2.744875E-08 -5.846783E-06  8.685069E-15 -6.204486E-15 _shell_0000000009   
         9  18  1.275650E-04  9.000001E+00 -1.089852E-07 -8.518147E-06  5.173815E-15  8.641743E-14 _shell_0000000009   
         9  19  1.200616E-04  9.000000E+00 -1.327512E-07 -5.540295E-07 -1.893340E-07 -7.091033E-08 _shell_0000000009   
         9  20  1.259058E-04  9.000000E+00  5.208603E-08 -8.257772E-07  5.072246E-08 -1.975308E-08 _shell_0000000009   
         9  21  1.314157E-04  9.000000E+00 -3.444370E-07 -1.590125E-06  2.907789E-07  8.416786E-08 _shell_0000000009   
         9  22  1.201145E-04  9.000001E+00  5.933760E-08 -2.182094E-06 -1.563408E-07 -7.409710E-09 _shell_0000000009   
         9  23  1.252339E-04  9.000001E+00  1.207149E-07 -3.453415E-06 -1.274573E-08 -8.643242E-08 _shell_0000000009   
         9  24  1.300716E-04  9.000000E+00 -2.761529E-07 -5.217337E-06  1.308493E-07 -1.126914E-07 _shell_0000000009   
         9  25  1.186237E-04  9.000001E+00 -1.842810E-07 -3.791639E-06 -1.068185E-07  5.609096E-08 _shell_0000000009   
         9  26  1.230512E-04  9.000001E+00 -1.692280E-07 -6.062534E-06 -5.968485E-08 -1.531117E-07 _shell_0000000009   
         9  27  1.272499E-04  9.000000E+00 -4.893049E-07 -8.826030E-06 -1.255122E-08 -3.095507E-07 _shell_0000000009   
        10   1  1.365661E-04  9.000000E+00 -4.001800E-07 -1.811658E-06  2.150701E-08 -4.543319E-08 _shell_0000000010   
        10   2  1.495038E-04  9.000000E+00  1.089360E-07 -1.748652E-06  3.268683E-07  2.341917E-07 _shell_0000000010   
        10   3  1.620486E-04  9.000000E+00 -1.413230E-08 -3.076069E-06  6.322297E-07  5.270383E-07 _shell_0000000010   
        10   4  1.348473E-04  9.000001E+00 -9.785694E-08 -6.203301E-06  2.782961E-08  2.646051E-08 _shell_0000000010   
        10   5  1.463448E-04  9.000002E+00  7.813814E-07 -7.228213E-06 -3.471664E-08 -2.535379E-07 _shell_0000000010   
        10   6  1.574362E-04  9.000002E+00  9.975848E-07 -9.643549E-06 -9.726286E-08 -5.203146E-07 _shell_0000000010   
        10   7  1.315099E-04  9.000001E+00 -1.827586E-07 -1.036888E-05  9.163440E-08  9.835416E-08 _shell_0000000010   
        10   8  1.414523E-04  9.000003E+00  7.983517E-07 -1.248171E-05 -3.388194E-07 -7.412675E-07 _shell_0000000010   
        10   9  1.509754E-04  9.000004E+00  1.085577E-06 -1.598496E-05 -7.692732E-07 -1.567667E-06 _shell_0000000010   
        10  10  1.371109E-04  9.000000E+00 -1.703339E-08 -1.441854E-06 -8.768115E-15  7.966099E-14 _shell_0000000010   
        10  11  1.492897E-04  8.999999E+00 -2.668284E-07 -1.659737E-06 -3.367999E-14 -1.659452E-14 _shell_0000000010   
        10  12  1.610756E-04  8.999997E+00 -1.148808E-06 -3.268043E-06 -1.442141E-14 -5.583075E-14 _shell_0000000010   
        10  13  1.349005E-04  9.000001E+00  7.462308E-08 -6.086468E-06  6.738009E-16  9.938893E-14 _shell_0000000010   
        10  14  1.456391E-04  9.000001E+00  1.949503E-07 -7.392268E-06 -1.404934E-14  3.353896E-15 _shell_0000000010   
        10  15  1.559717E-04  8.999999E+00 -3.477574E-07 -1.008849E-05 -6.704181E-15 -6.716217E-14 _shell_0000000010   
        10  16  1.310716E-04  9.000001E+00 -2.209452E-07 -1.050502E-05  8.017289E-15  1.077597E-13 _shell_0000000010   
        10  17  1.402551E-04  9.000001E+00  1.254009E-09 -1.289873E-05  1.314514E-14  8.659313E-15 _shell_0000000010   
        10  18  1.490193E-04  9.000001E+00 -4.704322E-07 -1.668288E-05  1.193303E-15 -7.364838E-14 _shell_0000000010   
        10  19  1.365661E-04  9.000000E+00 -4.001799E-07 -1.811658E-06 -2.150703E-08  4.543335E-08 _shell_0000000010   
        10  20  1.495038E-04  9.000000E+00  1.089361E-07 -1.748652E-06 -3.268684E-07 -2.341917E-07 _shell_0000000010   
        10  21  1.620486E-04  9.000000E+00 -1.413225E-08 -3.076069E-06 -6.322297E-07 -5.270384E-07 _shell_0000000010   
        10  22  1.348473E-04  9.000001E+00 -9.785694E-08 -6.203301E-06 -2.782961E-08 -2.646029E-08 _shell_0000000010   
        10  23  1.463448E-04  9.000002E+00  7.813814E-07 -7.228213E-06  3.471660E-08  2.535379E-07 _shell_0000000010   
        10  24  1.574362E-04  9.000002E+00  9.975848E-07 -9.643549E-06  9.726284E-08  5.203145E-07 _shell_0000000010   
        10  25  1.315099E-04  9.000001E+00 -1.827586E-07 -1.036888E-05 -9.163439E-08 -9.835395E-08 _shell_0000000010   
        10  26  1.414523E-04  9.000003E+00  7.983517E-07 -1.248171E-05  3.388194E-07  7.412675E-07 _shell_0000000010   
        10  27  1.509754E-04  9.000004E+00  1.085577E-06 -1.598496E-05  7.692732E-07  1.567667E-06 _shell_0000000010   
        11   1  1.734878E-04  9.000000E+00  5.933795E-07 -3.344082E-06  8.922983E-07  4.877509E-07 _shell_0000000011   
        11   2  1.936491E-04  9.000000E+00 -4.273680E-07 -3.300273E-06 -6.481383E-07 -2.781259E-07 _shell_0000000011   
        11   3  2.132258E-04  8.999999E+00 -2.783536E-06 -5.565046E-06 -2.188575E-06 -1.554438E-06 _shell_0000000011   
        11   4  1.660264E-04  9.000002E+00  5.758333E-07 -1.120961E-05  6.592199E-07 -8.674405E-08 _shell_0000000011   
        11   5  1.819099E-04  8.999999E+00 -1.937649E-06 -1.265282E-05  6.125144E-07  1.331975E-06 _shell_0000000011   
        11   6  1.977193E-04  8.999995E+00 -4.595536E-06 -1.640462E-05  5.658088E-07  2.240259E-06 _shell_0000000011   
        11   7  1.560181E-04  9.000002E+00 -4.515939E-07 -1.927351E-05  1.763285E-07 -6.612390E-07 _shell_0000000011   
        11   8  1.681234E-04  8.999997E+00 -3.292017E-06 -2.220374E-05  1.623354E-06  2.942076E-06 _shell_0000000011   
        11   9  1.806651E-04  8.999992E+00 -5.085829E-06 -2.744256E-05  3.070380E-06  6.034955E-06 _shell_0000000011   
        11  10  1.704983E-04  8.999998E+00 -1.029578E-06 -3.727469E-06  4.689127E-15 -4.230362E-14 _shell_0000000011   
        11  11  1.936793E-04  9.000004E+00  9.694239E-07 -2.371947E-06  8.713503E-15 -1.781621E-14 _shell_0000000011   
        11  12  2.162758E-04  9.000010E+00  1.633005E-06 -3.325009E-06  8.866916E-15 -2.847016E-14 _shell_0000000011   
        11  13  1.653325E-04  9.000000E+00 -6.334069E-08 -1.058641E-05 -2.584043E-15 -5.372858E-14 _shell_0000000011   
        11  14  1.842357E-04  9.000004E+00  4.429266E-07 -1.071791E-05 -5.293957E-15 -1.293520E-14 _shell_0000000011   
        11  15  2.030648E-04  9.000008E+00  8.047887E-07 -1.315800E-05 -2.963971E-16 -3.746249E-14 _shell_0000000011   
        11  16  1.576196E-04  9.000002E+00 -1.069843E-07 -1.764373E-05 -8.482127E-15 -6.103608E-14 _shell_0000000011   
        11  17  1.727447E-04  9.000003E+00  7.234224E-08 -1.926225E-05 -1.221080E-14 -1.434904E-14 _shell_0000000011   
        11  18  1.883061E-04  9.000005E+00  1.298280E-06 -2.318936E-05 -7.584545E-15 -5.916638E-14 _shell_0000000011   
        11  19  1.734878E-04  9.000000E+00  5.933794E-07 -3.344082E-06 -8.922983E-07 -4.877509E-07 _shell_0000000011   
        11  20  1.936491E-04  9.000000E+00 -4.273680E-07 -3.300273E-06  6.481383E-07  2.781259E-07 _shell_0000000011   
        11  21  2.132258E-04  8.999999E+00 -2.783537E-06 -5.565046E-06  2.188575E-06  1.554438E-06 _shell_0000000011   
        11  22  1.660264E-04  9.000002E+00  5.758333E-07 -1.120961E-05 -6.592199E-07  8.674394E-08 _shell_0000000011   
        11  23  1.819099E-04  8.999999E+00 -1.937649E-06 -1.265282E-05 -6.125144E-07 -1.331975E-06 _shell_0000000011   
        11  24  1.977193E-04  8.999995E+00 -4.595536E-06 -1.640462E-05 -5.658088E-07 -2.240259E-06 _shell_0000000011   
        11  25  1.560181E-04  9.000002E+00 -4.515940E-07 -1.927351E-05 -1.763285E-07  6.612388E-07 _shell_0000000011   
        11  26  1.681234E-04  8.999997E+00 -3.292017E-06 -2.220374E-05 -1.623354E-06 -2.942076E-06 _shell_0000000011   
        11  27  1.806651E-04  8.999992E+00 -5.085829E-06 -2.744256E-05 -3.070380E-06 -6.034955E-06 _shell_0000000011   
        12   1  2.276065E-04  8.999998E+00 -1.931961E-06 -6.145962E-06 -2.887716E-06 -1.313338E-06 _shell_0000000012   
        12   2  2.622211E-04  9.000001E+00  3.865539E-06 -3.048608E-06  2.805417E-06  1.022372E-06 _shell_0000000012   
        12   3  2.963672E-04  9.000005E+00  6.006597E-06 -6.314107E-06  8.498551E-06  3.205295E-06 _shell_0000000012   
        12   4  2.136056E-04  8.999999E+00 -6.927160E-07 -1.750999E-05 -1.854194E-06  6.360213E-07 _shell_0000000012   
        12   5  2.444285E-04  9.000011E+00  9.995297E-06 -1.433637E-05 -2.971992E-06 -5.554350E-06 _shell_0000000012   
        12   6  2.749356E-04  9.000026E+00  1.738337E-05 -1.752559E-05 -4.089789E-06 -1.189751E-05 _shell_0000000012   
        12   7  1.992624E-04  8.999999E+00  1.629558E-06 -2.700614E-05  1.104585E-07  2.585381E-06 _shell_0000000012   
        12   8  2.244312E-04  9.000020E+00  1.286281E-05 -2.375623E-05 -7.818270E-06 -1.213107E-05 _shell_0000000012   
        12   9  2.494371E-04  9.000043E+00  2.115262E-05 -2.686918E-05 -1.574700E-05 -2.700031E-05 _shell_0000000012   
        12  10  2.364291E-04  9.000007E+00  3.517318E-06 -2.869730E-06  1.028848E-14 -3.843499E-14 _shell_0000000012   
        12  11  2.593568E-04  8.999983E+00 -2.372068E-06 -4.823279E-06  8.186470E-15 -1.954686E-14 _shell_0000000012   
        12  12  2.818160E-04  8.999960E+00 -1.191790E-05 -1.313968E-05  3.508592E-15  2.396031E-14 _shell_0000000012   
        12  13  2.135891E-04  9.000004E+00  9.683854E-07 -1.812939E-05  1.296574E-15 -4.398070E-14 _shell_0000000012   
        12  14  2.327250E-04  8.999989E+00 -3.048755E-08 -2.000667E-05 -4.886730E-15 -8.099375E-15 _shell_0000000012   
        12  15  2.515453E-04  8.999977E+00 -4.329299E-06 -2.824679E-05 -1.120775E-14  1.914219E-14 _shell_0000000012   
        12  16  1.904068E-04  9.000001E+00 -4.975181E-07 -3.152116E-05 -6.871963E-15 -6.836616E-14 _shell_0000000012   
        12  17  2.038887E-04  8.999995E+00 -9.511557E-07 -3.332216E-05 -1.206711E-14 -1.445083E-14 _shell_0000000012   
        12  18  2.172077E-04  8.999991E+00 -4.348228E-06 -4.148601E-05 -1.242941E-14  1.723966E-14 _shell_0000000012   
        12  19  2.276065E-04  8.999998E+00 -1.931961E-06 -6.145962E-06  2.887716E-06  1.313338E-06 _shell_0000000012   
        12  20  2.622211E-04  9.000001E+00  3.865539E-06 -3.048608E-06 -2.805417E-06 -1.022372E-06 _shell_0000000012   
        12  21  2.963672E-04  9.000005E+00  6.006597E-06 -6.314107E-06 -8.498551E-06 -3.205295E-06 _shell_0000000012   
        12  22  2.136056E-04  8.999999E+00 -6.927160E-07 -1.750999E-05  1.854194E-06 -6.360214E-07 _shell_0000000012   
        12  23  2.444285E-04  9.000011E+00  9.995297E-06 -1.433637E-05  2.971992E-06  5.554350E-06 _shell_0000000012   
        12  24  2.749356E-04  9.000026E+00  1.738337E-05 -1.752559E-05  4.089789E-06  1.189751E-05 _shell_0000000012   
        12  25  1.992624E-04  8.999999E+00  1.629558E-06 -2.700614E-05 -1.104585E-07 -2.585381E-06 _shell_0000000012   
        12  26  2.244312E-04  9.000020E+00  1.286281E-05 -2.375623E-05  7.818270E-06  1.213107E-05 _shell_0000000012   
        12  27  2.494371E-04  9.000043E+00  2.115262E-05 -2.686918E-05  1.574700E-05  2.700031E-05 _shell_0000000012   
        13   1  3.412100E-04  9.000010E+00  1.093758E-05 -7.095839E-06  9.319343E-06  5.777447E-06 _shell_0000000013   
        13   2  3.486768E-04  8.999991E+00 -2.324756E-05 -1.539807E-05 -7.483606E-07  2.394794E-06 _shell_0000000013   
        13   3  3.659942E-04  9.000005E+00 -5.787446E-05 -3.030829E-05 -1.081606E-05 -1.669286E-05 _shell_0000000013   
        13   4  2.813647E-04  9.000008E+00  1.526455E-06 -2.562025E-05  6.656564E-06 -2.121721E-06 _shell_0000000013   
        13   5  2.655176E-04  8.999953E+00 -4.519757E-05 -2.636458E-05  1.807458E-05  2.777694E-05 _shell_0000000013   
        13   6  2.752263E-04  8.999946E+00 -5.571837E-05 -3.371689E-05  2.949259E-05  4.197060E-05 _shell_0000000013   
        13   7  2.222965E-04  9.000006E+00 -1.174195E-05 -4.910301E-05  1.552351E-06 -1.002089E-05 _shell_0000000013   
        13   8  1.880185E-04  8.999918E+00 -5.961150E-05 -4.228943E-05  3.445608E-05  5.315908E-05 _shell_0000000013   
        13   9  1.950012E-04  8.999895E+00 -3.463284E-05 -4.208384E-05  6.735981E-05  1.006341E-04 _shell_0000000013   
        13  10  3.115688E-04  8.999976E+00 -8.258072E-06 -1.187774E-05  4.078232E-15  2.692494E-14 _shell_0000000013   
        13  11  3.619703E-04  9.000057E+00  4.914998E-07  1.823691E-06  1.134848E-14 -2.239700E-15 _shell_0000000013   
        13  12  4.222224E-04  9.000171E+00  8.799301E-06  8.917133E-06  2.443067E-14  2.454580E-14 _shell_0000000013   
        13  13  2.902299E-04  8.999991E+00 -1.166448E-06 -1.609058E-05 -4.671172E-15  8.118877E-15 _shell_0000000013   
        13  14  3.173175E-04  9.000035E+00 -4.955769E-06  5.168755E-06  5.102282E-15 -1.620303E-14 _shell_0000000013   
        13  15  3.699609E-04  9.000128E+00  2.745813E-05  1.982010E-05  2.584386E-14  2.644367E-14 _shell_0000000013   
        13  16  2.696681E-04  9.000004E+00  2.067896E-06 -2.526177E-05 -7.916242E-15 -7.078678E-15 _shell_0000000013   
        13  17  2.783248E-04  9.000017E+00 -2.866956E-06  3.555466E-06 -6.677320E-15 -3.338674E-14 _shell_0000000013   
        13  18  3.282422E-04  9.000094E+00  6.504641E-05  2.576472E-05  2.043635E-16  1.538169E-14 _shell_0000000013   
        13  19  3.412100E-04  9.000010E+00  1.093758E-05 -7.095839E-06 -9.319343E-06 -5.777447E-06 _shell_0000000013   
        13  20  3.486768E-04  8.999991E+00 -2.324756E-05 -1.539807E-05  7.483606E-07 -2.394794E-06 _shell_0000000013   
        13  21  3.659942E-04  9.000005E+00 -5.787446E-05 -3.030829E-05  1.081606E-05  1.669286E-05 _shell_0000000013   
        13  22  2.813647E-04  9.000008E+00  1.526455E-06 -2.562025E-05 -6.656564E-06  2.121721E-06 _shell_0000000013   
        13  23  2.655176E-04  8.999953E+00 -4.519757E-05 -2.636458E-05 -1.807458E-05 -2.777694E-05 _shell_0000000013   
        13  24  2.752263E-04  8.999946E+00 -5.571837E-05 -3.371689E-05 -2.949259E-05 -4.197060E-05 _shell_0000000013   
        13  25  2.222965E-04  9.000006E+00 -1.174195E-05 -4.910301E-05 -1.552351E-06  1.002089E-05 _shell_0000000013   
        13  26  1.880185E-04  8.999918E+00 -5.961150E-05 -4.228943E-05 -3.445608E-05 -5.315908E-05 _shell_0000000013   
        13  27  1.950012E-04  8.999895E+00 -3.463284E-05 -4.208384E-05 -6.735981E-05 -1.006341E-04 _shell_0000000013   
        14   1  4.877130E-04  9.000009E+00  3.591700E-05  6.800994E-05 -7.899670E-05 -1.766041E-05 _shell_0000000014   
        14   2  1.123305E-04  8.999930E+00  7.157793E-05  5.380493E-05  1.008321E-05 -1.236248E-05 _shell_0000000014   
        14   3 -8.789372E-05  9.000347E+00  1.953690E-04  2.191104E-04  9.916313E-05 -3.898143E-05 _shell_0000000014   
        14   4  3.648416E-04  8.999929E+00  1.200994E-05  3.863446E-05 -3.074261E-05  1.386661E-05 _shell_0000000014   
        14   5  2.834236E-04  8.999976E+00  1.239368E-04  1.455641E-04 -8.213522E-05 -1.073709E-04 _shell_0000000014   
        14   6  4.090807E-04  9.000550E+00  3.984666E-04  4.320041E-04 -1.335278E-04 -2.605253E-04 _shell_0000000014   
        14   7  3.189238E-04  8.999885E+00  3.102242E-05  1.207971E-05  2.398662E-05  4.539363E-05 _shell_0000000014   
        14   8  5.185199E-04  9.000045E+00  1.889979E-04  2.401439E-04 -1.678785E-04 -2.023793E-04 _shell_0000000014   
        14   9  9.571080E-04  9.000764E+00  5.840490E-04  6.477186E-04 -3.597437E-04 -4.820692E-04 _shell_0000000014   
        14  10  6.031347E-04  9.000137E+00  1.090054E-04  8.115023E-05  2.184288E-14  2.957126E-14 _shell_0000000014   
        14  11  7.083078E-05  8.999692E+00 -1.225513E-05 -2.644034E-05 -1.088732E-14  2.270267E-14 _shell_0000000014   
        14  12 -2.863149E-04  8.999743E+00 -4.538554E-05  4.547952E-05 -3.865814E-14  6.844983E-14 _shell_0000000014   
        14  13  3.168386E-04  8.999987E+00  1.505916E-05 -5.324008E-07  1.700174E-14  3.750018E-14 _shell_0000000014   
        14  14  7.849914E-05  8.999668E+00 -2.993541E-05  1.301164E-05 -4.287888E-15  4.081931E-14 _shell_0000000014   
        14  15  4.723473E-05  8.999876E+00  8.767287E-05  2.060661E-04 -2.045418E-14  7.128742E-14 _shell_0000000014   
        14  16  1.074960E-04  8.999874E+00 -3.596753E-05 -7.939430E-05  2.164154E-15  3.507008E-14 _shell_0000000014   
        14  17  1.501707E-04  8.999667E+00 -3.491347E-05  5.528435E-05  3.623120E-15  3.075103E-14 _shell_0000000014   
        14  18  4.318373E-04  9.000020E+00  2.032162E-04  3.694734E-04 -1.653911E-14  6.234045E-14 _shell_0000000014   
        14  19  4.877130E-04  9.000009E+00  3.591700E-05  6.800994E-05  7.899670E-05  1.766041E-05 _shell_0000000014   
        14  20  1.123305E-04  8.999930E+00  7.157793E-05  5.380493E-05 -1.008321E-05  1.236248E-05 _shell_0000000014   
        14  21 -8.789372E-05  9.000347E+00  1.953690E-04  2.191104E-04 -9.916313E-05  3.898143E-05 _shell_0000000014   
        14  22  3.648416E-04  8.999929E+00  1.200994E-05  3.863446E-05  3.074261E-05 -1.386661E-05 _shell_0000000014   
        14  23  2.834236E-04  8.999976E+00  1.239368E-04  1.455641E-04  8.213522E-05  1.073709E-04 _shell_0000000014   
        14  24  4.090807E-04  9.000550E+00  3.984666E-04  4.320041E-04  1.335278E-04  2.605253E-04 _shell_0000000014   
        14  25  3.189238E-04  8.999885E+00  3.102242E-05  1.207971E-05 -2.398662E-05 -4.539363E-05 _shell_0000000014   
        14  26  5.185199E-04  9.000045E+00  1.889979E-04  2.401439E-04  1.678785E-04  2.023793E-04 _shell_0000000014   
        14  27  9.571080E-04  9.000764E+00  5.840490E-04  6.477186E-04  3.597437E-04  4.820692E-04 _shell_0000000014   
        15   1  5.340612E-05  9.000442E+00  2.748146E-04 -6.167150E-05  8.902214E-05 -3.134601E-05 _shell_0000000015   
        15   2 -2.735661E-06  8.999996E+00  8.403586E-05 -1.099730E-05  5.663847E-05  1.438265E-05 _shell_0000000015   
        15   3  7.760591E-05  8.999968E+00 -6.931137E-05  1.147534E-05  2.425481E-05  1.714970E-05 _shell_0000000015   
        15   4  4.746689E-05  9.000434E+00  2.569564E-04 -9.189606E-05 -1.139523E-04 -2.477583E-04 _shell_0000000015   
        15   5 -6.582757E-05  8.999960E+00  2.555789E-05 -4.840023E-05 -2.617799E-05 -5.785931E-05 _shell_0000000015   
        15   6  3.229295E-07  8.999947E+00 -6.816545E-05 -3.310595E-05  6.159632E-05  8.907803E-05 _shell_0000000015   
        15   7 -1.138208E-04  9.000347E+00  1.347379E-04 -1.218034E-04 -3.248564E-04 -4.641705E-04 _shell_0000000015   
        15   8 -2.684087E-04  8.999861E+00 -1.002756E-04 -8.548596E-05 -1.169241E-04 -1.301013E-04 _shell_0000000015   
        15   9 -2.005900E-04  8.999879E+00 -9.737010E-05 -7.737005E-05  9.100821E-05  1.610064E-04 _shell_0000000015   
        15  10 -3.036286E-04  8.999783E+00 -3.007408E-05 -2.143466E-04 -4.021322E-14  7.009103E-14 _shell_0000000015   
        15  11 -1.797372E-04  8.999757E+00 -4.081955E-05 -5.744337E-05 -1.965484E-14  1.679807E-14 _shell_0000000015   
        15  12  8.063764E-05  9.000149E+00 -1.413355E-05  7.125836E-05 -1.776884E-14 -1.195192E-14 _shell_0000000015   
        15  13 -1.236669E-04  8.999854E+00  3.173961E-05 -1.845601E-04 -2.069328E-14  6.026980E-14 _shell_0000000015   
        15  14 -5.692817E-05  8.999800E+00 -1.962571E-05 -3.483522E-05 -4.072274E-15  8.250385E-15 _shell_0000000015   
        15  15  1.892556E-04  9.000207E+00  6.668419E-05  8.668815E-05 -1.380703E-14  1.018793E-14 _shell_0000000015   
        15  16 -9.905372E-05  8.999847E+00 -1.080716E-05 -1.544564E-04 -1.433540E-14  4.402858E-14 _shell_0000000015   
        15  17 -7.360837E-05  8.999782E+00 -6.578739E-05 -1.190987E-05  3.054206E-15 -1.526530E-14 _shell_0000000015   
        15  18  1.742435E-04  9.000220E+00  1.171513E-04  1.024351E-04 -1.509210E-14  1.695971E-14 _shell_0000000015   
        15  19  5.340612E-05  9.000442E+00  2.748146E-04 -6.167150E-05 -8.902214E-05  3.134601E-05 _shell_0000000015   
        15  20 -2.735661E-06  8.999996E+00  8.403586E-05 -1.099730E-05 -5.663847E-05 -1.438265E-05 _shell_0000000015   
        15  21  7.760591E-05  8.999968E+00 -6.931137E-05  1.147534E-05 -2.425481E-05 -1.714970E-05 _shell_0000000015   
        15  22  4.746689E-05  9.000434E+00  2.569564E-04 -9.189606E-05  1.139523E-04  2.477583E-04 _shell_0000000015   
        15  23 -6.582757E-05  8.999960E+00  2.555789E-05 -4.840023E-05  2.617799E-05  5.785931E-05 _shell_0000000015   
        15  24  3.229294E-07  8.999947E+00 -6.816545E-05 -3.310595E-05 -6.159632E-05 -8.907803E-05 _shell_0000000015   
        15  25 -1.138208E-04  9.000347E+00  1.347379E-04 -1.218034E-04  3.248564E-04  4.641705E-04 _shell_0000000015   
        15  26 -2.684087E-04  8.999861E+00 -1.002756E-04 -8.548596E-05  1.169241E-04  1.301013E-04 _shell_0000000015   
        15  27 -2.005900E-04  8.999879E+00 -9.737010E-05 -7.737005E-05 -9.100821E-05 -1.610064E-04 _shell_0000000015   
       101   1 -8.983945E-05  9.000159E+00  4.806750E-05 -3.513273E-05 -7.800509E-05  1.748626E-04 _shell_0000000101   
       101   2 -3.298258E-04  8.999672E+00 -1.916347E-04  2.936985E-04  1.298025E-04 -1.470905E-04 _shell_0000000101   
       101   3 -7.608660E-04  8.998708E+00 -5.906085E-04  6.986952E-04  3.376100E-04 -4.680152E-04 _shell_0000000101   
       101   4 -4.579761E-06  9.000048E+00  7.084694E-05  3.525684E-05 -1.468503E-05  8.217161E-05 _shell_0000000101   
       101   5 -7.272711E-05  8.999730E+00 -9.541424E-05  2.122620E-04  7.253586E-05 -9.139612E-05 _shell_0000000101   
       101   6 -3.329567E-04  8.998934E+00 -4.233466E-04  4.654328E-04  1.597568E-04 -2.639355E-04 _shell_0000000101   
       101   7 -6.143873E-05  8.999874E+00  2.933573E-05  1.240543E-04  3.986914E-05 -1.051943E-05 _shell_0000000101   
       101   8  5.978472E-05  8.999744E+00 -2.257693E-05  1.492334E-04  6.503375E-06 -3.570179E-05 _shell_0000000101   
       101   9 -1.210241E-05  8.999133E+00 -2.385603E-04  2.505781E-04 -2.686239E-05 -5.985577E-05 _shell_0000000101   
       101  10  9.227546E-05  9.000035E+00  6.538801E-05 -1.239752E-04 -8.155579E-15  7.369669E-14 _shell_0000000101   
       101  11  3.894592E-05  8.999984E+00  1.234263E-05  1.140303E-04 -1.541702E-14 -4.349024E-15 _shell_0000000101   
       101  12 -2.054375E-04  8.999455E+00 -1.999744E-04  4.282015E-04 -1.273828E-14 -2.169131E-15 _shell_0000000101   
       101  13  1.859029E-05  8.999855E+00  2.004822E-05  8.633284E-06 -8.144583E-15  7.579016E-14 _shell_0000000101   
       101  14  1.370998E-04  8.999973E+00  4.044385E-05  9.481282E-05 -7.387738E-15 -4.123178E-15 _shell_0000000101   
       101  15  6.352701E-05  8.999613E+00 -1.008317E-04  2.571579E-04 -8.438037E-15 -1.187273E-15 _shell_0000000101   
       101  16 -1.972135E-04  8.999614E+00 -8.958222E-05  1.596496E-04  5.157351E-15  9.813033E-14 _shell_0000000101   
       101  17  1.106667E-04  8.999919E+00  4.516193E-05  9.400316E-05  1.336944E-15  5.831664E-15 _shell_0000000101   
       101  18  2.254364E-04  8.999744E+00  1.583538E-05  1.045222E-04 -2.258463E-15 -1.932894E-15 _shell_0000000101   
       101  19 -8.983945E-05  9.000159E+00  4.806750E-05 -3.513273E-05  7.800509E-05 -1.748626E-04 _shell_0000000101   
       101  20 -3.298258E-04  8.999672E+00 -1.916347E-04  2.936985E-04 -1.298025E-04  1.470905E-04 _shell_0000000101   
       101  21 -7.608660E-04  8.998708E+00 -5.906085E-04  6.986952E-04 -3.376100E-04  4.680152E-04 _shell_0000000101   
       101  22 -4.579761E-06  9.000048E+00  7.084694E-05  3.525684E-05  1.468503E-05 -8.217161E-05 _shell_0000000101   
       101  23 -7.272711E-05  8.999730E+00 -9.541424E-05  2.122620E-04 -7.253586E-05  9.139612E-05 _shell_0000000101   
       101  24 -3.329567E-04  8.998934E+00 -4.233466E-04  4.654328E-04 -1.597568E-04  2.639355E-04 _shell_0000000101   
       101  25 -6.143873E-05  8.999874E+00  2.933573E-05  1.240543E-04 -3.986914E-05  1.051943E-05 _shell_0000000101   
       101  26  5.978472E-05  8.999744E+00 -2.257693E-05  1.492334E-04 -6.503375E-06  3.570179E-05 _shell_0000000101   
       101  27 -1.210241E-05  8.999133E+00 -2.385603E-04  2.505781E-04  2.686239E-05  5.985577E-05 _shell_0000000101   
       102   1  3.165069E-04  8.999111E+00 -1.446227E-04 -8.692366E-05  3.659466E-04 -4.787913E-04 _shell_0000000102   
       102   2  4.127885E-04  8.999773E+00  5.540663E-05 -7.528463E-05  1.619549E-04 -2.017054E-04 _shell_0000000102   
       102   3  3.451482E-04  9.000039E+00  1.056737E-04 -3.758428E-05 -4.203688E-05  6.586391E-05 _shell_0000000102   
       102   4  9.246040E-05  8.999075E+00 -2.592410E-04 -3.293013E-05  1.717089E-04 -2.658884E-04 _shell_0000000102   
       102   5  2.247314E-04  8.999722E+00 -3.714974E-05 -4.440831E-05  6.651680E-05 -1.068669E-04 _shell_0000000102   
       102   6  2.025972E-04  8.999982E+00  5.738464E-05 -2.982517E-05 -3.867534E-05  4.263798E-05 _shell_0000000102   
       102   7 -3.768045E-05  8.999098E+00 -2.716238E-04  1.482397E-05 -1.248656E-05 -5.298546E-05 _shell_0000000102   
       102   8  1.104956E-04  8.999710E+00 -7.433395E-05 -1.977141E-05 -1.887910E-05 -1.202842E-05 _shell_0000000102   
       102   9  1.137831E-04  8.999945E+00  1.760429E-05 -2.830548E-05 -2.527163E-05  1.941206E-05 _shell_0000000102   
       102  10  3.318657E-04  8.999643E+00  1.974756E-05 -1.198879E-04 -2.519707E-15  1.179812E-14 _shell_0000000102   
       102  11  2.727299E-04  8.999943E+00  6.435954E-05 -3.058049E-05  1.524030E-14 -7.857407E-16 _shell_0000000102   
       102  12  4.967237E-05  8.999846E+00 -4.079074E-05  8.478827E-05  5.209464E-15 -2.863888E-14 _shell_0000000102   
       102  13  2.437389E-04  8.999666E+00 -3.661948E-05 -1.177002E-04  1.884873E-15  7.350577E-15 _shell_0000000102   
       102  14  2.205926E-04  8.999950E+00  3.005447E-05 -5.150995E-05  6.515638E-15  2.443364E-15 _shell_0000000102   
       102  15  4.304102E-05  8.999848E+00 -3.082850E-05  4.074160E-05  3.926268E-15  1.183005E-14 _shell_0000000102   
       102  16  2.495178E-04  8.999747E+00  9.249065E-06 -1.217519E-04 -4.199407E-16  2.635508E-15 _shell_0000000102   
       102  17  2.422766E-04  8.999997E+00  5.112157E-05 -7.867884E-05  1.014996E-14 -1.300257E-14 _shell_0000000102   
       102  18  9.014664E-05  8.999869E+00 -1.235754E-05 -9.544498E-06  8.415440E-15  3.453945E-14 _shell_0000000102   
       102  19  3.165069E-04  8.999111E+00 -1.446227E-04 -8.692366E-05 -3.659466E-04  4.787913E-04 _shell_0000000102   
       102  20  4.127885E-04  8.999773E+00  5.540663E-05 -7.528463E-05 -1.619549E-04  2.017054E-04 _shell_0000000102   
       102  21  3.451482E-04  9.000039E+00  1.056737E-04 -3.758428E-05  4.203688E-05 -6.586391E-05 _shell_0000000102   
       102  22  9.246040E-05  8.999075E+00 -2.592410E-04 -3.293013E-05 -1.717089E-04  2.658884E-04 _shell_0000000102   
       102  23  2.247314E-04  8.999722E+00 -3.714974E-05 -4.440831E-05 -6.651680E-05  1.068669E-04 _shell_0000000102   
       102  24  2.025972E-04  8.999982E+00  5.738464E-05 -2.982517E-05  3.867534E-05 -4.263798E-05 _shell_0000000102   
       102  25 -3.768045E-05  8.999098E+00 -2.716238E-04  1.482397E-05  1.248656E-05  5.298546E-05 _shell_0000000102   
       102  26  1.104956E-04  8.999710E+00 -7.433395E-05 -1.977141E-05  1.887910E-05  1.202842E-05 _shell_0000000102   
       102  27  1.137831E-04  8.999945E+00  1.760429E-05 -2.830548E-05  2.527163E-05 -1.941206E-05 _shell_0000000102   
       103   1  2.264255E-04  9.000018E+00  4.323549E-05 -4.952253E-06 -6.674585E-05  1.191759E-04 _shell_0000000103   
       103   2  2.052911E-04  9.000012E+00 -9.874182E-06  2.431301E-05 -3.249641E-05  4.679686E-05 _shell_0000000103   
       103   3  1.883296E-04  8.999982E+00 -2.464122E-05  5.465002E-05  1.753034E-06 -1.653292E-05 _shell_0000000103   
       103   4  2.004452E-04  9.000009E+00  5.969665E-05  6.666358E-07 -3.033507E-05  6.964737E-05 _shell_0000000103   
       103   5  1.855112E-04  9.000013E+00  1.248274E-05  2.338746E-05 -1.294679E-05  2.494419E-05 _shell_0000000103   
       103   6  1.657008E-04  8.999984E+00 -1.750343E-05  4.718003E-05  4.441482E-06 -1.070976E-05 _shell_0000000103   
       103   7  1.638537E-04  8.999988E+00  4.937458E-05  7.535323E-06  2.992326E-06  2.011887E-05 _shell_0000000103   
       103   8  1.612868E-04  9.000009E+00  2.244561E-05  2.371171E-05  3.519430E-06  3.091520E-06 _shell_0000000103   
       103   9  1.447942E-04  8.999987E+00 -8.370498E-06  4.095985E-05  4.046534E-06 -4.886592E-06 _shell_0000000103   
       103  10  2.193434E-04  8.999884E+00  8.560619E-07 -3.814300E-06 -1.275205E-14 -4.053060E-14 _shell_0000000103   
       103  11  2.362820E-04  8.999967E+00 -1.418065E-05  9.411624E-06 -2.727677E-14 -3.672372E-14 _shell_0000000103   
       103  12  2.573934E-04  9.000025E+00  9.125262E-06  2.370929E-05 -6.370598E-15 -1.835641E-14 _shell_0000000103   
       103  13  1.652943E-04  8.999862E+00  5.287718E-06  1.449558E-05 -5.290992E-15  1.063382E-14 _shell_0000000103   
       103  14  1.884332E-04  8.999955E+00 -3.853238E-06  2.117706E-05 -1.384573E-14 -1.873246E-14 _shell_0000000103   
       103  15  2.066957E-04  9.000015E+00  4.233551E-06  2.893029E-05 -3.347669E-15 -1.136800E-14 _shell_0000000103   
       103  16  1.006339E-04  8.999830E+00 -1.706386E-05  3.405525E-05  7.038161E-15  3.032699E-14 _shell_0000000103   
       103  17  1.361400E-04  8.999939E+00 -5.919873E-06  3.419230E-05 -9.223054E-16 -2.277617E-14 _shell_0000000103   
       103  18  1.577204E-04  9.000006E+00  1.336975E-06  3.540109E-05 -2.424436E-15 -2.849087E-15 _shell_0000000103   
       103  19  2.264255E-04  9.000018E+00  4.323549E-05 -4.952253E-06  6.674585E-05 -1.191759E-04 _shell_0000000103   
       103  20  2.052911E-04  9.000012E+00 -9.874182E-06  2.431301E-05  3.249641E-05 -4.679686E-05 _shell_0000000103   
       103  21  1.883296E-04  8.999982E+00 -2.464122E-05  5.465002E-05 -1.753034E-06  1.653292E-05 _shell_0000000103   
       103  22  2.004452E-04  9.000009E+00  5.969665E-05  6.666358E-07  3.033507E-05 -6.964737E-05 _shell_0000000103   
       103  23  1.855112E-04  9.000013E+00  1.248274E-05  2.338746E-05  1.294679E-05 -2.494419E-05 _shell_0000000103   
       103  24  1.657008E-04  8.999984E+00 -1.750343E-05  4.718003E-05 -4.441482E-06  1.070976E-05 _shell_0000000103   
       103  25  1.638537E-04  8.999988E+00  4.937458E-05  7.535323E-06 -2.992326E-06 -2.011887E-05 _shell_0000000103   
       103  26  1.612868E-04  9.000009E+00  2.244561E-05  2.371171E-05 -3.519430E-06 -3.091520E-06 _shell_0000000103   
       103  27  1.447942E-04  8.999987E+00 -8.370498E-06  4.095985E-05 -4.046534E-06  4.886592E-06 _shell_0000000103   
       104   1  2.040854E-04  8.999983E+00 -8.727721E-06  3.655399E-05  1.649167E-05 -2.821256E-05 _shell_0000000104   
       104   2  2.000684E-04  9.000000E+00  1.888419E-06  3.260640E-05  7.694045E-06 -1.162892E-05 _shell_0000000104   
       104   3  1.917474E-04  9.000009E+00  5.940871E-06  3.114125E-05 -1.103578E-06  3.765105E-06 _shell_0000000104   
       104   4  1.722981E-04  8.999981E+00 -1.367715E-05  3.996287E-05  8.396660E-06 -1.627076E-05 _shell_0000000104   
       104   5  1.717250E-04  8.999998E+00 -3.047315E-06  3.692333E-05  3.424018E-06 -6.336310E-06 _shell_0000000104   
       104   6  1.680374E-04  9.000009E+00  3.794609E-06  3.636625E-05 -1.548624E-06  2.408522E-06 _shell_0000000104   
       104   7  1.457139E-04  8.999981E+00 -1.241216E-05  4.330852E-05  9.245905E-07 -4.328959E-06 _shell_0000000104   
       104   8  1.473387E-04  8.999998E+00 -4.675678E-06  4.117705E-05 -2.230700E-07 -1.043700E-06 _shell_0000000104   
       104   9  1.470388E-04  9.000010E+00  2.048671E-06  4.152802E-05 -1.370731E-06  1.051939E-06 _shell_0000000104   
       104  10  2.072142E-04  9.000015E+00  1.634861E-06  3.617907E-05 -1.351942E-15 -2.566680E-14 _shell_0000000104   
       104  11  1.943153E-04  9.000011E+00  3.369048E-06  3.554632E-05 -8.720979E-15 -2.491404E-14 _shell_0000000104   
       104  12  1.771123E-04  8.999999E+00 -1.460453E-06  3.739602E-05 -8.885788E-16  3.616113E-14 _shell_0000000104   
       104  13  1.812279E-04  9.000015E+00 -8.284333E-07  3.662730E-05  1.332579E-16 -1.219885E-14 _shell_0000000104   
       104  14  1.717728E-04  9.000011E+00  9.194461E-07  3.690261E-05 -8.605688E-15 -1.951903E-14 _shell_0000000104   
       104  15  1.592033E-04  9.000001E+00 -1.120583E-06  3.966036E-05  5.464496E-16  5.134503E-14 _shell_0000000104   
       104  16  1.604447E-04  9.000018E+00  2.922691E-06  3.701230E-05 -6.262623E-15 -1.436764E-15 _shell_0000000104   
       104  17  1.531876E-04  9.000014E+00  1.777216E-06  3.819567E-05 -5.843438E-15 -2.155441E-14 _shell_0000000104   
       104  18  1.440057E-04  9.000005E+00 -3.803884E-07  4.186148E-05  6.356585E-15  5.169388E-14 _shell_0000000104   
       104  19  2.040854E-04  8.999983E+00 -8.727721E-06  3.655399E-05 -1.649167E-05  2.821256E-05 _shell_0000000104   
       104  20  2.000684E-04  9.000000E+00  1.888419E-06  3.260640E-05 -7.694045E-06  1.162892E-05 _shell_0000000104   
       104  21  1.917474E-04  9.000009E+00  5.940871E-06  3.114125E-05  1.103578E-06 -3.765104E-06 _shell_0000000104   
       104  22  1.722981E-04  8.999981E+00 -1.367715E-05  3.996287E-05 -8.396660E-06  1.627076E-05 _shell_0000000104   
       104  23  1.717250E-04  8.999998E+00 -3.047315E-06  3.692333E-05 -3.424018E-06  6.336310E-06 _shell_0000000104   
       104  24  1.680374E-04  9.000009E+00  3.794609E-06  3.636625E-05  1.548624E-06 -2.408522E-06 _shell_0000000104   
       104  25  1.457139E-04  8.999981E+00 -1.241216E-05  4.330852E-05 -9.245905E-07  4.328959E-06 _shell_0000000104   
       104  26  1.473387E-04  8.999998E+00 -4.675678E-06  4.117705E-05  2.230700E-07  1.043700E-06 _shell_0000000104   
       104  27  1.470388E-04  9.000010E+00  2.048671E-06  4.152802E-05  1.370731E-06 -1.051939E-06 _shell_0000000104   
       105   1  1.772615E-04  9.000006E+00  2.010329E-06  3.017107E-05 -3.271633E-06  6.851699E-06 _shell_0000000105   
       105   2  1.633336E-04  9.000004E+00 -1.484144E-07  2.502747E-05 -1.585214E-06  2.921956E-06 _shell_0000000105   
       105   3  1.495909E-04  9.000002E+00 -1.367376E-06  2.274454E-05  1.012049E-07 -8.694004E-07 _shell_0000000105   
       105   4  1.613520E-04  9.000009E+00  3.369469E-06  3.481635E-05 -1.745648E-06  4.017418E-06 _shell_0000000105   
       105   5  1.510003E-04  9.000007E+00  8.647235E-07  2.929648E-05 -7.302857E-07  1.658770E-06 _shell_0000000105   
       105   6  1.406954E-04  9.000004E+00 -1.023144E-06  2.663728E-05  2.850763E-07 -5.614908E-07 _shell_0000000105   
       105   7  1.443571E-04  9.000011E+00  3.027110E-06  3.925036E-05 -4.144343E-07  1.183138E-06 _shell_0000000105   
       105   8  1.379711E-04  9.000009E+00  1.085300E-06  3.335422E-05 -7.012943E-08  3.955846E-07 _shell_0000000105   
       105   9  1.314936E-04  9.000007E+00 -5.625357E-07  3.031874E-05  2.741754E-07 -2.535812E-07 _shell_0000000105   
       105  10  1.759275E-04  8.999998E+00 -8.006508E-07  2.919770E-05 -1.414870E-16  4.498716E-14 _shell_0000000105   
       105  11  1.642054E-04  9.000001E+00 -7.536743E-07  2.349892E-05 -6.258116E-15 -1.702060E-15 _shell_0000000105   
       105  12  1.526684E-04  9.000004E+00  2.330838E-07  2.066080E-05 -5.988608E-15  1.831951E-14 _shell_0000000105   
       105  13  1.590465E-04  9.000001E+00  1.420983E-07  3.457823E-05  5.777527E-15  5.463487E-14 _shell_0000000105   
       105  14  1.509005E-04  9.000004E+00 -1.569274E-07  2.850317E-05  1.682826E-15 -1.628906E-15 _shell_0000000105   
       105  15  1.428013E-04  9.000006E+00  1.609251E-07  2.528878E-05 -1.173797E-15  1.042112E-14 _shell_0000000105   
       105  16  1.410800E-04  9.000002E+00 -6.166515E-07  3.974748E-05  1.151690E-14  5.700037E-14 _shell_0000000105   
       105  17  1.368997E-04  9.000006E+00 -3.527420E-07  3.329614E-05  8.728424E-15 -8.115898E-15 _shell_0000000105   
       105  18  1.326279E-04  9.000008E+00  2.051420E-07  2.970548E-05  3.929319E-15  2.028645E-14 _shell_0000000105   
       105  19  1.772615E-04  9.000006E+00  2.010329E-06  3.017107E-05  3.271633E-06 -6.851699E-06 _shell_0000000105   
       105  20  1.633336E-04  9.000004E+00 -1.484144E-07  2.502747E-05  1.585214E-06 -2.921956E-06 _shell_0000000105   
       105  21  1.495909E-04  9.000002E+00 -1.367376E-06  2.274454E-05 -1.012049E-07  8.694005E-07 _shell_0000000105   
       105  22  1.613520E-04  9.000009E+00  3.369469E-06  3.481635E-05  1.745648E-06 -4.017418E-06 _shell_0000000105   
       105  23  1.510003E-04  9.000007E+00  8.647235E-07  2.929648E-05  7.302857E-07 -1.658770E-06 _shell_0000000105   
       105  24  1.406954E-04  9.000004E+00 -1.023144E-06  2.663728E-05 -2.850763E-07  5.614909E-07 _shell_0000000105   
       105  25  1.443571E-04  9.000011E+00  3.027110E-06  3.925036E-05  4.144343E-07 -1.183138E-06 _shell_0000000105   
       105  26  1.379711E-04  9.000009E+00  1.085300E-06  3.335422E-05  7.012945E-08 -3.955846E-07 _shell_0000000105   
       105  27  1.314936E-04  9.000007E+00 -5.625356E-07  3.031874E-05 -2.741754E-07  2.535813E-07 _shell_0000000105   
       106   1  1.451310E-04  9.000002E+00 -5.204524E-07  1.930600E-05  8.490643E-07 -1.650992E-06 _shell_0000000106   
       106   2  1.374588E-04  9.000003E+00  1.304008E-07  1.521386E-05  3.574787E-07 -6.746589E-07 _shell_0000000106   
       106   3  1.293836E-04  9.000002E+00  1.223413E-07  1.244527E-05 -1.341070E-07  2.400752E-07 _shell_0000000106   
       106   4  1.369093E-04  9.000004E+00 -7.736511E-07  2.325155E-05  5.127043E-07 -9.968898E-07 _shell_0000000106   
       106   5  1.309947E-04  9.000005E+00 -2.679531E-08  1.853345E-05  1.789471E-07 -4.019644E-07 _shell_0000000106   
       106   6  1.247386E-04  9.000005E+00  2.048787E-07  1.513890E-05 -1.548101E-07  1.313622E-07 _shell_0000000106   
       106   7  1.279368E-04  9.000006E+00 -9.268420E-07  2.709539E-05  2.140580E-07 -3.427878E-07 _shell_0000000106   
       106   8  1.237043E-04  9.000006E+00 -2.599808E-07  2.175133E-05  3.812919E-08 -1.292699E-07 _shell_0000000106   
       106   9  1.191919E-04  9.000006E+00  3.542934E-08  1.773081E-05 -1.377996E-07  2.264911E-08 _shell_0000000106   
       106  10  1.453449E-04  9.000004E+00  1.340435E-07  1.923232E-05 -1.485908E-15  1.933184E-14 _shell_0000000106   
       106  11  1.371587E-04  9.000003E+00  2.709573E-07  1.528165E-05  4.799816E-15  1.453948E-15 _shell_0000000106   
       106  12  1.285696E-04  9.000002E+00 -2.510413E-07  1.265453E-05  8.942507E-15  2.979822E-14 _shell_0000000106   
       106  13  1.373707E-04  9.000006E+00 -1.305207E-08  2.300656E-05  1.094418E-15  1.060830E-14 _shell_0000000106   
       106  14  1.309422E-04  9.000005E+00  2.198644E-07  1.842993E-05  8.348161E-15 -5.678179E-15 _shell_0000000106   
       106  15  1.241721E-04  9.000004E+00 -6.240090E-08  1.517684E-05  1.302826E-14  4.198125E-14 _shell_0000000106   
       106  16  1.286458E-04  9.000008E+00 -6.013981E-08  2.667909E-05  2.128237E-15  2.218243E-14 _shell_0000000106   
       106  17  1.238993E-04  9.000007E+00  9.278202E-08  2.147649E-05  5.835984E-15 -5.468920E-15 _shell_0000000106   
       106  18  1.188730E-04  9.000006E+00 -1.257471E-07  1.759745E-05  9.395403E-15  3.250327E-14 _shell_0000000106   
       106  19  1.451310E-04  9.000002E+00 -5.204524E-07  1.930600E-05 -8.490644E-07  1.650992E-06 _shell_0000000106   
       106  20  1.374588E-04  9.000003E+00  1.304008E-07  1.521386E-05 -3.574787E-07  6.746589E-07 _shell_0000000106   
       106  21  1.293836E-04  9.000002E+00  1.223414E-07  1.244527E-05  1.341070E-07 -2.400751E-07 _shell_0000000106   
       106  22  1.369093E-04  9.000004E+00 -7.736511E-07  2.325155E-05 -5.127043E-07  9.968899E-07 _shell_0000000106   
       106  23  1.309947E-04  9.000005E+00 -2.679533E-08  1.853345E-05 -1.789471E-07  4.019644E-07 _shell_0000000106   
       106  24  1.247386E-04  9.000005E+00  2.048787E-07  1.513890E-05  1.548101E-07 -1.313621E-07 _shell_0000000106   
       106  25  1.279368E-04  9.000006E+00 -9.268419E-07  2.709539E-05 -2.140580E-07  3.427878E-07 _shell_0000000106   
       106  26  1.237043E-04  9.000006E+00 -2.599808E-07  2.175133E-05 -3.812918E-08  1.292699E-07 _shell_0000000106   
       106  27  1.191919E-04  9.000006E+00  3.542930E-08  1.773081E-05  1.377996E-07 -2.264905E-08 _shell_0000000106   
       107   1  1.257125E-04  9.000002E+00  1.603774E-08  1.052459E-05 -4.175141E-08  4.354520E-07 _shell_0000000107   
       107   2  1.217126E-04  9.000002E+00  6.955204E-08  7.213802E-06 -6.096465E-08  2.257431E-07 _shell_0000000107   
       107   3  1.174912E-04  9.000002E+00 -1.807569E-07  4.557949E-06 -8.017787E-08  6.510648E-09 _shell_0000000107   
       107   4  1.218272E-04  9.000004E+00  1.759220E-07  1.274973E-05 -1.505990E-08  2.411135E-07 _shell_0000000107   
       107   5  1.186373E-04  9.000004E+00  1.992756E-07  8.828632E-06 -3.478627E-08  1.185608E-07 _shell_0000000107   
       107   6  1.152353E-04  9.000004E+00 -5.897212E-08  5.562463E-06 -5.451263E-08 -1.351543E-08 _shell_0000000107   
       107   7  1.170210E-04  9.000006E+00  4.351303E-08  1.490911E-05  2.811587E-09  4.677497E-08 _shell_0000000107   
       107   8  1.146587E-04  9.000006E+00  7.786595E-08  1.037769E-05 -1.742790E-08  1.137855E-08 _shell_0000000107   
       107   9  1.120938E-04  9.000005E+00 -1.471604E-07  6.501210E-06 -3.766741E-08 -3.354147E-08 _shell_0000000107   
       107  10  1.254886E-04  9.000002E+00 -1.702548E-07  1.035671E-05  3.013010E-15  2.218243E-14 _shell_0000000107   
       107  11  1.216067E-04  9.000002E+00  1.155305E-09  7.049112E-06 -9.662799E-15 -2.837545E-14 _shell_0000000107   
       107  12  1.175032E-04  9.000002E+00 -1.312578E-07  4.396446E-06 -3.483917E-15 -1.260433E-14 _shell_0000000107   
       107  13  1.216090E-04  9.000004E+00 -7.980715E-09  1.262115E-05  1.045461E-14  4.158304E-14 _shell_0000000107   
       107  14  1.185370E-04  9.000004E+00  1.332687E-07  8.703240E-06  4.491577E-15 -9.773461E-15 _shell_0000000107   
       107  15  1.152529E-04  9.000004E+00 -7.083155E-09  5.440259E-06  9.462409E-16 -5.870417E-15 _shell_0000000107   
       107  16  1.168083E-04  9.000006E+00 -1.379998E-07  1.481983E-05  1.327609E-14  4.193296E-14 _shell_0000000107   
       107  17  1.145639E-04  9.000006E+00  1.424902E-08  1.029160E-05  1.412721E-14  4.609958E-15 _shell_0000000107   
       107  18  1.121169E-04  9.000005E+00 -9.288150E-08  6.418304E-06  1.190542E-14  2.491866E-14 _shell_0000000107   
       107  19  1.257125E-04  9.000002E+00  1.603781E-08  1.052459E-05  4.175141E-08 -4.354520E-07 _shell_0000000107   
       107  20  1.217126E-04  9.000002E+00  6.955212E-08  7.213802E-06  6.096463E-08 -2.257432E-07 _shell_0000000107   
       107  21  1.174912E-04  9.000002E+00 -1.807568E-07  4.557949E-06  8.017786E-08 -6.510674E-09 _shell_0000000107   
       107  22  1.218272E-04  9.000004E+00  1.759220E-07  1.274973E-05  1.505992E-08 -2.411134E-07 _shell_0000000107   
       107  23  1.186373E-04  9.000004E+00  1.992756E-07  8.828632E-06  3.478627E-08 -1.185609E-07 _shell_0000000107   
       107  24  1.152353E-04  9.000004E+00 -5.897205E-08  5.562463E-06  5.451264E-08  1.351543E-08 _shell_0000000107   
       107  25  1.170210E-04  9.000006E+00  4.351300E-08  1.490911E-05 -2.811561E-09 -4.677486E-08 _shell_0000000107   
       107  26  1.146587E-04  9.000006E+00  7.786606E-08  1.037769E-05  1.742794E-08 -1.137852E-08 _shell_0000000107   
       107  27  1.120938E-04  9.000005E+00 -1.471602E-07  6.501210E-06  3.766743E-08  3.354154E-08 _shell_0000000107   
       108   1  1.164885E-04  9.000002E+00 -1.135404E-07  2.742871E-06  1.301218E-07 -5.625035E-08 _shell_0000000108   
       108   2  1.166050E-04  9.000002E+00  6.022484E-08 -3.606507E-14  1.655952E-14 -5.201534E-08 _shell_0000000108   
       108   3  1.164885E-04  9.000002E+00 -1.135405E-07 -2.742871E-06 -1.301218E-07 -5.625036E-08 _shell_0000000108   
       108   4  1.143810E-04  9.000004E+00 -3.465353E-08  3.360397E-06  1.069390E-07 -5.091445E-08 _shell_0000000108   
       108   5  1.144933E-04  9.000004E+00  1.292301E-07 -1.710355E-14 -4.167718E-15 -4.667946E-08 _shell_0000000108   
       108   6  1.143810E-04  9.000004E+00 -3.465345E-08 -3.360397E-06 -1.069390E-07 -5.091448E-08 _shell_0000000108   
       108   7  1.113728E-04  9.000005E+00 -1.623764E-07  3.977923E-06  8.375621E-08 -4.557853E-08 _shell_0000000108   
       108   8  1.114809E-04  9.000005E+00 -8.374396E-09 -4.403146E-15 -6.032056E-15 -4.134356E-08 _shell_0000000108   
       108   9  1.113728E-04  9.000005E+00 -1.623762E-07 -3.977923E-06 -8.375620E-08 -4.557861E-08 _shell_0000000108   
       108  10  1.163733E-04  9.000002E+00 -9.893448E-08  2.722308E-06 -1.332965E-16 -4.186877E-16 _shell_0000000108   
       108  11  1.164898E-04  9.000002E+00  7.483078E-08 -4.224984E-14  2.880572E-15 -6.385180E-15 _shell_0000000108   
       108  12  1.163733E-04  9.000002E+00 -9.893456E-08 -2.722308E-06  8.999119E-15  2.524237E-14 _shell_0000000108   
       108  13  1.143018E-04  9.000004E+00 -4.624967E-09  3.339834E-06 -1.934331E-15 -7.431616E-16 _shell_0000000108   
       108  14  1.144141E-04  9.000004E+00  1.592586E-07 -2.463726E-14 -4.072274E-15 -3.206916E-15 _shell_0000000108   
       108  15  1.143018E-04  9.000004E+00 -4.624993E-09 -3.339834E-06  3.499611E-15 -2.844109E-15 _shell_0000000108   
       108  16  1.113296E-04  9.000005E+00 -1.169252E-07  3.957360E-06  5.666026E-15  3.114143E-14 _shell_0000000108   
       108  17  1.114377E-04  9.000006E+00  3.707663E-08 -2.005595E-14 -2.047998E-15 -2.312907E-15 _shell_0000000108   
       108  18  1.113296E-04  9.000005E+00 -1.169252E-07 -3.957360E-06  2.443419E-15 -2.949710E-14 _shell_0000000108   
       108  19  1.164885E-04  9.000002E+00 -1.135405E-07  2.742871E-06 -1.301218E-07  5.625033E-08 _shell_0000000108   
       108  20  1.166050E-04  9.000002E+00  6.022474E-08 -5.441576E-14 -1.201321E-14  5.201534E-08 _shell_0000000108   
       108  21  1.164885E-04  9.000002E+00 -1.135406E-07 -2.742871E-06  1.301218E-07  5.625040E-08 _shell_0000000108   
       108  22  1.143810E-04  9.000004E+00 -3.465348E-08  3.360397E-06 -1.069390E-07  5.091443E-08 _shell_0000000108   
       108  23  1.144933E-04  9.000004E+00  1.292301E-07 -2.781872E-14 -1.140237E-14  4.667943E-08 _shell_0000000108   
       108  24  1.143810E-04  9.000004E+00 -3.465354E-08 -3.360397E-06  1.069390E-07  5.091448E-08 _shell_0000000108   
       108  25  1.113728E-04  9.000005E+00 -1.623762E-07  3.977923E-06 -8.375620E-08  4.557860E-08 _shell_0000000108   
       108  26  1.114809E-04  9.000005E+00 -8.374379E-09 -3.909383E-14 -9.849812E-15  4.134355E-08 _shell_0000000108   
       108  27  1.113728E-04  9.000005E+00 -1.623763E-07 -3.977924E-06  8.375620E-08  4.557856E-08 _shell_0000000108   
       109   1  1.174912E-04  9.000002E+00 -1.807569E-07 -4.557949E-06  8.017785E-08  6.510626E-09 _shell_0000000109   
       109   2  1.217126E-04  9.000002E+00  6.955206E-08 -7.213802E-06  6.096465E-08  2.257431E-07 _shell_0000000109   
       109   3  1.257125E-04  9.000002E+00  1.603779E-08 -1.052459E-05  4.175143E-08  4.354521E-07 _shell_0000000109   
       109   4  1.152353E-04  9.000004E+00 -5.897201E-08 -5.562463E-06  5.451263E-08 -1.351547E-08 _shell_0000000109   
       109   5  1.186373E-04  9.000004E+00  1.992756E-07 -8.828632E-06  3.478628E-08  1.185609E-07 _shell_0000000109   
       109   6  1.218272E-04  9.000004E+00  1.759220E-07 -1.274973E-05  1.505992E-08  2.411136E-07 _shell_0000000109   
       109   7  1.120938E-04  9.000005E+00 -1.471602E-07 -6.501210E-06  3.766743E-08 -3.354158E-08 _shell_0000000109   
       109   8  1.146587E-04  9.000006E+00  7.786604E-08 -1.037769E-05  1.742794E-08  1.137856E-08 _shell_0000000109   
       109   9  1.170210E-04  9.000006E+00  4.351302E-08 -1.490911E-05 -2.811565E-09  4.677499E-08 _shell_0000000109   
       109  10  1.175032E-04  9.000002E+00 -1.312579E-07 -4.396446E-06  9.232935E-15  1.322343E-14 _shell_0000000109   
       109  11  1.216067E-04  9.000002E+00  1.155259E-09 -7.049112E-06  9.550429E-15 -8.421315E-15 _shell_0000000109   
       109  12  1.254886E-04  9.000002E+00 -1.702548E-07 -1.035671E-05  4.138493E-15  7.772379E-14 _shell_0000000109   
       109  13  1.152529E-04  9.000004E+00 -7.083165E-09 -5.440259E-06  6.172691E-15 -1.051662E-14 _shell_0000000109   
       109  14  1.185370E-04  9.000004E+00  1.332687E-07 -8.703240E-06  8.297258E-15 -1.578006E-15 _shell_0000000109   
       109  15  1.216090E-04  9.000004E+00 -7.980704E-09 -1.262115E-05  6.661662E-15  6.251589E-14 _shell_0000000109   
       109  16  1.121169E-04  9.000005E+00 -9.288148E-08 -6.418304E-06  6.541090E-15 -3.258965E-14 _shell_0000000109   
       109  17  1.145639E-04  9.000006E+00  1.424900E-08 -1.029160E-05  8.303298E-15  3.591893E-15 _shell_0000000109   
       109  18  1.168083E-04  9.000006E+00 -1.379998E-07 -1.481983E-05  5.110186E-15  4.729071E-14 _shell_0000000109   
       109  19  1.174912E-04  9.000002E+00 -1.807569E-07 -4.557949E-06 -8.017782E-08 -6.510591E-09 _shell_0000000109   
       109  20  1.217126E-04  9.000002E+00  6.955204E-08 -7.213802E-06 -6.096464E-08 -2.257432E-07 _shell_0000000109   
       109  21  1.257125E-04  9.000002E+00  1.603778E-08 -1.052459E-05 -4.175144E-08 -4.354519E-07 _shell_0000000109   
       109  22  1.152353E-04  9.000004E+00 -5.897210E-08 -5.562463E-06 -5.451261E-08  1.351545E-08 _shell_0000000109   
       109  23  1.186373E-04  9.000004E+00  1.992756E-07 -8.828632E-06 -3.478627E-08 -1.185609E-07 _shell_0000000109   
       109  24  1.218272E-04  9.000004E+00  1.759219E-07 -1.274973E-05 -1.505991E-08 -2.411134E-07 _shell_0000000109   
       109  25  1.120938E-04  9.000005E+00 -1.471603E-07 -6.501210E-06 -3.766742E-08  3.354150E-08 _shell_0000000109   
       109  26  1.146587E-04  9.000006E+00  7.786603E-08 -1.037769E-05 -1.742793E-08 -1.137854E-08 _shell_0000000109   
       109  27  1.170210E-04  9.000006E+00  4.351295E-08 -1.490911E-05  2.811584E-09 -4.677488E-08 _shell_0000000109   
       110   1  1.293836E-04  9.000002E+00  1.223414E-07 -1.244527E-05  1.341070E-07  2.400753E-07 _shell_0000000110   
       110   2  1.374588E-04  9.000003E+00  1.304008E-07 -1.521386E-05 -3.574787E-07 -6.746589E-07 _shell_0000000110   
       110   3  1.451310E-04  9.000002E+00 -5.204524E-07 -1.930600E-05 -8.490643E-07 -1.650992E-06 _shell_0000000110   
       110   4  1.247386E-04  9.000005E+00  2.048787E-07 -1.513890E-05  1.548101E-07  1.313622E-07 _shell_0000000110   
       110   5  1.309947E-04  9.000005E+00 -2.679530E-08 -1.853345E-05 -1.789471E-07 -4.019644E-07 _shell_0000000110   
       110   6  1.369093E-04  9.000004E+00 -7.736511E-07 -2.325155E-05 -5.127043E-07 -9.968899E-07 _shell_0000000110   
       110   7  1.191919E-04  9.000006E+00  3.542940E-08 -1.773081E-05  1.377996E-07  2.264915E-08 _shell_0000000110   
       110   8  1.237043E-04  9.000006E+00 -2.599808E-07 -2.175133E-05 -3.812917E-08 -1.292699E-07 _shell_0000000110   
       110   9  1.279368E-04  9.000006E+00 -9.268420E-07 -2.709539E-05 -2.140580E-07 -3.427878E-07 _shell_0000000110   
       110  10  1.285696E-04  9.000002E+00 -2.510414E-07 -1.265453E-05  1.075335E-14  9.487252E-14 _shell_0000000110   
       110  11  1.371587E-04  9.000003E+00  2.709573E-07 -1.528165E-05  2.231379E-14  1.428161E-14 _shell_0000000110   
       110  12  1.453449E-04  9.000004E+00  1.340434E-07 -1.923232E-05  1.562264E-15 -6.175158E-14 _shell_0000000110   
       110  13  1.241721E-04  9.000004E+00 -6.240092E-08 -1.517684E-05  1.362874E-14  7.418668E-14 _shell_0000000110   
       110  14  1.309422E-04  9.000005E+00  2.198644E-07 -1.842993E-05  2.178666E-14  1.542374E-14 _shell_0000000110   
       110  15  1.373707E-04  9.000006E+00 -1.305207E-08 -2.300656E-05  5.894433E-15 -2.823757E-14 _shell_0000000110   
       110  16  1.188730E-04  9.000006E+00 -1.257471E-07 -1.759745E-05  1.282766E-14  4.254380E-14 _shell_0000000110   
       110  17  1.238993E-04  9.000007E+00  9.278206E-08 -2.147649E-05  2.658366E-14  5.933451E-15 _shell_0000000110   
       110  18  1.286458E-04  9.000008E+00 -6.013983E-08 -2.667908E-05  1.314289E-14  6.440718E-15 _shell_0000000110   
       110  19  1.293836E-04  9.000002E+00  1.223413E-07 -1.244527E-05 -1.341070E-07 -2.400751E-07 _shell_0000000110   
       110  20  1.374588E-04  9.000003E+00  1.304008E-07 -1.521386E-05  3.574787E-07  6.746589E-07 _shell_0000000110   
       110  21  1.451310E-04  9.000002E+00 -5.204523E-07 -1.930600E-05  8.490643E-07  1.650992E-06 _shell_0000000110   
       110  22  1.247386E-04  9.000005E+00  2.048786E-07 -1.513890E-05 -1.548101E-07 -1.313621E-07 _shell_0000000110   
       110  23  1.309947E-04  9.000005E+00 -2.679533E-08 -1.853345E-05  1.789471E-07  4.019644E-07 _shell_0000000110   
       110  24  1.369093E-04  9.000004E+00 -7.736510E-07 -2.325155E-05  5.127043E-07  9.968898E-07 _shell_0000000110   
       110  25  1.191919E-04  9.000006E+00  3.542927E-08 -1.773081E-05 -1.377996E-07 -2.264908E-08 _shell_0000000110   
       110  26  1.237043E-04  9.000006E+00 -2.599809E-07 -2.175133E-05  3.812922E-08  1.292699E-07 _shell_0000000110   
       110  27  1.279368E-04  9.000006E+00 -9.268420E-07 -2.709539E-05  2.140580E-07  3.427878E-07 _shell_0000000110   
       111   1  1.495909E-04  9.000002E+00 -1.367376E-06 -2.274454E-05 -1.012049E-07 -8.694005E-07 _shell_0000000111   
       111   2  1.633336E-04  9.000004E+00 -1.484145E-07 -2.502747E-05  1.585214E-06  2.921956E-06 _shell_0000000111   
       111   3  1.772615E-04  9.000006E+00  2.010329E-06 -3.017107E-05  3.271633E-06  6.851699E-06 _shell_0000000111   
       111   4  1.406954E-04  9.000004E+00 -1.023144E-06 -2.663728E-05 -2.850763E-07 -5.614909E-07 _shell_0000000111   
       111   5  1.510003E-04  9.000007E+00  8.647236E-07 -2.929648E-05  7.302856E-07  1.658770E-06 _shell_0000000111   
       111   6  1.613520E-04  9.000009E+00  3.369469E-06 -3.481635E-05  1.745648E-06  4.017418E-06 _shell_0000000111   
       111   7  1.314936E-04  9.000007E+00 -5.625357E-07 -3.031874E-05 -2.741754E-07 -2.535813E-07 _shell_0000000111   
       111   8  1.379711E-04  9.000009E+00  1.085300E-06 -3.335422E-05  7.012942E-08  3.955846E-07 _shell_0000000111   
       111   9  1.443571E-04  9.000011E+00  3.027110E-06 -3.925036E-05  4.144343E-07  1.183138E-06 _shell_0000000111   
       111  10  1.526684E-04  9.000004E+00  2.330837E-07 -2.066080E-05 -9.589275E-15 -5.132212E-14 _shell_0000000111   
       111  11  1.642054E-04  9.000001E+00 -7.536743E-07 -2.349892E-05 -1.592373E-14 -9.439398E-15 _shell_0000000111   
       111  12  1.759275E-04  8.999998E+00 -8.006508E-07 -2.919770E-05 -1.151991E-14 -6.447491E-14 _shell_0000000111   
       111  13  1.428013E-04  9.000006E+00  1.609251E-07 -2.528878E-05 -6.605386E-15 -2.194445E-14 _shell_0000000111   
       111  14  1.509005E-04  9.000004E+00 -1.569274E-07 -2.850317E-05 -1.425296E-14 -9.722554E-15 _shell_0000000111   
       111  15  1.590465E-04  9.000001E+00  1.420983E-07 -3.457823E-05 -6.837462E-15 -4.458003E-14 _shell_0000000111   
       111  16  1.326279E-04  9.000008E+00  2.051420E-07 -2.970548E-05  8.238487E-17  5.689716E-15 _shell_0000000111   
       111  17  1.368997E-04  9.000006E+00 -3.527421E-07 -3.329614E-05 -6.000567E-15 -1.575142E-14 _shell_0000000111   
       111  18  1.410800E-04  9.000002E+00 -6.166515E-07 -3.974748E-05 -2.163304E-15 -4.731331E-14 _shell_0000000111   
       111  19  1.495909E-04  9.000002E+00 -1.367376E-06 -2.274454E-05  1.012049E-07  8.694004E-07 _shell_0000000111   
       111  20  1.633336E-04  9.000004E+00 -1.484144E-07 -2.502747E-05 -1.585214E-06 -2.921956E-06 _shell_0000000111   
       111  21  1.772615E-04  9.000006E+00  2.010329E-06 -3.017107E-05 -3.271633E-06 -6.851699E-06 _shell_0000000111   
       111  22  1.406954E-04  9.000004E+00 -1.023144E-06 -2.663728E-05  2.850763E-07  5.614909E-07 _shell_0000000111   
       111  23  1.510003E-04  9.000007E+00  8.647235E-07 -2.929648E-05 -7.302857E-07 -1.658770E-06 _shell_0000000111   
       111  24  1.613520E-04  9.000009E+00  3.369469E-06 -3.481635E-05 -1.745648E-06 -4.017418E-06 _shell_0000000111   
       111  25  1.314936E-04  9.000007E+00 -5.625356E-07 -3.031874E-05  2.741754E-07  2.535813E-07 _shell_0000000111   
       111  26  1.379711E-04  9.000009E+00  1.085300E-06 -3.335422E-05 -7.012944E-08 -3.955846E-07 _shell_0000000111   
       111  27  1.443571E-04  9.000011E+00  3.027110E-06 -3.925036E-05 -4.144343E-07 -1.183138E-06 _shell_0000000111   
       112   1  1.917474E-04  9.000009E+00  5.940871E-06 -3.114125E-05  1.103578E-06  3.765105E-06 _shell_0000000112   
       112   2  2.000684E-04  9.000000E+00  1.888419E-06 -3.260640E-05 -7.694045E-06 -1.162892E-05 _shell_0000000112   
       112   3  2.040854E-04  8.999983E+00 -8.727721E-06 -3.655399E-05 -1.649167E-05 -2.821256E-05 _shell_0000000112   
       112   4  1.680374E-04  9.000009E+00  3.794609E-06 -3.636625E-05  1.548624E-06  2.408522E-06 _shell_0000000112   
       112   5  1.717250E-04  8.999998E+00 -3.047315E-06 -3.692333E-05 -3.424018E-06 -6.336310E-06 _shell_0000000112   
       112   6  1.722981E-04  8.999981E+00 -1.367715E-05 -3.996287E-05 -8.396660E-06 -1.627076E-05 _shell_0000000112   
       112   7  1.470388E-04  9.000010E+00  2.048671E-06 -4.152802E-05  1.370731E-06  1.051939E-06 _shell_0000000112   
       112   8  1.473387E-04  8.999998E+00 -4.675678E-06 -4.117705E-05  2.230700E-07 -1.043700E-06 _shell_0000000112   
       112   9  1.457139E-04  8.999981E+00 -1.241216E-05 -4.330852E-05 -9.245905E-07 -4.328959E-06 _shell_0000000112   
       112  10  1.771123E-04  8.999999E+00 -1.460453E-06 -3.739602E-05 -7.744037E-15 -7.127628E-14 _shell_0000000112   
       112  11  1.943153E-04  9.000011E+00  3.369048E-06 -3.554632E-05 -1.258215E-14 -6.486940E-15 _shell_0000000112   
       112  12  2.072142E-04  9.000015E+00  1.634861E-06 -3.617907E-05 -9.700812E-15  1.366179E-14 _shell_0000000112   
       112  13  1.592033E-04  9.000001E+00 -1.120583E-06 -3.966036E-05 -3.640956E-15 -5.615166E-14 _shell_0000000112   
       112  14  1.717728E-04  9.000011E+00  9.194461E-07 -3.690261E-05 -9.773457E-15 -7.380996E-15 _shell_0000000112   
       112  15  1.812279E-04  9.000015E+00 -8.284333E-07 -3.662730E-05 -1.309119E-14  7.977811E-15 _shell_0000000112   
       112  16  1.440057E-04  9.000005E+00 -3.803883E-07 -4.186148E-05 -3.372355E-15 -3.991974E-14 _shell_0000000112   
       112  17  1.531876E-04  9.000014E+00  1.777216E-06 -3.819567E-05 -9.216522E-15 -3.785597E-16 _shell_0000000112   
       112  18  1.604447E-04  9.000018E+00  2.922691E-06 -3.701230E-05 -1.463097E-14  1.262546E-14 _shell_0000000112   
       112  19  1.917474E-04  9.000009E+00  5.940871E-06 -3.114125E-05 -1.103578E-06 -3.765105E-06 _shell_0000000112   
       112  20  2.000684E-04  9.000000E+00  1.888419E-06 -3.260640E-05  7.694045E-06  1.162892E-05 _shell_0000000112   
       112  21  2.040854E-04  8.999983E+00 -8.727721E-06 -3.655399E-05  1.649167E-05  2.821256E-05 _shell_0000000112   
       112  22  1.680374E-04  9.000009E+00  3.794609E-06 -3.636625E-05 -1.548624E-06 -2.408522E-06 _shell_0000000112   
       112  23  1.717250E-04  8.999998E+00 -3.047315E-06 -3.692333E-05  3.424018E-06  6.336310E-06 _shell_0000000112   
       112  24  1.722981E-04  8.999981E+00 -1.367715E-05 -3.996287E-05  8.396660E-06  1.627076E-05 _shell_0000000112   
       112  25  1.470388E-04  9.000010E+00  2.048671E-06 -4.152802E-05 -1.370731E-06 -1.051939E-06 _shell_0000000112   
       112  26  1.473387E-04  8.999998E+00 -4.675678E-06 -4.117705E-05 -2.230700E-07  1.043700E-06 _shell_0000000112   
       112  27  1.457139E-04  8.999981E+00 -1.241216E-05 -4.330852E-05  9.245905E-07  4.328959E-06 _shell_0000000112   
       113   1  1.883296E-04  8.999982E+00 -2.464122E-05 -5.465002E-05 -1.753034E-06 -1.653292E-05 _shell_0000000113   
       113   2  2.052911E-04  9.000012E+00 -9.874182E-06 -2.431301E-05  3.249641E-05  4.679686E-05 _shell_0000000113   
       113   3  2.264255E-04  9.000018E+00  4.323549E-05  4.952253E-06  6.674585E-05  1.191759E-04 _shell_0000000113   
       113   4  1.657008E-04  8.999984E+00 -1.750343E-05 -4.718003E-05 -4.441482E-06 -1.070976E-05 _shell_0000000113   
       113   5  1.855112E-04  9.000013E+00  1.248274E-05 -2.338746E-05  1.294679E-05  2.494419E-05 _shell_0000000113   
       113   6  2.004452E-04  9.000009E+00  5.969665E-05 -6.666358E-07  3.033507E-05  6.964737E-05 _shell_0000000113   
       113   7  1.447942E-04  8.999987E+00 -8.370499E-06 -4.095985E-05 -4.046534E-06 -4.886592E-06 _shell_0000000113   
       113   8  1.612868E-04  9.000009E+00  2.244561E-05 -2.371171E-05 -3.519430E-06  3.091520E-06 _shell_0000000113   
       113   9  1.638537E-04  8.999988E+00  4.937458E-05 -7.535323E-06 -2.992326E-06  2.011887E-05 _shell_0000000113   
       113  10  2.573934E-04  9.000025E+00  9.125262E-06 -2.370929E-05 -8.940290E-15 -8.563354E-15 _shell_0000000113   
       113  11  2.362820E-04  8.999967E+00 -1.418065E-05 -9.411624E-06 -1.125263E-14 -3.713078E-14 _shell_0000000113   
       113  12  2.193434E-04  8.999884E+00  8.560619E-07  3.814299E-06 -9.267424E-15  7.426226E-15 _shell_0000000113   
       113  13  2.066957E-04  9.000015E+00  4.233551E-06 -2.893029E-05 -8.641542E-15 -5.655550E-15 _shell_0000000113   
       113  14  1.884332E-04  8.999955E+00 -3.853238E-06 -2.117706E-05 -5.892781E-15 -2.607256E-14 _shell_0000000113   
       113  15  1.652943E-04  8.999862E+00  5.287718E-06 -1.449558E-05 -4.876103E-15 -1.798765E-15 _shell_0000000113   
       113  16  1.577204E-04  9.000006E+00  1.336975E-06 -3.540109E-05 -1.387187E-14  2.635330E-15 _shell_0000000113   
       113  17  1.361400E-04  8.999939E+00 -5.919873E-06 -3.419230E-05 -1.095325E-14 -1.748198E-14 _shell_0000000113   
       113  18  1.006339E-04  8.999830E+00 -1.706386E-05 -3.405525E-05 -7.125725E-15 -2.735917E-14 _shell_0000000113   
       113  19  1.883296E-04  8.999982E+00 -2.464122E-05 -5.465002E-05  1.753034E-06  1.653292E-05 _shell_0000000113   
       113  20  2.052911E-04  9.000012E+00 -9.874182E-06 -2.431301E-05 -3.249641E-05 -4.679686E-05 _shell_0000000113   
       113  21  2.264255E-04  9.000018E+00  4.323549E-05  4.952253E-06 -6.674585E-05 -1.191759E-04 _shell_0000000113   
       113  22  1.657008E-04  8.999984E+00 -1.750343E-05 -4.718003E-05  4.441482E-06  1.070976E-05 _shell_0000000113   
       113  23  1.855112E-04  9.000013E+00  1.248274E-05 -2.338746E-05 -1.294679E-05 -2.494419E-05 _shell_0000000113   
       113  24  2.004452E-04  9.000009E+00  5.969665E-05 -6.666358E-07 -3.033507E-05 -6.964737E-05 _shell_0000000113   
       113  25  1.447942E-04  8.999987E+00 -8.370498E-06 -4.095985E-05  4.046534E-06  4.886592E-06 _shell_0000000113   
       113  26  1.612868E-04  9.000009E+00  2.244561E-05 -2.371171E-05  3.519430E-06 -3.091520E-06 _shell_0000000113   
       113  27  1.638537E-04  8.999988E+00  4.937458E-05 -7.535323E-06  2.992326E-06 -2.011887E-05 _shell_0000000113   
       114   1  3.451482E-04  9.000039E+00  1.056737E-04  3.758428E-05  4.203688E-05  6.586391E-05 _shell_0000000114   
       114   2  4.127885E-04  8.999773E+00  5.540663E-05  7.528463E-05 -1.619549E-04 -2.017054E-04 _shell_0000000114   
       114   3  3.165069E-04  8.999111E+00 -1.446227E-04  8.692366E-05 -3.659466E-04 -4.787913E-04 _shell_0000000114   
       114   4  2.025972E-04  8.999982E+00  5.738464E-05  2.982517E-05  3.867534E-05  4.263798E-05 _shell_0000000114   
       114   5  2.247314E-04  8.999722E+00 -3.714974E-05  4.440831E-05 -6.651680E-05 -1.068669E-04 _shell_0000000114   
       114   6  9.246040E-05  8.999075E+00 -2.592410E-04  3.293013E-05 -1.717089E-04 -2.658884E-04 _shell_0000000114   
       114   7  1.137831E-04  8.999945E+00  1.760429E-05  2.830548E-05  2.527163E-05  1.941206E-05 _shell_0000000114   
       114   8  1.104956E-04  8.999710E+00 -7.433395E-05  1.977141E-05  1.887910E-05 -1.202842E-05 _shell_0000000114   
       114   9 -3.768045E-05  8.999098E+00 -2.716238E-04 -1.482397E-05  1.248656E-05 -5.298546E-05 _shell_0000000114   
       114  10  4.967237E-05  8.999846E+00 -4.079074E-05 -8.478827E-05  1.451876E-16  2.869735E-14 _shell_0000000114   
       114  11  2.727299E-04  8.999943E+00  6.435954E-05  3.058049E-05  1.533112E-15  1.713198E-14 _shell_0000000114   
       114  12  3.318657E-04  8.999643E+00  1.974756E-05  1.198879E-04 -1.019043E-14  4.242215E-14 _shell_0000000114   
       114  13  4.304102E-05  8.999848E+00 -3.082850E-05 -4.074160E-05 -6.515595E-15  1.066900E-14 _shell_0000000114   
       114  14  2.205926E-04  8.999950E+00  3.005447E-05  5.150995E-05  1.413321E-15  6.516073E-15 _shell_0000000114   
       114  15  2.437389E-04  8.999666E+00 -3.661948E-05  1.177002E-04  3.623161E-15  2.423622E-14 _shell_0000000114   
       114  16  9.014664E-05  8.999869E+00 -1.235754E-05  9.544498E-06 -6.705800E-15 -1.853992E-14 _shell_0000000114   
       114  17  2.422766E-04  8.999997E+00  5.112157E-05  7.867884E-05  5.659301E-15  3.337943E-16 _shell_0000000114   
       114  18  2.495178E-04  8.999747E+00  9.249065E-06  1.217519E-04  1.200497E-14  1.959952E-14 _shell_0000000114   
       114  19  3.451482E-04  9.000039E+00  1.056737E-04  3.758428E-05 -4.203688E-05 -6.586391E-05 _shell_0000000114   
       114  20  4.127885E-04  8.999773E+00  5.540663E-05  7.528463E-05  1.619549E-04  2.017054E-04 _shell_0000000114   
       114  21  3.165069E-04  8.999111E+00 -1.446227E-04  8.692366E-05  3.659466E-04  4.787913E-04 _shell_0000000114   
       114  22  2.025972E-04  8.999982E+00  5.738464E-05  2.982517E-05 -3.867534E-05 -4.263798E-05 _shell_0000000114   
       114  23  2.247314E-04  8.999722E+00 -3.714974E-05  4.440831E-05  6.651680E-05  1.068669E-04 _shell_0000000114   
       114  24  9.246040E-05  8.999075E+00 -2.592410E-04  3.293013E-05  1.717089E-04  2.658884E-04 _shell_0000000114   
       114  25  1.137831E-04  8.999945E+00  1.760429E-05  2.830548E-05 -2.527163E-05 -1.941206E-05 _shell_0000000114   
       114  26  1.104956E-04  8.999710E+00 -7.433395E-05  1.977141E-05 -1.887910E-05  1.202842E-05 _shell_0000000114   
       114  27 -3.768045E-05  8.999098E+00 -2.716238E-04 -1.482397E-05 -1.248656E-05  5.298546E-05 _shell_0000000114   
       115   1 -7.608660E-04  8.998708E+00 -5.906085E-04 -6.986952E-04 -3.376100E-04 -4.680152E-04 _shell_0000000115   
       115   2 -3.298258E-04  8.999672E+00 -1.916347E-04 -2.936985E-04 -1.298025E-04 -1.470905E-04 _shell_0000000115   
       115   3 -8.983945E-05  9.000159E+00  4.806750E-05  3.513273E-05  7.800509E-05  1.748626E-04 _shell_0000000115   
       115   4 -3.329567E-04  8.998934E+00 -4.233466E-04 -4.654328E-04 -1.597568E-04 -2.639355E-04 _shell_0000000115   
       115   5 -7.272711E-05  8.999730E+00 -9.541424E-05 -2.122620E-04 -7.253586E-05 -9.139612E-05 _shell_0000000115   
       115   6 -4.579761E-06  9.000048E+00  7.084694E-05 -3.525684E-05  1.468503E-05  8.217161E-05 _shell_0000000115   
       115   7 -1.210241E-05  8.999133E+00 -2.385603E-04 -2.505781E-04  2.686239E-05 -5.985577E-05 _shell_0000000115   
       115   8  5.978472E-05  8.999744E+00 -2.257693E-05 -1.492334E-04 -6.503375E-06 -3.570179E-05 _shell_0000000115   
       115   9 -6.143873E-05  8.999874E+00  2.933573E-05 -1.240543E-04 -3.986914E-05 -1.051943E-05 _shell_0000000115   
       115  10 -2.054375E-04  8.999455E+00 -1.999744E-04 -4.282015E-04 -9.836524E-15  2.951251E-14 _shell_0000000115   
       115  11  3.894592E-05  8.999984E+00  1.234263E-05 -1.140303E-04 -1.078560E-16 -1.432610E-14 _shell_0000000115   
       115  12  9.227546E-05  9.000035E+00  6.538801E-05  1.239752E-04 -2.018682E-14  2.710034E-14 _shell_0000000115   
       115  13  6.352701E-05  8.999613E+00 -1.008317E-04 -2.571579E-04  3.714795E-15  1.552046E-14 _shell_0000000115   
       115  14  1.370998E-04  8.999973E+00  4.044385E-05 -9.481282E-05 -1.058791E-14 -4.113396E-15 _shell_0000000115   
       115  15  1.859029E-05  8.999855E+00  2.004822E-05 -8.633284E-06 -3.269209E-14  3.221273E-14 _shell_0000000115   
       115  16  2.254364E-04  8.999744E+00  1.583538E-05 -1.045222E-04  4.715232E-15  1.648127E-14 _shell_0000000115   
       115  17  1.106667E-04  8.999919E+00  4.516193E-05 -9.400316E-05 -1.588184E-14 -4.858058E-15 _shell_0000000115   
       115  18 -1.972135E-04  8.999614E+00 -8.958222E-05 -1.596496E-04 -3.453721E-14  3.106538E-15 _shell_0000000115   
       115  19 -7.608660E-04  8.998708E+00 -5.906085E-04 -6.986952E-04  3.376100E-04  4.680152E-04 _shell_0000000115   
       115  20 -3.298258E-04  8.999672E+00 -1.916347E-04 -2.936985E-04  1.298025E-04  1.470905E-04 _shell_0000000115   
       115  21 -8.983945E-05  9.000159E+00  4.806750E-05  3.513273E-05 -7.800509E-05 -1.748626E-04 _shell_0000000115   
       115  22 -3.329567E-04  8.998934E+00 -4.233466E-04 -4.654328E-04  1.597568E-04  2.639355E-04 _shell_0000000115   
       115  23 -7.272711E-05  8.999730E+00 -9.541424E-05 -2.122620E-04  7.253586E-05  9.139612E-05 _shell_0000000115   
       115  24 -4.579761E-06  9.000048E+00  7.084694E-05 -3.525684E-05 -1.468503E-05 -8.217161E-05 _shell_0000000115   
       115  25 -1.210241E-05  8.999133E+00 -2.385603E-04 -2.505781E-04 -2.686239E-05  5.985577E-05 _shell_0000000115   
       115  26  5.978472E-05  8.999744E+00 -2.257693E-05 -1.492334E-04  6.503375E-06  3.570179E-05 _shell_0000000115   
       115  27 -6.143873E-05  8.999874E+00  2.933573E-05 -1.240543E-04  3.986914E-05  1.051943E-05 _shell_0000000115   
       201   1 -6.563753E-05  8.999840E+00  2.006782E-05  9.264771E-05  4.425739E-05 -1.000606E-05 _shell_0000000201   
       201   2  5.875946E-05  8.999677E+00 -2.047561E-05  1.364056E-04 -1.502535E-05 -7.354880E-06 _shell_0000000201   
       201   3  2.178636E-04  8.999571E+00 -2.531493E-06  1.293453E-04 -7.430809E-05  7.823571E-06 _shell_0000000201   
       201   4 -1.595083E-05  8.999764E+00  2.902552E-06  7.089984E-05  1.523551E-05 -4.838211E-06 _shell_0000000201   
       201   5  7.489627E-05  8.999668E+00  4.123651E-06  1.055104E-04 -1.252405E-05 -2.015547E-06 _shell_0000000201   
       201   6  1.879233E-04  8.999616E+00  3.460200E-05  8.930281E-05 -4.028361E-05  1.333439E-05 _shell_0000000201   
       201   7  1.557636E-05  8.999685E+00 -7.397294E-06  6.148856E-05 -6.359950E-06  3.296374E-07 _shell_0000000201   
       201   8  5.802071E-05  8.999640E+00  9.316697E-07  8.695180E-05 -2.596326E-06  3.323787E-06 _shell_0000000201   
       201   9  1.101177E-04  8.999628E+00  9.287581E-06  6.159687E-05  1.167299E-06  1.884521E-05 _shell_0000000201   
       201  10 -1.172764E-04  8.999845E+00  6.202793E-06  9.078840E-05  7.408149E-15  9.302853E-14 _shell_0000000201   
       201  11 -9.395925E-06  8.999644E+00 -5.085718E-05  1.534910E-04  1.146004E-14  8.619184E-15 _shell_0000000201   
       201  12  1.331917E-04  8.999499E+00 -4.942960E-05  1.653753E-04  6.223241E-15  1.034926E-15 _shell_0000000201   
       201  13 -3.443652E-05  8.999784E+00  3.246023E-06  6.353502E-05  1.130059E-14  5.452261E-14 _shell_0000000201   
       201  14  3.989404E-05  8.999649E+00 -1.204942E-05  1.170903E-04  1.378809E-14  8.958998E-15 _shell_0000000201   
       201  15  1.364045E-04  8.999558E+00  1.912385E-06  1.198273E-04  1.474854E-14 -3.877627E-15 _shell_0000000201   
       201  16  3.024383E-05  8.999719E+00  7.154672E-06  4.861822E-05  1.141843E-14  2.101807E-14 _shell_0000000201   
       201  17  5.617163E-05  8.999636E+00 -1.032905E-06  9.302613E-05  1.355374E-14  9.932610E-15 _shell_0000000201   
       201  18  9.175206E-05  8.999584E+00 -9.193534E-06  8.661586E-05  1.560865E-14 -1.683505E-14 _shell_0000000201   
       201  19 -6.563753E-05  8.999840E+00  2.006782E-05  9.264771E-05 -4.425739E-05  1.000606E-05 _shell_0000000201   
       201  20  5.875946E-05  8.999677E+00 -2.047561E-05  1.364056E-04  1.502535E-05  7.354880E-06 _shell_0000000201   
       201  21  2.178636E-04  8.999571E+00 -2.531493E-06  1.293453E-04  7.430809E-05 -7.823571E-06 _shell_0000000201   
       201  22 -1.595083E-05  8.999764E+00  2.902552E-06  7.089984E-05 -1.523551E-05  4.838211E-06 _shell_0000000201   
       201  23  7.489627E-05  8.999668E+00  4.123651E-06  1.055104E-04  1.252405E-05  2.015547E-06 _shell_0000000201   
       201  24  1.879233E-04  8.999616E+00  3.460200E-05  8.930281E-05  4.028361E-05 -1.333439E-05 _shell_0000000201   
       201  25  1.557636E-05  8.999685E+00 -7.397295E-06  6.148856E-05  6.359950E-06 -3.296374E-07 _shell_0000000201   
       201  26  5.802071E-05  8.999640E+00  9.316697E-07  8.695180E-05  2.596326E-06 -3.323787E-06 _shell_0000000201   
       201  27  1.101177E-04  8.999628E+00  9.287581E-06  6.159687E-05 -1.167299E-06 -1.884521E-05 _shell_0000000201   
       202   1  1.240916E-04  8.999551E+00 -5.316728E-05 -4.140231E-05 -5.338657E-05  8.994249E-06 _shell_0000000202   
       202   2  9.958673E-05  8.999737E+00 -5.235078E-05 -4.205351E-05 -3.419007E-05 -1.486815E-06 _shell_0000000202   
       202   3  7.677810E-05  8.999888E+00 -1.187444E-05 -3.099889E-05 -1.499357E-05  1.604109E-06 _shell_0000000202   
       202   4  1.344541E-04  8.999624E+00  7.195757E-06 -2.486894E-05 -2.014980E-05  1.352646E-05 _shell_0000000202   
       202   5  1.103180E-04  8.999773E+00 -4.924835E-06 -3.128961E-05 -1.181638E-05 -4.890602E-07 _shell_0000000202   
       202   6  7.430624E-05  8.999874E+00 -9.053565E-06 -2.600444E-05 -3.482960E-06 -9.325935E-07 _shell_0000000202   
       202   7  1.275399E-04  8.999677E+00  1.672661E-05 -1.464100E-05  7.007962E-06  1.805867E-05 _shell_0000000202   
       202   8  1.159307E-04  8.999802E+00  2.003764E-05 -2.683113E-05  4.478300E-06  5.086944E-07 _shell_0000000202   
       202   9  7.887379E-05  8.999865E+00 -3.274347E-07 -2.731542E-05  1.948638E-06 -3.469296E-06 _shell_0000000202   
       202  10  1.474213E-04  8.999522E+00 -5.491218E-05 -2.104007E-05  3.626889E-15 -2.873531E-15 _shell_0000000202   
       202  11  1.326180E-04  8.999730E+00 -4.439417E-05 -3.492808E-05  9.946408E-15 -1.377829E-14 _shell_0000000202   
       202  12  1.195109E-04  8.999904E+00  5.783678E-06 -3.711027E-05  9.256289E-15  3.287503E-14 _shell_0000000202   
       202  13  1.346194E-04  8.999585E+00 -4.476750E-06 -1.272869E-06  1.328734E-14 -7.375932E-15 _shell_0000000202   
       202  14  1.201848E-04  8.999757E+00 -6.895831E-06 -2.093034E-05  8.144548E-15 -4.835825E-15 _shell_0000000202   
       202  15  9.387458E-05  8.999881E+00 -1.323050E-06 -2.888198E-05  7.056885E-15  2.016033E-14 _shell_0000000202   
       202  16  1.045408E-04  8.999628E+00 -4.873502E-06  1.218891E-05  1.188591E-14 -2.112994E-14 _shell_0000000202   
       202  17  1.026331E-04  8.999775E+00  8.139042E-06 -1.323802E-05  7.502976E-15 -4.218531E-15 _shell_0000000202   
       202  18  7.527772E-05  8.999861E+00 -2.524524E-06 -2.695912E-05  7.613725E-15  1.449604E-14 _shell_0000000202   
       202  19  1.240916E-04  8.999551E+00 -5.316728E-05 -4.140231E-05  5.338657E-05 -8.994249E-06 _shell_0000000202   
       202  20  9.958673E-05  8.999737E+00 -5.235078E-05 -4.205351E-05  3.419007E-05  1.486815E-06 _shell_0000000202   
       202  21  7.677810E-05  8.999888E+00 -1.187444E-05 -3.099889E-05  1.499357E-05 -1.604109E-06 _shell_0000000202   
       202  22  1.344541E-04  8.999624E+00  7.195757E-06 -2.486894E-05  2.014980E-05 -1.352646E-05 _shell_0000000202   
       202  23  1.103180E-04  8.999773E+00 -4.924835E-06 -3.128961E-05  1.181638E-05  4.890602E-07 _shell_0000000202   
       202  24  7.430624E-05  8.999874E+00 -9.053565E-06 -2.600444E-05  3.482960E-06  9.325935E-07 _shell_0000000202   
       202  25  1.275399E-04  8.999677E+00  1.672661E-05 -1.464100E-05 -7.007962E-06 -1.805867E-05 _shell_0000000202   
       202  26  1.159307E-04  8.999802E+00  2.003764E-05 -2.683113E-05 -4.478300E-06 -5.086944E-07 _shell_0000000202   
       202  27  7.887379E-05  8.999865E+00 -3.274347E-07 -2.731542E-05 -1.948638E-06  3.469296E-06 _shell_0000000202   
       203   1  1.355018E-04  8.999962E+00  2.929115E-05  9.237761E-06  1.007010E-05  4.046059E-06 _shell_0000000203   
       203   2  1.355125E-04  8.999983E+00  1.152636E-05  2.461341E-05  6.261566E-06  1.077462E-06 _shell_0000000203   
       203   3  1.317610E-04  8.999989E+00 -3.768455E-06  3.825971E-05  2.453028E-06 -1.130067E-06 _shell_0000000203   
       203   4  9.625998E-05  8.999923E+00  3.781144E-06  3.400138E-06  3.971264E-06  1.038734E-06 _shell_0000000203   
       203   5  1.041897E-04  8.999963E+00  9.033700E-07  1.982383E-05  2.124500E-06 -1.269506E-08 _shell_0000000203   
       203   6  1.075961E-04  8.999987E+00 -1.280254E-06  3.451819E-05  2.777357E-07 -3.030557E-07 _shell_0000000203   
       203   7  6.800234E-05  8.999891E+00 -8.966345E-06 -9.869946E-08 -7.092833E-07 -1.968591E-06 _shell_0000000203   
       203   8  8.101449E-05  8.999947E+00 -3.575803E-06  1.737305E-05 -5.942739E-07 -1.102852E-06 _shell_0000000203   
       203   9  8.874226E-05  8.999986E+00  7.330641E-07  3.311545E-05 -4.792646E-07  5.239552E-07 _shell_0000000203   
       203  10  1.349448E-04  8.999964E+00  2.983770E-05  7.171717E-06  7.952920E-15  2.644684E-14 _shell_0000000203   
       203  11  1.339211E-04  8.999983E+00  1.103856E-05  2.373329E-05  4.486969E-15 -2.273739E-14 _shell_0000000203   
       203  12  1.291353E-04  8.999986E+00 -5.290594E-06  3.856552E-05 -2.743726E-15  7.448760E-15 _shell_0000000203   
       203  13  9.777831E-05  8.999926E+00  5.217140E-06  9.893119E-07  6.925912E-15  1.708320E-14 _shell_0000000203   
       203  14  1.046737E-04  8.999964E+00  1.305022E-06  1.859894E-05  8.144548E-16 -5.752087E-15 _shell_0000000203   
       203  15  1.070458E-04  8.999985E+00 -1.912946E-06  3.447922E-05 -5.734015E-16  1.930891E-14 _shell_0000000203   
       203  16  7.159605E-05  8.999895E+00 -6.640902E-06 -2.854306E-06  7.992564E-15  4.932587E-15 _shell_0000000203   
       203  17  8.357385E-05  8.999949E+00 -2.284704E-06  1.580337E-05  2.993462E-16 -2.996977E-15 _shell_0000000203   
       203  18  9.026728E-05  8.999986E+00  9.898191E-07  3.273171E-05  3.187687E-15  2.228430E-14 _shell_0000000203   
       203  19  1.355018E-04  8.999962E+00  2.929115E-05  9.237761E-06 -1.007010E-05 -4.046059E-06 _shell_0000000203   
       203  20  1.355125E-04  8.999983E+00  1.152636E-05  2.461341E-05 -6.261566E-06 -1.077462E-06 _shell_0000000203   
       203  21  1.317610E-04  8.999989E+00 -3.768455E-06  3.825971E-05 -2.453028E-06  1.130067E-06 _shell_0000000203   
       203  22  9.625998E-05  8.999923E+00  3.781144E-06  3.400138E-06 -3.971264E-06 -1.038734E-06 _shell_0000000203   
       203  23  1.041897E-04  8.999963E+00  9.033701E-07  1.982383E-05 -2.124500E-06  1.269504E-08 _shell_0000000203   
       203  24  1.075961E-04  8.999987E+00 -1.280254E-06  3.451819E-05 -2.777357E-07  3.030558E-07 _shell_0000000203   
       203  25  6.800234E-05  8.999891E+00 -8.966345E-06 -9.869951E-08  7.092833E-07  1.968591E-06 _shell_0000000203   
       203  26  8.101449E-05  8.999947E+00 -3.575803E-06  1.737305E-05  5.942739E-07  1.102852E-06 _shell_0000000203   
       203  27  8.874226E-05  8.999986E+00  7.330641E-07  3.311545E-05  4.792646E-07 -5.239551E-07 _shell_0000000203   
       204   1  1.371008E-04  8.999994E+00 -4.234509E-06  4.293219E-05 -8.428410E-07 -1.350150E-06 _shell_0000000204   
       204   2  1.364895E-04  9.000003E+00 -2.195305E-06  4.130606E-05 -8.721519E-07 -4.815918E-07 _shell_0000000204   
       204   3  1.353164E-04  9.000009E+00  7.113072E-07  4.206005E-05 -9.014629E-07  2.453883E-07 _shell_0000000204   
       204   4  1.160158E-04  8.999997E+00  1.009507E-06  4.065659E-05 -1.659128E-07 -1.616117E-07 _shell_0000000204   
       204   5  1.169439E-04  9.000004E+00 -2.908758E-07  4.028987E-05 -1.770062E-07  3.216428E-08 _shell_0000000204   
       204   6  1.174519E-04  9.000008E+00 -3.935002E-07  4.230328E-05 -1.880996E-07  8.436209E-08 _shell_0000000204   
       204   7  9.610587E-05  8.999999E+00  2.982133E-06  3.813046E-05  1.640009E-08  1.026927E-06 _shell_0000000204   
       204   8  9.956265E-05  9.000005E+00  6.503691E-07  3.902316E-05  2.352425E-08  5.459203E-07 _shell_0000000204   
       204   9  1.027408E-04  9.000009E+00 -1.532874E-07  4.229598E-05  3.064843E-08 -7.666412E-08 _shell_0000000204   
       204  10  1.368733E-04  8.999992E+00 -4.842027E-06  4.214793E-05 -4.457055E-15  3.642109E-15 _shell_0000000204   
       204  11  1.366157E-04  9.000002E+00 -2.449069E-06  4.058855E-05 -3.223398E-15 -1.785060E-14 _shell_0000000204   
       204  12  1.357963E-04  9.000009E+00  8.112979E-07  4.140930E-05  6.632390E-15  5.051303E-14 _shell_0000000204   
       204  13  1.159051E-04  8.999995E+00  4.520552E-07  3.999024E-05  1.685870E-15  2.028766E-14 _shell_0000000204   
       204  14  1.171869E-04  9.000003E+00 -4.945732E-07  3.969028E-05  2.389442E-15 -7.302210E-15 _shell_0000000204   
       204  15  1.180486E-04  9.000008E+00 -2.434432E-07  4.177044E-05  8.105626E-15  4.353894E-14 _shell_0000000204   
       204  16  9.611196E-05  8.999997E+00  2.474748E-06  3.758203E-05  5.025182E-15  1.552048E-14 _shell_0000000204   
       204  17  9.992249E-05  9.000005E+00  4.967380E-07  3.854149E-05  8.816730E-15 -9.003518E-15 _shell_0000000204   
       204  18  1.034544E-04  9.000009E+00  4.683581E-08  4.188106E-05  1.252864E-14  3.452653E-14 _shell_0000000204   
       204  19  1.371008E-04  8.999994E+00 -4.234509E-06  4.293219E-05  8.428410E-07  1.350150E-06 _shell_0000000204   
       204  20  1.364895E-04  9.000003E+00 -2.195305E-06  4.130606E-05  8.721519E-07  4.815918E-07 _shell_0000000204   
       204  21  1.353164E-04  9.000009E+00  7.113072E-07  4.206005E-05  9.014629E-07 -2.453882E-07 _shell_0000000204   
       204  22  1.160158E-04  8.999997E+00  1.009507E-06  4.065659E-05  1.659128E-07  1.616117E-07 _shell_0000000204   
       204  23  1.169439E-04  9.000004E+00 -2.908758E-07  4.028987E-05  1.770062E-07 -3.216430E-08 _shell_0000000204   
       204  24  1.174519E-04  9.000008E+00 -3.935002E-07  4.230328E-05  1.880996E-07 -8.436201E-08 _shell_0000000204   
       204  25  9.610587E-05  8.999999E+00  2.982133E-06  3.813046E-05 -1.640007E-08 -1.026927E-06 _shell_0000000204   
       204  26  9.956265E-05  9.000005E+00  6.503691E-07  3.902316E-05 -2.352424E-08 -5.459203E-07 _shell_0000000204   
       204  27  1.027408E-04  9.000009E+00 -1.532874E-07  4.229598E-05 -3.064840E-08  7.666420E-08 _shell_0000000204   
       205   1  1.339044E-04  9.000010E+00  1.471938E-06  4.000935E-05 -6.990476E-08  3.681035E-07 _shell_0000000205   
       205   2  1.299114E-04  9.000010E+00  5.287410E-07  3.510400E-05  5.521261E-08  1.435367E-07 _shell_0000000205   
       205   3  1.258668E-04  9.000009E+00 -1.277933E-07  3.168935E-05  1.803300E-07 -9.758316E-08 _shell_0000000205   
       205   4  1.183468E-04  9.000010E+00  1.921590E-07  4.044916E-05 -3.989735E-08  6.322879E-08 _shell_0000000205   
       205   5  1.168711E-04  9.000011E+00 -9.514894E-08  3.582673E-05  3.041106E-09  1.910995E-08 _shell_0000000205   
       205   6  1.153604E-04  9.000011E+00 -5.717038E-08  3.269500E-05  4.597957E-08 -4.156192E-08 _shell_0000000205   
       205   7  1.037005E-04  9.000010E+00 -2.437586E-07  4.095119E-05  6.992901E-08 -2.416459E-07 _shell_0000000205   
       205   8  1.045824E-04  9.000012E+00 -2.476660E-07  3.661167E-05  3.068855E-08 -1.053168E-07 _shell_0000000205   
       205   9  1.054459E-04  9.000014E+00  1.123371E-07  3.376286E-05 -8.551905E-09  1.445926E-08 _shell_0000000205   
       205  10  1.341599E-04  9.000010E+00  1.538443E-06  3.976594E-05  1.277526E-14  5.434193E-14 _shell_0000000205   
       205  11  1.301903E-04  9.000010E+00  6.186572E-07  3.480516E-05  1.125268E-14 -1.256059E-15 _shell_0000000205   
       205  12  1.261691E-04  9.000009E+00 -1.446584E-08  3.133509E-05  3.797586E-15  3.241689E-14 _shell_0000000205   
       205  13  1.185053E-04  9.000010E+00  2.170937E-07  4.021355E-05  9.722566E-15  4.800210E-14 _shell_0000000205   
       205  14  1.170530E-04  9.000011E+00 -4.680289E-08  3.553570E-05  4.940651E-15  7.330096E-15 _shell_0000000205   
       205  15  1.155657E-04  9.000011E+00  1.458701E-08  3.234854E-05  1.905865E-15  3.967273E-14 _shell_0000000205   
       205  16  1.037620E-04  9.000010E+00 -2.603940E-07  4.072338E-05  1.014249E-14  3.812160E-14 _shell_0000000205   
       205  17  1.046673E-04  9.000012E+00 -2.408901E-07  3.632844E-05  3.230844E-15  2.907891E-15 _shell_0000000205   
       205  18  1.055542E-04  9.000014E+00  1.425244E-07  3.342420E-05  3.534826E-15  2.230969E-14 _shell_0000000205   
       205  19  1.339044E-04  9.000010E+00  1.471938E-06  4.000935E-05  6.990479E-08 -3.681034E-07 _shell_0000000205   
       205  20  1.299114E-04  9.000010E+00  5.287411E-07  3.510400E-05 -5.521259E-08 -1.435367E-07 _shell_0000000205   
       205  21  1.258668E-04  9.000009E+00 -1.277933E-07  3.168935E-05 -1.803300E-07  9.758322E-08 _shell_0000000205   
       205  22  1.183468E-04  9.000010E+00  1.921590E-07  4.044916E-05  3.989737E-08 -6.322871E-08 _shell_0000000205   
       205  23  1.168711E-04  9.000011E+00 -9.514893E-08  3.582673E-05 -3.041094E-09 -1.910993E-08 _shell_0000000205   
       205  24  1.153604E-04  9.000011E+00 -5.717041E-08  3.269500E-05 -4.597956E-08  4.156202E-08 _shell_0000000205   
       205  25  1.037005E-04  9.000010E+00 -2.437587E-07  4.095119E-05 -6.992900E-08  2.416460E-07 _shell_0000000205   
       205  26  1.045824E-04  9.000012E+00 -2.476660E-07  3.661167E-05 -3.068855E-08  1.053168E-07 _shell_0000000205   
       205  27  1.054459E-04  9.000014E+00  1.123370E-07  3.376286E-05  8.551906E-09 -1.445922E-08 _shell_0000000205   
       206   1  1.230271E-04  9.000008E+00 -4.054115E-07  2.832727E-05  1.215789E-07 -1.301507E-07 _shell_0000000206   
       206   2  1.195180E-04  9.000008E+00 -5.575215E-08  2.290686E-05  1.086131E-08 -2.208023E-08 _shell_0000000206   
       206   3  1.158270E-04  9.000008E+00  6.341880E-08  1.870169E-05 -9.985630E-08  3.670086E-08 _shell_0000000206   
       206   4  1.141898E-04  9.000011E+00 -4.685798E-09  2.953253E-05  5.551024E-08 -3.802733E-08 _shell_0000000206   
       206   5  1.120750E-04  9.000011E+00  5.044107E-08  2.400954E-05  1.106194E-08  1.365993E-08 _shell_0000000206   
       206   6  1.098277E-04  9.000010E+00 -9.911699E-09  1.970179E-05 -3.338637E-08  1.605780E-08 _shell_0000000206   
       206   7  1.051505E-04  9.000014E+00  1.049409E-07  3.061209E-05 -4.551960E-08  5.409601E-08 _shell_0000000206   
       206   8  1.045000E-04  9.000013E+00  2.868743E-08  2.498653E-05 -2.369859E-08  4.940008E-08 _shell_0000000206   
       206   9  1.037662E-04  9.000013E+00 -4.803687E-08  2.057620E-05 -1.877588E-09 -4.585268E-09 _shell_0000000206   
       206  10  1.228407E-04  9.000008E+00 -4.950925E-07  2.802947E-05  1.224704E-15  3.622032E-14 _shell_0000000206   
       206  11  1.193469E-04  9.000008E+00 -1.302016E-07  2.267725E-05  8.293446E-16 -4.004845E-15 _shell_0000000206   
       206  12  1.156711E-04  9.000008E+00  4.200794E-09  1.854026E-05  5.430168E-15  2.982081E-14 _shell_0000000206   
       206  13  1.141227E-04  9.000011E+00 -4.322771E-08  2.923980E-05  7.890096E-16  4.151680E-14 _shell_0000000206   
       206  14  1.120232E-04  9.000011E+00  2.713069E-08  2.378500E-05  2.850592E-15  7.390793E-17 _shell_0000000206   
       206  15  1.097911E-04  9.000010E+00 -1.799054E-08  1.954544E-05  4.985518E-15  3.112096E-14 _shell_0000000206   
       206  16  1.052027E-04  9.000014E+00  1.175381E-07  3.032444E-05  4.291628E-15  2.264696E-14 _shell_0000000206   
       206  17  1.045675E-04  9.000013E+00  5.651619E-08  2.476707E-05  7.464899E-15  2.602470E-15 _shell_0000000206   
       206  18  1.038489E-04  9.000013E+00 -4.976608E-09  2.042493E-05  6.163034E-15  4.088944E-14 _shell_0000000206   
       206  19  1.230271E-04  9.000008E+00 -4.054114E-07  2.832727E-05 -1.215789E-07  1.301508E-07 _shell_0000000206   
       206  20  1.195180E-04  9.000008E+00 -5.575208E-08  2.290686E-05 -1.086130E-08  2.208021E-08 _shell_0000000206   
       206  21  1.158270E-04  9.000008E+00  6.341882E-08  1.870169E-05  9.985631E-08 -3.670080E-08 _shell_0000000206   
       206  22  1.141898E-04  9.000011E+00 -4.685820E-09  2.953253E-05 -5.551024E-08  3.802741E-08 _shell_0000000206   
       206  23  1.120750E-04  9.000011E+00  5.044110E-08  2.400954E-05 -1.106193E-08 -1.365994E-08 _shell_0000000206   
       206  24  1.098277E-04  9.000010E+00 -9.911668E-09  1.970179E-05  3.338636E-08 -1.605773E-08 _shell_0000000206   
       206  25  1.051505E-04  9.000014E+00  1.049408E-07  3.061209E-05  4.551961E-08 -5.409597E-08 _shell_0000000206   
       206  26  1.045000E-04  9.000013E+00  2.868743E-08  2.498653E-05  2.369860E-08 -4.940007E-08 _shell_0000000206   
       206  27  1.037662E-04  9.000013E+00 -4.803685E-08  2.057620E-05  1.877597E-09  4.585347E-09 _shell_0000000206   
       207   1  1.140908E-04  9.000008E+00  4.708505E-08  1.573950E-05  7.479499E-09  4.089180E-08 _shell_0000000207   
       207   2  1.121337E-04  9.000007E+00  5.309528E-08  1.104369E-05 -1.262184E-08  2.701676E-08 _shell_0000000207   
       207   3  1.101229E-04  9.000007E+00 -4.693642E-08  6.901656E-06 -3.272318E-08  1.110883E-08 _shell_0000000207   
       207   4  1.088584E-04  9.000010E+00  6.805120E-09  1.661554E-05  1.325361E-08  7.159093E-09 _shell_0000000207   
       207   5  1.076323E-04  9.000010E+00  5.034470E-08  1.168893E-05 -5.859812E-09  4.684840E-09 _shell_0000000207   
       207   6  1.063546E-04  9.000009E+00 -7.414171E-09  7.316095E-06 -2.497322E-08  1.776850E-10 _shell_0000000207   
       207   7  1.032816E-04  9.000012E+00 -8.374165E-08  1.744717E-05  2.198828E-08 -2.657363E-08 _shell_0000000207   
       207   8  1.027807E-04  9.000012E+00 -1.648869E-08  1.228975E-05  3.862789E-09 -1.764710E-08 _shell_0000000207   
       207   9  1.022301E-04  9.000011E+00 -4.579056E-08  7.686119E-06 -1.426272E-08 -1.075348E-08 _shell_0000000207   
       207  10  1.140582E-04  9.000008E+00  4.427013E-08  1.566075E-05  9.350485E-15  3.459141E-14 _shell_0000000207   
       207  11  1.121072E-04  9.000007E+00  5.644501E-08  1.096644E-05  1.136031E-14  1.564388E-14 _shell_0000000207   
       207  12  1.101026E-04  9.000007E+00 -3.742210E-08  6.825909E-06  1.284335E-14  4.142679E-14 _shell_0000000207   
       207  13  1.088284E-04  9.000010E+00  5.117680E-09  1.653884E-05  3.888073E-15  3.657917E-14 _shell_0000000207   
       207  14  1.076085E-04  9.000010E+00  5.482188E-08  1.161373E-05  5.509653E-15  7.380992E-15 _shell_0000000207   
       207  15  1.063370E-04  9.000009E+00  3.227666E-09  7.242403E-06  5.196681E-15  4.677131E-14 _shell_0000000207   
       207  16  1.032542E-04  9.000012E+00 -8.430162E-08  1.737252E-05  3.349919E-15  3.669630E-14 _shell_0000000207   
       207  17  1.027595E-04  9.000012E+00 -1.088403E-08  1.221661E-05 -2.569115E-15  4.740415E-15 _shell_0000000207   
       207  18  1.022151E-04  9.000011E+00 -3.402127E-08  7.614482E-06 -4.768415E-16  5.056109E-14 _shell_0000000207   
       207  19  1.140908E-04  9.000008E+00  4.708503E-08  1.573950E-05 -7.479483E-09 -4.089173E-08 _shell_0000000207   
       207  20  1.121337E-04  9.000007E+00  5.309528E-08  1.104369E-05  1.262186E-08 -2.701675E-08 _shell_0000000207   
       207  21  1.101229E-04  9.000007E+00 -4.693644E-08  6.901656E-06  3.272321E-08 -1.110873E-08 _shell_0000000207   
       207  22  1.088584E-04  9.000010E+00  6.805123E-09  1.661554E-05 -1.325360E-08 -7.159019E-09 _shell_0000000207   
       207  23  1.076323E-04  9.000010E+00  5.034468E-08  1.168893E-05  5.859811E-09 -4.684806E-09 _shell_0000000207   
       207  24  1.063546E-04  9.000009E+00 -7.414154E-09  7.316095E-06  2.497324E-08 -1.775851E-10 _shell_0000000207   
       207  25  1.032816E-04  9.000012E+00 -8.374165E-08  1.744717E-05 -2.198827E-08  2.657370E-08 _shell_0000000207   
       207  26  1.027807E-04  9.000012E+00 -1.648869E-08  1.228975E-05 -3.862779E-09  1.764711E-08 _shell_0000000207   
       207  27  1.022301E-04  9.000011E+00 -4.579054E-08  7.686119E-06  1.426272E-08  1.075357E-08 _shell_0000000207   
       208   1  1.095222E-04  9.000007E+00 -5.775121E-08  4.222434E-06  6.836793E-08  8.270641E-09 _shell_0000000208   
       208   2  1.095533E-04  9.000007E+00  1.640065E-08  1.756168E-14  3.945015E-15  1.152978E-08 _shell_0000000208   
       208   3  1.095222E-04  9.000007E+00 -5.775129E-08 -4.222434E-06 -6.836791E-08  8.270518E-09 _shell_0000000208   
       208   4  1.059867E-04  9.000009E+00 -9.927317E-10  4.483395E-06  3.866902E-08  6.570614E-10 _shell_0000000208   
       208   5  1.060146E-04  9.000009E+00  6.555436E-08  1.771439E-14 -1.094424E-15  3.916211E-09 _shell_0000000208   
       208   6  1.059867E-04  9.000009E+00 -9.927690E-10 -4.483395E-06 -3.866901E-08  6.569629E-10 _shell_0000000208   
       208   7  1.020307E-04  9.000011E+00 -5.298799E-08  4.744357E-06  8.970110E-09 -6.956527E-09 _shell_0000000208   
       208   8  1.020553E-04  9.000011E+00  5.954297E-09 -1.425296E-15  2.751966E-15 -3.697349E-09 _shell_0000000208   
       208   9  1.020307E-04  9.000011E+00 -5.298801E-08 -4.744357E-06 -8.970110E-09 -6.956582E-09 _shell_0000000208   
       208  10  1.094237E-04  9.000007E+00 -8.071874E-08  4.197715E-06  6.649582E-15  4.579016E-14 _shell_0000000208   
       208  11  1.094548E-04  9.000007E+00 -6.566815E-09 -1.415115E-14 -1.064441E-15  1.096076E-14 _shell_0000000208   
       208  12  1.094237E-04  9.000007E+00 -8.071874E-08 -4.197715E-06  3.336117E-15 -3.235772E-14 _shell_0000000208   
       208  13  1.059315E-04  9.000009E+00 -5.421276E-09  4.458677E-06  4.530405E-15  5.452263E-14 _shell_0000000208   
       208  14  1.059594E-04  9.000009E+00  6.112582E-08 -6.617445E-15  2.850592E-15  6.566541E-15 _shell_0000000208   
       208  15  1.059315E-04  9.000009E+00 -5.421283E-09 -4.458677E-06  4.059547E-15 -3.098611E-14 _shell_0000000208   
       208  16  1.020188E-04  9.000011E+00 -3.887759E-08  4.719638E-06  4.889750E-15  5.685406E-14 _shell_0000000208   
       208  17  1.020434E-04  9.000011E+00  2.006465E-08 -8.144548E-15  1.093238E-14  6.674746E-15 _shell_0000000208   
       208  18  1.020188E-04  9.000011E+00 -3.887764E-08 -4.719638E-06  6.388438E-15 -3.065532E-14 _shell_0000000208   
       208  19  1.095222E-04  9.000007E+00 -5.775121E-08  4.222434E-06 -6.836792E-08 -8.270541E-09 _shell_0000000208   
       208  20  1.095533E-04  9.000007E+00  1.640066E-08 -4.039187E-14 -7.406448E-15 -1.152977E-08 _shell_0000000208   
       208  21  1.095222E-04  9.000007E+00 -5.775125E-08 -4.222434E-06  6.836792E-08 -8.270583E-09 _shell_0000000208   
       208  22  1.059867E-04  9.000009E+00 -9.927117E-10  4.483395E-06 -3.866901E-08 -6.569637E-10 _shell_0000000208   
       208  23  1.060146E-04  9.000009E+00  6.555436E-08 -3.224732E-14 -5.090342E-16 -3.916205E-09 _shell_0000000208   
       208  24  1.059867E-04  9.000009E+00 -9.927481E-10 -4.483395E-06  3.866901E-08 -6.570294E-10 _shell_0000000208   
       208  25  1.020307E-04  9.000011E+00 -5.298796E-08  4.744357E-06 -8.970102E-09  6.956645E-09 _shell_0000000208   
       208  26  1.020553E-04  9.000011E+00  5.954277E-09 -4.784922E-14  7.991837E-15  3.697367E-09 _shell_0000000208   
       208  27  1.020307E-04  9.000011E+00 -5.298805E-08 -4.744357E-06  8.970113E-09  6.956526E-09 _shell_0000000208   
       209   1  1.101229E-04  9.000007E+00 -4.693655E-08 -6.901656E-06  3.272320E-08  1.110870E-08 _shell_0000000209   
       209   2  1.121337E-04  9.000007E+00  5.309528E-08 -1.104369E-05  1.262185E-08  2.701676E-08 _shell_0000000209   
       209   3  1.140908E-04  9.000008E+00  4.708507E-08 -1.573950E-05 -7.479501E-09  4.089184E-08 _shell_0000000209   
       209   4  1.063546E-04  9.000009E+00 -7.414211E-09 -7.316095E-06  2.497324E-08  1.775895E-10 _shell_0000000209   
       209   5  1.076323E-04  9.000010E+00  5.034468E-08 -1.168893E-05  5.859814E-09  4.684865E-09 _shell_0000000209   
       209   6  1.088584E-04  9.000010E+00  6.805100E-09 -1.661554E-05 -1.325362E-08  7.159124E-09 _shell_0000000209   
       209   7  1.022301E-04  9.000011E+00 -4.579060E-08 -7.686119E-06  1.426274E-08 -1.075351E-08 _shell_0000000209   
       209   8  1.027807E-04  9.000012E+00 -1.648872E-08 -1.228975E-05 -3.862774E-09 -1.764707E-08 _shell_0000000209   
       209   9  1.032816E-04  9.000012E+00 -8.374167E-08 -1.744717E-05 -2.198829E-08 -2.657360E-08 _shell_0000000209   
       209  10  1.101026E-04  9.000007E+00 -3.742212E-08 -6.825909E-06  5.160657E-15 -3.708061E-14 _shell_0000000209   
       209  11  1.121072E-04  9.000007E+00  5.644502E-08 -1.096644E-05  6.088997E-15 -2.172322E-15 _shell_0000000209   
       209  12  1.140582E-04  9.000008E+00  4.427014E-08 -1.566075E-05  1.281536E-15  3.613283E-14 _shell_0000000209   
       209  13  1.063370E-04  9.000009E+00  3.227659E-09 -7.242403E-06  2.354924E-15 -3.506740E-14 _shell_0000000209   
       209  14  1.076085E-04  9.000010E+00  5.482189E-08 -1.161373E-05  2.036137E-16 -3.257819E-15 _shell_0000000209   
       209  15  1.088284E-04  9.000010E+00  5.117683E-09 -1.653884E-05 -3.849895E-15  3.885339E-14 _shell_0000000209   
       209  16  1.022151E-04  9.000011E+00 -3.402126E-08 -7.614482E-06  1.972509E-15 -3.253235E-14 _shell_0000000209   
       209  17  1.027595E-04  9.000012E+00 -1.088404E-08 -1.221661E-05 -2.157349E-15  4.536804E-15 _shell_0000000209   
       209  18  1.032542E-04  9.000012E+00 -8.430161E-08 -1.737252E-05 -8.080164E-15  4.651427E-14 _shell_0000000209   
       209  19  1.101229E-04  9.000007E+00 -4.693649E-08 -6.901656E-06 -3.272318E-08 -1.110880E-08 _shell_0000000209   
       209  20  1.121337E-04  9.000007E+00  5.309528E-08 -1.104369E-05 -1.262185E-08 -2.701676E-08 _shell_0000000209   
       209  21  1.140908E-04  9.000008E+00  4.708504E-08 -1.573950E-05  7.479493E-09 -4.089177E-08 _shell_0000000209   
       209  22  1.063546E-04  9.000009E+00 -7.414199E-09 -7.316095E-06 -2.497323E-08 -1.776661E-10 _shell_0000000209   
       209  23  1.076323E-04  9.000010E+00  5.034467E-08 -1.168893E-05 -5.859821E-09 -4.684847E-09 _shell_0000000209   
       209  24  1.088584E-04  9.000010E+00  6.805118E-09 -1.661554E-05  1.325361E-08 -7.159040E-09 _shell_0000000209   
       209  25  1.022301E-04  9.000011E+00 -4.579060E-08 -7.686119E-06 -1.426274E-08  1.075344E-08 _shell_0000000209   
       209  26  1.027807E-04  9.000012E+00 -1.648869E-08 -1.228975E-05  3.862761E-09  1.764708E-08 _shell_0000000209   
       209  27  1.032816E-04  9.000012E+00 -8.374163E-08 -1.744717E-05  2.198828E-08  2.657370E-08 _shell_0000000209   
       210   1  1.158270E-04  9.000008E+00  6.341883E-08 -1.870169E-05  9.985630E-08  3.670091E-08 _shell_0000000210   
       210   2  1.195180E-04  9.000008E+00 -5.575214E-08 -2.290686E-05 -1.086129E-08 -2.208022E-08 _shell_0000000210   
       210   3  1.230271E-04  9.000008E+00 -4.054115E-07 -2.832727E-05 -1.215789E-07 -1.301508E-07 _shell_0000000210   
       210   4  1.098277E-04  9.000010E+00 -9.911703E-09 -1.970179E-05  3.338635E-08  1.605782E-08 _shell_0000000210   
       210   5  1.120750E-04  9.000011E+00  5.044110E-08 -2.400954E-05 -1.106193E-08  1.365995E-08 _shell_0000000210   
       210   6  1.141898E-04  9.000011E+00 -4.685810E-09 -2.953253E-05 -5.551023E-08 -3.802736E-08 _shell_0000000210   
       210   7  1.037662E-04  9.000013E+00 -4.803689E-08 -2.057620E-05  1.877570E-09 -4.585261E-09 _shell_0000000210   
       210   8  1.045000E-04  9.000013E+00  2.868745E-08 -2.498653E-05  2.369860E-08  4.940009E-08 _shell_0000000210   
       210   9  1.051505E-04  9.000014E+00  1.049409E-07 -3.061209E-05  4.551963E-08  5.409600E-08 _shell_0000000210   
       210  10  1.156711E-04  9.000008E+00  4.200805E-09 -1.854026E-05  8.602677E-15  3.540586E-14 _shell_0000000210   
       210  11  1.193469E-04  9.000008E+00 -1.302017E-07 -2.267725E-05  2.470627E-14  4.954159E-15 _shell_0000000210   
       210  12  1.228407E-04  9.000008E+00 -4.950925E-07 -2.802947E-05  1.218835E-14  1.678953E-14 _shell_0000000210   
       210  13  1.097911E-04  9.000010E+00 -1.799056E-08 -1.954544E-05 -6.427811E-17  3.334681E-14 _shell_0000000210   
       210  14  1.120232E-04  9.000011E+00  2.713070E-08 -2.378500E-05  6.719252E-15  1.679813E-15 _shell_0000000210   
       210  15  1.141227E-04  9.000011E+00 -4.322770E-08 -2.923980E-05  8.261450E-15  3.051257E-14 _shell_0000000210   
       210  16  1.038489E-04  9.000013E+00 -4.976556E-09 -2.042493E-05 -8.984450E-15  3.425294E-14 _shell_0000000210   
       210  17  1.045675E-04  9.000013E+00  5.651617E-08 -2.476707E-05 -4.874636E-15 -1.032699E-14 _shell_0000000210   
       210  18  1.052027E-04  9.000014E+00  1.175381E-07 -3.032444E-05 -2.331739E-15  2.307324E-14 _shell_0000000210   
       210  19  1.158270E-04  9.000008E+00  6.341881E-08 -1.870169E-05 -9.985628E-08 -3.670085E-08 _shell_0000000210   
       210  20  1.195180E-04  9.000008E+00 -5.575211E-08 -2.290686E-05  1.086133E-08  2.208021E-08 _shell_0000000210   
       210  21  1.230271E-04  9.000008E+00 -4.054114E-07 -2.832727E-05  1.215789E-07  1.301508E-07 _shell_0000000210   
       210  22  1.098277E-04  9.000010E+00 -9.911674E-09 -1.970179E-05 -3.338635E-08 -1.605775E-08 _shell_0000000210   
       210  23  1.120750E-04  9.000011E+00  5.044107E-08 -2.400954E-05  1.106194E-08 -1.365994E-08 _shell_0000000210   
       210  24  1.141898E-04  9.000011E+00 -4.685805E-09 -2.953253E-05  5.551024E-08  3.802743E-08 _shell_0000000210   
       210  25  1.037662E-04  9.000013E+00 -4.803686E-08 -2.057620E-05 -1.877587E-09  4.585327E-09 _shell_0000000210   
       210  26  1.045000E-04  9.000013E+00  2.868740E-08 -2.498653E-05 -2.369861E-08 -4.940010E-08 _shell_0000000210   
       210  27  1.051505E-04  9.000014E+00  1.049408E-07 -3.061209E-05 -4.551964E-08 -5.409596E-08 _shell_0000000210   
       211   1  1.258668E-04  9.000009E+00 -1.277934E-07 -3.168935E-05 -1.803300E-07 -9.758320E-08 _shell_0000000211   
       211   2  1.299114E-04  9.000010E+00  5.287410E-07 -3.510400E-05 -5.521262E-08  1.435367E-07 _shell_0000000211   
       211   3  1.339044E-04  9.000010E+00  1.471938E-06 -4.000935E-05  6.990476E-08  3.681035E-07 _shell_0000000211   
       211   4  1.153604E-04  9.000011E+00 -5.717036E-08 -3.269500E-05 -4.597954E-08 -4.156197E-08 _shell_0000000211   
       211   5  1.168711E-04  9.000011E+00 -9.514892E-08 -3.582673E-05 -3.041100E-09  1.910994E-08 _shell_0000000211   
       211   6  1.183468E-04  9.000010E+00  1.921590E-07 -4.044916E-05  3.989736E-08  6.322875E-08 _shell_0000000211   
       211   7  1.054459E-04  9.000014E+00  1.123371E-07 -3.376286E-05  8.551945E-09  1.445925E-08 _shell_0000000211   
       211   8  1.045824E-04  9.000012E+00 -2.476659E-07 -3.661167E-05 -3.068853E-08 -1.053168E-07 _shell_0000000211   
       211   9  1.037005E-04  9.000010E+00 -2.437586E-07 -4.095119E-05 -6.992900E-08 -2.416460E-07 _shell_0000000211   
       211  10  1.261691E-04  9.000009E+00 -1.446586E-08 -3.133509E-05  4.027401E-15  1.667340E-14 _shell_0000000211   
       211  11  1.301903E-04  9.000010E+00  6.186572E-07 -3.480516E-05 -1.059928E-15 -1.520361E-14 _shell_0000000211   
       211  12  1.341599E-04  9.000010E+00  1.538443E-06 -3.976594E-05 -2.777256E-15 -3.961145E-14 _shell_0000000211   
       211  13  1.155657E-04  9.000011E+00  1.458702E-08 -3.234854E-05  4.695184E-15  3.011442E-14 _shell_0000000211   
       211  14  1.170530E-04  9.000011E+00 -4.680289E-08 -3.553570E-05  3.461433E-15 -1.379483E-14 _shell_0000000211   
       211  15  1.185053E-04  9.000010E+00  2.170937E-07 -4.021355E-05  5.812039E-15 -1.166338E-14 _shell_0000000211   
       211  16  1.055542E-04  9.000014E+00  1.425244E-07 -3.342420E-05  1.838574E-15  1.776023E-14 _shell_0000000211   
       211  17  1.046673E-04  9.000012E+00 -2.408900E-07 -3.632844E-05  1.171384E-14 -2.315467E-14 _shell_0000000211   
       211  18  1.037620E-04  9.000010E+00 -2.603940E-07 -4.072338E-05  1.164427E-14  3.017280E-15 _shell_0000000211   
       211  19  1.258668E-04  9.000009E+00 -1.277933E-07 -3.168935E-05  1.803300E-07  9.758324E-08 _shell_0000000211   
       211  20  1.299114E-04  9.000010E+00  5.287411E-07 -3.510400E-05  5.521261E-08 -1.435367E-07 _shell_0000000211   
       211  21  1.339044E-04  9.000010E+00  1.471938E-06 -4.000935E-05 -6.990476E-08 -3.681035E-07 _shell_0000000211   
       211  22  1.153604E-04  9.000011E+00 -5.717038E-08 -3.269500E-05  4.597956E-08  4.156203E-08 _shell_0000000211   
       211  23  1.168711E-04  9.000011E+00 -9.514894E-08 -3.582673E-05  3.041111E-09 -1.910995E-08 _shell_0000000211   
       211  24  1.183468E-04  9.000010E+00  1.921590E-07 -4.044916E-05 -3.989734E-08 -6.322877E-08 _shell_0000000211   
       211  25  1.054459E-04  9.000014E+00  1.123371E-07 -3.376286E-05 -8.551939E-09 -1.445921E-08 _shell_0000000211   
       211  26  1.045824E-04  9.000012E+00 -2.476660E-07 -3.661167E-05  3.068856E-08  1.053168E-07 _shell_0000000211   
       211  27  1.037005E-04  9.000010E+00 -2.437586E-07 -4.095119E-05  6.992903E-08  2.416460E-07 _shell_0000000211   
       212   1  1.353164E-04  9.000009E+00  7.113071E-07 -4.206005E-05  9.014629E-07  2.453882E-07 _shell_0000000212   
       212   2  1.364895E-04  9.000003E+00 -2.195305E-06 -4.130606E-05  8.721519E-07 -4.815917E-07 _shell_0000000212   
       212   3  1.371008E-04  8.999994E+00 -4.234509E-06 -4.293219E-05  8.428409E-07 -1.350150E-06 _shell_0000000212   
       212   4  1.174519E-04  9.000008E+00 -3.935002E-07 -4.230328E-05  1.880996E-07  8.436205E-08 _shell_0000000212   
       212   5  1.169439E-04  9.000004E+00 -2.908758E-07 -4.028987E-05  1.770062E-07  3.216429E-08 _shell_0000000212   
       212   6  1.160158E-04  8.999997E+00  1.009507E-06 -4.065659E-05  1.659128E-07 -1.616117E-07 _shell_0000000212   
       212   7  1.027408E-04  9.000009E+00 -1.532874E-07 -4.229598E-05 -3.064844E-08 -7.666415E-08 _shell_0000000212   
       212   8  9.956265E-05  9.000005E+00  6.503691E-07 -3.902316E-05 -2.352426E-08  5.459203E-07 _shell_0000000212   
       212   9  9.610587E-05  8.999999E+00  2.982133E-06 -3.813046E-05 -1.640008E-08  1.026927E-06 _shell_0000000212   
       212  10  1.357963E-04  9.000009E+00  8.112979E-07 -4.140930E-05 -1.368369E-15 -3.117585E-14 _shell_0000000212   
       212  11  1.366157E-04  9.000002E+00 -2.449069E-06 -4.058855E-05 -9.120771E-15  6.783146E-16 _shell_0000000212   
       212  12  1.368733E-04  8.999992E+00 -4.842027E-06 -4.214793E-05 -1.402758E-14  1.037565E-14 _shell_0000000212   
       212  13  1.180486E-04  9.000008E+00 -2.434432E-07 -4.177044E-05  3.638278E-15 -4.143690E-15 _shell_0000000212   
       212  14  1.171869E-04  9.000003E+00 -4.945733E-07 -3.969028E-05 -8.144548E-15  3.257819E-15 _shell_0000000212   
       212  15  1.159051E-04  8.999995E+00  4.520552E-07 -3.999024E-05 -9.426204E-15  1.872602E-14 _shell_0000000212   
       212  16  1.034544E-04  9.000009E+00  4.683588E-08 -4.188106E-05  5.281244E-15  1.490964E-14 _shell_0000000212   
       212  17  9.992249E-05  9.000005E+00  4.967379E-07 -3.854149E-05 -5.755087E-15 -2.080627E-15 _shell_0000000212   
       212  18  9.611196E-05  8.999997E+00  2.474748E-06 -3.758203E-05 -4.653891E-15  1.230715E-14 _shell_0000000212   
       212  19  1.353164E-04  9.000009E+00  7.113072E-07 -4.206005E-05 -9.014629E-07 -2.453883E-07 _shell_0000000212   
       212  20  1.364895E-04  9.000003E+00 -2.195305E-06 -4.130606E-05 -8.721519E-07  4.815917E-07 _shell_0000000212   
       212  21  1.371008E-04  8.999994E+00 -4.234509E-06 -4.293219E-05 -8.428410E-07  1.350150E-06 _shell_0000000212   
       212  22  1.174519E-04  9.000008E+00 -3.935001E-07 -4.230328E-05 -1.880996E-07 -8.436207E-08 _shell_0000000212   
       212  23  1.169439E-04  9.000004E+00 -2.908758E-07 -4.028987E-05 -1.770062E-07 -3.216426E-08 _shell_0000000212   
       212  24  1.160158E-04  8.999997E+00  1.009507E-06 -4.065659E-05 -1.659128E-07  1.616118E-07 _shell_0000000212   
       212  25  1.027408E-04  9.000009E+00 -1.532873E-07 -4.229598E-05  3.064845E-08  7.666417E-08 _shell_0000000212   
       212  26  9.956265E-05  9.000005E+00  6.503691E-07 -3.902316E-05  2.352423E-08 -5.459203E-07 _shell_0000000212   
       212  27  9.610587E-05  8.999999E+00  2.982133E-06 -3.813046E-05  1.640004E-08 -1.026926E-06 _shell_0000000212   
       213   1  1.317610E-04  8.999989E+00 -3.768455E-06 -3.825971E-05 -2.453029E-06 -1.130067E-06 _shell_0000000213   
       213   2  1.355125E-04  8.999983E+00  1.152636E-05 -2.461341E-05 -6.261566E-06  1.077462E-06 _shell_0000000213   
       213   3  1.355018E-04  8.999962E+00  2.929115E-05 -9.237761E-06 -1.007010E-05  4.046059E-06 _shell_0000000213   
       213   4  1.075961E-04  8.999987E+00 -1.280254E-06 -3.451819E-05 -2.777358E-07 -3.030557E-07 _shell_0000000213   
       213   5  1.041897E-04  8.999963E+00  9.033700E-07 -1.982383E-05 -2.124500E-06 -1.269505E-08 _shell_0000000213   
       213   6  9.625998E-05  8.999923E+00  3.781144E-06 -3.400138E-06 -3.971264E-06  1.038734E-06 _shell_0000000213   
       213   7  8.874226E-05  8.999986E+00  7.330642E-07 -3.311545E-05  4.792645E-07  5.239552E-07 _shell_0000000213   
       213   8  8.101449E-05  8.999947E+00 -3.575803E-06 -1.737305E-05  5.942739E-07 -1.102852E-06 _shell_0000000213   
       213   9  6.800234E-05  8.999891E+00 -8.966345E-06  9.869955E-08  7.092833E-07 -1.968591E-06 _shell_0000000213   
       213  10  1.291353E-04  8.999986E+00 -5.290594E-06 -3.856552E-05 -1.473052E-14  6.899855E-15 _shell_0000000213   
       213  11  1.339211E-04  8.999983E+00  1.103856E-05 -2.373329E-05 -1.084546E-14 -1.632344E-14 _shell_0000000213   
       213  12  1.349448E-04  8.999964E+00  2.983770E-05 -7.171717E-06 -1.076909E-14 -4.289469E-14 _shell_0000000213   
       213  13  1.070458E-04  8.999985E+00 -1.912946E-06 -3.447922E-05 -7.012621E-15  1.705754E-14 _shell_0000000213   
       213  14  1.046737E-04  8.999964E+00  1.305022E-06 -1.859894E-05 -1.281559E-14 -1.222678E-14 _shell_0000000213   
       213  15  9.777831E-05  8.999926E+00  5.217140E-06 -9.893119E-07 -9.126417E-15 -6.152622E-14 _shell_0000000213   
       213  16  9.026728E-05  8.999986E+00  9.898191E-07 -3.273171E-05 -6.821677E-15  1.877815E-14 _shell_0000000213   
       213  17  8.357385E-05  8.999949E+00 -2.284704E-06 -1.580337E-05 -1.319302E-14  2.297176E-15 _shell_0000000213   
       213  18  7.159605E-05  8.999895E+00 -6.640902E-06  2.854307E-06 -1.118528E-14 -5.564891E-14 _shell_0000000213   
       213  19  1.317610E-04  8.999989E+00 -3.768455E-06 -3.825971E-05  2.453028E-06  1.130067E-06 _shell_0000000213   
       213  20  1.355125E-04  8.999983E+00  1.152636E-05 -2.461341E-05  6.261566E-06 -1.077462E-06 _shell_0000000213   
       213  21  1.355018E-04  8.999962E+00  2.929115E-05 -9.237761E-06  1.007010E-05 -4.046059E-06 _shell_0000000213   
       213  22  1.075961E-04  8.999987E+00 -1.280254E-06 -3.451819E-05  2.777357E-07  3.030558E-07 _shell_0000000213   
       213  23  1.041897E-04  8.999963E+00  9.033701E-07 -1.982383E-05  2.124500E-06  1.269503E-08 _shell_0000000213   
       213  24  9.625998E-05  8.999923E+00  3.781144E-06 -3.400138E-06  3.971264E-06 -1.038734E-06 _shell_0000000213   
       213  25  8.874226E-05  8.999986E+00  7.330642E-07 -3.311545E-05 -4.792646E-07 -5.239551E-07 _shell_0000000213   
       213  26  8.101449E-05  8.999947E+00 -3.575803E-06 -1.737305E-05 -5.942739E-07  1.102852E-06 _shell_0000000213   
       213  27  6.800234E-05  8.999891E+00 -8.966345E-06  9.869946E-08 -7.092833E-07  1.968591E-06 _shell_0000000213   
       214   1  7.677810E-05  8.999888E+00 -1.187444E-05  3.099889E-05  1.499357E-05  1.604109E-06 _shell_0000000214   
       214   2  9.958673E-05  8.999737E+00 -5.235078E-05  4.205351E-05  3.419007E-05 -1.486815E-06 _shell_0000000214   
       214   3  1.240916E-04  8.999551E+00 -5.316728E-05  4.140231E-05  5.338657E-05  8.994249E-06 _shell_0000000214   
       214   4  7.430624E-05  8.999874E+00 -9.053565E-06  2.600444E-05  3.482960E-06 -9.325935E-07 _shell_0000000214   
       214   5  1.103180E-04  8.999773E+00 -4.924836E-06  3.128961E-05  1.181638E-05 -4.890602E-07 _shell_0000000214   
       214   6  1.344541E-04  8.999624E+00  7.195757E-06  2.486894E-05  2.014980E-05  1.352646E-05 _shell_0000000214   
       214   7  7.887379E-05  8.999865E+00 -3.274347E-07  2.731542E-05 -1.948638E-06 -3.469296E-06 _shell_0000000214   
       214   8  1.159307E-04  8.999802E+00  2.003764E-05  2.683113E-05 -4.478300E-06  5.086944E-07 _shell_0000000214   
       214   9  1.275399E-04  8.999677E+00  1.672661E-05  1.464100E-05 -7.007962E-06  1.805867E-05 _shell_0000000214   
       214  10  1.195109E-04  8.999904E+00  5.783678E-06  3.711027E-05 -3.736144E-15 -3.972815E-14 _shell_0000000214   
       214  11  1.326180E-04  8.999730E+00 -4.439417E-05  3.492808E-05  1.125848E-15 -3.496016E-15 _shell_0000000214   
       214  12  1.474213E-04  8.999522E+00 -5.491218E-05  2.104007E-05  1.261432E-14  2.786093E-14 _shell_0000000214   
       214  13  9.387458E-05  8.999881E+00 -1.323050E-06  2.888198E-05 -1.140240E-14 -5.786236E-14 _shell_0000000214   
       214  14  1.201848E-04  8.999757E+00 -6.895831E-06  2.093034E-05 -8.360181E-15 -1.303096E-14 _shell_0000000214   
       214  15  1.346194E-04  8.999585E+00 -4.476750E-06  1.272869E-06  1.103408E-15  3.437362E-14 _shell_0000000214   
       214  16  7.527772E-05  8.999861E+00 -2.524524E-06  2.695912E-05 -8.614687E-15 -6.185245E-14 _shell_0000000214   
       214  17  1.026331E-04  8.999775E+00  8.139042E-06  1.323802E-05 -7.982763E-15 -6.560309E-15 _shell_0000000214   
       214  18  1.045408E-04  8.999628E+00 -4.873502E-06 -1.218891E-05 -1.426125E-14  2.976721E-14 _shell_0000000214   
       214  19  7.677810E-05  8.999888E+00 -1.187444E-05  3.099889E-05 -1.499357E-05 -1.604109E-06 _shell_0000000214   
       214  20  9.958673E-05  8.999737E+00 -5.235078E-05  4.205352E-05 -3.419007E-05  1.486815E-06 _shell_0000000214   
       214  21  1.240916E-04  8.999551E+00 -5.316728E-05  4.140231E-05 -5.338657E-05 -8.994249E-06 _shell_0000000214   
       214  22  7.430624E-05  8.999874E+00 -9.053565E-06  2.600444E-05 -3.482960E-06  9.325934E-07 _shell_0000000214   
       214  23  1.103180E-04  8.999773E+00 -4.924836E-06  3.128961E-05 -1.181638E-05  4.890602E-07 _shell_0000000214   
       214  24  1.344541E-04  8.999624E+00  7.195757E-06  2.486894E-05 -2.014980E-05 -1.352646E-05 _shell_0000000214   
       214  25  7.887379E-05  8.999865E+00 -3.274347E-07  2.731542E-05  1.948638E-06  3.469296E-06 _shell_0000000214   
       214  26  1.159307E-04  8.999802E+00  2.003764E-05  2.683113E-05  4.478300E-06 -5.086944E-07 _shell_0000000214   
       214  27  1.275399E-04  8.999677E+00  1.672661E-05  1.464100E-05  7.007962E-06 -1.805867E-05 _shell_0000000214   
       215   1  2.178636E-04  8.999571E+00 -2.531493E-06 -1.293453E-04  7.430809E-05  7.823571E-06 _shell_0000000215   
       215   2  5.875946E-05  8.999677E+00 -2.047561E-05 -1.364056E-04  1.502535E-05 -7.354880E-06 _shell_0000000215   
       215   3 -6.563753E-05  8.999840E+00  2.006782E-05 -9.264771E-05 -4.425739E-05 -1.000606E-05 _shell_0000000215   
       215   4  1.879233E-04  8.999616E+00  3.460200E-05 -8.930281E-05  4.028361E-05  1.333439E-05 _shell_0000000215   
       215   5  7.489627E-05  8.999668E+00  4.123651E-06 -1.055104E-04  1.252405E-05 -2.015547E-06 _shell_0000000215   
       215   6 -1.595083E-05  8.999764E+00  2.902552E-06 -7.089984E-05 -1.523551E-05 -4.838211E-06 _shell_0000000215   
       215   7  1.101177E-04  8.999628E+00  9.287581E-06 -6.159687E-05 -1.167299E-06  1.884521E-05 _shell_0000000215   
       215   8  5.802071E-05  8.999640E+00  9.316697E-07 -8.695180E-05  2.596326E-06  3.323787E-06 _shell_0000000215   
       215   9  1.557636E-05  8.999685E+00 -7.397295E-06 -6.148856E-05  6.359950E-06  3.296375E-07 _shell_0000000215   
       215  10  1.331917E-04  8.999499E+00 -4.942960E-05 -1.653753E-04  8.310607E-15  2.318911E-14 _shell_0000000215   
       215  11 -9.395925E-06  8.999644E+00 -5.085718E-05 -1.534910E-04 -1.517529E-14 -4.208435E-15 _shell_0000000215   
       215  12 -1.172764E-04  8.999845E+00  6.202792E-06 -9.078840E-05 -2.321563E-14 -1.113107E-14 _shell_0000000215   
       215  13  1.364045E-04  8.999558E+00  1.912385E-06 -1.198273E-04  3.790941E-15  2.683085E-14 _shell_0000000215   
       215  14  3.989404E-05  8.999649E+00 -1.204942E-05 -1.170903E-04  2.443364E-15 -4.062511E-15 _shell_0000000215   
       215  15 -3.443652E-05  8.999784E+00  3.246023E-06 -6.353502E-05 -7.520343E-15 -4.087056E-16 _shell_0000000215   
       215  16  9.175206E-05  8.999584E+00 -9.193534E-06 -8.661586E-05 -8.226885E-15  2.020373E-14 _shell_0000000215   
       215  17  5.617163E-05  8.999636E+00 -1.032905E-06 -9.302613E-05 -1.018023E-15 -8.901668E-15 _shell_0000000215   
       215  18  3.024383E-05  8.999719E+00  7.154672E-06 -4.861822E-05 -1.930438E-14  1.487778E-14 _shell_0000000215   
       215  19  2.178636E-04  8.999571E+00 -2.531493E-06 -1.293453E-04 -7.430809E-05 -7.823571E-06 _shell_0000000215   
       215  20  5.875946E-05  8.999677E+00 -2.047561E-05 -1.364056E-04 -1.502535E-05  7.354880E-06 _shell_0000000215   
       215  21 -6.563753E-05  8.999840E+00  2.006782E-05 -9.264771E-05  4.425739E-05  1.000606E-05 _shell_0000000215   
       215  22  1.879233E-04  8.999616E+00  3.460200E-05 -8.930281E-05 -4.028361E-05 -1.333439E-05 _shell_0000000215   
       215  23  7.489627E-05  8.999668E+00  4.123650E-06 -1.055104E-04 -1.252405E-05  2.015547E-06 _shell_0000000215   
       215  24 -1.595083E-05  8.999764E+00  2.902552E-06 -7.089984E-05  1.523551E-05  4.838211E-06 _shell_0000000215   
       215  25  1.101177E-04  8.999628E+00  9.287581E-06 -6.159687E-05  1.167299E-06 -1.884521E-05 _shell_0000000215   
       215  26  5.802071E-05  8.999640E+00  9.316697E-07 -8.695180E-05 -2.596326E-06 -3.323787E-06 _shell_0000000215   
       215  27  1.557636E-05  8.999685E+00 -7.397295E-06 -6.148856E-05 -6.359950E-06 -3.296374E-07 _shell_0000000215   
       301   1  1.944521E-05  8.999656E+00 -6.258027E-06  5.199356E-05 -9.418299E-06 -5.767447E-07 _shell_0000000301   
       301   2  5.532275E-05  8.999658E+00  6.940781E-06  6.064630E-05  1.730788E-06  3.062583E-06 _shell_0000000301   
       301   3  8.076833E-05  8.999649E+00 -2.651276E-06  6.127019E-05  1.287987E-05  1.219189E-06 _shell_0000000301   
       301   4  1.188288E-05  8.999629E+00 -9.437731E-07  3.230877E-05 -3.658940E-06 -1.366662E-06 _shell_0000000301   
       301   5  4.025569E-05  8.999651E+00  2.744619E-06  4.317968E-05  1.347043E-06  2.251465E-06 _shell_0000000301   
       301   6  6.367927E-05  8.999666E+00 -3.564833E-06  4.602173E-05  6.353026E-06  3.868689E-07 _shell_0000000301   
       301   7  6.865037E-06  8.999603E+00  1.621769E-06  1.731454E-05  1.275676E-06 -2.156580E-06 _shell_0000000301   
       301   8  2.938262E-05  8.999645E+00 -3.514502E-07  3.040361E-05  1.385549E-07  1.440346E-06 _shell_0000000301   
       301   9  5.243369E-05  8.999687E+00  4.705056E-07  3.546383E-05 -9.985664E-07 -4.454507E-07 _shell_0000000301   
       301  10  2.483930E-05  8.999652E+00 -5.749812E-06  5.069611E-05  7.395407E-15  1.343851E-14 _shell_0000000301   
       301  11  6.254866E-05  8.999659E+00  9.280818E-06  5.679754E-05  7.387801E-15  6.423904E-15 _shell_0000000301   
       301  12  8.982606E-05  8.999654E+00  1.520583E-06  5.487013E-05  1.174625E-14 -2.401780E-14 _shell_0000000301   
       301  13  1.281218E-05  8.999624E+00 -2.349038E-06  3.162193E-05 -9.875264E-15  9.773457E-15 _shell_0000000301   
       301  14  4.301682E-05  8.999650E+00  3.171176E-06  3.994153E-05 -1.686618E-15 -5.660353E-15 _shell_0000000301   
       301  15  6.827222E-05  8.999669E+00 -1.306454E-06  4.023228E-05  7.596613E-15 -2.817002E-14 _shell_0000000301   
       301  16  3.329550E-06  8.999595E+00 -1.696976E-06  1.723830E-05 -2.110882E-14  1.404935E-14 _shell_0000000301   
       301  17  2.767895E-05  8.999642E+00 -1.838374E-06  2.777607E-05 -1.373054E-14 -5.359948E-15 _shell_0000000301   
       301  18  5.256185E-05  8.999688E+00  8.154037E-07  3.028498E-05  8.309120E-17 -2.651494E-14 _shell_0000000301   
       301  19  1.944521E-05  8.999656E+00 -6.258027E-06  5.199356E-05  9.418299E-06  5.767447E-07 _shell_0000000301   
       301  20  5.532275E-05  8.999658E+00  6.940781E-06  6.064630E-05 -1.730788E-06 -3.062583E-06 _shell_0000000301   
       301  21  8.076833E-05  8.999649E+00 -2.651276E-06  6.127019E-05 -1.287987E-05 -1.219189E-06 _shell_0000000301   
       301  22  1.188288E-05  8.999629E+00 -9.437731E-07  3.230877E-05  3.658940E-06  1.366662E-06 _shell_0000000301   
       301  23  4.025569E-05  8.999651E+00  2.744619E-06  4.317968E-05 -1.347043E-06 -2.251465E-06 _shell_0000000301   
       301  24  6.367927E-05  8.999666E+00 -3.564833E-06  4.602173E-05 -6.353026E-06 -3.868690E-07 _shell_0000000301   
       301  25  6.865037E-06  8.999603E+00  1.621769E-06  1.731454E-05 -1.275676E-06  2.156580E-06 _shell_0000000301   
       301  26  2.938262E-05  8.999645E+00 -3.514502E-07  3.040361E-05 -1.385549E-07 -1.440346E-06 _shell_0000000301   
       301  27  5.243369E-05  8.999687E+00  4.705057E-07  3.546383E-05  9.985664E-07  4.454506E-07 _shell_0000000301   
       302   1  1.079054E-04  8.999678E+00  2.002473E-06  1.334657E-05  1.179053E-05 -4.208284E-08 _shell_0000000302   
       302   2  9.081309E-05  8.999764E+00  2.296072E-06 -8.375337E-06  6.874243E-06  3.426762E-07 _shell_0000000302   
       302   3  7.716026E-05  8.999860E+00  2.933707E-06 -2.303729E-05  1.957953E-06 -3.002522E-07 _shell_0000000302   
       302   4  8.319703E-05  8.999696E+00 -1.682607E-07  1.491743E-05  5.321458E-06 -7.201310E-07 _shell_0000000302   
       302   5  7.143931E-05  8.999769E+00 -3.137171E-07 -3.623870E-06  3.066622E-06  2.159815E-07 _shell_0000000302   
       302   6  6.414881E-05  8.999854E+00  2.282800E-06 -1.510523E-05  8.117856E-07  1.244065E-07 _shell_0000000302   
       302   7  6.216035E-05  8.999717E+00  2.027675E-06  1.382665E-05 -6.372590E-07 -1.398179E-06 _shell_0000000302   
       302   8  5.471657E-05  8.999776E+00 -9.385087E-07 -1.534053E-06 -2.306414E-07  8.928669E-08 _shell_0000000302   
       302   9  5.276768E-05  8.999849E+00  1.235219E-06 -9.834811E-06  1.759763E-07  5.490651E-07 _shell_0000000302   
       302  10  1.008161E-04  8.999677E+00 -5.290446E-07  9.361253E-06  9.709828E-15 -2.870953E-14 _shell_0000000302   
       302  11  8.319572E-05  8.999761E+00 -7.634788E-07 -9.979179E-06  5.059709E-15 -1.924220E-15 _shell_0000000302   
       302  12  6.901485E-05  8.999856E+00 -6.538775E-07 -2.225966E-05  8.034599E-15  1.171640E-14 _shell_0000000302   
       302  13  8.027526E-05  8.999697E+00 -9.136738E-07  1.075611E-05  1.005493E-14 -3.094925E-14 _shell_0000000302   
       302  14  6.798952E-05  8.999768E+00 -1.587163E-06 -5.403723E-06  5.701131E-15 -8.867283E-15 _shell_0000000302   
       302  15  6.017098E-05  8.999852E+00  4.813200E-07 -1.450361E-05  6.369691E-15  9.739116E-15 _shell_0000000302   
       302  16  6.340616E-05  8.999719E+00  3.068366E-06  9.489315E-06  3.766853E-15 -2.687701E-14 _shell_0000000302   
       302  17  5.543435E-05  8.999777E+00 -4.258502E-07 -3.489917E-06  3.430672E-15 -1.095935E-14 _shell_0000000302   
       302  18  5.295743E-05  8.999849E+00  1.219844E-06 -9.409202E-06  1.289495E-14  9.753756E-15 _shell_0000000302   
       302  19  1.079054E-04  8.999678E+00  2.002473E-06  1.334657E-05 -1.179053E-05  4.208278E-08 _shell_0000000302   
       302  20  9.081309E-05  8.999764E+00  2.296072E-06 -8.375337E-06 -6.874243E-06 -3.426762E-07 _shell_0000000302   
       302  21  7.716026E-05  8.999860E+00  2.933707E-06 -2.303729E-05 -1.957953E-06  3.002522E-07 _shell_0000000302   
       302  22  8.319703E-05  8.999696E+00 -1.682607E-07  1.491743E-05 -5.321458E-06  7.201310E-07 _shell_0000000302   
       302  23  7.143931E-05  8.999769E+00 -3.137171E-07 -3.623870E-06 -3.066622E-06 -2.159815E-07 _shell_0000000302   
       302  24  6.414881E-05  8.999854E+00  2.282800E-06 -1.510523E-05 -8.117855E-07 -1.244065E-07 _shell_0000000302   
       302  25  6.216035E-05  8.999717E+00  2.027675E-06  1.382665E-05  6.372590E-07  1.398179E-06 _shell_0000000302   
       302  26  5.471657E-05  8.999776E+00 -9.385087E-07 -1.534053E-06  2.306414E-07 -8.928670E-08 _shell_0000000302   
       302  27  5.276768E-05  8.999849E+00  1.235219E-06 -9.834811E-06 -1.759763E-07 -5.490651E-07 _shell_0000000302   
       303   1  6.789978E-05  8.999904E+00 -6.879652E-09 -2.631460E-06 -1.532683E-06 -6.020279E-07 _shell_0000000303   
       303   2  7.607464E-05  8.999952E+00  1.089231E-06  1.408063E-05 -9.659034E-07 -2.874626E-07 _shell_0000000303   
       303   3  7.696755E-05  8.999979E+00 -1.216441E-06  2.953477E-05 -3.991239E-07  9.730756E-08 _shell_0000000303   
       303   4  5.470921E-05  8.999895E+00 -3.492023E-07 -2.286115E-06 -6.551421E-07 -1.035084E-07 _shell_0000000303   
       303   5  6.195105E-05  8.999945E+00  1.089257E-06  1.246876E-05 -4.976322E-07 -8.647466E-08 _shell_0000000303   
       303   6  6.184073E-05  8.999974E+00 -1.037878E-06  2.596569E-05 -3.401224E-07  7.640057E-10 _shell_0000000303   
       303   7  4.321900E-05  8.999886E+00 -1.524507E-06 -1.522328E-06  1.327045E-07  3.950110E-07 _shell_0000000303   
       303   8  4.970720E-05  8.999938E+00  6.748730E-07  1.127534E-05 -1.190553E-07  1.145133E-07 _shell_0000000303   
       303   9  4.877304E-05  8.999969E+00 -8.551521E-07  2.281505E-05 -3.708150E-07 -9.577956E-08 _shell_0000000303   
       303  10  7.019190E-05  8.999904E+00  7.688576E-07 -1.866015E-06  5.929493E-15  4.479492E-15 _shell_0000000303   
       303  11  7.823385E-05  8.999952E+00  1.732057E-06  1.451280E-05  2.247226E-15  1.004799E-17 _shell_0000000303   
       303  12  7.899384E-05  8.999979E+00 -7.065255E-07  2.963366E-05  5.960753E-15  1.787570E-14 _shell_0000000303   
       303  13  5.641809E-05  8.999895E+00  1.765757E-07 -1.564973E-06  7.053149E-15  6.515672E-15 _shell_0000000303   
       303  14  6.352701E-05  8.999945E+00  1.482124E-06  1.285662E-05  4.886689E-15 -3.217030E-15 _shell_0000000303   
       303  15  6.328379E-05  8.999973E+00 -7.779223E-07  2.602027E-05  9.632734E-15  2.092636E-14 _shell_0000000303   
       303  16  4.434464E-05  8.999886E+00 -1.248688E-06 -8.454906E-07  1.307021E-14  6.108418E-15 _shell_0000000303   
       303  17  5.069993E-05  8.999938E+00  8.177808E-07  1.161889E-05  7.425786E-15 -5.665513E-15 _shell_0000000303   
       303  18  4.963286E-05  8.999968E+00 -8.451554E-07  2.282533E-05  2.110569E-14  1.537861E-14 _shell_0000000303   
       303  19  6.789978E-05  8.999904E+00 -6.879669E-09 -2.631460E-06  1.532683E-06  6.020279E-07 _shell_0000000303   
       303  20  7.607464E-05  8.999952E+00  1.089231E-06  1.408063E-05  9.659034E-07  2.874626E-07 _shell_0000000303   
       303  21  7.696755E-05  8.999979E+00 -1.216441E-06  2.953477E-05  3.991240E-07 -9.730753E-08 _shell_0000000303   
       303  22  5.470921E-05  8.999895E+00 -3.492024E-07 -2.286115E-06  6.551421E-07  1.035085E-07 _shell_0000000303   
       303  23  6.195105E-05  8.999945E+00  1.089257E-06  1.246876E-05  4.976322E-07  8.647466E-08 _shell_0000000303   
       303  24  6.184073E-05  8.999974E+00 -1.037878E-06  2.596569E-05  3.401224E-07 -7.639669E-10 _shell_0000000303   
       303  25  4.321900E-05  8.999886E+00 -1.524507E-06 -1.522328E-06 -1.327044E-07 -3.950110E-07 _shell_0000000303   
       303  26  4.970720E-05  8.999938E+00  6.748730E-07  1.127534E-05  1.190553E-07 -1.145133E-07 _shell_0000000303   
       303  27  4.877304E-05  8.999969E+00 -8.551521E-07  2.281505E-05  3.708150E-07  9.577959E-08 _shell_0000000303   
       304   1  8.215741E-05  8.999990E+00 -6.859488E-07  3.489500E-05  2.711783E-08  1.910566E-07 _shell_0000000304   
       304   2  8.950710E-05  9.000003E+00 -8.767119E-08  3.822685E-05  1.185282E-08  5.826154E-08 _shell_0000000304   
       304   3  9.465511E-05  9.000010E+00  1.854947E-07  4.135180E-05 -3.412191E-09 -1.130704E-07 _shell_0000000304   
       304   4  6.758253E-05  8.999986E+00 -2.792130E-07  3.132716E-05  1.787743E-07  3.966926E-08 _shell_0000000304   
       304   5  7.499808E-05  9.000001E+00 -1.562775E-07  3.500457E-05  6.835154E-08  1.593573E-08 _shell_0000000304   
       304   6  8.025047E-05  9.000009E+00 -2.685342E-07  3.847509E-05 -4.207124E-08 -4.633469E-08 _shell_0000000304   
       304   7  5.532875E-05  8.999983E+00  3.813991E-07  2.808898E-05  2.961398E-07 -1.117180E-07 _shell_0000000304   
       304   8  6.287873E-05  9.000000E+00  1.890177E-07  3.211196E-05  9.055916E-08 -2.639009E-08 _shell_0000000304   
       304   9  6.830410E-05  9.000010E+00 -1.486363E-07  3.592804E-05 -1.150214E-07  2.040097E-08 _shell_0000000304   
       304  10  8.245311E-05  8.999989E+00 -9.065879E-07  3.451806E-05  7.670667E-15  1.343849E-14 _shell_0000000304   
       304  11  9.000265E-05  9.000003E+00 -1.084611E-07  3.779299E-05  8.382589E-15 -6.709145E-15 _shell_0000000304   
       304  12  9.535050E-05  9.000010E+00  3.645539E-07  4.086103E-05  1.076828E-14  3.116147E-14 _shell_0000000304   
       304  13  6.777862E-05  8.999985E+00 -5.425399E-07  3.101683E-05  1.649876E-14  1.468322E-14 _shell_0000000304   
       304  14  7.539402E-05  9.000001E+00 -2.197552E-07  3.463733E-05  7.276135E-15 -1.611150E-15 _shell_0000000304   
       304  15  8.084626E-05  9.000009E+00 -1.321627E-07  3.805093E-05  8.767370E-15  3.904798E-14 _shell_0000000304   
       304  16  5.542523E-05  8.999982E+00  7.538444E-08  2.784527E-05  2.056347E-14  1.303127E-14 _shell_0000000304   
       304  17  6.317506E-05  8.999999E+00  8.285229E-08  3.181133E-05  1.207452E-14 -3.323919E-15 _shell_0000000304   
       304  18  6.880028E-05  9.000010E+00 -5.495261E-08  3.557049E-05  1.185417E-14  3.953225E-14 _shell_0000000304   
       304  19  8.215741E-05  8.999990E+00 -6.859488E-07  3.489500E-05 -2.711781E-08 -1.910565E-07 _shell_0000000304   
       304  20  8.950710E-05  9.000003E+00 -8.767117E-08  3.822685E-05 -1.185280E-08 -5.826156E-08 _shell_0000000304   
       304  21  9.465511E-05  9.000010E+00  1.854947E-07  4.135180E-05  3.412219E-09  1.130704E-07 _shell_0000000304   
       304  22  6.758253E-05  8.999986E+00 -2.792130E-07  3.132716E-05 -1.787743E-07 -3.966924E-08 _shell_0000000304   
       304  23  7.499808E-05  9.000001E+00 -1.562775E-07  3.500457E-05 -6.835152E-08 -1.593574E-08 _shell_0000000304   
       304  24  8.025047E-05  9.000009E+00 -2.685341E-07  3.847509E-05  4.207127E-08  4.633476E-08 _shell_0000000304   
       304  25  5.532875E-05  8.999983E+00  3.813991E-07  2.808898E-05 -2.961397E-07  1.117180E-07 _shell_0000000304   
       304  26  6.287873E-05  9.000000E+00  1.890177E-07  3.211196E-05 -9.055914E-08  2.639010E-08 _shell_0000000304   
       304  27  6.830410E-05  9.000010E+00 -1.486363E-07  3.592804E-05  1.150214E-07 -2.040089E-08 _shell_0000000304   
       305   1  9.612837E-05  9.000012E+00  1.221113E-07  4.002736E-05  1.108070E-07 -1.190392E-07 _shell_0000000305   
       305   2  9.819996E-05  9.000014E+00  2.070073E-07  3.626985E-05  5.482265E-08 -1.477340E-08 _shell_0000000305   
       305   3  9.965361E-05  9.000015E+00  1.057435E-07  3.344205E-05 -1.161690E-09 -2.116613E-08 _shell_0000000305   
       305   4  8.374172E-05  9.000012E+00  1.500384E-07  3.787792E-05  7.180884E-08 -3.048994E-08 _shell_0000000305   
       305   5  8.708365E-05  9.000015E+00 -1.760532E-08  3.459924E-05  4.046318E-08  3.967653E-08 _shell_0000000305   
       305   6  8.991830E-05  9.000017E+00 -1.132056E-07  3.225027E-05  9.117539E-09 -8.154875E-10 _shell_0000000305   
       305   7  7.252689E-05  9.000013E+00  2.697039E-07  3.575790E-05  4.730412E-09  5.805930E-08 _shell_0000000305   
       305   8  7.719532E-05  9.000017E+00 -1.943827E-08  3.295805E-05 -1.976564E-09  9.412647E-08 _shell_0000000305   
       305   9  8.146714E-05  9.000019E+00  2.166624E-08  3.108791E-05 -8.683524E-09  1.953517E-08 _shell_0000000305   
       305  10  9.612459E-05  9.000011E+00  3.888170E-08  3.967227E-05  8.270295E-15  3.705769E-14 _shell_0000000305   
       305  11  9.822100E-05  9.000014E+00  1.485966E-07  3.597474E-05  3.922605E-15  1.944460E-15 _shell_0000000305   
       305  12  9.969947E-05  9.000015E+00  7.215168E-08  3.320691E-05  5.948263E-15  1.171639E-14 _shell_0000000305   
       305  13  8.384290E-05  9.000012E+00  1.117907E-07  3.753111E-05  8.169999E-15  3.911439E-14 _shell_0000000305   
       305  14  8.720965E-05  9.000015E+00 -3.103409E-08  3.431240E-05  4.940638E-15 -7.227720E-16 _shell_0000000305   
       305  15  9.006912E-05  9.000017E+00 -1.018155E-07  3.202341E-05  9.490471E-15  1.967289E-15 _shell_0000000305   
       305  16  7.273302E-05  9.000013E+00  2.764382E-07  3.541935E-05  1.244589E-14  4.235165E-14 _shell_0000000305   
       305  17  7.742628E-05  9.000017E+00  1.211493E-08  3.267948E-05  5.877804E-15  3.191723E-15 _shell_0000000305   
       305  18  8.172291E-05  9.000019E+00  7.803834E-08  3.086932E-05  8.205218E-15 -4.270154E-15 _shell_0000000305   
       305  19  9.612837E-05  9.000012E+00  1.221113E-07  4.002736E-05 -1.108070E-07  1.190392E-07 _shell_0000000305   
       305  20  9.819996E-05  9.000014E+00  2.070073E-07  3.626985E-05 -5.482264E-08  1.477342E-08 _shell_0000000305   
       305  21  9.965361E-05  9.000015E+00  1.057435E-07  3.344205E-05  1.161702E-09  2.116617E-08 _shell_0000000305   
       305  22  8.374172E-05  9.000012E+00  1.500384E-07  3.787792E-05 -7.180882E-08  3.049001E-08 _shell_0000000305   
       305  23  8.708365E-05  9.000015E+00 -1.760532E-08  3.459924E-05 -4.046316E-08 -3.967653E-08 _shell_0000000305   
       305  24  8.991830E-05  9.000017E+00 -1.132056E-07  3.225027E-05 -9.117512E-09  8.154934E-10 _shell_0000000305   
       305  25  7.252689E-05  9.000013E+00  2.697039E-07  3.575790E-05 -4.730389E-09 -5.805922E-08 _shell_0000000305   
       305  26  7.719532E-05  9.000017E+00 -1.943826E-08  3.295805E-05  1.976569E-09 -9.412647E-08 _shell_0000000305   
       305  27  8.146714E-05  9.000019E+00  2.166624E-08  3.108791E-05  8.683533E-09 -1.953516E-08 _shell_0000000305   
       306   1  9.983130E-05  9.000015E+00 -4.955302E-08  3.037383E-05 -6.944631E-08 -2.995858E-08 _shell_0000000306   
       306   2  1.000845E-04  9.000015E+00 -1.726642E-08  2.510721E-05 -3.101771E-08 -2.662830E-09 _shell_0000000306   
       306   3  1.002617E-04  9.000014E+00  5.313579E-08  2.067097E-05  7.410891E-09 -6.833744E-09 _shell_0000000306   
       306   4  9.148442E-05  9.000017E+00  1.896320E-08  2.951550E-05 -3.653692E-08 -1.994986E-08 _shell_0000000306   
       306   5  9.279873E-05  9.000017E+00 -6.214421E-08  2.446354E-05 -7.305756E-09  5.905164E-09 _shell_0000000306   
       306   6  9.406840E-05  9.000017E+00 -3.171372E-08  2.024196E-05  2.192540E-08  2.935263E-10 _shell_0000000306   
       306   7  8.352835E-05  9.000019E+00  1.041136E-07  2.861250E-05 -1.673967E-08 -9.941175E-09 _shell_0000000306   
       306   8  8.592997E-05  9.000019E+00 -2.919790E-08  2.377521E-05  3.294060E-09  1.447315E-08 _shell_0000000306   
       306   9  8.831841E-05  9.000019E+00  2.245081E-08  1.976829E-05  2.332779E-08  7.420812E-09 _shell_0000000306   
       306  10  9.986011E-05  9.000015E+00 -8.168610E-08  3.020437E-05  8.592975E-15  1.119875E-14 _shell_0000000306   
       306  11  1.001412E-04  9.000015E+00 -2.151798E-08  2.494266E-05  5.614260E-15  3.675176E-15 _shell_0000000306   
       306  12  1.003462E-04  9.000014E+00  7.676573E-08  2.051132E-05  4.704788E-15  4.663613E-14 _shell_0000000306   
       306  13  9.152181E-05  9.000017E+00 -9.493429E-09  2.935533E-05  9.340778E-15  4.912180E-15 _shell_0000000306   
       306  14  9.286400E-05  9.000017E+00 -6.271934E-08  2.430828E-05  6.108400E-15  8.259232E-15 _shell_0000000306   
       306  15  9.416156E-05  9.000017E+00 -4.407359E-09  2.009160E-05  1.702245E-15  4.559153E-14 _shell_0000000306   
       306  16  8.357432E-05  9.000019E+00  7.933339E-08  2.846163E-05  8.351186E-15 -2.443365E-15 _shell_0000000306   
       306  17  8.600382E-05  9.000019E+00 -2.609656E-08  2.362924E-05  5.835989E-15  9.198327E-15 _shell_0000000306   
       306  18  8.842015E-05  9.000019E+00  5.343362E-08  1.962723E-05  3.948731E-15  3.909956E-14 _shell_0000000306   
       306  19  9.983130E-05  9.000015E+00 -4.955307E-08  3.037383E-05  6.944632E-08  2.995859E-08 _shell_0000000306   
       306  20  1.000845E-04  9.000015E+00 -1.726639E-08  2.510721E-05  3.101772E-08  2.662854E-09 _shell_0000000306   
       306  21  1.002617E-04  9.000014E+00  5.313581E-08  2.067097E-05 -7.410888E-09  6.833830E-09 _shell_0000000306   
       306  22  9.148442E-05  9.000017E+00  1.896317E-08  2.951550E-05  3.653694E-08  1.994987E-08 _shell_0000000306   
       306  23  9.279873E-05  9.000017E+00 -6.214420E-08  2.446354E-05  7.305772E-09 -5.905153E-09 _shell_0000000306   
       306  24  9.406840E-05  9.000017E+00 -3.171374E-08  2.024196E-05 -2.192541E-08 -2.934440E-10 _shell_0000000306   
       306  25  8.352835E-05  9.000019E+00  1.041136E-07  2.861250E-05  1.673969E-08  9.941169E-09 _shell_0000000306   
       306  26  8.592997E-05  9.000019E+00 -2.919790E-08  2.377521E-05 -3.294048E-09 -1.447313E-08 _shell_0000000306   
       306  27  8.831841E-05  9.000019E+00  2.245079E-08  1.976829E-05 -2.332778E-08 -7.420714E-09 _shell_0000000306   
       307   1  1.001300E-04  9.000014E+00  3.149758E-08  1.752851E-05  1.913322E-08 -7.930849E-09 _shell_0000000307   
       307   2  9.993703E-05  9.000013E+00  2.372753E-08  1.240482E-05  7.173033E-09  3.354045E-09 _shell_0000000307   
       307   3  9.980270E-05  9.000013E+00  3.415074E-08  7.738857E-06 -4.787139E-09  3.396630E-11 _shell_0000000307   
       307   4  9.463226E-05  9.000016E+00  2.250670E-08  1.722048E-05 -3.816704E-09 -1.710155E-09 _shell_0000000307   
       307   5  9.501092E-05  9.000016E+00 -1.646874E-08  1.219941E-05  4.422250E-09  7.899944E-09 _shell_0000000307   
       307   6  9.546282E-05  9.000015E+00 -3.172506E-09  7.636050E-06  1.266122E-08  2.905096E-09 _shell_0000000307   
       307   7  8.924531E-05  9.000019E+00  2.885568E-08  1.687228E-05 -3.062859E-08  4.510514E-09 _shell_0000000307   
       307   8  9.020333E-05  9.000018E+00 -2.330267E-08  1.195381E-05 -2.190474E-09  1.244587E-08 _shell_0000000307   
       307   9  9.124919E-05  9.000018E+00  1.088907E-08  7.493063E-06  2.624762E-08  5.776244E-09 _shell_0000000307   
       307  10  1.000824E-04  9.000014E+00  4.253400E-09  1.742971E-05  5.060119E-16  4.255526E-14 _shell_0000000307   
       307  11  9.989625E-05  9.000013E+00  3.288653E-09  1.232665E-05 -7.270356E-15  3.369759E-15 _shell_0000000307   
       307  12  9.976872E-05  9.000013E+00  2.051712E-08  7.681315E-06 -2.529483E-15  3.958601E-14 _shell_0000000307   
       307  13  9.462077E-05  9.000016E+00  1.073220E-08  1.712396E-05 -2.245797E-15  4.069729E-14 _shell_0000000307   
       307  14  9.500623E-05  9.000016E+00 -2.143794E-08  1.212351E-05 -2.227662E-15 -4.845956E-15 _shell_0000000307   
       307  15  9.546494E-05  9.000015E+00 -1.336421E-09  7.580777E-06 -2.133407E-15  2.235166E-14 _shell_0000000307   
       307  16  8.926992E-05  9.000019E+00  3.255087E-08  1.677802E-05  3.222666E-15  3.318903E-14 _shell_0000000307   
       307  17  9.023474E-05  9.000018E+00 -1.280218E-08  1.188018E-05 -7.484984E-17 -2.713072E-15 _shell_0000000307   
       307  18  9.128740E-05  9.000018E+00  2.819484E-08  7.440057E-06 -2.423898E-15  1.049183E-14 _shell_0000000307   
       307  19  1.001300E-04  9.000014E+00  3.149755E-08  1.752851E-05 -1.913323E-08  7.930920E-09 _shell_0000000307   
       307  20  9.993703E-05  9.000013E+00  2.372750E-08  1.240482E-05 -7.173054E-09 -3.354034E-09 _shell_0000000307   
       307  21  9.980270E-05  9.000013E+00  3.415065E-08  7.738857E-06  4.787136E-09 -3.388447E-11 _shell_0000000307   
       307  22  9.463226E-05  9.000016E+00  2.250667E-08  1.722048E-05  3.816701E-09  1.710243E-09 _shell_0000000307   
       307  23  9.501092E-05  9.000016E+00 -1.646876E-08  1.219941E-05 -4.422267E-09 -7.899952E-09 _shell_0000000307   
       307  24  9.546282E-05  9.000015E+00 -3.172564E-09  7.636050E-06 -1.266122E-08 -2.905061E-09 _shell_0000000307   
       307  25  8.924531E-05  9.000019E+00  2.885566E-08  1.687228E-05  3.062859E-08 -4.510448E-09 _shell_0000000307   
       307  26  9.020333E-05  9.000018E+00 -2.330268E-08  1.195381E-05  2.190488E-09 -1.244587E-08 _shell_0000000307   
       307  27  9.124919E-05  9.000018E+00  1.088904E-08  7.493063E-06 -2.624762E-08 -5.776216E-09 _shell_0000000307   
       308   1  9.970937E-05  9.000013E+00  1.415917E-08  4.764703E-06 -3.080241E-09 -2.181466E-09 _shell_0000000308   
       308   2  9.965698E-05  9.000013E+00 -6.009778E-09  1.247134E-14  1.122102E-14  5.956683E-11 _shell_0000000308   
       308   3  9.970937E-05  9.000013E+00  1.415917E-08 -4.764703E-06  3.080245E-09 -2.181510E-09 _shell_0000000308   
       308   4  9.560462E-05  9.000015E+00  7.712105E-09  4.705567E-06 -1.479228E-08  2.023127E-10 _shell_0000000308   
       308   5  9.554999E-05  9.000015E+00 -1.768596E-08  1.046065E-14  1.972508E-15  2.443342E-09 _shell_0000000308   
       308   6  9.560463E-05  9.000015E+00  7.712118E-09 -4.705567E-06  1.479228E-08  2.022620E-10 _shell_0000000308   
       308   7  9.151487E-05  9.000017E+00  9.250842E-09  4.646431E-06 -2.650431E-08  2.586095E-09 _shell_0000000308   
       308   8  9.145799E-05  9.000017E+00 -2.137638E-08  1.145327E-15 -6.808333E-16  4.827135E-09 _shell_0000000308   
       308   9  9.151487E-05  9.000017E+00  9.250829E-09 -4.646431E-06  2.650430E-08  2.586057E-09 _shell_0000000308   
       308  10  9.968530E-05  9.000013E+00  5.901982E-09  4.754238E-06  3.633550E-15  5.049619E-14 _shell_0000000308   
       308  11  9.963291E-05  9.000013E+00 -1.426695E-08 -1.954691E-14  1.133055E-14  5.711310E-15 _shell_0000000308   
       308  12  9.968530E-05  9.000013E+00  5.901993E-09 -4.754238E-06  7.185694E-15 -2.959175E-14 _shell_0000000308   
       308  13  9.559887E-05  9.000015E+00  7.303572E-09  4.695102E-06  2.367009E-15  2.769146E-14 _shell_0000000308   
       308  14  9.554423E-05  9.000015E+00 -1.809451E-08 -1.170779E-14  9.671650E-15 -7.736782E-16 _shell_0000000308   
       308  15  9.559887E-05  9.000015E+00  7.303586E-09 -4.695102E-06  5.993877E-15 -1.816991E-14 _shell_0000000308   
       308  16  9.152742E-05  9.000017E+00  1.669088E-08  4.635966E-06  1.428320E-15  1.791800E-14 _shell_0000000308   
       308  17  9.147055E-05  9.000017E+00 -1.393631E-08 -8.653582E-15  1.047426E-14  4.429405E-16 _shell_0000000308   
       308  18  9.152742E-05  9.000017E+00  1.669092E-08 -4.635966E-06  6.108474E-15 -3.150282E-15 _shell_0000000308   
       308  19  9.970937E-05  9.000013E+00  1.415907E-08  4.764703E-06  3.080242E-09  2.181568E-09 _shell_0000000308   
       308  20  9.965698E-05  9.000013E+00 -6.009822E-09 -5.965881E-14  9.926167E-15 -5.954845E-11 _shell_0000000308   
       308  21  9.970937E-05  9.000013E+00  1.415917E-08 -4.764703E-06 -3.080234E-09  2.181450E-09 _shell_0000000308   
       308  22  9.560462E-05  9.000015E+00  7.712060E-09  4.705567E-06  1.479228E-08 -2.022573E-10 _shell_0000000308   
       308  23  9.554999E-05  9.000015E+00 -1.768597E-08 -2.853137E-14  9.926167E-15 -2.443348E-09 _shell_0000000308   
       308  24  9.560463E-05  9.000015E+00  7.712160E-09 -4.705567E-06 -1.479227E-08 -2.023040E-10 _shell_0000000308   
       308  25  9.151487E-05  9.000017E+00  9.250831E-09  4.646431E-06  2.650431E-08 -2.586069E-09 _shell_0000000308   
       308  26  9.145799E-05  9.000017E+00 -2.137634E-08 -1.639090E-14  1.043520E-14 -4.827126E-09 _shell_0000000308   
       308  27  9.151487E-05  9.000017E+00  9.250890E-09 -4.646431E-06 -2.650430E-08 -2.586059E-09 _shell_0000000308   
       309   1  9.980270E-05  9.000013E+00  3.415073E-08 -7.738857E-06  4.787147E-09  3.392876E-11 _shell_0000000309   
       309   2  9.993703E-05  9.000013E+00  2.372754E-08 -1.240482E-05 -7.173048E-09  3.354061E-09 _shell_0000000309   
       309   3  1.001300E-04  9.000014E+00  3.149758E-08 -1.752851E-05 -1.913325E-08 -7.930828E-09 _shell_0000000309   
       309   4  9.546282E-05  9.000015E+00 -3.172496E-09 -7.636050E-06 -1.266122E-08  2.905063E-09 _shell_0000000309   
       309   5  9.501092E-05  9.000016E+00 -1.646871E-08 -1.219941E-05 -4.422265E-09  7.899963E-09 _shell_0000000309   
       309   6  9.463226E-05  9.000016E+00  2.250669E-08 -1.722048E-05  3.816685E-09 -1.710152E-09 _shell_0000000309   
       309   7  9.124919E-05  9.000018E+00  1.088911E-08 -7.493063E-06 -2.624762E-08  5.776198E-09 _shell_0000000309   
       309   8  9.020333E-05  9.000018E+00 -2.330263E-08 -1.195381E-05  2.190486E-09  1.244586E-08 _shell_0000000309   
       309   9  8.924531E-05  9.000019E+00  2.885567E-08 -1.687228E-05  3.062859E-08  4.510523E-09 _shell_0000000309   
       309  10  9.976872E-05  9.000013E+00  2.051711E-08 -7.681315E-06  1.212138E-16 -2.972760E-14 _shell_0000000309   
       309  11  9.989625E-05  9.000013E+00  3.288624E-09 -1.232665E-05 -2.335517E-15  5.405892E-15 _shell_0000000309   
       309  12  1.000824E-04  9.000014E+00  4.253387E-09 -1.742971E-05 -7.849267E-15  4.750149E-14 _shell_0000000309   
       309  13  9.546494E-05  9.000015E+00 -1.336420E-09 -7.580777E-06 -5.720309E-16 -1.954692E-14 _shell_0000000309   
       309  14  9.500623E-05  9.000016E+00 -2.143795E-08 -1.212351E-05 -3.156008E-15 -6.718715E-16 _shell_0000000309   
       309  15  9.462077E-05  9.000016E+00  1.073218E-08 -1.712396E-05 -4.155311E-15  4.230336E-14 _shell_0000000309   
       309  16  9.128740E-05  9.000018E+00  2.819486E-08 -7.440057E-06  2.545171E-16 -5.701183E-15 _shell_0000000309   
       309  17  9.023474E-05  9.000018E+00 -1.280220E-08 -1.188018E-05 -3.200860E-15 -2.916684E-15 _shell_0000000309   
       309  18  8.926992E-05  9.000019E+00  3.255081E-08 -1.677802E-05 -5.242296E-15  2.853710E-14 _shell_0000000309   
       309  19  9.980270E-05  9.000013E+00  3.415071E-08 -7.738857E-06 -4.787139E-09 -3.399127E-11 _shell_0000000309   
       309  20  9.993703E-05  9.000013E+00  2.372751E-08 -1.240482E-05  7.173035E-09 -3.354046E-09 _shell_0000000309   
       309  21  1.001300E-04  9.000014E+00  3.149758E-08 -1.752851E-05  1.913322E-08  7.930911E-09 _shell_0000000309   
       309  22  9.546282E-05  9.000015E+00 -3.172452E-09 -7.636050E-06  1.266122E-08 -2.905105E-09 _shell_0000000309   
       309  23  9.501092E-05  9.000016E+00 -1.646873E-08 -1.219941E-05  4.422251E-09 -7.899951E-09 _shell_0000000309   
       309  24  9.463226E-05  9.000016E+00  2.250666E-08 -1.722048E-05 -3.816695E-09  1.710230E-09 _shell_0000000309   
       309  25  9.124919E-05  9.000018E+00  1.088918E-08 -7.493063E-06  2.624762E-08 -5.776207E-09 _shell_0000000309   
       309  26  9.020333E-05  9.000018E+00 -2.330264E-08 -1.195381E-05 -2.190500E-09 -1.244586E-08 _shell_0000000309   
       309  27  8.924531E-05  9.000019E+00  2.885561E-08 -1.687228E-05 -3.062860E-08 -4.510455E-09 _shell_0000000309   
       310   1  1.002617E-04  9.000014E+00  5.313578E-08 -2.067097E-05 -7.410906E-09 -6.833719E-09 _shell_0000000310   
       310   2  1.000845E-04  9.000015E+00 -1.726643E-08 -2.510721E-05  3.101772E-08 -2.662847E-09 _shell_0000000310   
       310   3  9.983130E-05  9.000015E+00 -4.955304E-08 -3.037383E-05  6.944635E-08 -2.995858E-08 _shell_0000000310   
       310   4  9.406840E-05  9.000017E+00 -3.171373E-08 -2.024196E-05 -2.192540E-08  2.935457E-10 _shell_0000000310   
       310   5  9.279873E-05  9.000017E+00 -6.214423E-08 -2.446354E-05  7.305771E-09  5.905155E-09 _shell_0000000310   
       310   6  9.148442E-05  9.000017E+00  1.896319E-08 -2.951550E-05  3.653694E-08 -1.994987E-08 _shell_0000000310   
       310   7  8.831841E-05  9.000019E+00  2.245079E-08 -1.976829E-05 -2.332779E-08  7.420810E-09 _shell_0000000310   
       310   8  8.592997E-05  9.000019E+00 -2.919791E-08 -2.377521E-05 -3.294053E-09  1.447314E-08 _shell_0000000310   
       310   9  8.352835E-05  9.000019E+00  1.041136E-07 -2.861250E-05  1.673968E-08 -9.941175E-09 _shell_0000000310   
       310  10  1.003462E-04  9.000014E+00  7.676570E-08 -2.051132E-05 -8.399065E-15  3.827937E-14 _shell_0000000310   
       310  11  1.001412E-04  9.000015E+00 -2.151798E-08 -2.494266E-05 -5.326735E-15 -6.912734E-15 _shell_0000000310   
       310  12  9.986011E-05  9.000015E+00 -8.168608E-08 -3.020437E-05 -5.767834E-15  1.214906E-14 _shell_0000000310   
       310  13  9.416156E-05  9.000017E+00 -4.407374E-09 -2.009160E-05 -1.285942E-15  3.418165E-14 _shell_0000000310   
       310  14  9.286400E-05  9.000017E+00 -6.271934E-08 -2.430828E-05  8.144652E-16 -7.238413E-15 _shell_0000000310   
       310  15  9.152181E-05  9.000017E+00 -9.493426E-09 -2.935533E-05  3.145672E-15  2.224260E-15 _shell_0000000310   
       310  16  8.842015E-05  9.000019E+00  5.343359E-08 -1.962723E-05 -3.563240E-16  2.708062E-14 _shell_0000000310   
       310  17  8.600382E-05  9.000019E+00 -2.609659E-08 -2.362924E-05  1.177081E-14 -5.767275E-15 _shell_0000000310   
       310  18  8.357432E-05  9.000019E+00  7.933340E-08 -2.846163E-05  9.885096E-15 -1.200748E-14 _shell_0000000310   
       310  19  1.002617E-04  9.000014E+00  5.313577E-08 -2.067097E-05  7.410887E-09  6.833802E-09 _shell_0000000310   
       310  20  1.000845E-04  9.000015E+00 -1.726639E-08 -2.510721E-05 -3.101773E-08  2.662829E-09 _shell_0000000310   
       310  21  9.983130E-05  9.000015E+00 -4.955308E-08 -3.037383E-05 -6.944635E-08  2.995861E-08 _shell_0000000310   
       310  22  9.406840E-05  9.000017E+00 -3.171375E-08 -2.024196E-05  2.192540E-08 -2.934774E-10 _shell_0000000310   
       310  23  9.279873E-05  9.000017E+00 -6.214422E-08 -2.446354E-05 -7.305772E-09 -5.905169E-09 _shell_0000000310   
       310  24  9.148442E-05  9.000017E+00  1.896314E-08 -2.951550E-05 -3.653694E-08  1.994989E-08 _shell_0000000310   
       310  25  8.831841E-05  9.000019E+00  2.245078E-08 -1.976829E-05  2.332778E-08 -7.420748E-09 _shell_0000000310   
       310  26  8.592997E-05  9.000019E+00 -2.919792E-08 -2.377521E-05  3.294071E-09 -1.447315E-08 _shell_0000000310   
       310  27  8.352835E-05  9.000019E+00  1.041135E-07 -2.861250E-05 -1.673966E-08  9.941158E-09 _shell_0000000310   
       311   1  9.965361E-05  9.000015E+00  1.057435E-07 -3.344205E-05  1.161733E-09 -2.116616E-08 _shell_0000000311   
       311   2  9.819996E-05  9.000014E+00  2.070073E-07 -3.626985E-05 -5.482264E-08 -1.477344E-08 _shell_0000000311   
       311   3  9.612837E-05  9.000012E+00  1.221113E-07 -4.002736E-05 -1.108070E-07 -1.190392E-07 _shell_0000000311   
       311   4  8.991830E-05  9.000017E+00 -1.132056E-07 -3.225027E-05 -9.117514E-09 -8.155098E-10 _shell_0000000311   
       311   5  8.708365E-05  9.000015E+00 -1.760536E-08 -3.459924E-05 -4.046317E-08  3.967651E-08 _shell_0000000311   
       311   6  8.374172E-05  9.000012E+00  1.500384E-07 -3.787792E-05 -7.180882E-08 -3.048995E-08 _shell_0000000311   
       311   7  8.146714E-05  9.000019E+00  2.166627E-08 -3.108791E-05  8.683532E-09  1.953515E-08 _shell_0000000311   
       311   8  7.719532E-05  9.000017E+00 -1.943832E-08 -3.295805E-05  1.976558E-09  9.412647E-08 _shell_0000000311   
       311   9  7.252689E-05  9.000013E+00  2.697039E-07 -3.575790E-05 -4.730390E-09  5.805928E-08 _shell_0000000311   
       311  10  9.969947E-05  9.000015E+00  7.215165E-08 -3.320691E-05  1.749488E-15  9.162610E-15 _shell_0000000311   
       311  11  9.822100E-05  9.000014E+00  1.485966E-07 -3.597474E-05  1.166593E-14 -2.198016E-14 _shell_0000000311   
       311  12  9.612459E-05  9.000011E+00  3.888165E-08 -3.967227E-05  1.066125E-14  5.989750E-15 _shell_0000000311   
       311  13  9.006912E-05  9.000017E+00 -1.018155E-07 -3.202341E-05  3.804403E-15 -3.232379E-15 _shell_0000000311   
       311  14  8.720965E-05  9.000015E+00 -3.103411E-08 -3.431240E-05  5.293975E-15 -2.026969E-14 _shell_0000000311   
       311  15  8.384290E-05  9.000012E+00  1.117907E-07 -3.753111E-05  7.670027E-15  4.436099E-15 _shell_0000000311   
       311  16  8.172291E-05  9.000019E+00  7.803835E-08 -3.086932E-05  5.045491E-15 -1.221683E-14 _shell_0000000311   
       311  17  7.742628E-05  9.000017E+00  1.211491E-08 -3.267948E-05  1.940411E-15 -1.655881E-14 _shell_0000000311   
       311  18  7.273302E-05  9.000013E+00  2.764382E-07 -3.541935E-05  2.290792E-15  3.161730E-15 _shell_0000000311   
       311  19  9.965361E-05  9.000015E+00  1.057435E-07 -3.344205E-05 -1.161715E-09  2.116617E-08 _shell_0000000311   
       311  20  9.819996E-05  9.000014E+00  2.070073E-07 -3.626985E-05  5.482266E-08  1.477339E-08 _shell_0000000311   
       311  21  9.612837E-05  9.000012E+00  1.221113E-07 -4.002736E-05  1.108070E-07  1.190392E-07 _shell_0000000311   
       311  22  8.991830E-05  9.000017E+00 -1.132056E-07 -3.225027E-05  9.117525E-09  8.155065E-10 _shell_0000000311   
       311  23  8.708365E-05  9.000015E+00 -1.760533E-08 -3.459924E-05  4.046319E-08 -3.967656E-08 _shell_0000000311   
       311  24  8.374172E-05  9.000012E+00  1.500384E-07 -3.787792E-05  7.180885E-08  3.048997E-08 _shell_0000000311   
       311  25  8.146714E-05  9.000019E+00  2.166620E-08 -3.108791E-05 -8.683522E-09 -1.953517E-08 _shell_0000000311   
       311  26  7.719532E-05  9.000017E+00 -1.943827E-08 -3.295805E-05 -1.976561E-09 -9.412650E-08 _shell_0000000311   
       311  27  7.252689E-05  9.000013E+00  2.697039E-07 -3.575790E-05  4.730399E-09 -5.805927E-08 _shell_0000000311   
       312   1  9.465511E-05  9.000010E+00  1.854947E-07 -4.135180E-05  3.412189E-09 -1.130704E-07 _shell_0000000312   
       312   2  8.950710E-05  9.000003E+00 -8.767114E-08 -3.822685E-05 -1.185280E-08  5.826153E-08 _shell_0000000312   
       312   3  8.215741E-05  8.999990E+00 -6.859488E-07 -3.489500E-05 -2.711778E-08  1.910565E-07 _shell_0000000312   
       312   4  8.025047E-05  9.000009E+00 -2.685341E-07 -3.847509E-05  4.207126E-08 -4.633471E-08 _shell_0000000312   
       312   5  7.499808E-05  9.000001E+00 -1.562775E-07 -3.500457E-05 -6.835153E-08  1.593569E-08 _shell_0000000312   
       312   6  6.758253E-05  8.999986E+00 -2.792131E-07 -3.132716E-05 -1.787743E-07  3.966920E-08 _shell_0000000312   
       312   7  6.830410E-05  9.000010E+00 -1.486363E-07 -3.592804E-05  1.150214E-07  2.040093E-08 _shell_0000000312   
       312   8  6.287873E-05  9.000000E+00  1.890177E-07 -3.211196E-05 -9.055914E-08 -2.639014E-08 _shell_0000000312   
       312   9  5.532875E-05  8.999983E+00  3.813990E-07 -2.808898E-05 -2.961397E-07 -1.117181E-07 _shell_0000000312   
       312  10  9.535050E-05  9.000010E+00  3.645539E-07 -4.086103E-05  5.083663E-15  1.689991E-14 _shell_0000000312   
       312  11  9.000265E-05  9.000003E+00 -1.084611E-07 -3.779299E-05 -5.252152E-15 -2.636810E-15 _shell_0000000312   
       312  12  8.245311E-05  8.999989E+00 -9.065879E-07 -3.451806E-05 -4.444976E-15  4.131729E-15 _shell_0000000312   
       312  13  8.084626E-05  9.000009E+00 -1.321627E-07 -3.805093E-05  7.888784E-15  1.140226E-14 _shell_0000000312   
       312  14  7.539402E-05  9.000001E+00 -2.197552E-07 -3.463733E-05 -3.665017E-15 -1.212514E-14 _shell_0000000312   
       312  15  6.777862E-05  8.999985E+00 -5.425399E-07 -3.101683E-05 -6.372021E-15  1.356490E-15 _shell_0000000312   
       312  16  6.880028E-05  9.000010E+00 -5.495259E-08 -3.557049E-05  5.090342E-16  4.886729E-15 _shell_0000000312   
       312  17  6.317506E-05  8.999999E+00  8.285228E-08 -3.181133E-05 -1.479183E-15 -7.497977E-15 _shell_0000000312   
       312  18  5.542523E-05  8.999982E+00  7.538442E-08 -2.784527E-05  1.946747E-16  9.779171E-15 _shell_0000000312   
       312  19  9.465511E-05  9.000010E+00  1.854947E-07 -4.135180E-05 -3.412173E-09  1.130704E-07 _shell_0000000312   
       312  20  8.950710E-05  9.000003E+00 -8.767120E-08 -3.822685E-05  1.185280E-08 -5.826152E-08 _shell_0000000312   
       312  21  8.215741E-05  8.999990E+00 -6.859488E-07 -3.489500E-05  2.711779E-08 -1.910565E-07 _shell_0000000312   
       312  22  8.025047E-05  9.000009E+00 -2.685342E-07 -3.847509E-05 -4.207125E-08  4.633473E-08 _shell_0000000312   
       312  23  7.499808E-05  9.000001E+00 -1.562775E-07 -3.500457E-05  6.835152E-08 -1.593571E-08 _shell_0000000312   
       312  24  6.758253E-05  8.999986E+00 -2.792130E-07 -3.132716E-05  1.787743E-07 -3.966919E-08 _shell_0000000312   
       312  25  6.830410E-05  9.000010E+00 -1.486363E-07 -3.592804E-05 -1.150214E-07 -2.040093E-08 _shell_0000000312   
       312  26  6.287873E-05  9.000000E+00  1.890177E-07 -3.211196E-05  9.055912E-08  2.639012E-08 _shell_0000000312   
       312  27  5.532875E-05  8.999983E+00  3.813991E-07 -2.808898E-05  2.961397E-07  1.117181E-07 _shell_0000000312   
       313   1  7.696755E-05  8.999979E+00 -1.216441E-06 -2.953477E-05  3.991239E-07  9.730751E-08 _shell_0000000313   
       313   2  7.607464E-05  8.999952E+00  1.089231E-06 -1.408063E-05  9.659034E-07 -2.874626E-07 _shell_0000000313   
       313   3  6.789978E-05  8.999904E+00 -6.879628E-09  2.631460E-06  1.532683E-06 -6.020279E-07 _shell_0000000313   
       313   4  6.184073E-05  8.999974E+00 -1.037878E-06 -2.596569E-05  3.401224E-07  7.639268E-10 _shell_0000000313   
       313   5  6.195105E-05  8.999945E+00  1.089257E-06 -1.246876E-05  4.976322E-07 -8.647467E-08 _shell_0000000313   
       313   6  5.470921E-05  8.999895E+00 -3.492024E-07  2.286115E-06  6.551421E-07 -1.035085E-07 _shell_0000000313   
       313   7  4.877304E-05  8.999969E+00 -8.551522E-07 -2.281505E-05  3.708150E-07 -9.577963E-08 _shell_0000000313   
       313   8  4.970720E-05  8.999938E+00  6.748730E-07 -1.127534E-05  1.190553E-07  1.145132E-07 _shell_0000000313   
       313   9  4.321900E-05  8.999886E+00 -1.524507E-06  1.522328E-06 -1.327044E-07  3.950110E-07 _shell_0000000313   
       313  10  7.899384E-05  8.999979E+00 -7.065256E-07 -2.963366E-05 -6.420511E-15  1.588179E-14 _shell_0000000313   
       313  11  7.823385E-05  8.999952E+00  1.732057E-06 -1.451280E-05 -1.267801E-14  4.489653E-15 _shell_0000000313   
       313  12  7.019190E-05  8.999904E+00  7.688576E-07  1.866015E-06 -5.920542E-15 -5.183650E-14 _shell_0000000313   
       313  13  6.328379E-05  8.999973E+00 -7.779223E-07 -2.602027E-05  8.845468E-17  9.773319E-15 _shell_0000000313   
       313  14  6.352701E-05  8.999945E+00  1.482124E-06 -1.285662E-05 -1.413156E-15 -7.248322E-15 _shell_0000000313   
       313  15  5.641809E-05  8.999895E+00  1.765757E-07  1.564973E-06  1.034422E-14 -4.260152E-14 _shell_0000000313   
       313  16  4.963286E-05  8.999968E+00 -8.451554E-07 -2.282533E-05  3.460814E-15  1.466006E-14 _shell_0000000313   
       313  17  5.069993E-05  8.999938E+00  8.177808E-07 -1.161889E-05  9.000885E-15 -8.617756E-15 _shell_0000000313   
       313  18  4.434464E-05  8.999886E+00 -1.248688E-06  8.454906E-07  1.929316E-14 -3.254702E-14 _shell_0000000313   
       313  19  7.696755E-05  8.999979E+00 -1.216441E-06 -2.953477E-05 -3.991240E-07 -9.730748E-08 _shell_0000000313   
       313  20  7.607464E-05  8.999952E+00  1.089231E-06 -1.408063E-05 -9.659034E-07  2.874626E-07 _shell_0000000313   
       313  21  6.789978E-05  8.999904E+00 -6.879571E-09  2.631460E-06 -1.532683E-06  6.020278E-07 _shell_0000000313   
       313  22  6.184073E-05  8.999974E+00 -1.037878E-06 -2.596569E-05 -3.401224E-07 -7.639121E-10 _shell_0000000313   
       313  23  6.195105E-05  8.999945E+00  1.089257E-06 -1.246876E-05 -4.976323E-07  8.647468E-08 _shell_0000000313   
       313  24  5.470921E-05  8.999895E+00 -3.492023E-07  2.286115E-06 -6.551421E-07  1.035084E-07 _shell_0000000313   
       313  25  4.877304E-05  8.999969E+00 -8.551521E-07 -2.281505E-05 -3.708150E-07  9.577966E-08 _shell_0000000313   
       313  26  4.970720E-05  8.999938E+00  6.748730E-07 -1.127534E-05 -1.190553E-07 -1.145133E-07 _shell_0000000313   
       313  27  4.321900E-05  8.999886E+00 -1.524507E-06  1.522328E-06  1.327045E-07 -3.950110E-07 _shell_0000000313   
       314   1  7.716026E-05  8.999860E+00  2.933707E-06  2.303729E-05 -1.957953E-06 -3.002522E-07 _shell_0000000314   
       314   2  9.081309E-05  8.999764E+00  2.296072E-06  8.375337E-06 -6.874243E-06  3.426762E-07 _shell_0000000314   
       314   3  1.079054E-04  8.999678E+00  2.002473E-06 -1.334657E-05 -1.179053E-05 -4.208279E-08 _shell_0000000314   
       314   4  6.414881E-05  8.999854E+00  2.282800E-06  1.510523E-05 -8.117856E-07  1.244065E-07 _shell_0000000314   
       314   5  7.143931E-05  8.999769E+00 -3.137171E-07  3.623870E-06 -3.066622E-06  2.159815E-07 _shell_0000000314   
       314   6  8.319703E-05  8.999696E+00 -1.682607E-07 -1.491743E-05 -5.321458E-06 -7.201310E-07 _shell_0000000314   
       314   7  5.276768E-05  8.999849E+00  1.235219E-06  9.834811E-06 -1.759763E-07  5.490651E-07 _shell_0000000314   
       314   8  5.471657E-05  8.999776E+00 -9.385087E-07  1.534053E-06  2.306413E-07  8.928669E-08 _shell_0000000314   
       314   9  6.216035E-05  8.999717E+00  2.027675E-06 -1.382665E-05  6.372590E-07 -1.398179E-06 _shell_0000000314   
       314  10  6.901485E-05  8.999856E+00 -6.538775E-07  2.225966E-05  3.362195E-16 -5.721581E-14 _shell_0000000314   
       314  11  8.319572E-05  8.999761E+00 -7.634788E-07  9.979179E-06 -6.000632E-15 -4.367726E-15 _shell_0000000314   
       314  12  1.008161E-04  8.999677E+00 -5.290446E-07 -9.361253E-06 -9.795891E-15  2.703826E-14 _shell_0000000314   
       314  13  6.017098E-05  8.999852E+00  4.813199E-07  1.450361E-05  8.908099E-16 -4.720315E-14 _shell_0000000314   
       314  14  6.798952E-05  8.999768E+00 -1.587163E-06  5.403723E-06 -1.406135E-14 -8.867072E-15 _shell_0000000314   
       314  15  8.027526E-05  8.999697E+00 -9.136738E-07 -1.075611E-05 -2.994286E-15  2.659947E-14 _shell_0000000314   
       314  16  5.295743E-05  8.999849E+00  1.219844E-06  9.409202E-06  8.068847E-15 -3.400330E-14 _shell_0000000314   
       314  17  5.543435E-05  8.999777E+00 -4.258501E-07  3.489917E-06 -8.797161E-15 -1.075589E-14 _shell_0000000314   
       314  18  6.340616E-05  8.999719E+00  3.068366E-06 -9.489315E-06 -7.287485E-15  2.471947E-14 _shell_0000000314   
       314  19  7.716026E-05  8.999860E+00  2.933707E-06  2.303729E-05  1.957953E-06  3.002521E-07 _shell_0000000314   
       314  20  9.081309E-05  8.999764E+00  2.296072E-06  8.375337E-06  6.874243E-06 -3.426763E-07 _shell_0000000314   
       314  21  1.079054E-04  8.999678E+00  2.002473E-06 -1.334657E-05  1.179053E-05  4.208284E-08 _shell_0000000314   
       314  22  6.414881E-05  8.999854E+00  2.282800E-06  1.510523E-05  8.117856E-07 -1.244065E-07 _shell_0000000314   
       314  23  7.143931E-05  8.999769E+00 -3.137172E-07  3.623870E-06  3.066622E-06 -2.159815E-07 _shell_0000000314   
       314  24  8.319703E-05  8.999696E+00 -1.682607E-07 -1.491743E-05  5.321458E-06  7.201311E-07 _shell_0000000314   
       314  25  5.276768E-05  8.999849E+00  1.235219E-06  9.834811E-06  1.759763E-07 -5.490652E-07 _shell_0000000314   
       314  26  5.471657E-05  8.999776E+00 -9.385087E-07  1.534053E-06 -2.306413E-07 -8.928672E-08 _shell_0000000314   
       314  27  6.216035E-05  8.999717E+00  2.027675E-06 -1.382665E-05 -6.372590E-07  1.398179E-06 _shell_0000000314   
       315   1  8.076833E-05  8.999649E+00 -2.651276E-06 -6.127019E-05 -1.287987E-05  1.219189E-06 _shell_0000000315   
       315   2  5.532275E-05  8.999658E+00  6.940781E-06 -6.064630E-05 -1.730788E-06  3.062583E-06 _shell_0000000315   
       315   3  1.944521E-05  8.999656E+00 -6.258027E-06 -5.199356E-05  9.418299E-06 -5.767447E-07 _shell_0000000315   
       315   4  6.367927E-05  8.999666E+00 -3.564833E-06 -4.602173E-05 -6.353026E-06  3.868690E-07 _shell_0000000315   
       315   5  4.025569E-05  8.999651E+00  2.744619E-06 -4.317968E-05 -1.347043E-06  2.251465E-06 _shell_0000000315   
       315   6  1.188288E-05  8.999629E+00 -9.437732E-07 -3.230877E-05  3.658939E-06 -1.366662E-06 _shell_0000000315   
       315   7  5.243369E-05  8.999687E+00  4.705056E-07 -3.546383E-05  9.985664E-07 -4.454506E-07 _shell_0000000315   
       315   8  2.938262E-05  8.999645E+00 -3.514502E-07 -3.040361E-05 -1.385549E-07  1.440346E-06 _shell_0000000315   
       315   9  6.865037E-06  8.999603E+00  1.621769E-06 -1.731454E-05 -1.275676E-06 -2.156579E-06 _shell_0000000315   
       315  10  8.982606E-05  8.999654E+00  1.520583E-06 -5.487013E-05 -7.647557E-15  1.913989E-14 _shell_0000000315   
       315  11  6.254866E-05  8.999659E+00  9.280818E-06 -5.679754E-05 -5.401850E-15 -4.469335E-15 _shell_0000000315   
       315  12  2.483930E-05  8.999652E+00 -5.749812E-06 -5.069611E-05 -2.511180E-14  2.146424E-14 _shell_0000000315   
       315  13  6.827222E-05  8.999669E+00 -1.306454E-06 -4.023228E-05  2.060242E-15  2.117543E-14 _shell_0000000315   
       315  14  4.301682E-05  8.999650E+00  3.171176E-06 -3.994153E-05 -8.143896E-16 -3.970766E-15 _shell_0000000315   
       315  15  1.281218E-05  8.999624E+00 -2.349038E-06 -3.162193E-05 -1.561399E-14  2.154470E-14 _shell_0000000315   
       315  16  5.256185E-05  8.999688E+00  8.154037E-07 -3.028498E-05 -1.571311E-15  2.199037E-14 _shell_0000000315   
       315  17  2.767895E-05  8.999642E+00 -1.838374E-06 -2.777607E-05  2.443462E-15 -1.287686E-15 _shell_0000000315   
       315  18  3.329550E-06  8.999595E+00 -1.696976E-06 -1.723830E-05  4.111210E-15  1.639662E-14 _shell_0000000315   
       315  19  8.076833E-05  8.999649E+00 -2.651276E-06 -6.127019E-05  1.287987E-05 -1.219189E-06 _shell_0000000315   
       315  20  5.532275E-05  8.999658E+00  6.940781E-06 -6.064630E-05  1.730788E-06 -3.062583E-06 _shell_0000000315   
       315  21  1.944521E-05  8.999656E+00 -6.258027E-06 -5.199356E-05 -9.418299E-06  5.767447E-07 _shell_0000000315   
       315  22  6.367927E-05  8.999666E+00 -3.564832E-06 -4.602173E-05  6.353026E-06 -3.868690E-07 _shell_0000000315   
       315  23  4.025569E-05  8.999651E+00  2.744619E-06 -4.317968E-05  1.347043E-06 -2.251465E-06 _shell_0000000315   
       315  24  1.188288E-05  8.999629E+00 -9.437732E-07 -3.230877E-05 -3.658939E-06  1.366662E-06 _shell_0000000315   
       315  25  5.243369E-05  8.999687E+00  4.705056E-07 -3.546383E-05 -9.985663E-07  4.454506E-07 _shell_0000000315   
       315  26  2.938262E-05  8.999645E+00 -3.514502E-07 -3.040361E-05  1.385549E-07 -1.440346E-06 _shell_0000000315   
       315  27  6.865037E-06  8.999603E+00  1.621769E-06 -1.731454E-05  1.275676E-06  2.156580E-06 _shell_0000000315   
       401   1  2.814958E-06  8.999588E+00  2.375626E-07  1.306910E-05  2.301547E-06  2.855837E-07 _shell_0000000401   
       401   2  2.586852E-05  8.999648E+00  8.303563E-07  2.207863E-05 -2.682389E-07 -3.266934E-07 _shell_0000000401   
       401   3  4.318040E-05  8.999689E+00 -1.246258E-07  2.532589E-05 -2.838025E-06 -4.362913E-07 _shell_0000000401   
       401   4 -5.466627E-07  8.999578E+00 -1.902567E-07  6.570214E-06  1.316145E-06  3.631877E-07 _shell_0000000401   
       401   5  1.724496E-05  8.999645E+00  7.929984E-07  1.467569E-05 -3.387811E-08 -1.796715E-07 _shell_0000000401   
       401   6  2.879223E-05  8.999693E+00 -9.444403E-07  1.701890E-05 -1.383901E-06 -2.198516E-07 _shell_0000000401   
       401   7 -1.156929E-06  8.999569E+00 -1.059321E-06  1.706144E-06  1.625720E-07  4.407916E-07 _shell_0000000401   
       401   8  1.170910E-05  8.999643E+00  1.099191E-06  8.907574E-06  3.231222E-08 -3.264970E-08 _shell_0000000401   
       401   9  1.782809E-05  8.999698E+00 -6.359087E-07  1.034673E-05 -9.794759E-08 -3.411875E-09 _shell_0000000401   
       401  10  6.365598E-07  8.999586E+00 -1.193032E-06  1.206983E-05 -2.193771E-14  1.287354E-14 _shell_0000000401   
       401  11  2.414660E-05  8.999646E+00 -1.437598E-07  2.180568E-05 -1.093750E-14 -7.126473E-15 _shell_0000000401   
       401  12  4.191496E-05  8.999689E+00 -6.422631E-07  2.577925E-05  2.316422E-15 -2.253118E-14 _shell_0000000401   
       401  13 -1.454005E-06  8.999576E+00 -1.076113E-06  5.723101E-06 -2.290659E-14  9.050753E-15 _shell_0000000401   
       401  14  1.679410E-05  8.999644E+00  3.636206E-07  1.455490E-05 -9.016692E-15 -1.008895E-14 _shell_0000000401   
       401  15  2.879784E-05  8.999693E+00 -9.173394E-07  1.762442E-05  3.117069E-15 -2.247639E-14 _shell_0000000401   
       401  16 -7.932153E-07  8.999568E+00 -1.400439E-06  1.011190E-06 -2.258500E-14  6.266151E-15 _shell_0000000401   
       401  17  1.252930E-05  8.999643E+00  1.214551E-06  8.938937E-06 -1.291599E-14 -6.006595E-15 _shell_0000000401   
       401  18  1.910477E-05  8.999699E+00 -6.406957E-08  1.110441E-05 -1.425898E-14 -2.191574E-14 _shell_0000000401   
       401  19  2.814958E-06  8.999588E+00  2.375626E-07  1.306910E-05 -2.301547E-06 -2.855837E-07 _shell_0000000401   
       401  20  2.586852E-05  8.999648E+00  8.303563E-07  2.207863E-05  2.682389E-07  3.266933E-07 _shell_0000000401   
       401  21  4.318040E-05  8.999689E+00 -1.246257E-07  2.532589E-05  2.838025E-06  4.362913E-07 _shell_0000000401   
       401  22 -5.466627E-07  8.999578E+00 -1.902567E-07  6.570214E-06 -1.316145E-06 -3.631877E-07 _shell_0000000401   
       401  23  1.724496E-05  8.999645E+00  7.929985E-07  1.467569E-05  3.387809E-08  1.796715E-07 _shell_0000000401   
       401  24  2.879223E-05  8.999693E+00 -9.444403E-07  1.701890E-05  1.383901E-06  2.198515E-07 _shell_0000000401   
       401  25 -1.156929E-06  8.999569E+00 -1.059321E-06  1.706144E-06 -1.625721E-07 -4.407916E-07 _shell_0000000401   
       401  26  1.170910E-05  8.999643E+00  1.099191E-06  8.907573E-06 -3.231226E-08  3.264969E-08 _shell_0000000401   
       401  27  1.782809E-05  8.999698E+00 -6.359087E-07  1.034673E-05  9.794756E-08  3.411826E-09 _shell_0000000401   
       402   1  4.939384E-05  8.999717E+00  2.764814E-07  9.641086E-06 -1.970889E-06 -2.313635E-07 _shell_0000000402   
       402   2  4.741824E-05  8.999782E+00  1.452711E-07  7.106601E-07 -9.584858E-07  1.105609E-07 _shell_0000000402   
       402   3  4.711708E-05  8.999850E+00  1.820874E-06 -6.669022E-06  5.391753E-08  2.240901E-07 _shell_0000000402   
       402   4  3.614781E-05  8.999723E+00 -5.294518E-08  7.836782E-06 -8.900262E-07 -3.552022E-08 _shell_0000000402   
       402   5  3.477061E-05  8.999783E+00 -7.138184E-07  1.229132E-06 -4.572994E-07  1.662065E-07 _shell_0000000402   
       402   6  3.529627E-05  8.999847E+00  9.650433E-07 -3.827774E-06 -2.457267E-08  1.395381E-07 _shell_0000000402   
       402   7  2.593644E-05  8.999730E+00  7.061249E-07  5.221681E-06  2.444224E-07  1.603230E-07 _shell_0000000402   
       402   8  2.505049E-05  8.999785E+00 -7.344775E-07  9.368071E-07  9.747257E-08  2.218522E-07 _shell_0000000402   
       402   9  2.629578E-05  8.999845E+00  6.975771E-07 -1.797322E-06 -4.947725E-08  5.498613E-08 _shell_0000000402   
       402  10  5.088284E-05  8.999718E+00  9.689458E-07  1.079498E-05  6.871941E-15 -2.560946E-14 _shell_0000000402   
       402  11  4.862894E-05  8.999782E+00  5.594456E-07  1.515441E-06  6.892183E-15 -7.126463E-15 _shell_0000000402   
       402  12  4.804949E-05  8.999849E+00  1.956758E-06 -6.213350E-06  1.461389E-14  1.002157E-14 _shell_0000000402   
       402  13  3.702586E-05  8.999724E+00  3.776873E-07  8.897909E-06  8.400533E-15 -2.352744E-14 _shell_0000000402   
       402  14  3.537038E-05  8.999783E+00 -5.614759E-07  1.941150E-06  8.144165E-16 -5.202240E-15 _shell_0000000402   
       402  15  3.561774E-05  8.999846E+00  8.390959E-07 -3.464865E-06  6.929597E-15  6.346460E-15 _shell_0000000402   
       402  16  2.620355E-05  8.999730E+00  8.749255E-07  6.190044E-06 -1.462199E-14 -1.837110E-14 _shell_0000000402   
       402  17  2.503931E-05  8.999785E+00 -8.439669E-07  1.556062E-06 -1.082221E-14  9.162736E-16 _shell_0000000402   
       402  18  2.600631E-05  8.999844E+00  3.097977E-07 -1.527177E-06  1.123509E-15  1.856144E-15 _shell_0000000402   
       402  19  4.939384E-05  8.999717E+00  2.764815E-07  9.641086E-06  1.970889E-06  2.313634E-07 _shell_0000000402   
       402  20  4.741824E-05  8.999782E+00  1.452711E-07  7.106601E-07  9.584858E-07 -1.105609E-07 _shell_0000000402   
       402  21  4.711708E-05  8.999850E+00  1.820874E-06 -6.669022E-06 -5.391751E-08 -2.240900E-07 _shell_0000000402   
       402  22  3.614781E-05  8.999723E+00 -5.294518E-08  7.836782E-06  8.900262E-07  3.552018E-08 _shell_0000000402   
       402  23  3.477061E-05  8.999783E+00 -7.138184E-07  1.229132E-06  4.572994E-07 -1.662066E-07 _shell_0000000402   
       402  24  3.529627E-05  8.999847E+00  9.650433E-07 -3.827774E-06  2.457269E-08 -1.395381E-07 _shell_0000000402   
       402  25  2.593644E-05  8.999730E+00  7.061249E-07  5.221680E-06 -2.444224E-07 -1.603230E-07 _shell_0000000402   
       402  26  2.505049E-05  8.999785E+00 -7.344775E-07  9.368071E-07 -9.747259E-08 -2.218522E-07 _shell_0000000402   
       402  27  2.629578E-05  8.999845E+00  6.975771E-07 -1.797322E-06  4.947725E-08 -5.498612E-08 _shell_0000000402   
       403   1  3.751471E-05  8.999883E+00 -1.845125E-06 -1.286606E-06  3.204854E-07  9.529438E-08 _shell_0000000403   
       403   2  4.273338E-05  8.999933E+00 -3.520860E-07  9.837713E-06 -3.130854E-08 -1.112744E-07 _shell_0000000403   
       403   3  4.234659E-05  8.999966E+00 -9.202942E-07  2.095081E-05 -3.831025E-07 -4.693469E-09 _shell_0000000403   
       403   4  2.926998E-05  8.999880E+00 -1.030451E-06 -2.306967E-09  2.350971E-07 -1.281562E-08 _shell_0000000403   
       403   5  3.429736E-05  8.999930E+00  5.397148E-07  9.072896E-06 -5.119400E-08 -1.601439E-07 _shell_0000000403   
       403   6  3.340612E-05  8.999962E+00 -6.820486E-07  1.813688E-05 -3.374851E-07  5.677553E-09 _shell_0000000403   
       403   7  2.190356E-05  8.999878E+00 -5.178308E-07  1.160465E-06  1.485521E-07 -1.209257E-07 _shell_0000000403   
       403   8  2.674194E-05  8.999927E+00  1.134861E-06  8.186552E-06 -7.223620E-08 -2.090134E-07 _shell_0000000403   
       403   9  2.534857E-05  8.999958E+00 -7.350598E-07  1.520142E-05 -2.930245E-07  1.604855E-08 _shell_0000000403   
       403  10  3.827505E-05  8.999882E+00 -1.817745E-06 -1.225147E-06  1.325957E-14  4.118117E-15 _shell_0000000403   
       403  11  4.356297E-05  8.999932E+00 -2.554574E-07  9.830868E-06  8.966430E-15 -5.497621E-15 _shell_0000000403   
       403  12  4.324543E-05  8.999966E+00 -7.544173E-07  2.087567E-05  1.951381E-14  1.315214E-14 _shell_0000000403   
       403  13  2.991080E-05  8.999879E+00 -1.054299E-06  8.223487E-08  6.925862E-15  2.509639E-15 _shell_0000000403   
       403  14  3.500742E-05  8.999929E+00  5.851154E-07  9.089134E-06  5.701154E-15 -6.882075E-15 _shell_0000000403   
       403  15  3.418543E-05  8.999962E+00 -5.673998E-07  1.808482E-05  9.912677E-15  9.770921E-15 _shell_0000000403   
       403  16  2.242484E-05  8.999877E+00 -5.929066E-07  1.268089E-06  3.016801E-15  1.990292E-15 _shell_0000000403   
       403  17  2.733247E-05  8.999926E+00  1.129033E-06  8.225873E-06  9.102010E-16  1.934285E-15 _shell_0000000403   
       403  18  2.600835E-05  8.999958E+00 -6.716390E-07  1.517244E-05  2.373218E-15  9.797083E-15 _shell_0000000403   
       403  19  3.751471E-05  8.999883E+00 -1.845125E-06 -1.286606E-06 -3.204854E-07 -9.529438E-08 _shell_0000000403   
       403  20  4.273338E-05  8.999933E+00 -3.520860E-07  9.837713E-06  3.130856E-08  1.112744E-07 _shell_0000000403   
       403  21  4.234659E-05  8.999966E+00 -9.202941E-07  2.095081E-05  3.831025E-07  4.693499E-09 _shell_0000000403   
       403  22  2.926998E-05  8.999880E+00 -1.030451E-06 -2.307018E-09 -2.350971E-07  1.281564E-08 _shell_0000000403   
       403  23  3.429736E-05  8.999930E+00  5.397149E-07  9.072896E-06  5.119401E-08  1.601439E-07 _shell_0000000403   
       403  24  3.340612E-05  8.999962E+00 -6.820486E-07  1.813688E-05  3.374851E-07 -5.677527E-09 _shell_0000000403   
       403  25  2.190356E-05  8.999878E+00 -5.178309E-07  1.160465E-06 -1.485521E-07  1.209257E-07 _shell_0000000403   
       403  26  2.674194E-05  8.999927E+00  1.134861E-06  8.186552E-06  7.223621E-08  2.090134E-07 _shell_0000000403   
       403  27  2.534857E-05  8.999958E+00 -7.350598E-07  1.520142E-05  2.930245E-07 -1.604853E-08 _shell_0000000403   
       404   1  4.917121E-05  8.999982E+00  7.958713E-07  2.626050E-05  3.215133E-07  5.741491E-08 _shell_0000000404   
       404   2  5.671059E-05  8.999999E+00  4.449162E-07  3.012004E-05  9.231761E-08 -1.535540E-08 _shell_0000000404   
       404   3  6.183882E-05  9.000009E+00 -3.364235E-07  3.377475E-05 -1.368781E-07 -5.324891E-08 _shell_0000000404   
       404   4  3.860582E-05  8.999977E+00  1.562589E-07  2.270414E-05  3.001575E-07  8.547226E-08 _shell_0000000404   
       404   5  4.656196E-05  8.999997E+00  1.398111E-07  2.648428E-05  8.496635E-08  1.424030E-08 _shell_0000000404   
       404   6  5.207207E-05  9.000008E+00 -3.884004E-07  3.005960E-05 -1.302248E-07 -2.211485E-08 _shell_0000000404   
       404   7  2.983570E-05  8.999973E+00 -3.594480E-07  1.947795E-05  2.581644E-07  1.135296E-07 _shell_0000000404   
       404   8  3.824986E-05  8.999995E+00  5.491892E-08  2.317870E-05  5.697780E-08  4.383600E-08 _shell_0000000404   
       404   9  4.418313E-05  9.000008E+00 -1.238571E-07  2.667463E-05 -1.442087E-07  9.019193E-09 _shell_0000000404   
       404  10  4.949562E-05  8.999981E+00  7.350844E-07  2.605451E-05  1.916210E-14  9.819287E-15 _shell_0000000404   
       404  11  5.708316E-05  8.999999E+00  4.322940E-07  2.991147E-05  1.102953E-14 -9.162768E-16 _shell_0000000404   
       404  12  6.225956E-05  9.000009E+00 -3.008812E-07  3.356361E-05  1.238447E-14  3.641499E-14 _shell_0000000404   
       404  13  3.892572E-05  8.999977E+00  9.354052E-08  2.251420E-05  1.069575E-14  4.161534E-15 _shell_0000000404   
       404  14  4.693002E-05  8.999996E+00  1.252574E-07  2.629178E-05  6.054454E-15 -8.075883E-15 _shell_0000000404   
       404  15  5.248830E-05  9.000008E+00 -3.547896E-07  2.986452E-05  8.996417E-15  2.343849E-14 _shell_0000000404   
       404  16  3.015109E-05  8.999973E+00 -4.240978E-07  1.930407E-05  1.449244E-15  8.302314E-15 _shell_0000000404   
       404  17  3.861342E-05  8.999994E+00  3.843361E-08  2.300225E-05  4.948084E-15 -5.090350E-15 _shell_0000000404   
       404  18  4.459485E-05  9.000008E+00 -9.217780E-08  2.649561E-05  1.189234E-14  1.562550E-14 _shell_0000000404   
       404  19  4.917121E-05  8.999982E+00  7.958712E-07  2.626050E-05 -3.215133E-07 -5.741489E-08 _shell_0000000404   
       404  20  5.671059E-05  8.999999E+00  4.449162E-07  3.012004E-05 -9.231758E-08  1.535539E-08 _shell_0000000404   
       404  21  6.183882E-05  9.000009E+00 -3.364235E-07  3.377475E-05  1.368781E-07  5.324897E-08 _shell_0000000404   
       404  22  3.860582E-05  8.999977E+00  1.562588E-07  2.270414E-05 -3.001575E-07 -8.547223E-08 _shell_0000000404   
       404  23  4.656196E-05  8.999997E+00  1.398111E-07  2.648428E-05 -8.496633E-08 -1.424031E-08 _shell_0000000404   
       404  24  5.207207E-05  9.000008E+00 -3.884004E-07  3.005960E-05  1.302248E-07  2.211489E-08 _shell_0000000404   
       404  25  2.983570E-05  8.999973E+00 -3.594480E-07  1.947795E-05 -2.581644E-07 -1.135296E-07 _shell_0000000404   
       404  26  3.824986E-05  8.999995E+00  5.491894E-08  2.317870E-05 -5.697779E-08 -4.383600E-08 _shell_0000000404   
       404  27  4.418313E-05  9.000008E+00 -1.238571E-07  2.667463E-05  1.442088E-07 -9.019169E-09 _shell_0000000404   
       405   1  6.632433E-05  9.000013E+00  5.831182E-08  3.391512E-05 -4.754269E-09 -4.266469E-08 _shell_0000000405   
       405   2  7.190518E-05  9.000018E+00  2.534814E-08  3.165205E-05 -8.225197E-09 -1.728050E-08 _shell_0000000405   
       405   3  7.674814E-05  9.000020E+00  4.013729E-08  2.979503E-05 -1.169612E-08 -3.274704E-08 _shell_0000000405   
       405   4  5.721017E-05  9.000013E+00  1.512373E-07  3.048619E-05  3.195534E-08 -1.180236E-08 _shell_0000000405   
       405   5  6.340976E-05  9.000018E+00 -7.609318E-08  2.862703E-05  1.496635E-08  1.110965E-08 _shell_0000000405   
       405   6  6.891230E-05  9.000021E+00 -1.603525E-07  2.717392E-05 -2.022650E-09 -6.829067E-09 _shell_0000000405   
       405   7  4.934703E-05  9.000014E+00  3.422395E-07  2.712841E-05  4.403199E-08  1.905994E-08 _shell_0000000405   
       405   8  5.621462E-05  9.000019E+00  3.549595E-08  2.567316E-05  1.352491E-08  3.949981E-08 _shell_0000000405   
       405   9  6.242601E-05  9.000023E+00 -3.285790E-08  2.462396E-05 -1.698216E-08  1.908890E-08 _shell_0000000405   
       405  10  6.648244E-05  9.000013E+00 -1.933981E-09  3.370630E-05  1.204986E-14  3.893605E-14 _shell_0000000405   
       405  11  7.211594E-05  9.000018E+00  1.774537E-08  3.144842E-05  7.587637E-15  2.748788E-15 _shell_0000000405   
       405  12  7.701154E-05  9.000020E+00  8.517748E-08  2.959658E-05  4.624791E-15 -4.282278E-15 _shell_0000000405   
       405  13  5.737735E-05  9.000013E+00  9.487692E-08  3.029492E-05  9.722535E-15  2.693834E-14 _shell_0000000405   
       405  14  6.362958E-05  9.000018E+00 -7.981060E-08  2.844095E-05  6.569555E-15  2.535045E-15 _shell_0000000405   
       405  15  6.918477E-05  9.000021E+00 -1.114269E-07  2.699302E-05  7.350678E-16 -9.162705E-15 _shell_0000000405   
       405  16  4.952328E-05  9.000013E+00  2.897644E-07  2.695469E-05  1.189868E-14  2.642394E-14 _shell_0000000405   
       405  17  5.644351E-05  9.000019E+00  3.566391E-08  2.550463E-05  7.710353E-15  1.252224E-14 _shell_0000000405   
       405  18  6.270754E-05  9.000023E+00  1.995303E-08  2.446061E-05  1.129637E-15 -1.401708E-15 _shell_0000000405   
       405  19  6.632433E-05  9.000013E+00  5.831176E-08  3.391512E-05  4.754298E-09  4.266476E-08 _shell_0000000405   
       405  20  7.190518E-05  9.000018E+00  2.534810E-08  3.165205E-05  8.225212E-09  1.728051E-08 _shell_0000000405   
       405  21  7.674814E-05  9.000020E+00  4.013730E-08  2.979503E-05  1.169614E-08  3.274703E-08 _shell_0000000405   
       405  22  5.721017E-05  9.000013E+00  1.512373E-07  3.048619E-05 -3.195532E-08  1.180242E-08 _shell_0000000405   
       405  23  6.340976E-05  9.000018E+00 -7.609317E-08  2.862703E-05 -1.496633E-08 -1.110965E-08 _shell_0000000405   
       405  24  6.891230E-05  9.000021E+00 -1.603525E-07  2.717392E-05  2.022659E-09  6.829049E-09 _shell_0000000405   
       405  25  4.934703E-05  9.000014E+00  3.422395E-07  2.712841E-05 -4.403197E-08 -1.905990E-08 _shell_0000000405   
       405  26  5.621462E-05  9.000019E+00  3.549598E-08  2.567316E-05 -1.352491E-08 -3.949978E-08 _shell_0000000405   
       405  27  6.242601E-05  9.000023E+00 -3.285786E-08  2.462396E-05  1.698216E-08 -1.908890E-08 _shell_0000000405   
       406   1  7.912509E-05  9.000020E+00  9.937865E-08  2.745143E-05 -1.162468E-08 -3.305113E-08 _shell_0000000406   
       406   2  8.214741E-05  9.000021E+00  2.826320E-08  2.302293E-05  7.409218E-09 -1.166284E-08 _shell_0000000406   
       406   3  8.506572E-05  9.000020E+00  7.513924E-08  1.912215E-05  2.644312E-08 -2.033247E-08 _shell_0000000406   
       406   4  7.219062E-05  9.000022E+00  6.695449E-08  2.517707E-05 -1.251640E-08 -8.572265E-09 _shell_0000000406   
       406   5  7.591617E-05  9.000022E+00 -8.429700E-08  2.115189E-05  1.227902E-08  1.034266E-08 _shell_0000000406   
       406   6  7.956775E-05  9.000022E+00 -4.742185E-08  1.765443E-05  3.707445E-08 -8.003158E-10 _shell_0000000406   
       406   7  6.600908E-05  9.000024E+00  1.463811E-07  2.289319E-05 -2.446307E-08  1.590657E-08 _shell_0000000406   
       406   8  7.045995E-05  9.000024E+00 -3.341673E-08  1.927134E-05  6.093888E-09  3.234815E-08 _shell_0000000406   
       406   9  7.486693E-05  9.000025E+00  4.504729E-08  1.617720E-05  3.665084E-08  1.873181E-08 _shell_0000000406   
       406  10  7.916235E-05  9.000020E+00  5.993101E-08  2.730520E-05  5.347879E-15 -4.840890E-15 _shell_0000000406   
       406  11  8.220677E-05  9.000021E+00  1.090670E-08  2.289230E-05  2.967260E-15  7.635515E-15 _shell_0000000406   
       406  12  8.514717E-05  9.000020E+00  7.987383E-08  1.900711E-05  4.284835E-15  3.552419E-14 _shell_0000000406   
       406  13  7.225518E-05  9.000022E+00  3.920153E-08  2.503820E-05 -7.890143E-16 -9.681779E-15 _shell_0000000406   
       406  14  7.600281E-05  9.000022E+00 -8.995885E-08  2.102862E-05  1.018059E-15 -3.143136E-15 _shell_0000000406   
       406  15  7.967649E-05  9.000022E+00 -3.099261E-08  1.754675E-05  4.934603E-15  2.232107E-14 _shell_0000000406   
       406  16  6.610092E-05  9.000024E+00  1.303228E-07  2.276169E-05 -2.185814E-15 -4.118113E-15 _shell_0000000406   
       406  17  7.057389E-05  9.000024E+00 -2.738396E-08  1.915543E-05 -9.850469E-16 -2.036138E-15 _shell_0000000406   
       406  18  7.500295E-05  9.000024E+00  7.317116E-08  1.607688E-05  4.877711E-15  1.463287E-14 _shell_0000000406   
       406  19  7.912509E-05  9.000020E+00  9.937863E-08  2.745143E-05  1.162469E-08  3.305111E-08 _shell_0000000406   
       406  20  8.214741E-05  9.000021E+00  2.826316E-08  2.302293E-05 -7.409211E-09  1.166285E-08 _shell_0000000406   
       406  21  8.506572E-05  9.000020E+00  7.513922E-08  1.912215E-05 -2.644311E-08  2.033254E-08 _shell_0000000406   
       406  22  7.219062E-05  9.000022E+00  6.695448E-08  2.517707E-05  1.251640E-08  8.572264E-09 _shell_0000000406   
       406  23  7.591617E-05  9.000022E+00 -8.429701E-08  2.115189E-05 -1.227902E-08 -1.034266E-08 _shell_0000000406   
       406  24  7.956775E-05  9.000022E+00 -4.742188E-08  1.765443E-05 -3.707445E-08  8.003723E-10 _shell_0000000406   
       406  25  6.600908E-05  9.000024E+00  1.463811E-07  2.289319E-05  2.446306E-08 -1.590657E-08 _shell_0000000406   
       406  26  7.045995E-05  9.000024E+00 -3.341674E-08  1.927134E-05 -6.093889E-09 -3.234815E-08 _shell_0000000406   
       406  27  7.486693E-05  9.000025E+00  4.504727E-08  1.617720E-05 -3.665083E-08 -1.873179E-08 _shell_0000000406   
       407   1  8.623199E-05  9.000020E+00  6.127109E-08  1.631974E-05 -3.921676E-08 -2.273906E-08 _shell_0000000407   
       407   2  8.747108E-05  9.000019E+00 -1.222261E-08  1.163843E-05 -2.567623E-09 -1.130706E-08 _shell_0000000407   
       407   3  8.886188E-05  9.000019E+00  7.519625E-08  7.279867E-06  3.408152E-08 -1.284141E-08 _shell_0000000407   
       407   4  8.131120E-05  9.000022E+00  3.536041E-08  1.511060E-05 -4.302057E-08 -4.505616E-09 _shell_0000000407   
       407   5  8.295119E-05  9.000021E+00 -8.098719E-08  1.077376E-05  1.646588E-09  4.936688E-09 _shell_0000000407   
       407   6  8.475586E-05  9.000021E+00 -6.167367E-09  6.759666E-06  4.631376E-08  1.412652E-09 _shell_0000000407   
       407   7  7.685197E-05  9.000024E+00  9.908931E-08  1.387707E-05 -5.239441E-08  1.372780E-08 _shell_0000000407   
       407   8  7.890401E-05  9.000024E+00 -3.411880E-08  9.884702E-06  2.907911E-10  2.118044E-08 _shell_0000000407   
       407   9  8.113368E-05  9.000023E+00  5.409545E-08  6.215080E-06  5.297597E-08  1.566670E-08 _shell_0000000407   
       407  10  8.624125E-05  9.000020E+00  4.045059E-08  1.624859E-05  4.769168E-15  2.651562E-14 _shell_0000000407   
       407  11  8.749063E-05  9.000019E+00 -2.274889E-08  1.157815E-05 -2.457017E-16 -4.784917E-15 _shell_0000000407   
       407  12  8.889173E-05  9.000019E+00  7.496406E-08  7.230467E-06 -1.422334E-15  5.822047E-15 _shell_0000000407   
       407  13  8.133949E-05  9.000022E+00  2.269687E-08  1.504288E-05  5.313351E-15  1.638077E-14 _shell_0000000407   
       407  14  8.298978E-05  9.000021E+00 -8.335655E-08  1.071691E-05  5.713282E-15 -6.016736E-15 _shell_0000000407   
       407  15  8.480474E-05  9.000021E+00  1.757404E-09  6.713698E-06  2.498806E-15 -6.289106E-15 _shell_0000000407   
       407  16  7.689929E-05  9.000024E+00  9.458270E-08  1.381278E-05  7.256767E-15  1.583603E-14 _shell_0000000407   
       407  17  7.896162E-05  9.000024E+00 -2.833125E-08  9.831289E-06  3.284784E-15 -3.054206E-15 _shell_0000000407   
       407  18  8.120159E-05  9.000023E+00  7.017713E-08  6.172543E-06  2.221038E-15 -1.397486E-14 _shell_0000000407   
       407  19  8.623199E-05  9.000020E+00  6.127105E-08  1.631974E-05  3.921676E-08  2.273910E-08 _shell_0000000407   
       407  20  8.747108E-05  9.000019E+00 -1.222263E-08  1.163843E-05  2.567616E-09  1.130705E-08 _shell_0000000407   
       407  21  8.886188E-05  9.000019E+00  7.519620E-08  7.279867E-06 -3.408152E-08  1.284142E-08 _shell_0000000407   
       407  22  8.131120E-05  9.000022E+00  3.536039E-08  1.511060E-05  4.302059E-08  4.505661E-09 _shell_0000000407   
       407  23  8.295119E-05  9.000021E+00 -8.098719E-08  1.077376E-05 -1.646588E-09 -4.936707E-09 _shell_0000000407   
       407  24  8.475586E-05  9.000021E+00 -6.167414E-09  6.759666E-06 -4.631375E-08 -1.412670E-09 _shell_0000000407   
       407  25  7.685197E-05  9.000024E+00  9.908928E-08  1.387707E-05  5.239443E-08 -1.372776E-08 _shell_0000000407   
       407  26  7.890401E-05  9.000024E+00 -3.411881E-08  9.884702E-06 -2.907687E-10 -2.118045E-08 _shell_0000000407   
       407  27  8.113368E-05  9.000023E+00  5.409540E-08  6.215080E-06 -5.297597E-08 -1.566673E-08 _shell_0000000407   
       408   1  8.921189E-05  9.000019E+00  6.950194E-08  4.497918E-06 -3.326582E-08 -1.349097E-08 _shell_0000000408   
       408   2  8.910229E-05  9.000019E+00 -1.601351E-08 -2.239751E-15  5.787083E-15 -1.014228E-08 _shell_0000000408   
       408   3  8.921189E-05  9.000019E+00  6.950193E-08 -4.497918E-06  3.326582E-08 -1.349103E-08 _shell_0000000408   
       408   4  8.530084E-05  9.000021E+00  1.680837E-08  4.181697E-06 -4.478967E-08  1.841132E-10 _shell_0000000408   
       408   5  8.518790E-05  9.000021E+00 -7.652074E-08  3.919564E-15 -3.162375E-15  3.532799E-09 _shell_0000000408   
       408   6  8.530084E-05  9.000021E+00  1.680836E-08 -4.181697E-06  4.478967E-08  1.840637E-10 _shell_0000000408   
       408   7  8.176299E-05  9.000023E+00  6.449277E-08  3.865475E-06 -5.631353E-08  1.385916E-08 _shell_0000000408   
       408   8  8.164670E-05  9.000023E+00 -3.665005E-08 -6.362928E-15 -6.693800E-15  1.720789E-08 _shell_0000000408   
       408   9  8.176299E-05  9.000023E+00  6.449273E-08 -3.865475E-06  5.631352E-08  1.385913E-08 _shell_0000000408   
       408  10  8.921205E-05  9.000019E+00  5.826240E-08  4.486763E-06  2.357416E-16  1.185543E-14 _shell_0000000408   
       408  11  8.910246E-05  9.000019E+00 -2.725299E-08 -2.076860E-14  8.072729E-15  7.126479E-16 _shell_0000000408   
       408  12  8.921205E-05  9.000019E+00  5.826240E-08 -4.486763E-06  5.308635E-15  9.098660E-16 _shell_0000000408   
       408  13  8.532053E-05  9.000021E+00  1.393467E-08  4.170542E-06  2.901494E-15 -2.351686E-15 _shell_0000000408   
       408  14  8.520759E-05  9.000021E+00 -7.939442E-08 -8.144548E-15  4.784922E-15 -1.944458E-15 _shell_0000000408   
       408  15  8.532053E-05  9.000021E+00  1.393467E-08 -4.170542E-06  1.959782E-15 -3.313701E-15 _shell_0000000408   
       408  16  8.180220E-05  9.000023E+00  6.998486E-08  3.854321E-06  2.611827E-15 -8.801228E-15 _shell_0000000408   
       408  17  8.168591E-05  9.000023E+00 -3.115793E-08 -8.449968E-15  3.398694E-15  3.054205E-15 _shell_0000000408   
       408  18  8.180220E-05  9.000023E+00  6.998485E-08 -3.854321E-06  1.718059E-15 -8.146414E-15 _shell_0000000408   
       408  19  8.921189E-05  9.000019E+00  6.950191E-08  4.497918E-06  3.326582E-08  1.349099E-08 _shell_0000000408   
       408  20  8.910229E-05  9.000019E+00 -1.601349E-08 -2.512084E-14  9.137164E-15  1.014229E-08 _shell_0000000408   
       408  21  8.921189E-05  9.000019E+00  6.950190E-08 -4.497918E-06 -3.326581E-08  1.349103E-08 _shell_0000000408   
       408  22  8.530084E-05  9.000021E+00  1.680833E-08  4.181697E-06  4.478968E-08 -1.840905E-10 _shell_0000000408   
       408  23  8.518790E-05  9.000021E+00 -7.652074E-08 -6.999221E-15  4.988535E-15 -3.532805E-09 _shell_0000000408   
       408  24  8.530084E-05  9.000021E+00  1.680833E-08 -4.181697E-06 -4.478967E-08 -1.840677E-10 _shell_0000000408   
       408  25  8.176299E-05  9.000023E+00  6.449271E-08  3.865475E-06  5.631353E-08 -1.385918E-08 _shell_0000000408   
       408  26  8.164670E-05  9.000023E+00 -3.665008E-08 -1.516922E-14  2.010685E-15 -1.720788E-08 _shell_0000000408   
       408  27  8.176299E-05  9.000023E+00  6.449270E-08 -3.865476E-06 -5.631352E-08 -1.385915E-08 _shell_0000000408   
       409   1  8.886188E-05  9.000019E+00  7.519623E-08 -7.279867E-06 -3.408154E-08 -1.284147E-08 _shell_0000000409   
       409   2  8.747108E-05  9.000019E+00 -1.222262E-08 -1.163843E-05  2.567608E-09 -1.130708E-08 _shell_0000000409   
       409   3  8.623199E-05  9.000020E+00  6.127108E-08 -1.631974E-05  3.921675E-08 -2.273906E-08 _shell_0000000409   
       409   4  8.475586E-05  9.000021E+00 -6.167393E-09 -6.759666E-06 -4.631377E-08  1.412614E-09 _shell_0000000409   
       409   5  8.295119E-05  9.000021E+00 -8.098720E-08 -1.077376E-05 -1.646594E-09  4.936692E-09 _shell_0000000409   
       409   6  8.131120E-05  9.000022E+00  3.536038E-08 -1.511060E-05  4.302057E-08 -4.505624E-09 _shell_0000000409   
       409   7  8.113368E-05  9.000023E+00  5.409539E-08 -6.215080E-06 -5.297597E-08  1.566667E-08 _shell_0000000409   
       409   8  7.890401E-05  9.000024E+00 -3.411883E-08 -9.884702E-06 -2.907718E-10  2.118044E-08 _shell_0000000409   
       409   9  7.685197E-05  9.000024E+00  9.908929E-08 -1.387707E-05  5.239442E-08  1.372781E-08 _shell_0000000409   
       409  10  8.889173E-05  9.000019E+00  7.496407E-08 -7.230467E-06 -1.494973E-15 -2.804754E-15 _shell_0000000409   
       409  11  8.749063E-05  9.000019E+00 -2.274889E-08 -1.157815E-05 -2.920897E-15 -2.239749E-15 _shell_0000000409   
       409  12  8.624125E-05  9.000020E+00  4.045063E-08 -1.624859E-05 -5.921307E-15  2.078765E-14 _shell_0000000409   
       409  13  8.480474E-05  9.000021E+00  1.757392E-09 -6.713698E-06 -1.768268E-15 -6.423963E-15 _shell_0000000409   
       409  14  8.298978E-05  9.000021E+00 -8.335656E-08 -1.071691E-05 -7.635473E-16 -5.609505E-15 _shell_0000000409   
       409  15  8.133949E-05  9.000022E+00  2.269688E-08 -1.504288E-05 -1.368340E-15  1.183007E-14 _shell_0000000409   
       409  16  8.120159E-05  9.000023E+00  7.017709E-08 -6.172543E-06  1.565279E-15 -8.190387E-15 _shell_0000000409   
       409  17  7.896162E-05  9.000024E+00 -2.833126E-08 -9.831289E-06  3.442034E-15 -1.221681E-15 _shell_0000000409   
       409  18  7.689929E-05  9.000024E+00  9.458270E-08 -1.381278E-05  5.225214E-16  9.033491E-15 _shell_0000000409   
       409  19  8.886188E-05  9.000019E+00  7.519623E-08 -7.279867E-06  3.408154E-08  1.284145E-08 _shell_0000000409   
       409  20  8.747108E-05  9.000019E+00 -1.222262E-08 -1.163843E-05 -2.567625E-09  1.130708E-08 _shell_0000000409   
       409  21  8.623199E-05  9.000020E+00  6.127104E-08 -1.631974E-05 -3.921678E-08  2.273910E-08 _shell_0000000409   
       409  22  8.475586E-05  9.000021E+00 -6.167408E-09 -6.759666E-06  4.631377E-08 -1.412615E-09 _shell_0000000409   
       409  23  8.295119E-05  9.000021E+00 -8.098720E-08 -1.077376E-05  1.646584E-09 -4.936688E-09 _shell_0000000409   
       409  24  8.131120E-05  9.000022E+00  3.536037E-08 -1.511060E-05 -4.302057E-08  4.505643E-09 _shell_0000000409   
       409  25  8.113368E-05  9.000023E+00  5.409537E-08 -6.215080E-06  5.297597E-08 -1.566669E-08 _shell_0000000409   
       409  26  7.890401E-05  9.000024E+00 -3.411884E-08 -9.884702E-06  2.907695E-10 -2.118043E-08 _shell_0000000409   
       409  27  7.685197E-05  9.000024E+00  9.908928E-08 -1.387707E-05 -5.239441E-08 -1.372779E-08 _shell_0000000409   
       410   1  8.506572E-05  9.000020E+00  7.513924E-08 -1.912215E-05 -2.644312E-08 -2.033248E-08 _shell_0000000410   
       410   2  8.214741E-05  9.000021E+00  2.826316E-08 -2.302293E-05 -7.409213E-09 -1.166286E-08 _shell_0000000410   
       410   3  7.912509E-05  9.000020E+00  9.937860E-08 -2.745143E-05  1.162468E-08 -3.305115E-08 _shell_0000000410   
       410   4  7.956775E-05  9.000022E+00 -4.742187E-08 -1.765443E-05 -3.707445E-08 -8.003233E-10 _shell_0000000410   
       410   5  7.591617E-05  9.000022E+00 -8.429700E-08 -2.115189E-05 -1.227902E-08  1.034265E-08 _shell_0000000410   
       410   6  7.219062E-05  9.000022E+00  6.695448E-08 -2.517707E-05  1.251639E-08 -8.572268E-09 _shell_0000000410   
       410   7  7.486693E-05  9.000025E+00  4.504727E-08 -1.617720E-05 -3.665084E-08  1.873181E-08 _shell_0000000410   
       410   8  7.045995E-05  9.000024E+00 -3.341671E-08 -1.927134E-05 -6.093888E-09  3.234815E-08 _shell_0000000410   
       410   9  6.600908E-05  9.000024E+00  1.463811E-07 -2.289319E-05  2.446307E-08  1.590659E-08 _shell_0000000410   
       410  10  8.514717E-05  9.000020E+00  7.987381E-08 -1.900711E-05  6.235704E-16  1.776023E-14 _shell_0000000410   
       410  11  8.220677E-05  9.000021E+00  1.090669E-08 -2.289230E-05  1.340575E-14 -7.126476E-15 _shell_0000000410   
       410  12  7.916235E-05  9.000020E+00  5.993101E-08 -2.730520E-05  8.281499E-15 -1.156147E-14 _shell_0000000410   
       410  13  7.967649E-05  9.000022E+00 -3.099262E-08 -1.754675E-05  3.193578E-15  5.792863E-15 _shell_0000000410   
       410  14  7.600281E-05  9.000022E+00 -8.995884E-08 -2.102862E-05  9.773466E-15 -1.176882E-14 _shell_0000000410   
       410  15  7.225518E-05  9.000022E+00  3.920155E-08 -2.503820E-05  7.497940E-15 -5.291592E-15 _shell_0000000410   
       410  16  7.500295E-05  9.000024E+00  7.317115E-08 -1.607688E-05  2.481538E-15  3.619207E-15 _shell_0000000410   
       410  17  7.057389E-05  9.000024E+00 -2.738394E-08 -1.915543E-05  1.065093E-14 -1.099514E-14 _shell_0000000410   
       410  18  6.610092E-05  9.000024E+00  1.303228E-07 -2.276169E-05  6.970893E-15  3.637729E-15 _shell_0000000410   
       410  19  8.506572E-05  9.000020E+00  7.513923E-08 -1.912215E-05  2.644312E-08  2.033252E-08 _shell_0000000410   
       410  20  8.214741E-05  9.000021E+00  2.826315E-08 -2.302293E-05  7.409235E-09  1.166285E-08 _shell_0000000410   
       410  21  7.912509E-05  9.000020E+00  9.937865E-08 -2.745143E-05 -1.162465E-08  3.305111E-08 _shell_0000000410   
       410  22  7.956775E-05  9.000022E+00 -4.742188E-08 -1.765443E-05  3.707445E-08  8.003609E-10 _shell_0000000410   
       410  23  7.591617E-05  9.000022E+00 -8.429700E-08 -2.115189E-05  1.227903E-08 -1.034268E-08 _shell_0000000410   
       410  24  7.219062E-05  9.000022E+00  6.695451E-08 -2.517707E-05 -1.251638E-08  8.572255E-09 _shell_0000000410   
       410  25  7.486693E-05  9.000025E+00  4.504725E-08 -1.617720E-05  3.665085E-08 -1.873181E-08 _shell_0000000410   
       410  26  7.045995E-05  9.000024E+00 -3.341673E-08 -1.927134E-05  6.093905E-09 -3.234818E-08 _shell_0000000410   
       410  27  6.600908E-05  9.000024E+00  1.463811E-07 -2.289319E-05 -2.446305E-08 -1.590658E-08 _shell_0000000410   
       411   1  7.674814E-05  9.000020E+00  4.013724E-08 -2.979503E-05  1.169614E-08 -3.274705E-08 _shell_0000000411   
       411   2  7.190518E-05  9.000018E+00  2.534808E-08 -3.165205E-05  8.225194E-09 -1.728052E-08 _shell_0000000411   
       411   3  6.632433E-05  9.000013E+00  5.831173E-08 -3.391512E-05  4.754282E-09 -4.266471E-08 _shell_0000000411   
       411   4  6.891230E-05  9.000021E+00 -1.603525E-07 -2.717392E-05  2.022662E-09 -6.829048E-09 _shell_0000000411   
       411   5  6.340976E-05  9.000018E+00 -7.609318E-08 -2.862703E-05 -1.496634E-08  1.110965E-08 _shell_0000000411   
       411   6  5.721017E-05  9.000013E+00  1.512373E-07 -3.048619E-05 -3.195531E-08 -1.180236E-08 _shell_0000000411   
       411   7  6.242601E-05  9.000023E+00 -3.285786E-08 -2.462396E-05  1.698217E-08  1.908892E-08 _shell_0000000411   
       411   8  5.621462E-05  9.000019E+00  3.549599E-08 -2.567316E-05 -1.352490E-08  3.949981E-08 _shell_0000000411   
       411   9  4.934703E-05  9.000014E+00  3.422395E-07 -2.712841E-05 -4.403195E-08  1.905997E-08 _shell_0000000411   
       411  10  7.701154E-05  9.000020E+00  8.517747E-08 -2.959658E-05  4.332852E-15 -1.339267E-14 _shell_0000000411   
       411  11  7.211594E-05  9.000018E+00  1.774536E-08 -3.144842E-05 -1.436284E-16 -1.221683E-14 _shell_0000000411   
       411  12  6.648244E-05  9.000013E+00 -1.933997E-09 -3.370630E-05 -4.482540E-15  6.611052E-15 _shell_0000000411   
       411  13  6.918477E-05  9.000021E+00 -1.114269E-07 -2.699302E-05  1.971909E-15 -2.351697E-15 _shell_0000000411   
       411  14  6.362958E-05  9.000018E+00 -7.981059E-08 -2.844095E-05 -5.293941E-15 -6.831187E-15 _shell_0000000411   
       411  15  5.737735E-05  9.000013E+00  9.487691E-08 -3.029492E-05 -2.637887E-15  1.122411E-14 _shell_0000000411   
       411  16  6.270754E-05  9.000023E+00  1.995304E-08 -2.446061E-05  2.793016E-15  7.691477E-15 _shell_0000000411   
       411  17  5.644351E-05  9.000019E+00  3.566392E-08 -2.550463E-05  1.024129E-15 -7.533711E-15 _shell_0000000411   
       411  18  4.952328E-05  9.000013E+00  2.897644E-07 -2.695469E-05  3.817923E-15  6.844634E-15 _shell_0000000411   
       411  19  7.674814E-05  9.000020E+00  4.013731E-08 -2.979503E-05 -1.169611E-08  3.274703E-08 _shell_0000000411   
       411  20  7.190518E-05  9.000018E+00  2.534809E-08 -3.165205E-05 -8.225198E-09  1.728049E-08 _shell_0000000411   
       411  21  6.632433E-05  9.000013E+00  5.831177E-08 -3.391512E-05 -4.754292E-09  4.266472E-08 _shell_0000000411   
       411  22  6.891230E-05  9.000021E+00 -1.603525E-07 -2.717392E-05 -2.022647E-09  6.829050E-09 _shell_0000000411   
       411  23  6.340976E-05  9.000018E+00 -7.609318E-08 -2.862703E-05  1.496633E-08 -1.110967E-08 _shell_0000000411   
       411  24  5.721017E-05  9.000013E+00  1.512373E-07 -3.048619E-05  3.195531E-08  1.180237E-08 _shell_0000000411   
       411  25  6.242601E-05  9.000023E+00 -3.285787E-08 -2.462396E-05 -1.698216E-08 -1.908891E-08 _shell_0000000411   
       411  26  5.621462E-05  9.000019E+00  3.549596E-08 -2.567316E-05  1.352490E-08 -3.949983E-08 _shell_0000000411   
       411  27  4.934703E-05  9.000014E+00  3.422394E-07 -2.712841E-05  4.403196E-08 -1.905996E-08 _shell_0000000411   
       412   1  6.183882E-05  9.000009E+00 -3.364236E-07 -3.377475E-05  1.368781E-07 -5.324893E-08 _shell_0000000412   
       412   2  5.671059E-05  8.999999E+00  4.449162E-07 -3.012004E-05 -9.231756E-08 -1.535542E-08 _shell_0000000412   
       412   3  4.917121E-05  8.999982E+00  7.958712E-07 -2.626050E-05 -3.215133E-07  5.741489E-08 _shell_0000000412   
       412   4  5.207207E-05  9.000008E+00 -3.884004E-07 -3.005960E-05  1.302248E-07 -2.211483E-08 _shell_0000000412   
       412   5  4.656196E-05  8.999997E+00  1.398111E-07 -2.648428E-05 -8.496634E-08  1.424031E-08 _shell_0000000412   
       412   6  3.860582E-05  8.999977E+00  1.562588E-07 -2.270414E-05 -3.001575E-07  8.547224E-08 _shell_0000000412   
       412   7  4.418313E-05  9.000008E+00 -1.238571E-07 -2.667463E-05  1.442088E-07  9.019229E-09 _shell_0000000412   
       412   8  3.824986E-05  8.999995E+00  5.491891E-08 -2.317870E-05 -5.697781E-08  4.383601E-08 _shell_0000000412   
       412   9  2.983570E-05  8.999973E+00 -3.594480E-07 -1.947795E-05 -2.581644E-07  1.135296E-07 _shell_0000000412   
       412  10  6.225956E-05  9.000009E+00 -3.008812E-07 -3.356361E-05 -2.208231E-15  4.321703E-15 _shell_0000000412   
       412  11  5.708316E-05  8.999999E+00  4.322940E-07 -2.991147E-05 -4.844912E-15 -5.090306E-15 _shell_0000000412   
       412  12  4.949562E-05  8.999981E+00  7.350844E-07 -2.605451E-05  3.653946E-16  1.213403E-14 _shell_0000000412   
       412  13  5.248830E-05  9.000008E+00 -3.547896E-07 -2.986452E-05 -1.986423E-15  8.261591E-15 _shell_0000000412   
       412  14  4.693002E-05  8.999996E+00  1.252574E-07 -2.629178E-05 -7.330070E-15 -8.460093E-15 _shell_0000000412   
       412  15  3.892572E-05  8.999977E+00  9.354052E-08 -2.251420E-05 -7.415533E-15 -1.782134E-16 _shell_0000000412   
       412  16  4.459485E-05  9.000008E+00 -9.217781E-08 -2.649561E-05 -3.818748E-17  1.013484E-14 _shell_0000000412   
       412  17  3.861342E-05  8.999994E+00  3.843363E-08 -2.300225E-05 -2.497299E-15 -3.461423E-15 _shell_0000000412   
       412  18  3.015109E-05  8.999973E+00 -4.240979E-07 -1.930407E-05 -1.777809E-15  5.326118E-16 _shell_0000000412   
       412  19  6.183882E-05  9.000009E+00 -3.364235E-07 -3.377475E-05 -1.368781E-07  5.324894E-08 _shell_0000000412   
       412  20  5.671059E-05  8.999999E+00  4.449162E-07 -3.012004E-05  9.231757E-08  1.535540E-08 _shell_0000000412   
       412  21  4.917121E-05  8.999982E+00  7.958712E-07 -2.626050E-05  3.215133E-07 -5.741487E-08 _shell_0000000412   
       412  22  5.207207E-05  9.000008E+00 -3.884004E-07 -3.005960E-05 -1.302248E-07  2.211486E-08 _shell_0000000412   
       412  23  4.656196E-05  8.999997E+00  1.398111E-07 -2.648428E-05  8.496633E-08 -1.424032E-08 _shell_0000000412   
       412  24  3.860582E-05  8.999977E+00  1.562588E-07 -2.270414E-05  3.001575E-07 -8.547222E-08 _shell_0000000412   
       412  25  4.418313E-05  9.000008E+00 -1.238571E-07 -2.667463E-05 -1.442087E-07 -9.019204E-09 _shell_0000000412   
       412  26  3.824986E-05  8.999995E+00  5.491890E-08 -2.317870E-05  5.697779E-08 -4.383602E-08 _shell_0000000412   
       412  27  2.983570E-05  8.999973E+00 -3.594480E-07 -1.947795E-05  2.581643E-07 -1.135296E-07 _shell_0000000412   
       413   1  4.234659E-05  8.999966E+00 -9.202942E-07 -2.095081E-05  3.831025E-07 -4.693490E-09 _shell_0000000413   
       413   2  4.273338E-05  8.999933E+00 -3.520860E-07 -9.837713E-06  3.130856E-08 -1.112744E-07 _shell_0000000413   
       413   3  3.751471E-05  8.999883E+00 -1.845125E-06  1.286606E-06 -3.204854E-07  9.529437E-08 _shell_0000000413   
       413   4  3.340612E-05  8.999962E+00 -6.820487E-07 -1.813688E-05  3.374851E-07  5.677534E-09 _shell_0000000413   
       413   5  3.429736E-05  8.999930E+00  5.397149E-07 -9.072896E-06  5.119401E-08 -1.601439E-07 _shell_0000000413   
       413   6  2.926998E-05  8.999880E+00 -1.030451E-06  2.307010E-09 -2.350971E-07 -1.281565E-08 _shell_0000000413   
       413   7  2.534857E-05  8.999958E+00 -7.350599E-07 -1.520142E-05  2.930245E-07  1.604853E-08 _shell_0000000413   
       413   8  2.674194E-05  8.999927E+00  1.134861E-06 -8.186552E-06  7.223617E-08 -2.090134E-07 _shell_0000000413   
       413   9  2.190356E-05  8.999878E+00 -5.178308E-07 -1.160465E-06 -1.485521E-07 -1.209257E-07 _shell_0000000413   
       413  10  4.324543E-05  8.999966E+00 -7.544173E-07 -2.087567E-05  1.418639E-15  1.328067E-14 _shell_0000000413   
       413  11  4.356297E-05  8.999932E+00 -2.554574E-07 -9.830868E-06  9.312298E-15 -2.850562E-15 _shell_0000000413   
       413  12  3.827505E-05  8.999882E+00 -1.817745E-06  1.225147E-06  1.772407E-14 -2.222572E-14 _shell_0000000413   
       413  13  3.418543E-05  8.999962E+00 -5.673998E-07 -1.808482E-05  8.849851E-17  3.349403E-15 _shell_0000000413   
       413  14  3.500742E-05  8.999929E+00  5.851154E-07 -9.089134E-06  3.473579E-15 -4.804920E-15 _shell_0000000413   
       413  15  2.991080E-05  8.999879E+00 -1.054299E-06 -8.223486E-08  8.409970E-15 -1.260143E-14 _shell_0000000413   
       413  16  2.600835E-05  8.999958E+00 -6.716390E-07 -1.517244E-05 -5.478300E-16  5.858865E-15 _shell_0000000413   
       413  17  2.733247E-05  8.999926E+00  1.129033E-06 -8.225873E-06 -1.179870E-15 -1.934263E-15 _shell_0000000413   
       413  18  2.242484E-05  8.999877E+00 -5.929065E-07 -1.268089E-06 -3.300885E-16 -1.120061E-14 _shell_0000000413   
       413  19  4.234659E-05  8.999966E+00 -9.202942E-07 -2.095081E-05 -3.831025E-07  4.693519E-09 _shell_0000000413   
       413  20  4.273338E-05  8.999933E+00 -3.520860E-07 -9.837713E-06 -3.130855E-08  1.112744E-07 _shell_0000000413   
       413  21  3.751471E-05  8.999883E+00 -1.845125E-06  1.286606E-06  3.204854E-07 -9.529441E-08 _shell_0000000413   
       413  22  3.340612E-05  8.999962E+00 -6.820486E-07 -1.813688E-05 -3.374851E-07 -5.677498E-09 _shell_0000000413   
       413  23  3.429736E-05  8.999930E+00  5.397149E-07 -9.072896E-06 -5.119401E-08  1.601439E-07 _shell_0000000413   
       413  24  2.926998E-05  8.999880E+00 -1.030451E-06  2.306968E-09  2.350971E-07  1.281562E-08 _shell_0000000413   
       413  25  2.534857E-05  8.999958E+00 -7.350598E-07 -1.520142E-05 -2.930244E-07 -1.604851E-08 _shell_0000000413   
       413  26  2.674194E-05  8.999927E+00  1.134861E-06 -8.186552E-06 -7.223618E-08  2.090134E-07 _shell_0000000413   
       413  27  2.190356E-05  8.999878E+00 -5.178308E-07 -1.160465E-06  1.485521E-07  1.209257E-07 _shell_0000000413   
       414   1  4.711708E-05  8.999850E+00  1.820874E-06  6.669022E-06 -5.391752E-08  2.240901E-07 _shell_0000000414   
       414   2  4.741824E-05  8.999782E+00  1.452711E-07 -7.106602E-07  9.584858E-07  1.105609E-07 _shell_0000000414   
       414   3  4.939384E-05  8.999717E+00  2.764815E-07 -9.641086E-06  1.970889E-06 -2.313634E-07 _shell_0000000414   
       414   4  3.529627E-05  8.999847E+00  9.650432E-07  3.827774E-06  2.457268E-08  1.395381E-07 _shell_0000000414   
       414   5  3.477061E-05  8.999783E+00 -7.138184E-07 -1.229132E-06  4.572994E-07  1.662065E-07 _shell_0000000414   
       414   6  3.614781E-05  8.999723E+00 -5.294516E-08 -7.836782E-06  8.900262E-07 -3.552019E-08 _shell_0000000414   
       414   7  2.629578E-05  8.999845E+00  6.975771E-07  1.797322E-06  4.947725E-08  5.498612E-08 _shell_0000000414   
       414   8  2.505049E-05  8.999785E+00 -7.344775E-07 -9.368071E-07 -9.747258E-08  2.218522E-07 _shell_0000000414   
       414   9  2.593644E-05  8.999730E+00  7.061249E-07 -5.221680E-06 -2.444224E-07  1.603230E-07 _shell_0000000414   
       414  10  4.804949E-05  8.999849E+00  1.956758E-06  6.213350E-06  1.106417E-14 -2.784948E-14 _shell_0000000414   
       414  11  4.862894E-05  8.999782E+00  5.594456E-07 -1.515441E-06 -1.170175E-14 -1.048619E-14 _shell_0000000414   
       414  12  5.088284E-05  8.999718E+00  9.689458E-07 -1.079498E-05 -2.453097E-15  1.928593E-14 _shell_0000000414   
       414  13  3.561774E-05  8.999846E+00  8.390958E-07  3.464865E-06 -1.603424E-15 -1.784198E-14 _shell_0000000414   
       414  14  3.537038E-05  8.999783E+00 -5.614759E-07 -1.941150E-06 -9.989117E-15 -1.085237E-14 _shell_0000000414   
       414  15  3.702586E-05  8.999724E+00  3.776873E-07 -8.897909E-06  2.477890E-15  8.037665E-15 _shell_0000000414   
       414  16  2.600631E-05  8.999844E+00  3.097978E-07  1.527177E-06 -4.529789E-15 -6.968591E-15 _shell_0000000414   
       414  17  2.503931E-05  8.999785E+00 -8.439669E-07 -1.556062E-06 -6.761085E-15 -1.425392E-15 _shell_0000000414   
       414  18  2.620355E-05  8.999730E+00  8.749255E-07 -6.190044E-06 -1.829533E-14  6.055768E-15 _shell_0000000414   
       414  19  4.711708E-05  8.999850E+00  1.820874E-06  6.669022E-06  5.391754E-08 -2.240901E-07 _shell_0000000414   
       414  20  4.741824E-05  8.999782E+00  1.452711E-07 -7.106601E-07 -9.584858E-07 -1.105609E-07 _shell_0000000414   
       414  21  4.939384E-05  8.999717E+00  2.764814E-07 -9.641086E-06 -1.970889E-06  2.313634E-07 _shell_0000000414   
       414  22  3.529627E-05  8.999847E+00  9.650432E-07  3.827774E-06 -2.457267E-08 -1.395381E-07 _shell_0000000414   
       414  23  3.477061E-05  8.999783E+00 -7.138184E-07 -1.229132E-06 -4.572994E-07 -1.662066E-07 _shell_0000000414   
       414  24  3.614781E-05  8.999723E+00 -5.294518E-08 -7.836782E-06 -8.900262E-07  3.552019E-08 _shell_0000000414   
       414  25  2.629578E-05  8.999845E+00  6.975771E-07  1.797322E-06 -4.947727E-08 -5.498613E-08 _shell_0000000414   
       414  26  2.505049E-05  8.999785E+00 -7.344775E-07 -9.368071E-07  9.747258E-08 -2.218522E-07 _shell_0000000414   
       414  27  2.593644E-05  8.999730E+00  7.061249E-07 -5.221681E-06  2.444224E-07 -1.603230E-07 _shell_0000000414   
       415   1  4.318040E-05  8.999689E+00 -1.246257E-07 -2.532589E-05  2.838025E-06 -4.362912E-07 _shell_0000000415   
       415   2  2.586852E-05  8.999648E+00  8.303563E-07 -2.207863E-05  2.682389E-07 -3.266933E-07 _shell_0000000415   
       415   3  2.814958E-06  8.999588E+00  2.375626E-07 -1.306910E-05 -2.301547E-06  2.855838E-07 _shell_0000000415   
       415   4  2.879223E-05  8.999693E+00 -9.444402E-07 -1.701890E-05  1.383901E-06 -2.198515E-07 _shell_0000000415   
       415   5  1.724496E-05  8.999645E+00  7.929985E-07 -1.467569E-05  3.387808E-08 -1.796715E-07 _shell_0000000415   
       415   6 -5.466627E-07  8.999578E+00 -1.902567E-07 -6.570214E-06 -1.316145E-06  3.631877E-07 _shell_0000000415   
       415   7  1.782809E-05  8.999698E+00 -6.359087E-07 -1.034673E-05  9.794756E-08 -3.411830E-09 _shell_0000000415   
       415   8  1.170910E-05  8.999643E+00  1.099191E-06 -8.907573E-06 -3.231225E-08 -3.264968E-08 _shell_0000000415   
       415   9 -1.156929E-06  8.999569E+00 -1.059321E-06 -1.706144E-06 -1.625721E-07  4.407916E-07 _shell_0000000415   
       415  10  4.191496E-05  8.999689E+00 -6.422631E-07 -2.577925E-05  8.914925E-16  1.714960E-14 _shell_0000000415   
       415  11  2.414660E-05  8.999646E+00 -1.437597E-07 -2.180568E-05 -1.533135E-15 -1.527011E-15 _shell_0000000415   
       415  12  6.365598E-07  8.999586E+00 -1.193032E-06 -1.206983E-05  8.319003E-15  1.470451E-14 _shell_0000000415   
       415  13  2.879784E-05  8.999693E+00 -9.173394E-07 -1.762442E-05  3.740132E-15  5.792587E-15 _shell_0000000415   
       415  14  1.679410E-05  8.999644E+00  3.636206E-07 -1.455490E-05 -4.886682E-15 -1.527401E-15 _shell_0000000415   
       415  15 -1.454005E-06  8.999576E+00 -1.076113E-06 -5.723101E-06 -4.898786E-15  9.396657E-15 _shell_0000000415   
       415  16  1.910477E-05  8.999699E+00 -6.406955E-08 -1.110441E-05 -1.209562E-14  7.487913E-15 _shell_0000000415   
       415  17  1.252930E-05  8.999643E+00  1.214551E-06 -8.938937E-06  1.832523E-15  2.952398E-15 _shell_0000000415   
       415  18 -7.932153E-07  8.999568E+00 -1.400439E-06 -1.011190E-06  6.681868E-15  5.495753E-15 _shell_0000000415   
       415  19  4.318040E-05  8.999689E+00 -1.246258E-07 -2.532589E-05 -2.838025E-06  4.362913E-07 _shell_0000000415   
       415  20  2.586852E-05  8.999648E+00  8.303563E-07 -2.207863E-05 -2.682389E-07  3.266933E-07 _shell_0000000415   
       415  21  2.814958E-06  8.999588E+00  2.375626E-07 -1.306910E-05  2.301547E-06 -2.855838E-07 _shell_0000000415   
       415  22  2.879223E-05  8.999693E+00 -9.444403E-07 -1.701890E-05 -1.383901E-06  2.198516E-07 _shell_0000000415   
       415  23  1.724496E-05  8.999645E+00  7.929985E-07 -1.467569E-05 -3.387808E-08  1.796715E-07 _shell_0000000415   
       415  24 -5.466627E-07  8.999578E+00 -1.902567E-07 -6.570214E-06  1.316145E-06 -3.631877E-07 _shell_0000000415   
       415  25  1.782809E-05  8.999698E+00 -6.359087E-07 -1.034673E-05 -9.794757E-08  3.411843E-09 _shell_0000000415   
       415  26  1.170910E-05  8.999643E+00  1.099191E-06 -8.907573E-06  3.231225E-08  3.264968E-08 _shell_0000000415   
       415  27 -1.156929E-06  8.999569E+00 -1.059321E-06 -1.706144E-06  1.625721E-07 -4.407916E-07 _shell_0000000415   
       501   1  4.660720E-07  8.999571E+00  4.199898E-07  1.091651E-06 -1.576849E-07  4.123772E-07 _shell_0000000501   
       501   2  7.899343E-06  8.999639E+00 -2.962157E-07  5.073845E-06  1.770980E-08 -3.067010E-08 _shell_0000000501   
       501   3  1.223650E-05  8.999697E+00 -1.582942E-06  7.364419E-06  1.931045E-07 -1.314496E-07 _shell_0000000501   
       501   4 -1.108734E-06  8.999569E+00 -1.023312E-07 -3.910048E-07  3.229519E-09  3.156081E-07 _shell_0000000501   
       501   5  4.972133E-06  8.999638E+00  2.311662E-07  2.774411E-06  9.240396E-09 -5.360559E-08 _shell_0000000501   
       501   6  7.614614E-06  8.999698E+00 -8.044820E-07  4.248207E-06  1.525128E-08 -8.055147E-08 _shell_0000000501   
       501   7 -1.465425E-06  8.999567E+00 -6.045869E-07 -1.515305E-06  1.631346E-07  2.188390E-07 _shell_0000000501   
       501   8  3.265055E-06  8.999638E+00  7.833239E-07  8.333327E-07 -2.383550E-10 -7.654105E-08 _shell_0000000501   
       501   9  4.214883E-06  8.999699E+00  3.463993E-09  1.490350E-06 -1.636113E-07 -2.965333E-08 _shell_0000000501   
       501  10  1.533995E-06  8.999570E+00  6.460432E-07  1.509639E-06 -1.879440E-14  5.497571E-15 _shell_0000000501   
       501  11  9.052600E-06  8.999638E+00  1.517162E-08  5.236445E-06 -1.419529E-14 -2.636908E-15 _shell_0000000501   
       501  12  1.347509E-05  8.999697E+00 -1.186221E-06  7.271631E-06 -1.509257E-14 -2.004195E-14 _shell_0000000501   
       501  13 -4.877396E-07  8.999568E+00 -6.781907E-08  5.542863E-08 -9.849722E-15  9.498201E-15 _shell_0000000501   
       501  14  5.678460E-06  8.999638E+00  3.510123E-07  2.965456E-06 -1.686495E-15 -6.416163E-16 _shell_0000000501   
       501  15  8.406275E-06  8.999698E+00 -5.993021E-07  4.183864E-06 -9.303348E-15 -1.651565E-14 _shell_0000000501   
       501  16 -1.291361E-06  8.999566E+00 -7.616159E-07 -1.040427E-06  1.823153E-15 -4.230010E-15 _shell_0000000501   
       501  17  3.524453E-06  8.999638E+00  7.116287E-07  1.052822E-06 -3.549744E-15 -1.471161E-15 _shell_0000000501   
       501  18  4.559615E-06  8.999699E+00  1.710266E-08  1.454452E-06 -1.895479E-14 -1.501329E-14 _shell_0000000501   
       501  19  4.660721E-07  8.999571E+00  4.199898E-07  1.091651E-06  1.576849E-07 -4.123772E-07 _shell_0000000501   
       501  20  7.899343E-06  8.999639E+00 -2.962156E-07  5.073845E-06 -1.770984E-08  3.067009E-08 _shell_0000000501   
       501  21  1.223650E-05  8.999697E+00 -1.582942E-06  7.364419E-06 -1.931046E-07  1.314496E-07 _shell_0000000501   
       501  22 -1.108734E-06  8.999569E+00 -1.023313E-07 -3.910048E-07 -3.229532E-09 -3.156081E-07 _shell_0000000501   
       501  23  4.972133E-06  8.999638E+00  2.311662E-07  2.774411E-06 -9.240406E-09  5.360557E-08 _shell_0000000501   
       501  24  7.614614E-06  8.999698E+00 -8.044820E-07  4.248207E-06 -1.525130E-08  8.055144E-08 _shell_0000000501   
       501  25 -1.465426E-06  8.999567E+00 -6.045869E-07 -1.515305E-06 -1.631346E-07 -2.188390E-07 _shell_0000000501   
       501  26  3.265055E-06  8.999638E+00  7.833238E-07  8.333327E-07  2.383566E-10  7.654105E-08 _shell_0000000501   
       501  27  4.214883E-06  8.999699E+00  3.463952E-09  1.490350E-06  1.636113E-07  2.965331E-08 _shell_0000000501   
       502   1  2.085851E-05  8.999732E+00  9.969590E-07  4.910877E-06  5.188463E-07 -5.375437E-08 _shell_0000000502   
       502   2  2.148608E-05  8.999790E+00  6.186811E-07  1.839100E-06  2.337215E-07  2.179975E-08 _shell_0000000502   
       502   3  2.201765E-05  8.999846E+00  1.017295E-06 -9.574603E-07 -5.140330E-08 -1.309044E-08 _shell_0000000502   
       502   4  1.260423E-05  8.999732E+00  3.027757E-07  3.185337E-06  2.932000E-07  1.446463E-08 _shell_0000000502   
       502   5  1.333063E-05  8.999789E+00 -1.648894E-07  1.338694E-06  1.129146E-07  7.570810E-08 _shell_0000000502   
       502   6  1.407148E-05  8.999844E+00  4.020404E-07 -2.327323E-07 -6.737079E-08  2.650729E-08 _shell_0000000502   
       502   7  6.672595E-06  8.999733E+00  1.102621E-07  1.310448E-06  6.807432E-08  8.268363E-08 _shell_0000000502   
       502   8  7.496788E-06  8.999789E+00 -4.492202E-07  6.889385E-07 -7.371625E-09  1.296165E-07 _shell_0000000502   
       502   9  8.445874E-06  8.999844E+00  2.835959E-07  3.426468E-07 -8.281757E-08  6.610502E-08 _shell_0000000502   
       502  10  2.069903E-05  8.999732E+00  8.058252E-07  4.798398E-06 -2.038682E-14 -1.751078E-14 _shell_0000000502   
       502  11  2.130933E-05  8.999789E+00  4.102761E-07  1.846667E-06 -1.285832E-14  3.155236E-16 _shell_0000000502   
       502  12  2.182363E-05  8.999845E+00  7.916185E-07 -8.298465E-07 -2.082446E-15  3.195458E-15 _shell_0000000502   
       502  13  1.265483E-05  8.999732E+00  2.016765E-07  3.067101E-06 -1.448043E-14 -1.249198E-14 _shell_0000000502   
       502  14  1.336396E-05  8.999788E+00 -2.832597E-07  1.340504E-06 -1.221677E-14  6.819289E-16 _shell_0000000502   
       502  15  1.408754E-05  8.999844E+00  2.663990E-07 -1.108755E-07 -7.313529E-16 -7.240660E-16 _shell_0000000502   
       502  16  6.933278E-06  8.999733E+00  9.919754E-08  1.186455E-06 -2.232116E-14 -1.461432E-14 _shell_0000000502   
       502  17  7.740200E-06  8.999788E+00 -4.775558E-07  6.849921E-07 -1.509808E-14 -5.548843E-16 _shell_0000000502   
       502  18  8.672016E-06  8.999843E+00  2.379891E-07  4.587465E-07 -3.190534E-15 -1.574792E-15 _shell_0000000502   
       502  19  2.085851E-05  8.999732E+00  9.969590E-07  4.910877E-06 -5.188463E-07  5.375434E-08 _shell_0000000502   
       502  20  2.148608E-05  8.999790E+00  6.186811E-07  1.839100E-06 -2.337215E-07 -2.179975E-08 _shell_0000000502   
       502  21  2.201765E-05  8.999846E+00  1.017295E-06 -9.574603E-07  5.140329E-08  1.309047E-08 _shell_0000000502   
       502  22  1.260423E-05  8.999732E+00  3.027757E-07  3.185337E-06 -2.932000E-07 -1.446466E-08 _shell_0000000502   
       502  23  1.333063E-05  8.999789E+00 -1.648893E-07  1.338694E-06 -1.129146E-07 -7.570813E-08 _shell_0000000502   
       502  24  1.407148E-05  8.999844E+00  4.020404E-07 -2.327323E-07  6.737078E-08 -2.650728E-08 _shell_0000000502   
       502  25  6.672595E-06  8.999733E+00  1.102622E-07  1.310448E-06 -6.807437E-08 -8.268364E-08 _shell_0000000502   
       502  26  7.496788E-06  8.999789E+00 -4.492201E-07  6.889385E-07  7.371591E-09 -1.296165E-07 _shell_0000000502   
       502  27  8.445875E-06  8.999844E+00  2.835959E-07  3.426468E-07  8.281756E-08 -6.610501E-08 _shell_0000000502   
       503   1  1.729064E-05  8.999875E+00 -1.095757E-06  1.183367E-06  1.300038E-07 -7.367781E-08 _shell_0000000503   
       503   2  2.136925E-05  8.999922E+00 -1.515951E-07  7.337074E-06 -7.445801E-08 -8.782955E-08 _shell_0000000503   
       503   3  2.153963E-05  8.999957E+00 -5.808172E-07  1.376400E-05 -2.789198E-07  3.415329E-08 _shell_0000000503   
       503   4  1.166469E-05  8.999874E+00 -6.181123E-07  1.516794E-06  1.572304E-07 -4.506005E-08 _shell_0000000503   
       503   5  1.585519E-05  8.999920E+00  3.307663E-07  6.380816E-06 -5.662825E-08 -8.263382E-08 _shell_0000000503   
       503   6  1.600134E-05  8.999954E+00 -4.113870E-07  1.151806E-05 -2.704869E-07  1.592701E-08 _shell_0000000503   
       503   7  6.905650E-06  8.999873E+00 -2.735446E-07  1.686631E-06  1.901521E-07 -1.644232E-08 _shell_0000000503   
       503   8  1.119665E-05  8.999918E+00  6.534734E-07  5.260967E-06 -3.310349E-08 -7.743808E-08 _shell_0000000503   
       503   9  1.130718E-05  8.999951E+00 -4.281875E-07  9.108523E-06 -2.563591E-07 -2.299277E-09 _shell_0000000503   
       503  10  1.800406E-05  8.999875E+00 -9.419168E-07  1.319538E-06  1.513619E-15  2.036086E-16 _shell_0000000503   
       503  11  2.204350E-05  8.999921E+00 -3.691795E-08  7.415148E-06 -1.010627E-15  1.944408E-15 _shell_0000000503   
       503  12  2.217472E-05  8.999956E+00 -5.053035E-07  1.378398E-05 -1.025736E-15  1.352885E-14 _shell_0000000503   
       503  13  1.227644E-05  8.999874E+00 -5.078452E-07  1.639911E-06 -3.532278E-16  2.193732E-15 _shell_0000000503   
       503  14  1.642777E-05  8.999919E+00  4.018698E-07  6.445835E-06 -3.257779E-15  2.259977E-15 _shell_0000000503   
       503  15  1.653476E-05  8.999953E+00 -3.794469E-07  1.152498E-05  4.446516E-16  8.452494E-15 _shell_0000000503   
       503  16  7.415721E-06  8.999873E+00 -2.068512E-07  1.796694E-06 -1.004595E-15 -4.230034E-15 _shell_0000000503   
       503  17  1.166756E-05  8.999918E+00  6.810034E-07  5.312932E-06 -5.605432E-15 -8.603288E-16 _shell_0000000503   
       503  18  1.173892E-05  8.999951E+00 -4.398211E-07  9.102390E-06  1.037023E-15  3.210137E-15 _shell_0000000503   
       503  19  1.729064E-05  8.999875E+00 -1.095757E-06  1.183367E-06 -1.300038E-07  7.367780E-08 _shell_0000000503   
       503  20  2.136925E-05  8.999922E+00 -1.515951E-07  7.337074E-06  7.445801E-08  8.782955E-08 _shell_0000000503   
       503  21  2.153963E-05  8.999957E+00 -5.808172E-07  1.376400E-05  2.789198E-07 -3.415326E-08 _shell_0000000503   
       503  22  1.166469E-05  8.999874E+00 -6.181123E-07  1.516794E-06 -1.572304E-07  4.506006E-08 _shell_0000000503   
       503  23  1.585519E-05  8.999920E+00  3.307662E-07  6.380816E-06  5.662825E-08  8.263381E-08 _shell_0000000503   
       503  24  1.600134E-05  8.999954E+00 -4.113870E-07  1.151806E-05  2.704869E-07 -1.592698E-08 _shell_0000000503   
       503  25  6.905650E-06  8.999873E+00 -2.735446E-07  1.686631E-06 -1.901521E-07  1.644232E-08 _shell_0000000503   
       503  26  1.119665E-05  8.999918E+00  6.534735E-07  5.260967E-06  3.310349E-08  7.743807E-08 _shell_0000000503   
       503  27  1.130718E-05  8.999951E+00 -4.281875E-07  9.108523E-06  2.563591E-07  2.299295E-09 _shell_0000000503   
       504   1  2.642205E-05  8.999973E+00  3.536264E-07  1.781258E-05  2.435566E-07  7.166912E-08 _shell_0000000504   
       504   2  3.441968E-05  8.999994E+00  3.617491E-07  2.116691E-05  4.720177E-08  6.627521E-09 _shell_0000000504   
       504   3  3.983871E-05  9.000007E+00 -3.440693E-07  2.431276E-05 -1.491531E-07 -3.379298E-08 _shell_0000000504   
       504   4  1.991773E-05  8.999970E+00  1.856888E-08  1.465738E-05  2.403917E-07  5.240350E-08 _shell_0000000504   
       504   5  2.805466E-05  8.999992E+00  2.151136E-07  1.760407E-05  4.663649E-08  7.212169E-09 _shell_0000000504   
       504   6  3.358837E-05  9.000007E+00 -3.597320E-07  2.034226E-05 -1.471188E-07 -1.335803E-08 _shell_0000000504   
       504   7  1.473647E-05  8.999968E+00 -2.895608E-07  1.171007E-05  2.243998E-07  3.313786E-08 _shell_0000000504   
       504   8  2.303835E-05  8.999991E+00  1.552656E-07  1.424911E-05  3.324413E-08  7.796844E-09 _shell_0000000504   
       504   9  2.871238E-05  9.000006E+00 -2.287473E-07  1.657966E-05 -1.579115E-07  7.076909E-09 _shell_0000000504   
       504  10  2.674143E-05  8.999973E+00  2.958385E-07  1.769599E-05 -5.502442E-16  9.366221E-15 _shell_0000000504   
       504  11  3.479026E-05  8.999994E+00  3.551536E-07  2.104303E-05  3.699449E-15 -2.942284E-15 _shell_0000000504   
       504  12  4.026047E-05  9.000007E+00 -2.994723E-07  2.418159E-05  7.205029E-15  1.503049E-14 _shell_0000000504   
       504  13  2.022437E-05  8.999970E+00 -4.468153E-08  1.455785E-05  4.231102E-15  7.867065E-15 _shell_0000000504   
       504  14  2.841249E-05  8.999992E+00  2.030557E-07  1.749725E-05  3.611141E-15 -2.191611E-15 _shell_0000000504   
       504  15  3.399739E-05  9.000006E+00 -3.205973E-07  2.022816E-05 -9.551941E-16  1.097222E-14 _shell_0000000504   
       504  16  1.503036E-05  8.999967E+00 -3.582736E-07  1.162760E-05  6.335950E-15 -3.613884E-16 _shell_0000000504   
       504  17  2.338344E-05  8.999990E+00  1.377453E-07  1.415935E-05  2.504726E-15 -2.591017E-15 _shell_0000000504   
       504  18  2.910866E-05  9.000006E+00 -1.950751E-07  1.648262E-05 -6.725577E-15  8.504076E-15 _shell_0000000504   
       504  19  2.642205E-05  8.999973E+00  3.536264E-07  1.781258E-05 -2.435566E-07 -7.166910E-08 _shell_0000000504   
       504  20  3.441968E-05  8.999994E+00  3.617491E-07  2.116691E-05 -4.720176E-08 -6.627519E-09 _shell_0000000504   
       504  21  3.983871E-05  9.000007E+00 -3.440693E-07  2.431276E-05  1.491531E-07  3.379303E-08 _shell_0000000504   
       504  22  1.991773E-05  8.999970E+00  1.856886E-08  1.465738E-05 -2.403917E-07 -5.240348E-08 _shell_0000000504   
       504  23  2.805466E-05  8.999992E+00  2.151136E-07  1.760407E-05 -4.663648E-08 -7.212192E-09 _shell_0000000504   
       504  24  3.358837E-05  9.000007E+00 -3.597320E-07  2.034226E-05  1.471188E-07  1.335807E-08 _shell_0000000504   
       504  25  1.473647E-05  8.999968E+00 -2.895608E-07  1.171007E-05 -2.243998E-07 -3.313785E-08 _shell_0000000504   
       504  26  2.303835E-05  8.999991E+00  1.552656E-07  1.424911E-05 -3.324413E-08 -7.796856E-09 _shell_0000000504   
       504  27  2.871238E-05  9.000006E+00 -2.287473E-07  1.657966E-05  1.579115E-07 -7.076877E-09 _shell_0000000504   
       505   1  4.496345E-05  9.000013E+00  5.123744E-08  2.480908E-05  5.200000E-08 -3.237229E-08 _shell_0000000505   
       505   2  5.247376E-05  9.000020E+00  6.923184E-08  2.371440E-05  1.489777E-08 -1.990858E-08 _shell_0000000505   
       505   3  5.894963E-05  9.000024E+00 -2.659866E-08  2.273415E-05 -2.220446E-08 -3.369773E-08 _shell_0000000505   
       505   4  3.894994E-05  9.000013E+00  7.768856E-08  2.088911E-05  7.274997E-08 -6.082142E-09 _shell_0000000505   
       505   5  4.669919E-05  9.000020E+00 -2.525809E-08  2.003882E-05  2.650161E-08  6.652611E-09 _shell_0000000505   
       505   6  5.344025E-05  9.000024E+00 -1.807730E-07  1.930296E-05 -1.974675E-08 -6.865472E-09 _shell_0000000505   
       505   7  3.415496E-05  9.000013E+00  2.161837E-07  1.704340E-05  7.730182E-08  2.020800E-08 _shell_0000000505   
       505   8  4.217555E-05  9.000021E+00  6.788731E-08  1.643751E-05  2.190731E-08  3.321383E-08 _shell_0000000505   
       505   9  4.921420E-05  9.000025E+00 -7.172058E-08  1.594604E-05 -3.348719E-08  1.996679E-08 _shell_0000000505   
       505  10  4.515518E-05  9.000013E+00  1.187043E-08  2.468025E-05  8.792051E-15  2.402641E-14 _shell_0000000505   
       505  11  5.270224E-05  9.000020E+00  6.661556E-08  2.358856E-05  6.976810E-15  1.304141E-14 _shell_0000000505   
       505  12  5.921486E-05  9.000023E+00  7.535796E-09  2.261129E-05  2.003264E-15  1.541099E-15 _shell_0000000505   
       505  13  3.914689E-05  9.000012E+00  4.056045E-08  2.077253E-05 -7.380616E-16  1.926699E-14 _shell_0000000505   
       505  14  4.693289E-05  9.000020E+00 -2.563546E-08  1.992523E-05  1.275639E-15  7.146741E-15 _shell_0000000505   
       505  15  5.371071E-05  9.000024E+00 -1.443996E-07  1.919235E-05 -9.956461E-16 -1.343964E-15 _shell_0000000505   
       505  16  3.435714E-05  9.000013E+00  1.812945E-07  1.693907E-05 -9.900722E-15  1.226266E-14 _shell_0000000505   
       505  17  4.241448E-05  9.000020E+00  6.974888E-08  1.633616E-05 -5.524532E-15  4.026434E-15 _shell_0000000505   
       505  18  4.948988E-05  9.000025E+00 -3.310827E-08  1.584768E-05 -2.331786E-15  2.166594E-15 _shell_0000000505   
       505  19  4.496345E-05  9.000013E+00  5.123739E-08  2.480908E-05 -5.199997E-08  3.237233E-08 _shell_0000000505   
       505  20  5.247376E-05  9.000020E+00  6.923180E-08  2.371440E-05 -1.489775E-08  1.990861E-08 _shell_0000000505   
       505  21  5.894963E-05  9.000024E+00 -2.659870E-08  2.273415E-05  2.220447E-08  3.369774E-08 _shell_0000000505   
       505  22  3.894994E-05  9.000013E+00  7.768854E-08  2.088911E-05 -7.274998E-08  6.082185E-09 _shell_0000000505   
       505  23  4.669919E-05  9.000020E+00 -2.525811E-08  2.003882E-05 -2.650160E-08 -6.652606E-09 _shell_0000000505   
       505  24  5.344025E-05  9.000024E+00 -1.807730E-07  1.930296E-05  1.974676E-08  6.865474E-09 _shell_0000000505   
       505  25  3.415496E-05  9.000013E+00  2.161837E-07  1.704340E-05 -7.730184E-08 -2.020796E-08 _shell_0000000505   
       505  26  4.217555E-05  9.000021E+00  6.788734E-08  1.643751E-05 -2.190733E-08 -3.321382E-08 _shell_0000000505   
       505  27  4.921420E-05  9.000025E+00 -7.172055E-08  1.594604E-05  3.348718E-08 -1.996677E-08 _shell_0000000505   
       506   1  6.270035E-05  9.000025E+00  1.256270E-07  2.116813E-05 -2.569468E-08 -3.370778E-08 _shell_0000000506   
       506   2  6.758326E-05  9.000025E+00  2.192042E-08  1.795687E-05  6.378053E-09 -1.837115E-08 _shell_0000000506   
       506   3  7.229661E-05  9.000026E+00  7.171133E-08  1.503574E-05  3.845080E-08 -2.683662E-08 _shell_0000000506   
       506   4  5.771401E-05  9.000026E+00  7.547772E-08  1.804791E-05 -1.797547E-08 -6.937813E-09 _shell_0000000506   
       506   5  6.299387E-05  9.000027E+00 -1.006260E-07  1.531876E-05  1.354474E-08  7.913633E-09 _shell_0000000506   
       506   6  6.812797E-05  9.000027E+00 -6.769398E-08  1.287972E-05  4.506496E-08 -1.036985E-09 _shell_0000000506   
       506   7  5.367690E-05  9.000027E+00  1.755707E-07  1.493557E-05 -2.130344E-08  1.983214E-08 _shell_0000000506   
       506   8  5.937579E-05  9.000028E+00 -2.137679E-08  1.268852E-05  9.664263E-09  3.419844E-08 _shell_0000000506   
       506   9  6.495273E-05  9.000029E+00  4.624984E-08  1.073159E-05  4.063196E-08  2.476264E-08 _shell_0000000506   
       506  10  6.278003E-05  9.000024E+00  9.039200E-08  2.107026E-05 -1.244105E-15 -4.275888E-15 _shell_0000000506   
       506  11  6.768725E-05  9.000025E+00  1.099573E-08  1.786751E-05 -3.650188E-15 -1.934820E-16 _shell_0000000506   
       506  12  7.242491E-05  9.000026E+00  8.509699E-08  1.495488E-05  3.941230E-15  1.329979E-14 _shell_0000000506   
       506  13  5.780859E-05  9.000025E+00  4.662626E-08  1.795814E-05 -1.577982E-15  5.394258E-16 _shell_0000000506   
       506  14  6.311275E-05  9.000026E+00 -1.051672E-07  1.523749E-05 -1.425283E-15 -5.675751E-16 _shell_0000000506   
       506  15  6.827116E-05  9.000027E+00 -4.792481E-08  1.280697E-05  4.552828E-15  1.222180E-14 _shell_0000000506   
       506  16  5.378637E-05  9.000027E+00  1.531028E-07  1.485390E-05 -2.185821E-15 -5.650031E-16 _shell_0000000506   
       506  17  5.950957E-05  9.000028E+00 -1.953437E-08  1.261536E-05 -1.705837E-16  2.595817E-16 _shell_0000000506   
       506  18  6.511082E-05  9.000028E+00  7.240255E-08  1.066694E-05  3.732386E-15  1.227092E-14 _shell_0000000506   
       506  19  6.270035E-05  9.000025E+00  1.256270E-07  2.116813E-05  2.569468E-08  3.370776E-08 _shell_0000000506   
       506  20  6.758326E-05  9.000025E+00  2.192042E-08  1.795687E-05 -6.378058E-09  1.837115E-08 _shell_0000000506   
       506  21  7.229661E-05  9.000026E+00  7.171136E-08  1.503574E-05 -3.845079E-08  2.683666E-08 _shell_0000000506   
       506  22  5.771401E-05  9.000026E+00  7.547773E-08  1.804791E-05  1.797547E-08  6.937814E-09 _shell_0000000506   
       506  23  6.299387E-05  9.000027E+00 -1.006260E-07  1.531876E-05 -1.354474E-08 -7.913652E-09 _shell_0000000506   
       506  24  6.812797E-05  9.000027E+00 -6.769397E-08  1.287972E-05 -4.506496E-08  1.037020E-09 _shell_0000000506   
       506  25  5.367690E-05  9.000027E+00  1.755707E-07  1.493557E-05  2.130343E-08 -1.983213E-08 _shell_0000000506   
       506  26  5.937579E-05  9.000028E+00 -2.137675E-08  1.268852E-05 -9.664266E-09 -3.419845E-08 _shell_0000000506   
       506  27  6.495273E-05  9.000029E+00  4.624984E-08  1.073159E-05 -4.063196E-08 -2.476260E-08 _shell_0000000506   
       507   1  7.442959E-05  9.000025E+00  1.040208E-07  1.288922E-05 -5.557891E-08 -2.919438E-08 _shell_0000000507   
       507   2  7.669446E-05  9.000025E+00 -2.397335E-08  9.244625E-06  9.108082E-10 -2.032877E-08 _shell_0000000507   
       507   3  7.915813E-05  9.000024E+00  9.977726E-08  5.798761E-06  5.740054E-08 -2.209315E-08 _shell_0000000507   
       507   4  7.067444E-05  9.000027E+00  4.731894E-08  1.107082E-05 -5.710038E-08 -3.919856E-09 _shell_0000000507   
       507   5  7.318592E-05  9.000026E+00 -1.187775E-07  7.929291E-06  4.445555E-09  3.626338E-09 _shell_0000000507   
       507   6  7.590683E-05  9.000026E+00 -8.325970E-09  4.986495E-06  6.599150E-08  5.425846E-10 _shell_0000000507   
       507   7  6.762596E-05  9.000028E+00  1.394143E-07  9.240191E-06 -6.411728E-08  2.135464E-08 _shell_0000000507   
       507   8  7.039504E-05  9.000028E+00 -3.913927E-08  6.601728E-06  2.484892E-09  2.758147E-08 _shell_0000000507   
       507   9  7.338419E-05  9.000028E+00  8.365858E-08  4.161999E-06  6.908704E-08  2.317832E-08 _shell_0000000507   
       507  10  7.446723E-05  9.000025E+00  8.440286E-08  1.283899E-05  5.532720E-15  1.710355E-14 _shell_0000000507   
       507  11  7.674298E-05  9.000025E+00 -3.271088E-08  9.202169E-06 -4.209655E-17  3.064339E-15 _shell_0000000507   
       507  12  7.921753E-05  9.000024E+00  1.019201E-07  5.764083E-06  7.028800E-16 -8.385072E-15 _shell_0000000507   
       507  13  7.072569E-05  9.000027E+00  3.353482E-08  1.102422E-05  4.778879E-15  2.008634E-14 _shell_0000000507   
       507  14  7.324805E-05  9.000026E+00 -1.216813E-07  7.890463E-06  4.084390E-15  6.739509E-15 _shell_0000000507   
       507  15  7.597984E-05  9.000026E+00 -3.493019E-10  4.955444E-06  5.390276E-16  1.605989E-15 _shell_0000000507   
       507  16  6.769082E-05  9.000028E+00  1.314640E-07  9.197211E-06  5.296982E-15  1.409518E-14 _shell_0000000507   
       507  17  7.047078E-05  9.000028E+00 -3.620920E-08  6.566526E-06  2.470332E-15  4.739083E-15 _shell_0000000507   
       507  18  7.347081E-05  9.000028E+00  9.746903E-08  4.134576E-06 -4.768416E-16  7.918679E-15 _shell_0000000507   
       507  19  7.442959E-05  9.000025E+00  1.040208E-07  1.288922E-05  5.557891E-08  2.919441E-08 _shell_0000000507   
       507  20  7.669446E-05  9.000025E+00 -2.397333E-08  9.244625E-06 -9.108144E-10  2.032877E-08 _shell_0000000507   
       507  21  7.915813E-05  9.000024E+00  9.977731E-08  5.798761E-06 -5.740053E-08  2.209313E-08 _shell_0000000507   
       507  22  7.067444E-05  9.000027E+00  4.731894E-08  1.107082E-05  5.710039E-08  3.919900E-09 _shell_0000000507   
       507  23  7.318592E-05  9.000026E+00 -1.187775E-07  7.929291E-06 -4.445558E-09 -3.626346E-09 _shell_0000000507   
       507  24  7.590683E-05  9.000026E+00 -8.325935E-09  4.986495E-06 -6.599150E-08 -5.425806E-10 _shell_0000000507   
       507  25  6.762596E-05  9.000028E+00  1.394143E-07  9.240191E-06  6.411729E-08 -2.135460E-08 _shell_0000000507   
       507  26  7.039504E-05  9.000028E+00 -3.913928E-08  6.601728E-06 -2.484874E-09 -2.758147E-08 _shell_0000000507   
       507  27  7.338419E-05  9.000028E+00  8.365859E-08  4.161999E-06 -6.908704E-08 -2.317828E-08 _shell_0000000507   
       508   1  7.984395E-05  9.000024E+00  1.054985E-07  3.590510E-06 -6.162390E-08 -2.254863E-08 _shell_0000000508   
       508   2  7.969517E-05  9.000024E+00 -3.062668E-08 -5.930249E-15 -1.622547E-16 -1.946668E-08 _shell_0000000508   
       508   3  7.984395E-05  9.000024E+00  1.054985E-07 -3.590510E-06  6.162390E-08 -2.254864E-08 _shell_0000000508   
       508   4  7.673628E-05  9.000026E+00  2.288956E-08  3.092644E-06 -6.834912E-08 -2.968218E-10 _shell_0000000508   
       508   5  7.658441E-05  9.000025E+00 -1.204268E-07  2.697881E-15 -5.911160E-15  2.785107E-09 _shell_0000000508   
       508   6  7.673628E-05  9.000026E+00  2.288958E-08 -3.092644E-06  6.834911E-08 -2.968626E-10 _shell_0000000508   
       508   7  7.425952E-05  9.000027E+00  1.045710E-07  2.594779E-06 -7.507433E-08  2.195496E-08 _shell_0000000508   
       508   8  7.410458E-05  9.000027E+00 -4.593664E-08 -5.344859E-15 -5.208056E-15  2.503690E-08 _shell_0000000508   
       508   9  7.425952E-05  9.000027E+00  1.045710E-07 -2.594779E-06  7.507432E-08  2.195491E-08 _shell_0000000508   
       508  10  7.987474E-05  9.000024E+00  9.719081E-08  3.583154E-06 -3.150438E-17 -6.515638E-15 _shell_0000000508   
       508  11  7.972596E-05  9.000024E+00 -3.893436E-08 -1.552554E-14  5.644771E-16  5.914927E-15 _shell_0000000508   
       508  12  7.987474E-05  9.000024E+00  9.719081E-08 -3.583154E-06  1.624506E-15 -5.025447E-15 _shell_0000000508   
       508  13  7.677994E-05  9.000026E+00  2.009842E-08  3.085289E-06 -8.653549E-16  9.523877E-15 _shell_0000000508   
       508  14  7.662808E-05  9.000025E+00 -1.232180E-07 -5.192149E-15 -4.581308E-16  1.040456E-14 _shell_0000000508   
       508  15  7.677994E-05  9.000026E+00  2.009842E-08 -3.085289E-06  3.817729E-17 -5.217515E-15 _shell_0000000508   
       508  16  7.431606E-05  9.000027E+00  1.072964E-07  2.587423E-06 -2.133127E-16  1.063375E-14 _shell_0000000508   
       508  17  7.416111E-05  9.000027E+00 -4.321128E-08 -7.126479E-15  2.609698E-15  3.619208E-15 _shell_0000000508   
       508  18  7.431606E-05  9.000027E+00  1.072964E-07 -2.587423E-06  1.985304E-15 -1.221362E-14 _shell_0000000508   
       508  19  7.984395E-05  9.000024E+00  1.054985E-07  3.590510E-06  6.162390E-08  2.254861E-08 _shell_0000000508   
       508  20  7.969517E-05  9.000024E+00 -3.062664E-08 -1.784165E-14  2.545171E-17  1.946668E-08 _shell_0000000508   
       508  21  7.984395E-05  9.000024E+00  1.054985E-07 -3.590510E-06 -6.162390E-08  2.254864E-08 _shell_0000000508   
       508  22  7.673628E-05  9.000026E+00  2.288959E-08  3.092644E-06  6.834912E-08  2.968471E-10 _shell_0000000508   
       508  23  7.658441E-05  9.000025E+00 -1.204268E-07 -5.293956E-15 -2.341557E-15 -2.785108E-09 _shell_0000000508   
       508  24  7.673628E-05  9.000026E+00  2.288957E-08 -3.092644E-06 -6.834912E-08  2.968537E-10 _shell_0000000508   
       508  25  7.425952E-05  9.000027E+00  1.045710E-07  2.594779E-06  7.507433E-08 -2.195492E-08 _shell_0000000508   
       508  26  7.410458E-05  9.000027E+00 -4.593666E-08 -1.570371E-14 -8.653582E-16 -2.503690E-08 _shell_0000000508   
       508  27  7.425952E-05  9.000027E+00  1.045710E-07 -2.594779E-06 -7.507433E-08 -2.195493E-08 _shell_0000000508   
       509   1  7.915813E-05  9.000024E+00  9.977726E-08 -5.798761E-06 -5.740054E-08 -2.209317E-08 _shell_0000000509   
       509   2  7.669446E-05  9.000025E+00 -2.397336E-08 -9.244625E-06 -9.108166E-10 -2.032879E-08 _shell_0000000509   
       509   3  7.442959E-05  9.000025E+00  1.040208E-07 -1.288922E-05  5.557890E-08 -2.919436E-08 _shell_0000000509   
       509   4  7.590683E-05  9.000026E+00 -8.325966E-09 -4.986495E-06 -6.599150E-08  5.425600E-10 _shell_0000000509   
       509   5  7.318592E-05  9.000026E+00 -1.187775E-07 -7.929291E-06 -4.445559E-09  3.626327E-09 _shell_0000000509   
       509   6  7.067444E-05  9.000027E+00  4.731893E-08 -1.107082E-05  5.710038E-08 -3.919855E-09 _shell_0000000509   
       509   7  7.338419E-05  9.000028E+00  8.365856E-08 -4.162000E-06 -6.908704E-08  2.317827E-08 _shell_0000000509   
       509   8  7.039504E-05  9.000028E+00 -3.913929E-08 -6.601728E-06 -2.484872E-09  2.758146E-08 _shell_0000000509   
       509   9  6.762596E-05  9.000028E+00  1.394143E-07 -9.240191E-06  6.411729E-08  2.135465E-08 _shell_0000000509   
       509  10  7.921753E-05  9.000024E+00  1.019201E-07 -5.764083E-06  8.338527E-16 -8.959004E-15 _shell_0000000509   
       509  11  7.674298E-05  9.000025E+00 -3.271089E-08 -9.202169E-06  4.841876E-15  4.591439E-15 _shell_0000000509   
       509  12  7.446723E-05  9.000025E+00  8.440287E-08 -1.283899E-05  1.287890E-15  1.169633E-14 _shell_0000000509   
       509  13  7.597984E-05  9.000026E+00 -3.493157E-10 -4.955444E-06 -5.720530E-16 -4.372759E-15 _shell_0000000509   
       509  14  7.324805E-05  9.000026E+00 -1.216813E-07 -7.890463E-06  3.054199E-15  9.182876E-15 _shell_0000000509   
       509  15  7.072569E-05  9.000027E+00  3.353483E-08 -1.102422E-05  3.022082E-15  1.598376E-14 _shell_0000000509   
       509  16  7.347081E-05  9.000028E+00  9.746901E-08 -4.134576E-06  1.425297E-15 -1.176376E-14 _shell_0000000509   
       509  17  7.047078E-05  9.000028E+00 -3.620921E-08 -6.566526E-06  2.093095E-15  5.349925E-15 _shell_0000000509   
       509  18  6.769082E-05  9.000028E+00  1.314640E-07 -9.197211E-06  5.802470E-17  1.395074E-14 _shell_0000000509   
       509  19  7.915813E-05  9.000024E+00  9.977729E-08 -5.798761E-06  5.740055E-08  2.209315E-08 _shell_0000000509   
       509  20  7.669446E-05  9.000025E+00 -2.397333E-08 -9.244625E-06  9.108179E-10  2.032878E-08 _shell_0000000509   
       509  21  7.442959E-05  9.000025E+00  1.040208E-07 -1.288922E-05 -5.557891E-08  2.919440E-08 _shell_0000000509   
       509  22  7.590683E-05  9.000026E+00 -8.325959E-09 -4.986495E-06  6.599151E-08 -5.425623E-10 _shell_0000000509   
       509  23  7.318592E-05  9.000026E+00 -1.187775E-07 -7.929291E-06  4.445556E-09 -3.626328E-09 _shell_0000000509   
       509  24  7.067444E-05  9.000027E+00  4.731895E-08 -1.107082E-05 -5.710037E-08  3.919894E-09 _shell_0000000509   
       509  25  7.338419E-05  9.000028E+00  8.365854E-08 -4.161999E-06  6.908704E-08 -2.317828E-08 _shell_0000000509   
       509  26  7.039504E-05  9.000028E+00 -3.913929E-08 -6.601728E-06  2.484868E-09 -2.758146E-08 _shell_0000000509   
       509  27  6.762596E-05  9.000028E+00  1.394143E-07 -9.240191E-06 -6.411728E-08 -2.135460E-08 _shell_0000000509   
       510   1  7.229661E-05  9.000026E+00  7.171133E-08 -1.503574E-05 -3.845080E-08 -2.683661E-08 _shell_0000000510   
       510   2  6.758326E-05  9.000025E+00  2.192042E-08 -1.795687E-05 -6.378057E-09 -1.837116E-08 _shell_0000000510   
       510   3  6.270035E-05  9.000025E+00  1.256270E-07 -2.116813E-05  2.569469E-08 -3.370775E-08 _shell_0000000510   
       510   4  6.812797E-05  9.000027E+00 -6.769398E-08 -1.287972E-05 -4.506496E-08 -1.036980E-09 _shell_0000000510   
       510   5  6.299387E-05  9.000027E+00 -1.006260E-07 -1.531876E-05 -1.354475E-08  7.913633E-09 _shell_0000000510   
       510   6  5.771401E-05  9.000026E+00  7.547771E-08 -1.804791E-05  1.797547E-08 -6.937796E-09 _shell_0000000510   
       510   7  6.495273E-05  9.000029E+00  4.624984E-08 -1.073159E-05 -4.063197E-08  2.476263E-08 _shell_0000000510   
       510   8  5.937579E-05  9.000028E+00 -2.137677E-08 -1.268852E-05 -9.664261E-09  3.419844E-08 _shell_0000000510   
       510   9  5.367690E-05  9.000027E+00  1.755707E-07 -1.493557E-05  2.130344E-08  1.983215E-08 _shell_0000000510   
       510  10  7.242491E-05  9.000026E+00  8.509698E-08 -1.495488E-05  3.016028E-15  5.293956E-15 _shell_0000000510   
       510  11  6.768725E-05  9.000025E+00  1.099572E-08 -1.786751E-05  9.893428E-15 -6.098278E-15 _shell_0000000510   
       510  12  6.278003E-05  9.000024E+00  9.039201E-08 -2.107026E-05  2.605771E-15  9.456577E-15 _shell_0000000510   
       510  13  6.827116E-05  9.000027E+00 -4.792482E-08 -1.280697E-05  4.695217E-15  1.275625E-14 _shell_0000000510   
       510  14  6.311275E-05  9.000026E+00 -1.051672E-07 -1.523749E-05  3.868647E-15 -4.662854E-15 _shell_0000000510   
       510  15  5.780859E-05  9.000025E+00  4.662626E-08 -1.795814E-05  2.356701E-15  7.312069E-15 _shell_0000000510   
       510  16  6.511082E-05  9.000028E+00  7.240255E-08 -1.066694E-05  1.272838E-17  7.375931E-15 _shell_0000000510   
       510  17  5.950957E-05  9.000028E+00 -1.953437E-08 -1.261536E-05  4.644328E-15 -5.747021E-15 _shell_0000000510   
       510  18  5.378637E-05  9.000027E+00  1.531028E-07 -1.485390E-05  4.680239E-15  5.831640E-15 _shell_0000000510   
       510  19  7.229661E-05  9.000026E+00  7.171136E-08 -1.503574E-05  3.845080E-08  2.683661E-08 _shell_0000000510   
       510  20  6.758326E-05  9.000025E+00  2.192043E-08 -1.795687E-05  6.378067E-09  1.837113E-08 _shell_0000000510   
       510  21  6.270035E-05  9.000025E+00  1.256270E-07 -2.116813E-05 -2.569468E-08  3.370778E-08 _shell_0000000510   
       510  22  6.812797E-05  9.000027E+00 -6.769398E-08 -1.287972E-05  4.506497E-08  1.037008E-09 _shell_0000000510   
       510  23  6.299387E-05  9.000027E+00 -1.006260E-07 -1.531876E-05  1.354474E-08 -7.913658E-09 _shell_0000000510   
       510  24  5.771401E-05  9.000026E+00  7.547770E-08 -1.804791E-05 -1.797547E-08  6.937821E-09 _shell_0000000510   
       510  25  6.495273E-05  9.000029E+00  4.624983E-08 -1.073159E-05  4.063197E-08 -2.476261E-08 _shell_0000000510   
       510  26  5.937579E-05  9.000028E+00 -2.137677E-08 -1.268852E-05  9.664267E-09 -3.419846E-08 _shell_0000000510   
       510  27  5.367690E-05  9.000027E+00  1.755707E-07 -1.493557E-05 -2.130343E-08 -1.983213E-08 _shell_0000000510   
       511   1  5.894963E-05  9.000024E+00 -2.659869E-08 -2.273415E-05  2.220449E-08 -3.369772E-08 _shell_0000000511   
       511   2  5.247376E-05  9.000020E+00  6.923179E-08 -2.371440E-05 -1.489775E-08 -1.990859E-08 _shell_0000000511   
       511   3  4.496345E-05  9.000013E+00  5.123740E-08 -2.480908E-05 -5.199996E-08 -3.237227E-08 _shell_0000000511   
       511   4  5.344025E-05  9.000024E+00 -1.807729E-07 -1.930296E-05  1.974676E-08 -6.865450E-09 _shell_0000000511   
       511   5  4.669919E-05  9.000020E+00 -2.525811E-08 -2.003882E-05 -2.650161E-08  6.652608E-09 _shell_0000000511   
       511   6  3.894994E-05  9.000013E+00  7.768856E-08 -2.088911E-05 -7.274995E-08 -6.082129E-09 _shell_0000000511   
       511   7  4.921420E-05  9.000025E+00 -7.172056E-08 -1.594604E-05  3.348719E-08  1.996680E-08 _shell_0000000511   
       511   8  4.217555E-05  9.000021E+00  6.788733E-08 -1.643751E-05 -2.190732E-08  3.321383E-08 _shell_0000000511   
       511   9  3.415496E-05  9.000013E+00  2.161838E-07 -1.704340E-05 -7.730182E-08  2.020801E-08 _shell_0000000511   
       511  10  5.921486E-05  9.000023E+00  7.535795E-09 -2.261129E-05  1.647697E-15  9.977066E-15 _shell_0000000511   
       511  11  5.270224E-05  9.000020E+00  6.661554E-08 -2.358856E-05  3.114190E-15 -3.247696E-15 _shell_0000000511   
       511  12  4.515518E-05  9.000013E+00  1.187041E-08 -2.468025E-05  4.552824E-15  8.387607E-15 _shell_0000000511   
       511  13  5.371071E-05  9.000024E+00 -1.443996E-07 -1.919235E-05  5.974886E-16  1.438515E-14 _shell_0000000511   
       511  14  4.693289E-05  9.000020E+00 -2.563547E-08 -1.992523E-05  2.035920E-16 -1.833541E-16 _shell_0000000511   
       511  15  3.914689E-05  9.000012E+00  4.056043E-08 -2.077253E-05  5.990244E-15  1.270538E-14 _shell_0000000511   
       511  16  4.948988E-05  9.000025E+00 -3.310827E-08 -1.584768E-05  2.194917E-15  5.339791E-15 _shell_0000000511   
       511  17  4.241448E-05  9.000020E+00  6.974888E-08 -1.633616E-05  1.533162E-15 -3.914502E-15 _shell_0000000511   
       511  18  3.435714E-05  9.000013E+00  1.812945E-07 -1.693907E-05  3.245259E-15  5.602567E-15 _shell_0000000511   
       511  19  5.894963E-05  9.000024E+00 -2.659870E-08 -2.273415E-05 -2.220447E-08  3.369774E-08 _shell_0000000511   
       511  20  5.247376E-05  9.000020E+00  6.923183E-08 -2.371440E-05  1.489776E-08  1.990858E-08 _shell_0000000511   
       511  21  4.496345E-05  9.000013E+00  5.123743E-08 -2.480908E-05  5.199998E-08  3.237230E-08 _shell_0000000511   
       511  22  5.344025E-05  9.000024E+00 -1.807730E-07 -1.930296E-05 -1.974676E-08  6.865483E-09 _shell_0000000511   
       511  23  4.669919E-05  9.000020E+00 -2.525810E-08 -2.003882E-05  2.650161E-08 -6.652630E-09 _shell_0000000511   
       511  24  3.894994E-05  9.000013E+00  7.768853E-08 -2.088911E-05  7.274997E-08  6.082158E-09 _shell_0000000511   
       511  25  4.921420E-05  9.000025E+00 -7.172059E-08 -1.594604E-05 -3.348719E-08 -1.996677E-08 _shell_0000000511   
       511  26  4.217555E-05  9.000021E+00  6.788732E-08 -1.643751E-05  2.190732E-08 -3.321384E-08 _shell_0000000511   
       511  27  3.415496E-05  9.000013E+00  2.161837E-07 -1.704340E-05  7.730183E-08 -2.020799E-08 _shell_0000000511   
       512   1  3.983871E-05  9.000007E+00 -3.440694E-07 -2.431276E-05  1.491531E-07 -3.379296E-08 _shell_0000000512   
       512   2  3.441968E-05  8.999994E+00  3.617491E-07 -2.116691E-05 -4.720175E-08  6.627533E-09 _shell_0000000512   
       512   3  2.642205E-05  8.999973E+00  3.536264E-07 -1.781258E-05 -2.435566E-07  7.166912E-08 _shell_0000000512   
       512   4  3.358837E-05  9.000007E+00 -3.597320E-07 -2.034226E-05  1.471188E-07 -1.335800E-08 _shell_0000000512   
       512   5  2.805466E-05  8.999992E+00  2.151136E-07 -1.760407E-05 -4.663649E-08  7.212181E-09 _shell_0000000512   
       512   6  1.991773E-05  8.999970E+00  1.856887E-08 -1.465738E-05 -2.403917E-07  5.240349E-08 _shell_0000000512   
       512   7  2.871238E-05  9.000006E+00 -2.287473E-07 -1.657966E-05  1.579115E-07  7.076929E-09 _shell_0000000512   
       512   8  2.303835E-05  8.999991E+00  1.552657E-07 -1.424911E-05 -3.324415E-08  7.796862E-09 _shell_0000000512   
       512   9  1.473647E-05  8.999968E+00 -2.895608E-07 -1.171007E-05 -2.243998E-07  3.313786E-08 _shell_0000000512   
       512  10  4.026047E-05  9.000007E+00 -2.994723E-07 -2.418159E-05  6.330815E-15  1.201319E-14 _shell_0000000512   
       512  11  3.479026E-05  8.999994E+00  3.551536E-07 -2.104303E-05  4.179059E-17  4.173800E-16 _shell_0000000512   
       512  12  2.674143E-05  8.999973E+00  2.958384E-07 -1.769599E-05  1.363538E-16  2.431876E-15 _shell_0000000512   
       512  13  3.399739E-05  9.000006E+00 -3.205974E-07 -2.022816E-05  1.020491E-14  1.848281E-14 _shell_0000000512   
       512  14  2.841249E-05  8.999992E+00  2.030557E-07 -1.749725E-05  2.036106E-15  4.296138E-15 _shell_0000000512   
       512  15  2.022437E-05  8.999970E+00 -4.468153E-08 -1.455785E-05 -2.299758E-15 -1.522103E-15 _shell_0000000512   
       512  16  2.910866E-05  9.000006E+00 -1.950751E-07 -1.648262E-05  2.901502E-15  7.579546E-15 _shell_0000000512   
       512  17  2.338344E-05  8.999990E+00  1.377454E-07 -1.415935E-05  1.371350E-15 -2.591006E-15 _shell_0000000512   
       512  18  1.503036E-05  8.999967E+00 -3.582736E-07 -1.162760E-05  2.727131E-15 -4.985344E-15 _shell_0000000512   
       512  19  3.983871E-05  9.000007E+00 -3.440693E-07 -2.431276E-05 -1.491531E-07  3.379298E-08 _shell_0000000512   
       512  20  3.441968E-05  8.999994E+00  3.617491E-07 -2.116691E-05  4.720177E-08 -6.627531E-09 _shell_0000000512   
       512  21  2.642205E-05  8.999973E+00  3.536264E-07 -1.781258E-05  2.435566E-07 -7.166911E-08 _shell_0000000512   
       512  22  3.358837E-05  9.000007E+00 -3.597320E-07 -2.034226E-05 -1.471187E-07  1.335804E-08 _shell_0000000512   
       512  23  2.805466E-05  8.999992E+00  2.151136E-07 -1.760407E-05  4.663649E-08 -7.212193E-09 _shell_0000000512   
       512  24  1.991773E-05  8.999970E+00  1.856884E-08 -1.465738E-05  2.403917E-07 -5.240348E-08 _shell_0000000512   
       512  25  2.871238E-05  9.000006E+00 -2.287473E-07 -1.657966E-05 -1.579115E-07 -7.076902E-09 _shell_0000000512   
       512  26  2.303835E-05  8.999991E+00  1.552657E-07 -1.424911E-05  3.324413E-08 -7.796868E-09 _shell_0000000512   
       512  27  1.473647E-05  8.999968E+00 -2.895608E-07 -1.171007E-05  2.243998E-07 -3.313785E-08 _shell_0000000512   
       513   1  2.153963E-05  8.999957E+00 -5.808172E-07 -1.376400E-05  2.789197E-07  3.415327E-08 _shell_0000000513   
       513   2  2.136925E-05  8.999922E+00 -1.515951E-07 -7.337075E-06  7.445798E-08 -8.782956E-08 _shell_0000000513   
       513   3  1.729064E-05  8.999875E+00 -1.095757E-06 -1.183367E-06 -1.300038E-07 -7.367782E-08 _shell_0000000513   
       513   4  1.600134E-05  8.999954E+00 -4.113870E-07 -1.151806E-05  2.704869E-07  1.592700E-08 _shell_0000000513   
       513   5  1.585519E-05  8.999920E+00  3.307663E-07 -6.380816E-06  5.662824E-08 -8.263384E-08 _shell_0000000513   
       513   6  1.166469E-05  8.999874E+00 -6.181123E-07 -1.516794E-06 -1.572305E-07 -4.506006E-08 _shell_0000000513   
       513   7  1.130718E-05  8.999951E+00 -4.281875E-07 -9.108523E-06  2.563591E-07 -2.299281E-09 _shell_0000000513   
       513   8  1.119665E-05  8.999918E+00  6.534735E-07 -5.260967E-06  3.310347E-08 -7.743808E-08 _shell_0000000513   
       513   9  6.905650E-06  8.999873E+00 -2.735446E-07 -1.686631E-06 -1.901521E-07 -1.644233E-08 _shell_0000000513   
       513  10  2.217472E-05  8.999956E+00 -5.053036E-07 -1.378398E-05 -1.228346E-15  5.701143E-15 _shell_0000000513   
       513  11  2.204350E-05  8.999921E+00 -3.691795E-08 -7.415148E-06 -1.275636E-15 -7.025145E-16 _shell_0000000513   
       513  12  1.800406E-05  8.999875E+00 -9.419168E-07 -1.319538E-06 -2.624560E-15 -5.992594E-15 _shell_0000000513   
       513  13  1.653476E-05  8.999953E+00 -3.794469E-07 -1.152498E-05 -3.169392E-15  6.240509E-15 _shell_0000000513   
       513  14  1.642777E-05  8.999919E+00  4.018698E-07 -6.445835E-06 -3.856573E-15  1.842901E-15 _shell_0000000513   
       513  15  1.227644E-05  8.999874E+00 -5.078453E-07 -1.639911E-06 -6.543145E-17 -1.219359E-15 _shell_0000000513   
       513  16  1.173892E-05  8.999951E+00 -4.398211E-07 -9.102390E-06 -2.805554E-16 -3.008416E-15 _shell_0000000513   
       513  17  1.166756E-05  8.999918E+00  6.810034E-07 -5.312932E-06 -1.217503E-14  1.481297E-15 _shell_0000000513   
       513  18  7.415721E-06  8.999873E+00 -2.068512E-07 -1.796694E-06 -9.989032E-15  2.141145E-15 _shell_0000000513   
       513  19  2.153963E-05  8.999957E+00 -5.808173E-07 -1.376400E-05 -2.789198E-07 -3.415326E-08 _shell_0000000513   
       513  20  2.136925E-05  8.999922E+00 -1.515951E-07 -7.337075E-06 -7.445800E-08  8.782956E-08 _shell_0000000513   
       513  21  1.729064E-05  8.999875E+00 -1.095757E-06 -1.183367E-06  1.300038E-07  7.367781E-08 _shell_0000000513   
       513  22  1.600134E-05  8.999954E+00 -4.113870E-07 -1.151806E-05 -2.704869E-07 -1.592699E-08 _shell_0000000513   
       513  23  1.585519E-05  8.999920E+00  3.307663E-07 -6.380816E-06 -5.662827E-08  8.263382E-08 _shell_0000000513   
       513  24  1.166469E-05  8.999874E+00 -6.181123E-07 -1.516794E-06  1.572305E-07  4.506008E-08 _shell_0000000513   
       513  25  1.130718E-05  8.999951E+00 -4.281876E-07 -9.108523E-06 -2.563591E-07  2.299291E-09 _shell_0000000513   
       513  26  1.119665E-05  8.999918E+00  6.534735E-07 -5.260967E-06 -3.310349E-08  7.743808E-08 _shell_0000000513   
       513  27  6.905650E-06  8.999873E+00 -2.735446E-07 -1.686631E-06  1.901521E-07  1.644235E-08 _shell_0000000513   
       514   1  2.201765E-05  8.999846E+00  1.017295E-06  9.574603E-07  5.140330E-08 -1.309047E-08 _shell_0000000514   
       514   2  2.148608E-05  8.999790E+00  6.186811E-07 -1.839100E-06 -2.337215E-07  2.179975E-08 _shell_0000000514   
       514   3  2.085851E-05  8.999732E+00  9.969591E-07 -4.910877E-06 -5.188463E-07 -5.375434E-08 _shell_0000000514   
       514   4  1.407148E-05  8.999844E+00  4.020404E-07  2.327323E-07  6.737077E-08  2.650728E-08 _shell_0000000514   
       514   5  1.333063E-05  8.999789E+00 -1.648893E-07 -1.338694E-06 -1.129146E-07  7.570811E-08 _shell_0000000514   
       514   6  1.260423E-05  8.999732E+00  3.027757E-07 -3.185337E-06 -2.932000E-07  1.446467E-08 _shell_0000000514   
       514   7  8.445874E-06  8.999844E+00  2.835959E-07 -3.426468E-07  8.281754E-08  6.610501E-08 _shell_0000000514   
       514   8  7.496788E-06  8.999789E+00 -4.492201E-07 -6.889386E-07  7.371590E-09  1.296165E-07 _shell_0000000514   
       514   9  6.672595E-06  8.999733E+00  1.102622E-07 -1.310448E-06 -6.807433E-08  8.268366E-08 _shell_0000000514   
       514  10  2.182363E-05  8.999845E+00  7.916185E-07  8.298465E-07 -9.490197E-16 -7.330267E-15 _shell_0000000514   
       514  11  2.130933E-05  8.999789E+00  4.102761E-07 -1.846667E-06 -7.018649E-15  4.693149E-15 _shell_0000000514   
       514  12  2.069903E-05  8.999732E+00  8.058251E-07 -4.798398E-06 -1.777500E-14  8.540280E-15 _shell_0000000514   
       514  13  1.408754E-05  8.999844E+00  2.663990E-07  1.108755E-07 -5.853961E-15  3.832384E-15 _shell_0000000514   
       514  14  1.336396E-05  8.999788E+00 -2.832597E-07 -1.340504E-06 -7.545858E-15  3.888941E-15 _shell_0000000514   
       514  15  1.265483E-05  8.999732E+00  2.016764E-07 -3.067101E-06 -1.670744E-15  9.849817E-15 _shell_0000000514   
       514  16  8.672015E-06  8.999843E+00  2.379891E-07 -4.587465E-07 -1.163080E-14  1.471226E-15 _shell_0000000514   
       514  17  7.740200E-06  8.999788E+00 -4.775558E-07 -6.849921E-07 -2.077973E-15  3.613117E-16 _shell_0000000514   
       514  18  6.933278E-06  8.999733E+00  9.919752E-08 -1.186455E-06  6.125548E-15  7.995103E-15 _shell_0000000514   
       514  19  2.201765E-05  8.999846E+00  1.017295E-06  9.574603E-07 -5.140330E-08  1.309045E-08 _shell_0000000514   
       514  20  2.148608E-05  8.999790E+00  6.186811E-07 -1.839100E-06  2.337215E-07 -2.179975E-08 _shell_0000000514   
       514  21  2.085851E-05  8.999732E+00  9.969590E-07 -4.910877E-06  5.188463E-07  5.375437E-08 _shell_0000000514   
       514  22  1.407148E-05  8.999844E+00  4.020404E-07  2.327323E-07 -6.737079E-08 -2.650727E-08 _shell_0000000514   
       514  23  1.333063E-05  8.999789E+00 -1.648894E-07 -1.338694E-06  1.129146E-07 -7.570812E-08 _shell_0000000514   
       514  24  1.260423E-05  8.999732E+00  3.027757E-07 -3.185337E-06  2.932000E-07 -1.446464E-08 _shell_0000000514   
       514  25  8.445874E-06  8.999844E+00  2.835959E-07 -3.426468E-07 -8.281757E-08 -6.610499E-08 _shell_0000000514   
       514  26  7.496788E-06  8.999789E+00 -4.492201E-07 -6.889386E-07 -7.371589E-09 -1.296165E-07 _shell_0000000514   
       514  27  6.672595E-06  8.999733E+00  1.102622E-07 -1.310448E-06  6.807437E-08 -8.268363E-08 _shell_0000000514   
       515   1  1.223650E-05  8.999697E+00 -1.582942E-06 -7.364419E-06 -1.931046E-07 -1.314496E-07 _shell_0000000515   
       515   2  7.899343E-06  8.999639E+00 -2.962156E-07 -5.073845E-06 -1.770983E-08 -3.067008E-08 _shell_0000000515   
       515   3  4.660721E-07  8.999571E+00  4.199898E-07 -1.091651E-06  1.576849E-07  4.123772E-07 _shell_0000000515   
       515   4  7.614614E-06  8.999698E+00 -8.044820E-07 -4.248207E-06 -1.525130E-08 -8.055143E-08 _shell_0000000515   
       515   5  4.972133E-06  8.999638E+00  2.311663E-07 -2.774411E-06 -9.240411E-09 -5.360557E-08 _shell_0000000515   
       515   6 -1.108733E-06  8.999569E+00 -1.023313E-07  3.910048E-07 -3.229558E-09  3.156081E-07 _shell_0000000515   
       515   7  4.214883E-06  8.999699E+00  3.463947E-09 -1.490350E-06  1.636113E-07 -2.965329E-08 _shell_0000000515   
       515   8  3.265055E-06  8.999638E+00  7.833239E-07 -8.333328E-07  2.383619E-10 -7.654105E-08 _shell_0000000515   
       515   9 -1.465425E-06  8.999567E+00 -6.045869E-07  1.515305E-06 -1.631346E-07  2.188390E-07 _shell_0000000515   
       515  10  1.347509E-05  8.999697E+00 -1.186221E-06 -7.271631E-06 -1.663204E-14  9.162750E-15 _shell_0000000515   
       515  11  9.052600E-06  8.999638E+00  1.517165E-08 -5.236445E-06  3.149946E-15  4.387827E-15 _shell_0000000515   
       515  12  1.533995E-06  8.999570E+00  6.460432E-07 -1.509639E-06  9.515266E-15  6.045938E-15 _shell_0000000515   
       515  13  8.406275E-06  8.999698E+00 -5.993021E-07 -4.183864E-06  5.139863E-15  1.031250E-14 _shell_0000000515   
       515  14  5.678460E-06  8.999638E+00  3.510123E-07 -2.965456E-06  8.958944E-15 -5.809437E-16 _shell_0000000515   
       515  15 -4.877396E-07  8.999568E+00 -6.781909E-08 -5.542864E-08 -2.684514E-15  5.380262E-15 _shell_0000000515   
       515  16  4.559615E-06  8.999699E+00  1.710264E-08 -1.454452E-06  1.418330E-14  3.710957E-15 _shell_0000000515   
       515  17  3.524453E-06  8.999638E+00  7.116287E-07 -1.052822E-06  1.282765E-14 -7.783191E-15 _shell_0000000515   
       515  18 -1.291361E-06  8.999566E+00 -7.616160E-07  1.040427E-06  3.691262E-15  7.638728E-15 _shell_0000000515   
       515  19  1.223650E-05  8.999697E+00 -1.582942E-06 -7.364419E-06  1.931045E-07  1.314496E-07 _shell_0000000515   
       515  20  7.899343E-06  8.999639E+00 -2.962156E-07 -5.073845E-06  1.770982E-08  3.067008E-08 _shell_0000000515   
       515  21  4.660721E-07  8.999571E+00  4.199898E-07 -1.091651E-06 -1.576849E-07 -4.123772E-07 _shell_0000000515   
       515  22  7.614614E-06  8.999698E+00 -8.044820E-07 -4.248207E-06  1.525129E-08  8.055145E-08 _shell_0000000515   
       515  23  4.972133E-06  8.999638E+00  2.311663E-07 -2.774411E-06  9.240430E-09  5.360555E-08 _shell_0000000515   
       515  24 -1.108733E-06  8.999569E+00 -1.023313E-07  3.910048E-07  3.229542E-09 -3.156081E-07 _shell_0000000515   
       515  25  4.214883E-06  8.999699E+00  3.463966E-09 -1.490350E-06 -1.636113E-07  2.965331E-08 _shell_0000000515   
       515  26  3.265055E-06  8.999638E+00  7.833238E-07 -8.333327E-07 -2.383488E-10  7.654102E-08 _shell_0000000515   
       515  27 -1.465425E-06  8.999567E+00 -6.045869E-07  1.515305E-06  1.631346E-07 -2.188390E-07 _shell_0000000515   
       601   1 -3.082038E-07  8.999569E+00  3.846198E-07 -1.158738E-06  1.757752E-07  1.673614E-07 _shell_0000000601   
       601   2  1.293183E-06  8.999635E+00 -3.009491E-07 -3.500305E-08 -1.642785E-08 -7.004748E-08 _shell_0000000601   
       601   3  2.003855E-06  8.999698E+00 -4.932834E-07  5.262955E-07 -2.086309E-07 -5.968156E-08 _shell_0000000601   
       601   4 -8.493953E-07  8.999569E+00 -3.669719E-08 -1.047846E-06  8.671040E-08  1.499369E-07 _shell_0000000601   
       601   5  2.896472E-07  8.999636E+00 -3.487025E-08 -2.383977E-07 -3.518332E-08 -6.671503E-08 _shell_0000000601   
       601   6  2.901995E-07  8.999698E+00 -1.179497E-07  8.614168E-09 -1.570770E-07 -3.559224E-08 _shell_0000000601   
       601   7 -8.265990E-07  8.999570E+00 -2.373963E-07 -9.098069E-07  3.908540E-08  1.325125E-07 _shell_0000000601   
       601   8 -2.327807E-07  8.999636E+00  2.584408E-07 -4.146448E-07 -1.249895E-08 -6.338257E-08 _shell_0000000601   
       601   9 -1.025227E-06  8.999698E+00  9.123033E-08 -4.819196E-07 -6.408330E-08 -1.150290E-08 _shell_0000000601   
       601  10  8.863314E-08  8.999570E+00  5.363732E-07 -9.222094E-07  1.706957E-15 -5.950672E-15 _shell_0000000601   
       601  11  1.620132E-06  8.999635E+00 -2.190839E-07  1.613424E-07 -3.607403E-15 -3.156010E-15 _shell_0000000601   
       601  12  2.260915E-06  8.999698E+00 -4.813063E-07  6.824574E-07 -1.626336E-14 -1.073167E-14 _shell_0000000601   
       601  13 -5.228794E-07  8.999569E+00  8.491852E-08 -8.346134E-07 -2.836034E-20 -8.342821E-15 _shell_0000000601   
       601  14  5.462750E-07  8.999636E+00  1.685737E-08 -6.534822E-08 -2.501008E-15 -1.018070E-15 _shell_0000000601   
       601  15  4.769392E-07  8.999698E+00 -1.361102E-07  1.414801E-07 -5.587395E-15 -3.377523E-15 _shell_0000000601   
       601  16 -5.704044E-07  8.999570E+00 -1.459182E-07 -7.198699E-07  6.760800E-15 -6.515638E-15 _shell_0000000601   
       601  17 -4.647406E-08  8.999636E+00  2.800308E-07 -2.648914E-07 -2.328118E-15 -8.276552E-15 _shell_0000000601   
       601  18 -9.088086E-07  8.999698E+00  4.293225E-08 -3.723497E-07 -4.447313E-15 -6.525149E-15 _shell_0000000601   
       601  19 -3.082038E-07  8.999569E+00  3.846199E-07 -1.158738E-06 -1.757752E-07 -1.673614E-07 _shell_0000000601   
       601  20  1.293183E-06  8.999635E+00 -3.009492E-07 -3.500304E-08  1.642785E-08  7.004747E-08 _shell_0000000601   
       601  21  2.003855E-06  8.999698E+00 -4.932834E-07  5.262955E-07  2.086309E-07  5.968155E-08 _shell_0000000601   
       601  22 -8.493953E-07  8.999569E+00 -3.669720E-08 -1.047846E-06 -8.671040E-08 -1.499370E-07 _shell_0000000601   
       601  23  2.896472E-07  8.999636E+00 -3.487026E-08 -2.383977E-07  3.518331E-08  6.671502E-08 _shell_0000000601   
       601  24  2.901996E-07  8.999698E+00 -1.179497E-07  8.614177E-09  1.570770E-07  3.559222E-08 _shell_0000000601   
       601  25 -8.265991E-07  8.999570E+00 -2.373963E-07 -9.098068E-07 -3.908539E-08 -1.325125E-07 _shell_0000000601   
       601  26 -2.327807E-07  8.999636E+00  2.584408E-07 -4.146448E-07  1.249894E-08  6.338257E-08 _shell_0000000601   
       601  27 -1.025227E-06  8.999698E+00  9.123036E-08 -4.819197E-07  6.408328E-08  1.150288E-08 _shell_0000000601   
       602   1  4.363791E-06  8.999734E+00  3.022052E-07  8.761997E-07  1.267630E-08  2.125848E-09 _shell_0000000602   
       602   2  5.826604E-06  8.999791E+00  4.039703E-07  6.935488E-07 -4.157885E-08  1.999882E-08 _shell_0000000602   
       602   3  5.917863E-06  8.999844E+00  3.589962E-07  3.532551E-07 -9.583398E-08  3.443562E-10 _shell_0000000602   
       602   4  8.037843E-07  8.999733E+00 -6.072454E-08  3.494728E-07  5.281489E-08  2.951935E-08 _shell_0000000602   
       602   5  2.032857E-06  8.999790E+00  6.029580E-08  4.191610E-07 -3.345762E-08  3.799024E-08 _shell_0000000602   
       602   6  1.927903E-06  8.999843E+00  1.221409E-07  3.312062E-07 -1.197301E-07  8.933690E-09 _shell_0000000602   
       602   7 -1.184809E-06  8.999733E+00 -1.427827E-07 -1.870473E-07  1.018210E-07  5.691288E-08 _shell_0000000602   
       602   8 -2.072111E-07  8.999790E+00 -4.388894E-08  1.349798E-07 -1.646886E-08  5.598167E-08 _shell_0000000602   
       602   9 -5.261135E-07  8.999842E+00  8.339354E-08  2.993641E-07 -1.347588E-07  1.752305E-08 _shell_0000000602   
       602  10  4.694363E-06  8.999733E+00  3.289898E-07  9.629309E-07 -1.866882E-14 -9.004864E-15 _shell_0000000602   
       602  11  6.126647E-06  8.999791E+00  4.002255E-07  7.703398E-07 -1.102582E-14  5.090405E-16 _shell_0000000602   
       602  12  6.187377E-06  8.999843E+00  3.247220E-07  4.201057E-07 -9.244000E-16 -6.400776E-16 _shell_0000000602   
       602  13  1.116961E-06  8.999733E+00 -4.139519E-08  4.260276E-07 -1.372905E-15 -8.368322E-15 _shell_0000000602   
       602  14  2.315505E-06  8.999790E+00  4.909581E-08  4.857754E-07 -1.628910E-15  8.144548E-16 _shell_0000000602   
       602  15  2.180021E-06  8.999842E+00  8.041162E-08  3.878804E-07 -9.095118E-16  2.182479E-15 _shell_0000000602   
       602  16 -8.890271E-07  8.999733E+00 -1.309085E-07 -1.206691E-07 -1.501651E-15 -7.533707E-15 _shell_0000000602   
       602  17  5.804128E-08  8.999790E+00 -6.254410E-08  1.914178E-07 -3.084921E-15 -9.294698E-15 _shell_0000000602   
       602  18 -2.913904E-07  8.999842E+00  3.420903E-08  3.458619E-07  4.999684E-16 -2.440155E-15 _shell_0000000602   
       602  19  4.363791E-06  8.999734E+00  3.022053E-07  8.761998E-07 -1.267633E-08 -2.125863E-09 _shell_0000000602   
       602  20  5.826604E-06  8.999791E+00  4.039703E-07  6.935489E-07  4.157882E-08 -1.999882E-08 _shell_0000000602   
       602  21  5.917863E-06  8.999844E+00  3.589962E-07  3.532551E-07  9.583397E-08 -3.443484E-10 _shell_0000000602   
       602  22  8.037843E-07  8.999733E+00 -6.072455E-08  3.494729E-07 -5.281490E-08 -2.951937E-08 _shell_0000000602   
       602  23  2.032857E-06  8.999790E+00  6.029580E-08  4.191610E-07  3.345762E-08 -3.799024E-08 _shell_0000000602   
       602  24  1.927903E-06  8.999843E+00  1.221409E-07  3.312062E-07  1.197301E-07 -8.933703E-09 _shell_0000000602   
       602  25 -1.184809E-06  8.999733E+00 -1.427826E-07 -1.870474E-07 -1.018210E-07 -5.691289E-08 _shell_0000000602   
       602  26 -2.072111E-07  8.999790E+00 -4.388894E-08  1.349798E-07  1.646887E-08 -5.598167E-08 _shell_0000000602   
       602  27 -5.261135E-07  8.999842E+00  8.339356E-08  2.993641E-07  1.347588E-07 -1.752305E-08 _shell_0000000602   
       603   1  4.022441E-06  8.999871E+00 -7.344388E-07  1.411711E-06  2.005421E-07 -2.262452E-08 _shell_0000000603   
       603   2  8.234180E-06  8.999916E+00  5.618430E-08  4.578109E-06 -2.446819E-08 -2.683696E-08 _shell_0000000603   
       603   3  9.182912E-06  8.999950E+00 -3.157543E-07  7.859666E-06 -2.494785E-07  1.673015E-08 _shell_0000000603   
       603   4  1.073661E-06  8.999871E+00 -4.574720E-07  1.136642E-06  2.004458E-07 -1.869256E-08 _shell_0000000603   
       603   5  5.290297E-06  8.999915E+00  2.717666E-07  3.352410E-06 -2.119754E-08 -2.950800E-08 _shell_0000000603   
       603   6  6.196147E-06  8.999949E+00 -2.730421E-07  5.683338E-06 -2.428409E-07  7.456116E-09 _shell_0000000603   
       603   7 -9.638150E-07  8.999871E+00 -2.612978E-07  7.838097E-07  2.015832E-07 -1.476059E-08 _shell_0000000603   
       603   8  3.255251E-06  8.999914E+00  4.007989E-07  2.048948E-06 -1.669318E-08 -3.217903E-08 _shell_0000000603   
       603   9  4.115751E-06  8.999948E+00 -3.226372E-07  3.429246E-06 -2.349696E-07 -1.817892E-09 _shell_0000000603   
       603  10  4.486959E-06  8.999871E+00 -6.919129E-07  1.446974E-06 -1.006095E-15 -1.572956E-15 _shell_0000000603   
       603  11  8.688494E-06  8.999915E+00  8.850597E-08  4.597980E-06 -3.454014E-15 -7.126683E-16 _shell_0000000603   
       603  12  9.627022E-06  8.999950E+00 -2.936368E-07  7.864145E-06  4.560909E-15  1.777826E-15 _shell_0000000603   
       603  13  1.511243E-06  8.999871E+00 -4.264902E-07  1.168504E-06 -1.371381E-15 -1.878180E-15 _shell_0000000603   
       603  14  5.717675E-06  8.999915E+00  2.925442E-07  3.368880E-06 -8.144548E-16 -2.036137E-16 _shell_0000000603   
       603  15  6.613321E-06  8.999949E+00 -2.624687E-07  5.684416E-06  1.006540E-14  2.654566E-15 _shell_0000000603   
       603  16 -5.531691E-07  8.999870E+00 -2.418601E-07  8.122703E-07  1.782378E-15 -2.239749E-15 _shell_0000000603   
       603  17  3.655692E-06  8.999914E+00  4.100324E-07  2.062016E-06  3.557142E-15 -9.702000E-15 _shell_0000000603   
       603  18  4.505988E-06  8.999948E+00 -3.236079E-07  3.426922E-06  1.931136E-14 -5.787056E-15 _shell_0000000603   
       603  19  4.022441E-06  8.999871E+00 -7.344388E-07  1.411711E-06 -2.005421E-07  2.262453E-08 _shell_0000000603   
       603  20  8.234180E-06  8.999916E+00  5.618430E-08  4.578109E-06  2.446818E-08  2.683696E-08 _shell_0000000603   
       603  21  9.182912E-06  8.999950E+00 -3.157542E-07  7.859666E-06  2.494785E-07 -1.673014E-08 _shell_0000000603   
       603  22  1.073661E-06  8.999871E+00 -4.574720E-07  1.136642E-06 -2.004458E-07  1.869256E-08 _shell_0000000603   
       603  23  5.290297E-06  8.999915E+00  2.717666E-07  3.352410E-06  2.119754E-08  2.950799E-08 _shell_0000000603   
       603  24  6.196147E-06  8.999949E+00 -2.730421E-07  5.683338E-06  2.428409E-07 -7.456129E-09 _shell_0000000603   
       603  25 -9.638149E-07  8.999871E+00 -2.612978E-07  7.838097E-07 -2.015832E-07  1.476059E-08 _shell_0000000603   
       603  26  3.255251E-06  8.999914E+00  4.007989E-07  2.048948E-06  1.669319E-08  3.217903E-08 _shell_0000000603   
       603  27  4.115751E-06  8.999948E+00 -3.226372E-07  3.429246E-06  2.349696E-07  1.817883E-09 _shell_0000000603   
       604   1  1.277375E-05  8.999967E+00  4.990164E-08  1.007236E-05  2.192343E-07  2.703648E-08 _shell_0000000604   
       604   2  2.081819E-05  8.999990E+00  2.757580E-07  1.219372E-05  2.875378E-08 -2.210808E-09 _shell_0000000604   
       604   3  2.623991E-05  9.000006E+00 -3.375161E-07  1.420986E-05 -1.617268E-07 -1.636308E-08 _shell_0000000604   
       604   4  9.479279E-06  8.999966E+00 -7.755582E-08  7.187215E-06  2.209191E-07  1.873021E-08 _shell_0000000604   
       604   5  1.756466E-05  8.999989E+00  2.289210E-07  8.753471E-06  3.015912E-08 -5.883859E-10 _shell_0000000604   
       604   6  2.301222E-05  9.000005E+00 -3.389543E-07  1.021451E-05 -1.606009E-07 -4.811970E-09 _shell_0000000604   
       604   7  7.274874E-06  8.999965E+00 -2.116558E-07  4.393478E-06  2.151124E-07  1.042396E-08 _shell_0000000604   
       604   8  1.541618E-05  8.999989E+00  2.104021E-07  5.404630E-06  2.407291E-08  1.034050E-09 _shell_0000000604   
       604   9  2.090456E-05  9.000005E+00 -2.771139E-07  6.310563E-06 -1.669666E-07  6.739167E-09 _shell_0000000604   
       604  10  1.311242E-05  8.999967E+00  2.979376E-08  1.002581E-05  8.586922E-15  1.379448E-15 _shell_0000000604   
       604  11  2.118489E-05  8.999990E+00  2.836759E-07  1.214130E-05  3.088590E-15 -3.156019E-15 _shell_0000000604   
       604  12  2.663463E-05  9.000005E+00 -3.015724E-07  1.415157E-05 -7.098840E-15  8.102564E-15 _shell_0000000604   
       604  13  9.807675E-06  8.999965E+00 -1.020664E-07  7.150009E-06  1.792406E-14 -2.644208E-15 _shell_0000000604   
       604  14  1.792108E-05  8.999989E+00  2.324362E-07  8.710395E-06  7.276154E-15 -9.901758E-16 _shell_0000000604   
       604  15  2.339667E-05  9.000005E+00 -3.074133E-07  1.016556E-05 -7.515790E-16  6.472330E-15 _shell_0000000604   
       604  16  7.592998E-06  8.999964E+00 -2.405691E-07  4.365615E-06  1.958357E-14 -3.868661E-15 _shell_0000000604   
       604  17  1.576233E-05  8.999988E+00  2.095147E-07  5.370896E-06  1.064924E-14 -6.444209E-15 _shell_0000000604   
       604  18  2.127874E-05  9.000005E+00 -2.499755E-07  6.270960E-06  5.873024E-15  2.281129E-15 _shell_0000000604   
       604  19  1.277375E-05  8.999967E+00  4.990165E-08  1.007236E-05 -2.192343E-07 -2.703647E-08 _shell_0000000604   
       604  20  2.081819E-05  8.999990E+00  2.757580E-07  1.219372E-05 -2.875377E-08  2.210806E-09 _shell_0000000604   
       604  21  2.623991E-05  9.000006E+00 -3.375161E-07  1.420986E-05  1.617267E-07  1.636310E-08 _shell_0000000604   
       604  22  9.479279E-06  8.999966E+00 -7.755583E-08  7.187215E-06 -2.209191E-07 -1.873021E-08 _shell_0000000604   
       604  23  1.756466E-05  8.999989E+00  2.289210E-07  8.753471E-06 -3.015911E-08  5.883840E-10 _shell_0000000604   
       604  24  2.301222E-05  9.000005E+00 -3.389544E-07  1.021451E-05  1.606009E-07  4.811968E-09 _shell_0000000604   
       604  25  7.274874E-06  8.999965E+00 -2.116558E-07  4.393478E-06 -2.151124E-07 -1.042396E-08 _shell_0000000604   
       604  26  1.541618E-05  8.999989E+00  2.104021E-07  5.404630E-06 -2.407289E-08 -1.034041E-09 _shell_0000000604   
       604  27  2.090456E-05  9.000005E+00 -2.771138E-07  6.310563E-06  1.669666E-07 -6.739161E-09 _shell_0000000604   
       605   1  3.166991E-05  9.000012E+00  9.070673E-08  1.464330E-05  8.106629E-08 -1.634532E-08 _shell_0000000605   
       605   2  3.997039E-05  9.000021E+00  8.984969E-08  1.418479E-05  2.200731E-08 -1.819451E-08 _shell_0000000605   
       605   3  4.709422E-05  9.000026E+00 -8.303707E-08  1.375123E-05 -3.705168E-08 -2.983258E-08 _shell_0000000605   
       605   4  2.843689E-05  9.000012E+00  6.091168E-08  1.055897E-05  9.193398E-08 -4.033586E-10 _shell_0000000605   
       605   5  3.682796E-05  9.000021E+00  5.564437E-09  1.024380E-05  2.942815E-08  2.907876E-09 _shell_0000000605   
       605   6  4.405217E-05  9.000026E+00 -1.989718E-07  9.953590E-06 -3.307768E-08 -3.569772E-09 _shell_0000000605   
       605   7  2.637338E-05  9.000012E+00  1.376007E-07  6.520301E-06  9.045008E-08  1.553862E-08 _shell_0000000605   
       605   8  3.487975E-05  9.000021E+00  8.540390E-08  6.348486E-06  2.449741E-08  2.401028E-08 _shell_0000000605   
       605   9  4.222905E-05  9.000026E+00 -9.314113E-08  6.201626E-06 -4.145526E-08  2.269305E-08 _shell_0000000605   
       605  10  3.187165E-05  9.000012E+00  5.418894E-08  1.457672E-05 -9.138678E-15  1.166195E-14 _shell_0000000605   
       605  11  4.020572E-05  9.000021E+00  8.692840E-08  1.411929E-05 -3.611110E-15  5.192151E-15 _shell_0000000605   
       605  12  4.736315E-05  9.000025E+00 -5.236185E-08  1.368681E-05 -2.743479E-15  7.657168E-15 _shell_0000000605   
       605  13  2.864052E-05  9.000012E+00  2.520818E-08  1.050358E-05 -7.635643E-16  3.054506E-15 _shell_0000000605   
       605  14  3.706519E-05  9.000021E+00  3.457445E-09  1.018950E-05  4.611641E-16  4.479502E-15 _shell_0000000605   
       605  15  4.432300E-05  9.000026E+00 -1.674823E-07  9.900378E-06 -7.920329E-16  1.110699E-14 _shell_0000000605   
       605  16  2.657892E-05  9.000012E+00  1.027115E-07  6.476117E-06  4.008645E-15  2.748785E-15 _shell_0000000605   
       605  17  3.511888E-05  9.000021E+00  8.411121E-08  6.305387E-06  2.416379E-15 -3.288210E-15 _shell_0000000605   
       605  18  4.250177E-05  9.000026E+00 -6.083732E-08  6.159613E-06  1.129650E-15  6.047979E-15 _shell_0000000605   
       605  19  3.166991E-05  9.000012E+00  9.070672E-08  1.464330E-05 -8.106631E-08  1.634535E-08 _shell_0000000605   
       605  20  3.997039E-05  9.000021E+00  8.984969E-08  1.418479E-05 -2.200731E-08  1.819451E-08 _shell_0000000605   
       605  21  4.709422E-05  9.000026E+00 -8.303704E-08  1.375123E-05  3.705168E-08  2.983260E-08 _shell_0000000605   
       605  22  2.843689E-05  9.000012E+00  6.091167E-08  1.055897E-05 -9.193398E-08  4.033708E-10 _shell_0000000605   
       605  23  3.682796E-05  9.000021E+00  5.564429E-09  1.024380E-05 -2.942815E-08 -2.907871E-09 _shell_0000000605   
       605  24  4.405217E-05  9.000026E+00 -1.989718E-07  9.953590E-06  3.307769E-08  3.569779E-09 _shell_0000000605   
       605  25  2.637338E-05  9.000012E+00  1.376007E-07  6.520301E-06 -9.045008E-08 -1.553862E-08 _shell_0000000605   
       605  26  3.487975E-05  9.000021E+00  8.540390E-08  6.348486E-06 -2.449742E-08 -2.401026E-08 _shell_0000000605   
       605  27  4.222905E-05  9.000026E+00 -9.314112E-08  6.201626E-06  4.145526E-08 -2.269304E-08 _shell_0000000605   
       606   1  5.164454E-05  9.000027E+00  1.559677E-07  1.290545E-05 -2.054299E-08 -3.101393E-08 _shell_0000000606   
       606   2  5.759012E-05  9.000029E+00  1.447583E-08  1.103497E-05  1.009996E-08 -2.460802E-08 _shell_0000000606   
       606   3  6.332105E-05  9.000029E+00  5.859818E-08  9.288909E-06  4.074291E-08 -2.980737E-08 _shell_0000000606   
       606   4  4.883699E-05  9.000028E+00  8.313988E-08  9.364116E-06 -1.403480E-08 -3.098689E-09 _shell_0000000606   
       606   5  5.495489E-05  9.000029E+00 -1.048379E-07  7.997606E-06  1.604468E-08  3.825359E-09 _shell_0000000606   
       606   6  6.086973E-05  9.000030E+00 -8.012239E-08  6.755509E-06  4.612414E-08 -8.558643E-10 _shell_0000000606   
       606   7  4.706700E-05  9.000028E+00  1.793097E-07  5.831240E-06 -1.769544E-08  2.481656E-08 _shell_0000000606   
       606   8  5.337754E-05  9.000030E+00 -7.699398E-09  4.968696E-06  1.182056E-08  3.225875E-08 _shell_0000000606   
       606   9  5.949664E-05  9.000031E+00  4.506371E-08  4.230567E-06  4.133656E-08  2.809567E-08 _shell_0000000606   
       606  10  5.175035E-05  9.000027E+00  1.262249E-07  1.285365E-05 -2.516687E-15  6.164380E-15 _shell_0000000606   
       606  11  5.771940E-05  9.000028E+00  8.195792E-09  1.098711E-05 -2.123098E-15  5.090349E-16 _shell_0000000606   
       606  12  6.347379E-05  9.000029E+00  7.578092E-08  9.244971E-06  2.605012E-15  1.195851E-14 _shell_0000000606   
       606  13  4.894968E-05  9.000027E+00  5.634412E-08  9.320141E-06 -6.617529E-16  4.662852E-15 _shell_0000000606   
       606  14  5.509104E-05  9.000029E+00 -1.081709E-07  7.957560E-06  4.072274E-16  4.302326E-16 _shell_0000000606   
       606  15  6.102935E-05  9.000030E+00 -5.999261E-08  6.719392E-06  3.229339E-15  8.052786E-15 _shell_0000000606   
       606  16  4.718656E-05  9.000028E+00  1.554610E-07  5.795085E-06 -3.787446E-16  4.581308E-15 _shell_0000000606   
       606  17  5.352057E-05  9.000030E+00 -8.085340E-09  4.936471E-06  1.051088E-15 -9.396624E-15 _shell_0000000606   
       606  18  5.966313E-05  9.000031E+00  6.814055E-08  4.202272E-06  3.299706E-15 -1.740245E-15 _shell_0000000606   
       606  19  5.164454E-05  9.000027E+00  1.559677E-07  1.290545E-05  2.054298E-08  3.101394E-08 _shell_0000000606   
       606  20  5.759012E-05  9.000029E+00  1.447583E-08  1.103497E-05 -1.009996E-08  2.460801E-08 _shell_0000000606   
       606  21  6.332105E-05  9.000029E+00  5.859817E-08  9.288909E-06 -4.074291E-08  2.980741E-08 _shell_0000000606   
       606  22  4.883699E-05  9.000028E+00  8.313988E-08  9.364116E-06  1.403479E-08  3.098704E-09 _shell_0000000606   
       606  23  5.495489E-05  9.000029E+00 -1.048379E-07  7.997606E-06 -1.604467E-08 -3.825361E-09 _shell_0000000606   
       606  24  6.086973E-05  9.000030E+00 -8.012241E-08  6.755509E-06 -4.612415E-08  8.558678E-10 _shell_0000000606   
       606  25  4.706700E-05  9.000028E+00  1.793097E-07  5.831240E-06  1.769544E-08 -2.481655E-08 _shell_0000000606   
       606  26  5.337754E-05  9.000030E+00 -7.699398E-09  4.968696E-06 -1.182056E-08 -3.225874E-08 _shell_0000000606   
       606  27  5.949664E-05  9.000031E+00  4.506373E-08  4.230567E-06 -4.133656E-08 -2.809567E-08 _shell_0000000606   
       607   1  6.607109E-05  9.000029E+00  1.365833E-07  7.987615E-06 -6.591655E-08 -3.100268E-08 _shell_0000000607   
       607   2  6.896958E-05  9.000028E+00 -3.192715E-08  5.755050E-06  2.802426E-09 -2.622073E-08 _shell_0000000607   
       607   3  7.209063E-05  9.000028E+00  1.098058E-07  3.615581E-06  7.152141E-08 -2.732719E-08 _shell_0000000607   
       607   4  6.386676E-05  9.000030E+00  5.525162E-08  5.822157E-06 -6.500427E-08 -2.105693E-09 _shell_0000000607   
       607   5  6.687902E-05  9.000029E+00 -1.398532E-07  4.181484E-06  5.932936E-09  1.970710E-09 _shell_0000000607   
       607   6  7.011971E-05  9.000029E+00 -1.097494E-08  2.633909E-06  7.687016E-08  1.586973E-10 _shell_0000000607   
       607   7  6.251179E-05  9.000031E+00  1.569687E-07  3.652127E-06 -6.946575E-08  2.679131E-08 _shell_0000000607   
       607   8  6.564855E-05  9.000030E+00 -3.965297E-08  2.603347E-06  3.689714E-09  3.016216E-08 _shell_0000000607   
       607   9  6.901964E-05  9.000030E+00  1.014480E-07  1.647665E-06  7.684515E-08  2.764461E-08 _shell_0000000607   
       607  10  6.613007E-05  9.000029E+00  1.193652E-07  7.960391E-06  3.941988E-15  1.461435E-14 _shell_0000000607   
       607  11  6.903986E-05  9.000028E+00 -3.784813E-08  5.731697E-06 -3.984318E-16  3.970469E-15 _shell_0000000607   
       607  12  7.217220E-05  9.000028E+00  1.151820E-07  3.596101E-06 -7.351440E-16  9.960546E-15 _shell_0000000607   
       607  13  6.393252E-05  9.000030E+00  4.093734E-08  5.798698E-06  3.506274E-15  5.884536E-15 _shell_0000000607   
       607  14  6.695607E-05  9.000029E+00 -1.428703E-07  4.161898E-06  3.473548E-15  5.701182E-15 _shell_0000000607   
       607  15  7.020806E-05  9.000029E+00 -2.694843E-09  2.618194E-06  9.208054E-16  1.082457E-14 _shell_0000000607   
       607  16  6.258433E-05  9.000031E+00  1.455583E-07  3.632434E-06  4.495256E-15  1.832523E-15 _shell_0000000607   
       607  17  6.573238E-05  9.000030E+00 -3.976616E-08  2.587526E-06  1.299547E-15 -2.575564E-15 _shell_0000000607   
       607  18  6.911477E-05  9.000030E+00  1.126320E-07  1.635716E-06  6.812116E-16  4.584505E-15 _shell_0000000607   
       607  19  6.607109E-05  9.000029E+00  1.365833E-07  7.987615E-06  6.591656E-08  3.100271E-08 _shell_0000000607   
       607  20  6.896958E-05  9.000028E+00 -3.192716E-08  5.755050E-06 -2.802432E-09  2.622073E-08 _shell_0000000607   
       607  21  7.209063E-05  9.000028E+00  1.098058E-07  3.615581E-06 -7.152141E-08  2.732721E-08 _shell_0000000607   
       607  22  6.386676E-05  9.000030E+00  5.525160E-08  5.822157E-06  6.500428E-08  2.105713E-09 _shell_0000000607   
       607  23  6.687902E-05  9.000029E+00 -1.398532E-07  4.181484E-06 -5.932939E-09 -1.970699E-09 _shell_0000000607   
       607  24  7.011971E-05  9.000029E+00 -1.097496E-08  2.633909E-06 -7.687015E-08 -1.586902E-10 _shell_0000000607   
       607  25  6.251179E-05  9.000031E+00  1.569687E-07  3.652127E-06  6.946575E-08 -2.679130E-08 _shell_0000000607   
       607  26  6.564855E-05  9.000030E+00 -3.965298E-08  2.603347E-06 -3.689698E-09 -3.016214E-08 _shell_0000000607   
       607  27  6.901964E-05  9.000030E+00  1.014481E-07  1.647665E-06 -7.684515E-08 -2.764460E-08 _shell_0000000607   
       608   1  7.299871E-05  9.000028E+00  1.278002E-07  2.239704E-06 -7.796548E-08 -2.756230E-08 _shell_0000000608   
       608   2  7.282742E-05  9.000028E+00 -4.094039E-08 -4.015007E-15  3.327811E-15 -2.577294E-08 _shell_0000000608   
       608   3  7.299871E-05  9.000028E+00  1.278002E-07 -2.239704E-06  7.796548E-08 -2.756234E-08 _shell_0000000608   
       608   4  7.111819E-05  9.000029E+00  2.693568E-08  1.636030E-06 -8.117570E-08 -2.817227E-10 _shell_0000000608   
       608   5  7.094512E-05  9.000028E+00 -1.459802E-07  3.817757E-16 -2.125218E-15  1.507638E-09 _shell_0000000608   
       608   6  7.111819E-05  9.000029E+00  2.693566E-08 -1.636030E-06  8.117570E-08 -2.817619E-10 _shell_0000000608   
       608   7  7.002167E-05  9.000030E+00  1.280059E-07  1.032356E-06 -8.438592E-08  2.699887E-08 _shell_0000000608   
       608   8  6.984680E-05  9.000029E+00 -4.908520E-08 -1.292947E-14 -1.396663E-15  2.878822E-08 _shell_0000000608   
       608   9  7.002167E-05  9.000030E+00  1.280058E-07 -1.032356E-06  8.438592E-08  2.699884E-08 _shell_0000000608   
       608  10  7.305004E-05  9.000028E+00  1.220937E-07  2.235954E-06 -1.202286E-15  1.329086E-14 _shell_0000000608   
       608  11  7.287876E-05  9.000028E+00 -4.664696E-08 -1.920332E-14  1.938872E-15  1.221682E-15 _shell_0000000608   
       608  12  7.305004E-05  9.000028E+00  1.220937E-07 -2.235954E-06  3.075258E-15 -1.236060E-14 _shell_0000000608   
       608  13  7.117609E-05  9.000029E+00  2.404140E-08  1.632280E-06  6.108399E-16  7.920673E-15 _shell_0000000608   
       608  14  7.100302E-05  9.000028E+00 -1.488744E-07 -7.788224E-15  2.188847E-15  3.461433E-15 _shell_0000000608   
       608  15  7.117609E-05  9.000029E+00  2.404140E-08 -1.632280E-06  2.087040E-15 -5.594225E-15 _shell_0000000608   
       608  16  7.008613E-05  9.000030E+00  1.279238E-07  1.028606E-06  2.471844E-15  4.683115E-15 _shell_0000000608   
       608  17  6.991126E-05  9.000029E+00 -4.916719E-08 -1.058791E-14  5.333035E-15 -5.324347E-15 _shell_0000000608   
       608  18  7.008613E-05  9.000030E+00  1.279238E-07 -1.028606E-06  3.442416E-15 -5.672534E-15 _shell_0000000608   
       608  19  7.299871E-05  9.000028E+00  1.278002E-07  2.239703E-06  7.796547E-08  2.756233E-08 _shell_0000000608   
       608  20  7.282742E-05  9.000028E+00 -4.094038E-08 -2.824504E-14 -9.162616E-16  2.577294E-08 _shell_0000000608   
       608  21  7.299871E-05  9.000028E+00  1.278003E-07 -2.239704E-06 -7.796548E-08  2.756232E-08 _shell_0000000608   
       608  22  7.111819E-05  9.000029E+00  2.693566E-08  1.636030E-06  8.117570E-08  2.817487E-10 _shell_0000000608   
       608  23  7.094512E-05  9.000028E+00 -1.459802E-07 -1.007888E-14 -9.162616E-16 -1.507633E-09 _shell_0000000608   
       608  24  7.111819E-05  9.000029E+00  2.693568E-08 -1.636030E-06 -8.117571E-08  2.817374E-10 _shell_0000000608   
       608  25  7.002167E-05  9.000030E+00  1.280059E-07  1.032356E-06  8.438592E-08 -2.699886E-08 _shell_0000000608   
       608  26  6.984680E-05  9.000029E+00 -4.908520E-08 -1.578006E-14  9.162616E-16 -2.878821E-08 _shell_0000000608   
       608  27  7.002167E-05  9.000030E+00  1.280058E-07 -1.032356E-06 -8.438592E-08 -2.699885E-08 _shell_0000000608   
       609   1  7.209063E-05  9.000028E+00  1.098058E-07 -3.615581E-06 -7.152142E-08 -2.732722E-08 _shell_0000000609   
       609   2  6.896958E-05  9.000028E+00 -3.192715E-08 -5.755050E-06 -2.802433E-09 -2.622074E-08 _shell_0000000609   
       609   3  6.607109E-05  9.000029E+00  1.365833E-07 -7.987615E-06  6.591655E-08 -3.100267E-08 _shell_0000000609   
       609   4  7.011971E-05  9.000029E+00 -1.097496E-08 -2.633909E-06 -7.687016E-08  1.586653E-10 _shell_0000000609   
       609   5  6.687902E-05  9.000029E+00 -1.398532E-07 -4.181484E-06 -5.932938E-09  1.970697E-09 _shell_0000000609   
       609   6  6.386676E-05  9.000030E+00  5.525161E-08 -5.822157E-06  6.500427E-08 -2.105690E-09 _shell_0000000609   
       609   7  6.901964E-05  9.000030E+00  1.014480E-07 -1.647665E-06 -7.684515E-08  2.764458E-08 _shell_0000000609   
       609   8  6.564855E-05  9.000030E+00 -3.965297E-08 -2.603347E-06 -3.689696E-09  3.016214E-08 _shell_0000000609   
       609   9  6.251179E-05  9.000031E+00  1.569687E-07 -3.652127E-06  6.946576E-08  2.679131E-08 _shell_0000000609   
       609  10  7.217220E-05  9.000028E+00  1.151820E-07 -3.596101E-06  8.720268E-16 -9.921103E-15 _shell_0000000609   
       609  11  6.903986E-05  9.000028E+00 -3.784813E-08 -5.731697E-06  1.278642E-15  4.174081E-15 _shell_0000000609   
       609  12  6.613007E-05  9.000029E+00  1.193652E-07 -7.960391E-06 -1.569065E-15  1.380375E-14 _shell_0000000609   
       609  13  7.020806E-05  9.000029E+00 -2.694860E-09 -2.618194E-06 -5.975023E-16 -8.342972E-15 _shell_0000000609   
       609  14  6.695607E-05  9.000029E+00 -1.428703E-07 -4.161898E-06 -5.090342E-17  4.275887E-15 _shell_0000000609   
       609  15  6.393252E-05  9.000030E+00  4.093735E-08 -5.798698E-06  9.986725E-16  1.392724E-14 _shell_0000000609   
       609  16  6.911477E-05  9.000030E+00  1.126320E-07 -1.635716E-06  9.544392E-16 -4.886729E-15 _shell_0000000609   
       609  17  6.573238E-05  9.000030E+00 -3.976617E-08 -2.587526E-06 -5.029714E-16 -5.324348E-15 _shell_0000000609   
       609  18  6.258433E-05  9.000031E+00  1.455583E-07 -3.632434E-06 -1.596337E-15  3.680969E-15 _shell_0000000609   
       609  19  7.209063E-05  9.000028E+00  1.098058E-07 -3.615581E-06  7.152143E-08  2.732721E-08 _shell_0000000609   
       609  20  6.896958E-05  9.000028E+00 -3.192715E-08 -5.755050E-06  2.802426E-09  2.622075E-08 _shell_0000000609   
       609  21  6.607109E-05  9.000029E+00  1.365833E-07 -7.987615E-06 -6.591656E-08  3.100271E-08 _shell_0000000609   
       609  22  7.011971E-05  9.000029E+00 -1.097495E-08 -2.633909E-06  7.687016E-08 -1.586770E-10 _shell_0000000609   
       609  23  6.687902E-05  9.000029E+00 -1.398532E-07 -4.181484E-06  5.932933E-09 -1.970691E-09 _shell_0000000609   
       609  24  6.386676E-05  9.000030E+00  5.525160E-08 -5.822157E-06 -6.500428E-08  2.105706E-09 _shell_0000000609   
       609  25  6.901964E-05  9.000030E+00  1.014481E-07 -1.647665E-06  7.684515E-08 -2.764459E-08 _shell_0000000609   
       609  26  6.564855E-05  9.000030E+00 -3.965298E-08 -2.603347E-06  3.689686E-09 -3.016213E-08 _shell_0000000609   
       609  27  6.251179E-05  9.000031E+00  1.569687E-07 -3.652127E-06 -6.946575E-08 -2.679130E-08 _shell_0000000609   
       610   1  6.332105E-05  9.000029E+00  5.859817E-08 -9.288909E-06 -4.074291E-08 -2.980738E-08 _shell_0000000610   
       610   2  5.759012E-05  9.000029E+00  1.447582E-08 -1.103497E-05 -1.009996E-08 -2.460802E-08 _shell_0000000610   
       610   3  5.164454E-05  9.000027E+00  1.559677E-07 -1.290545E-05  2.054299E-08 -3.101391E-08 _shell_0000000610   
       610   4  6.086973E-05  9.000030E+00 -8.012239E-08 -6.755509E-06 -4.612414E-08 -8.558581E-10 _shell_0000000610   
       610   5  5.495489E-05  9.000029E+00 -1.048379E-07 -7.997606E-06 -1.604468E-08  3.825363E-09 _shell_0000000610   
       610   6  4.883699E-05  9.000028E+00  8.313988E-08 -9.364116E-06  1.403479E-08 -3.098688E-09 _shell_0000000610   
       610   7  5.949664E-05  9.000031E+00  4.506374E-08 -4.230567E-06 -4.133656E-08  2.809568E-08 _shell_0000000610   
       610   8  5.337754E-05  9.000030E+00 -7.699381E-09 -4.968696E-06 -1.182057E-08  3.225875E-08 _shell_0000000610   
       610   9  4.706700E-05  9.000028E+00  1.793097E-07 -5.831240E-06  1.769543E-08  2.481656E-08 _shell_0000000610   
       610  10  6.347379E-05  9.000029E+00  7.578092E-08 -9.244971E-06 -6.617458E-16  8.404130E-15 _shell_0000000610   
       610  11  5.771940E-05  9.000028E+00  8.195788E-09 -1.098711E-05  4.854007E-15 -5.090341E-15 _shell_0000000610   
       610  12  5.175035E-05  9.000027E+00  1.262249E-07 -1.285365E-05  2.567594E-15  5.150172E-15 _shell_0000000610   
       610  13  6.102935E-05  9.000030E+00 -5.999262E-08 -6.719392E-06  1.870103E-15  4.255626E-15 _shell_0000000610   
       610  14  5.509104E-05  9.000029E+00 -1.081709E-07 -7.957560E-06  1.018068E-15 -1.374392E-15 _shell_0000000610   
       610  15  4.894968E-05  9.000027E+00  5.634412E-08 -9.320141E-06  1.873125E-15  5.637321E-15 _shell_0000000610   
       610  16  5.966313E-05  9.000031E+00  6.814055E-08 -4.202272E-06 -6.871962E-16  1.934330E-15 _shell_0000000610   
       610  17  5.352057E-05  9.000030E+00 -8.085328E-09 -4.936471E-06  3.371761E-15 -1.021108E-14 _shell_0000000610   
       610  18  4.718656E-05  9.000028E+00  1.554610E-07 -5.795085E-06  5.621955E-15 -2.274731E-15 _shell_0000000610   
       610  19  6.332105E-05  9.000029E+00  5.859818E-08 -9.288909E-06  4.074291E-08  2.980739E-08 _shell_0000000610   
       610  20  5.759012E-05  9.000029E+00  1.447584E-08 -1.103497E-05  1.009996E-08  2.460800E-08 _shell_0000000610   
       610  21  5.164454E-05  9.000027E+00  1.559677E-07 -1.290545E-05 -2.054298E-08  3.101393E-08 _shell_0000000610   
       610  22  6.086973E-05  9.000030E+00 -8.012242E-08 -6.755509E-06  4.612415E-08  8.558726E-10 _shell_0000000610   
       610  23  5.495489E-05  9.000029E+00 -1.048379E-07 -7.997606E-06  1.604467E-08 -3.825371E-09 _shell_0000000610   
       610  24  4.883699E-05  9.000028E+00  8.313987E-08 -9.364116E-06 -1.403478E-08  3.098685E-09 _shell_0000000610   
       610  25  5.949664E-05  9.000031E+00  4.506373E-08 -4.230567E-06  4.133656E-08 -2.809567E-08 _shell_0000000610   
       610  26  5.337754E-05  9.000030E+00 -7.699377E-09 -4.968696E-06  1.182057E-08 -3.225875E-08 _shell_0000000610   
       610  27  4.706700E-05  9.000028E+00  1.793097E-07 -5.831239E-06 -1.769543E-08 -2.481656E-08 _shell_0000000610   
       611   1  4.709422E-05  9.000026E+00 -8.303706E-08 -1.375123E-05  3.705169E-08 -2.983256E-08 _shell_0000000611   
       611   2  3.997039E-05  9.000021E+00  8.984969E-08 -1.418479E-05 -2.200732E-08 -1.819450E-08 _shell_0000000611   
       611   3  3.166991E-05  9.000012E+00  9.070674E-08 -1.464330E-05 -8.106631E-08 -1.634530E-08 _shell_0000000611   
       611   4  4.405217E-05  9.000026E+00 -1.989718E-07 -9.953589E-06  3.307768E-08 -3.569766E-09 _shell_0000000611   
       611   5  3.682796E-05  9.000021E+00  5.564433E-09 -1.024380E-05 -2.942815E-08  2.907886E-09 _shell_0000000611   
       611   6  2.843689E-05  9.000012E+00  6.091170E-08 -1.055897E-05 -9.193397E-08 -4.033502E-10 _shell_0000000611   
       611   7  4.222905E-05  9.000026E+00 -9.314109E-08 -6.201626E-06  4.145526E-08  2.269304E-08 _shell_0000000611   
       611   8  3.487975E-05  9.000021E+00  8.540390E-08 -6.348486E-06 -2.449742E-08  2.401028E-08 _shell_0000000611   
       611   9  2.637338E-05  9.000012E+00  1.376007E-07 -6.520301E-06 -9.045008E-08  1.553863E-08 _shell_0000000611   
       611  10  4.736315E-05  9.000025E+00 -5.236184E-08 -1.368681E-05  2.996640E-15  8.200514E-15 _shell_0000000611   
       611  11  4.020572E-05  9.000021E+00  8.692841E-08 -1.411929E-05  1.618090E-16 -4.174085E-15 _shell_0000000611   
       611  12  3.187165E-05  9.000012E+00  5.418894E-08 -1.457672E-05 -1.708295E-15  4.081202E-15 _shell_0000000611   
       611  13  4.432300E-05  9.000026E+00 -1.674823E-07 -9.900377E-06  8.775010E-16  3.466618E-15 _shell_0000000611   
       611  14  3.706519E-05  9.000021E+00  3.457443E-09 -1.018950E-05 -2.443364E-15  1.068972E-15 _shell_0000000611   
       611  15  2.864052E-05  9.000012E+00  2.520817E-08 -1.050358E-05 -1.390749E-15  7.849168E-15 _shell_0000000611   
       611  16  4.250177E-05  9.000026E+00 -6.083733E-08 -6.159613E-06  3.849276E-15  7.126466E-16 _shell_0000000611   
       611  17  3.511888E-05  9.000021E+00  8.411120E-08 -6.305387E-06 -9.101773E-16 -5.120735E-15 _shell_0000000611   
       611  18  2.657892E-05  9.000012E+00  1.027115E-07 -6.476117E-06 -3.486715E-15  2.577118E-16 _shell_0000000611   
       611  19  4.709422E-05  9.000026E+00 -8.303705E-08 -1.375123E-05 -3.705167E-08  2.983258E-08 _shell_0000000611   
       611  20  3.997039E-05  9.000021E+00  8.984972E-08 -1.418479E-05  2.200732E-08  1.819448E-08 _shell_0000000611   
       611  21  3.166991E-05  9.000012E+00  9.070674E-08 -1.464330E-05  8.106630E-08  1.634532E-08 _shell_0000000611   
       611  22  4.405217E-05  9.000026E+00 -1.989718E-07 -9.953589E-06 -3.307767E-08  3.569781E-09 _shell_0000000611   
       611  23  3.682796E-05  9.000021E+00  5.564435E-09 -1.024380E-05  2.942815E-08 -2.907886E-09 _shell_0000000611   
       611  24  2.843689E-05  9.000012E+00  6.091166E-08 -1.055897E-05  9.193398E-08  4.033528E-10 _shell_0000000611   
       611  25  4.222905E-05  9.000026E+00 -9.314112E-08 -6.201626E-06 -4.145526E-08 -2.269304E-08 _shell_0000000611   
       611  26  3.487975E-05  9.000021E+00  8.540389E-08 -6.348486E-06  2.449742E-08 -2.401027E-08 _shell_0000000611   
       611  27  2.637338E-05  9.000012E+00  1.376007E-07 -6.520301E-06  9.045008E-08 -1.553862E-08 _shell_0000000611   
       612   1  2.623991E-05  9.000006E+00 -3.375161E-07 -1.420986E-05  1.617267E-07 -1.636307E-08 _shell_0000000612   
       612   2  2.081819E-05  8.999990E+00  2.757580E-07 -1.219372E-05 -2.875377E-08 -2.210803E-09 _shell_0000000612   
       612   3  1.277375E-05  8.999967E+00  4.990163E-08 -1.007236E-05 -2.192343E-07  2.703648E-08 _shell_0000000612   
       612   4  2.301222E-05  9.000005E+00 -3.389543E-07 -1.021451E-05  1.606009E-07 -4.811954E-09 _shell_0000000612   
       612   5  1.756466E-05  8.999989E+00  2.289210E-07 -8.753471E-06 -3.015914E-08 -5.883775E-10 _shell_0000000612   
       612   6  9.479279E-06  8.999966E+00 -7.755580E-08 -7.187215E-06 -2.209192E-07  1.873020E-08 _shell_0000000612   
       612   7  2.090456E-05  9.000005E+00 -2.771139E-07 -6.310563E-06  1.669666E-07  6.739168E-09 _shell_0000000612   
       612   8  1.541618E-05  8.999989E+00  2.104021E-07 -5.404630E-06 -2.407292E-08  1.034051E-09 _shell_0000000612   
       612   9  7.274874E-06  8.999965E+00 -2.116558E-07 -4.393478E-06 -2.151124E-07  1.042395E-08 _shell_0000000612   
       612  10  2.663463E-05  9.000005E+00 -3.015724E-07 -1.415157E-05  2.987604E-16  7.793277E-15 _shell_0000000612   
       612  11  2.118489E-05  8.999990E+00  2.836759E-07 -1.214130E-05 -2.401565E-15 -1.323473E-15 _shell_0000000612   
       612  12  1.311242E-05  8.999967E+00  2.979374E-08 -1.002581E-05  2.427020E-15 -3.936102E-15 _shell_0000000612   
       612  13  2.339667E-05  9.000005E+00 -3.074133E-07 -1.016556E-05  5.842317E-16  4.688278E-15 _shell_0000000612   
       612  14  1.792108E-05  8.999989E+00  2.324362E-07 -8.710395E-06 -2.850592E-15  1.018068E-15 _shell_0000000612   
       612  15  9.807675E-06  8.999965E+00 -1.020663E-07 -7.150009E-06 -7.466463E-15  1.308087E-15 _shell_0000000612   
       612  16  2.127874E-05  9.000005E+00 -2.499755E-07 -6.270960E-06 -4.950358E-15  2.036137E-16 _shell_0000000612   
       612  17  1.576233E-05  8.999988E+00  2.095146E-07 -5.370896E-06 -4.940644E-15 -6.647819E-15 _shell_0000000612   
       612  18  7.592998E-06  8.999964E+00 -2.405690E-07 -4.365615E-06 -6.728181E-15 -5.821927E-16 _shell_0000000612   
       612  19  2.623991E-05  9.000006E+00 -3.375161E-07 -1.420986E-05 -1.617267E-07  1.636309E-08 _shell_0000000612   
       612  20  2.081819E-05  8.999990E+00  2.757580E-07 -1.219372E-05  2.875378E-08  2.210798E-09 _shell_0000000612   
       612  21  1.277375E-05  8.999967E+00  4.990164E-08 -1.007236E-05  2.192343E-07 -2.703648E-08 _shell_0000000612   
       612  22  2.301222E-05  9.000005E+00 -3.389543E-07 -1.021451E-05 -1.606009E-07  4.811971E-09 _shell_0000000612   
       612  23  1.756466E-05  8.999989E+00  2.289210E-07 -8.753471E-06  3.015913E-08  5.883776E-10 _shell_0000000612   
       612  24  9.479279E-06  8.999966E+00 -7.755581E-08 -7.187215E-06  2.209191E-07 -1.873021E-08 _shell_0000000612   
       612  25  2.090456E-05  9.000005E+00 -2.771138E-07 -6.310563E-06 -1.669666E-07 -6.739170E-09 _shell_0000000612   
       612  26  1.541618E-05  8.999989E+00  2.104021E-07 -5.404630E-06  2.407291E-08 -1.034045E-09 _shell_0000000612   
       612  27  7.274874E-06  8.999965E+00 -2.116558E-07 -4.393478E-06  2.151124E-07 -1.042396E-08 _shell_0000000612   
       613   1  9.182912E-06  8.999950E+00 -3.157543E-07 -7.859666E-06  2.494785E-07  1.673014E-08 _shell_0000000613   
       613   2  8.234180E-06  8.999916E+00  5.618430E-08 -4.578109E-06  2.446817E-08 -2.683696E-08 _shell_0000000613   
       613   3  4.022441E-06  8.999871E+00 -7.344388E-07 -1.411711E-06 -2.005421E-07 -2.262452E-08 _shell_0000000613   
       613   4  6.196147E-06  8.999949E+00 -2.730421E-07 -5.683338E-06  2.428409E-07  7.456114E-09 _shell_0000000613   
       613   5  5.290297E-06  8.999915E+00  2.717666E-07 -3.352410E-06  2.119751E-08 -2.950800E-08 _shell_0000000613   
       613   6  1.073661E-06  8.999871E+00 -4.574720E-07 -1.136642E-06 -2.004458E-07 -1.869256E-08 _shell_0000000613   
       613   7  4.115751E-06  8.999948E+00 -3.226372E-07 -3.429246E-06  2.349696E-07 -1.817894E-09 _shell_0000000613   
       613   8  3.255251E-06  8.999914E+00  4.007989E-07 -2.048948E-06  1.669313E-08 -3.217902E-08 _shell_0000000613   
       613   9 -9.638150E-07  8.999871E+00 -2.612979E-07 -7.838098E-07 -2.015832E-07 -1.476057E-08 _shell_0000000613   
       613  10  9.627022E-06  8.999950E+00 -2.936368E-07 -7.864145E-06 -2.208238E-15 -5.549012E-16 _shell_0000000613   
       613  11  8.688494E-06  8.999915E+00  8.850598E-08 -4.597980E-06 -1.186353E-14  1.527114E-15 _shell_0000000613   
       613  12  4.486959E-06  8.999871E+00 -6.919129E-07 -1.446974E-06 -1.116360E-14  5.175645E-15 _shell_0000000613   
       613  13  6.613321E-06  8.999949E+00 -2.624687E-07 -5.684416E-06 -7.037973E-15 -2.234572E-15 _shell_0000000613   
       613  14  5.717675E-06  8.999915E+00  2.925442E-07 -3.368880E-06 -9.557710E-15  3.044392E-15 _shell_0000000613   
       613  15  1.511243E-06  8.999871E+00 -4.264902E-07 -1.168504E-06 -2.508780E-15  7.159410E-15 _shell_0000000613   
       613  16  4.505988E-06  8.999948E+00 -3.236079E-07 -3.426922E-06 -7.776089E-15  1.017863E-16 _shell_0000000613   
       613  17  3.655692E-06  8.999914E+00  4.100324E-07 -2.062016E-06 -8.509943E-15 -5.426087E-15 _shell_0000000613   
       613  18 -5.531691E-07  8.999870E+00 -2.418601E-07 -8.122703E-07 -9.791291E-16 -2.224837E-17 _shell_0000000613   
       613  19  9.182912E-06  8.999950E+00 -3.157543E-07 -7.859666E-06 -2.494785E-07 -1.673014E-08 _shell_0000000613   
       613  20  8.234180E-06  8.999916E+00  5.618430E-08 -4.578109E-06 -2.446820E-08  2.683697E-08 _shell_0000000613   
       613  21  4.022441E-06  8.999871E+00 -7.344388E-07 -1.411711E-06  2.005421E-07  2.262454E-08 _shell_0000000613   
       613  22  6.196147E-06  8.999949E+00 -2.730421E-07 -5.683338E-06 -2.428409E-07 -7.456113E-09 _shell_0000000613   
       613  23  5.290297E-06  8.999915E+00  2.717666E-07 -3.352410E-06 -2.119756E-08  2.950800E-08 _shell_0000000613   
       613  24  1.073661E-06  8.999871E+00 -4.574720E-07 -1.136642E-06  2.004458E-07  1.869256E-08 _shell_0000000613   
       613  25  4.115751E-06  8.999948E+00 -3.226372E-07 -3.429246E-06 -2.349696E-07  1.817893E-09 _shell_0000000613   
       613  26  3.255251E-06  8.999914E+00  4.007989E-07 -2.048948E-06 -1.669315E-08  3.217903E-08 _shell_0000000613   
       613  27 -9.638150E-07  8.999871E+00 -2.612979E-07 -7.838097E-07  2.015833E-07  1.476058E-08 _shell_0000000613   
       614   1  5.917863E-06  8.999844E+00  3.589961E-07 -3.532551E-07  9.583396E-08  3.443523E-10 _shell_0000000614   
       614   2  5.826604E-06  8.999791E+00  4.039703E-07 -6.935489E-07  4.157882E-08  1.999882E-08 _shell_0000000614   
       614   3  4.363791E-06  8.999734E+00  3.022053E-07 -8.761998E-07 -1.267633E-08  2.125884E-09 _shell_0000000614   
       614   4  1.927903E-06  8.999843E+00  1.221409E-07 -3.312063E-07  1.197301E-07  8.933704E-09 _shell_0000000614   
       614   5  2.032857E-06  8.999790E+00  6.029578E-08 -4.191610E-07  3.345760E-08  3.799025E-08 _shell_0000000614   
       614   6  8.037843E-07  8.999733E+00 -6.072457E-08 -3.494729E-07 -5.281489E-08  2.951938E-08 _shell_0000000614   
       614   7 -5.261134E-07  8.999842E+00  8.339355E-08 -2.993642E-07  1.347587E-07  1.752307E-08 _shell_0000000614   
       614   8 -2.072112E-07  8.999790E+00 -4.388897E-08 -1.349799E-07  1.646886E-08  5.598169E-08 _shell_0000000614   
       614   9 -1.184809E-06  8.999733E+00 -1.427827E-07  1.870473E-07 -1.018210E-07  5.691290E-08 _shell_0000000614   
       614  10  6.187376E-06  8.999843E+00  3.247220E-07 -4.201058E-07 -6.701096E-15  4.433549E-15 _shell_0000000614   
       614  11  6.126647E-06  8.999791E+00  4.002255E-07 -7.703398E-07 -6.000550E-15 -1.119909E-15 _shell_0000000614   
       614  12  4.694363E-06  8.999733E+00  3.289898E-07 -9.629310E-07  7.014978E-15  6.206420E-15 _shell_0000000614   
       614  13  2.180021E-06  8.999842E+00  8.041160E-08 -3.878805E-07 -6.464712E-15  1.847544E-15 _shell_0000000614   
       614  14  2.315505E-06  8.999790E+00  4.909582E-08 -4.857755E-07 -5.916907E-15  4.072755E-16 _shell_0000000614   
       614  15  1.116961E-06  8.999733E+00 -4.139521E-08 -4.260276E-07  9.884336E-15  5.629911E-15 _shell_0000000614   
       614  16 -2.913904E-07  8.999842E+00  3.420903E-08 -3.458619E-07 -1.984619E-15 -5.090048E-16 _shell_0000000614   
       614  17  5.804128E-08  8.999790E+00 -6.254410E-08 -1.914179E-07  1.383513E-15 -6.851359E-15 _shell_0000000614   
       614  18 -8.890271E-07  8.999733E+00 -1.309085E-07  1.206690E-07  1.098682E-14  1.733949E-15 _shell_0000000614   
       614  19  5.917863E-06  8.999844E+00  3.589962E-07 -3.532551E-07 -9.583398E-08 -3.443373E-10 _shell_0000000614   
       614  20  5.826604E-06  8.999791E+00  4.039703E-07 -6.935489E-07 -4.157882E-08 -1.999883E-08 _shell_0000000614   
       614  21  4.363791E-06  8.999734E+00  3.022053E-07 -8.761998E-07  1.267634E-08 -2.125863E-09 _shell_0000000614   
       614  22  1.927903E-06  8.999843E+00  1.221409E-07 -3.312063E-07 -1.197301E-07 -8.933694E-09 _shell_0000000614   
       614  23  2.032857E-06  8.999790E+00  6.029579E-08 -4.191610E-07 -3.345762E-08 -3.799025E-08 _shell_0000000614   
       614  24  8.037843E-07  8.999733E+00 -6.072454E-08 -3.494729E-07  5.281491E-08 -2.951938E-08 _shell_0000000614   
       614  25 -5.261135E-07  8.999842E+00  8.339354E-08 -2.993642E-07 -1.347587E-07 -1.752307E-08 _shell_0000000614   
       614  26 -2.072111E-07  8.999790E+00 -4.388895E-08 -1.349798E-07 -1.646884E-08 -5.598168E-08 _shell_0000000614   
       614  27 -1.184809E-06  8.999733E+00 -1.427826E-07  1.870473E-07  1.018211E-07 -5.691290E-08 _shell_0000000614   
       615   1  2.003855E-06  8.999698E+00 -4.932834E-07 -5.262955E-07  2.086309E-07 -5.968153E-08 _shell_0000000615   
       615   2  1.293183E-06  8.999635E+00 -3.009491E-07  3.500303E-08  1.642785E-08 -7.004746E-08 _shell_0000000615   
       615   3 -3.082038E-07  8.999569E+00  3.846199E-07  1.158738E-06 -1.757752E-07  1.673614E-07 _shell_0000000615   
       615   4  2.901996E-07  8.999698E+00 -1.179497E-07 -8.614176E-09  1.570770E-07 -3.559221E-08 _shell_0000000615   
       615   5  2.896472E-07  8.999636E+00 -3.487026E-08  2.383976E-07  3.518332E-08 -6.671502E-08 _shell_0000000615   
       615   6 -8.493952E-07  8.999569E+00 -3.669718E-08  1.047846E-06 -8.671040E-08  1.499370E-07 _shell_0000000615   
       615   7 -1.025227E-06  8.999698E+00  9.123030E-08  4.819196E-07  6.408332E-08 -1.150287E-08 _shell_0000000615   
       615   8 -2.327807E-07  8.999636E+00  2.584408E-07  4.146447E-07  1.249901E-08 -6.338256E-08 _shell_0000000615   
       615   9 -8.265990E-07  8.999570E+00 -2.373963E-07  9.098068E-07 -3.908533E-08  1.325125E-07 _shell_0000000615   
       615  10  2.260915E-06  8.999698E+00 -4.813063E-07 -6.824574E-07  1.318463E-14  3.822874E-15 _shell_0000000615   
       615  11  1.620132E-06  8.999635E+00 -2.190839E-07 -1.613425E-07  1.088729E-14 -7.330054E-15 _shell_0000000615   
       615  12  8.863317E-08  8.999570E+00  5.363732E-07  9.222094E-07  4.417437E-16  1.003687E-14 _shell_0000000615   
       615  13  4.769392E-07  8.999698E+00 -1.361102E-07 -1.414801E-07  1.521886E-14 -1.038336E-15 _shell_0000000615   
       615  14  5.462750E-07  8.999636E+00  1.685737E-08  6.534821E-08  5.701183E-15 -5.029674E-15 _shell_0000000615   
       615  15 -5.228794E-07  8.999569E+00  8.491854E-08  8.346134E-07 -5.840532E-15  1.070464E-14 _shell_0000000615   
       615  16 -9.088086E-07  8.999698E+00  4.293223E-08  3.723497E-07  1.354700E-14  4.072446E-16 _shell_0000000615   
       615  17 -4.647404E-08  8.999636E+00  2.800308E-07  2.648914E-07  1.303132E-14 -8.480167E-15 _shell_0000000615   
       615  18 -5.704043E-07  8.999570E+00 -1.459182E-07  7.198699E-07  9.926927E-15  2.891988E-15 _shell_0000000615   
       615  19  2.003855E-06  8.999698E+00 -4.932834E-07 -5.262955E-07 -2.086309E-07  5.968154E-08 _shell_0000000615   
       615  20  1.293183E-06  8.999635E+00 -3.009491E-07  3.500299E-08 -1.642784E-08  7.004745E-08 _shell_0000000615   
       615  21 -3.082039E-07  8.999569E+00  3.846198E-07  1.158738E-06  1.757752E-07 -1.673614E-07 _shell_0000000615   
       615  22  2.901995E-07  8.999698E+00 -1.179497E-07 -8.614205E-09 -1.570770E-07  3.559222E-08 _shell_0000000615   
       615  23  2.896472E-07  8.999636E+00 -3.487027E-08  2.383976E-07 -3.518330E-08  6.671501E-08 _shell_0000000615   
       615  24 -8.493953E-07  8.999569E+00 -3.669722E-08  1.047846E-06  8.671038E-08 -1.499370E-07 _shell_0000000615   
       615  25 -1.025227E-06  8.999698E+00  9.123032E-08  4.819196E-07 -6.408327E-08  1.150288E-08 _shell_0000000615   
       615  26 -2.327807E-07  8.999636E+00  2.584408E-07  4.146448E-07 -1.249898E-08  6.338256E-08 _shell_0000000615   
       615  27 -8.265991E-07  8.999570E+00 -2.373963E-07  9.098068E-07  3.908535E-08 -1.325125E-07 _shell_0000000615   
       701   1 -4.237374E-07  8.999571E+00  9.048295E-08 -4.357318E-07  1.785794E-08  1.135976E-08 _shell_0000000701   
       701   2 -8.029374E-07  8.999635E+00 -6.463664E-08 -3.358702E-07 -1.326677E-08 -4.039858E-10 _shell_0000000701   
       701   3 -1.643631E-06  8.999698E+00 -5.416753E-08 -2.360086E-07 -4.439148E-08 -1.216772E-08 _shell_0000000701   
       701   4 -6.257933E-07  8.999570E+00 -2.974675E-08  1.985233E-14 -4.871196E-09 -1.880891E-14 _shell_0000000701   
       701   5 -9.595350E-07  8.999635E+00 -7.879713E-08  4.767105E-14 -3.599591E-08 -8.017289E-16 _shell_0000000701   
       701   6 -1.754771E-06  8.999698E+00  3.774116E-08  7.770407E-14 -6.712058E-08 -9.250607E-16 _shell_0000000701   
       701   7 -4.237374E-07  8.999571E+00  9.048295E-08  4.357318E-07  1.785791E-08 -1.135977E-08 _shell_0000000701   
       701   8 -8.029374E-07  8.999635E+00 -6.463665E-08  3.358703E-07 -1.326681E-08  4.039610E-10 _shell_0000000701   
       701   9 -1.643631E-06  8.999698E+00 -5.416755E-08  2.360088E-07 -4.439148E-08  1.216772E-08 _shell_0000000701   
       701  10 -1.289957E-07  8.999571E+00  2.322013E-07 -4.060495E-07  4.824784E-15 -6.613859E-15 _shell_0000000701   
       701  11 -5.972424E-07  8.999635E+00 -1.196507E-08 -3.061879E-07 -4.014630E-15 -5.594285E-15 _shell_0000000701   
       701  12 -1.526983E-06  8.999698E+00 -9.054273E-08 -2.063263E-07 -3.499320E-15 -8.652729E-15 _shell_0000000701   
       701  13 -3.310515E-07  8.999571E+00  1.119716E-07  7.991837E-15  3.359626E-15 -5.087585E-15 _shell_0000000701   
       701  14 -7.538400E-07  8.999635E+00 -2.612555E-08  4.240255E-14 -4.944372E-15 -7.429240E-15 _shell_0000000701   
       701  15 -1.638122E-06  8.999698E+00  1.365983E-09  6.658168E-14 -2.934497E-16 -5.999283E-15 _shell_0000000701   
       701  16 -1.289956E-07  8.999571E+00  2.322013E-07  4.060495E-07  9.815005E-15 -1.266330E-15 _shell_0000000701   
       701  17 -5.972424E-07  8.999635E+00 -1.196507E-08  3.061880E-07 -2.328077E-15 -3.909441E-15 _shell_0000000701   
       701  18 -1.526983E-06  8.999698E+00 -9.054272E-08  2.063265E-07  4.775971E-16 -7.943863E-15 _shell_0000000701   
       701  19 -4.237375E-07  8.999571E+00  9.048290E-08 -4.357318E-07 -1.785793E-08 -1.135977E-08 _shell_0000000701   
       701  20 -8.029374E-07  8.999635E+00 -6.463665E-08 -3.358702E-07  1.326678E-08  4.039731E-10 _shell_0000000701   
       701  21 -1.643631E-06  8.999698E+00 -5.416752E-08 -2.360086E-07  4.439147E-08  1.216771E-08 _shell_0000000701   
       701  22 -6.257934E-07  8.999570E+00 -2.974676E-08  2.224480E-14  4.871197E-09 -3.544060E-15 _shell_0000000701   
       701  23 -9.595351E-07  8.999635E+00 -7.879714E-08  5.001261E-14  3.599589E-08 -1.119875E-14 _shell_0000000701   
       701  24 -1.754771E-06  8.999698E+00  3.774120E-08  7.055214E-14  6.712058E-08 -1.450504E-14 _shell_0000000701   
       701  25 -4.237375E-07  8.999571E+00  9.048292E-08  4.357318E-07 -1.785790E-08  1.135978E-08 _shell_0000000701   
       701  26 -8.029375E-07  8.999635E+00 -6.463667E-08  3.358703E-07  1.326680E-08 -4.039838E-10 _shell_0000000701   
       701  27 -1.643631E-06  8.999698E+00 -5.416752E-08  2.360088E-07  4.439148E-08 -1.216774E-08 _shell_0000000701   
       702   1 -1.776722E-06  8.999733E+00 -6.303984E-08  2.935266E-08  1.136194E-07 -1.466446E-08 _shell_0000000702   
       702   2 -7.178050E-07  8.999790E+00  1.904778E-07  9.154529E-08 -1.398736E-08 -1.148077E-08 _shell_0000000702   
       702   3 -1.353633E-06  8.999842E+00  8.869950E-08  1.537379E-07 -1.415941E-07 -8.297048E-09 _shell_0000000702   
       702   4 -2.419518E-06  8.999733E+00 -1.669241E-07  5.685912E-14  1.074277E-07 -1.348314E-14 _shell_0000000702   
       702   5 -1.348218E-06  8.999790E+00  1.154881E-07  5.823352E-14 -2.017905E-08 -3.699570E-15 _shell_0000000702   
       702   6 -1.971663E-06  8.999842E+00  4.260442E-08  9.389136E-14 -1.477858E-07 -6.084057E-15 _shell_0000000702   
       702   7 -1.776722E-06  8.999733E+00 -6.303984E-08 -2.935255E-08  1.136194E-07  1.466445E-08 _shell_0000000702   
       702   8 -7.178050E-07  8.999790E+00  1.904778E-07 -9.154517E-08 -1.398733E-08  1.148073E-08 _shell_0000000702   
       702   9 -1.353633E-06  8.999842E+00  8.869952E-08 -1.537378E-07 -1.415941E-07  8.297044E-09 _shell_0000000702   
       702  10 -1.471150E-06  8.999733E+00 -3.848362E-08  3.983409E-08 -3.703224E-15 -8.295474E-15 _shell_0000000702   
       702  11 -4.436781E-07  8.999790E+00  1.835897E-07  1.020267E-07 -1.252361E-15 -6.522636E-15 _shell_0000000702   
       702  12 -1.110951E-06  8.999842E+00  5.036716E-08  1.642194E-07  1.544420E-15 -4.278321E-15 _shell_0000000702   
       702  13 -2.113947E-06  8.999733E+00 -1.423678E-07  6.602174E-14  5.091856E-15 -7.430499E-15 _shell_0000000702   
       702  14 -1.074091E-06  8.999790E+00  1.086000E-07  6.994130E-14  2.443364E-15 -7.128618E-15 _shell_0000000702   
       702  15 -1.728981E-06  8.999842E+00  4.272081E-09  8.393974E-14  3.595433E-15 -2.254540E-15 _shell_0000000702   
       702  16 -1.471150E-06  8.999733E+00 -3.848363E-08 -3.983397E-08  4.415872E-15 -6.632107E-15 _shell_0000000702   
       702  17 -4.436781E-07  8.999790E+00  1.835897E-07 -1.020266E-07  8.724710E-15 -3.157967E-15 _shell_0000000702   
       702  18 -1.110951E-06  8.999842E+00  5.036718E-08 -1.642192E-07  3.872324E-15 -4.638436E-15 _shell_0000000702   
       702  19 -1.776722E-06  8.999733E+00 -6.303984E-08  2.935268E-08 -1.136194E-07  1.466444E-08 _shell_0000000702   
       702  20 -7.178050E-07  8.999790E+00  1.904778E-07  9.154531E-08  1.398735E-08  1.148075E-08 _shell_0000000702   
       702  21 -1.353633E-06  8.999842E+00  8.869950E-08  1.537379E-07  1.415941E-07  8.297051E-09 _shell_0000000702   
       702  22 -2.419518E-06  8.999733E+00 -1.669240E-07  6.823604E-14 -1.074277E-07 -1.357203E-14 _shell_0000000702   
       702  23 -1.348218E-06  8.999790E+00  1.154881E-07  7.755136E-14  2.017905E-08 -7.403129E-15 _shell_0000000702   
       702  24 -1.971663E-06  8.999842E+00  4.260440E-08  8.574681E-14  1.477858E-07 -1.971453E-15 _shell_0000000702   
       702  25 -1.776722E-06  8.999733E+00 -6.303984E-08 -2.935254E-08 -1.136194E-07 -1.466446E-08 _shell_0000000702   
       702  26 -7.178050E-07  8.999790E+00  1.904777E-07 -9.154515E-08  1.398735E-08 -1.148075E-08 _shell_0000000702   
       702  27 -1.353633E-06  8.999842E+00  8.869949E-08 -1.537377E-07  1.415941E-07 -8.297049E-09 _shell_0000000702   
       703   1 -1.893182E-06  8.999870E+00 -4.000286E-07  4.770216E-07  2.016846E-07 -5.268554E-09 _shell_0000000703   
       703   2  2.311199E-06  8.999913E+00  2.277504E-07  1.332376E-06 -1.561208E-08  1.955099E-09 _shell_0000000703   
       703   3  3.423226E-06  8.999948E+00 -2.823296E-07  2.187730E-06 -2.329087E-07  9.178782E-09 _shell_0000000703   
       703   4 -2.355366E-06  8.999870E+00 -3.717018E-07  8.126731E-14  2.009925E-07 -1.882258E-14 _shell_0000000703   
       703   5  1.850399E-06  8.999913E+00  2.593069E-07  7.500619E-14 -1.630417E-08 -7.604645E-15 _shell_0000000703   
       703   6  2.963810E-06  8.999948E+00 -2.475434E-07  8.882647E-14 -2.336008E-07 -5.585529E-15 _shell_0000000703   
       703   7 -1.893182E-06  8.999870E+00 -4.000286E-07 -4.770215E-07  2.016846E-07  5.268544E-09 _shell_0000000703   
       703   8  2.311199E-06  8.999913E+00  2.277504E-07 -1.332375E-06 -1.561206E-08 -1.955138E-09 _shell_0000000703   
       703   9  3.423226E-06  8.999948E+00 -2.823296E-07 -2.187729E-06 -2.329087E-07 -9.178784E-09 _shell_0000000703   
       703  10 -1.477920E-06  8.999870E+00 -3.714965E-07  4.807686E-07  1.411812E-15 -3.283741E-15 _shell_0000000703   
       703  11  2.715219E-06  8.999913E+00  2.450415E-07  1.336123E-06  6.182578E-16 -7.218469E-15 _shell_0000000703   
       703  12  3.816005E-06  8.999947E+00 -2.762795E-07  2.191476E-06  1.588692E-14 -8.760099E-15 _shell_0000000703   
       703  13 -1.940105E-06  8.999870E+00 -3.431697E-07  8.852105E-14 -2.643944E-15 -4.894174E-15 _shell_0000000703   
       703  14  2.254419E-06  8.999913E+00  2.765980E-07  8.322710E-14  4.109275E-26 -9.644481E-15 _shell_0000000703   
       703  15  3.356589E-06  8.999947E+00 -2.414933E-07  7.986747E-14  3.956983E-15 -6.499863E-15 _shell_0000000703   
       703  16 -1.477920E-06  8.999870E+00 -3.714965E-07 -4.807685E-07  2.291412E-15 -6.360779E-15 _shell_0000000703   
       703  17  2.715219E-06  8.999913E+00  2.450415E-07 -1.336122E-06  4.371627E-15 -7.646079E-15 _shell_0000000703   
       703  18  3.816005E-06  8.999947E+00 -2.762795E-07 -2.191476E-06  1.112863E-14 -9.050231E-15 _shell_0000000703   
       703  19 -1.893182E-06  8.999870E+00 -4.000286E-07  4.770216E-07 -2.016846E-07  5.268553E-09 _shell_0000000703   
       703  20  2.311199E-06  8.999913E+00  2.277504E-07  1.332376E-06  1.561208E-08 -1.955115E-09 _shell_0000000703   
       703  21  3.423226E-06  8.999948E+00 -2.823296E-07  2.187729E-06  2.329087E-07 -9.178786E-09 _shell_0000000703   
       703  22 -2.355366E-06  8.999870E+00 -3.717018E-07  7.248647E-14 -2.009925E-07 -3.601601E-15 _shell_0000000703   
       703  23  1.850399E-06  8.999913E+00  2.593069E-07  7.561703E-14  1.630417E-08 -8.405703E-15 _shell_0000000703   
       703  24  2.963810E-06  8.999948E+00 -2.475434E-07  6.838875E-14  2.336008E-07 -1.103862E-14 _shell_0000000703   
       703  25 -1.893182E-06  8.999870E+00 -4.000286E-07 -4.770215E-07 -2.016846E-07 -5.268543E-09 _shell_0000000703   
       703  26  2.311199E-06  8.999913E+00  2.277504E-07 -1.332375E-06  1.561207E-08  1.955111E-09 _shell_0000000703   
       703  27  3.423226E-06  8.999948E+00 -2.823296E-07 -2.187729E-06  2.329087E-07  9.178770E-09 _shell_0000000703   
       704   1  6.636257E-06  8.999965E+00 -1.069332E-07  2.784868E-06  2.142154E-07  8.626166E-09 _shell_0000000704   
       704   2  1.467965E-05  8.999989E+00  2.324626E-07  3.371512E-06  2.309460E-08 -4.965973E-10 _shell_0000000704   
       704   3  2.010510E-05  9.000005E+00 -3.086031E-07  3.958155E-06 -1.680262E-07 -9.619342E-09 _shell_0000000704   
       704   4  6.126038E-06  8.999964E+00 -9.681042E-08  9.429859E-14  2.175153E-07 -1.221055E-14 _shell_0000000704   
       704   5  1.416283E-05  8.999988E+00  2.271859E-07  9.297510E-14  2.639449E-08  5.390346E-15 _shell_0000000704   
       704   6  1.958168E-05  9.000005E+00 -3.292793E-07  1.031303E-13 -1.647263E-07  7.188424E-15 _shell_0000000704   
       704   7  6.636257E-06  8.999965E+00 -1.069332E-07 -2.784868E-06  2.142154E-07 -8.626164E-09 _shell_0000000704   
       704   8  1.467965E-05  8.999989E+00  2.324626E-07 -3.371511E-06  2.309461E-08  4.965860E-10 _shell_0000000704   
       704   9  2.010510E-05  9.000005E+00 -3.086031E-07 -3.958155E-06 -1.680262E-07  9.619363E-09 _shell_0000000704   
       704  10  6.960622E-06  8.999964E+00 -1.278970E-07  2.776497E-06  1.752047E-14 -5.634191E-15 _shell_0000000704   
       704  11  1.502913E-05  8.999988E+00  2.366115E-07  3.363141E-06  7.771703E-15 -1.986259E-15 _shell_0000000704   
       704  12  2.047969E-05  9.000005E+00 -2.793417E-07  3.949784E-06  4.138092E-15  2.051918E-16 _shell_0000000704   
       704  13  6.450403E-06  8.999964E+00 -1.177742E-07  1.038430E-13  9.830432E-15 -5.637877E-15 _shell_0000000704   
       704  14  1.451231E-05  8.999988E+00  2.313348E-07  1.050647E-13  4.018335E-15 -3.878901E-15 _shell_0000000704   
       704  15  1.995627E-05  9.000004E+00 -3.000179E-07  9.386591E-14  3.778820E-15  6.651627E-17 _shell_0000000704   
       704  16  6.960622E-06  8.999964E+00 -1.278970E-07 -2.776497E-06  1.154083E-14 -5.567956E-15 _shell_0000000704   
       704  17  1.502913E-05  8.999988E+00  2.366114E-07 -3.363140E-06  8.409514E-15 -8.104149E-16 _shell_0000000704   
       704  18  2.047969E-05  9.000005E+00 -2.793417E-07 -3.949784E-06  6.662029E-15 -3.349120E-15 _shell_0000000704   
       704  19  6.636257E-06  8.999965E+00 -1.069332E-07  2.784868E-06 -2.142154E-07 -8.626174E-09 _shell_0000000704   
       704  20  1.467965E-05  8.999989E+00  2.324626E-07  3.371512E-06 -2.309457E-08  4.965941E-10 _shell_0000000704   
       704  21  2.010510E-05  9.000005E+00 -3.086032E-07  3.958155E-06  1.680262E-07  9.619356E-09 _shell_0000000704   
       704  22  6.126038E-06  8.999964E+00 -9.681043E-08  9.068445E-14 -2.175153E-07 -1.163770E-14 _shell_0000000704   
       704  23  1.416283E-05  8.999988E+00  2.271859E-07  9.788728E-14 -2.639448E-08 -9.410494E-15 _shell_0000000704   
       704  24  1.958168E-05  9.000005E+00 -3.292793E-07  8.887738E-14  1.647263E-07 -9.633802E-15 _shell_0000000704   
       704  25  6.636257E-06  8.999965E+00 -1.069332E-07 -2.784868E-06 -2.142154E-07  8.626167E-09 _shell_0000000704   
       704  26  1.467965E-05  8.999989E+00  2.324626E-07 -3.371511E-06 -2.309460E-08 -4.966006E-10 _shell_0000000704   
       704  27  2.010510E-05  9.000005E+00 -3.086032E-07 -3.958155E-06  1.680262E-07 -9.619369E-09 _shell_0000000704   
       705   1  2.557247E-05  9.000012E+00  1.080173E-07  4.103015E-06  9.135857E-08 -1.397061E-08 _shell_0000000705   
       705   2  3.415405E-05  9.000021E+00  9.483032E-08  3.993850E-06  2.440288E-08 -1.980099E-08 _shell_0000000705   
       705   3  4.151943E-05  9.000027E+00 -1.000476E-07  3.884686E-06 -4.255281E-08 -2.563134E-08 _shell_0000000705   
       705   4  2.499772E-05  9.000012E+00  5.559840E-08  8.266716E-14  9.684909E-08 -5.647793E-15 _shell_0000000705   
       705   5  3.356832E-05  9.000021E+00  1.678896E-08  7.879850E-14  2.989340E-08  4.275887E-15 _shell_0000000705   
       705   6  4.092272E-05  9.000026E+00 -2.037114E-07  8.796111E-14 -3.706228E-08  5.141518E-15 _shell_0000000705   
       705   7  2.557247E-05  9.000012E+00  1.080173E-07 -4.103015E-06  9.135858E-08  1.397063E-08 _shell_0000000705   
       705   8  3.415405E-05  9.000021E+00  9.483032E-08 -3.993850E-06  2.440288E-08  1.980098E-08 _shell_0000000705   
       705   9  4.151943E-05  9.000027E+00 -1.000476E-07 -3.884685E-06 -4.255280E-08  2.563136E-08 _shell_0000000705   
       705  10  2.578044E-05  9.000012E+00  7.524355E-08  4.092593E-06  4.732501E-15  1.388188E-15 _shell_0000000705   
       705  11  3.439328E-05  9.000021E+00  9.332303E-08  3.983428E-06  2.904529E-15  4.362624E-17 _shell_0000000705   
       705  12  4.178993E-05  9.000026E+00 -7.028840E-08  3.874264E-06  2.232334E-15  3.471892E-15 _shell_0000000705   
       705  13  2.520569E-05  9.000012E+00  2.282462E-08  8.867376E-14  2.494268E-15 -1.631062E-15 _shell_0000000705   
       705  14  3.380756E-05  9.000021E+00  1.528167E-08  8.149638E-14  4.611647E-16 -1.911751E-15 _shell_0000000705   
       705  15  4.119322E-05  9.000026E+00 -1.739522E-07  7.691507E-14  1.727682E-15  3.689400E-15 _shell_0000000705   
       705  16  2.578044E-05  9.000012E+00  7.524355E-08 -4.092593E-06  1.870701E-15 -3.394137E-15 _shell_0000000705   
       705  17  3.439328E-05  9.000021E+00  9.332302E-08 -3.983428E-06 -3.081174E-15  8.631461E-16 _shell_0000000705   
       705  18  4.178993E-05  9.000026E+00 -7.028839E-08 -3.874263E-06  3.382128E-15 -8.014328E-16 _shell_0000000705   
       705  19  2.557247E-05  9.000012E+00  1.080173E-07  4.103015E-06 -9.135856E-08  1.397062E-08 _shell_0000000705   
       705  20  3.415405E-05  9.000021E+00  9.483031E-08  3.993850E-06 -2.440287E-08  1.980099E-08 _shell_0000000705   
       705  21  4.151943E-05  9.000027E+00 -1.000476E-07  3.884686E-06  4.255281E-08  2.563136E-08 _shell_0000000705   
       705  22  2.499772E-05  9.000012E+00  5.559838E-08  7.742411E-14 -9.684909E-08 -9.933546E-15 _shell_0000000705   
       705  23  3.356832E-05  9.000021E+00  1.678895E-08  7.569339E-14 -2.989340E-08 -5.599376E-15 _shell_0000000705   
       705  24  4.092272E-05  9.000026E+00 -2.037114E-07  8.241264E-14  3.706229E-08 -5.608212E-16 _shell_0000000705   
       705  25  2.557247E-05  9.000012E+00  1.080173E-07 -4.103015E-06 -9.135858E-08 -1.397062E-08 _shell_0000000705   
       705  26  3.415405E-05  9.000021E+00  9.483031E-08 -3.993850E-06 -2.440289E-08 -1.980099E-08 _shell_0000000705   
       705  27  4.151943E-05  9.000027E+00 -1.000476E-07 -3.884685E-06  4.255280E-08 -2.563136E-08 _shell_0000000705   
       706   1  4.638158E-05  9.000028E+00  1.697249E-07  3.662204E-06 -1.740367E-08 -2.765770E-08 _shell_0000000706   
       706   2  5.277390E-05  9.000030E+00  5.095630E-09  3.155946E-06  1.194836E-08 -2.879096E-08 _shell_0000000706   
       706   3  5.893866E-05  9.000031E+00  4.863276E-08  2.649687E-06  4.130039E-08 -2.992419E-08 _shell_0000000706   
       706   4  4.585071E-05  9.000028E+00  8.275933E-08  1.017559E-13 -1.250307E-08 -8.074648E-15 _shell_0000000706   
       706   5  5.223323E-05  9.000030E+00 -1.047394E-07  9.037903E-14  1.684896E-08 -3.181464E-15 _shell_0000000706   
       706   6  5.838819E-05  9.000031E+00 -8.407171E-08  8.824108E-14  4.620098E-08 -4.877515E-15 _shell_0000000706   
       706   7  4.638158E-05  9.000028E+00  1.697249E-07 -3.662204E-06 -1.740366E-08  2.765772E-08 _shell_0000000706   
       706   8  5.277390E-05  9.000030E+00  5.095634E-09 -3.155946E-06  1.194837E-08  2.879093E-08 _shell_0000000706   
       706   9  5.893866E-05  9.000031E+00  4.863276E-08 -2.649687E-06  4.130039E-08  2.992419E-08 _shell_0000000706   
       706  10  4.649965E-05  9.000028E+00  1.432349E-07  3.654428E-06  6.666049E-17  2.733109E-15 _shell_0000000706   
       706  11  5.291529E-05  9.000030E+00  1.933144E-09  3.148170E-06 -1.003226E-15 -6.369999E-15 _shell_0000000706   
       706  12  5.910339E-05  9.000031E+00  6.879785E-08  2.641911E-06  3.101320E-15 -4.960917E-15 _shell_0000000706   
       706  13  4.596878E-05  9.000028E+00  5.626929E-08  1.030794E-13  2.087040E-15  5.876200E-16 _shell_0000000706   
       706  14  5.237462E-05  9.000030E+00 -1.079019E-07  9.065900E-14  1.425296E-15 -7.016751E-15 _shell_0000000706   
       706  15  5.855292E-05  9.000031E+00 -6.390663E-08  7.162112E-14  3.254788E-15 -4.275444E-15 _shell_0000000706   
       706  16  4.649965E-05  9.000028E+00  1.432349E-07 -3.654428E-06  4.584339E-15 -1.521095E-15 _shell_0000000706   
       706  17  5.291529E-05  9.000030E+00  1.933132E-09 -3.148170E-06  2.272780E-15 -2.878049E-15 _shell_0000000706   
       706  18  5.910339E-05  9.000031E+00  6.879784E-08 -2.641911E-06 -8.870993E-16 -7.484435E-15 _shell_0000000706   
       706  19  4.638158E-05  9.000028E+00  1.697249E-07  3.662204E-06  1.740367E-08  2.765771E-08 _shell_0000000706   
       706  20  5.277390E-05  9.000030E+00  5.095640E-09  3.155946E-06 -1.194836E-08  2.879095E-08 _shell_0000000706   
       706  21  5.893866E-05  9.000031E+00  4.863276E-08  2.649687E-06 -4.130038E-08  2.992419E-08 _shell_0000000706   
       706  22  4.585071E-05  9.000028E+00  8.275932E-08  9.358594E-14  1.250307E-08 -3.340445E-15 _shell_0000000706   
       706  23  5.223323E-05  9.000030E+00 -1.047394E-07  8.605224E-14 -1.684896E-08 -7.737320E-15 _shell_0000000706   
       706  24  5.838819E-05  9.000031E+00 -8.407172E-08  7.177383E-14 -4.620099E-08 -7.382989E-15 _shell_0000000706   
       706  25  4.638158E-05  9.000028E+00  1.697249E-07 -3.662204E-06  1.740366E-08 -2.765771E-08 _shell_0000000706   
       706  26  5.277390E-05  9.000030E+00  5.095623E-09 -3.155946E-06 -1.194837E-08 -2.879095E-08 _shell_0000000706   
       706  27  5.893866E-05  9.000031E+00  4.863276E-08 -2.649687E-06 -4.130040E-08 -2.992420E-08 _shell_0000000706   
       707   1  6.197692E-05  9.000031E+00  1.547488E-07  2.278282E-06 -7.000537E-08 -3.010386E-08 _shell_0000000707   
       707   2  6.515729E-05  9.000030E+00 -3.695369E-08  1.658094E-06  3.795570E-09 -2.958809E-08 _shell_0000000707   
       707   3  6.857053E-05  9.000030E+00  1.098885E-07  1.037907E-06  7.759652E-08 -2.907230E-08 _shell_0000000707   
       707   4  6.152885E-05  9.000031E+00  5.755759E-08  6.546180E-14 -6.735332E-08 -1.351237E-14 _shell_0000000707   
       707   5  6.470392E-05  9.000030E+00 -1.465211E-07  4.843461E-14  6.447626E-09  4.670389E-15 _shell_0000000707   
       707   6  6.811186E-05  9.000030E+00 -1.205511E-08  4.840915E-14  8.024858E-08  1.125509E-14 _shell_0000000707   
       707   7  6.197692E-05  9.000031E+00  1.547488E-07 -2.278282E-06 -7.000536E-08  3.010386E-08 _shell_0000000707   
       707   8  6.515729E-05  9.000030E+00 -3.695368E-08 -1.658094E-06  3.795595E-09  2.958808E-08 _shell_0000000707   
       707   9  6.857053E-05  9.000030E+00  1.098885E-07 -1.037907E-06  7.759653E-08  2.907233E-08 _shell_0000000707   
       707  10  6.204763E-05  9.000031E+00  1.403913E-07  2.274497E-06  3.394774E-15 -7.000887E-16 _shell_0000000707   
       707  11  6.523936E-05  9.000030E+00 -3.995723E-08  1.654310E-06 -1.416504E-15 -6.117949E-16 _shell_0000000707   
       707  12  6.866396E-05  9.000030E+00  1.182390E-07  1.034122E-06  2.574723E-16  1.551446E-15 _shell_0000000707   
       707  13  6.159956E-05  9.000031E+00  4.320008E-08  6.917775E-14  3.582633E-15 -3.862652E-15 _shell_0000000707   
       707  14  6.478599E-05  9.000030E+00 -1.495247E-07  5.120884E-14  3.677163E-15 -2.417704E-15 _shell_0000000707   
       707  15  6.820528E-05  9.000030E+00 -3.704671E-09  3.593782E-14  1.709808E-15  2.926298E-15 _shell_0000000707   
       707  16  6.204763E-05  9.000031E+00  1.403913E-07 -2.274497E-06  3.211755E-16 -5.622400E-15 _shell_0000000707   
       707  17  6.523936E-05  9.000030E+00 -3.995724E-08 -1.654310E-06  5.360005E-16  3.349834E-16 _shell_0000000707   
       707  18  6.866396E-05  9.000030E+00  1.182390E-07 -1.034122E-06  1.699280E-15 -9.275323E-16 _shell_0000000707   
       707  19  6.197692E-05  9.000031E+00  1.547488E-07  2.278282E-06  7.000537E-08  3.010386E-08 _shell_0000000707   
       707  20  6.515729E-05  9.000030E+00 -3.695369E-08  1.658094E-06 -3.795578E-09  2.958809E-08 _shell_0000000707   
       707  21  6.857053E-05  9.000030E+00  1.098885E-07  1.037907E-06 -7.759652E-08  2.907232E-08 _shell_0000000707   
       707  22  6.152885E-05  9.000031E+00  5.755758E-08  6.286573E-14  6.735332E-08 -6.624825E-15 _shell_0000000707   
       707  23  6.470392E-05  9.000030E+00 -1.465211E-07  5.052165E-14 -6.447631E-09 -5.904797E-15 _shell_0000000707   
       707  24  6.811186E-05  9.000030E+00 -1.205512E-08  3.736311E-14 -8.024857E-08 -8.682135E-15 _shell_0000000707   
       707  25  6.197692E-05  9.000031E+00  1.547488E-07 -2.278282E-06  7.000537E-08 -3.010385E-08 _shell_0000000707   
       707  26  6.515729E-05  9.000030E+00 -3.695369E-08 -1.658094E-06 -3.795580E-09 -2.958809E-08 _shell_0000000707   
       707  27  6.857053E-05  9.000030E+00  1.098885E-07 -1.037907E-06 -7.759653E-08 -2.907233E-08 _shell_0000000707   
       708   1  6.958314E-05  9.000030E+00  1.353943E-07  6.381622E-07 -8.532007E-08 -2.892221E-08 _shell_0000000708   
       708   2  6.940353E-05  9.000030E+00 -4.714173E-08 -5.243052E-15  5.831623E-15 -2.892224E-08 _shell_0000000708   
       708   3  6.958314E-05  9.000030E+00  1.353943E-07 -6.381622E-07  8.532008E-08 -2.892224E-08 _shell_0000000708   
       708   4  6.916589E-05  9.000030E+00  2.826416E-08  2.868408E-14 -8.532008E-08 -7.765327E-17 _shell_0000000708   
       708   5  6.898627E-05  9.000029E+00 -1.542718E-07 -6.133862E-15 -1.488925E-15  4.108559E-15 _shell_0000000708   
       708   6  6.916589E-05  9.000030E+00  2.826415E-08 -3.068204E-14  8.532008E-08  1.230896E-15 _shell_0000000708   
       708   7  6.958314E-05  9.000030E+00  1.353943E-07 -6.381621E-07 -8.532008E-08  2.892224E-08 _shell_0000000708   
       708   8  6.940353E-05  9.000030E+00 -4.714171E-08 -2.028501E-14 -1.673450E-15  2.892222E-08 _shell_0000000708   
       708   9  6.958314E-05  9.000030E+00  1.353943E-07  6.381621E-07  8.532008E-08  2.892224E-08 _shell_0000000708   
       708  10  6.964585E-05  9.000030E+00  1.324686E-07  6.381622E-07  1.037463E-15  2.433171E-15 _shell_0000000708   
       708  11  6.946623E-05  9.000030E+00 -5.006740E-08 -1.745987E-14  3.949558E-15 -2.637115E-15 _shell_0000000708   
       708  12  6.964585E-05  9.000030E+00  1.324686E-07 -6.381622E-07  3.577931E-15 -5.530648E-15 _shell_0000000708   
       708  13  6.922859E-05  9.000030E+00  2.533851E-08  2.779327E-14  1.705265E-15  1.049915E-15 _shell_0000000708   
       708  14  6.904898E-05  9.000029E+00 -1.571975E-07 -9.060809E-15  2.545171E-15 -2.327032E-15 _shell_0000000708   
       708  15  6.922859E-05  9.000030E+00  2.533850E-08 -4.708567E-14  1.565280E-15 -2.039152E-16 _shell_0000000708   
       708  16  6.964585E-05  9.000030E+00  1.324686E-07 -6.381621E-07  3.171766E-15 -7.456975E-16 _shell_0000000708   
       708  17  6.946623E-05  9.000030E+00 -5.006741E-08 -1.130056E-14  4.798549E-15  7.784793E-16 _shell_0000000708   
       708  18  6.964585E-05  9.000030E+00  1.324686E-07  6.381621E-07  2.265275E-15 -1.379455E-15 _shell_0000000708   
       708  19  6.958314E-05  9.000030E+00  1.353943E-07  6.381622E-07  8.532007E-08  2.892222E-08 _shell_0000000708   
       708  20  6.940353E-05  9.000030E+00 -4.714171E-08 -2.209845E-14  5.090342E-16  2.892223E-08 _shell_0000000708   
       708  21  6.958314E-05  9.000030E+00  1.353943E-07 -6.381622E-07 -8.532007E-08  2.892224E-08 _shell_0000000708   
       708  22  6.916589E-05  9.000030E+00  2.826416E-08  2.420458E-14  8.532008E-08 -1.011282E-14 _shell_0000000708   
       708  23  6.898627E-05  9.000029E+00 -1.542718E-07 -9.137164E-15 -8.144548E-16 -5.307236E-15 _shell_0000000708   
       708  24  6.916589E-05  9.000030E+00  2.826416E-08 -4.711112E-14 -8.532008E-08 -5.117787E-15 _shell_0000000708   
       708  25  6.958314E-05  9.000030E+00  1.353943E-07 -6.381621E-07  8.532008E-08 -2.892222E-08 _shell_0000000708   
       708  26  6.940353E-05  9.000030E+00 -4.714173E-08 -1.641635E-14  5.090342E-17 -2.892223E-08 _shell_0000000708   
       708  27  6.958314E-05  9.000030E+00  1.353943E-07  6.381621E-07 -8.532008E-08 -2.892224E-08 _shell_0000000708   
       709   1  6.857053E-05  9.000030E+00  1.098885E-07 -1.037907E-06 -7.759652E-08 -2.907232E-08 _shell_0000000709   
       709   2  6.515729E-05  9.000030E+00 -3.695369E-08 -1.658094E-06 -3.795577E-09 -2.958810E-08 _shell_0000000709   
       709   3  6.197692E-05  9.000031E+00  1.547488E-07 -2.278282E-06  7.000536E-08 -3.010385E-08 _shell_0000000709   
       709   4  6.811186E-05  9.000030E+00 -1.205513E-08 -3.321448E-14 -8.024857E-08 -9.815511E-15 _shell_0000000709   
       709   5  6.470392E-05  9.000030E+00 -1.465211E-07 -4.275887E-14 -6.447624E-09  3.677772E-15 _shell_0000000709   
       709   6  6.152885E-05  9.000031E+00  5.755757E-08 -3.693043E-14  6.735332E-08  5.442078E-15 _shell_0000000709   
       709   7  6.857053E-05  9.000030E+00  1.098885E-07  1.037907E-06 -7.759652E-08  2.907232E-08 _shell_0000000709   
       709   8  6.515729E-05  9.000030E+00 -3.695368E-08  1.658094E-06 -3.795573E-09  2.958808E-08 _shell_0000000709   
       709   9  6.197692E-05  9.000031E+00  1.547488E-07  2.278282E-06  7.000537E-08  3.010387E-08 _shell_0000000709   
       709  10  6.866396E-05  9.000030E+00  1.182390E-07 -1.034122E-06 -1.842202E-16 -3.779852E-15 _shell_0000000709   
       709  11  6.523936E-05  9.000030E+00 -3.995723E-08 -1.654310E-06  3.623822E-16 -2.695336E-15 _shell_0000000709   
       709  12  6.204763E-05  9.000031E+00  1.403913E-07 -2.274497E-06 -1.378179E-15 -2.230692E-16 _shell_0000000709   
       709  13  6.820528E-05  9.000030E+00 -3.704677E-09 -2.967670E-14 -1.233799E-15 -2.176742E-15 _shell_0000000709   
       709  14  6.478599E-05  9.000030E+00 -1.495247E-07 -4.067183E-14  5.090342E-16 -3.516104E-15 _shell_0000000709   
       709  15  6.159956E-05  9.000031E+00  4.320009E-08 -5.118339E-14  1.507709E-15  3.900805E-16 _shell_0000000709   
       709  16  6.866396E-05  9.000030E+00  1.182390E-07  1.034122E-06  5.981152E-16 -1.486603E-15 _shell_0000000709   
       709  17  6.523936E-05  9.000030E+00 -3.995723E-08  1.654310E-06  4.132856E-16 -1.366782E-15 _shell_0000000709   
       709  18  6.204763E-05  9.000031E+00  1.403913E-07  2.274497E-06 -2.009928E-15 -4.292779E-15 _shell_0000000709   
       709  19  6.857053E-05  9.000030E+00  1.098885E-07 -1.037907E-06  7.759653E-08  2.907231E-08 _shell_0000000709   
       709  20  6.515729E-05  9.000030E+00 -3.695368E-08 -1.658094E-06  3.795567E-09  2.958809E-08 _shell_0000000709   
       709  21  6.197692E-05  9.000031E+00  1.547488E-07 -2.278282E-06 -7.000538E-08  3.010386E-08 _shell_0000000709   
       709  22  6.811186E-05  9.000030E+00 -1.205512E-08 -3.626869E-14  8.024857E-08 -6.828438E-15 _shell_0000000709   
       709  23  6.470392E-05  9.000030E+00 -1.465211E-07 -4.156264E-14  6.447618E-09 -7.431900E-15 _shell_0000000709   
       709  24  6.152885E-05  9.000031E+00  5.755757E-08 -5.034348E-14 -6.735332E-08 -7.847768E-15 _shell_0000000709   
       709  25  6.857053E-05  9.000030E+00  1.098885E-07  1.037907E-06  7.759652E-08 -2.907231E-08 _shell_0000000709   
       709  26  6.515729E-05  9.000030E+00 -3.695370E-08  1.658094E-06  3.795566E-09 -2.958810E-08 _shell_0000000709   
       709  27  6.197692E-05  9.000031E+00  1.547488E-07  2.278282E-06 -7.000537E-08 -3.010388E-08 _shell_0000000709   
       710   1  5.893866E-05  9.000031E+00  4.863277E-08 -2.649687E-06 -4.130039E-08 -2.992417E-08 _shell_0000000710   
       710   2  5.277390E-05  9.000030E+00  5.095624E-09 -3.155946E-06 -1.194836E-08 -2.879096E-08 _shell_0000000710   
       710   3  4.638158E-05  9.000028E+00  1.697249E-07 -3.662204E-06  1.740366E-08 -2.765772E-08 _shell_0000000710   
       710   4  5.838819E-05  9.000031E+00 -8.407172E-08 -4.568582E-14 -4.620098E-08 -6.746002E-15 _shell_0000000710   
       710   5  5.223323E-05  9.000030E+00 -1.047394E-07 -6.940682E-14 -1.684896E-08  4.326791E-16 _shell_0000000710   
       710   6  4.585071E-05  9.000028E+00  8.275932E-08 -7.948569E-14  1.250307E-08 -1.426100E-15 _shell_0000000710   
       710   7  5.893866E-05  9.000031E+00  4.863277E-08  2.649687E-06 -4.130039E-08  2.992418E-08 _shell_0000000710   
       710   8  5.277390E-05  9.000030E+00  5.095639E-09  3.155946E-06 -1.194836E-08  2.879094E-08 _shell_0000000710   
       710   9  4.638158E-05  9.000028E+00  1.697249E-07  3.662204E-06  1.740367E-08  2.765772E-08 _shell_0000000710   
       710  10  5.910339E-05  9.000031E+00  6.879784E-08 -2.641911E-06  5.853894E-16 -6.636846E-16 _shell_0000000710   
       710  11  5.291529E-05  9.000030E+00  1.933139E-09 -3.148170E-06  5.312143E-15 -6.575449E-15 _shell_0000000710   
       710  12  4.649965E-05  9.000028E+00  1.432349E-07 -3.654428E-06  2.885738E-15 -5.092859E-15 _shell_0000000710   
       710  13  5.855292E-05  9.000031E+00 -6.390664E-08 -4.876548E-14  3.371751E-15 -2.168184E-15 _shell_0000000710   
       710  14  5.237462E-05  9.000030E+00 -1.079019E-07 -6.719252E-14  2.239751E-15 -6.217168E-15 _shell_0000000710   
       710  15  4.596878E-05  9.000028E+00  5.626929E-08 -9.030267E-14  1.644066E-15 -1.450023E-15 _shell_0000000710   
       710  16  5.910339E-05  9.000031E+00  6.879785E-08  2.641911E-06 -1.183505E-15 -3.702570E-15 _shell_0000000710   
       710  17  5.291529E-05  9.000030E+00  1.933138E-09  3.148170E-06  4.797047E-15 -2.854434E-15 _shell_0000000710   
       710  18  4.649965E-05  9.000028E+00  1.432349E-07  3.654428E-06  4.336642E-15 -3.906791E-15 _shell_0000000710   
       710  19  5.893866E-05  9.000031E+00  4.863275E-08 -2.649687E-06  4.130039E-08  2.992417E-08 _shell_0000000710   
       710  20  5.277390E-05  9.000030E+00  5.095640E-09 -3.155946E-06  1.194837E-08  2.879095E-08 _shell_0000000710   
       710  21  4.638158E-05  9.000028E+00  1.697249E-07 -3.662204E-06 -1.740365E-08  2.765772E-08 _shell_0000000710   
       710  22  5.838819E-05  9.000031E+00 -8.407173E-08 -5.680822E-14  4.620098E-08 -9.960108E-15 _shell_0000000710   
       710  23  5.223323E-05  9.000030E+00 -1.047394E-07 -6.874507E-14  1.684895E-08 -9.264423E-15 _shell_0000000710   
       710  24  4.585071E-05  9.000028E+00  8.275933E-08 -8.903009E-14 -1.250306E-08 -5.324721E-15 _shell_0000000710   
       710  25  5.893866E-05  9.000031E+00  4.863276E-08  2.649687E-06  4.130039E-08 -2.992418E-08 _shell_0000000710   
       710  26  5.277390E-05  9.000030E+00  5.095631E-09  3.155946E-06  1.194837E-08 -2.879096E-08 _shell_0000000710   
       710  27  4.638158E-05  9.000028E+00  1.697249E-07  3.662204E-06 -1.740367E-08 -2.765773E-08 _shell_0000000710   
       711   1  4.151943E-05  9.000027E+00 -1.000476E-07 -3.884686E-06  4.255281E-08 -2.563135E-08 _shell_0000000711   
       711   2  3.415405E-05  9.000021E+00  9.483031E-08 -3.993850E-06 -2.440289E-08 -1.980100E-08 _shell_0000000711   
       711   3  2.557247E-05  9.000012E+00  1.080173E-07 -4.103015E-06 -9.135856E-08 -1.397062E-08 _shell_0000000711   
       711   4  4.092272E-05  9.000026E+00 -2.037114E-07 -5.703728E-14  3.706228E-08 -1.205268E-14 _shell_0000000711   
       711   5  3.356832E-05  9.000021E+00  1.678895E-08 -8.569591E-14 -2.989341E-08  2.617742E-15 _shell_0000000711   
       711   6  2.499772E-05  9.000012E+00  5.559841E-08 -1.036394E-13 -9.684907E-08  7.503667E-15 _shell_0000000711   
       711   7  4.151943E-05  9.000027E+00 -1.000476E-07  3.884686E-06  4.255281E-08  2.563135E-08 _shell_0000000711   
       711   8  3.415405E-05  9.000021E+00  9.483032E-08  3.993850E-06 -2.440288E-08  1.980097E-08 _shell_0000000711   
       711   9  2.557247E-05  9.000012E+00  1.080173E-07  4.103015E-06 -9.135857E-08  1.397064E-08 _shell_0000000711   
       711  10  4.178993E-05  9.000026E+00 -7.028839E-08 -3.874263E-06  3.454775E-15 -1.364992E-15 _shell_0000000711   
       711  11  3.439328E-05  9.000021E+00  9.332302E-08 -3.983428E-06  1.179880E-15 -1.804368E-15 _shell_0000000711   
       711  12  2.578044E-05  9.000012E+00  7.524356E-08 -4.092593E-06 -4.024404E-15 -2.192205E-15 _shell_0000000711   
       711  13  4.119322E-05  9.000026E+00 -1.739522E-07 -5.085252E-14  2.608210E-15 -1.891677E-15 _shell_0000000711   
       711  14  3.380756E-05  9.000021E+00  1.528167E-08 -8.404155E-14  2.036137E-15 -2.255846E-15 _shell_0000000711   
       711  15  2.520569E-05  9.000012E+00  2.282462E-08 -1.190631E-13  5.277606E-15  2.604971E-15 _shell_0000000711   
       711  16  4.178993E-05  9.000026E+00 -7.028840E-08  3.874263E-06  3.900180E-15 -3.194919E-15 _shell_0000000711   
       711  17  3.439328E-05  9.000021E+00  9.332302E-08  3.983428E-06  6.012672E-15  1.350289E-16 _shell_0000000711   
       711  18  2.578044E-05  9.000012E+00  7.524356E-08  4.092593E-06  4.645106E-15  1.488133E-15 _shell_0000000711   
       711  19  4.151943E-05  9.000027E+00 -1.000476E-07 -3.884686E-06 -4.255279E-08  2.563135E-08 _shell_0000000711   
       711  20  3.415405E-05  9.000021E+00  9.483031E-08 -3.993850E-06  2.440289E-08  1.980099E-08 _shell_0000000711   
       711  21  2.557247E-05  9.000012E+00  1.080173E-07 -4.103015E-06  9.135856E-08  1.397063E-08 _shell_0000000711   
       711  22  4.092272E-05  9.000026E+00 -2.037114E-07 -5.780084E-14 -3.706227E-08 -4.309827E-15 _shell_0000000711   
       711  23  3.356832E-05  9.000021E+00  1.678895E-08 -7.729685E-14  2.989341E-08 -4.404255E-15 _shell_0000000711   
       711  24  2.499772E-05  9.000012E+00  5.559839E-08 -1.055991E-13  9.684909E-08 -4.944053E-15 _shell_0000000711   
       711  25  4.151943E-05  9.000027E+00 -1.000476E-07  3.884686E-06 -4.255281E-08 -2.563134E-08 _shell_0000000711   
       711  26  3.415405E-05  9.000021E+00  9.483030E-08  3.993850E-06  2.440289E-08 -1.980099E-08 _shell_0000000711   
       711  27  2.557247E-05  9.000012E+00  1.080173E-07  4.103015E-06  9.135858E-08 -1.397063E-08 _shell_0000000711   
       712   1  2.010510E-05  9.000005E+00 -3.086032E-07 -3.958155E-06  1.680262E-07 -9.619341E-09 _shell_0000000712   
       712   2  1.467965E-05  8.999989E+00  2.324626E-07 -3.371512E-06 -2.309459E-08 -4.966050E-10 _shell_0000000712   
       712   3  6.636257E-06  8.999965E+00 -1.069332E-07 -2.784868E-06 -2.142154E-07  8.626164E-09 _shell_0000000712   
       712   4  1.958168E-05  9.000005E+00 -3.292793E-07 -1.113258E-13  1.647263E-07 -5.766110E-15 _shell_0000000712   
       712   5  1.416283E-05  8.999988E+00  2.271859E-07 -1.181214E-13 -2.639450E-08 -7.508255E-16 _shell_0000000712   
       712   6  6.126038E-06  8.999964E+00 -9.681042E-08 -1.258078E-13 -2.175153E-07 -1.916913E-16 _shell_0000000712   
       712   7  2.010510E-05  9.000005E+00 -3.086031E-07  3.958155E-06  1.680262E-07  9.619356E-09 _shell_0000000712   
       712   8  1.467965E-05  8.999989E+00  2.324626E-07  3.371511E-06 -2.309463E-08  4.965785E-10 _shell_0000000712   
       712   9  6.636257E-06  8.999965E+00 -1.069332E-07  2.784868E-06 -2.142154E-07 -8.626156E-09 _shell_0000000712   
       712  10  2.047969E-05  9.000005E+00 -2.793417E-07 -3.949784E-06 -2.959053E-15 -1.845457E-15 _shell_0000000712   
       712  11  1.502913E-05  8.999988E+00  2.366115E-07 -3.363141E-06 -6.066614E-15 -3.216773E-15 _shell_0000000712   
       712  12  6.960622E-06  8.999964E+00 -1.278970E-07 -2.776497E-06 -2.930566E-15 -1.628710E-15 _shell_0000000712   
       712  13  1.995627E-05  9.000004E+00 -3.000179E-07 -1.192667E-13  5.954533E-15  3.081556E-16 _shell_0000000712   
       712  14  1.451231E-05  8.999988E+00  2.313348E-07 -1.252224E-13  4.104682E-26 -2.987180E-15 _shell_0000000712   
       712  15  6.450403E-06  8.999964E+00 -1.177742E-07 -1.341814E-13 -5.455773E-15  1.945754E-15 _shell_0000000712   
       712  16  2.047969E-05  9.000005E+00 -2.793417E-07  3.949784E-06  1.285311E-15  1.624939E-15 _shell_0000000712   
       712  17  1.502913E-05  8.999988E+00  2.366115E-07  3.363140E-06 -2.700917E-15  5.551363E-16 _shell_0000000712   
       712  18  6.960622E-06  8.999964E+00 -1.278970E-07  2.776497E-06 -1.039726E-15 -9.903379E-17 _shell_0000000712   
       712  19  2.010510E-05  9.000005E+00 -3.086031E-07 -3.958155E-06 -1.680262E-07  9.619341E-09 _shell_0000000712   
       712  20  1.467965E-05  8.999989E+00  2.324626E-07 -3.371511E-06  2.309460E-08  4.965971E-10 _shell_0000000712   
       712  21  6.636257E-06  8.999965E+00 -1.069332E-07 -2.784868E-06  2.142154E-07 -8.626152E-09 _shell_0000000712   
       712  22  1.958168E-05  9.000005E+00 -3.292793E-07 -1.148890E-13 -1.647263E-07 -6.091445E-15 _shell_0000000712   
       712  23  1.416283E-05  8.999988E+00  2.271859E-07 -1.179941E-13  2.639450E-08 -2.443364E-15 _shell_0000000712   
       712  24  6.126038E-06  8.999964E+00 -9.681043E-08 -1.312545E-13  2.175153E-07  9.386174E-16 _shell_0000000712   
       712  25  2.010510E-05  9.000005E+00 -3.086031E-07  3.958155E-06 -1.680262E-07 -9.619337E-09 _shell_0000000712   
       712  26  1.467965E-05  8.999989E+00  2.324626E-07  3.371511E-06  2.309460E-08 -4.965908E-10 _shell_0000000712   
       712  27  6.636257E-06  8.999965E+00 -1.069332E-07  2.784868E-06  2.142154E-07  8.626160E-09 _shell_0000000712   
       713   1  3.423226E-06  8.999948E+00 -2.823296E-07 -2.187730E-06  2.329087E-07  9.178793E-09 _shell_0000000713   
       713   2  2.311199E-06  8.999913E+00  2.277504E-07 -1.332376E-06  1.561206E-08  1.955109E-09 _shell_0000000713   
       713   3 -1.893182E-06  8.999870E+00 -4.000286E-07 -4.770217E-07 -2.016846E-07 -5.268543E-09 _shell_0000000713   
       713   4  2.963810E-06  8.999948E+00 -2.475434E-07 -1.417660E-13  2.336008E-07 -1.004200E-14 _shell_0000000713   
       713   5  1.850399E-06  8.999913E+00  2.593069E-07 -1.375410E-13  1.630416E-08  1.908878E-15 _shell_0000000713   
       713   6 -2.355366E-06  8.999870E+00 -3.717018E-07 -1.307454E-13 -2.009925E-07  9.221658E-15 _shell_0000000713   
       713   7  3.423226E-06  8.999948E+00 -2.823296E-07  2.187729E-06  2.329087E-07 -9.178788E-09 _shell_0000000713   
       713   8  2.311199E-06  8.999913E+00  2.277504E-07  1.332375E-06  1.561205E-08 -1.955131E-09 _shell_0000000713   
       713   9 -1.893182E-06  8.999870E+00 -4.000286E-07  4.770214E-07 -2.016846E-07  5.268569E-09 _shell_0000000713   
       713  10  3.816005E-06  8.999947E+00 -2.762795E-07 -2.191477E-06 -4.015303E-15  5.110935E-17 _shell_0000000713   
       713  11  2.715219E-06  8.999913E+00  2.450415E-07 -1.336123E-06 -4.940666E-15 -3.094925E-15 _shell_0000000713   
       713  12 -1.477920E-06  8.999870E+00 -3.714965E-07 -4.807687E-07  4.107418E-15 -3.275206E-15 _shell_0000000713   
       713  13  3.356589E-06  8.999947E+00 -2.414933E-07 -1.300073E-13  1.902972E-16  3.060279E-16 _shell_0000000713   
       713  14  2.254419E-06  8.999913E+00  2.765980E-07 -1.280221E-13  7.138614E-15 -3.926730E-15 _shell_0000000713   
       713  15 -1.940105E-06  8.999870E+00 -3.431697E-07 -1.427332E-13  1.602008E-14  1.103923E-15 _shell_0000000713   
       713  16  3.816005E-06  8.999947E+00 -2.762795E-07  2.191476E-06  3.918973E-15  4.227849E-16 _shell_0000000713   
       713  17  2.715219E-06  8.999913E+00  2.450415E-07  1.336122E-06  4.317689E-15 -2.647413E-16 _shell_0000000713   
       713  18 -1.477920E-06  8.999870E+00 -3.714965E-07  4.807684E-07  2.405945E-15  1.194140E-15 _shell_0000000713   
       713  19  3.423226E-06  8.999948E+00 -2.823296E-07 -2.187730E-06 -2.329087E-07 -9.178789E-09 _shell_0000000713   
       713  20  2.311199E-06  8.999913E+00  2.277504E-07 -1.332376E-06 -1.561207E-08 -1.955117E-09 _shell_0000000713   
       713  21 -1.893182E-06  8.999870E+00 -4.000286E-07 -4.770217E-07  2.016846E-07  5.268551E-09 _shell_0000000713   
       713  22  2.963810E-06  8.999948E+00 -2.475434E-07 -1.349450E-13 -2.336008E-07 -8.483888E-16 _shell_0000000713   
       713  23  1.850399E-06  8.999913E+00  2.593069E-07 -1.275385E-13 -1.630416E-08 -5.904797E-15 _shell_0000000713   
       713  24 -2.355366E-06  8.999870E+00 -3.717018E-07 -1.444130E-13  2.009925E-07 -1.049252E-14 _shell_0000000713   
       713  25  3.423226E-06  8.999948E+00 -2.823296E-07  2.187729E-06 -2.329087E-07  9.178803E-09 _shell_0000000713   
       713  26  2.311199E-06  8.999913E+00  2.277504E-07  1.332375E-06 -1.561205E-08  1.955116E-09 _shell_0000000713   
       713  27 -1.893182E-06  8.999870E+00 -4.000286E-07  4.770214E-07  2.016846E-07 -5.268564E-09 _shell_0000000713   
       714   1 -1.353633E-06  8.999842E+00  8.869950E-08 -1.537380E-07  1.415941E-07 -8.297023E-09 _shell_0000000714   
       714   2 -7.178050E-07  8.999790E+00  1.904777E-07 -9.154536E-08  1.398737E-08 -1.148075E-08 _shell_0000000714   
       714   3 -1.776722E-06  8.999733E+00 -6.303985E-08 -2.935270E-08 -1.136194E-07 -1.466445E-08 _shell_0000000714   
       714   4 -1.971663E-06  8.999842E+00  4.260439E-08 -1.356322E-13  1.477858E-07  1.124942E-15 _shell_0000000714   
       714   5 -1.348218E-06  8.999790E+00  1.154881E-07 -1.202084E-13  2.017904E-08  1.064260E-14 _shell_0000000714   
       714   6 -2.419518E-06  8.999733E+00 -1.669240E-07 -8.228538E-14 -1.074277E-07  5.559192E-15 _shell_0000000714   
       714   7 -1.353633E-06  8.999842E+00  8.869951E-08  1.537377E-07  1.415941E-07  8.297056E-09 _shell_0000000714   
       714   8 -7.178050E-07  8.999790E+00  1.904777E-07  9.154510E-08  1.398736E-08  1.148075E-08 _shell_0000000714   
       714   9 -1.776722E-06  8.999733E+00 -6.303984E-08  2.935251E-08 -1.136194E-07  1.466447E-08 _shell_0000000714   
       714  10 -1.110951E-06  8.999842E+00  5.036715E-08 -1.642194E-07  7.640956E-15 -2.249781E-15 _shell_0000000714   
       714  11 -4.436781E-07  8.999790E+00  1.835897E-07 -1.020268E-07  4.790978E-15 -3.496438E-15 _shell_0000000714   
       714  12 -1.471150E-06  8.999733E+00 -3.848365E-08 -3.983413E-08  8.834772E-15 -2.057026E-16 _shell_0000000714   
       714  13 -1.728981E-06  8.999842E+00  4.272077E-09 -1.458383E-13  8.195451E-15 -8.264070E-16 _shell_0000000714   
       714  14 -1.074091E-06  8.999790E+00  1.086000E-07 -1.224227E-13 -2.157258E-16 -5.035215E-15 _shell_0000000714   
       714  15 -2.113947E-06  8.999733E+00 -1.423678E-07 -1.037921E-13  2.961483E-15  3.254699E-17 _shell_0000000714   
       714  16 -1.110951E-06  8.999842E+00  5.036716E-08  1.642191E-07 -2.900881E-15  1.360633E-15 _shell_0000000714   
       714  17 -4.436781E-07  8.999790E+00  1.835897E-07  1.020265E-07 -1.059888E-15 -1.404328E-15 _shell_0000000714   
       714  18 -1.471150E-06  8.999733E+00 -3.848364E-08  3.983392E-08 -1.170339E-14 -2.302895E-15 _shell_0000000714   
       714  19 -1.353633E-06  8.999842E+00  8.869950E-08 -1.537380E-07 -1.415941E-07  8.297025E-09 _shell_0000000714   
       714  20 -7.178050E-07  8.999790E+00  1.904778E-07 -9.154534E-08 -1.398735E-08  1.148074E-08 _shell_0000000714   
       714  21 -1.776722E-06  8.999733E+00 -6.303984E-08 -2.935271E-08  1.136194E-07  1.466447E-08 _shell_0000000714   
       714  22 -1.971663E-06  8.999842E+00  4.260439E-08 -1.537283E-13 -1.477858E-07 -1.515225E-14 _shell_0000000714   
       714  23 -1.348218E-06  8.999790E+00  1.154881E-07 -1.329343E-13 -2.017905E-08 -1.768784E-14 _shell_0000000714   
       714  24 -2.419518E-06  8.999733E+00 -1.669241E-07 -1.215574E-13  1.074277E-07 -8.686545E-15 _shell_0000000714   
       714  25 -1.353633E-06  8.999842E+00  8.869951E-08  1.537377E-07 -1.415941E-07 -8.297038E-09 _shell_0000000714   
       714  26 -7.178050E-07  8.999790E+00  1.904777E-07  9.154507E-08 -1.398735E-08 -1.148076E-08 _shell_0000000714   
       714  27 -1.776722E-06  8.999733E+00 -6.303986E-08  2.935248E-08  1.136194E-07 -1.466448E-08 _shell_0000000714   
       715   1 -1.643631E-06  8.999698E+00 -5.416752E-08  2.360086E-07  4.439151E-08 -1.216771E-08 _shell_0000000715   
       715   2 -8.029374E-07  8.999635E+00 -6.463664E-08  3.358702E-07  1.326683E-08 -4.039812E-10 _shell_0000000715   
       715   3 -4.237375E-07  8.999571E+00  9.048293E-08  4.357318E-07 -1.785784E-08  1.135978E-08 _shell_0000000715   
       715   4 -1.754771E-06  8.999698E+00  3.774120E-08 -5.670641E-14  6.712059E-08 -9.763229E-15 _shell_0000000715   
       715   5 -9.595350E-07  8.999635E+00 -7.879713E-08 -3.102564E-14  3.599592E-08 -1.361667E-15 _shell_0000000715   
       715   6 -6.257934E-07  8.999570E+00 -2.974676E-08  5.243052E-15  4.871198E-09  2.615738E-15 _shell_0000000715   
       715   7 -1.643631E-06  8.999698E+00 -5.416752E-08 -2.360088E-07  4.439149E-08  1.216772E-08 _shell_0000000715   
       715   8 -8.029374E-07  8.999635E+00 -6.463665E-08 -3.358703E-07  1.326680E-08  4.039543E-10 _shell_0000000715   
       715   9 -4.237375E-07  8.999571E+00  9.048295E-08 -4.357318E-07 -1.785790E-08 -1.135977E-08 _shell_0000000715   
       715  10 -1.526983E-06  8.999698E+00 -9.054273E-08  2.063264E-07  1.035949E-14  4.632093E-16 _shell_0000000715   
       715  11 -5.972424E-07  8.999635E+00 -1.196506E-08  3.061879E-07  1.251620E-14 -4.102169E-15 _shell_0000000715   
       715  12 -1.289956E-07  8.999571E+00  2.322013E-07  4.060495E-07  1.337121E-14  1.545576E-15 _shell_0000000715   
       715  13 -1.638122E-06  8.999698E+00  1.365972E-09 -7.019582E-14  3.638304E-15 -2.373327E-15 _shell_0000000715   
       715  14 -7.538400E-07  8.999635E+00 -2.612555E-08 -4.591489E-14  1.628910E-15 -5.318119E-15 _shell_0000000715   
       715  15 -3.310515E-07  8.999571E+00  1.119716E-07 -1.440567E-14 -4.956631E-16  6.364355E-15 _shell_0000000715   
       715  16 -1.526983E-06  8.999698E+00 -9.054272E-08 -2.063265E-07 -9.334092E-15 -2.664735E-15 _shell_0000000715   
       715  17 -5.972424E-07  8.999635E+00 -1.196508E-08 -3.061880E-07  1.832523E-15 -2.620947E-15 _shell_0000000715   
       715  18 -1.289957E-07  8.999571E+00  2.322013E-07 -4.060495E-07  2.685911E-15  4.888722E-15 _shell_0000000715   
       715  19 -1.643631E-06  8.999698E+00 -5.416754E-08  2.360086E-07 -4.439146E-08  1.216771E-08 _shell_0000000715   
       715  20 -8.029374E-07  8.999635E+00 -6.463664E-08  3.358702E-07 -1.326682E-08  4.039716E-10 _shell_0000000715   
       715  21 -4.237375E-07  8.999571E+00  9.048293E-08  4.357318E-07  1.785790E-08 -1.135976E-08 _shell_0000000715   
       715  22 -1.754771E-06  8.999698E+00  3.774120E-08 -1.022904E-13 -6.712062E-08 -7.926151E-15 _shell_0000000715   
       715  23 -9.595350E-07  8.999635E+00 -7.879713E-08 -4.805283E-14 -3.599591E-08 -6.210218E-15 _shell_0000000715   
       715  24 -6.257933E-07  8.999570E+00 -2.974674E-08 -4.046822E-15 -4.871212E-09  6.736104E-15 _shell_0000000715   
       715  25 -1.643631E-06  8.999698E+00 -5.416751E-08 -2.360088E-07 -4.439150E-08 -1.216771E-08 _shell_0000000715   
       715  26 -8.029374E-07  8.999635E+00 -6.463665E-08 -3.358703E-07 -1.326681E-08 -4.039728E-10 _shell_0000000715   
       715  27 -4.237375E-07  8.999571E+00  9.048295E-08 -4.357317E-07  1.785791E-08  1.135978E-08 _shell_0000000715   
       801   1 -8.265990E-07  8.999570E+00 -2.373962E-07  9.098069E-07  3.908537E-08 -1.325125E-07 _shell_0000000801   
       801   2 -2.327807E-07  8.999636E+00  2.584408E-07  4.146448E-07 -1.249896E-08  6.338256E-08 _shell_0000000801   
       801   3 -1.025227E-06  8.999698E+00  9.123033E-08  4.819197E-07 -6.408329E-08  1.150290E-08 _shell_0000000801   
       801   4 -8.493953E-07  8.999569E+00 -3.669716E-08  1.047846E-06  8.671039E-08 -1.499370E-07 _shell_0000000801   
       801   5  2.896472E-07  8.999636E+00 -3.487026E-08  2.383977E-07 -3.518333E-08  6.671501E-08 _shell_0000000801   
       801   6  2.901995E-07  8.999698E+00 -1.179497E-07 -8.614042E-09 -1.570770E-07  3.559222E-08 _shell_0000000801   
       801   7 -3.082039E-07  8.999569E+00  3.846199E-07  1.158738E-06  1.757752E-07 -1.673614E-07 _shell_0000000801   
       801   8  1.293183E-06  8.999635E+00 -3.009492E-07  3.500309E-08 -1.642786E-08  7.004745E-08 _shell_0000000801   
       801   9  2.003855E-06  8.999698E+00 -4.932835E-07 -5.262953E-07 -2.086309E-07  5.968155E-08 _shell_0000000801   
       801  10 -5.704043E-07  8.999570E+00 -1.459182E-07  7.198699E-07  1.463642E-14  2.137943E-15 _shell_0000000801   
       801  11 -4.647407E-08  8.999636E+00  2.800308E-07  2.648914E-07  2.093795E-15 -5.100410E-15 _shell_0000000801   
       801  12 -9.088087E-07  8.999698E+00  4.293224E-08  3.723498E-07  2.583666E-15 -8.151980E-15 _shell_0000000801   
       801  13 -5.228794E-07  8.999569E+00  8.491856E-08  8.346134E-07  1.468564E-14  3.283271E-15 _shell_0000000801   
       801  14  5.462749E-07  8.999636E+00  1.685737E-08  6.534828E-08  5.643526E-15 -2.953523E-16 _shell_0000000801   
       801  15  4.769392E-07  8.999698E+00 -1.361102E-07 -1.414800E-07  3.193428E-15 -3.634552E-15 _shell_0000000801   
       801  16  8.863315E-08  8.999570E+00  5.363733E-07  9.222094E-07  2.129371E-14  5.304010E-15 _shell_0000000801   
       801  17  1.620132E-06  8.999635E+00 -2.190839E-07 -1.613424E-07  1.314656E-14 -1.221687E-15 _shell_0000000801   
       801  18  2.260916E-06  8.999698E+00 -4.813063E-07 -6.824573E-07  5.402495E-15 -3.289701E-15 _shell_0000000801   
       801  19 -8.265991E-07  8.999570E+00 -2.373963E-07  9.098069E-07 -3.908534E-08  1.325126E-07 _shell_0000000801   
       801  20 -2.327807E-07  8.999636E+00  2.584408E-07  4.146448E-07  1.249897E-08 -6.338257E-08 _shell_0000000801   
       801  21 -1.025227E-06  8.999698E+00  9.123035E-08  4.819197E-07  6.408328E-08 -1.150291E-08 _shell_0000000801   
       801  22 -8.493953E-07  8.999569E+00 -3.669718E-08  1.047846E-06 -8.671037E-08  1.499370E-07 _shell_0000000801   
       801  23  2.896471E-07  8.999636E+00 -3.487028E-08  2.383977E-07  3.518332E-08 -6.671501E-08 _shell_0000000801   
       801  24  2.901996E-07  8.999698E+00 -1.179497E-07 -8.614042E-09  1.570770E-07 -3.559222E-08 _shell_0000000801   
       801  25 -3.082039E-07  8.999569E+00  3.846198E-07  1.158738E-06 -1.757752E-07  1.673614E-07 _shell_0000000801   
       801  26  1.293183E-06  8.999635E+00 -3.009492E-07  3.500310E-08  1.642788E-08 -7.004746E-08 _shell_0000000801   
       801  27  2.003855E-06  8.999698E+00 -4.932834E-07 -5.262953E-07  2.086309E-07 -5.968155E-08 _shell_0000000801   
       802   1 -1.184809E-06  8.999733E+00 -1.427827E-07  1.870475E-07  1.018211E-07 -5.691287E-08 _shell_0000000802   
       802   2 -2.072111E-07  8.999790E+00 -4.388894E-08 -1.349796E-07 -1.646883E-08 -5.598169E-08 _shell_0000000802   
       802   3 -5.261134E-07  8.999842E+00  8.339358E-08 -2.993639E-07 -1.347587E-07 -1.752306E-08 _shell_0000000802   
       802   4  8.037843E-07  8.999733E+00 -6.072454E-08 -3.494727E-07  5.281490E-08 -2.951938E-08 _shell_0000000802   
       802   5  2.032857E-06  8.999790E+00  6.029581E-08 -4.191608E-07 -3.345761E-08 -3.799025E-08 _shell_0000000802   
       802   6  1.927903E-06  8.999843E+00  1.221409E-07 -3.312061E-07 -1.197301E-07 -8.933712E-09 _shell_0000000802   
       802   7  4.363791E-06  8.999734E+00  3.022053E-07 -8.761996E-07  1.267632E-08 -2.125879E-09 _shell_0000000802   
       802   8  5.826604E-06  8.999791E+00  4.039703E-07 -6.935487E-07 -4.157882E-08 -1.999883E-08 _shell_0000000802   
       802   9  5.917862E-06  8.999844E+00  3.589961E-07 -3.532549E-07 -9.583394E-08 -3.443460E-10 _shell_0000000802   
       802  10 -8.890271E-07  8.999733E+00 -1.309085E-07  1.206692E-07  5.319408E-15 -5.090342E-15 _shell_0000000802   
       802  11  5.804124E-08  8.999790E+00 -6.254411E-08 -1.914177E-07  1.055724E-14 -4.896824E-15 _shell_0000000802   
       802  12 -2.913904E-07  8.999842E+00  3.420904E-08 -3.458617E-07  2.931561E-15 -6.395859E-15 _shell_0000000802   
       802  13  1.116961E-06  8.999733E+00 -4.139521E-08 -4.260274E-07  5.040953E-15 -3.257825E-15 _shell_0000000802   
       802  14  2.315505E-06  8.999790E+00  4.909583E-08 -4.857753E-07  6.515626E-15 -1.313396E-15 _shell_0000000802   
       802  15  2.180021E-06  8.999842E+00  8.041160E-08 -3.878803E-07  7.693153E-15 -3.397693E-16 _shell_0000000802   
       802  16  4.694363E-06  8.999733E+00  3.289898E-07 -9.629308E-07  1.208943E-15 -2.535088E-15 _shell_0000000802   
       802  17  6.126647E-06  8.999791E+00  4.002255E-07 -7.703396E-07  6.688572E-15 -3.665053E-15 _shell_0000000802   
       802  18  6.187376E-06  8.999843E+00  3.247220E-07 -4.201056E-07  1.877429E-14  1.635216E-15 _shell_0000000802   
       802  19 -1.184809E-06  8.999733E+00 -1.427826E-07  1.870475E-07 -1.018211E-07  5.691287E-08 _shell_0000000802   
       802  20 -2.072111E-07  8.999790E+00 -4.388894E-08 -1.349796E-07  1.646885E-08  5.598168E-08 _shell_0000000802   
       802  21 -5.261135E-07  8.999842E+00  8.339356E-08 -2.993639E-07  1.347587E-07  1.752306E-08 _shell_0000000802   
       802  22  8.037843E-07  8.999733E+00 -6.072454E-08 -3.494727E-07 -5.281490E-08  2.951936E-08 _shell_0000000802   
       802  23  2.032857E-06  8.999790E+00  6.029580E-08 -4.191608E-07  3.345762E-08  3.799025E-08 _shell_0000000802   
       802  24  1.927903E-06  8.999843E+00  1.221409E-07 -3.312060E-07  1.197301E-07  8.933708E-09 _shell_0000000802   
       802  25  4.363791E-06  8.999734E+00  3.022052E-07 -8.761997E-07 -1.267632E-08  2.125856E-09 _shell_0000000802   
       802  26  5.826604E-06  8.999791E+00  4.039703E-07 -6.935487E-07  4.157882E-08  1.999883E-08 _shell_0000000802   
       802  27  5.917863E-06  8.999844E+00  3.589962E-07 -3.532549E-07  9.583397E-08  3.443547E-10 _shell_0000000802   
       803   1 -9.638150E-07  8.999871E+00 -2.612978E-07 -7.838095E-07  2.015833E-07  1.476059E-08 _shell_0000000803   
       803   2  3.255251E-06  8.999914E+00  4.007989E-07 -2.048948E-06 -1.669314E-08  3.217901E-08 _shell_0000000803   
       803   3  4.115751E-06  8.999948E+00 -3.226372E-07 -3.429246E-06 -2.349695E-07  1.817881E-09 _shell_0000000803   
       803   4  1.073661E-06  8.999871E+00 -4.574720E-07 -1.136642E-06  2.004458E-07  1.869255E-08 _shell_0000000803   
       803   5  5.290297E-06  8.999915E+00  2.717666E-07 -3.352410E-06 -2.119753E-08  2.950798E-08 _shell_0000000803   
       803   6  6.196147E-06  8.999949E+00 -2.730421E-07 -5.683338E-06 -2.428409E-07 -7.456131E-09 _shell_0000000803   
       803   7  4.022441E-06  8.999871E+00 -7.344387E-07 -1.411710E-06  2.005421E-07  2.262451E-08 _shell_0000000803   
       803   8  8.234180E-06  8.999916E+00  5.618430E-08 -4.578108E-06 -2.446818E-08  2.683696E-08 _shell_0000000803   
       803   9  9.182912E-06  8.999950E+00 -3.157543E-07 -7.859666E-06 -2.494785E-07 -1.673013E-08 _shell_0000000803   
       803  10 -5.531691E-07  8.999870E+00 -2.418601E-07 -8.122701E-07  1.564522E-15 -4.988534E-15 _shell_0000000803   
       803  11  3.655692E-06  8.999914E+00  4.100324E-07 -2.062016E-06  4.894155E-15 -1.049621E-14 _shell_0000000803   
       803  12  4.505988E-06  8.999948E+00 -3.236079E-07 -3.426922E-06  1.222190E-14 -1.012457E-14 _shell_0000000803   
       803  13  1.511243E-06  8.999871E+00 -4.264901E-07 -1.168504E-06  6.136896E-15 -3.257827E-15 _shell_0000000803   
       803  14  5.717675E-06  8.999915E+00  2.925442E-07 -3.368880E-06  8.144448E-16 -6.658235E-15 _shell_0000000803   
       803  15  6.613321E-06  8.999949E+00 -2.624687E-07 -5.684415E-06  5.204112E-15 -3.812695E-15 _shell_0000000803   
       803  16  4.486959E-06  8.999871E+00 -6.919128E-07 -1.446974E-06  1.880956E-14  2.137173E-16 _shell_0000000803   
       803  17  8.688494E-06  8.999915E+00  8.850600E-08 -4.597980E-06  1.928264E-15 -6.006580E-15 _shell_0000000803   
       803  18  9.627022E-06  8.999950E+00 -2.936368E-07 -7.864145E-06  2.564126E-15  1.584313E-15 _shell_0000000803   
       803  19 -9.638150E-07  8.999871E+00 -2.612978E-07 -7.838095E-07 -2.015833E-07 -1.476059E-08 _shell_0000000803   
       803  20  3.255251E-06  8.999914E+00  4.007989E-07 -2.048948E-06  1.669316E-08 -3.217902E-08 _shell_0000000803   
       803  21  4.115751E-06  8.999948E+00 -3.226372E-07 -3.429246E-06  2.349696E-07 -1.817896E-09 _shell_0000000803   
       803  22  1.073661E-06  8.999871E+00 -4.574720E-07 -1.136642E-06 -2.004458E-07 -1.869257E-08 _shell_0000000803   
       803  23  5.290297E-06  8.999915E+00  2.717666E-07 -3.352410E-06  2.119753E-08 -2.950800E-08 _shell_0000000803   
       803  24  6.196147E-06  8.999949E+00 -2.730421E-07 -5.683338E-06  2.428409E-07  7.456120E-09 _shell_0000000803   
       803  25  4.022441E-06  8.999871E+00 -7.344388E-07 -1.411710E-06 -2.005421E-07 -2.262453E-08 _shell_0000000803   
       803  26  8.234180E-06  8.999916E+00  5.618428E-08 -4.578108E-06  2.446819E-08 -2.683697E-08 _shell_0000000803   
       803  27  9.182912E-06  8.999950E+00 -3.157542E-07 -7.859666E-06  2.494785E-07  1.673014E-08 _shell_0000000803   
       804   1  7.274874E-06  8.999965E+00 -2.116558E-07 -4.393478E-06  2.151124E-07 -1.042395E-08 _shell_0000000804   
       804   2  1.541618E-05  8.999989E+00  2.104021E-07 -5.404630E-06  2.407294E-08 -1.034056E-09 _shell_0000000804   
       804   3  2.090456E-05  9.000005E+00 -2.771138E-07 -6.310563E-06 -1.669666E-07 -6.739159E-09 _shell_0000000804   
       804   4  9.479279E-06  8.999966E+00 -7.755582E-08 -7.187214E-06  2.209191E-07 -1.873022E-08 _shell_0000000804   
       804   5  1.756466E-05  8.999989E+00  2.289210E-07 -8.753471E-06  3.015912E-08  5.883711E-10 _shell_0000000804   
       804   6  2.301222E-05  9.000005E+00 -3.389543E-07 -1.021451E-05 -1.606009E-07  4.811945E-09 _shell_0000000804   
       804   7  1.277375E-05  8.999967E+00  4.990161E-08 -1.007236E-05  2.192343E-07 -2.703648E-08 _shell_0000000804   
       804   8  2.081819E-05  8.999990E+00  2.757580E-07 -1.219372E-05  2.875375E-08  2.210788E-09 _shell_0000000804   
       804   9  2.623991E-05  9.000006E+00 -3.375161E-07 -1.420986E-05 -1.617268E-07  1.636307E-08 _shell_0000000804   
       804  10  7.592998E-06  8.999964E+00 -2.405691E-07 -4.365615E-06  1.249375E-14 -4.377692E-15 _shell_0000000804   
       804  11  1.576233E-05  8.999988E+00  2.095146E-07 -5.370896E-06  1.062230E-14 -3.267941E-15 _shell_0000000804   
       804  12  2.127874E-05  9.000005E+00 -2.499755E-07 -6.270959E-06  5.054368E-15 -4.372496E-15 _shell_0000000804   
       804  13  9.807675E-06  8.999965E+00 -1.020664E-07 -7.150009E-06  7.437970E-15 -2.471269E-15 _shell_0000000804   
       804  14  1.792108E-05  8.999989E+00  2.324362E-07 -8.710395E-06  4.018328E-15 -1.146843E-16 _shell_0000000804   
       804  15  2.339667E-05  9.000005E+00 -3.074133E-07 -1.016556E-05  4.700944E-16  2.193912E-15 _shell_0000000804   
       804  16  1.311242E-05  8.999967E+00  2.979377E-08 -1.002581E-05  3.421729E-15  3.369751E-15 _shell_0000000804   
       804  17  2.118489E-05  8.999990E+00  2.836759E-07 -1.214130E-05 -1.771170E-15 -2.137940E-15 _shell_0000000804   
       804  18  2.663463E-05  9.000005E+00 -3.015724E-07 -1.415157E-05 -6.076558E-15  4.702165E-15 _shell_0000000804   
       804  19  7.274874E-06  8.999965E+00 -2.116558E-07 -4.393478E-06 -2.151124E-07  1.042395E-08 _shell_0000000804   
       804  20  1.541618E-05  8.999989E+00  2.104021E-07 -5.404630E-06 -2.407291E-08  1.034053E-09 _shell_0000000804   
       804  21  2.090456E-05  9.000005E+00 -2.771138E-07 -6.310563E-06  1.669666E-07  6.739158E-09 _shell_0000000804   
       804  22  9.479279E-06  8.999966E+00 -7.755580E-08 -7.187214E-06 -2.209191E-07  1.873020E-08 _shell_0000000804   
       804  23  1.756466E-05  8.999989E+00  2.289210E-07 -8.753471E-06 -3.015912E-08 -5.883736E-10 _shell_0000000804   
       804  24  2.301222E-05  9.000005E+00 -3.389543E-07 -1.021451E-05  1.606009E-07 -4.811945E-09 _shell_0000000804   
       804  25  1.277375E-05  8.999967E+00  4.990160E-08 -1.007236E-05 -2.192343E-07  2.703646E-08 _shell_0000000804   
       804  26  2.081819E-05  8.999990E+00  2.757580E-07 -1.219372E-05 -2.875377E-08 -2.210794E-09 _shell_0000000804   
       804  27  2.623991E-05  9.000006E+00 -3.375161E-07 -1.420986E-05  1.617268E-07 -1.636305E-08 _shell_0000000804   
       805   1  2.637338E-05  9.000012E+00  1.376007E-07 -6.520301E-06  9.045010E-08 -1.553860E-08 _shell_0000000805   
       805   2  3.487975E-05  9.000021E+00  8.540392E-08 -6.348486E-06  2.449743E-08 -2.401027E-08 _shell_0000000805   
       805   3  4.222905E-05  9.000026E+00 -9.314109E-08 -6.201626E-06 -4.145524E-08 -2.269304E-08 _shell_0000000805   
       805   4  2.843689E-05  9.000012E+00  6.091170E-08 -1.055897E-05  9.193399E-08  4.033414E-10 _shell_0000000805   
       805   5  3.682796E-05  9.000021E+00  5.564450E-09 -1.024380E-05  2.942815E-08 -2.907893E-09 _shell_0000000805   
       805   6  4.405217E-05  9.000026E+00 -1.989718E-07 -9.953589E-06 -3.307767E-08  3.569771E-09 _shell_0000000805   
       805   7  3.166991E-05  9.000012E+00  9.070671E-08 -1.464330E-05  8.106628E-08  1.634529E-08 _shell_0000000805   
       805   8  3.997039E-05  9.000021E+00  8.984969E-08 -1.418479E-05  2.200729E-08  1.819449E-08 _shell_0000000805   
       805   9  4.709422E-05  9.000026E+00 -8.303711E-08 -1.375123E-05 -3.705169E-08  2.983260E-08 _shell_0000000805   
       805  10  2.657892E-05  9.000012E+00  1.027115E-07 -6.476116E-06  1.360150E-15 -1.832523E-15 _shell_0000000805   
       805  11  3.511888E-05  9.000021E+00  8.411119E-08 -6.305387E-06 -7.605120E-16 -1.537234E-15 _shell_0000000805   
       805  12  4.250177E-05  9.000026E+00 -6.083732E-08 -6.159613E-06  4.217577E-15 -2.959936E-15 _shell_0000000805   
       805  13  2.864052E-05  9.000012E+00  2.520817E-08 -1.050358E-05 -2.392461E-15  1.216790E-15 _shell_0000000805   
       805  14  3.706519E-05  9.000021E+00  3.457447E-09 -1.018950E-05  1.275613E-15 -7.025186E-16 _shell_0000000805   
       805  15  4.432300E-05  9.000026E+00 -1.674823E-07 -9.900377E-06  3.254783E-15  1.178291E-15 _shell_0000000805   
       805  16  3.187165E-05  9.000012E+00  5.418896E-08 -1.457672E-05 -5.904803E-15  4.387824E-15 _shell_0000000805   
       805  17  4.020572E-05  9.000021E+00  8.692842E-08 -1.411929E-05  7.874866E-16 -3.359625E-15 _shell_0000000805   
       805  18  4.736315E-05  9.000025E+00 -5.236185E-08 -1.368681E-05  3.318494E-15  4.727623E-15 _shell_0000000805   
       805  19  2.637338E-05  9.000012E+00  1.376007E-07 -6.520301E-06 -9.045010E-08  1.553861E-08 _shell_0000000805   
       805  20  3.487975E-05  9.000021E+00  8.540391E-08 -6.348486E-06 -2.449743E-08  2.401027E-08 _shell_0000000805   
       805  21  4.222905E-05  9.000026E+00 -9.314109E-08 -6.201626E-06  4.145525E-08  2.269304E-08 _shell_0000000805   
       805  22  2.843689E-05  9.000012E+00  6.091171E-08 -1.055897E-05 -9.193399E-08 -4.033504E-10 _shell_0000000805   
       805  23  3.682796E-05  9.000021E+00  5.564439E-09 -1.024380E-05 -2.942814E-08  2.907888E-09 _shell_0000000805   
       805  24  4.405217E-05  9.000026E+00 -1.989718E-07 -9.953589E-06  3.307769E-08 -3.569766E-09 _shell_0000000805   
       805  25  3.166991E-05  9.000012E+00  9.070671E-08 -1.464330E-05 -8.106630E-08 -1.634530E-08 _shell_0000000805   
       805  26  3.997039E-05  9.000021E+00  8.984969E-08 -1.418479E-05 -2.200730E-08 -1.819449E-08 _shell_0000000805   
       805  27  4.709422E-05  9.000026E+00 -8.303706E-08 -1.375123E-05  3.705169E-08 -2.983258E-08 _shell_0000000805   
       806   1  4.706700E-05  9.000028E+00  1.793097E-07 -5.831239E-06 -1.769542E-08 -2.481655E-08 _shell_0000000806   
       806   2  5.337754E-05  9.000030E+00 -7.699386E-09 -4.968696E-06  1.182057E-08 -3.225876E-08 _shell_0000000806   
       806   3  5.949664E-05  9.000031E+00  4.506374E-08 -4.230567E-06  4.133656E-08 -2.809569E-08 _shell_0000000806   
       806   4  4.883699E-05  9.000028E+00  8.313988E-08 -9.364116E-06 -1.403479E-08  3.098689E-09 _shell_0000000806   
       806   5  5.495489E-05  9.000029E+00 -1.048379E-07 -7.997605E-06  1.604467E-08 -3.825375E-09 _shell_0000000806   
       806   6  6.086973E-05  9.000030E+00 -8.012239E-08 -6.755509E-06  4.612414E-08  8.558386E-10 _shell_0000000806   
       806   7  5.164454E-05  9.000027E+00  1.559677E-07 -1.290545E-05 -2.054299E-08  3.101393E-08 _shell_0000000806   
       806   8  5.759012E-05  9.000029E+00  1.447581E-08 -1.103497E-05  1.009996E-08  2.460800E-08 _shell_0000000806   
       806   9  6.332105E-05  9.000029E+00  5.859815E-08 -9.288908E-06  4.074291E-08  2.980738E-08 _shell_0000000806   
       806  10  4.718656E-05  9.000028E+00  1.554610E-07 -5.795085E-06  4.711598E-15 -1.018068E-15 _shell_0000000806   
       806  11  5.352057E-05  9.000030E+00 -8.085352E-09 -4.936471E-06  6.256874E-16 -4.896860E-15 _shell_0000000806   
       806  12  5.966313E-05  9.000031E+00  6.814055E-08 -4.202272E-06 -8.055125E-16 -8.826554E-15 _shell_0000000806   
       806  13  4.894968E-05  9.000027E+00  5.634412E-08 -9.320141E-06  4.072274E-15  3.817757E-16 _shell_0000000806   
       806  14  5.509104E-05  9.000029E+00 -1.081709E-07 -7.957559E-06  3.257816E-15 -1.901194E-15 _shell_0000000806   
       806  15  6.102935E-05  9.000030E+00 -5.999262E-08 -6.719392E-06  3.229335E-15 -1.850463E-15 _shell_0000000806   
       806  16  5.175035E-05  9.000027E+00  1.262249E-07 -1.285365E-05  2.993602E-15  5.914929E-15 _shell_0000000806   
       806  17  5.771940E-05  9.000028E+00  8.195809E-09 -1.098711E-05  2.781812E-15 -4.581308E-15 _shell_0000000806   
       806  18  6.347379E-05  9.000029E+00  7.578091E-08 -9.244971E-06  4.188731E-17  1.717679E-16 _shell_0000000806   
       806  19  4.706700E-05  9.000028E+00  1.793097E-07 -5.831239E-06  1.769543E-08  2.481655E-08 _shell_0000000806   
       806  20  5.337754E-05  9.000030E+00 -7.699394E-09 -4.968696E-06 -1.182057E-08  3.225875E-08 _shell_0000000806   
       806  21  5.949664E-05  9.000031E+00  4.506375E-08 -4.230567E-06 -4.133657E-08  2.809567E-08 _shell_0000000806   
       806  22  4.883699E-05  9.000028E+00  8.313989E-08 -9.364116E-06  1.403480E-08 -3.098701E-09 _shell_0000000806   
       806  23  5.495489E-05  9.000029E+00 -1.048379E-07 -7.997605E-06 -1.604467E-08  3.825369E-09 _shell_0000000806   
       806  24  6.086973E-05  9.000030E+00 -8.012238E-08 -6.755509E-06 -4.612415E-08 -8.558468E-10 _shell_0000000806   
       806  25  5.164454E-05  9.000027E+00  1.559677E-07 -1.290545E-05  2.054300E-08 -3.101394E-08 _shell_0000000806   
       806  26  5.759012E-05  9.000029E+00  1.447581E-08 -1.103497E-05 -1.009995E-08 -2.460801E-08 _shell_0000000806   
       806  27  6.332105E-05  9.000029E+00  5.859819E-08 -9.288908E-06 -4.074291E-08 -2.980737E-08 _shell_0000000806   
       807   1  6.251179E-05  9.000031E+00  1.569687E-07 -3.652126E-06 -6.946575E-08 -2.679130E-08 _shell_0000000807   
       807   2  6.564855E-05  9.000030E+00 -3.965297E-08 -2.603347E-06  3.689694E-09 -3.016215E-08 _shell_0000000807   
       807   3  6.901964E-05  9.000030E+00  1.014481E-07 -1.647665E-06  7.684515E-08 -2.764459E-08 _shell_0000000807   
       807   4  6.386676E-05  9.000030E+00  5.525161E-08 -5.822157E-06 -6.500427E-08  2.105682E-09 _shell_0000000807   
       807   5  6.687902E-05  9.000029E+00 -1.398532E-07 -4.181484E-06  5.932939E-09 -1.970711E-09 _shell_0000000807   
       807   6  7.011971E-05  9.000029E+00 -1.097495E-08 -2.633909E-06  7.687016E-08 -1.586959E-10 _shell_0000000807   
       807   7  6.607109E-05  9.000029E+00  1.365833E-07 -7.987615E-06 -6.591655E-08  3.100267E-08 _shell_0000000807   
       807   8  6.896958E-05  9.000028E+00 -3.192716E-08 -5.755050E-06  2.802450E-09  2.622073E-08 _shell_0000000807   
       807   9  7.209063E-05  9.000028E+00  1.098058E-07 -3.615581E-06  7.152142E-08  2.732721E-08 _shell_0000000807   
       807  10  6.258433E-05  9.000031E+00  1.455583E-07 -3.632434E-06 -1.084727E-15 -4.479501E-15 _shell_0000000807   
       807  11  6.573238E-05  9.000030E+00 -3.976618E-08 -2.587526E-06 -1.772826E-15 -2.249882E-15 _shell_0000000807   
       807  12  6.911477E-05  9.000030E+00  1.126320E-07 -1.635716E-06  1.059203E-15 -3.456242E-15 _shell_0000000807   
       807  13  6.393252E-05  9.000030E+00  4.093734E-08 -5.798698E-06  1.902821E-15 -2.036137E-15 _shell_0000000807   
       807  14  6.695607E-05  9.000029E+00 -1.428703E-07 -4.161897E-06  3.269932E-15  9.263935E-16 _shell_0000000807   
       807  15  7.020806E-05  9.000029E+00 -2.694858E-09 -2.618194E-06  8.189973E-16  2.850345E-16 _shell_0000000807   
       807  16  6.613007E-05  9.000029E+00  1.193652E-07 -7.960391E-06  1.313789E-15  2.860723E-15 _shell_0000000807   
       807  17  6.903986E-05  9.000028E+00 -3.784811E-08 -5.731697E-06  8.414207E-16 -7.126477E-16 _shell_0000000807   
       807  18  7.217220E-05  9.000028E+00  1.151820E-07 -3.596101E-06  9.357283E-16  3.175070E-15 _shell_0000000807   
       807  19  6.251179E-05  9.000031E+00  1.569687E-07 -3.652126E-06  6.946575E-08  2.679130E-08 _shell_0000000807   
       807  20  6.564855E-05  9.000030E+00 -3.965297E-08 -2.603347E-06 -3.689705E-09  3.016215E-08 _shell_0000000807   
       807  21  6.901964E-05  9.000030E+00  1.014481E-07 -1.647665E-06 -7.684515E-08  2.764458E-08 _shell_0000000807   
       807  22  6.386676E-05  9.000030E+00  5.525163E-08 -5.822157E-06  6.500428E-08 -2.105696E-09 _shell_0000000807   
       807  23  6.687902E-05  9.000029E+00 -1.398532E-07 -4.181484E-06 -5.932942E-09  1.970708E-09 _shell_0000000807   
       807  24  7.011971E-05  9.000029E+00 -1.097495E-08 -2.633909E-06 -7.687016E-08  1.586971E-10 _shell_0000000807   
       807  25  6.607109E-05  9.000029E+00  1.365833E-07 -7.987615E-06  6.591655E-08 -3.100268E-08 _shell_0000000807   
       807  26  6.896958E-05  9.000028E+00 -3.192717E-08 -5.755050E-06 -2.802434E-09 -2.622073E-08 _shell_0000000807   
       807  27  7.209063E-05  9.000028E+00  1.098058E-07 -3.615581E-06 -7.152142E-08 -2.732720E-08 _shell_0000000807   
       808   1  7.002167E-05  9.000030E+00  1.280059E-07 -1.032356E-06 -8.438592E-08 -2.699883E-08 _shell_0000000808   
       808   2  6.984680E-05  9.000029E+00 -4.908519E-08 -1.025704E-14  5.157153E-15 -2.878822E-08 _shell_0000000808   
       808   3  7.002167E-05  9.000030E+00  1.280059E-07  1.032356E-06  8.438592E-08 -2.699884E-08 _shell_0000000808   
       808   4  7.111819E-05  9.000029E+00  2.693567E-08 -1.636030E-06 -8.117570E-08  2.817360E-10 _shell_0000000808   
       808   5  7.094512E-05  9.000028E+00 -1.459802E-07 -7.915482E-15 -3.283271E-15 -1.507634E-09 _shell_0000000808   
       808   6  7.111819E-05  9.000029E+00  2.693568E-08  1.636030E-06  8.117570E-08  2.817369E-10 _shell_0000000808   
       808   7  7.299871E-05  9.000028E+00  1.278002E-07 -2.239703E-06 -7.796548E-08  2.756231E-08 _shell_0000000808   
       808   8  7.282742E-05  9.000028E+00 -4.094039E-08 -2.028501E-14 -4.578127E-15  2.577295E-08 _shell_0000000808   
       808   9  7.299871E-05  9.000028E+00  1.278002E-07  2.239703E-06  7.796547E-08  2.756234E-08 _shell_0000000808   
       808  10  7.008613E-05  9.000030E+00  1.279238E-07 -1.028606E-06  1.279255E-15 -2.036137E-16 _shell_0000000808   
       808  11  6.991126E-05  9.000029E+00 -4.916720E-08 -1.791800E-14  2.855134E-15 -1.028199E-15 _shell_0000000808   
       808  12  7.008613E-05  9.000030E+00  1.279239E-07  1.028606E-06  2.203537E-15 -2.616336E-15 _shell_0000000808   
       808  13  7.117609E-05  9.000029E+00  2.404140E-08 -1.632280E-06  2.290654E-16 -2.545171E-17 _shell_0000000808   
       808  14  7.100302E-05  9.000028E+00 -1.488744E-07 -9.060809E-15  4.581308E-16  2.148074E-15 _shell_0000000808   
       808  15  7.117609E-05  9.000029E+00  2.404140E-08  1.632280E-06 -1.781617E-16  2.318724E-15 _shell_0000000808   
       808  16  7.305004E-05  9.000028E+00  1.220937E-07 -2.235954E-06  9.192887E-16  4.998666E-15 _shell_0000000808   
       808  17  7.287876E-05  9.000028E+00 -4.664694E-08 -1.272586E-14  2.049762E-15  1.119875E-15 _shell_0000000808   
       808  18  7.305004E-05  9.000028E+00  1.220937E-07  2.235954E-06  1.209669E-16  6.935278E-16 _shell_0000000808   
       808  19  7.002167E-05  9.000030E+00  1.280059E-07 -1.032356E-06  8.438592E-08  2.699884E-08 _shell_0000000808   
       808  20  6.984680E-05  9.000029E+00 -4.908520E-08 -2.481542E-14 -8.908099E-16  2.878822E-08 _shell_0000000808   
       808  21  7.002167E-05  9.000030E+00  1.280059E-07  1.032356E-06 -8.438592E-08  2.699884E-08 _shell_0000000808   
       808  22  7.111819E-05  9.000029E+00  2.693568E-08 -1.636030E-06  8.117570E-08 -2.817482E-10 _shell_0000000808   
       808  23  7.094512E-05  9.000028E+00 -1.459802E-07 -1.076607E-14 -3.257819E-15  1.507635E-09 _shell_0000000808   
       808  24  7.111819E-05  9.000029E+00  2.693568E-08  1.636030E-06 -8.117571E-08 -2.817373E-10 _shell_0000000808   
       808  25  7.299871E-05  9.000028E+00  1.278002E-07 -2.239703E-06  7.796548E-08 -2.756232E-08 _shell_0000000808   
       808  26  7.282742E-05  9.000028E+00 -4.094040E-08 -2.109947E-14 -2.952398E-15 -2.577294E-08 _shell_0000000808   
       808  27  7.299871E-05  9.000028E+00  1.278002E-07  2.239703E-06 -7.796548E-08 -2.756232E-08 _shell_0000000808   
       809   1  6.901964E-05  9.000030E+00  1.014481E-07  1.647665E-06 -7.684515E-08 -2.764457E-08 _shell_0000000809   
       809   2  6.564855E-05  9.000030E+00 -3.965297E-08  2.603347E-06 -3.689700E-09 -3.016215E-08 _shell_0000000809   
       809   3  6.251179E-05  9.000031E+00  1.569687E-07  3.652127E-06  6.946574E-08 -2.679130E-08 _shell_0000000809   
       809   4  7.011971E-05  9.000029E+00 -1.097494E-08  2.633909E-06 -7.687016E-08 -1.586866E-10 _shell_0000000809   
       809   5  6.687902E-05  9.000029E+00 -1.398532E-07  4.181484E-06 -5.932941E-09 -1.970711E-09 _shell_0000000809   
       809   6  6.386676E-05  9.000030E+00  5.525161E-08  5.822157E-06  6.500427E-08  2.105684E-09 _shell_0000000809   
       809   7  7.209063E-05  9.000028E+00  1.098058E-07  3.615581E-06 -7.152142E-08  2.732720E-08 _shell_0000000809   
       809   8  6.896958E-05  9.000028E+00 -3.192714E-08  5.755050E-06 -2.802434E-09  2.622073E-08 _shell_0000000809   
       809   9  6.607109E-05  9.000029E+00  1.365833E-07  7.987615E-06  6.591654E-08  3.100268E-08 _shell_0000000809   
       809  10  6.911477E-05  9.000030E+00  1.126320E-07  1.635716E-06 -4.896406E-16  4.072277E-16 _shell_0000000809   
       809  11  6.573238E-05  9.000030E+00 -3.976619E-08  2.587526E-06  5.914458E-16 -3.166143E-15 _shell_0000000809   
       809  12  6.258433E-05  9.000031E+00  1.455583E-07  3.632434E-06 -3.840636E-15 -6.255931E-15 _shell_0000000809   
       809  13  7.020806E-05  9.000029E+00 -2.694856E-09  2.618194E-06 -1.590121E-15  1.132439E-21 _shell_0000000809   
       809  14  6.695607E-05  9.000029E+00 -1.428703E-07  4.161897E-06  2.036153E-16  3.155513E-16 _shell_0000000809   
       809  15  6.393252E-05  9.000030E+00  4.093734E-08  5.798698E-06 -2.577290E-15 -2.008067E-15 _shell_0000000809   
       809  16  7.217221E-05  9.000028E+00  1.151820E-07  3.596101E-06  5.090437E-17  1.013056E-17 _shell_0000000809   
       809  17  6.903986E-05  9.000028E+00 -3.784811E-08  5.731697E-06  7.441564E-16 -3.257820E-15 _shell_0000000809   
       809  18  6.613007E-05  9.000029E+00  1.193652E-07  7.960391E-06 -6.553057E-15 -1.889821E-15 _shell_0000000809   
       809  19  6.901964E-05  9.000030E+00  1.014481E-07  1.647665E-06  7.684516E-08  2.764458E-08 _shell_0000000809   
       809  20  6.564855E-05  9.000030E+00 -3.965298E-08  2.603347E-06  3.689691E-09  3.016215E-08 _shell_0000000809   
       809  21  6.251179E-05  9.000031E+00  1.569687E-07  3.652127E-06 -6.946576E-08  2.679130E-08 _shell_0000000809   
       809  22  7.011971E-05  9.000029E+00 -1.097494E-08  2.633909E-06  7.687016E-08  1.586752E-10 _shell_0000000809   
       809  23  6.687902E-05  9.000029E+00 -1.398532E-07  4.181484E-06  5.932935E-09  1.970704E-09 _shell_0000000809   
       809  24  6.386676E-05  9.000030E+00  5.525161E-08  5.822157E-06 -6.500427E-08 -2.105689E-09 _shell_0000000809   
       809  25  7.209063E-05  9.000028E+00  1.098058E-07  3.615581E-06  7.152142E-08 -2.732722E-08 _shell_0000000809   
       809  26  6.896958E-05  9.000028E+00 -3.192717E-08  5.755050E-06  2.802427E-09 -2.622073E-08 _shell_0000000809   
       809  27  6.607109E-05  9.000029E+00  1.365833E-07  7.987615E-06 -6.591655E-08 -3.100268E-08 _shell_0000000809   
       810   1  5.949664E-05  9.000031E+00  4.506375E-08  4.230567E-06 -4.133656E-08 -2.809566E-08 _shell_0000000810   
       810   2  5.337754E-05  9.000030E+00 -7.699391E-09  4.968696E-06 -1.182056E-08 -3.225876E-08 _shell_0000000810   
       810   3  4.706700E-05  9.000028E+00  1.793097E-07  5.831239E-06  1.769544E-08 -2.481656E-08 _shell_0000000810   
       810   4  6.086973E-05  9.000030E+00 -8.012239E-08  6.755509E-06 -4.612415E-08  8.558532E-10 _shell_0000000810   
       810   5  5.495489E-05  9.000029E+00 -1.048379E-07  7.997605E-06 -1.604468E-08 -3.825371E-09 _shell_0000000810   
       810   6  4.883699E-05  9.000028E+00  8.313987E-08  9.364116E-06  1.403479E-08  3.098686E-09 _shell_0000000810   
       810   7  6.332105E-05  9.000029E+00  5.859816E-08  9.288909E-06 -4.074292E-08  2.980737E-08 _shell_0000000810   
       810   8  5.759012E-05  9.000029E+00  1.447581E-08  1.103497E-05 -1.009996E-08  2.460801E-08 _shell_0000000810   
       810   9  5.164454E-05  9.000027E+00  1.559677E-07  1.290545E-05  2.054299E-08  3.101395E-08 _shell_0000000810   
       810  10  5.966313E-05  9.000031E+00  6.814055E-08  4.202272E-06 -2.608800E-15 -3.054205E-15 _shell_0000000810   
       810  11  5.352057E-05  9.000030E+00 -8.085344E-09  4.936471E-06  5.057622E-15 -4.591440E-15 _shell_0000000810   
       810  12  4.718656E-05  9.000028E+00  1.554610E-07  5.795085E-06  8.368669E-16 -5.912334E-15 _shell_0000000810   
       810  13  6.102935E-05  9.000030E+00 -5.999262E-08  6.719392E-06 -9.550422E-16 -2.061589E-15 _shell_0000000810   
       810  14  5.509104E-05  9.000029E+00 -1.081708E-07  7.957559E-06  3.442357E-21 -2.443859E-16 _shell_0000000810   
       810  15  4.894968E-05  9.000027E+00  5.634411E-08  9.320141E-06 -1.181075E-15 -9.572066E-16 _shell_0000000810   
       810  16  6.347379E-05  9.000029E+00  7.578095E-08  9.244971E-06 -5.739358E-15 -8.043237E-16 _shell_0000000810   
       810  17  5.771940E-05  9.000028E+00  8.195807E-09  1.098711E-05  3.931685E-15 -1.527103E-15 _shell_0000000810   
       810  18  5.175035E-05  9.000027E+00  1.262249E-07  1.285365E-05 -6.650397E-17 -2.863632E-16 _shell_0000000810   
       810  19  5.949664E-05  9.000031E+00  4.506375E-08  4.230567E-06  4.133656E-08  2.809566E-08 _shell_0000000810   
       810  20  5.337754E-05  9.000030E+00 -7.699383E-09  4.968696E-06  1.182056E-08  3.225875E-08 _shell_0000000810   
       810  21  4.706700E-05  9.000028E+00  1.793097E-07  5.831239E-06 -1.769543E-08  2.481655E-08 _shell_0000000810   
       810  22  6.086973E-05  9.000030E+00 -8.012239E-08  6.755509E-06  4.612415E-08 -8.558670E-10 _shell_0000000810   
       810  23  5.495489E-05  9.000029E+00 -1.048379E-07  7.997605E-06  1.604467E-08  3.825365E-09 _shell_0000000810   
       810  24  4.883699E-05  9.000028E+00  8.313987E-08  9.364116E-06 -1.403480E-08 -3.098691E-09 _shell_0000000810   
       810  25  6.332105E-05  9.000029E+00  5.859814E-08  9.288909E-06  4.074291E-08 -2.980739E-08 _shell_0000000810   
       810  26  5.759012E-05  9.000029E+00  1.447581E-08  1.103497E-05  1.009996E-08 -2.460802E-08 _shell_0000000810   
       810  27  5.164454E-05  9.000027E+00  1.559677E-07  1.290545E-05 -2.054300E-08 -3.101394E-08 _shell_0000000810   
       811   1  4.222905E-05  9.000026E+00 -9.314109E-08  6.201626E-06  4.145526E-08 -2.269303E-08 _shell_0000000811   
       811   2  3.487975E-05  9.000021E+00  8.540391E-08  6.348486E-06 -2.449744E-08 -2.401028E-08 _shell_0000000811   
       811   3  2.637338E-05  9.000012E+00  1.376007E-07  6.520301E-06 -9.045011E-08 -1.553862E-08 _shell_0000000811   
       811   4  4.405217E-05  9.000026E+00 -1.989718E-07  9.953589E-06  3.307769E-08  3.569772E-09 _shell_0000000811   
       811   5  3.682796E-05  9.000021E+00  5.564448E-09  1.024380E-05 -2.942816E-08 -2.907890E-09 _shell_0000000811   
       811   6  2.843689E-05  9.000012E+00  6.091173E-08  1.055897E-05 -9.193399E-08  4.033407E-10 _shell_0000000811   
       811   7  4.709422E-05  9.000026E+00 -8.303707E-08  1.375123E-05  3.705170E-08  2.983258E-08 _shell_0000000811   
       811   8  3.997039E-05  9.000021E+00  8.984970E-08  1.418479E-05 -2.200731E-08  1.819449E-08 _shell_0000000811   
       811   9  3.166991E-05  9.000012E+00  9.070676E-08  1.464330E-05 -8.106631E-08  1.634531E-08 _shell_0000000811   
       811  10  4.250177E-05  9.000026E+00 -6.083733E-08  6.159613E-06  2.067656E-15 -2.952397E-15 _shell_0000000811   
       811  11  3.511888E-05  9.000021E+00  8.411119E-08  6.305387E-06  2.808784E-15 -1.740845E-15 _shell_0000000811   
       811  12  2.657892E-05  9.000012E+00  1.027115E-07  6.476116E-06 -2.955445E-15  1.405036E-15 _shell_0000000811   
       811  13  4.432300E-05  9.000026E+00 -1.674823E-07  9.900377E-06 -3.805623E-15 -2.850587E-15 _shell_0000000811   
       811  14  3.706519E-05  9.000021E+00  3.457447E-09  1.018950E-05 -3.461427E-15  1.130006E-15 _shell_0000000811   
       811  15  2.864052E-05  9.000012E+00  2.520818E-08  1.050358E-05 -6.252018E-15  6.548604E-15 _shell_0000000811   
       811  16  4.736315E-05  9.000025E+00 -5.236182E-08  1.368681E-05 -2.729988E-15 -9.061276E-16 _shell_0000000811   
       811  17  4.020572E-05  9.000021E+00  8.692842E-08  1.411929E-05 -3.557174E-15 -1.730713E-15 _shell_0000000811   
       811  18  3.187165E-05  9.000012E+00  5.418895E-08  1.457672E-05 -8.627962E-15  5.872956E-15 _shell_0000000811   
       811  19  4.222905E-05  9.000026E+00 -9.314111E-08  6.201626E-06 -4.145525E-08  2.269304E-08 _shell_0000000811   
       811  20  3.487975E-05  9.000021E+00  8.540391E-08  6.348486E-06  2.449743E-08  2.401027E-08 _shell_0000000811   
       811  21  2.637338E-05  9.000012E+00  1.376007E-07  6.520301E-06  9.045011E-08  1.553863E-08 _shell_0000000811   
       811  22  4.405217E-05  9.000026E+00 -1.989718E-07  9.953589E-06 -3.307769E-08 -3.569788E-09 _shell_0000000811   
       811  23  3.682796E-05  9.000021E+00  5.564431E-09  1.024380E-05  2.942815E-08  2.907889E-09 _shell_0000000811   
       811  24  2.843689E-05  9.000012E+00  6.091170E-08  1.055897E-05  9.193398E-08 -4.033292E-10 _shell_0000000811   
       811  25  4.709422E-05  9.000026E+00 -8.303712E-08  1.375123E-05 -3.705170E-08 -2.983260E-08 _shell_0000000811   
       811  26  3.997039E-05  9.000021E+00  8.984968E-08  1.418479E-05  2.200730E-08 -1.819450E-08 _shell_0000000811   
       811  27  3.166991E-05  9.000012E+00  9.070676E-08  1.464330E-05  8.106629E-08 -1.634529E-08 _shell_0000000811   
       812   1  2.090456E-05  9.000005E+00 -2.771138E-07  6.310563E-06  1.669665E-07 -6.739147E-09 _shell_0000000812   
       812   2  1.541618E-05  8.999989E+00  2.104021E-07  5.404630E-06 -2.407292E-08 -1.034053E-09 _shell_0000000812   
       812   3  7.274874E-06  8.999965E+00 -2.116558E-07  4.393478E-06 -2.151124E-07 -1.042395E-08 _shell_0000000812   
       812   4  2.301222E-05  9.000005E+00 -3.389543E-07  1.021451E-05  1.606009E-07  4.811952E-09 _shell_0000000812   
       812   5  1.756466E-05  8.999989E+00  2.289210E-07  8.753471E-06 -3.015915E-08  5.883652E-10 _shell_0000000812   
       812   6  9.479279E-06  8.999966E+00 -7.755581E-08  7.187214E-06 -2.209192E-07 -1.873023E-08 _shell_0000000812   
       812   7  2.623991E-05  9.000006E+00 -3.375161E-07  1.420986E-05  1.617267E-07  1.636306E-08 _shell_0000000812   
       812   8  2.081819E-05  8.999990E+00  2.757580E-07  1.219372E-05 -2.875379E-08  2.210784E-09 _shell_0000000812   
       812   9  1.277375E-05  8.999967E+00  4.990161E-08  1.007236E-05 -2.192343E-07 -2.703649E-08 _shell_0000000812   
       812  10  2.127874E-05  9.000005E+00 -2.499755E-07  6.270959E-06 -3.277200E-15  3.868665E-15 _shell_0000000812   
       812  11  1.576233E-05  8.999988E+00  2.095146E-07  5.370896E-06 -5.863008E-15 -1.333622E-15 _shell_0000000812   
       812  12  7.592998E-06  8.999964E+00 -2.405691E-07  4.365615E-06 -3.636852E-18 -2.489054E-15 _shell_0000000812   
       812  13  2.339667E-05  9.000005E+00 -3.074133E-07  1.016556E-05 -4.429769E-15  5.726667E-15 _shell_0000000812   
       812  14  1.792108E-05  8.999989E+00  2.324362E-07  8.710395E-06 -4.886721E-15  1.689938E-15 _shell_0000000812   
       812  15  9.807675E-06  8.999965E+00 -1.020664E-07  7.150009E-06 -4.284988E-15  1.602055E-16 _shell_0000000812   
       812  16  2.663463E-05  9.000005E+00 -3.015724E-07  1.415157E-05 -8.233622E-15  6.932994E-15 _shell_0000000812   
       812  17  2.118489E-05  8.999990E+00  2.836759E-07  1.214130E-05 -2.904530E-15 -6.108465E-16 _shell_0000000812   
       812  18  1.311242E-05  8.999967E+00  2.979373E-08  1.002581E-05  7.291724E-16  1.787953E-15 _shell_0000000812   
       812  19  2.090456E-05  9.000005E+00 -2.771138E-07  6.310563E-06 -1.669666E-07  6.739168E-09 _shell_0000000812   
       812  20  1.541618E-05  8.999989E+00  2.104021E-07  5.404630E-06  2.407293E-08  1.034052E-09 _shell_0000000812   
       812  21  7.274874E-06  8.999965E+00 -2.116558E-07  4.393478E-06  2.151124E-07  1.042396E-08 _shell_0000000812   
       812  22  2.301222E-05  9.000005E+00 -3.389543E-07  1.021451E-05 -1.606009E-07 -4.811950E-09 _shell_0000000812   
       812  23  1.756466E-05  8.999989E+00  2.289210E-07  8.753471E-06  3.015914E-08 -5.883673E-10 _shell_0000000812   
       812  24  9.479279E-06  8.999966E+00 -7.755582E-08  7.187214E-06  2.209191E-07  1.873023E-08 _shell_0000000812   
       812  25  2.623991E-05  9.000006E+00 -3.375161E-07  1.420986E-05 -1.617267E-07 -1.636306E-08 _shell_0000000812   
       812  26  2.081819E-05  8.999990E+00  2.757580E-07  1.219372E-05  2.875377E-08 -2.210778E-09 _shell_0000000812   
       812  27  1.277375E-05  8.999967E+00  4.990165E-08  1.007236E-05  2.192343E-07  2.703650E-08 _shell_0000000812   
       813   1  4.115751E-06  8.999948E+00 -3.226372E-07  3.429246E-06  2.349695E-07  1.817908E-09 _shell_0000000813   
       813   2  3.255251E-06  8.999914E+00  4.007989E-07  2.048948E-06  1.669315E-08  3.217902E-08 _shell_0000000813   
       813   3 -9.638149E-07  8.999871E+00 -2.612978E-07  7.838095E-07 -2.015832E-07  1.476059E-08 _shell_0000000813   
       813   4  6.196147E-06  8.999949E+00 -2.730421E-07  5.683338E-06  2.428409E-07 -7.456138E-09 _shell_0000000813   
       813   5  5.290297E-06  8.999915E+00  2.717666E-07  3.352410E-06  2.119753E-08  2.950799E-08 _shell_0000000813   
       813   6  1.073661E-06  8.999871E+00 -4.574720E-07  1.136642E-06 -2.004458E-07  1.869256E-08 _shell_0000000813   
       813   7  9.182912E-06  8.999950E+00 -3.157543E-07  7.859666E-06  2.494785E-07 -1.673017E-08 _shell_0000000813   
       813   8  8.234180E-06  8.999916E+00  5.618427E-08  4.578108E-06  2.446819E-08  2.683695E-08 _shell_0000000813   
       813   9  4.022441E-06  8.999871E+00 -7.344388E-07  1.411710E-06 -2.005421E-07  2.262454E-08 _shell_0000000813   
       813  10  4.505988E-06  8.999948E+00 -3.236079E-07  3.426922E-06  2.398528E-15 -3.054103E-16 _shell_0000000813   
       813  11  3.655692E-06  8.999914E+00  4.100324E-07  2.062016E-06  1.778576E-15 -2.046255E-15 _shell_0000000813   
       813  12 -5.531691E-07  8.999870E+00 -2.418601E-07  8.122701E-07 -4.189862E-15  1.621417E-15 _shell_0000000813   
       813  13  6.613321E-06  8.999949E+00 -2.624687E-07  5.684415E-06  1.648435E-16 -1.247100E-15 _shell_0000000813   
       813  14  5.717675E-06  8.999915E+00  2.925442E-07  3.368880E-06  2.157568E-16  1.781987E-15 _shell_0000000813   
       813  15  1.511243E-06  8.999871E+00 -4.264902E-07  1.168504E-06  9.781182E-16  9.880418E-15 _shell_0000000813   
       813  16  9.627022E-06  8.999950E+00 -2.936367E-07  7.864145E-06  1.551969E-15  2.758951E-15 _shell_0000000813   
       813  17  8.688494E-06  8.999915E+00  8.850599E-08  4.597980E-06 -1.994332E-15  7.126129E-16 _shell_0000000813   
       813  18  4.486959E-06  8.999871E+00 -6.919129E-07  1.446974E-06 -1.640870E-15  1.387750E-14 _shell_0000000813   
       813  19  4.115751E-06  8.999948E+00 -3.226372E-07  3.429246E-06 -2.349696E-07 -1.817893E-09 _shell_0000000813   
       813  20  3.255251E-06  8.999914E+00  4.007989E-07  2.048948E-06 -1.669315E-08 -3.217902E-08 _shell_0000000813   
       813  21 -9.638150E-07  8.999871E+00 -2.612978E-07  7.838095E-07  2.015832E-07 -1.476058E-08 _shell_0000000813   
       813  22  6.196147E-06  8.999949E+00 -2.730420E-07  5.683338E-06 -2.428409E-07  7.456124E-09 _shell_0000000813   
       813  23  5.290297E-06  8.999915E+00  2.717666E-07  3.352410E-06 -2.119755E-08 -2.950799E-08 _shell_0000000813   
       813  24  1.073661E-06  8.999871E+00 -4.574720E-07  1.136642E-06  2.004458E-07 -1.869254E-08 _shell_0000000813   
       813  25  9.182912E-06  8.999950E+00 -3.157543E-07  7.859666E-06 -2.494785E-07  1.673016E-08 _shell_0000000813   
       813  26  8.234180E-06  8.999916E+00  5.618427E-08  4.578108E-06 -2.446819E-08 -2.683695E-08 _shell_0000000813   
       813  27  4.022441E-06  8.999871E+00 -7.344388E-07  1.411710E-06  2.005421E-07 -2.262451E-08 _shell_0000000813   
       814   1 -5.261134E-07  8.999842E+00  8.339356E-08  2.993639E-07  1.347587E-07 -1.752304E-08 _shell_0000000814   
       814   2 -2.072111E-07  8.999790E+00 -4.388896E-08  1.349796E-07  1.646886E-08 -5.598169E-08 _shell_0000000814   
       814   3 -1.184809E-06  8.999733E+00 -1.427826E-07 -1.870475E-07 -1.018211E-07 -5.691289E-08 _shell_0000000814   
       814   4  1.927903E-06  8.999843E+00  1.221409E-07  3.312060E-07  1.197301E-07 -8.933698E-09 _shell_0000000814   
       814   5  2.032857E-06  8.999790E+00  6.029581E-08  4.191608E-07  3.345762E-08 -3.799027E-08 _shell_0000000814   
       814   6  8.037844E-07  8.999733E+00 -6.072452E-08  3.494727E-07 -5.281489E-08 -2.951938E-08 _shell_0000000814   
       814   7  5.917863E-06  8.999844E+00  3.589962E-07  3.532548E-07  9.583398E-08 -3.443481E-10 _shell_0000000814   
       814   8  5.826604E-06  8.999791E+00  4.039703E-07  6.935487E-07  4.157883E-08 -1.999884E-08 _shell_0000000814   
       814   9  4.363791E-06  8.999734E+00  3.022053E-07  8.761996E-07 -1.267634E-08 -2.125863E-09 _shell_0000000814   
       814  10 -2.913904E-07  8.999842E+00  3.420902E-08  3.458617E-07 -2.068873E-15  4.784966E-15 _shell_0000000814   
       814  11  5.804126E-08  8.999790E+00 -6.254414E-08  1.914176E-07 -4.778878E-15 -1.842601E-15 _shell_0000000814   
       814  12 -8.890271E-07  8.999733E+00 -1.309085E-07 -1.206693E-07 -8.637854E-15 -2.845299E-15 _shell_0000000814   
       814  13  2.180021E-06  8.999842E+00  8.041160E-08  3.878802E-07 -1.603458E-15  8.154321E-15 _shell_0000000814   
       814  14  2.315505E-06  8.999790E+00  4.909582E-08  4.857752E-07  5.987436E-16  1.740761E-15 _shell_0000000814   
       814  15  1.116961E-06  8.999733E+00 -4.139520E-08  4.260274E-07  7.980919E-16  3.005936E-15 _shell_0000000814   
       814  16  6.187376E-06  8.999843E+00  3.247220E-07  4.201055E-07 -9.410840E-16  1.222686E-14 _shell_0000000814   
       814  17  6.126647E-06  8.999791E+00  4.002255E-07  7.703396E-07  3.012383E-15 -1.527053E-15 _shell_0000000814   
       814  18  4.694363E-06  8.999733E+00  3.289898E-07  9.629308E-07 -8.051057E-15  5.745617E-15 _shell_0000000814   
       814  19 -5.261134E-07  8.999842E+00  8.339358E-08  2.993639E-07 -1.347587E-07  1.752307E-08 _shell_0000000814   
       814  20 -2.072111E-07  8.999790E+00 -4.388896E-08  1.349796E-07 -1.646885E-08  5.598169E-08 _shell_0000000814   
       814  21 -1.184809E-06  8.999733E+00 -1.427826E-07 -1.870475E-07  1.018210E-07  5.691289E-08 _shell_0000000814   
       814  22  1.927903E-06  8.999843E+00  1.221409E-07  3.312060E-07 -1.197301E-07  8.933706E-09 _shell_0000000814   
       814  23  2.032857E-06  8.999790E+00  6.029580E-08  4.191608E-07 -3.345762E-08  3.799026E-08 _shell_0000000814   
       814  24  8.037843E-07  8.999733E+00 -6.072454E-08  3.494727E-07  5.281490E-08  2.951939E-08 _shell_0000000814   
       814  25  5.917863E-06  8.999844E+00  3.589961E-07  3.532548E-07 -9.583400E-08  3.443568E-10 _shell_0000000814   
       814  26  5.826604E-06  8.999791E+00  4.039703E-07  6.935486E-07 -4.157881E-08  1.999884E-08 _shell_0000000814   
       814  27  4.363791E-06  8.999734E+00  3.022053E-07  8.761996E-07  1.267634E-08  2.125883E-09 _shell_0000000814   
       815   1 -1.025227E-06  8.999698E+00  9.123035E-08 -4.819198E-07  6.408329E-08  1.150291E-08 _shell_0000000815   
       815   2 -2.327807E-07  8.999636E+00  2.584408E-07 -4.146449E-07  1.249898E-08  6.338256E-08 _shell_0000000815   
       815   3 -8.265990E-07  8.999570E+00 -2.373962E-07 -9.098068E-07 -3.908534E-08 -1.325125E-07 _shell_0000000815   
       815   4  2.901996E-07  8.999698E+00 -1.179497E-07  8.614038E-09  1.570770E-07  3.559222E-08 _shell_0000000815   
       815   5  2.896472E-07  8.999636E+00 -3.487027E-08 -2.383977E-07  3.518331E-08  6.671501E-08 _shell_0000000815   
       815   6 -8.493953E-07  8.999569E+00 -3.669718E-08 -1.047846E-06 -8.671039E-08 -1.499370E-07 _shell_0000000815   
       815   7  2.003855E-06  8.999698E+00 -4.932835E-07  5.262953E-07  2.086309E-07  5.968154E-08 _shell_0000000815   
       815   8  1.293183E-06  8.999635E+00 -3.009492E-07 -3.500310E-08  1.642787E-08  7.004747E-08 _shell_0000000815   
       815   9 -3.082039E-07  8.999569E+00  3.846198E-07 -1.158738E-06 -1.757752E-07 -1.673614E-07 _shell_0000000815   
       815  10 -9.088086E-07  8.999698E+00  4.293224E-08 -3.723499E-07 -1.079088E-14 -1.018103E-15 _shell_0000000815   
       815  11 -4.647406E-08  8.999636E+00  2.800308E-07 -2.648915E-07 -6.827113E-15 -4.489585E-15 _shell_0000000815   
       815  12 -5.704044E-07  8.999570E+00 -1.459182E-07 -7.198699E-07 -3.986887E-15  1.010709E-15 _shell_0000000815   
       815  13  4.769392E-07  8.999698E+00 -1.361102E-07  1.414799E-07  4.822903E-16  2.443477E-15 _shell_0000000815   
       815  14  5.462750E-07  8.999636E+00  1.685736E-08 -6.534829E-08 -9.773443E-15 -8.964300E-16 _shell_0000000815   
       815  15 -5.228794E-07  8.999569E+00  8.491855E-08 -8.346134E-07 -1.507949E-14  6.319875E-17 _shell_0000000815   
       815  16  2.260916E-06  8.999698E+00 -4.813063E-07  6.824573E-07 -9.092287E-15  8.052779E-15 _shell_0000000815   
       815  17  1.620132E-06  8.999635E+00 -2.190839E-07  1.613424E-07 -5.701183E-15  1.221682E-15 _shell_0000000815   
       815  18  8.863318E-08  8.999570E+00  5.363732E-07 -9.222094E-07 -7.125715E-15  2.615090E-15 _shell_0000000815   
       815  19 -1.025227E-06  8.999698E+00  9.123037E-08 -4.819198E-07 -6.408330E-08 -1.150289E-08 _shell_0000000815   
       815  20 -2.327807E-07  8.999636E+00  2.584408E-07 -4.146449E-07 -1.249899E-08 -6.338257E-08 _shell_0000000815   
       815  21 -8.265991E-07  8.999570E+00 -2.373963E-07 -9.098069E-07  3.908537E-08  1.325126E-07 _shell_0000000815   
       815  22  2.901996E-07  8.999698E+00 -1.179497E-07  8.614027E-09 -1.570770E-07 -3.559222E-08 _shell_0000000815   
       815  23  2.896472E-07  8.999636E+00 -3.487028E-08 -2.383977E-07 -3.518333E-08 -6.671502E-08 _shell_0000000815   
       815  24 -8.493953E-07  8.999569E+00 -3.669719E-08 -1.047846E-06  8.671036E-08  1.499370E-07 _shell_0000000815   
       815  25  2.003855E-06  8.999698E+00 -4.932835E-07  5.262953E-07 -2.086309E-07 -5.968154E-08 _shell_0000000815   
       815  26  1.293183E-06  8.999635E+00 -3.009492E-07 -3.500308E-08 -1.642787E-08 -7.004746E-08 _shell_0000000815   
       815  27 -3.082039E-07  8.999569E+00  3.846199E-07 -1.158738E-06  1.757752E-07  1.673614E-07 _shell_0000000815   
       901   1 -1.465425E-06  8.999567E+00 -6.045868E-07  1.515305E-06  1.631346E-07 -2.188390E-07 _shell_0000000901   
       901   2  3.265055E-06  8.999638E+00  7.833238E-07 -8.333327E-07 -2.383576E-10  7.654103E-08 _shell_0000000901   
       901   3  4.214883E-06  8.999699E+00  3.463951E-09 -1.490350E-06 -1.636113E-07  2.965332E-08 _shell_0000000901   
       901   4 -1.108733E-06  8.999569E+00 -1.023312E-07  3.910047E-07  3.229563E-09 -3.156081E-07 _shell_0000000901   
       901   5  4.972133E-06  8.999638E+00  2.311662E-07 -2.774411E-06  9.240422E-09  5.360556E-08 _shell_0000000901   
       901   6  7.614614E-06  8.999698E+00 -8.044821E-07 -4.248207E-06  1.525130E-08  8.055147E-08 _shell_0000000901   
       901   7  4.660723E-07  8.999571E+00  4.199899E-07 -1.091651E-06 -1.576848E-07 -4.123772E-07 _shell_0000000901   
       901   8  7.899343E-06  8.999639E+00 -2.962156E-07 -5.073845E-06  1.770987E-08  3.067011E-08 _shell_0000000901   
       901   9  1.223650E-05  8.999697E+00 -1.582942E-06 -7.364419E-06  1.931046E-07  1.314497E-07 _shell_0000000901   
       901  10 -1.291361E-06  8.999566E+00 -7.616160E-07  1.040427E-06  2.597522E-14 -1.445406E-15 _shell_0000000901   
       901  11  3.524453E-06  8.999638E+00  7.116286E-07 -1.052822E-06  1.390345E-14 -4.962799E-15 _shell_0000000901   
       901  12  4.559615E-06  8.999699E+00  1.710266E-08 -1.454452E-06  6.541380E-15 -5.853902E-15 _shell_0000000901   
       901  13 -4.877396E-07  8.999568E+00 -6.781909E-08 -5.542863E-08  3.105097E-14 -5.279188E-15 _shell_0000000901   
       901  14  5.678460E-06  8.999638E+00  3.510123E-07 -2.965456E-06  1.948927E-14  1.628913E-15 _shell_0000000901   
       901  15  8.406276E-06  8.999698E+00 -5.993021E-07 -4.183864E-06  8.538210E-15 -1.496866E-15 _shell_0000000901   
       901  16  1.533995E-06  8.999570E+00  6.460431E-07 -1.509639E-06  2.842024E-14 -2.719248E-14 _shell_0000000901   
       901  17  9.052600E-06  8.999638E+00  1.517159E-08 -5.236445E-06  1.681160E-14  5.553498E-15 _shell_0000000901   
       901  18  1.347509E-05  8.999697E+00 -1.186221E-06 -7.271631E-06  1.310164E-14 -4.261906E-15 _shell_0000000901   
       901  19 -1.465426E-06  8.999567E+00 -6.045869E-07  1.515305E-06 -1.631346E-07  2.188390E-07 _shell_0000000901   
       901  20  3.265055E-06  8.999638E+00  7.833238E-07 -8.333327E-07  2.383837E-10 -7.654104E-08 _shell_0000000901   
       901  21  4.214883E-06  8.999699E+00  3.463927E-09 -1.490350E-06  1.636113E-07 -2.965332E-08 _shell_0000000901   
       901  22 -1.108734E-06  8.999569E+00 -1.023313E-07  3.910048E-07 -3.229502E-09  3.156081E-07 _shell_0000000901   
       901  23  4.972133E-06  8.999638E+00  2.311662E-07 -2.774411E-06 -9.240393E-09 -5.360556E-08 _shell_0000000901   
       901  24  7.614614E-06  8.999698E+00 -8.044820E-07 -4.248207E-06 -1.525128E-08 -8.055148E-08 _shell_0000000901   
       901  25  4.660721E-07  8.999571E+00  4.199897E-07 -1.091651E-06  1.576849E-07  4.123771E-07 _shell_0000000901   
       901  26  7.899343E-06  8.999639E+00 -2.962156E-07 -5.073845E-06 -1.770982E-08 -3.067010E-08 _shell_0000000901   
       901  27  1.223650E-05  8.999697E+00 -1.582942E-06 -7.364419E-06 -1.931045E-07 -1.314496E-07 _shell_0000000901   
       902   1  6.672595E-06  8.999733E+00  1.102621E-07 -1.310448E-06  6.807436E-08 -8.268363E-08 _shell_0000000902   
       902   2  7.496788E-06  8.999789E+00 -4.492202E-07 -6.889384E-07 -7.371582E-09 -1.296165E-07 _shell_0000000902   
       902   3  8.445874E-06  8.999844E+00  2.835959E-07 -3.426465E-07 -8.281752E-08 -6.610500E-08 _shell_0000000902   
       902   4  1.260423E-05  8.999732E+00  3.027757E-07 -3.185337E-06  2.932000E-07 -1.446462E-08 _shell_0000000902   
       902   5  1.333063E-05  8.999789E+00 -1.648894E-07 -1.338693E-06  1.129146E-07 -7.570813E-08 _shell_0000000902   
       902   6  1.407148E-05  8.999844E+00  4.020404E-07  2.327325E-07 -6.737075E-08 -2.650729E-08 _shell_0000000902   
       902   7  2.085851E-05  8.999732E+00  9.969590E-07 -4.910877E-06  5.188463E-07  5.375442E-08 _shell_0000000902   
       902   8  2.148608E-05  8.999790E+00  6.186811E-07 -1.839099E-06  2.337215E-07 -2.179973E-08 _shell_0000000902   
       902   9  2.201765E-05  8.999846E+00  1.017295E-06  9.574605E-07 -5.140327E-08  1.309046E-08 _shell_0000000902   
       902  10  6.933278E-06  8.999733E+00  9.919747E-08 -1.186455E-06  3.181518E-15 -9.182781E-15 _shell_0000000902   
       902  11  7.740200E-06  8.999788E+00 -4.775558E-07 -6.849919E-07  5.466952E-15 -8.526109E-15 _shell_0000000902   
       902  12  8.672015E-06  8.999843E+00  2.379891E-07 -4.587463E-07  2.427280E-14 -1.247138E-15 _shell_0000000902   
       902  13  1.265483E-05  8.999732E+00  2.016764E-07 -3.067101E-06  1.010573E-14 -3.650180E-15 _shell_0000000902   
       902  14  1.336396E-05  8.999788E+00 -2.832597E-07 -1.340504E-06  1.140237E-14 -5.701183E-15 _shell_0000000902   
       902  15  1.408754E-05  8.999844E+00  2.663990E-07  1.108757E-07  1.560857E-14 -2.910591E-15 _shell_0000000902   
       902  16  2.069903E-05  8.999732E+00  8.058251E-07 -4.798398E-06  9.366257E-15 -1.171787E-14 _shell_0000000902   
       902  17  2.130933E-05  8.999789E+00  4.102761E-07 -1.846667E-06  5.466877E-15 -4.932597E-15 _shell_0000000902   
       902  18  2.182363E-05  8.999845E+00  7.916186E-07  8.298467E-07  6.901073E-15 -1.459531E-14 _shell_0000000902   
       902  19  6.672595E-06  8.999733E+00  1.102621E-07 -1.310448E-06 -6.807435E-08  8.268364E-08 _shell_0000000902   
       902  20  7.496788E-06  8.999789E+00 -4.492201E-07 -6.889384E-07  7.371611E-09  1.296165E-07 _shell_0000000902   
       902  21  8.445874E-06  8.999844E+00  2.835959E-07 -3.426466E-07  8.281756E-08  6.610501E-08 _shell_0000000902   
       902  22  1.260423E-05  8.999732E+00  3.027756E-07 -3.185337E-06 -2.932000E-07  1.446462E-08 _shell_0000000902   
       902  23  1.333063E-05  8.999789E+00 -1.648894E-07 -1.338693E-06 -1.129146E-07  7.570811E-08 _shell_0000000902   
       902  24  1.407148E-05  8.999844E+00  4.020404E-07  2.327325E-07  6.737080E-08  2.650728E-08 _shell_0000000902   
       902  25  2.085851E-05  8.999732E+00  9.969590E-07 -4.910877E-06 -5.188463E-07 -5.375444E-08 _shell_0000000902   
       902  26  2.148608E-05  8.999790E+00  6.186812E-07 -1.839099E-06 -2.337215E-07  2.179973E-08 _shell_0000000902   
       902  27  2.201765E-05  8.999846E+00  1.017295E-06  9.574604E-07  5.140329E-08 -1.309046E-08 _shell_0000000902   
       903   1  6.905650E-06  8.999873E+00 -2.735446E-07 -1.686631E-06  1.901521E-07  1.644233E-08 _shell_0000000903   
       903   2  1.119665E-05  8.999918E+00  6.534734E-07 -5.260967E-06 -3.310349E-08  7.743808E-08 _shell_0000000903   
       903   3  1.130718E-05  8.999951E+00 -4.281875E-07 -9.108523E-06 -2.563591E-07  2.299312E-09 _shell_0000000903   
       903   4  1.166469E-05  8.999874E+00 -6.181123E-07 -1.516794E-06  1.572305E-07  4.506005E-08 _shell_0000000903   
       903   5  1.585519E-05  8.999920E+00  3.307662E-07 -6.380816E-06 -5.662823E-08  8.263380E-08 _shell_0000000903   
       903   6  1.600134E-05  8.999954E+00 -4.113870E-07 -1.151806E-05 -2.704869E-07 -1.592699E-08 _shell_0000000903   
       903   7  1.729064E-05  8.999875E+00 -1.095757E-06 -1.183366E-06  1.300038E-07  7.367782E-08 _shell_0000000903   
       903   8  2.136925E-05  8.999922E+00 -1.515951E-07 -7.337074E-06 -7.445798E-08  8.782956E-08 _shell_0000000903   
       903   9  2.153963E-05  8.999957E+00 -5.808172E-07 -1.376400E-05 -2.789197E-07 -3.415324E-08 _shell_0000000903   
       903  10  7.415721E-06  8.999873E+00 -2.068512E-07 -1.796694E-06  2.174777E-14 -4.092483E-15 _shell_0000000903   
       903  11  1.166756E-05  8.999918E+00  6.810034E-07 -5.312932E-06  4.283356E-15 -6.999028E-15 _shell_0000000903   
       903  12  1.173892E-05  8.999951E+00 -4.398211E-07 -9.102389E-06  5.184480E-15  3.308710E-16 _shell_0000000903   
       903  13  1.227644E-05  8.999874E+00 -5.078453E-07 -1.639911E-06  1.596117E-14  4.476363E-16 _shell_0000000903   
       903  14  1.642777E-05  8.999919E+00  4.018698E-07 -6.445834E-06  7.330093E-15  2.443364E-15 _shell_0000000903   
       903  15  1.653476E-05  8.999953E+00 -3.794470E-07 -1.152498E-05  7.851040E-15 -4.449137E-15 _shell_0000000903   
       903  16  1.800406E-05  8.999875E+00 -9.419169E-07 -1.319538E-06  8.870701E-15 -9.885375E-15 _shell_0000000903   
       903  17  2.204350E-05  8.999921E+00 -3.691800E-08 -7.415148E-06  7.222214E-15  7.895128E-15 _shell_0000000903   
       903  18  2.217472E-05  8.999956E+00 -5.053035E-07 -1.378398E-05  1.072140E-14 -1.820947E-14 _shell_0000000903   
       903  19  6.905650E-06  8.999873E+00 -2.735446E-07 -1.686631E-06 -1.901521E-07 -1.644231E-08 _shell_0000000903   
       903  20  1.119665E-05  8.999918E+00  6.534735E-07 -5.260967E-06  3.310350E-08 -7.743809E-08 _shell_0000000903   
       903  21  1.130718E-05  8.999951E+00 -4.281876E-07 -9.108523E-06  2.563591E-07 -2.299296E-09 _shell_0000000903   
       903  22  1.166469E-05  8.999874E+00 -6.181123E-07 -1.516794E-06 -1.572304E-07 -4.506006E-08 _shell_0000000903   
       903  23  1.585519E-05  8.999920E+00  3.307663E-07 -6.380816E-06  5.662825E-08 -8.263381E-08 _shell_0000000903   
       903  24  1.600134E-05  8.999954E+00 -4.113870E-07 -1.151806E-05  2.704869E-07  1.592697E-08 _shell_0000000903   
       903  25  1.729064E-05  8.999875E+00 -1.095757E-06 -1.183366E-06 -1.300038E-07 -7.367783E-08 _shell_0000000903   
       903  26  2.136925E-05  8.999922E+00 -1.515951E-07 -7.337074E-06  7.445800E-08 -8.782955E-08 _shell_0000000903   
       903  27  2.153963E-05  8.999957E+00 -5.808173E-07 -1.376400E-05  2.789197E-07  3.415324E-08 _shell_0000000903   
       904   1  1.473647E-05  8.999968E+00 -2.895608E-07 -1.171007E-05  2.243998E-07 -3.313784E-08 _shell_0000000904   
       904   2  2.303835E-05  8.999991E+00  1.552656E-07 -1.424911E-05  3.324411E-08 -7.796872E-09 _shell_0000000904   
       904   3  2.871238E-05  9.000006E+00 -2.287473E-07 -1.657966E-05 -1.579115E-07 -7.076917E-09 _shell_0000000904   
       904   4  1.991773E-05  8.999970E+00  1.856888E-08 -1.465738E-05  2.403917E-07 -5.240348E-08 _shell_0000000904   
       904   5  2.805466E-05  8.999992E+00  2.151136E-07 -1.760407E-05  4.663649E-08 -7.212201E-09 _shell_0000000904   
       904   6  3.358837E-05  9.000007E+00 -3.597320E-07 -2.034226E-05 -1.471188E-07  1.335803E-08 _shell_0000000904   
       904   7  2.642205E-05  8.999973E+00  3.536265E-07 -1.781258E-05  2.435566E-07 -7.166909E-08 _shell_0000000904   
       904   8  3.441968E-05  8.999994E+00  3.617491E-07 -2.116691E-05  4.720177E-08 -6.627513E-09 _shell_0000000904   
       904   9  3.983871E-05  9.000007E+00 -3.440693E-07 -2.431276E-05 -1.491531E-07  3.379301E-08 _shell_0000000904   
       904  10  1.503036E-05  8.999967E+00 -3.582737E-07 -1.162760E-05  3.496611E-15 -2.667217E-15 _shell_0000000904   
       904  11  2.338344E-05  8.999990E+00  1.377454E-07 -1.415935E-05 -2.001713E-15 -5.777392E-15 _shell_0000000904   
       904  12  2.910866E-05  9.000006E+00 -1.950751E-07 -1.648262E-05 -5.406298E-15  3.410538E-15 _shell_0000000904   
       904  13  2.022437E-05  8.999970E+00 -4.468156E-08 -1.455785E-05  1.321544E-14 -2.812562E-15 _shell_0000000904   
       904  14  2.841249E-05  8.999992E+00  2.030557E-07 -1.749725E-05  5.647247E-15  7.914558E-16 _shell_0000000904   
       904  15  3.399739E-05  9.000006E+00 -3.205974E-07 -2.022816E-05 -1.133401E-15  2.168330E-15 _shell_0000000904   
       904  16  2.674143E-05  8.999973E+00  2.958384E-07 -1.769598E-05  9.682877E-15 -2.108413E-14 _shell_0000000904   
       904  17  3.479026E-05  8.999994E+00  3.551536E-07 -2.104303E-05  4.337235E-15  4.535474E-15 _shell_0000000904   
       904  18  4.026047E-05  9.000007E+00 -2.994723E-07 -2.418159E-05 -3.327772E-15 -6.374397E-15 _shell_0000000904   
       904  19  1.473647E-05  8.999968E+00 -2.895608E-07 -1.171007E-05 -2.243998E-07  3.313787E-08 _shell_0000000904   
       904  20  2.303835E-05  8.999991E+00  1.552656E-07 -1.424911E-05 -3.324412E-08  7.796864E-09 _shell_0000000904   
       904  21  2.871238E-05  9.000006E+00 -2.287473E-07 -1.657966E-05  1.579115E-07  7.076934E-09 _shell_0000000904   
       904  22  1.991773E-05  8.999970E+00  1.856883E-08 -1.465738E-05 -2.403917E-07  5.240348E-08 _shell_0000000904   
       904  23  2.805466E-05  8.999992E+00  2.151136E-07 -1.760407E-05 -4.663648E-08  7.212196E-09 _shell_0000000904   
       904  24  3.358837E-05  9.000007E+00 -3.597320E-07 -2.034226E-05  1.471188E-07 -1.335803E-08 _shell_0000000904   
       904  25  2.642205E-05  8.999973E+00  3.536264E-07 -1.781258E-05 -2.435566E-07  7.166905E-08 _shell_0000000904   
       904  26  3.441968E-05  8.999994E+00  3.617491E-07 -2.116691E-05 -4.720177E-08  6.627517E-09 _shell_0000000904   
       904  27  3.983871E-05  9.000007E+00 -3.440694E-07 -2.431276E-05  1.491531E-07 -3.379300E-08 _shell_0000000904   
       905   1  3.415496E-05  9.000013E+00  2.161837E-07 -1.704340E-05  7.730181E-08 -2.020801E-08 _shell_0000000905   
       905   2  4.217555E-05  9.000021E+00  6.788729E-08 -1.643751E-05  2.190731E-08 -3.321384E-08 _shell_0000000905   
       905   3  4.921420E-05  9.000025E+00 -7.172055E-08 -1.594604E-05 -3.348719E-08 -1.996677E-08 _shell_0000000905   
       905   4  3.894994E-05  9.000013E+00  7.768852E-08 -2.088911E-05  7.274995E-08  6.082145E-09 _shell_0000000905   
       905   5  4.669919E-05  9.000020E+00 -2.525814E-08 -2.003882E-05  2.650160E-08 -6.652649E-09 _shell_0000000905   
       905   6  5.344025E-05  9.000024E+00 -1.807729E-07 -1.930296E-05 -1.974676E-08  6.865470E-09 _shell_0000000905   
       905   7  4.496345E-05  9.000013E+00  5.123744E-08 -2.480908E-05  5.199995E-08  3.237232E-08 _shell_0000000905   
       905   8  5.247376E-05  9.000020E+00  6.923180E-08 -2.371440E-05  1.489774E-08  1.990857E-08 _shell_0000000905   
       905   9  5.894963E-05  9.000024E+00 -2.659867E-08 -2.273415E-05 -2.220447E-08  3.369774E-08 _shell_0000000905   
       905  10  3.435714E-05  9.000013E+00  1.812945E-07 -1.693907E-05 -4.353734E-15 -1.852781E-15 _shell_0000000905   
       905  11  4.241448E-05  9.000020E+00  6.974888E-08 -1.633616E-05  6.648042E-16 -8.424391E-15 _shell_0000000905   
       905  12  4.948988E-05  9.000025E+00 -3.310825E-08 -1.584768E-05  4.192113E-15  4.734015E-15 _shell_0000000905   
       905  13  3.914689E-05  9.000012E+00  4.056043E-08 -2.077253E-05 -2.550236E-17 -3.716029E-16 _shell_0000000905   
       905  14  4.693289E-05  9.000020E+00 -2.563547E-08 -1.992523E-05  4.533436E-15 -5.293958E-15 _shell_0000000905   
       905  15  5.371071E-05  9.000024E+00 -1.443996E-07 -1.919235E-05  5.698124E-15  6.268508E-15 _shell_0000000905   
       905  16  4.515518E-05  9.000013E+00  1.187038E-08 -2.468025E-05 -3.779566E-15 -1.497574E-14 _shell_0000000905   
       905  17  5.270224E-05  9.000020E+00  6.661548E-08 -2.358856E-05  1.601937E-15 -3.609077E-15 _shell_0000000905   
       905  18  5.921486E-05  9.000023E+00  7.535851E-09 -2.261129E-05  8.014335E-15  2.050127E-15 _shell_0000000905   
       905  19  3.415496E-05  9.000013E+00  2.161837E-07 -1.704340E-05 -7.730181E-08  2.020803E-08 _shell_0000000905   
       905  20  4.217555E-05  9.000021E+00  6.788731E-08 -1.643751E-05 -2.190730E-08  3.321383E-08 _shell_0000000905   
       905  21  4.921420E-05  9.000025E+00 -7.172056E-08 -1.594604E-05  3.348719E-08  1.996678E-08 _shell_0000000905   
       905  22  3.894994E-05  9.000013E+00  7.768849E-08 -2.088911E-05 -7.274996E-08 -6.082138E-09 _shell_0000000905   
       905  23  4.669919E-05  9.000020E+00 -2.525813E-08 -2.003882E-05 -2.650158E-08  6.652623E-09 _shell_0000000905   
       905  24  5.344025E-05  9.000024E+00 -1.807729E-07 -1.930296E-05  1.974677E-08 -6.865464E-09 _shell_0000000905   
       905  25  4.496345E-05  9.000013E+00  5.123742E-08 -2.480908E-05 -5.199997E-08 -3.237235E-08 _shell_0000000905   
       905  26  5.247376E-05  9.000020E+00  6.923181E-08 -2.371440E-05 -1.489775E-08 -1.990859E-08 _shell_0000000905   
       905  27  5.894963E-05  9.000024E+00 -2.659865E-08 -2.273415E-05  2.220448E-08 -3.369772E-08 _shell_0000000905   
       906   1  5.367690E-05  9.000027E+00  1.755707E-07 -1.493557E-05 -2.130344E-08 -1.983212E-08 _shell_0000000906   
       906   2  5.937579E-05  9.000028E+00 -2.137679E-08 -1.268852E-05  9.664262E-09 -3.419846E-08 _shell_0000000906   
       906   3  6.495273E-05  9.000029E+00  4.624985E-08 -1.073159E-05  4.063196E-08 -2.476263E-08 _shell_0000000906   
       906   4  5.771401E-05  9.000026E+00  7.547774E-08 -1.804791E-05 -1.797547E-08  6.937814E-09 _shell_0000000906   
       906   5  6.299387E-05  9.000027E+00 -1.006260E-07 -1.531875E-05  1.354474E-08 -7.913690E-09 _shell_0000000906   
       906   6  6.812797E-05  9.000027E+00 -6.769397E-08 -1.287972E-05  4.506496E-08  1.036962E-09 _shell_0000000906   
       906   7  6.270035E-05  9.000025E+00  1.256271E-07 -2.116813E-05 -2.569467E-08  3.370778E-08 _shell_0000000906   
       906   8  6.758326E-05  9.000025E+00  2.192043E-08 -1.795687E-05  6.378065E-09  1.837111E-08 _shell_0000000906   
       906   9  7.229661E-05  9.000026E+00  7.171138E-08 -1.503574E-05  3.845080E-08  2.683660E-08 _shell_0000000906   
       906  10  5.378637E-05  9.000027E+00  1.531028E-07 -1.485390E-05  2.866364E-15  2.423103E-15 _shell_0000000906   
       906  11  5.950957E-05  9.000028E+00 -1.953438E-08 -1.261536E-05 -2.021274E-15 -7.915357E-15 _shell_0000000906   
       906  12  6.511082E-05  9.000028E+00  7.240255E-08 -1.066694E-05 -3.601114E-16 -2.290654E-15 _shell_0000000906   
       906  13  5.780859E-05  9.000025E+00  4.662626E-08 -1.795814E-05  3.054173E-15  9.432204E-15 _shell_0000000906   
       906  14  6.311275E-05  9.000026E+00 -1.051672E-07 -1.523749E-05  2.036137E-16 -3.642041E-15 _shell_0000000906   
       906  15  6.827116E-05  9.000027E+00 -4.792482E-08 -1.280697E-05  1.778575E-15 -6.686415E-15 _shell_0000000906   
       906  16  6.278003E-05  9.000024E+00  9.039198E-08 -2.107026E-05  4.444360E-15  9.167669E-17 _shell_0000000906   
       906  17  6.768725E-05  9.000025E+00  1.099568E-08 -1.786751E-05 -1.392276E-15 -3.512578E-16 _shell_0000000906   
       906  18  7.242491E-05  9.000026E+00  8.509702E-08 -1.495488E-05  4.618432E-16 -1.963473E-14 _shell_0000000906   
       906  19  5.367690E-05  9.000027E+00  1.755707E-07 -1.493557E-05  2.130344E-08  1.983216E-08 _shell_0000000906   
       906  20  5.937579E-05  9.000028E+00 -2.137678E-08 -1.268852E-05 -9.664261E-09  3.419845E-08 _shell_0000000906   
       906  21  6.495273E-05  9.000029E+00  4.624980E-08 -1.073159E-05 -4.063196E-08  2.476264E-08 _shell_0000000906   
       906  22  5.771401E-05  9.000026E+00  7.547772E-08 -1.804791E-05  1.797548E-08 -6.937796E-09 _shell_0000000906   
       906  23  6.299387E-05  9.000027E+00 -1.006260E-07 -1.531875E-05 -1.354474E-08  7.913662E-09 _shell_0000000906   
       906  24  6.812797E-05  9.000027E+00 -6.769400E-08 -1.287972E-05 -4.506497E-08 -1.036987E-09 _shell_0000000906   
       906  25  6.270035E-05  9.000025E+00  1.256271E-07 -2.116813E-05  2.569468E-08 -3.370778E-08 _shell_0000000906   
       906  26  6.758326E-05  9.000025E+00  2.192045E-08 -1.795687E-05 -6.378072E-09 -1.837112E-08 _shell_0000000906   
       906  27  7.229661E-05  9.000026E+00  7.171139E-08 -1.503574E-05 -3.845080E-08 -2.683661E-08 _shell_0000000906   
       907   1  6.762596E-05  9.000028E+00  1.394143E-07 -9.240191E-06 -6.411728E-08 -2.135464E-08 _shell_0000000907   
       907   2  7.039504E-05  9.000028E+00 -3.913929E-08 -6.601728E-06  2.484869E-09 -2.758147E-08 _shell_0000000907   
       907   3  7.338419E-05  9.000028E+00  8.365858E-08 -4.161999E-06  6.908703E-08 -2.317827E-08 _shell_0000000907   
       907   4  7.067444E-05  9.000027E+00  4.731895E-08 -1.107082E-05 -5.710037E-08  3.919850E-09 _shell_0000000907   
       907   5  7.318592E-05  9.000026E+00 -1.187776E-07 -7.929291E-06  4.445561E-09 -3.626367E-09 _shell_0000000907   
       907   6  7.590683E-05  9.000026E+00 -8.325966E-09 -4.986495E-06  6.599151E-08 -5.425701E-10 _shell_0000000907   
       907   7  7.442959E-05  9.000025E+00  1.040208E-07 -1.288922E-05 -5.557889E-08  2.919436E-08 _shell_0000000907   
       907   8  7.669446E-05  9.000025E+00 -2.397334E-08 -9.244625E-06  9.108415E-10  2.032876E-08 _shell_0000000907   
       907   9  7.915813E-05  9.000024E+00  9.977728E-08 -5.798760E-06  5.740055E-08  2.209318E-08 _shell_0000000907   
       907  10  6.769082E-05  9.000028E+00  1.314639E-07 -9.197211E-06 -4.119719E-17 -3.888921E-15 _shell_0000000907   
       907  11  7.047078E-05  9.000028E+00 -3.620920E-08 -6.566526E-06 -2.078236E-15 -4.861152E-15 _shell_0000000907   
       907  12  7.347081E-05  9.000028E+00  9.746904E-08 -4.134576E-06 -2.642867E-16  1.705264E-15 _shell_0000000907   
       907  13  7.072569E-05  9.000027E+00  3.353481E-08 -1.102422E-05  1.750096E-15 -4.438982E-15 _shell_0000000907   
       907  14  7.324805E-05  9.000026E+00 -1.216813E-07 -7.890462E-06  2.862702E-15 -2.850589E-15 _shell_0000000907   
       907  15  7.597984E-05  9.000026E+00 -3.493166E-10 -4.955444E-06  1.572461E-16 -7.840647E-16 _shell_0000000907   
       907  16  7.446723E-05  9.000025E+00  8.440283E-08 -1.283899E-05  3.362657E-15 -1.986246E-14 _shell_0000000907   
       907  17  7.674298E-05  9.000025E+00 -3.271092E-08 -9.202169E-06  1.299549E-15 -9.620997E-16 _shell_0000000907   
       907  18  7.921753E-05  9.000024E+00  1.019202E-07 -5.764083E-06  3.630650E-16 -1.177015E-14 _shell_0000000907   
       907  19  6.762596E-05  9.000028E+00  1.394143E-07 -9.240191E-06  6.411728E-08  2.135466E-08 _shell_0000000907   
       907  20  7.039504E-05  9.000028E+00 -3.913929E-08 -6.601728E-06 -2.484878E-09  2.758147E-08 _shell_0000000907   
       907  21  7.338419E-05  9.000028E+00  8.365854E-08 -4.161999E-06 -6.908703E-08  2.317829E-08 _shell_0000000907   
       907  22  7.067444E-05  9.000027E+00  4.731892E-08 -1.107082E-05  5.710038E-08 -3.919856E-09 _shell_0000000907   
       907  23  7.318592E-05  9.000026E+00 -1.187776E-07 -7.929291E-06 -4.445565E-09  3.626350E-09 _shell_0000000907   
       907  24  7.590683E-05  9.000026E+00 -8.325997E-09 -4.986495E-06 -6.599150E-08  5.425536E-10 _shell_0000000907   
       907  25  7.442959E-05  9.000025E+00  1.040208E-07 -1.288922E-05  5.557890E-08 -2.919440E-08 _shell_0000000907   
       907  26  7.669446E-05  9.000025E+00 -2.397333E-08 -9.244625E-06 -9.108256E-10 -2.032877E-08 _shell_0000000907   
       907  27  7.915813E-05  9.000024E+00  9.977729E-08 -5.798761E-06 -5.740055E-08 -2.209318E-08 _shell_0000000907   
       908   1  7.425952E-05  9.000027E+00  1.045710E-07 -2.594779E-06 -7.507432E-08 -2.195491E-08 _shell_0000000908   
       908   2  7.410458E-05  9.000027E+00 -4.593667E-08 -1.221682E-14  2.510175E-15 -2.503690E-08 _shell_0000000908   
       908   3  7.425952E-05  9.000027E+00  1.045710E-07  2.594779E-06  7.507432E-08 -2.195492E-08 _shell_0000000908   
       908   4  7.673628E-05  9.000026E+00  2.288957E-08 -3.092644E-06 -6.834911E-08  2.968657E-10 _shell_0000000908   
       908   5  7.658441E-05  9.000025E+00 -1.204268E-07 -9.060809E-15 -5.319408E-15 -2.785118E-09 _shell_0000000908   
       908   6  7.673628E-05  9.000026E+00  2.288960E-08  3.092644E-06  6.834911E-08  2.968366E-10 _shell_0000000908   
       908   7  7.984395E-05  9.000024E+00  1.054985E-07 -3.590509E-06 -6.162390E-08  2.254867E-08 _shell_0000000908   
       908   8  7.969517E-05  9.000024E+00 -3.062667E-08 -1.743442E-14 -5.376674E-15  1.946669E-08 _shell_0000000908   
       908   9  7.984395E-05  9.000024E+00  1.054985E-07  3.590509E-06  6.162389E-08  2.254864E-08 _shell_0000000908   
       908  10  7.431606E-05  9.000027E+00  1.072963E-07 -2.587423E-06 -6.932489E-16  3.869680E-16 _shell_0000000908   
       908  11  7.416111E-05  9.000027E+00 -4.321127E-08 -1.954691E-14  8.189959E-16 -3.130433E-15 _shell_0000000908   
       908  12  7.431606E-05  9.000027E+00  1.072964E-07  2.587423E-06  5.809890E-16 -4.683115E-15 _shell_0000000908   
       908  13  7.677994E-05  9.000026E+00  2.009842E-08 -3.085289E-06 -5.853938E-16  2.916562E-15 _shell_0000000908   
       908  14  7.662808E-05  9.000025E+00 -1.232180E-07 -1.384573E-14  9.162616E-16 -1.221682E-15 _shell_0000000908   
       908  15  7.677994E-05  9.000026E+00  2.009842E-08  3.085289E-06  5.217634E-16 -9.923677E-15 _shell_0000000908   
       908  16  7.987474E-05  9.000024E+00  9.719076E-08 -3.583154E-06  1.695566E-15 -1.212514E-14 _shell_0000000908   
       908  17  7.972596E-05  9.000024E+00 -3.893440E-08 -1.822343E-14  4.442216E-15  4.026435E-15 _shell_0000000908   
       908  18  7.987474E-05  9.000024E+00  9.719085E-08  3.583154E-06  1.119943E-15 -2.253622E-14 _shell_0000000908   
       908  19  7.425952E-05  9.000027E+00  1.045710E-07 -2.594779E-06  7.507431E-08  2.195495E-08 _shell_0000000908   
       908  20  7.410458E-05  9.000027E+00 -4.593665E-08 -2.512084E-14 -2.290654E-15  2.503689E-08 _shell_0000000908   
       908  21  7.425952E-05  9.000027E+00  1.045710E-07  2.594779E-06 -7.507432E-08  2.195493E-08 _shell_0000000908   
       908  22  7.673628E-05  9.000026E+00  2.288955E-08 -3.092644E-06  6.834911E-08 -2.968542E-10 _shell_0000000908   
       908  23  7.658441E-05  9.000025E+00 -1.204268E-07 -1.425296E-14 -5.090342E-17  2.785110E-09 _shell_0000000908   
       908  24  7.673628E-05  9.000026E+00  2.288956E-08  3.092644E-06 -6.834911E-08 -2.968642E-10 _shell_0000000908   
       908  25  7.984395E-05  9.000024E+00  1.054985E-07 -3.590509E-06  6.162390E-08 -2.254869E-08 _shell_0000000908   
       908  26  7.969517E-05  9.000024E+00 -3.062665E-08 -1.982688E-14  3.130560E-15 -1.946668E-08 _shell_0000000908   
       908  27  7.984395E-05  9.000024E+00  1.054985E-07  3.590509E-06 -6.162389E-08 -2.254866E-08 _shell_0000000908   
       909   1  7.338419E-05  9.000028E+00  8.365860E-08  4.161999E-06 -6.908704E-08 -2.317828E-08 _shell_0000000909   
       909   2  7.039504E-05  9.000028E+00 -3.913928E-08  6.601728E-06 -2.484880E-09 -2.758147E-08 _shell_0000000909   
       909   3  6.762596E-05  9.000028E+00  1.394143E-07  9.240191E-06  6.411726E-08 -2.135463E-08 _shell_0000000909   
       909   4  7.590683E-05  9.000026E+00 -8.325937E-09  4.986495E-06 -6.599150E-08 -5.425806E-10 _shell_0000000909   
       909   5  7.318592E-05  9.000026E+00 -1.187776E-07  7.929291E-06 -4.445561E-09 -3.626358E-09 _shell_0000000909   
       909   6  7.067444E-05  9.000027E+00  4.731892E-08  1.107082E-05  5.710036E-08  3.919865E-09 _shell_0000000909   
       909   7  7.915813E-05  9.000024E+00  9.977735E-08  5.798760E-06 -5.740054E-08  2.209315E-08 _shell_0000000909   
       909   8  7.669446E-05  9.000025E+00 -2.397334E-08  9.244625E-06 -9.108200E-10  2.032878E-08 _shell_0000000909   
       909   9  7.442959E-05  9.000025E+00  1.040208E-07  1.288922E-05  5.557889E-08  2.919440E-08 _shell_0000000909   
       909  10  7.347081E-05  9.000028E+00  9.746898E-08  4.134576E-06 -6.169009E-16 -8.775647E-15 _shell_0000000909   
       909  11  7.047078E-05  9.000028E+00 -3.620918E-08  6.566526E-06  1.762217E-15 -7.813549E-15 _shell_0000000909   
       909  12  6.769082E-05  9.000028E+00  1.314640E-07  9.197211E-06 -5.953123E-15 -3.130560E-15 _shell_0000000909   
       909  13  7.597984E-05  9.000026E+00 -3.493121E-10  4.955444E-06 -8.265576E-16 -9.325709E-15 _shell_0000000909   
       909  14  7.324805E-05  9.000026E+00 -1.216813E-07  7.890462E-06  1.578006E-15 -8.144548E-16 _shell_0000000909   
       909  15  7.072569E-05  9.000027E+00  3.353482E-08  1.102422E-05 -6.429509E-16 -7.865123E-16 _shell_0000000909   
       909  16  7.921753E-05  9.000024E+00  1.019201E-07  5.764083E-06 -7.890048E-16 -2.291667E-14 _shell_0000000909   
       909  17  7.674298E-05  9.000025E+00 -3.271092E-08  9.202169E-06 -2.739135E-16  3.619207E-15 _shell_0000000909   
       909  18  7.446723E-05  9.000025E+00  8.440290E-08  1.283899E-05 -3.498853E-15 -1.166834E-14 _shell_0000000909   
       909  19  7.338419E-05  9.000028E+00  8.365856E-08  4.161999E-06  6.908705E-08  2.317830E-08 _shell_0000000909   
       909  20  7.039504E-05  9.000028E+00 -3.913927E-08  6.601728E-06  2.484873E-09  2.758146E-08 _shell_0000000909   
       909  21  6.762596E-05  9.000028E+00  1.394143E-07  9.240191E-06 -6.411729E-08  2.135463E-08 _shell_0000000909   
       909  22  7.590683E-05  9.000026E+00 -8.325961E-09  4.986495E-06  6.599150E-08  5.425594E-10 _shell_0000000909   
       909  23  7.318592E-05  9.000026E+00 -1.187775E-07  7.929291E-06  4.445556E-09  3.626348E-09 _shell_0000000909   
       909  24  7.067444E-05  9.000027E+00  4.731891E-08  1.107082E-05 -5.710037E-08 -3.919873E-09 _shell_0000000909   
       909  25  7.915813E-05  9.000024E+00  9.977734E-08  5.798761E-06  5.740054E-08 -2.209320E-08 _shell_0000000909   
       909  26  7.669446E-05  9.000025E+00 -2.397332E-08  9.244625E-06  9.108122E-10 -2.032877E-08 _shell_0000000909   
       909  27  7.442959E-05  9.000025E+00  1.040208E-07  1.288922E-05 -5.557889E-08 -2.919439E-08 _shell_0000000909   
       910   1  6.495273E-05  9.000029E+00  4.624984E-08  1.073159E-05 -4.063197E-08 -2.476263E-08 _shell_0000000910   
       910   2  5.937579E-05  9.000028E+00 -2.137678E-08  1.268852E-05 -9.664265E-09 -3.419844E-08 _shell_0000000910   
       910   3  5.367690E-05  9.000027E+00  1.755707E-07  1.493557E-05  2.130344E-08 -1.983212E-08 _shell_0000000910   
       910   4  6.812797E-05  9.000027E+00 -6.769399E-08  1.287972E-05 -4.506497E-08  1.036988E-09 _shell_0000000910   
       910   5  6.299387E-05  9.000027E+00 -1.006260E-07  1.531875E-05 -1.354475E-08 -7.913669E-09 _shell_0000000910   
       910   6  5.771401E-05  9.000026E+00  7.547773E-08  1.804791E-05  1.797547E-08  6.937805E-09 _shell_0000000910   
       910   7  7.229661E-05  9.000026E+00  7.171141E-08  1.503574E-05 -3.845081E-08  2.683662E-08 _shell_0000000910   
       910   8  6.758326E-05  9.000025E+00  2.192043E-08  1.795687E-05 -6.378069E-09  1.837113E-08 _shell_0000000910   
       910   9  6.270035E-05  9.000025E+00  1.256270E-07  2.116813E-05  2.569468E-08  3.370778E-08 _shell_0000000910   
       910  10  6.511082E-05  9.000028E+00  7.240252E-08  1.066694E-05 -4.174091E-15 -5.925057E-15 _shell_0000000910   
       910  11  5.950957E-05  9.000028E+00 -1.953436E-08  1.261536E-05  5.973864E-15 -5.777414E-15 _shell_0000000910   
       910  12  5.378637E-05  9.000027E+00  1.531028E-07  1.485390E-05  9.695876E-18 -1.323489E-15 _shell_0000000910   
       910  13  6.827116E-05  9.000027E+00 -4.792484E-08  1.280697E-05  6.993333E-16 -2.810072E-15 _shell_0000000910   
       910  14  6.311275E-05  9.000026E+00 -1.051672E-07  1.523749E-05  2.239751E-15 -3.715950E-15 _shell_0000000910   
       910  15  5.780859E-05  9.000025E+00  4.662625E-08  1.795814E-05  4.112896E-15 -2.815308E-15 _shell_0000000910   
       910  16  7.242491E-05  9.000026E+00  8.509695E-08  1.495488E-05 -3.423260E-15 -1.884440E-14 _shell_0000000910   
       910  17  6.768725E-05  9.000025E+00  1.099568E-08  1.786751E-05  2.302771E-15 -7.681353E-15 _shell_0000000910   
       910  18  6.278003E-05  9.000024E+00  9.039203E-08  2.107026E-05  8.230746E-15 -1.212648E-14 _shell_0000000910   
       910  19  6.495273E-05  9.000029E+00  4.624982E-08  1.073159E-05  4.063196E-08  2.476264E-08 _shell_0000000910   
       910  20  5.937579E-05  9.000028E+00 -2.137676E-08  1.268852E-05  9.664270E-09  3.419844E-08 _shell_0000000910   
       910  21  5.367690E-05  9.000027E+00  1.755707E-07  1.493557E-05 -2.130343E-08  1.983213E-08 _shell_0000000910   
       910  22  6.812797E-05  9.000027E+00 -6.769402E-08  1.287972E-05  4.506497E-08 -1.036992E-09 _shell_0000000910   
       910  23  6.299387E-05  9.000027E+00 -1.006260E-07  1.531875E-05  1.354475E-08  7.913653E-09 _shell_0000000910   
       910  24  5.771401E-05  9.000026E+00  7.547771E-08  1.804791E-05 -1.797546E-08 -6.937823E-09 _shell_0000000910   
       910  25  7.229661E-05  9.000026E+00  7.171135E-08  1.503574E-05  3.845080E-08 -2.683666E-08 _shell_0000000910   
       910  26  6.758326E-05  9.000025E+00  2.192044E-08  1.795687E-05  6.378071E-09 -1.837114E-08 _shell_0000000910   
       910  27  6.270035E-05  9.000025E+00  1.256270E-07  2.116813E-05 -2.569467E-08 -3.370777E-08 _shell_0000000910   
       911   1  4.921420E-05  9.000025E+00 -7.172054E-08  1.594604E-05  3.348720E-08 -1.996677E-08 _shell_0000000911   
       911   2  4.217555E-05  9.000021E+00  6.788731E-08  1.643751E-05 -2.190733E-08 -3.321383E-08 _shell_0000000911   
       911   3  3.415496E-05  9.000013E+00  2.161837E-07  1.704340E-05 -7.730184E-08 -2.020800E-08 _shell_0000000911   
       911   4  5.344025E-05  9.000024E+00 -1.807729E-07  1.930296E-05  1.974677E-08  6.865474E-09 _shell_0000000911   
       911   5  4.669919E-05  9.000020E+00 -2.525813E-08  2.003882E-05 -2.650160E-08 -6.652642E-09 _shell_0000000911   
       911   6  3.894994E-05  9.000013E+00  7.768855E-08  2.088911E-05 -7.274995E-08  6.082139E-09 _shell_0000000911   
       911   7  5.894963E-05  9.000024E+00 -2.659863E-08  2.273415E-05  2.220448E-08  3.369774E-08 _shell_0000000911   
       911   8  5.247376E-05  9.000020E+00  6.923178E-08  2.371440E-05 -1.489775E-08  1.990858E-08 _shell_0000000911   
       911   9  4.496345E-05  9.000013E+00  5.123741E-08  2.480908E-05 -5.199995E-08  3.237232E-08 _shell_0000000911   
       911  10  4.948988E-05  9.000025E+00 -3.310830E-08  1.584768E-05 -6.678963E-18 -6.739509E-15 _shell_0000000911   
       911  11  4.241448E-05  9.000020E+00  6.974889E-08  1.633616E-05  3.653943E-16 -6.591861E-15 _shell_0000000911   
       911  12  3.435714E-05  9.000013E+00  1.812946E-07  1.693907E-05 -7.078608E-15  3.385076E-15 _shell_0000000911   
       911  13  5.371071E-05  9.000024E+00 -1.443996E-07  1.919235E-05  3.880823E-15 -3.666980E-16 _shell_0000000911   
       911  14  4.693289E-05  9.000020E+00 -2.563547E-08  1.992523E-05  4.072274E-15 -8.144548E-16 _shell_0000000911   
       911  15  3.914689E-05  9.000012E+00  4.056043E-08  2.077253E-05  4.768603E-15  4.512341E-15 _shell_0000000911   
       911  16  5.921486E-05  9.000023E+00  7.535744E-09  2.261129E-05  9.130491E-15 -1.232875E-14 _shell_0000000911   
       911  17  5.270224E-05  9.000020E+00  6.661548E-08  2.358856E-05  8.252421E-15 -2.494477E-16 _shell_0000000911   
       911  18  4.515518E-05  9.000013E+00  1.187044E-08  2.468025E-05  7.482959E-15 -3.243817E-15 _shell_0000000911   
       911  19  4.921420E-05  9.000025E+00 -7.172057E-08  1.594604E-05 -3.348719E-08  1.996679E-08 _shell_0000000911   
       911  20  4.217555E-05  9.000021E+00  6.788733E-08  1.643751E-05  2.190733E-08  3.321383E-08 _shell_0000000911   
       911  21  3.415496E-05  9.000013E+00  2.161837E-07  1.704340E-05  7.730182E-08  2.020802E-08 _shell_0000000911   
       911  22  5.344025E-05  9.000024E+00 -1.807730E-07  1.930296E-05 -1.974675E-08 -6.865476E-09 _shell_0000000911   
       911  23  4.669919E-05  9.000020E+00 -2.525813E-08  2.003882E-05  2.650161E-08  6.652625E-09 _shell_0000000911   
       911  24  3.894994E-05  9.000013E+00  7.768850E-08  2.088911E-05  7.274997E-08 -6.082141E-09 _shell_0000000911   
       911  25  5.894963E-05  9.000024E+00 -2.659869E-08  2.273415E-05 -2.220447E-08 -3.369777E-08 _shell_0000000911   
       911  26  5.247376E-05  9.000020E+00  6.923179E-08  2.371440E-05  1.489776E-08 -1.990859E-08 _shell_0000000911   
       911  27  4.496345E-05  9.000013E+00  5.123739E-08  2.480908E-05  5.199998E-08 -3.237231E-08 _shell_0000000911   
       912   1  2.871238E-05  9.000006E+00 -2.287473E-07  1.657966E-05  1.579115E-07 -7.076922E-09 _shell_0000000912   
       912   2  2.303835E-05  8.999991E+00  1.552656E-07  1.424911E-05 -3.324413E-08 -7.796878E-09 _shell_0000000912   
       912   3  1.473647E-05  8.999968E+00 -2.895608E-07  1.171007E-05 -2.243998E-07 -3.313785E-08 _shell_0000000912   
       912   4  3.358837E-05  9.000007E+00 -3.597320E-07  2.034226E-05  1.471188E-07  1.335803E-08 _shell_0000000912   
       912   5  2.805466E-05  8.999992E+00  2.151135E-07  1.760407E-05 -4.663648E-08 -7.212216E-09 _shell_0000000912   
       912   6  1.991773E-05  8.999970E+00  1.856884E-08  1.465738E-05 -2.403917E-07 -5.240348E-08 _shell_0000000912   
       912   7  3.983871E-05  9.000007E+00 -3.440693E-07  2.431276E-05  1.491531E-07  3.379301E-08 _shell_0000000912   
       912   8  3.441968E-05  8.999994E+00  3.617491E-07  2.116691E-05 -4.720176E-08 -6.627529E-09 _shell_0000000912   
       912   9  2.642205E-05  8.999973E+00  3.536264E-07  1.781258E-05 -2.435566E-07 -7.166907E-08 _shell_0000000912   
       912  10  2.910866E-05  9.000006E+00 -1.950751E-07  1.648262E-05 -3.289956E-15  1.833700E-16 _shell_0000000912   
       912  11  2.338344E-05  8.999990E+00  1.377454E-07  1.415935E-05  4.176211E-17 -7.100908E-15 _shell_0000000912   
       912  12  1.503036E-05  8.999967E+00 -3.582736E-07  1.162760E-05  3.165115E-15 -5.599187E-16 _shell_0000000912   
       912  13  3.399739E-05  9.000006E+00 -3.205974E-07  2.022816E-05  4.631081E-15  4.494624E-15 _shell_0000000912   
       912  14  2.841249E-05  8.999992E+00  2.030557E-07  1.749725E-05  4.072274E-15 -3.308722E-15 _shell_0000000912   
       912  15  2.022437E-05  8.999970E+00 -4.468153E-08  1.455785E-05  7.290513E-16  4.334130E-15 _shell_0000000912   
       912  16  4.026047E-05  9.000007E+00 -2.994724E-07  2.418159E-05  3.550500E-15 -7.238414E-15 _shell_0000000912   
       912  17  3.479026E-05  8.999994E+00  3.551536E-07  2.104303E-05  1.982209E-15 -2.489214E-15 _shell_0000000912   
       912  18  2.674143E-05  8.999973E+00  2.958385E-07  1.769598E-05  7.499322E-15  2.813691E-15 _shell_0000000912   
       912  19  2.871238E-05  9.000006E+00 -2.287473E-07  1.657966E-05 -1.579115E-07  7.076954E-09 _shell_0000000912   
       912  20  2.303835E-05  8.999991E+00  1.552656E-07  1.424911E-05  3.324414E-08  7.796870E-09 _shell_0000000912   
       912  21  1.473647E-05  8.999968E+00 -2.895608E-07  1.171007E-05  2.243998E-07  3.313786E-08 _shell_0000000912   
       912  22  3.358837E-05  9.000007E+00 -3.597320E-07  2.034226E-05 -1.471188E-07 -1.335802E-08 _shell_0000000912   
       912  23  2.805466E-05  8.999992E+00  2.151136E-07  1.760407E-05  4.663649E-08  7.212197E-09 _shell_0000000912   
       912  24  1.991773E-05  8.999970E+00  1.856884E-08  1.465738E-05  2.403917E-07  5.240348E-08 _shell_0000000912   
       912  25  3.983871E-05  9.000007E+00 -3.440693E-07  2.431276E-05 -1.491531E-07 -3.379302E-08 _shell_0000000912   
       912  26  3.441968E-05  8.999994E+00  3.617491E-07  2.116691E-05  4.720175E-08  6.627514E-09 _shell_0000000912   
       912  27  2.642205E-05  8.999973E+00  3.536265E-07  1.781258E-05  2.435566E-07  7.166910E-08 _shell_0000000912   
       913   1  1.130718E-05  8.999951E+00 -4.281876E-07  9.108523E-06  2.563591E-07  2.299289E-09 _shell_0000000913   
       913   2  1.119665E-05  8.999918E+00  6.534734E-07  5.260967E-06  3.310350E-08  7.743807E-08 _shell_0000000913   
       913   3  6.905650E-06  8.999873E+00 -2.735446E-07  1.686631E-06 -1.901521E-07  1.644234E-08 _shell_0000000913   
       913   4  1.600134E-05  8.999954E+00 -4.113870E-07  1.151806E-05  2.704869E-07 -1.592699E-08 _shell_0000000913   
       913   5  1.585519E-05  8.999920E+00  3.307662E-07  6.380816E-06  5.662824E-08  8.263380E-08 _shell_0000000913   
       913   6  1.166469E-05  8.999874E+00 -6.181123E-07  1.516794E-06 -1.572304E-07  4.506007E-08 _shell_0000000913   
       913   7  2.153963E-05  8.999957E+00 -5.808172E-07  1.376400E-05  2.789198E-07 -3.415321E-08 _shell_0000000913   
       913   8  2.136925E-05  8.999922E+00 -1.515951E-07  7.337074E-06  7.445798E-08  8.782956E-08 _shell_0000000913   
       913   9  1.729064E-05  8.999875E+00 -1.095758E-06  1.183366E-06 -1.300038E-07  7.367783E-08 _shell_0000000913   
       913  10  1.173892E-05  8.999951E+00 -4.398212E-07  9.102389E-06  4.005302E-16 -2.259963E-15 _shell_0000000913   
       913  11  1.166756E-05  8.999918E+00  6.810034E-07  5.312931E-06 -2.575993E-16 -3.334019E-15 _shell_0000000913   
       913  12  7.415721E-06  8.999873E+00 -2.068512E-07  1.796694E-06  2.514846E-16  1.221681E-14 _shell_0000000913   
       913  13  1.653476E-05  8.999953E+00 -3.794469E-07  1.152498E-05  3.295471E-15  6.148958E-15 _shell_0000000913   
       913  14  1.642777E-05  8.999919E+00  4.018698E-07  6.445834E-06  2.251878E-15  4.062561E-15 _shell_0000000913   
       913  15  1.227644E-05  8.999874E+00 -5.078453E-07  1.639911E-06  9.479030E-15  1.191647E-14 _shell_0000000913   
       913  16  2.217472E-05  8.999956E+00 -5.053036E-07  1.378398E-05  6.324130E-15  7.014634E-15 _shell_0000000913   
       913  17  2.204350E-05  8.999921E+00 -3.691799E-08  7.415148E-06 -1.179862E-15  8.404060E-15 _shell_0000000913   
       913  18  1.800406E-05  8.999875E+00 -9.419168E-07  1.319538E-06  4.009405E-15  1.871969E-15 _shell_0000000913   
       913  19  1.130718E-05  8.999951E+00 -4.281876E-07  9.108523E-06 -2.563591E-07 -2.299265E-09 _shell_0000000913   
       913  20  1.119665E-05  8.999918E+00  6.534735E-07  5.260967E-06 -3.310350E-08 -7.743807E-08 _shell_0000000913   
       913  21  6.905650E-06  8.999873E+00 -2.735447E-07  1.686631E-06  1.901521E-07 -1.644230E-08 _shell_0000000913   
       913  22  1.600134E-05  8.999954E+00 -4.113870E-07  1.151806E-05 -2.704869E-07  1.592700E-08 _shell_0000000913   
       913  23  1.585519E-05  8.999920E+00  3.307662E-07  6.380816E-06 -5.662827E-08 -8.263380E-08 _shell_0000000913   
       913  24  1.166469E-05  8.999874E+00 -6.181123E-07  1.516794E-06  1.572304E-07 -4.506005E-08 _shell_0000000913   
       913  25  2.153963E-05  8.999957E+00 -5.808172E-07  1.376400E-05 -2.789198E-07  3.415323E-08 _shell_0000000913   
       913  26  2.136925E-05  8.999922E+00 -1.515951E-07  7.337074E-06 -7.445799E-08 -8.782955E-08 _shell_0000000913   
       913  27  1.729064E-05  8.999875E+00 -1.095758E-06  1.183366E-06  1.300038E-07 -7.367779E-08 _shell_0000000913   
       914   1  8.445875E-06  8.999844E+00  2.835959E-07  3.426465E-07  8.281759E-08 -6.610500E-08 _shell_0000000914   
       914   2  7.496788E-06  8.999789E+00 -4.492201E-07  6.889383E-07  7.371607E-09 -1.296165E-07 _shell_0000000914   
       914   3  6.672595E-06  8.999733E+00  1.102622E-07  1.310448E-06 -6.807440E-08 -8.268362E-08 _shell_0000000914   
       914   4  1.407148E-05  8.999844E+00  4.020404E-07 -2.327325E-07  6.737079E-08 -2.650727E-08 _shell_0000000914   
       914   5  1.333063E-05  8.999789E+00 -1.648894E-07  1.338693E-06 -1.129146E-07 -7.570813E-08 _shell_0000000914   
       914   6  1.260423E-05  8.999732E+00  3.027757E-07  3.185337E-06 -2.932000E-07 -1.446462E-08 _shell_0000000914   
       914   7  2.201765E-05  8.999846E+00  1.017295E-06 -9.574605E-07  5.140328E-08  1.309048E-08 _shell_0000000914   
       914   8  2.148608E-05  8.999790E+00  6.186811E-07  1.839099E-06 -2.337215E-07 -2.179974E-08 _shell_0000000914   
       914   9  2.085851E-05  8.999732E+00  9.969590E-07  4.910877E-06 -5.188463E-07  5.375442E-08 _shell_0000000914   
       914  10  8.672015E-06  8.999843E+00  2.379890E-07  4.587462E-07  6.750091E-15  6.902779E-15 _shell_0000000914   
       914  11  7.740200E-06  8.999788E+00 -4.775558E-07  6.849919E-07  3.114113E-16 -4.861017E-15 _shell_0000000914   
       914  12  6.933278E-06  8.999733E+00  9.919755E-08  1.186455E-06 -8.637829E-15  6.541109E-15 _shell_0000000914   
       914  13  1.408754E-05  8.999844E+00  2.663990E-07 -1.108758E-07  3.257909E-15  1.183432E-14 _shell_0000000914   
       914  14  1.336396E-05  8.999788E+00 -2.832597E-07  1.340504E-06 -5.102444E-15  3.257722E-15 _shell_0000000914   
       914  15  1.265483E-05  8.999732E+00  2.016764E-07  3.067101E-06 -8.517166E-15  1.501893E-14 _shell_0000000914   
       914  16  2.182363E-05  8.999845E+00  7.916185E-07 -8.298468E-07 -1.042914E-15 -1.740934E-15 _shell_0000000914   
       914  17  2.130933E-05  8.999789E+00  4.102761E-07  1.846667E-06 -1.144418E-14  2.601208E-15 _shell_0000000914   
       914  18  2.069903E-05  8.999732E+00  8.058252E-07  4.798398E-06 -2.521823E-14  1.340151E-14 _shell_0000000914   
       914  19  8.445875E-06  8.999844E+00  2.835959E-07  3.426465E-07 -8.281757E-08  6.610504E-08 _shell_0000000914   
       914  20  7.496788E-06  8.999789E+00 -4.492201E-07  6.889383E-07 -7.371596E-09  1.296165E-07 _shell_0000000914   
       914  21  6.672595E-06  8.999733E+00  1.102622E-07  1.310448E-06  6.807438E-08  8.268365E-08 _shell_0000000914   
       914  22  1.407148E-05  8.999844E+00  4.020404E-07 -2.327325E-07 -6.737078E-08  2.650729E-08 _shell_0000000914   
       914  23  1.333063E-05  8.999789E+00 -1.648894E-07  1.338693E-06  1.129146E-07  7.570813E-08 _shell_0000000914   
       914  24  1.260423E-05  8.999732E+00  3.027757E-07  3.185337E-06  2.932000E-07  1.446465E-08 _shell_0000000914   
       914  25  2.201765E-05  8.999846E+00  1.017295E-06 -9.574605E-07 -5.140328E-08 -1.309048E-08 _shell_0000000914   
       914  26  2.148608E-05  8.999790E+00  6.186811E-07  1.839099E-06  2.337215E-07  2.179975E-08 _shell_0000000914   
       914  27  2.085851E-05  8.999732E+00  9.969590E-07  4.910877E-06  5.188463E-07 -5.375437E-08 _shell_0000000914   
       915   1  4.214883E-06  8.999699E+00  3.463904E-09  1.490350E-06  1.636113E-07  2.965332E-08 _shell_0000000915   
       915   2  3.265055E-06  8.999638E+00  7.833238E-07  8.333327E-07  2.383707E-10  7.654103E-08 _shell_0000000915   
       915   3 -1.465426E-06  8.999567E+00 -6.045869E-07 -1.515305E-06 -1.631345E-07 -2.188390E-07 _shell_0000000915   
       915   4  7.614614E-06  8.999698E+00 -8.044821E-07  4.248207E-06 -1.525132E-08  8.055146E-08 _shell_0000000915   
       915   5  4.972133E-06  8.999638E+00  2.311662E-07  2.774411E-06 -9.240411E-09  5.360554E-08 _shell_0000000915   
       915   6 -1.108734E-06  8.999569E+00 -1.023313E-07 -3.910048E-07 -3.229544E-09 -3.156081E-07 _shell_0000000915   
       915   7  1.223650E-05  8.999697E+00 -1.582942E-06  7.364419E-06 -1.931046E-07  1.314496E-07 _shell_0000000915   
       915   8  7.899343E-06  8.999639E+00 -2.962156E-07  5.073845E-06 -1.770983E-08  3.067007E-08 _shell_0000000915   
       915   9  4.660721E-07  8.999571E+00  4.199898E-07  1.091651E-06  1.576849E-07 -4.123772E-07 _shell_0000000915   
       915  10  4.559615E-06  8.999699E+00  1.710259E-08  1.454452E-06 -9.900124E-15  5.070098E-15 _shell_0000000915   
       915  11  3.524453E-06  8.999638E+00  7.116287E-07  1.052822E-06 -2.551283E-15 -2.315864E-15 _shell_0000000915   
       915  12 -1.291361E-06  8.999566E+00 -7.616159E-07 -1.040427E-06  2.885102E-15  4.581376E-15 _shell_0000000915   
       915  13  8.406275E-06  8.999698E+00 -5.993021E-07  4.183864E-06 -7.713055E-15  1.508249E-14 _shell_0000000915   
       915  14  5.678460E-06  8.999638E+00  3.510123E-07  2.965456E-06  1.628910E-15 -3.655281E-15 _shell_0000000915   
       915  15 -4.877396E-07  8.999568E+00 -6.781909E-08  5.542862E-08 -2.099027E-15  1.836261E-14 _shell_0000000915   
       915  16  1.347509E-05  8.999697E+00 -1.186221E-06  7.271631E-06 -2.170365E-14  2.535027E-15 _shell_0000000915   
       915  17  9.052600E-06  8.999638E+00  1.517158E-08  5.236445E-06 -9.569829E-15 -1.032836E-14 _shell_0000000915   
       915  18  1.533995E-06  8.999570E+00  6.460432E-07  1.509639E-06 -6.463976E-15  1.897552E-14 _shell_0000000915   
       915  19  4.214883E-06  8.999699E+00  3.463948E-09  1.490350E-06 -1.636113E-07 -2.965328E-08 _shell_0000000915   
       915  20  3.265055E-06  8.999638E+00  7.833238E-07  8.333327E-07 -2.383907E-10 -7.654103E-08 _shell_0000000915   
       915  21 -1.465426E-06  8.999567E+00 -6.045869E-07 -1.515305E-06  1.631345E-07  2.188390E-07 _shell_0000000915   
       915  22  7.614614E-06  8.999698E+00 -8.044820E-07  4.248207E-06  1.525129E-08 -8.055143E-08 _shell_0000000915   
       915  23  4.972133E-06  8.999638E+00  2.311662E-07  2.774411E-06  9.240427E-09 -5.360555E-08 _shell_0000000915   
       915  24 -1.108733E-06  8.999569E+00 -1.023312E-07 -3.910048E-07  3.229513E-09  3.156081E-07 _shell_0000000915   
       915  25  1.223650E-05  8.999697E+00 -1.582942E-06  7.364419E-06  1.931045E-07 -1.314496E-07 _shell_0000000915   
       915  26  7.899343E-06  8.999639E+00 -2.962156E-07  5.073845E-06  1.770983E-08 -3.067009E-08 _shell_0000000915   
       915  27  4.660721E-07  8.999571E+00  4.199898E-07  1.091651E-06 -1.576849E-07  4.123772E-07 _shell_0000000915   
      1001   1 -1.156929E-06  8.999569E+00 -1.059321E-06 -1.706144E-06  1.625721E-07 -4.407917E-07 _shell_0000001001   
      1001   2  1.170910E-05  8.999643E+00  1.099191E-06 -8.907573E-06  3.231228E-08  3.264970E-08 _shell_0000001001   
      1001   3  1.782809E-05  8.999698E+00 -6.359087E-07 -1.034673E-05 -9.794755E-08  3.411893E-09 _shell_0000001001   
      1001   4 -5.466626E-07  8.999578E+00 -1.902567E-07 -6.570214E-06  1.316145E-06 -3.631878E-07 _shell_0000001001   
      1001   5  1.724496E-05  8.999645E+00  7.929985E-07 -1.467569E-05 -3.387808E-08  1.796715E-07 _shell_0000001001   
      1001   6  2.879223E-05  8.999693E+00 -9.444402E-07 -1.701890E-05 -1.383901E-06  2.198516E-07 _shell_0000001001   
      1001   7  2.814958E-06  8.999588E+00  2.375626E-07 -1.306910E-05  2.301547E-06 -2.855838E-07 _shell_0000001001   
      1001   8  2.586852E-05  8.999648E+00  8.303563E-07 -2.207863E-05 -2.682389E-07  3.266934E-07 _shell_0000001001   
      1001   9  4.318040E-05  8.999689E+00 -1.246257E-07 -2.532589E-05 -2.838025E-06  4.362913E-07 _shell_0000001001   
      1001  10 -7.932152E-07  8.999568E+00 -1.400439E-06 -1.011190E-06  2.281914E-14 -3.359626E-14 _shell_0000001001   
      1001  11  1.252930E-05  8.999643E+00  1.214551E-06 -8.938937E-06  1.308901E-14  1.608774E-15 _shell_0000001001   
      1001  12  1.910477E-05  8.999699E+00 -6.406958E-08 -1.110441E-05  1.137712E-14 -5.146562E-15 _shell_0000001001   
      1001  13 -1.454005E-06  8.999576E+00 -1.076113E-06 -5.723101E-06  3.156012E-15 -3.665046E-14 _shell_0000001001   
      1001  14  1.679410E-05  8.999644E+00  3.636206E-07 -1.455490E-05  1.053031E-14 -1.079032E-15 _shell_0000001001   
      1001  15  2.879784E-05  8.999693E+00 -9.173394E-07 -1.762442E-05  1.003997E-14 -1.899200E-14 _shell_0000001001   
      1001  16  6.365598E-07  8.999586E+00 -1.193032E-06 -1.206983E-05 -1.622200E-14 -4.013201E-14 _shell_0000001001   
      1001  17  2.414660E-05  8.999646E+00 -1.437598E-07 -2.180567E-05 -7.214806E-15  8.144536E-15 _shell_0000001001   
      1001  18  4.191496E-05  8.999689E+00 -6.422630E-07 -2.577925E-05  4.918893E-15 -2.130952E-14 _shell_0000001001   
      1001  19 -1.156929E-06  8.999569E+00 -1.059321E-06 -1.706144E-06 -1.625721E-07  4.407916E-07 _shell_0000001001   
      1001  20  1.170910E-05  8.999643E+00  1.099191E-06 -8.907573E-06 -3.231225E-08 -3.264970E-08 _shell_0000001001   
      1001  21  1.782809E-05  8.999698E+00 -6.359087E-07 -1.034673E-05  9.794757E-08 -3.411913E-09 _shell_0000001001   
      1001  22 -5.466627E-07  8.999578E+00 -1.902567E-07 -6.570214E-06 -1.316145E-06  3.631877E-07 _shell_0000001001   
      1001  23  1.724496E-05  8.999645E+00  7.929985E-07 -1.467569E-05  3.387809E-08 -1.796715E-07 _shell_0000001001   
      1001  24  2.879223E-05  8.999693E+00 -9.444402E-07 -1.701890E-05  1.383901E-06 -2.198516E-07 _shell_0000001001   
      1001  25  2.814958E-06  8.999588E+00  2.375626E-07 -1.306910E-05 -2.301547E-06  2.855838E-07 _shell_0000001001   
      1001  26  2.586852E-05  8.999648E+00  8.303564E-07 -2.207863E-05  2.682389E-07 -3.266933E-07 _shell_0000001001   
      1001  27  4.318040E-05  8.999689E+00 -1.246256E-07 -2.532589E-05  2.838025E-06 -4.362913E-07 _shell_0000001001   
      1002   1  2.593644E-05  8.999730E+00  7.061249E-07 -5.221680E-06  2.444224E-07 -1.603230E-07 _shell_0000001002   
      1002   2  2.505049E-05  8.999785E+00 -7.344775E-07 -9.368069E-07  9.747258E-08 -2.218521E-07 _shell_0000001002   
      1002   3  2.629578E-05  8.999845E+00  6.975771E-07  1.797323E-06 -4.947724E-08 -5.498614E-08 _shell_0000001002   
      1002   4  3.614781E-05  8.999723E+00 -5.294512E-08 -7.836781E-06 -8.900262E-07  3.552020E-08 _shell_0000001002   
      1002   5  3.477061E-05  8.999783E+00 -7.138184E-07 -1.229132E-06 -4.572994E-07 -1.662065E-07 _shell_0000001002   
      1002   6  3.529627E-05  8.999847E+00  9.650433E-07  3.827774E-06 -2.457269E-08 -1.395381E-07 _shell_0000001002   
      1002   7  4.939384E-05  8.999717E+00  2.764814E-07 -9.641086E-06 -1.970889E-06  2.313634E-07 _shell_0000001002   
      1002   8  4.741824E-05  8.999782E+00  1.452711E-07 -7.106599E-07 -9.584858E-07 -1.105609E-07 _shell_0000001002   
      1002   9  4.711708E-05  8.999850E+00  1.820874E-06  6.669022E-06  5.391750E-08 -2.240901E-07 _shell_0000001002   
      1002  10  2.620355E-05  8.999730E+00  8.749255E-07 -6.190044E-06  8.984454E-15 -1.343850E-14 _shell_0000001002   
      1002  11  2.503931E-05  8.999785E+00 -8.439669E-07 -1.556062E-06  3.838056E-15 -9.182809E-15 _shell_0000001002   
      1002  12  2.600631E-05  8.999844E+00  3.097978E-07  1.527177E-06  1.582529E-15 -1.395279E-14 _shell_0000001002   
      1002  13  3.702586E-05  8.999724E+00  3.776873E-07 -8.897909E-06  8.349672E-15 -2.120129E-14 _shell_0000001002   
      1002  14  3.537038E-05  8.999783E+00 -5.614759E-07 -1.941150E-06 -1.628871E-15 -6.423922E-15 _shell_0000001002   
      1002  15  3.561774E-05  8.999846E+00  8.390958E-07  3.464865E-06 -2.563865E-15 -2.318006E-14 _shell_0000001002   
      1002  16  5.088284E-05  8.999718E+00  9.689459E-07 -1.079498E-05  3.397888E-15 -3.137667E-14 _shell_0000001002   
      1002  17  4.862894E-05  8.999782E+00  5.594456E-07 -1.515441E-06 -1.455978E-15 -4.479517E-15 _shell_0000001002   
      1002  18  4.804949E-05  8.999849E+00  1.956758E-06  6.213350E-06 -4.272249E-15 -2.645076E-14 _shell_0000001002   
      1002  19  2.593644E-05  8.999730E+00  7.061249E-07 -5.221680E-06 -2.444224E-07  1.603229E-07 _shell_0000001002   
      1002  20  2.505049E-05  8.999785E+00 -7.344775E-07 -9.368069E-07 -9.747257E-08  2.218521E-07 _shell_0000001002   
      1002  21  2.629578E-05  8.999845E+00  6.975771E-07  1.797323E-06  4.947726E-08  5.498611E-08 _shell_0000001002   
      1002  22  3.614781E-05  8.999723E+00 -5.294517E-08 -7.836781E-06  8.900262E-07 -3.552025E-08 _shell_0000001002   
      1002  23  3.477061E-05  8.999783E+00 -7.138184E-07 -1.229132E-06  4.572994E-07  1.662065E-07 _shell_0000001002   
      1002  24  3.529627E-05  8.999847E+00  9.650433E-07  3.827774E-06  2.457268E-08  1.395381E-07 _shell_0000001002   
      1002  25  4.939384E-05  8.999717E+00  2.764815E-07 -9.641085E-06  1.970889E-06 -2.313635E-07 _shell_0000001002   
      1002  26  4.741824E-05  8.999782E+00  1.452711E-07 -7.106599E-07  9.584858E-07  1.105609E-07 _shell_0000001002   
      1002  27  4.711708E-05  8.999850E+00  1.820874E-06  6.669022E-06 -5.391751E-08  2.240901E-07 _shell_0000001002   
      1003   1  2.190356E-05  8.999878E+00 -5.178308E-07 -1.160464E-06  1.485521E-07  1.209257E-07 _shell_0000001003   
      1003   2  2.674194E-05  8.999927E+00  1.134861E-06 -8.186552E-06 -7.223617E-08  2.090134E-07 _shell_0000001003   
      1003   3  2.534857E-05  8.999958E+00 -7.350599E-07 -1.520142E-05 -2.930244E-07 -1.604854E-08 _shell_0000001003   
      1003   4  2.926998E-05  8.999880E+00 -1.030451E-06  2.307165E-09  2.350971E-07  1.281558E-08 _shell_0000001003   
      1003   5  3.429736E-05  8.999930E+00  5.397149E-07 -9.072896E-06 -5.119400E-08  1.601439E-07 _shell_0000001003   
      1003   6  3.340612E-05  8.999962E+00 -6.820487E-07 -1.813688E-05 -3.374851E-07 -5.677525E-09 _shell_0000001003   
      1003   7  3.751471E-05  8.999883E+00 -1.845125E-06  1.286606E-06  3.204854E-07 -9.529446E-08 _shell_0000001003   
      1003   8  4.273338E-05  8.999933E+00 -3.520860E-07 -9.837712E-06 -3.130857E-08  1.112744E-07 _shell_0000001003   
      1003   9  4.234659E-05  8.999966E+00 -9.202942E-07 -2.095081E-05 -3.831025E-07  4.693498E-09 _shell_0000001003   
      1003  10  2.242484E-05  8.999877E+00 -5.929065E-07 -1.268089E-06  2.684398E-15 -1.038429E-14 _shell_0000001003   
      1003  11  2.733247E-05  8.999926E+00  1.129033E-06 -8.225873E-06  2.043619E-15  4.662927E-15 _shell_0000001003   
      1003  12  2.600835E-05  8.999958E+00 -6.716390E-07 -1.517244E-05  9.243973E-15 -1.718512E-14 _shell_0000001003   
      1003  13  2.991080E-05  8.999879E+00 -1.054299E-06 -8.223466E-08 -6.258092E-15 -1.873249E-14 _shell_0000001003   
      1003  14  3.500742E-05  8.999929E+00  5.851154E-07 -9.089134E-06 -2.443335E-15  5.792877E-15 _shell_0000001003   
      1003  15  3.418543E-05  8.999962E+00 -5.673998E-07 -1.808482E-05  5.102324E-15 -1.970468E-14 _shell_0000001003   
      1003  16  3.827505E-05  8.999882E+00 -1.817745E-06  1.225147E-06 -6.336655E-15 -2.913698E-14 _shell_0000001003   
      1003  17  4.356297E-05  8.999932E+00 -2.554574E-07 -9.830867E-06 -2.958454E-15  7.737379E-15 _shell_0000001003   
      1003  18  4.324543E-05  8.999966E+00 -7.544173E-07 -2.087567E-05  5.363795E-15 -1.074707E-14 _shell_0000001003   
      1003  19  2.190356E-05  8.999878E+00 -5.178308E-07 -1.160464E-06 -1.485521E-07 -1.209257E-07 _shell_0000001003   
      1003  20  2.674194E-05  8.999927E+00  1.134861E-06 -8.186552E-06  7.223618E-08 -2.090134E-07 _shell_0000001003   
      1003  21  2.534857E-05  8.999958E+00 -7.350599E-07 -1.520142E-05  2.930244E-07  1.604849E-08 _shell_0000001003   
      1003  22  2.926998E-05  8.999880E+00 -1.030451E-06  2.307231E-09 -2.350971E-07 -1.281561E-08 _shell_0000001003   
      1003  23  3.429736E-05  8.999930E+00  5.397149E-07 -9.072896E-06  5.119401E-08 -1.601439E-07 _shell_0000001003   
      1003  24  3.340612E-05  8.999962E+00 -6.820486E-07 -1.813688E-05  3.374851E-07  5.677497E-09 _shell_0000001003   
      1003  25  3.751471E-05  8.999883E+00 -1.845125E-06  1.286606E-06 -3.204854E-07  9.529439E-08 _shell_0000001003   
      1003  26  4.273338E-05  8.999933E+00 -3.520860E-07 -9.837712E-06  3.130856E-08 -1.112744E-07 _shell_0000001003   
      1003  27  4.234659E-05  8.999966E+00 -9.202941E-07 -2.095081E-05  3.831025E-07 -4.693514E-09 _shell_0000001003   
      1004   1  2.983570E-05  8.999973E+00 -3.594480E-07 -1.947795E-05  2.581644E-07 -1.135296E-07 _shell_0000001004   
      1004   2  3.824986E-05  8.999995E+00  5.491895E-08 -2.317870E-05  5.697781E-08 -4.383599E-08 _shell_0000001004   
      1004   3  4.418313E-05  9.000008E+00 -1.238571E-07 -2.667463E-05 -1.442088E-07 -9.019186E-09 _shell_0000001004   
      1004   4  3.860582E-05  8.999977E+00  1.562588E-07 -2.270414E-05  3.001575E-07 -8.547227E-08 _shell_0000001004   
      1004   5  4.656196E-05  8.999997E+00  1.398112E-07 -2.648428E-05  8.496633E-08 -1.424029E-08 _shell_0000001004   
      1004   6  5.207207E-05  9.000008E+00 -3.884004E-07 -3.005960E-05 -1.302248E-07  2.211487E-08 _shell_0000001004   
      1004   7  4.917121E-05  8.999982E+00  7.958712E-07 -2.626050E-05  3.215133E-07 -5.741491E-08 _shell_0000001004   
      1004   8  5.671059E-05  8.999999E+00  4.449162E-07 -3.012004E-05  9.231757E-08  1.535541E-08 _shell_0000001004   
      1004   9  6.183882E-05  9.000009E+00 -3.364235E-07 -3.377475E-05 -1.368781E-07  5.324894E-08 _shell_0000001004   
      1004  10  3.015109E-05  8.999973E+00 -4.240979E-07 -1.930407E-05  7.708837E-15 -2.361918E-14 _shell_0000001004   
      1004  11  3.861342E-05  8.999994E+00  3.843364E-08 -2.300225E-05  1.052502E-15 -2.361795E-15 _shell_0000001004   
      1004  12  4.459485E-05  9.000008E+00 -9.217783E-08 -2.649561E-05 -4.146474E-15 -4.586491E-15 _shell_0000001004   
      1004  13  3.892572E-05  8.999977E+00  9.354050E-08 -2.251420E-05  7.310702E-15 -2.690493E-14 _shell_0000001004   
      1004  14  4.693002E-05  8.999996E+00  1.252574E-07 -2.629178E-05  7.605437E-16 -1.087555E-14 _shell_0000001004   
      1004  15  5.248830E-05  9.000008E+00 -3.547896E-07 -2.986452E-05  2.302632E-15 -1.390170E-14 _shell_0000001004   
      1004  16  4.949562E-05  8.999981E+00  7.350844E-07 -2.605451E-05  4.452586E-15 -2.730447E-14 _shell_0000001004   
      1004  17  5.708316E-05  8.999999E+00  4.322940E-07 -2.991147E-05 -9.567108E-16 -1.231862E-14 _shell_0000001004   
      1004  18  6.225956E-05  9.000009E+00 -3.008812E-07 -3.356361E-05  4.205920E-15 -1.319040E-14 _shell_0000001004   
      1004  19  2.983570E-05  8.999973E+00 -3.594480E-07 -1.947795E-05 -2.581644E-07  1.135295E-07 _shell_0000001004   
      1004  20  3.824986E-05  8.999995E+00  5.491891E-08 -2.317870E-05 -5.697781E-08  4.383599E-08 _shell_0000001004   
      1004  21  4.418313E-05  9.000008E+00 -1.238571E-07 -2.667463E-05  1.442088E-07  9.019173E-09 _shell_0000001004   
      1004  22  3.860582E-05  8.999977E+00  1.562588E-07 -2.270414E-05 -3.001575E-07  8.547221E-08 _shell_0000001004   
      1004  23  4.656196E-05  8.999997E+00  1.398111E-07 -2.648428E-05 -8.496633E-08  1.424026E-08 _shell_0000001004   
      1004  24  5.207207E-05  9.000008E+00 -3.884004E-07 -3.005960E-05  1.302248E-07 -2.211489E-08 _shell_0000001004   
      1004  25  4.917121E-05  8.999982E+00  7.958712E-07 -2.626050E-05 -3.215133E-07  5.741486E-08 _shell_0000001004   
      1004  26  5.671059E-05  8.999999E+00  4.449162E-07 -3.012004E-05 -9.231758E-08 -1.535544E-08 _shell_0000001004   
      1004  27  6.183882E-05  9.000009E+00 -3.364235E-07 -3.377475E-05  1.368781E-07 -5.324897E-08 _shell_0000001004   
      1005   1  4.934703E-05  9.000014E+00  3.422394E-07 -2.712841E-05  4.403196E-08 -1.905995E-08 _shell_0000001005   
      1005   2  5.621462E-05  9.000019E+00  3.549595E-08 -2.567316E-05  1.352491E-08 -3.949982E-08 _shell_0000001005   
      1005   3  6.242601E-05  9.000023E+00 -3.285795E-08 -2.462396E-05 -1.698215E-08 -1.908892E-08 _shell_0000001005   
      1005   4  5.721017E-05  9.000013E+00  1.512373E-07 -3.048619E-05  3.195533E-08  1.180235E-08 _shell_0000001005   
      1005   5  6.340976E-05  9.000018E+00 -7.609317E-08 -2.862703E-05  1.496633E-08 -1.110966E-08 _shell_0000001005   
      1005   6  6.891230E-05  9.000021E+00 -1.603525E-07 -2.717392E-05 -2.022652E-09  6.829039E-09 _shell_0000001005   
      1005   7  6.632433E-05  9.000013E+00  5.831173E-08 -3.391512E-05 -4.754285E-09  4.266472E-08 _shell_0000001005   
      1005   8  7.190518E-05  9.000018E+00  2.534810E-08 -3.165205E-05 -8.225223E-09  1.728050E-08 _shell_0000001005   
      1005   9  7.674814E-05  9.000020E+00  4.013729E-08 -2.979503E-05 -1.169615E-08  3.274701E-08 _shell_0000001005   
      1005  10  4.952328E-05  9.000013E+00  2.897644E-07 -2.695469E-05 -3.984708E-15 -1.751078E-14 _shell_0000001005   
      1005  11  5.644351E-05  9.000019E+00  3.566391E-08 -2.550463E-05  5.396430E-17 -9.386490E-15 _shell_0000001005   
      1005  12  6.270754E-05  9.000023E+00  1.995303E-08 -2.446061E-05  5.591928E-15  6.535892E-15 _shell_0000001005   
      1005  13  5.737735E-05  9.000013E+00  9.487692E-08 -3.029492E-05  2.570623E-15 -1.547953E-14 _shell_0000001005   
      1005  14  6.362958E-05  9.000018E+00 -7.981060E-08 -2.844095E-05 -2.796644E-15 -6.423963E-15 _shell_0000001005   
      1005  15  6.918477E-05  9.000021E+00 -1.114269E-07 -2.699302E-05 -1.911901E-15  8.294642E-15 _shell_0000001005   
      1005  16  6.648244E-05  9.000013E+00 -1.933963E-09 -3.370630E-05  3.766890E-15 -1.651297E-14 _shell_0000001005   
      1005  17  7.211594E-05  9.000018E+00  1.774532E-08 -3.144842E-05 -5.524535E-15 -7.737319E-15 _shell_0000001005   
      1005  18  7.701154E-05  9.000020E+00  8.517749E-08 -2.959658E-05 -3.133526E-15  7.959987E-15 _shell_0000001005   
      1005  19  4.934703E-05  9.000014E+00  3.422395E-07 -2.712841E-05 -4.403196E-08  1.905992E-08 _shell_0000001005   
      1005  20  5.621462E-05  9.000019E+00  3.549598E-08 -2.567316E-05 -1.352490E-08  3.949980E-08 _shell_0000001005   
      1005  21  6.242601E-05  9.000023E+00 -3.285786E-08 -2.462396E-05  1.698215E-08  1.908892E-08 _shell_0000001005   
      1005  22  5.721017E-05  9.000013E+00  1.512373E-07 -3.048619E-05 -3.195532E-08 -1.180238E-08 _shell_0000001005   
      1005  23  6.340976E-05  9.000018E+00 -7.609318E-08 -2.862703E-05 -1.496633E-08  1.110963E-08 _shell_0000001005   
      1005  24  6.891230E-05  9.000021E+00 -1.603524E-07 -2.717392E-05  2.022656E-09 -6.829024E-09 _shell_0000001005   
      1005  25  6.632433E-05  9.000013E+00  5.831174E-08 -3.391512E-05  4.754293E-09 -4.266475E-08 _shell_0000001005   
      1005  26  7.190518E-05  9.000018E+00  2.534808E-08 -3.165205E-05  8.225208E-09 -1.728050E-08 _shell_0000001005   
      1005  27  7.674814E-05  9.000020E+00  4.013728E-08 -2.979503E-05  1.169614E-08 -3.274700E-08 _shell_0000001005   
      1006   1  6.600908E-05  9.000024E+00  1.463811E-07 -2.289319E-05 -2.446305E-08 -1.590659E-08 _shell_0000001006   
      1006   2  7.045995E-05  9.000024E+00 -3.341674E-08 -1.927134E-05  6.093895E-09 -3.234818E-08 _shell_0000001006   
      1006   3  7.486693E-05  9.000025E+00  4.504721E-08 -1.617720E-05  3.665084E-08 -1.873185E-08 _shell_0000001006   
      1006   4  7.219062E-05  9.000022E+00  6.695451E-08 -2.517707E-05 -1.251640E-08  8.572233E-09 _shell_0000001006   
      1006   5  7.591617E-05  9.000022E+00 -8.429700E-08 -2.115189E-05  1.227903E-08 -1.034267E-08 _shell_0000001006   
      1006   6  7.956775E-05  9.000022E+00 -4.742186E-08 -1.765443E-05  3.707445E-08  8.002861E-10 _shell_0000001006   
      1006   7  7.912509E-05  9.000020E+00  9.937862E-08 -2.745143E-05 -1.162469E-08  3.305110E-08 _shell_0000001006   
      1006   8  8.214741E-05  9.000021E+00  2.826318E-08 -2.302293E-05  7.409223E-09  1.166283E-08 _shell_0000001006   
      1006   9  8.506572E-05  9.000020E+00  7.513921E-08 -1.912215E-05  2.644312E-08  2.033246E-08 _shell_0000001006   
      1006  10  6.610092E-05  9.000024E+00  1.303228E-07 -2.276169E-05  3.362654E-15  5.293956E-15 _shell_0000001006   
      1006  11  7.057389E-05  9.000024E+00 -2.738392E-08 -1.915543E-05 -5.380891E-15 -4.296147E-15 _shell_0000001006   
      1006  12  7.500295E-05  9.000024E+00  7.317114E-08 -1.607688E-05  7.088493E-16 -2.334441E-14 _shell_0000001006   
      1006  13  7.225518E-05  9.000022E+00  3.920154E-08 -2.503820E-05 -2.850592E-15  1.224227E-14 _shell_0000001006   
      1006  14  7.600281E-05  9.000022E+00 -8.995885E-08 -2.102862E-05 -1.628900E-15 -6.808183E-15 _shell_0000001006   
      1006  15  7.967649E-05  9.000022E+00 -3.099260E-08 -1.754675E-05  3.967444E-15 -3.405701E-14 _shell_0000001006   
      1006  16  7.916235E-05  9.000020E+00  5.993106E-08 -2.730520E-05  9.193098E-16  9.549586E-15 _shell_0000001006   
      1006  17  8.220677E-05  9.000021E+00  1.090669E-08 -2.289230E-05  5.326972E-15 -2.137942E-15 _shell_0000001006   
      1006  18  8.514717E-05  9.000020E+00  7.987385E-08 -1.900711E-05  5.335845E-15 -3.772583E-14 _shell_0000001006   
      1006  19  6.600908E-05  9.000024E+00  1.463811E-07 -2.289319E-05  2.446305E-08  1.590660E-08 _shell_0000001006   
      1006  20  7.045995E-05  9.000024E+00 -3.341674E-08 -1.927134E-05 -6.093906E-09  3.234818E-08 _shell_0000001006   
      1006  21  7.486693E-05  9.000025E+00  4.504720E-08 -1.617720E-05 -3.665085E-08  1.873180E-08 _shell_0000001006   
      1006  22  7.219062E-05  9.000022E+00  6.695452E-08 -2.517707E-05  1.251639E-08 -8.572205E-09 _shell_0000001006   
      1006  23  7.591617E-05  9.000022E+00 -8.429699E-08 -2.115189E-05 -1.227903E-08  1.034265E-08 _shell_0000001006   
      1006  24  7.956775E-05  9.000022E+00 -4.742187E-08 -1.765443E-05 -3.707446E-08 -8.003651E-10 _shell_0000001006   
      1006  25  7.912509E-05  9.000020E+00  9.937864E-08 -2.745143E-05  1.162469E-08 -3.305109E-08 _shell_0000001006   
      1006  26  8.214741E-05  9.000021E+00  2.826318E-08 -2.302293E-05 -7.409214E-09 -1.166284E-08 _shell_0000001006   
      1006  27  8.506572E-05  9.000020E+00  7.513926E-08 -1.912215E-05 -2.644311E-08 -2.033255E-08 _shell_0000001006   
      1007   1  7.685197E-05  9.000024E+00  9.908925E-08 -1.387707E-05 -5.239441E-08 -1.372784E-08 _shell_0000001007   
      1007   2  7.890401E-05  9.000024E+00 -3.411885E-08 -9.884702E-06  2.907728E-10 -2.118044E-08 _shell_0000001007   
      1007   3  8.113368E-05  9.000023E+00  5.409537E-08 -6.215080E-06  5.297597E-08 -1.566669E-08 _shell_0000001007   
      1007   4  8.131120E-05  9.000022E+00  3.536041E-08 -1.511060E-05 -4.302057E-08  4.505582E-09 _shell_0000001007   
      1007   5  8.295119E-05  9.000021E+00 -8.098719E-08 -1.077376E-05  1.646592E-09 -4.936680E-09 _shell_0000001007   
      1007   6  8.475586E-05  9.000021E+00 -6.167384E-09 -6.759666E-06  4.631376E-08 -1.412637E-09 _shell_0000001007   
      1007   7  8.623200E-05  9.000020E+00  6.127105E-08 -1.631974E-05 -3.921675E-08  2.273905E-08 _shell_0000001007   
      1007   8  8.747108E-05  9.000019E+00 -1.222263E-08 -1.163843E-05 -2.567597E-09  1.130710E-08 _shell_0000001007   
      1007   9  8.886188E-05  9.000019E+00  7.519622E-08 -7.279867E-06  3.408154E-08  1.284144E-08 _shell_0000001007   
      1007  10  7.689929E-05  9.000024E+00  9.458269E-08 -1.381278E-05  2.007659E-15 -2.443364E-14 _shell_0000001007   
      1007  11  7.896162E-05  9.000024E+00 -2.833126E-08 -9.831289E-06 -1.874612E-15 -7.146740E-15 _shell_0000001007   
      1007  12  8.120159E-05  9.000023E+00  7.017708E-08 -6.172543E-06 -5.188067E-16 -1.553074E-14 _shell_0000001007   
      1007  13  8.133949E-05  9.000022E+00  2.269688E-08 -1.504288E-05  2.768185E-15 -3.260364E-14 _shell_0000001007   
      1007  14  8.298978E-05  9.000021E+00 -8.335656E-08 -1.071691E-05  1.233789E-15 -1.131069E-14 _shell_0000001007   
      1007  15  8.480474E-05  9.000021E+00  1.757402E-09 -6.713698E-06 -3.772360E-16 -2.868914E-14 _shell_0000001007   
      1007  16  8.624125E-05  9.000020E+00  4.045069E-08 -1.624859E-05  3.998955E-15 -3.626349E-14 _shell_0000001007   
      1007  17  8.749063E-05  9.000019E+00 -2.274889E-08 -1.157815E-05 -1.754656E-15 -3.766853E-15 _shell_0000001007   
      1007  18  8.889173E-05  9.000019E+00  7.496409E-08 -7.230467E-06  1.152067E-15 -2.983580E-14 _shell_0000001007   
      1007  19  7.685197E-05  9.000024E+00  9.908921E-08 -1.387707E-05  5.239441E-08  1.372778E-08 _shell_0000001007   
      1007  20  7.890401E-05  9.000024E+00 -3.411887E-08 -9.884702E-06 -2.907856E-10  2.118043E-08 _shell_0000001007   
      1007  21  8.113368E-05  9.000023E+00  5.409533E-08 -6.215080E-06 -5.297597E-08  1.566665E-08 _shell_0000001007   
      1007  22  8.131120E-05  9.000022E+00  3.536038E-08 -1.511060E-05  4.302057E-08 -4.505653E-09 _shell_0000001007   
      1007  23  8.295119E-05  9.000021E+00 -8.098721E-08 -1.077376E-05 -1.646600E-09  4.936642E-09 _shell_0000001007   
      1007  24  8.475586E-05  9.000021E+00 -6.167406E-09 -6.759666E-06 -4.631376E-08  1.412584E-09 _shell_0000001007   
      1007  25  8.623200E-05  9.000020E+00  6.127109E-08 -1.631974E-05  3.921675E-08 -2.273913E-08 _shell_0000001007   
      1007  26  8.747108E-05  9.000019E+00 -1.222260E-08 -1.163843E-05  2.567606E-09 -1.130710E-08 _shell_0000001007   
      1007  27  8.886188E-05  9.000019E+00  7.519627E-08 -7.279867E-06 -3.408153E-08 -1.284151E-08 _shell_0000001007   
      1008   1  8.176299E-05  9.000023E+00  6.449271E-08 -3.865475E-06 -5.631352E-08 -1.385914E-08 _shell_0000001008   
      1008   2  8.164670E-05  9.000023E+00 -3.665007E-08 -2.270293E-14  3.582328E-15 -1.720786E-08 _shell_0000001008   
      1008   3  8.176299E-05  9.000023E+00  6.449269E-08  3.865475E-06  5.631352E-08 -1.385916E-08 _shell_0000001008   
      1008   4  8.530084E-05  9.000021E+00  1.680837E-08 -4.181697E-06 -4.478967E-08 -1.840925E-10 _shell_0000001008   
      1008   5  8.518790E-05  9.000021E+00 -7.652073E-08 -2.580804E-14 -1.603458E-15 -3.532776E-09 _shell_0000001008   
      1008   6  8.530084E-05  9.000021E+00  1.680837E-08  4.181697E-06  4.478967E-08 -1.841050E-10 _shell_0000001008   
      1008   7  8.921189E-05  9.000019E+00  6.950194E-08 -4.497918E-06 -3.326581E-08  1.349100E-08 _shell_0000001008   
      1008   8  8.910229E-05  9.000019E+00 -1.601349E-08 -4.245345E-14 -9.671650E-16  1.014231E-08 _shell_0000001008   
      1008   9  8.921189E-05  9.000019E+00  6.950194E-08  4.497918E-06  3.326581E-08  1.349098E-08 _shell_0000001008   
      1008  10  8.180220E-05  9.000023E+00  6.998484E-08 -3.854321E-06  5.666116E-16 -1.527103E-14 _shell_0000001008   
      1008  11  8.168591E-05  9.000023E+00 -3.115793E-08 -3.756673E-14  3.313261E-15  4.887774E-16 _shell_0000001008   
      1008  12  8.180220E-05  9.000023E+00  6.998486E-08  3.854321E-06  1.465435E-15 -1.774504E-14 _shell_0000001008   
      1008  13  8.532053E-05  9.000021E+00  1.393467E-08 -4.170542E-06  7.890030E-16 -2.606255E-14 _shell_0000001008   
      1008  14  8.520759E-05  9.000021E+00 -7.939444E-08 -2.952398E-14  2.137944E-15  4.989058E-16 _shell_0000001008   
      1008  15  8.532053E-05  9.000021E+00  1.393468E-08  4.170542E-06  1.781612E-16 -2.227776E-14 _shell_0000001008   
      1008  16  8.921205E-05  9.000019E+00  5.826248E-08 -4.486763E-06  3.553541E-15 -3.341290E-14 _shell_0000001008   
      1008  17  8.910246E-05  9.000019E+00 -2.725301E-08 -3.980648E-14  4.340401E-15  4.072274E-16 _shell_0000001008   
      1008  18  8.921205E-05  9.000019E+00  5.826241E-08  4.486763E-06 -2.735409E-16 -2.660343E-14 _shell_0000001008   
      1008  19  8.176299E-05  9.000023E+00  6.449268E-08 -3.865475E-06  5.631351E-08  1.385911E-08 _shell_0000001008   
      1008  20  8.164670E-05  9.000023E+00 -3.665008E-08 -4.001009E-14  1.934330E-15  1.720787E-08 _shell_0000001008   
      1008  21  8.176299E-05  9.000023E+00  6.449273E-08  3.865475E-06 -5.631351E-08  1.385912E-08 _shell_0000001008   
      1008  22  8.530084E-05  9.000021E+00  1.680834E-08 -4.181697E-06  4.478967E-08  1.840437E-10 _shell_0000001008   
      1008  23  8.518790E-05  9.000021E+00 -7.652075E-08 -2.356828E-14 -1.323489E-15  3.532767E-09 _shell_0000001008   
      1008  24  8.530084E-05  9.000021E+00  1.680835E-08  4.181697E-06 -4.478967E-08  1.840606E-10 _shell_0000001008   
      1008  25  8.921189E-05  9.000019E+00  6.950195E-08 -4.497918E-06  3.326582E-08 -1.349106E-08 _shell_0000001008   
      1008  26  8.910229E-05  9.000019E+00 -1.601352E-08 -3.738856E-14 -2.112492E-15 -1.014230E-08 _shell_0000001008   
      1008  27  8.921189E-05  9.000019E+00  6.950191E-08  4.497918E-06 -3.326582E-08 -1.349103E-08 _shell_0000001008   
      1009   1  8.113368E-05  9.000023E+00  5.409538E-08  6.215080E-06 -5.297597E-08 -1.566671E-08 _shell_0000001009   
      1009   2  7.890401E-05  9.000024E+00 -3.411885E-08  9.884702E-06 -2.907835E-10 -2.118045E-08 _shell_0000001009   
      1009   3  7.685197E-05  9.000024E+00  9.908924E-08  1.387707E-05  5.239439E-08 -1.372780E-08 _shell_0000001009   
      1009   4  8.475586E-05  9.000021E+00 -6.167367E-09  6.759666E-06 -4.631376E-08 -1.412689E-09 _shell_0000001009   
      1009   5  8.295119E-05  9.000021E+00 -8.098718E-08  1.077376E-05 -1.646598E-09 -4.936693E-09 _shell_0000001009   
      1009   6  8.131120E-05  9.000022E+00  3.536043E-08  1.511060E-05  4.302056E-08  4.505615E-09 _shell_0000001009   
      1009   7  8.886188E-05  9.000019E+00  7.519623E-08  7.279867E-06 -3.408154E-08  1.284139E-08 _shell_0000001009   
      1009   8  8.747108E-05  9.000019E+00 -1.222259E-08  1.163843E-05  2.567607E-09  1.130706E-08 _shell_0000001009   
      1009   9  8.623200E-05  9.000020E+00  6.127112E-08  1.631974E-05  3.921675E-08  2.273905E-08 _shell_0000001009   
      1009  10  8.120159E-05  9.000023E+00  7.017714E-08  6.172543E-06 -2.143997E-15 -2.178666E-14 _shell_0000001009   
      1009  11  7.896162E-05  9.000024E+00 -2.833126E-08  9.831289E-06 -7.066031E-16 -7.329066E-16 _shell_0000001009   
      1009  12  7.689929E-05  9.000024E+00  9.458270E-08  1.381278E-05 -4.107860E-15 -1.115304E-14 _shell_0000001009   
      1009  13  8.480474E-05  9.000021E+00  1.757395E-09  6.713698E-06 -3.193566E-15 -2.443364E-14 _shell_0000001009   
      1009  14  8.298978E-05  9.000021E+00 -8.335657E-08  1.071691E-05 -2.596079E-15 -1.893555E-15 _shell_0000001009   
      1009  15  8.133949E-05  9.000022E+00  2.269691E-08  1.504288E-05 -7.956805E-16 -2.054704E-14 _shell_0000001009   
      1009  16  8.889173E-05  9.000019E+00  7.496411E-08  7.230467E-06 -4.326796E-15 -3.320929E-14 _shell_0000001009   
      1009  17  8.749063E-05  9.000019E+00 -2.274890E-08  1.157815E-05 -6.331427E-15 -4.072276E-15 _shell_0000001009   
      1009  18  8.624125E-05  9.000020E+00  4.045067E-08  1.624859E-05 -6.928469E-15 -2.431278E-14 _shell_0000001009   
      1009  19  8.113368E-05  9.000023E+00  5.409541E-08  6.215080E-06  5.297597E-08  1.566667E-08 _shell_0000001009   
      1009  20  7.890401E-05  9.000024E+00 -3.411886E-08  9.884702E-06  2.907700E-10  2.118044E-08 _shell_0000001009   
      1009  21  7.685197E-05  9.000024E+00  9.908926E-08  1.387707E-05 -5.239442E-08  1.372776E-08 _shell_0000001009   
      1009  22  8.475586E-05  9.000021E+00 -6.167385E-09  6.759666E-06  4.631376E-08  1.412640E-09 _shell_0000001009   
      1009  23  8.295119E-05  9.000021E+00 -8.098720E-08  1.077376E-05  1.646588E-09  4.936678E-09 _shell_0000001009   
      1009  24  8.131120E-05  9.000022E+00  3.536042E-08  1.511060E-05 -4.302056E-08 -4.505654E-09 _shell_0000001009   
      1009  25  8.886188E-05  9.000019E+00  7.519623E-08  7.279867E-06  3.408153E-08 -1.284145E-08 _shell_0000001009   
      1009  26  8.747108E-05  9.000019E+00 -1.222263E-08  1.163843E-05 -2.567627E-09 -1.130707E-08 _shell_0000001009   
      1009  27  8.623200E-05  9.000020E+00  6.127113E-08  1.631974E-05 -3.921675E-08 -2.273910E-08 _shell_0000001009   
      1010   1  7.486693E-05  9.000025E+00  4.504724E-08  1.617720E-05 -3.665085E-08 -1.873182E-08 _shell_0000001010   
      1010   2  7.045995E-05  9.000024E+00 -3.341672E-08  1.927134E-05 -6.093903E-09 -3.234818E-08 _shell_0000001010   
      1010   3  6.600908E-05  9.000024E+00  1.463811E-07  2.289319E-05  2.446305E-08 -1.590661E-08 _shell_0000001010   
      1010   4  7.956775E-05  9.000022E+00 -4.742183E-08  1.765443E-05 -3.707446E-08  8.002968E-10 _shell_0000001010   
      1010   5  7.591617E-05  9.000022E+00 -8.429699E-08  2.115189E-05 -1.227903E-08 -1.034268E-08 _shell_0000001010   
      1010   6  7.219062E-05  9.000022E+00  6.695454E-08  2.517707E-05  1.251639E-08  8.572211E-09 _shell_0000001010   
      1010   7  8.506572E-05  9.000020E+00  7.513922E-08  1.912215E-05 -2.644313E-08  2.033246E-08 _shell_0000001010   
      1010   8  8.214741E-05  9.000021E+00  2.826315E-08  2.302293E-05 -7.409219E-09  1.166283E-08 _shell_0000001010   
      1010   9  7.912509E-05  9.000020E+00  9.937863E-08  2.745143E-05  1.162469E-08  3.305106E-08 _shell_0000001010   
      1010  10  7.500295E-05  9.000024E+00  7.317118E-08  1.607688E-05 -3.639595E-15 -2.199028E-14 _shell_0000001010   
      1010  11  7.057389E-05  9.000024E+00 -2.738393E-08  1.915543E-05  3.937713E-15 -1.264431E-14 _shell_0000001010   
      1010  12  6.610092E-05  9.000024E+00  1.303228E-07  2.276169E-05  6.283567E-15 -1.667606E-14 _shell_0000001010   
      1010  13  7.967649E-05  9.000022E+00 -3.099261E-08  1.754675E-05  1.437403E-15 -2.280474E-14 _shell_0000001010   
      1010  14  7.600281E-05  9.000022E+00 -8.995886E-08  2.102862E-05  4.072265E-15 -1.339773E-14 _shell_0000001010   
      1010  15  7.225518E-05  9.000022E+00  3.920155E-08  2.503820E-05  7.497932E-15 -3.008410E-14 _shell_0000001010   
      1010  16  8.514717E-05  9.000020E+00  7.987389E-08  1.900711E-05 -2.048876E-15 -3.076592E-14 _shell_0000001010   
      1010  17  8.220677E-05  9.000021E+00  1.090667E-08  2.289230E-05  8.258457E-15 -1.211502E-14 _shell_0000001010   
      1010  18  7.916235E-05  9.000020E+00  5.993102E-08  2.730520E-05  1.180671E-14 -3.660596E-14 _shell_0000001010   
      1010  19  7.486693E-05  9.000025E+00  4.504727E-08  1.617720E-05  3.665085E-08  1.873178E-08 _shell_0000001010   
      1010  20  7.045995E-05  9.000024E+00 -3.341671E-08  1.927134E-05  6.093912E-09  3.234816E-08 _shell_0000001010   
      1010  21  6.600908E-05  9.000024E+00  1.463811E-07  2.289319E-05 -2.446303E-08  1.590657E-08 _shell_0000001010   
      1010  22  7.956775E-05  9.000022E+00 -4.742184E-08  1.765443E-05  3.707446E-08 -8.003472E-10 _shell_0000001010   
      1010  23  7.591617E-05  9.000022E+00 -8.429699E-08  2.115189E-05  1.227904E-08  1.034263E-08 _shell_0000001010   
      1010  24  7.219062E-05  9.000022E+00  6.695451E-08  2.517707E-05 -1.251638E-08 -8.572276E-09 _shell_0000001010   
      1010  25  8.506572E-05  9.000020E+00  7.513926E-08  1.912215E-05  2.644313E-08 -2.033252E-08 _shell_0000001010   
      1010  26  8.214741E-05  9.000021E+00  2.826316E-08  2.302293E-05  7.409234E-09 -1.166284E-08 _shell_0000001010   
      1010  27  7.912509E-05  9.000020E+00  9.937862E-08  2.745143E-05 -1.162467E-08 -3.305114E-08 _shell_0000001010   
      1011   1  6.242601E-05  9.000023E+00 -3.285785E-08  2.462396E-05  1.698216E-08 -1.908894E-08 _shell_0000001011   
      1011   2  5.621462E-05  9.000019E+00  3.549596E-08  2.567316E-05 -1.352492E-08 -3.949982E-08 _shell_0000001011   
      1011   3  4.934703E-05  9.000014E+00  3.422394E-07  2.712841E-05 -4.403196E-08 -1.905994E-08 _shell_0000001011   
      1011   4  6.891230E-05  9.000021E+00 -1.603524E-07  2.717392E-05  2.022657E-09  6.828984E-09 _shell_0000001011   
      1011   5  6.340976E-05  9.000018E+00 -7.609317E-08  2.862703E-05 -1.496633E-08 -1.110966E-08 _shell_0000001011   
      1011   6  5.721017E-05  9.000013E+00  1.512373E-07  3.048619E-05 -3.195530E-08  1.180238E-08 _shell_0000001011   
      1011   7  7.674814E-05  9.000020E+00  4.013726E-08  2.979503E-05  1.169614E-08  3.274697E-08 _shell_0000001011   
      1011   8  7.190518E-05  9.000018E+00  2.534809E-08  3.165205E-05  8.225220E-09  1.728050E-08 _shell_0000001011   
      1011   9  6.632433E-05  9.000013E+00  5.831174E-08  3.391512E-05  4.754319E-09  4.266472E-08 _shell_0000001011   
      1011  10  6.270754E-05  9.000023E+00  1.995309E-08  2.446061E-05  8.710545E-15 -1.771439E-14 _shell_0000001011   
      1011  11  5.644351E-05  9.000019E+00  3.566392E-08  2.550463E-05  8.000897E-15 -6.535888E-15 _shell_0000001011   
      1011  12  4.952328E-05  9.000013E+00  2.897644E-07  2.695469E-05  5.710915E-15 -8.705556E-16 _shell_0000001011   
      1011  13  6.918477E-05  9.000021E+00 -1.114269E-07  2.699302E-05  7.545821E-15 -2.687700E-14 _shell_0000001011   
      1011  14  6.362958E-05  9.000018E+00 -7.981059E-08  2.844095E-05  5.293941E-15 -4.795050E-15 _shell_0000001011   
      1011  15  5.737735E-05  9.000013E+00  9.487692E-08  3.029492E-05  8.764466E-15 -9.292484E-15 _shell_0000001011   
      1011  16  7.701154E-05  9.000020E+00  8.517753E-08  2.959658E-05  1.023762E-14 -3.972492E-14 _shell_0000001011   
      1011  17  7.211594E-05  9.000018E+00  1.774533E-08  3.144842E-05  8.965057E-15 -3.665041E-15 _shell_0000001011   
      1011  18  6.648244E-05  9.000013E+00 -1.934001E-09  3.370630E-05  1.250967E-14 -7.209218E-15 _shell_0000001011   
      1011  19  6.242601E-05  9.000023E+00 -3.285788E-08  2.462396E-05 -1.698213E-08  1.908891E-08 _shell_0000001011   
      1011  20  5.621462E-05  9.000019E+00  3.549596E-08  2.567316E-05  1.352493E-08  3.949982E-08 _shell_0000001011   
      1011  21  4.934703E-05  9.000014E+00  3.422394E-07  2.712841E-05  4.403197E-08  1.905994E-08 _shell_0000001011   
      1011  22  6.891230E-05  9.000021E+00 -1.603525E-07  2.717392E-05 -2.022638E-09 -6.829038E-09 _shell_0000001011   
      1011  23  6.340976E-05  9.000018E+00 -7.609318E-08  2.862703E-05  1.496634E-08  1.110963E-08 _shell_0000001011   
      1011  24  5.721017E-05  9.000013E+00  1.512373E-07  3.048619E-05  3.195532E-08 -1.180240E-08 _shell_0000001011   
      1011  25  7.674814E-05  9.000020E+00  4.013725E-08  2.979503E-05 -1.169612E-08 -3.274704E-08 _shell_0000001011   
      1011  26  7.190518E-05  9.000018E+00  2.534807E-08  3.165205E-05 -8.225205E-09 -1.728051E-08 _shell_0000001011   
      1011  27  6.632433E-05  9.000013E+00  5.831174E-08  3.391512E-05 -4.754290E-09 -4.266475E-08 _shell_0000001011   
      1012   1  4.418313E-05  9.000008E+00 -1.238571E-07  2.667463E-05  1.442088E-07 -9.019194E-09 _shell_0000001012   
      1012   2  3.824986E-05  8.999995E+00  5.491889E-08  2.317870E-05 -5.697778E-08 -4.383599E-08 _shell_0000001012   
      1012   3  2.983570E-05  8.999973E+00 -3.594481E-07  1.947795E-05 -2.581643E-07 -1.135295E-07 _shell_0000001012   
      1012   4  5.207207E-05  9.000008E+00 -3.884004E-07  3.005960E-05  1.302248E-07  2.211485E-08 _shell_0000001012   
      1012   5  4.656196E-05  8.999997E+00  1.398111E-07  2.648428E-05 -8.496634E-08 -1.424028E-08 _shell_0000001012   
      1012   6  3.860582E-05  8.999977E+00  1.562588E-07  2.270414E-05 -3.001575E-07 -8.547221E-08 _shell_0000001012   
      1012   7  6.183882E-05  9.000009E+00 -3.364235E-07  3.377475E-05  1.368781E-07  5.324895E-08 _shell_0000001012   
      1012   8  5.671059E-05  8.999999E+00  4.449162E-07  3.012004E-05 -9.231759E-08  1.535542E-08 _shell_0000001012   
      1012   9  4.917121E-05  8.999982E+00  7.958712E-07  2.626050E-05 -3.215133E-07 -5.741485E-08 _shell_0000001012   
      1012  10  4.459485E-05  9.000008E+00 -9.217781E-08  2.649561E-05  4.294677E-15 -6.922846E-15 _shell_0000001012   
      1012  11  3.861342E-05  8.999994E+00  3.843362E-08  2.300225E-05 -5.690784E-16 -4.601588E-15 _shell_0000001012   
      1012  12  3.015109E-05  8.999973E+00 -4.240979E-07  1.930407E-05  7.364691E-15  7.121303E-15 _shell_0000001012   
      1012  13  5.248830E-05  9.000008E+00 -3.547896E-07  2.986452E-05  7.608853E-15 -8.144460E-15 _shell_0000001012   
      1012  14  4.693002E-05  8.999996E+00  1.252574E-07  2.629178E-05 -1.221705E-15 -3.166137E-15 _shell_0000001012   
      1012  15  3.892572E-05  8.999977E+00  9.354052E-08  2.251420E-05 -3.063309E-15  8.372584E-16 _shell_0000001012   
      1012  16  6.225956E-05  9.000009E+00 -3.008812E-07  3.356361E-05  5.777499E-15 -1.651296E-14 _shell_0000001012   
      1012  17  5.708316E-05  8.999999E+00  4.322940E-07  2.991147E-05 -5.551502E-15  4.072152E-16 _shell_0000001012   
      1012  18  4.949562E-05  8.999981E+00  7.350844E-07  2.605451E-05 -1.294235E-15  3.836825E-15 _shell_0000001012   
      1012  19  4.418313E-05  9.000008E+00 -1.238571E-07  2.667463E-05 -1.442088E-07  9.019182E-09 _shell_0000001012   
      1012  20  3.824986E-05  8.999995E+00  5.491888E-08  2.317870E-05  5.697780E-08  4.383598E-08 _shell_0000001012   
      1012  21  2.983570E-05  8.999973E+00 -3.594480E-07  1.947795E-05  2.581644E-07  1.135295E-07 _shell_0000001012   
      1012  22  5.207207E-05  9.000008E+00 -3.884004E-07  3.005960E-05 -1.302248E-07 -2.211488E-08 _shell_0000001012   
      1012  23  4.656196E-05  8.999997E+00  1.398111E-07  2.648428E-05  8.496633E-08  1.424026E-08 _shell_0000001012   
      1012  24  3.860582E-05  8.999977E+00  1.562588E-07  2.270414E-05  3.001575E-07  8.547221E-08 _shell_0000001012   
      1012  25  6.183882E-05  9.000009E+00 -3.364235E-07  3.377475E-05 -1.368781E-07 -5.324898E-08 _shell_0000001012   
      1012  26  5.671059E-05  8.999999E+00  4.449162E-07  3.012004E-05  9.231757E-08 -1.535542E-08 _shell_0000001012   
      1012  27  4.917121E-05  8.999982E+00  7.958713E-07  2.626050E-05  3.215133E-07  5.741487E-08 _shell_0000001012   
      1013   1  2.534857E-05  8.999958E+00 -7.350599E-07  1.520142E-05  2.930245E-07 -1.604848E-08 _shell_0000001013   
      1013   2  2.674194E-05  8.999927E+00  1.134861E-06  8.186552E-06  7.223619E-08  2.090134E-07 _shell_0000001013   
      1013   3  2.190356E-05  8.999878E+00 -5.178309E-07  1.160464E-06 -1.485521E-07  1.209257E-07 _shell_0000001013   
      1013   4  3.340612E-05  8.999962E+00 -6.820486E-07  1.813688E-05  3.374851E-07 -5.677508E-09 _shell_0000001013   
      1013   5  3.429736E-05  8.999930E+00  5.397149E-07  9.072896E-06  5.119401E-08  1.601439E-07 _shell_0000001013   
      1013   6  2.926999E-05  8.999880E+00 -1.030451E-06 -2.307253E-09 -2.350971E-07  1.281562E-08 _shell_0000001013   
      1013   7  4.234659E-05  8.999966E+00 -9.202942E-07  2.095081E-05  3.831025E-07  4.693518E-09 _shell_0000001013   
      1013   8  4.273338E-05  8.999933E+00 -3.520860E-07  9.837712E-06  3.130855E-08  1.112744E-07 _shell_0000001013   
      1013   9  3.751471E-05  8.999883E+00 -1.845125E-06 -1.286606E-06 -3.204854E-07 -9.529440E-08 _shell_0000001013   
      1013  10  2.600835E-05  8.999958E+00 -6.716390E-07  1.517244E-05  5.007322E-15  9.773502E-15 _shell_0000001013   
      1013  11  2.733247E-05  8.999926E+00  1.129033E-06  8.225873E-06  3.532342E-16  5.579128E-15 _shell_0000001013   
      1013  12  2.242484E-05  8.999877E+00 -5.929066E-07  1.268089E-06  2.504028E-15 -1.914140E-15 _shell_0000001013   
      1013  13  3.418543E-05  8.999962E+00 -5.673998E-07  1.808482E-05  5.178814E-15  5.701286E-15 _shell_0000001013   
      1013  14  3.500742E-05  8.999929E+00  5.851154E-07  9.089134E-06  1.030155E-15  2.932606E-15 _shell_0000001013   
      1013  15  2.991080E-05  8.999879E+00 -1.054299E-06  8.223458E-08  4.693996E-15 -1.451222E-14 _shell_0000001013   
      1013  16  4.324543E-05  8.999966E+00 -7.544173E-07  2.087567E-05  4.809704E-15  2.626854E-15 _shell_0000001013   
      1013  17  4.356297E-05  8.999932E+00 -2.554574E-07  9.830867E-06  3.503253E-15  8.755301E-15 _shell_0000001013   
      1013  18  3.827505E-05  8.999882E+00 -1.817745E-06 -1.225147E-06  6.745481E-15 -1.087428E-14 _shell_0000001013   
      1013  19  2.534857E-05  8.999958E+00 -7.350599E-07  1.520142E-05 -2.930245E-07  1.604851E-08 _shell_0000001013   
      1013  20  2.674194E-05  8.999927E+00  1.134861E-06  8.186552E-06 -7.223619E-08 -2.090134E-07 _shell_0000001013   
      1013  21  2.190356E-05  8.999878E+00 -5.178309E-07  1.160464E-06  1.485521E-07 -1.209257E-07 _shell_0000001013   
      1013  22  3.340612E-05  8.999962E+00 -6.820486E-07  1.813688E-05 -3.374851E-07  5.677520E-09 _shell_0000001013   
      1013  23  3.429736E-05  8.999930E+00  5.397149E-07  9.072896E-06 -5.119403E-08 -1.601439E-07 _shell_0000001013   
      1013  24  2.926998E-05  8.999880E+00 -1.030451E-06 -2.307279E-09  2.350971E-07 -1.281565E-08 _shell_0000001013   
      1013  25  4.234659E-05  8.999966E+00 -9.202941E-07  2.095081E-05 -3.831025E-07 -4.693518E-09 _shell_0000001013   
      1013  26  4.273338E-05  8.999933E+00 -3.520860E-07  9.837712E-06 -3.130855E-08 -1.112744E-07 _shell_0000001013   
      1013  27  3.751471E-05  8.999883E+00 -1.845125E-06 -1.286606E-06  3.204854E-07  9.529437E-08 _shell_0000001013   
      1014   1  2.629578E-05  8.999845E+00  6.975771E-07 -1.797323E-06  4.947724E-08 -5.498613E-08 _shell_0000001014   
      1014   2  2.505049E-05  8.999785E+00 -7.344775E-07  9.368068E-07 -9.747258E-08 -2.218522E-07 _shell_0000001014   
      1014   3  2.593644E-05  8.999730E+00  7.061249E-07  5.221680E-06 -2.444224E-07 -1.603230E-07 _shell_0000001014   
      1014   4  3.529627E-05  8.999847E+00  9.650432E-07 -3.827774E-06  2.457267E-08 -1.395381E-07 _shell_0000001014   
      1014   5  3.477061E-05  8.999783E+00 -7.138184E-07  1.229132E-06  4.572994E-07 -1.662065E-07 _shell_0000001014   
      1014   6  3.614781E-05  8.999723E+00 -5.294510E-08  7.836781E-06  8.900262E-07  3.552021E-08 _shell_0000001014   
      1014   7  4.711708E-05  8.999850E+00  1.820874E-06 -6.669022E-06 -5.391752E-08 -2.240901E-07 _shell_0000001014   
      1014   8  4.741824E-05  8.999782E+00  1.452711E-07  7.106598E-07  9.584858E-07 -1.105609E-07 _shell_0000001014   
      1014   9  4.939384E-05  8.999717E+00  2.764815E-07  9.641085E-06  1.970889E-06  2.313634E-07 _shell_0000001014   
      1014  10  2.600631E-05  8.999844E+00  3.097977E-07 -1.527177E-06  3.530476E-15 -7.126288E-15 _shell_0000001014   
      1014  11  2.503931E-05  8.999785E+00 -8.439669E-07  1.556061E-06 -1.129459E-14 -4.092391E-15 _shell_0000001014   
      1014  12  2.620355E-05  8.999730E+00  8.749255E-07  6.190044E-06 -1.926384E-14  8.546516E-15 _shell_0000001014   
      1014  13  3.561774E-05  8.999846E+00  8.390958E-07 -3.464865E-06  1.781620E-15 -1.383596E-14 _shell_0000001014   
      1014  14  3.537038E-05  8.999783E+00 -5.614759E-07  1.941150E-06 -2.157369E-16 -5.558712E-15 _shell_0000001014   
      1014  15  3.702586E-05  8.999724E+00  3.776873E-07  8.897908E-06 -3.605100E-15 -1.301320E-14 _shell_0000001014   
      1014  16  4.804949E-05  8.999849E+00  1.956758E-06 -6.213350E-06  5.167278E-15 -1.712392E-14 _shell_0000001014   
      1014  17  4.862894E-05  8.999782E+00  5.594456E-07  1.515441E-06  7.491861E-15 -3.868533E-15 _shell_0000001014   
      1014  18  5.088284E-05  8.999718E+00  9.689459E-07  1.079498E-05  8.316302E-16 -2.739258E-14 _shell_0000001014   
      1014  19  2.629578E-05  8.999845E+00  6.975770E-07 -1.797323E-06 -4.947723E-08  5.498612E-08 _shell_0000001014   
      1014  20  2.505049E-05  8.999785E+00 -7.344776E-07  9.368069E-07  9.747259E-08  2.218522E-07 _shell_0000001014   
      1014  21  2.593644E-05  8.999730E+00  7.061249E-07  5.221680E-06  2.444224E-07  1.603230E-07 _shell_0000001014   
      1014  22  3.529627E-05  8.999847E+00  9.650432E-07 -3.827774E-06 -2.457267E-08  1.395381E-07 _shell_0000001014   
      1014  23  3.477061E-05  8.999783E+00 -7.138184E-07  1.229132E-06 -4.572994E-07  1.662065E-07 _shell_0000001014   
      1014  24  3.614781E-05  8.999723E+00 -5.294521E-08  7.836781E-06 -8.900262E-07 -3.552022E-08 _shell_0000001014   
      1014  25  4.711708E-05  8.999850E+00  1.820874E-06 -6.669022E-06  5.391752E-08  2.240901E-07 _shell_0000001014   
      1014  26  4.741824E-05  8.999782E+00  1.452711E-07  7.106598E-07 -9.584858E-07  1.105609E-07 _shell_0000001014   
      1014  27  4.939384E-05  8.999717E+00  2.764814E-07  9.641085E-06 -1.970889E-06 -2.313635E-07 _shell_0000001014   
      1015   1  1.782809E-05  8.999698E+00 -6.359087E-07  1.034673E-05  9.794756E-08  3.411877E-09 _shell_0000001015   
      1015   2  1.170910E-05  8.999643E+00  1.099191E-06  8.907573E-06 -3.231228E-08  3.264969E-08 _shell_0000001015   
      1015   3 -1.156929E-06  8.999569E+00 -1.059321E-06  1.706144E-06 -1.625721E-07 -4.407916E-07 _shell_0000001015   
      1015   4  2.879223E-05  8.999693E+00 -9.444402E-07  1.701890E-05  1.383901E-06  2.198515E-07 _shell_0000001015   
      1015   5  1.724496E-05  8.999645E+00  7.929985E-07  1.467569E-05  3.387808E-08  1.796715E-07 _shell_0000001015   
      1015   6 -5.466626E-07  8.999578E+00 -1.902567E-07  6.570214E-06 -1.316145E-06 -3.631877E-07 _shell_0000001015   
      1015   7  4.318040E-05  8.999689E+00 -1.246257E-07  2.532589E-05  2.838025E-06  4.362913E-07 _shell_0000001015   
      1015   8  2.586852E-05  8.999648E+00  8.303563E-07  2.207863E-05  2.682389E-07  3.266933E-07 _shell_0000001015   
      1015   9  2.814958E-06  8.999588E+00  2.375626E-07  1.306910E-05 -2.301547E-06 -2.855838E-07 _shell_0000001015   
      1015  10  1.910477E-05  8.999699E+00 -6.406954E-08  1.110441E-05 -2.107336E-14 -2.443510E-15 _shell_0000001015   
      1015  11  1.252930E-05  8.999643E+00  1.214551E-06  8.938937E-06 -1.171392E-14 -1.661472E-14 _shell_0000001015   
      1015  12 -7.932153E-07  8.999568E+00 -1.400439E-06  1.011190E-06 -1.032424E-14  1.893084E-14 _shell_0000001015   
      1015  13  2.879784E-05  8.999693E+00 -9.173394E-07  1.762442E-05  1.882113E-15 -1.710322E-14 _shell_0000001015   
      1015  14  1.679410E-05  8.999644E+00  3.636206E-07  1.455490E-05 -2.443410E-15 -1.257344E-14 _shell_0000001015   
      1015  15 -1.454005E-06  8.999576E+00 -1.076113E-06  5.723101E-06 -1.968627E-14  9.521072E-15 _shell_0000001015   
      1015  16  4.191496E-05  8.999689E+00 -6.422630E-07  2.577925E-05  4.520098E-16 -3.382011E-14 _shell_0000001015   
      1015  17  2.414660E-05  8.999646E+00 -1.437598E-07  2.180567E-05  4.275887E-15 -5.497570E-15 _shell_0000001015   
      1015  18  6.365598E-07  8.999586E+00 -1.193032E-06  1.206983E-05 -1.157974E-14  1.488282E-14 _shell_0000001015   
      1015  19  1.782809E-05  8.999698E+00 -6.359087E-07  1.034673E-05 -9.794758E-08 -3.411881E-09 _shell_0000001015   
      1015  20  1.170910E-05  8.999643E+00  1.099191E-06  8.907573E-06  3.231223E-08 -3.264970E-08 _shell_0000001015   
      1015  21 -1.156929E-06  8.999569E+00 -1.059321E-06  1.706144E-06  1.625721E-07  4.407917E-07 _shell_0000001015   
      1015  22  2.879223E-05  8.999693E+00 -9.444402E-07  1.701890E-05 -1.383901E-06 -2.198516E-07 _shell_0000001015   
      1015  23  1.724496E-05  8.999645E+00  7.929985E-07  1.467569E-05 -3.387809E-08 -1.796715E-07 _shell_0000001015   
      1015  24 -5.466627E-07  8.999578E+00 -1.902567E-07  6.570214E-06  1.316145E-06  3.631877E-07 _shell_0000001015   
      1015  25  4.318040E-05  8.999689E+00 -1.246257E-07  2.532589E-05 -2.838025E-06 -4.362913E-07 _shell_0000001015   
      1015  26  2.586852E-05  8.999648E+00  8.303563E-07  2.207863E-05 -2.682389E-07 -3.266933E-07 _shell_0000001015   
      1015  27  2.814958E-06  8.999588E+00  2.375626E-07  1.306910E-05  2.301547E-06  2.855838E-07 _shell_0000001015   
      1101   1  6.865037E-06  8.999603E+00  1.621769E-06 -1.731454E-05  1.275676E-06  2.156579E-06 _shell_0000001101   
      1101   2  2.938262E-05  8.999645E+00 -3.514502E-07 -3.040361E-05  1.385549E-07 -1.440346E-06 _shell_0000001101   
      1101   3  5.243369E-05  8.999687E+00  4.705057E-07 -3.546383E-05 -9.985664E-07  4.454507E-07 _shell_0000001101   
      1101   4  1.188288E-05  8.999629E+00 -9.437732E-07 -3.230877E-05 -3.658940E-06  1.366662E-06 _shell_0000001101   
      1101   5  4.025569E-05  8.999651E+00  2.744619E-06 -4.317968E-05  1.347043E-06 -2.251465E-06 _shell_0000001101   
      1101   6  6.367928E-05  8.999666E+00 -3.564832E-06 -4.602173E-05  6.353026E-06 -3.868690E-07 _shell_0000001101   
      1101   7  1.944521E-05  8.999656E+00 -6.258027E-06 -5.199356E-05 -9.418299E-06  5.767447E-07 _shell_0000001101   
      1101   8  5.532275E-05  8.999658E+00  6.940781E-06 -6.064630E-05  1.730788E-06 -3.062583E-06 _shell_0000001101   
      1101   9  8.076833E-05  8.999649E+00 -2.651276E-06 -6.127019E-05  1.287987E-05 -1.219189E-06 _shell_0000001101   
      1101  10  3.329550E-06  8.999595E+00 -1.696976E-06 -1.723830E-05 -2.757531E-14 -3.104102E-14 _shell_0000001101   
      1101  11  2.767895E-05  8.999642E+00 -1.838374E-06 -2.777607E-05 -1.419554E-14  1.148850E-14 _shell_0000001101   
      1101  12  5.256185E-05  8.999688E+00  8.154037E-07 -3.028498E-05  5.930476E-15 -2.086035E-14 _shell_0000001101   
      1101  13  1.281218E-05  8.999624E+00 -2.349038E-06 -3.162193E-05 -3.252743E-14 -2.296277E-14 _shell_0000001101   
      1101  14  4.301682E-05  8.999650E+00  3.171176E-06 -3.994153E-05 -8.202256E-15 -9.061888E-16 _shell_0000001101   
      1101  15  6.827222E-05  8.999669E+00 -1.306454E-06 -4.023228E-05  1.309397E-14 -2.145102E-14 _shell_0000001101   
      1101  16  2.483930E-05  8.999652E+00 -5.749812E-06 -5.069611E-05 -2.252133E-14 -1.069979E-14 _shell_0000001101   
      1101  17  6.254866E-05  8.999659E+00  9.280818E-06 -5.679754E-05 -3.142371E-15 -1.402362E-14 _shell_0000001101   
      1101  18  8.982606E-05  8.999654E+00  1.520583E-06 -5.487013E-05  9.703894E-15 -2.468425E-14 _shell_0000001101   
      1101  19  6.865037E-06  8.999603E+00  1.621769E-06 -1.731454E-05 -1.275676E-06 -2.156580E-06 _shell_0000001101   
      1101  20  2.938262E-05  8.999645E+00 -3.514502E-07 -3.040361E-05 -1.385549E-07  1.440346E-06 _shell_0000001101   
      1101  21  5.243369E-05  8.999687E+00  4.705057E-07 -3.546383E-05  9.985664E-07 -4.454507E-07 _shell_0000001101   
      1101  22  1.188288E-05  8.999629E+00 -9.437731E-07 -3.230877E-05  3.658939E-06 -1.366662E-06 _shell_0000001101   
      1101  23  4.025569E-05  8.999651E+00  2.744619E-06 -4.317968E-05 -1.347043E-06  2.251465E-06 _shell_0000001101   
      1101  24  6.367928E-05  8.999666E+00 -3.564832E-06 -4.602173E-05 -6.353026E-06  3.868689E-07 _shell_0000001101   
      1101  25  1.944521E-05  8.999656E+00 -6.258027E-06 -5.199356E-05  9.418299E-06 -5.767447E-07 _shell_0000001101   
      1101  26  5.532275E-05  8.999658E+00  6.940781E-06 -6.064630E-05 -1.730788E-06  3.062583E-06 _shell_0000001101   
      1101  27  8.076833E-05  8.999649E+00 -2.651276E-06 -6.127019E-05 -1.287987E-05  1.219189E-06 _shell_0000001101   
      1102   1  6.216035E-05  8.999717E+00  2.027675E-06 -1.382665E-05 -6.372590E-07  1.398179E-06 _shell_0000001102   
      1102   2  5.471657E-05  8.999776E+00 -9.385087E-07  1.534053E-06 -2.306414E-07 -8.928671E-08 _shell_0000001102   
      1102   3  5.276768E-05  8.999849E+00  1.235219E-06  9.834812E-06  1.759763E-07 -5.490652E-07 _shell_0000001102   
      1102   4  8.319703E-05  8.999696E+00 -1.682607E-07 -1.491743E-05  5.321458E-06  7.201310E-07 _shell_0000001102   
      1102   5  7.143931E-05  8.999769E+00 -3.137171E-07  3.623871E-06  3.066622E-06 -2.159814E-07 _shell_0000001102   
      1102   6  6.414881E-05  8.999854E+00  2.282800E-06  1.510523E-05  8.117856E-07 -1.244065E-07 _shell_0000001102   
      1102   7  1.079054E-04  8.999678E+00  2.002473E-06 -1.334657E-05  1.179053E-05  4.208279E-08 _shell_0000001102   
      1102   8  9.081309E-05  8.999764E+00  2.296072E-06  8.375337E-06  6.874243E-06 -3.426762E-07 _shell_0000001102   
      1102   9  7.716026E-05  8.999860E+00  2.933707E-06  2.303729E-05  1.957953E-06  3.002522E-07 _shell_0000001102   
      1102  10  6.340616E-05  8.999719E+00  3.068366E-06 -9.489315E-06  5.192091E-15 -2.615429E-14 _shell_0000001102   
      1102  11  5.543435E-05  8.999777E+00 -4.258501E-07  3.489917E-06 -1.048934E-15  2.325944E-15 _shell_0000001102   
      1102  12  5.295743E-05  8.999849E+00  1.219844E-06  9.409202E-06 -2.896952E-15 -2.414358E-14 _shell_0000001102   
      1102  13  8.027526E-05  8.999697E+00 -9.136738E-07 -1.075611E-05  1.812301E-14 -1.973041E-14 _shell_0000001102   
      1102  14  6.798952E-05  8.999768E+00 -1.587163E-06  5.403724E-06  9.773405E-15 -3.298635E-15 _shell_0000001102   
      1102  15  6.017098E-05  8.999852E+00  4.813200E-07  1.450361E-05  6.802207E-15 -1.207321E-14 _shell_0000001102   
      1102  16  1.008161E-04  8.999677E+00 -5.290446E-07 -9.361253E-06  1.721814E-14 -2.291661E-14 _shell_0000001102   
      1102  17  8.319572E-05  8.999761E+00 -7.634788E-07  9.979179E-06  1.564770E-14 -1.544898E-14 _shell_0000001102   
      1102  18  6.901485E-05  8.999856E+00 -6.538775E-07  2.225966E-05  1.180057E-14 -1.944125E-14 _shell_0000001102   
      1102  19  6.216035E-05  8.999717E+00  2.027675E-06 -1.382665E-05  6.372590E-07 -1.398179E-06 _shell_0000001102   
      1102  20  5.471657E-05  8.999776E+00 -9.385087E-07  1.534053E-06  2.306414E-07  8.928668E-08 _shell_0000001102   
      1102  21  5.276768E-05  8.999849E+00  1.235219E-06  9.834812E-06 -1.759763E-07  5.490651E-07 _shell_0000001102   
      1102  22  8.319703E-05  8.999696E+00 -1.682607E-07 -1.491743E-05 -5.321458E-06 -7.201311E-07 _shell_0000001102   
      1102  23  7.143931E-05  8.999769E+00 -3.137172E-07  3.623871E-06 -3.066622E-06  2.159815E-07 _shell_0000001102   
      1102  24  6.414881E-05  8.999854E+00  2.282800E-06  1.510523E-05 -8.117856E-07  1.244065E-07 _shell_0000001102   
      1102  25  1.079054E-04  8.999678E+00  2.002473E-06 -1.334657E-05 -1.179053E-05 -4.208285E-08 _shell_0000001102   
      1102  26  9.081309E-05  8.999764E+00  2.296072E-06  8.375337E-06 -6.874243E-06  3.426762E-07 _shell_0000001102   
      1102  27  7.716026E-05  8.999860E+00  2.933707E-06  2.303729E-05 -1.957953E-06 -3.002522E-07 _shell_0000001102   
      1103   1  4.321900E-05  8.999886E+00 -1.524507E-06  1.522328E-06  1.327044E-07 -3.950110E-07 _shell_0000001103   
      1103   2  4.970720E-05  8.999938E+00  6.748730E-07 -1.127534E-05 -1.190553E-07 -1.145133E-07 _shell_0000001103   
      1103   3  4.877304E-05  8.999969E+00 -8.551521E-07 -2.281505E-05 -3.708150E-07  9.577962E-08 _shell_0000001103   
      1103   4  5.470921E-05  8.999895E+00 -3.492023E-07  2.286115E-06 -6.551421E-07  1.035084E-07 _shell_0000001103   
      1103   5  6.195105E-05  8.999945E+00  1.089257E-06 -1.246876E-05 -4.976322E-07  8.647467E-08 _shell_0000001103   
      1103   6  6.184073E-05  8.999974E+00 -1.037878E-06 -2.596569E-05 -3.401224E-07 -7.639523E-10 _shell_0000001103   
      1103   7  6.789978E-05  8.999904E+00 -6.879577E-09  2.631460E-06 -1.532683E-06  6.020278E-07 _shell_0000001103   
      1103   8  7.607464E-05  8.999952E+00  1.089231E-06 -1.408063E-05 -9.659034E-07  2.874626E-07 _shell_0000001103   
      1103   9  7.696755E-05  8.999979E+00 -1.216441E-06 -2.953477E-05 -3.991240E-07 -9.730750E-08 _shell_0000001103   
      1103  10  4.434464E-05  8.999886E+00 -1.248688E-06  8.454908E-07 -3.385878E-15 -2.432172E-14 _shell_0000001103   
      1103  11  5.069993E-05  8.999938E+00  8.177808E-07 -1.161889E-05 -1.214393E-15  1.189595E-14 _shell_0000001103   
      1103  12  4.963286E-05  8.999968E+00 -8.451554E-07 -2.282533E-05  7.258758E-15 -3.400412E-15 _shell_0000001103   
      1103  13  5.641809E-05  8.999895E+00  1.765757E-07  1.564973E-06  3.083580E-16 -1.810144E-14 _shell_0000001103   
      1103  14  6.352701E-05  8.999945E+00  1.482124E-06 -1.285662E-05 -2.443404E-15  2.351671E-15 _shell_0000001103   
      1103  15  6.328379E-05  8.999973E+00 -7.779223E-07 -2.602027E-05  6.527500E-15  1.499598E-14 _shell_0000001103   
      1103  16  7.019190E-05  8.999904E+00  7.688576E-07  1.866015E-06  6.211017E-15 -2.576725E-14 _shell_0000001103   
      1103  17  7.823385E-05  8.999952E+00  1.732057E-06 -1.451280E-05 -3.772800E-15 -1.687424E-14 _shell_0000001103   
      1103  18  7.899384E-05  8.999979E+00 -7.065255E-07 -2.963366E-05 -2.538920E-15  1.812543E-14 _shell_0000001103   
      1103  19  4.321900E-05  8.999886E+00 -1.524507E-06  1.522329E-06 -1.327044E-07  3.950110E-07 _shell_0000001103   
      1103  20  4.970720E-05  8.999938E+00  6.748730E-07 -1.127534E-05  1.190553E-07  1.145133E-07 _shell_0000001103   
      1103  21  4.877304E-05  8.999969E+00 -8.551521E-07 -2.281505E-05  3.708150E-07 -9.577962E-08 _shell_0000001103   
      1103  22  5.470921E-05  8.999895E+00 -3.492024E-07  2.286115E-06  6.551421E-07 -1.035085E-07 _shell_0000001103   
      1103  23  6.195105E-05  8.999945E+00  1.089257E-06 -1.246876E-05  4.976322E-07 -8.647463E-08 _shell_0000001103   
      1103  24  6.184073E-05  8.999974E+00 -1.037878E-06 -2.596569E-05  3.401224E-07  7.639615E-10 _shell_0000001103   
      1103  25  6.789978E-05  8.999904E+00 -6.879692E-09  2.631460E-06  1.532683E-06 -6.020279E-07 _shell_0000001103   
      1103  26  7.607464E-05  8.999952E+00  1.089231E-06 -1.408063E-05  9.659034E-07 -2.874626E-07 _shell_0000001103   
      1103  27  7.696755E-05  8.999979E+00 -1.216441E-06 -2.953477E-05  3.991239E-07  9.730754E-08 _shell_0000001103   
      1104   1  5.532875E-05  8.999983E+00  3.813990E-07 -2.808898E-05  2.961397E-07  1.117181E-07 _shell_0000001104   
      1104   2  6.287873E-05  9.000000E+00  1.890177E-07 -3.211196E-05  9.055914E-08  2.639008E-08 _shell_0000001104   
      1104   3  6.830410E-05  9.000010E+00 -1.486363E-07 -3.592804E-05 -1.150214E-07 -2.040092E-08 _shell_0000001104   
      1104   4  6.758253E-05  8.999986E+00 -2.792130E-07 -3.132716E-05  1.787743E-07 -3.966921E-08 _shell_0000001104   
      1104   5  7.499808E-05  9.000001E+00 -1.562775E-07 -3.500457E-05  6.835152E-08 -1.593570E-08 _shell_0000001104   
      1104   6  8.025047E-05  9.000009E+00 -2.685342E-07 -3.847509E-05 -4.207126E-08  4.633475E-08 _shell_0000001104   
      1104   7  8.215741E-05  8.999990E+00 -6.859487E-07 -3.489500E-05  2.711781E-08 -1.910565E-07 _shell_0000001104   
      1104   8  8.950710E-05  9.000003E+00 -8.767120E-08 -3.822685E-05  1.185279E-08 -5.826154E-08 _shell_0000001104   
      1104   9  9.465511E-05  9.000010E+00  1.854947E-07 -4.135180E-05 -3.412215E-09  1.130704E-07 _shell_0000001104   
      1104  10  5.542523E-05  8.999982E+00  7.538443E-08 -2.784527E-05  4.858216E-15 -1.393740E-14 _shell_0000001104   
      1104  11  6.317506E-05  8.999999E+00  8.285229E-08 -3.181133E-05 -4.037983E-15 -8.465420E-15 _shell_0000001104   
      1104  12  6.880028E-05  9.000010E+00 -5.495260E-08 -3.557049E-05  1.592907E-15 -7.421756E-15 _shell_0000001104   
      1104  13  6.777862E-05  8.999985E+00 -5.425399E-07 -3.101683E-05  7.488787E-15  4.726339E-15 _shell_0000001104   
      1104  14  7.539402E-05  9.000001E+00 -2.197552E-07 -3.463733E-05 -8.684129E-16 -9.124580E-15 _shell_0000001104   
      1104  15  8.084627E-05  9.000009E+00 -1.321627E-07 -3.805093E-05 -1.795176E-15  2.779167E-15 _shell_0000001104   
      1104  16  8.245311E-05  8.999989E+00 -9.065879E-07 -3.451806E-05 -1.388597E-15  1.251213E-14 _shell_0000001104   
      1104  17  9.000265E-05  9.000003E+00 -1.084611E-07 -3.779299E-05 -3.196385E-15 -1.829963E-14 _shell_0000001104   
      1104  18  9.535050E-05  9.000010E+00  3.645539E-07 -4.086103E-05 -4.905765E-15  3.601739E-16 _shell_0000001104   
      1104  19  5.532875E-05  8.999983E+00  3.813991E-07 -2.808898E-05 -2.961397E-07 -1.117181E-07 _shell_0000001104   
      1104  20  6.287873E-05  9.000000E+00  1.890177E-07 -3.211195E-05 -9.055914E-08 -2.639013E-08 _shell_0000001104   
      1104  21  6.830410E-05  9.000010E+00 -1.486363E-07 -3.592804E-05  1.150214E-07  2.040091E-08 _shell_0000001104   
      1104  22  6.758253E-05  8.999986E+00 -2.792130E-07 -3.132716E-05 -1.787743E-07  3.966921E-08 _shell_0000001104   
      1104  23  7.499808E-05  9.000001E+00 -1.562775E-07 -3.500457E-05 -6.835152E-08  1.593571E-08 _shell_0000001104   
      1104  24  8.025047E-05  9.000009E+00 -2.685342E-07 -3.847509E-05  4.207126E-08 -4.633475E-08 _shell_0000001104   
      1104  25  8.215741E-05  8.999990E+00 -6.859487E-07 -3.489500E-05 -2.711782E-08  1.910565E-07 _shell_0000001104   
      1104  26  8.950710E-05  9.000003E+00 -8.767119E-08 -3.822685E-05 -1.185280E-08  5.826151E-08 _shell_0000001104   
      1104  27  9.465511E-05  9.000010E+00  1.854947E-07 -4.135180E-05  3.412206E-09 -1.130704E-07 _shell_0000001104   
      1105   1  7.252689E-05  9.000013E+00  2.697039E-07 -3.575790E-05  4.730401E-09 -5.805927E-08 _shell_0000001105   
      1105   2  7.719532E-05  9.000017E+00 -1.943832E-08 -3.295805E-05 -1.976574E-09 -9.412653E-08 _shell_0000001105   
      1105   3  8.146714E-05  9.000019E+00  2.166629E-08 -3.108791E-05 -8.683535E-09 -1.953519E-08 _shell_0000001105   
      1105   4  8.374172E-05  9.000012E+00  1.500384E-07 -3.787792E-05  7.180882E-08  3.049000E-08 _shell_0000001105   
      1105   5  8.708365E-05  9.000015E+00 -1.760534E-08 -3.459924E-05  4.046316E-08 -3.967655E-08 _shell_0000001105   
      1105   6  8.991830E-05  9.000017E+00 -1.132056E-07 -3.225027E-05  9.117506E-09  8.154721E-10 _shell_0000001105   
      1105   7  9.612837E-05  9.000012E+00  1.221113E-07 -4.002736E-05  1.108070E-07  1.190392E-07 _shell_0000001105   
      1105   8  9.819996E-05  9.000014E+00  2.070072E-07 -3.626985E-05  5.482262E-08  1.477341E-08 _shell_0000001105   
      1105   9  9.965361E-05  9.000015E+00  1.057435E-07 -3.344205E-05 -1.161722E-09  2.116615E-08 _shell_0000001105   
      1105  10  7.273302E-05  9.000013E+00  2.764382E-07 -3.541935E-05  1.385583E-15 -6.810930E-15 _shell_0000001105   
      1105  11  7.742628E-05  9.000017E+00  1.211497E-08 -3.267948E-05 -6.258160E-15 -1.546142E-17 _shell_0000001105   
      1105  12  8.172291E-05  9.000019E+00  7.803836E-08 -3.086932E-05 -5.928340E-16  1.034352E-14 _shell_0000001105   
      1105  13  8.384290E-05  9.000012E+00  1.117907E-07 -3.753111E-05 -3.181509E-15  3.044114E-15 _shell_0000001105   
      1105  14  8.720965E-05  9.000015E+00 -3.103409E-08 -3.431240E-05 -6.054501E-15 -9.168275E-17 _shell_0000001105   
      1105  15  9.006912E-05  9.000017E+00 -1.018155E-07 -3.202341E-05  9.386440E-16  9.297255E-15 _shell_0000001105   
      1105  16  9.612459E-05  9.000011E+00  3.888167E-08 -3.967227E-05 -9.315304E-15  1.720589E-15 _shell_0000001105   
      1105  17  9.822100E-05  9.000014E+00  1.485966E-07 -3.597474E-05 -6.949782E-15 -1.270027E-14 _shell_0000001105   
      1105  18  9.969947E-05  9.000015E+00  7.215161E-08 -3.320691E-05  2.058639E-15 -2.643117E-15 _shell_0000001105   
      1105  19  7.252689E-05  9.000013E+00  2.697039E-07 -3.575790E-05 -4.730393E-09  5.805924E-08 _shell_0000001105   
      1105  20  7.719532E-05  9.000017E+00 -1.943829E-08 -3.295805E-05  1.976566E-09  9.412650E-08 _shell_0000001105   
      1105  21  8.146714E-05  9.000019E+00  2.166625E-08 -3.108791E-05  8.683540E-09  1.953523E-08 _shell_0000001105   
      1105  22  8.374172E-05  9.000012E+00  1.500384E-07 -3.787792E-05 -7.180883E-08 -3.048999E-08 _shell_0000001105   
      1105  23  8.708365E-05  9.000015E+00 -1.760534E-08 -3.459924E-05 -4.046317E-08  3.967656E-08 _shell_0000001105   
      1105  24  8.991830E-05  9.000017E+00 -1.132056E-07 -3.225027E-05 -9.117500E-09 -8.154628E-10 _shell_0000001105   
      1105  25  9.612837E-05  9.000012E+00  1.221112E-07 -4.002736E-05 -1.108070E-07 -1.190392E-07 _shell_0000001105   
      1105  26  9.819996E-05  9.000014E+00  2.070073E-07 -3.626985E-05 -5.482264E-08 -1.477343E-08 _shell_0000001105   
      1105  27  9.965361E-05  9.000015E+00  1.057434E-07 -3.344205E-05  1.161720E-09 -2.116615E-08 _shell_0000001105   
      1106   1  8.352835E-05  9.000019E+00  1.041136E-07 -2.861250E-05 -1.673968E-08  9.941136E-09 _shell_0000001106   
      1106   2  8.592997E-05  9.000019E+00 -2.919791E-08 -2.377521E-05  3.294061E-09 -1.447320E-08 _shell_0000001106   
      1106   3  8.831842E-05  9.000019E+00  2.245083E-08 -1.976829E-05  2.332779E-08 -7.420784E-09 _shell_0000001106   
      1106   4  9.148442E-05  9.000017E+00  1.896320E-08 -2.951550E-05 -3.653693E-08  1.994985E-08 _shell_0000001106   
      1106   5  9.279873E-05  9.000017E+00 -6.214420E-08 -2.446354E-05 -7.305764E-09 -5.905164E-09 _shell_0000001106   
      1106   6  9.406840E-05  9.000017E+00 -3.171374E-08 -2.024196E-05  2.192540E-08 -2.935136E-10 _shell_0000001106   
      1106   7  9.983130E-05  9.000015E+00 -4.955303E-08 -3.037383E-05 -6.944632E-08  2.995856E-08 _shell_0000001106   
      1106   8  1.000845E-04  9.000015E+00 -1.726648E-08 -2.510721E-05 -3.101772E-08  2.662809E-09 _shell_0000001106   
      1106   9  1.002617E-04  9.000014E+00  5.313581E-08 -2.067097E-05  7.410889E-09  6.833768E-09 _shell_0000001106   
      1106  10  8.357432E-05  9.000019E+00  7.933342E-08 -2.846163E-05  3.044491E-15  1.375405E-14 _shell_0000001106   
      1106  11  8.600382E-05  9.000019E+00 -2.609656E-08 -2.362924E-05  4.290715E-15 -5.244942E-16 _shell_0000001106   
      1106  12  8.842015E-05  9.000019E+00  5.343360E-08 -1.962723E-05  5.671943E-15 -3.182996E-14 _shell_0000001106   
      1106  13  9.152181E-05  9.000017E+00 -9.493429E-09 -2.935533E-05  4.963058E-15  1.121901E-14 _shell_0000001106   
      1106  14  9.286400E-05  9.000017E+00 -6.271933E-08 -2.430828E-05  6.515628E-15 -2.512039E-15 _shell_0000001106   
      1106  15  9.416156E-05  9.000017E+00 -4.407377E-09 -2.009160E-05  6.970722E-15 -1.859782E-14 _shell_0000001106   
      1106  16  9.986011E-05  9.000015E+00 -8.168617E-08 -3.020437E-05  6.505948E-15 -2.148070E-15 _shell_0000001106   
      1106  17  1.001412E-04  9.000015E+00 -2.151801E-08 -2.494266E-05  9.195650E-15 -1.494002E-14 _shell_0000001106   
      1106  18  1.003462E-04  9.000014E+00  7.676567E-08 -2.051132E-05  7.677416E-15 -1.809230E-14 _shell_0000001106   
      1106  19  8.352835E-05  9.000019E+00  1.041136E-07 -2.861250E-05  1.673968E-08 -9.941104E-09 _shell_0000001106   
      1106  20  8.592997E-05  9.000019E+00 -2.919794E-08 -2.377521E-05 -3.294049E-09  1.447317E-08 _shell_0000001106   
      1106  21  8.831842E-05  9.000019E+00  2.245082E-08 -1.976829E-05 -2.332778E-08  7.420731E-09 _shell_0000001106   
      1106  22  9.148442E-05  9.000017E+00  1.896317E-08 -2.951550E-05  3.653694E-08 -1.994984E-08 _shell_0000001106   
      1106  23  9.279873E-05  9.000017E+00 -6.214422E-08 -2.446354E-05  7.305777E-09  5.905184E-09 _shell_0000001106   
      1106  24  9.406840E-05  9.000017E+00 -3.171371E-08 -2.024196E-05 -2.192540E-08  2.934783E-10 _shell_0000001106   
      1106  25  9.983130E-05  9.000015E+00 -4.955312E-08 -3.037383E-05  6.944634E-08 -2.995858E-08 _shell_0000001106   
      1106  26  1.000845E-04  9.000015E+00 -1.726647E-08 -2.510721E-05  3.101773E-08 -2.662841E-09 _shell_0000001106   
      1106  27  1.002617E-04  9.000014E+00  5.313582E-08 -2.067097E-05 -7.410876E-09 -6.833800E-09 _shell_0000001106   
      1107   1  8.924531E-05  9.000019E+00  2.885565E-08 -1.687228E-05 -3.062859E-08 -4.510494E-09 _shell_0000001107   
      1107   2  9.020333E-05  9.000018E+00 -2.330267E-08 -1.195381E-05 -2.190494E-09 -1.244588E-08 _shell_0000001107   
      1107   3  9.124919E-05  9.000018E+00  1.088921E-08 -7.493063E-06  2.624762E-08 -5.776215E-09 _shell_0000001107   
      1107   4  9.463226E-05  9.000016E+00  2.250668E-08 -1.722048E-05 -3.816697E-09  1.710180E-09 _shell_0000001107   
      1107   5  9.501092E-05  9.000016E+00 -1.646871E-08 -1.219941E-05  4.422260E-09 -7.899951E-09 _shell_0000001107   
      1107   6  9.546282E-05  9.000015E+00 -3.172458E-09 -7.636050E-06  1.266123E-08 -2.905111E-09 _shell_0000001107   
      1107   7  1.001300E-04  9.000014E+00  3.149761E-08 -1.752850E-05  1.913323E-08  7.930852E-09 _shell_0000001107   
      1107   8  9.993703E-05  9.000013E+00  2.372751E-08 -1.240482E-05  7.173064E-09 -3.354085E-09 _shell_0000001107   
      1107   9  9.980270E-05  9.000013E+00  3.415081E-08 -7.738857E-06 -4.787131E-09 -3.400313E-11 _shell_0000001107   
      1107  10  8.926992E-05  9.000019E+00  3.255084E-08 -1.677802E-05  3.114804E-15 -2.595062E-14 _shell_0000001107   
      1107  11  9.023474E-05  9.000018E+00 -1.280217E-08 -1.188018E-05 -3.859858E-15  2.899566E-16 _shell_0000001107   
      1107  12  9.128740E-05  9.000018E+00  2.819485E-08 -7.440057E-06  1.899110E-15 -2.867395E-14 _shell_0000001107   
      1107  13  9.462077E-05  9.000016E+00  1.073218E-08 -1.712396E-05  4.371635E-15 -1.647246E-14 _shell_0000001107   
      1107  14  9.500623E-05  9.000016E+00 -2.143794E-08 -1.212351E-05  6.120499E-15 -8.185320E-15 _shell_0000001107   
      1107  15  9.546494E-05  9.000015E+00 -1.336410E-09 -7.580776E-06  5.756614E-15 -2.654120E-14 _shell_0000001107   
      1107  16  1.000824E-04  9.000014E+00  4.253387E-09 -1.742971E-05  1.003100E-14 -9.885390E-15 _shell_0000001107   
      1107  17  9.989625E-05  9.000013E+00  3.288668E-09 -1.232665E-05  1.107302E-14 -1.229304E-14 _shell_0000001107   
      1107  18  9.976872E-05  9.000013E+00  2.051710E-08 -7.681315E-06  8.711228E-15 -3.863183E-14 _shell_0000001107   
      1107  19  8.924531E-05  9.000019E+00  2.885566E-08 -1.687228E-05  3.062859E-08  4.510446E-09 _shell_0000001107   
      1107  20  9.020333E-05  9.000018E+00 -2.330266E-08 -1.195381E-05  2.190483E-09  1.244584E-08 _shell_0000001107   
      1107  21  9.124919E-05  9.000018E+00  1.088913E-08 -7.493063E-06 -2.624761E-08  5.776152E-09 _shell_0000001107   
      1107  22  9.463226E-05  9.000016E+00  2.250673E-08 -1.722048E-05  3.816709E-09 -1.710219E-09 _shell_0000001107   
      1107  23  9.501092E-05  9.000016E+00 -1.646872E-08 -1.219941E-05 -4.422258E-09  7.899977E-09 _shell_0000001107   
      1107  24  9.546282E-05  9.000015E+00 -3.172466E-09 -7.636050E-06 -1.266121E-08  2.905045E-09 _shell_0000001107   
      1107  25  1.001300E-04  9.000014E+00  3.149760E-08 -1.752850E-05 -1.913321E-08 -7.930877E-09 _shell_0000001107   
      1107  26  9.993703E-05  9.000013E+00  2.372756E-08 -1.240482E-05 -7.173028E-09  3.354062E-09 _shell_0000001107   
      1107  27  9.980270E-05  9.000013E+00  3.415078E-08 -7.738857E-06  4.787149E-09  3.392204E-11 _shell_0000001107   
      1108   1  9.151487E-05  9.000017E+00  9.250905E-09 -4.646431E-06 -2.650430E-08 -2.586070E-09 _shell_0000001108   
      1108   2  9.145799E-05  9.000017E+00 -2.137638E-08 -2.970215E-14  7.495529E-15 -4.827140E-09 _shell_0000001108   
      1108   3  9.151487E-05  9.000017E+00  9.250858E-09  4.646431E-06  2.650430E-08 -2.586078E-09 _shell_0000001108   
      1108   4  9.560463E-05  9.000015E+00  7.712168E-09 -4.705567E-06 -1.479227E-08 -2.023058E-10 _shell_0000001108   
      1108   5  9.554999E-05  9.000015E+00 -1.768595E-08 -4.001009E-14  1.908878E-16 -2.443342E-09 _shell_0000001108   
      1108   6  9.560463E-05  9.000015E+00  7.712097E-09  4.705567E-06  1.479228E-08 -2.022957E-10 _shell_0000001108   
      1108   7  9.970937E-05  9.000013E+00  1.415926E-08 -4.764703E-06 -3.080238E-09  2.181441E-09 _shell_0000001108   
      1108   8  9.965698E-05  9.000013E+00 -6.009807E-09 -5.273595E-14 -3.970467E-15 -5.956370E-11 _shell_0000001108   
      1108   9  9.970937E-05  9.000013E+00  1.415918E-08  4.764703E-06  3.080241E-09  2.181506E-09 _shell_0000001108   
      1108  10  9.152742E-05  9.000017E+00  1.669093E-08 -4.635966E-06  3.544464E-15 -2.798676E-14 _shell_0000001108   
      1108  11  9.147055E-05  9.000017E+00 -1.393632E-08 -4.316610E-14  2.702417E-15  7.212827E-15 _shell_0000001108   
      1108  12  9.152742E-05  9.000017E+00  1.669090E-08  4.635966E-06 -1.443926E-16 -2.424535E-14 _shell_0000001108   
      1108  13  9.559887E-05  9.000015E+00  7.303591E-09 -4.695102E-06  3.945012E-15 -2.624591E-14 _shell_0000001108   
      1108  14  9.554423E-05  9.000015E+00 -1.809450E-08 -4.051912E-14 -4.581308E-16  6.474862E-15 _shell_0000001108   
      1108  15  9.559887E-05  9.000015E+00  7.303576E-09  4.695102E-06 -1.832518E-15 -1.045817E-14 _shell_0000001108   
      1108  16  9.968530E-05  9.000013E+00  5.901992E-09 -4.754238E-06  4.113475E-15 -3.431903E-14 _shell_0000001108   
      1108  17  9.963291E-05  9.000013E+00 -1.426692E-08 -4.102816E-14 -2.506119E-15 -1.094289E-15 _shell_0000001108   
      1108  18  9.968530E-05  9.000013E+00  5.902002E-09  4.754238E-06 -5.013929E-15 -1.468177E-14 _shell_0000001108   
      1108  19  9.151487E-05  9.000017E+00  9.250859E-09 -4.646431E-06  2.650430E-08  2.586010E-09 _shell_0000001108   
      1108  20  9.145799E-05  9.000017E+00 -2.137639E-08 -4.105361E-14 -3.435981E-15  4.827110E-09 _shell_0000001108   
      1108  21  9.151487E-05  9.000017E+00  9.250841E-09  4.646431E-06 -2.650431E-08  2.586041E-09 _shell_0000001108   
      1108  22  9.560463E-05  9.000015E+00  7.712154E-09 -4.705567E-06  1.479228E-08  2.022406E-10 _shell_0000001108   
      1108  23  9.554999E-05  9.000015E+00 -1.768594E-08 -3.805031E-14 -8.399065E-15  2.443363E-09 _shell_0000001108   
      1108  24  9.560463E-05  9.000015E+00  7.712123E-09  4.705567E-06 -1.479229E-08  2.022554E-10 _shell_0000001108   
      1108  25  9.970937E-05  9.000013E+00  1.415916E-08 -4.764703E-06  3.080246E-09 -2.181512E-09 _shell_0000001108   
      1108  26  9.965698E-05  9.000013E+00 -6.009776E-09 -5.334679E-14 -1.247134E-14  5.957411E-11 _shell_0000001108   
      1108  27  9.970937E-05  9.000013E+00  1.415916E-08  4.764703E-06 -3.080259E-09 -2.181537E-09 _shell_0000001108   
      1109   1  9.124919E-05  9.000018E+00  1.088908E-08  7.493063E-06 -2.624762E-08 -5.776239E-09 _shell_0000001109   
      1109   2  9.020333E-05  9.000018E+00 -2.330266E-08  1.195381E-05  2.190475E-09 -1.244590E-08 _shell_0000001109   
      1109   3  8.924531E-05  9.000019E+00  2.885571E-08  1.687228E-05  3.062857E-08 -4.510520E-09 _shell_0000001109   
      1109   4  9.546282E-05  9.000015E+00 -3.172508E-09  7.636050E-06 -1.266122E-08 -2.905083E-09 _shell_0000001109   
      1109   5  9.501092E-05  9.000016E+00 -1.646871E-08  1.219941E-05 -4.422270E-09 -7.899986E-09 _shell_0000001109   
      1109   6  9.463226E-05  9.000016E+00  2.250670E-08  1.722048E-05  3.816677E-09  1.710135E-09 _shell_0000001109   
      1109   7  9.980270E-05  9.000013E+00  3.415077E-08  7.738857E-06  4.787135E-09 -3.395039E-11 _shell_0000001109   
      1109   8  9.993703E-05  9.000013E+00  2.372752E-08  1.240482E-05 -7.173049E-09 -3.354085E-09 _shell_0000001109   
      1109   9  1.001300E-04  9.000014E+00  3.149763E-08  1.752851E-05 -1.913325E-08  7.930811E-09 _shell_0000001109   
      1109  10  9.128740E-05  9.000018E+00  2.819488E-08  7.440057E-06 -5.134566E-15 -2.737591E-14 _shell_0000001109   
      1109  11  9.023474E-05  9.000018E+00 -1.280217E-08  1.188018E-05 -5.491505E-15 -4.291348E-15 _shell_0000001109   
      1109  12  8.926992E-05  9.000019E+00  3.255084E-08  1.677802E-05 -7.543843E-15 -3.030286E-14 _shell_0000001109   
      1109  13  9.546494E-05  9.000015E+00 -1.336426E-09  7.580776E-06 -3.524424E-15 -1.810136E-14 _shell_0000001109   
      1109  14  9.500623E-05  9.000016E+00 -2.143792E-08  1.212351E-05 -2.137939E-15 -1.230850E-14 _shell_0000001109   
      1109  15  9.462077E-05  9.000016E+00  1.073220E-08  1.712396E-05 -2.335491E-15 -3.611350E-14 _shell_0000001109   
      1109  16  9.976872E-05  9.000013E+00  2.051714E-08  7.681315E-06 -3.423258E-15 -2.373112E-14 _shell_0000001109   
      1109  17  9.989625E-05  9.000013E+00  3.288681E-09  1.232665E-05 -1.190197E-15 -1.992856E-14 _shell_0000001109   
      1109  18  1.000824E-04  9.000014E+00  4.253421E-09  1.742971E-05 -5.178673E-15 -3.771557E-14 _shell_0000001109   
      1109  19  9.124919E-05  9.000018E+00  1.088910E-08  7.493063E-06  2.624762E-08  5.776175E-09 _shell_0000001109   
      1109  20  9.020333E-05  9.000018E+00 -2.330270E-08  1.195381E-05 -2.190498E-09  1.244586E-08 _shell_0000001109   
      1109  21  8.924531E-05  9.000019E+00  2.885562E-08  1.687228E-05 -3.062860E-08  4.510471E-09 _shell_0000001109   
      1109  22  9.546282E-05  9.000015E+00 -3.172488E-09  7.636050E-06  1.266122E-08  2.905044E-09 _shell_0000001109   
      1109  23  9.501092E-05  9.000016E+00 -1.646873E-08  1.219941E-05  4.422256E-09  7.899979E-09 _shell_0000001109   
      1109  24  9.463226E-05  9.000016E+00  2.250669E-08  1.722048E-05 -3.816685E-09 -1.710212E-09 _shell_0000001109   
      1109  25  9.980270E-05  9.000013E+00  3.415074E-08  7.738857E-06 -4.787143E-09  3.390127E-11 _shell_0000001109   
      1109  26  9.993703E-05  9.000013E+00  2.372756E-08  1.240482E-05  7.173040E-09  3.354051E-09 _shell_0000001109   
      1109  27  1.001300E-04  9.000014E+00  3.149765E-08  1.752851E-05  1.913325E-08 -7.930885E-09 _shell_0000001109   
      1110   1  8.831842E-05  9.000019E+00  2.245080E-08  1.976829E-05 -2.332780E-08 -7.420818E-09 _shell_0000001110   
      1110   2  8.592997E-05  9.000019E+00 -2.919794E-08  2.377521E-05 -3.294055E-09 -1.447321E-08 _shell_0000001110   
      1110   3  8.352835E-05  9.000019E+00  1.041136E-07  2.861250E-05  1.673969E-08  9.941103E-09 _shell_0000001110   
      1110   4  9.406840E-05  9.000017E+00 -3.171372E-08  2.024196E-05 -2.192541E-08 -2.935600E-10 _shell_0000001110   
      1110   5  9.279873E-05  9.000017E+00 -6.214421E-08  2.446354E-05  7.305764E-09 -5.905194E-09 _shell_0000001110   
      1110   6  9.148442E-05  9.000017E+00  1.896314E-08  2.951550E-05  3.653693E-08  1.994984E-08 _shell_0000001110   
      1110   7  1.002617E-04  9.000014E+00  5.313583E-08  2.067097E-05 -7.410894E-09  6.833687E-09 _shell_0000001110   
      1110   8  1.000845E-04  9.000015E+00 -1.726647E-08  2.510721E-05  3.101772E-08  2.662782E-09 _shell_0000001110   
      1110   9  9.983130E-05  9.000015E+00 -4.955307E-08  3.037383E-05  6.944632E-08  2.995859E-08 _shell_0000001110   
      1110  10  8.842015E-05  9.000019E+00  5.343359E-08  1.962723E-05 -2.646970E-15 -3.226264E-14 _shell_0000001110   
      1110  11  8.600382E-05  9.000019E+00 -2.609657E-08  2.362924E-05  8.875382E-15 -8.567236E-15 _shell_0000001110   
      1110  12  8.357432E-05  9.000019E+00  7.933340E-08  2.846163E-05  8.777828E-15 -3.394245E-14 _shell_0000001110   
      1110  13  9.416156E-05  9.000017E+00 -4.407383E-09  2.009160E-05  1.393690E-16 -4.250956E-14 _shell_0000001110   
      1110  14  9.286400E-05  9.000017E+00 -6.271933E-08  2.430828E-05  2.239761E-15 -2.533978E-14 _shell_0000001110   
      1110  15  9.152181E-05  9.000017E+00 -9.493435E-09  2.935533E-05  9.568711E-16 -1.717008E-14 _shell_0000001110   
      1110  16  1.003462E-04  9.000014E+00  7.676571E-08  2.051132E-05 -5.319415E-15 -4.775754E-14 _shell_0000001110   
      1110  17  1.001412E-04  9.000015E+00 -2.151799E-08  2.494266E-05 -1.973170E-15 -3.886463E-14 _shell_0000001110   
      1110  18  9.986011E-05  9.000015E+00 -8.168613E-08  3.020437E-05 -9.000094E-15 -1.796505E-14 _shell_0000001110   
      1110  19  8.831841E-05  9.000019E+00  2.245073E-08  1.976829E-05  2.332779E-08  7.420747E-09 _shell_0000001110   
      1110  20  8.592997E-05  9.000019E+00 -2.919797E-08  2.377521E-05  3.294071E-09  1.447315E-08 _shell_0000001110   
      1110  21  8.352835E-05  9.000019E+00  1.041136E-07  2.861250E-05 -1.673967E-08 -9.941163E-09 _shell_0000001110   
      1110  22  9.406840E-05  9.000017E+00 -3.171374E-08  2.024196E-05  2.192540E-08  2.934704E-10 _shell_0000001110   
      1110  23  9.279873E-05  9.000017E+00 -6.214425E-08  2.446354E-05 -7.305769E-09  5.905173E-09 _shell_0000001110   
      1110  24  9.148442E-05  9.000017E+00  1.896317E-08  2.951550E-05 -3.653693E-08 -1.994988E-08 _shell_0000001110   
      1110  25  1.002617E-04  9.000014E+00  5.313582E-08  2.067097E-05  7.410886E-09 -6.833797E-09 _shell_0000001110   
      1110  26  1.000845E-04  9.000015E+00 -1.726644E-08  2.510721E-05 -3.101772E-08 -2.662849E-09 _shell_0000001110   
      1110  27  9.983130E-05  9.000015E+00 -4.955310E-08  3.037383E-05 -6.944634E-08 -2.995862E-08 _shell_0000001110   
      1111   1  8.146714E-05  9.000019E+00  2.166621E-08  3.108791E-05  8.683533E-09 -1.953521E-08 _shell_0000001111   
      1111   2  7.719532E-05  9.000017E+00 -1.943828E-08  3.295805E-05  1.976563E-09 -9.412651E-08 _shell_0000001111   
      1111   3  7.252689E-05  9.000013E+00  2.697039E-07  3.575790E-05 -4.730381E-09 -5.805925E-08 _shell_0000001111   
      1111   4  8.991830E-05  9.000017E+00 -1.132056E-07  3.225027E-05 -9.117531E-09  8.154782E-10 _shell_0000001111   
      1111   5  8.708365E-05  9.000015E+00 -1.760530E-08  3.459924E-05 -4.046318E-08 -3.967654E-08 _shell_0000001111   
      1111   6  8.374172E-05  9.000012E+00  1.500384E-07  3.787792E-05 -7.180880E-08  3.048998E-08 _shell_0000001111   
      1111   7  9.965361E-05  9.000015E+00  1.057435E-07  3.344205E-05  1.161696E-09  2.116614E-08 _shell_0000001111   
      1111   8  9.819996E-05  9.000014E+00  2.070073E-07  3.626985E-05 -5.482263E-08  1.477339E-08 _shell_0000001111   
      1111   9  9.612837E-05  9.000012E+00  1.221114E-07  4.002736E-05 -1.108070E-07  1.190392E-07 _shell_0000001111   
      1111  10  8.172291E-05  9.000019E+00  7.803838E-08  3.086932E-05  9.219587E-15 -3.104095E-14 _shell_0000001111   
      1111  11  7.742628E-05  9.000017E+00  1.211498E-08  3.267948E-05  7.390140E-15  5.278506E-15 _shell_0000001111   
      1111  12  7.273302E-05  9.000013E+00  2.764382E-07  3.541935E-05  7.238008E-15 -2.280530E-15 _shell_0000001111   
      1111  13  9.006912E-05  9.000017E+00 -1.018155E-07  3.202341E-05 -6.496166E-16 -1.647244E-14 _shell_0000001111   
      1111  14  8.720965E-05  9.000015E+00 -3.103407E-08  3.431240E-05  2.036323E-16  3.115236E-15 _shell_0000001111   
      1111  15  8.384290E-05  9.000012E+00  1.117907E-07  3.753111E-05  1.790760E-15  1.273324E-14 _shell_0000001111   
      1111  16  9.969947E-05  9.000015E+00  7.215164E-08  3.320691E-05 -8.151243E-15 -1.497573E-14 _shell_0000001111   
      1111  17  9.822100E-05  9.000014E+00  1.485966E-07  3.597474E-05  2.958397E-15 -1.850325E-14 _shell_0000001111   
      1111  18  9.612459E-05  9.000011E+00  3.888162E-08  3.967227E-05  7.457452E-15  2.523598E-15 _shell_0000001111   
      1111  19  8.146714E-05  9.000019E+00  2.166625E-08  3.108791E-05 -8.683505E-09  1.953515E-08 _shell_0000001111   
      1111  20  7.719532E-05  9.000017E+00 -1.943827E-08  3.295805E-05 -1.976553E-09  9.412649E-08 _shell_0000001111   
      1111  21  7.252689E-05  9.000013E+00  2.697040E-07  3.575790E-05  4.730395E-09  5.805926E-08 _shell_0000001111   
      1111  22  8.991830E-05  9.000017E+00 -1.132056E-07  3.225027E-05  9.117528E-09 -8.155108E-10 _shell_0000001111   
      1111  23  8.708365E-05  9.000015E+00 -1.760533E-08  3.459924E-05  4.046317E-08  3.967656E-08 _shell_0000001111   
      1111  24  8.374172E-05  9.000012E+00  1.500384E-07  3.787792E-05  7.180882E-08 -3.048996E-08 _shell_0000001111   
      1111  25  9.965361E-05  9.000015E+00  1.057435E-07  3.344205E-05 -1.161716E-09 -2.116617E-08 _shell_0000001111   
      1111  26  9.819996E-05  9.000014E+00  2.070073E-07  3.626985E-05  5.482264E-08 -1.477343E-08 _shell_0000001111   
      1111  27  9.612837E-05  9.000012E+00  1.221113E-07  4.002736E-05  1.108070E-07 -1.190392E-07 _shell_0000001111   
      1112   1  6.830410E-05  9.000010E+00 -1.486364E-07  3.592804E-05  1.150214E-07 -2.040092E-08 _shell_0000001112   
      1112   2  6.287873E-05  9.000000E+00  1.890177E-07  3.211195E-05 -9.055913E-08  2.639010E-08 _shell_0000001112   
      1112   3  5.532875E-05  8.999983E+00  3.813991E-07  2.808898E-05 -2.961397E-07  1.117181E-07 _shell_0000001112   
      1112   4  8.025047E-05  9.000009E+00 -2.685342E-07  3.847509E-05  4.207125E-08  4.633474E-08 _shell_0000001112   
      1112   5  7.499808E-05  9.000001E+00 -1.562774E-07  3.500457E-05 -6.835153E-08 -1.593570E-08 _shell_0000001112   
      1112   6  6.758253E-05  8.999986E+00 -2.792130E-07  3.132716E-05 -1.787743E-07 -3.966919E-08 _shell_0000001112   
      1112   7  9.465511E-05  9.000010E+00  1.854947E-07  4.135180E-05  3.412190E-09  1.130704E-07 _shell_0000001112   
      1112   8  8.950710E-05  9.000003E+00 -8.767117E-08  3.822685E-05 -1.185280E-08 -5.826156E-08 _shell_0000001112   
      1112   9  8.215741E-05  8.999990E+00 -6.859488E-07  3.489500E-05 -2.711777E-08 -1.910565E-07 _shell_0000001112   
      1112  10  6.880028E-05  9.000010E+00 -5.495263E-08  3.557049E-05  4.396500E-15 -5.996452E-15 _shell_0000001112   
      1112  11  6.317506E-05  8.999999E+00  8.285229E-08  3.181133E-05 -6.880944E-15  6.601939E-15 _shell_0000001112   
      1112  12  5.542523E-05  8.999982E+00  7.538448E-08  2.784527E-05  5.817804E-16  2.784398E-15 _shell_0000001112   
      1112  13  8.084627E-05  9.000009E+00 -1.321627E-07  3.805093E-05  3.612946E-15  9.590205E-15 _shell_0000001112   
      1112  14  7.539402E-05  9.000001E+00 -2.197552E-07  3.463733E-05  2.905901E-20 -1.720592E-15 _shell_0000001112   
      1112  15  6.777862E-05  8.999985E+00 -5.425399E-07  3.101683E-05 -1.892403E-15  6.472057E-15 _shell_0000001112   
      1112  16  9.535050E-05  9.000010E+00  3.645539E-07  4.086103E-05  8.017264E-15 -3.155468E-16 _shell_0000001112   
      1112  17  9.000265E-05  9.000003E+00 -1.084611E-07  3.779299E-05  7.276093E-15 -1.941953E-14 _shell_0000001112   
      1112  18  8.245311E-05  8.999989E+00 -9.065879E-07  3.451806E-05  5.030463E-15  6.910827E-16 _shell_0000001112   
      1112  19  6.830410E-05  9.000010E+00 -1.486363E-07  3.592804E-05 -1.150214E-07  2.040090E-08 _shell_0000001112   
      1112  20  6.287873E-05  9.000000E+00  1.890177E-07  3.211195E-05  9.055914E-08 -2.639011E-08 _shell_0000001112   
      1112  21  5.532875E-05  8.999983E+00  3.813991E-07  2.808898E-05  2.961397E-07 -1.117181E-07 _shell_0000001112   
      1112  22  8.025047E-05  9.000009E+00 -2.685341E-07  3.847509E-05 -4.207124E-08 -4.633472E-08 _shell_0000001112   
      1112  23  7.499808E-05  9.000001E+00 -1.562775E-07  3.500457E-05  6.835153E-08  1.593572E-08 _shell_0000001112   
      1112  24  6.758253E-05  8.999986E+00 -2.792130E-07  3.132716E-05  1.787743E-07  3.966920E-08 _shell_0000001112   
      1112  25  9.465511E-05  9.000010E+00  1.854947E-07  4.135180E-05 -3.412169E-09 -1.130704E-07 _shell_0000001112   
      1112  26  8.950710E-05  9.000003E+00 -8.767120E-08  3.822685E-05  1.185281E-08  5.826152E-08 _shell_0000001112   
      1112  27  8.215741E-05  8.999990E+00 -6.859488E-07  3.489500E-05  2.711778E-08  1.910565E-07 _shell_0000001112   
      1113   1  4.877304E-05  8.999969E+00 -8.551521E-07  2.281505E-05  3.708150E-07  9.577965E-08 _shell_0000001113   
      1113   2  4.970720E-05  8.999938E+00  6.748730E-07  1.127534E-05  1.190553E-07 -1.145133E-07 _shell_0000001113   
      1113   3  4.321900E-05  8.999886E+00 -1.524507E-06 -1.522329E-06 -1.327044E-07 -3.950110E-07 _shell_0000001113   
      1113   4  6.184073E-05  8.999974E+00 -1.037878E-06  2.596569E-05  3.401224E-07 -7.639149E-10 _shell_0000001113   
      1113   5  6.195105E-05  8.999945E+00  1.089257E-06  1.246876E-05  4.976322E-07  8.647468E-08 _shell_0000001113   
      1113   6  5.470921E-05  8.999895E+00 -3.492023E-07 -2.286115E-06  6.551421E-07  1.035084E-07 _shell_0000001113   
      1113   7  7.696755E-05  8.999979E+00 -1.216441E-06  2.953477E-05  3.991240E-07 -9.730748E-08 _shell_0000001113   
      1113   8  7.607464E-05  8.999952E+00  1.089231E-06  1.408063E-05  9.659034E-07  2.874626E-07 _shell_0000001113   
      1113   9  6.789978E-05  8.999904E+00 -6.879590E-09 -2.631460E-06  1.532683E-06  6.020279E-07 _shell_0000001113   
      1113  10  4.963286E-05  8.999968E+00 -8.451554E-07  2.282533E-05  3.060295E-15  7.034855E-15 _shell_0000001113   
      1113  11  5.069993E-05  8.999938E+00  8.177808E-07  1.161889E-05  4.222097E-15  1.413562E-14 _shell_0000001113   
      1113  12  4.434464E-05  8.999886E+00 -1.248688E-06 -8.454909E-07  5.736378E-15 -5.640204E-15 _shell_0000001113   
      1113  13  6.328379E-05  8.999973E+00 -7.779223E-07  2.602027E-05  2.582794E-15  9.564770E-15 _shell_0000001113   
      1113  14  6.352701E-05  8.999945E+00  1.482124E-06  1.285662E-05 -3.449293E-15  6.414299E-15 _shell_0000001113   
      1113  15  5.641809E-05  8.999895E+00  1.765757E-07 -1.564974E-06  5.963675E-16 -1.699981E-15 _shell_0000001113   
      1113  16  7.899384E-05  8.999979E+00 -7.065255E-07  2.963366E-05 -8.023989E-16  1.047614E-14 _shell_0000001113   
      1113  17  7.823385E-05  8.999952E+00  1.732057E-06  1.451280E-05 -1.054618E-14 -5.472064E-15 _shell_0000001113   
      1113  18  7.019190E-05  8.999904E+00  7.688576E-07 -1.866015E-06 -4.427880E-15 -1.040586E-14 _shell_0000001113   
      1113  19  4.877304E-05  8.999969E+00 -8.551521E-07  2.281505E-05 -3.708150E-07 -9.577964E-08 _shell_0000001113   
      1113  20  4.970720E-05  8.999938E+00  6.748730E-07  1.127534E-05 -1.190553E-07  1.145133E-07 _shell_0000001113   
      1113  21  4.321900E-05  8.999886E+00 -1.524507E-06 -1.522329E-06  1.327045E-07  3.950110E-07 _shell_0000001113   
      1113  22  6.184073E-05  8.999974E+00 -1.037878E-06  2.596569E-05 -3.401224E-07  7.639312E-10 _shell_0000001113   
      1113  23  6.195105E-05  8.999945E+00  1.089257E-06  1.246876E-05 -4.976323E-07 -8.647466E-08 _shell_0000001113   
      1113  24  5.470921E-05  8.999895E+00 -3.492024E-07 -2.286115E-06 -6.551421E-07 -1.035085E-07 _shell_0000001113   
      1113  25  7.696755E-05  8.999979E+00 -1.216441E-06  2.953477E-05 -3.991240E-07  9.730749E-08 _shell_0000001113   
      1113  26  7.607464E-05  8.999952E+00  1.089231E-06  1.408063E-05 -9.659034E-07 -2.874626E-07 _shell_0000001113   
      1113  27  6.789978E-05  8.999904E+00 -6.879677E-09 -2.631460E-06 -1.532683E-06 -6.020279E-07 _shell_0000001113   
      1114   1  5.276768E-05  8.999849E+00  1.235219E-06 -9.834812E-06 -1.759763E-07 -5.490651E-07 _shell_0000001114   
      1114   2  5.471657E-05  8.999776E+00 -9.385087E-07 -1.534053E-06  2.306414E-07 -8.928671E-08 _shell_0000001114   
      1114   3  6.216035E-05  8.999717E+00  2.027675E-06  1.382665E-05  6.372590E-07  1.398179E-06 _shell_0000001114   
      1114   4  6.414881E-05  8.999854E+00  2.282800E-06 -1.510523E-05 -8.117855E-07 -1.244065E-07 _shell_0000001114   
      1114   5  7.143931E-05  8.999769E+00 -3.137171E-07 -3.623871E-06 -3.066622E-06 -2.159814E-07 _shell_0000001114   
      1114   6  8.319703E-05  8.999696E+00 -1.682607E-07  1.491743E-05 -5.321458E-06  7.201310E-07 _shell_0000001114   
      1114   7  7.716026E-05  8.999860E+00  2.933707E-06 -2.303730E-05 -1.957953E-06  3.002522E-07 _shell_0000001114   
      1114   8  9.081309E-05  8.999764E+00  2.296072E-06 -8.375337E-06 -6.874243E-06 -3.426762E-07 _shell_0000001114   
      1114   9  1.079054E-04  8.999678E+00  2.002473E-06  1.334657E-05 -1.179053E-05  4.208280E-08 _shell_0000001114   
      1114  10  5.295743E-05  8.999849E+00  1.219844E-06 -9.409202E-06  8.837171E-15 -6.199840E-15 _shell_0000001114   
      1114  11  5.543435E-05  8.999777E+00 -4.258501E-07 -3.489917E-06  8.252572E-15  5.074838E-15 _shell_0000001114   
      1114  12  6.340616E-05  8.999719E+00  3.068366E-06  9.489314E-06  4.546206E-15 -2.625605E-14 _shell_0000001114   
      1114  13  6.017098E-05  8.999852E+00  4.813200E-07 -1.450361E-05 -2.545078E-15  3.109638E-15 _shell_0000001114   
      1114  14  6.798952E-05  8.999768E+00 -1.587163E-06 -5.403724E-06  1.413288E-15  4.845701E-15 _shell_0000001114   
      1114  15  8.027526E-05  8.999697E+00 -9.136738E-07  1.075611E-05  9.451803E-15 -1.738103E-14 _shell_0000001114   
      1114  16  6.901485E-05  8.999856E+00 -6.538775E-07 -2.225966E-05 -1.335584E-15 -6.424172E-15 _shell_0000001114   
      1114  17  8.319572E-05  8.999761E+00 -7.634788E-07 -9.979179E-06  8.509778E-15 -8.729525E-15 _shell_0000001114   
      1114  18  1.008161E-04  8.999677E+00 -5.290447E-07  9.361253E-06  1.661163E-14 -3.104734E-14 _shell_0000001114   
      1114  19  5.276768E-05  8.999849E+00  1.235219E-06 -9.834812E-06  1.759763E-07  5.490651E-07 _shell_0000001114   
      1114  20  5.471657E-05  8.999776E+00 -9.385087E-07 -1.534053E-06 -2.306413E-07  8.928668E-08 _shell_0000001114   
      1114  21  6.216035E-05  8.999717E+00  2.027675E-06  1.382665E-05 -6.372590E-07 -1.398179E-06 _shell_0000001114   
      1114  22  6.414881E-05  8.999854E+00  2.282800E-06 -1.510523E-05  8.117855E-07  1.244064E-07 _shell_0000001114   
      1114  23  7.143931E-05  8.999769E+00 -3.137171E-07 -3.623871E-06  3.066622E-06  2.159815E-07 _shell_0000001114   
      1114  24  8.319703E-05  8.999696E+00 -1.682607E-07  1.491743E-05  5.321458E-06 -7.201311E-07 _shell_0000001114   
      1114  25  7.716026E-05  8.999860E+00  2.933707E-06 -2.303729E-05  1.957953E-06 -3.002522E-07 _shell_0000001114   
      1114  26  9.081309E-05  8.999764E+00  2.296072E-06 -8.375337E-06  6.874243E-06  3.426762E-07 _shell_0000001114   
      1114  27  1.079054E-04  8.999678E+00  2.002473E-06  1.334657E-05  1.179053E-05 -4.208285E-08 _shell_0000001114   
      1115   1  5.243369E-05  8.999687E+00  4.705056E-07  3.546383E-05  9.985664E-07  4.454506E-07 _shell_0000001115   
      1115   2  2.938262E-05  8.999645E+00 -3.514502E-07  3.040361E-05 -1.385549E-07 -1.440346E-06 _shell_0000001115   
      1115   3  6.865037E-06  8.999603E+00  1.621769E-06  1.731454E-05 -1.275676E-06  2.156580E-06 _shell_0000001115   
      1115   4  6.367928E-05  8.999666E+00 -3.564833E-06  4.602173E-05 -6.353026E-06 -3.868690E-07 _shell_0000001115   
      1115   5  4.025569E-05  8.999651E+00  2.744619E-06  4.317968E-05 -1.347043E-06 -2.251465E-06 _shell_0000001115   
      1115   6  1.188288E-05  8.999629E+00 -9.437731E-07  3.230877E-05  3.658939E-06  1.366662E-06 _shell_0000001115   
      1115   7  8.076833E-05  8.999649E+00 -2.651276E-06  6.127019E-05 -1.287987E-05 -1.219189E-06 _shell_0000001115   
      1115   8  5.532275E-05  8.999658E+00  6.940781E-06  6.064630E-05 -1.730788E-06 -3.062583E-06 _shell_0000001115   
      1115   9  1.944521E-05  8.999656E+00 -6.258027E-06  5.199356E-05  9.418299E-06  5.767447E-07 _shell_0000001115   
      1115  10  5.256185E-05  8.999688E+00  8.154037E-07  3.028498E-05  8.788089E-16 -2.819062E-14 _shell_0000001115   
      1115  11  2.767895E-05  8.999642E+00 -1.838374E-06  2.777607E-05  7.222483E-15  2.733020E-15 _shell_0000001115   
      1115  12  3.329550E-06  8.999595E+00 -1.696976E-06  1.723830E-05 -5.310292E-15  1.622295E-14 _shell_0000001115   
      1115  13  6.827222E-05  8.999669E+00 -1.306454E-06  4.023228E-05  1.353908E-14 -2.624564E-14 _shell_0000001115   
      1115  14  4.301682E-05  8.999650E+00  3.171176E-06  3.994152E-05  1.140243E-14 -3.339791E-15 _shell_0000001115   
      1115  15  1.281218E-05  8.999624E+00 -2.349038E-06  3.162193E-05 -7.469195E-15  2.151857E-14 _shell_0000001115   
      1115  16  8.982606E-05  8.999654E+00  1.520583E-06  5.487013E-05  1.898089E-14 -3.920580E-14 _shell_0000001115   
      1115  17  6.254866E-05  8.999659E+00  9.280818E-06  5.679754E-05  8.958839E-15 -1.381999E-14 _shell_0000001115   
      1115  18  2.483930E-05  8.999652E+00 -5.749812E-06  5.069611E-05 -1.467222E-14  2.909524E-14 _shell_0000001115   
      1115  19  5.243369E-05  8.999687E+00  4.705057E-07  3.546383E-05 -9.985664E-07 -4.454507E-07 _shell_0000001115   
      1115  20  2.938262E-05  8.999645E+00 -3.514502E-07  3.040361E-05  1.385549E-07  1.440346E-06 _shell_0000001115   
      1115  21  6.865037E-06  8.999603E+00  1.621769E-06  1.731454E-05  1.275676E-06 -2.156580E-06 _shell_0000001115   
      1115  22  6.367928E-05  8.999666E+00 -3.564833E-06  4.602173E-05  6.353026E-06  3.868689E-07 _shell_0000001115   
      1115  23  4.025569E-05  8.999651E+00  2.744619E-06  4.317968E-05  1.347043E-06  2.251465E-06 _shell_0000001115   
      1115  24  1.188288E-05  8.999629E+00 -9.437731E-07  3.230877E-05 -3.658940E-06 -1.366662E-06 _shell_0000001115   
      1115  25  8.076833E-05  8.999649E+00 -2.651276E-06  6.127019E-05  1.287987E-05  1.219189E-06 _shell_0000001115   
      1115  26  5.532275E-05  8.999658E+00  6.940781E-06  6.064630E-05  1.730788E-06  3.062583E-06 _shell_0000001115   
      1115  27  1.944521E-05  8.999656E+00 -6.258027E-06  5.199356E-05 -9.418299E-06 -5.767447E-07 _shell_0000001115   
      1201   1  1.557636E-05  8.999685E+00 -7.397295E-06 -6.148856E-05 -6.359950E-06 -3.296374E-07 _shell_0000001201   
      1201   2  5.802071E-05  8.999640E+00  9.316697E-07 -8.695180E-05 -2.596326E-06 -3.323787E-06 _shell_0000001201   
      1201   3  1.101177E-04  8.999628E+00  9.287581E-06 -6.159687E-05  1.167299E-06 -1.884521E-05 _shell_0000001201   
      1201   4 -1.595083E-05  8.999764E+00  2.902552E-06 -7.089984E-05  1.523551E-05  4.838211E-06 _shell_0000001201   
      1201   5  7.489627E-05  8.999668E+00  4.123650E-06 -1.055104E-04 -1.252405E-05  2.015547E-06 _shell_0000001201   
      1201   6  1.879233E-04  8.999616E+00  3.460200E-05 -8.930281E-05 -4.028361E-05 -1.333439E-05 _shell_0000001201   
      1201   7 -6.563753E-05  8.999840E+00  2.006782E-05 -9.264771E-05  4.425739E-05  1.000606E-05 _shell_0000001201   
      1201   8  5.875946E-05  8.999677E+00 -2.047561E-05 -1.364056E-04 -1.502535E-05  7.354880E-06 _shell_0000001201   
      1201   9  2.178636E-04  8.999571E+00 -2.531493E-06 -1.293453E-04 -7.430809E-05 -7.823571E-06 _shell_0000001201   
      1201  10  3.024383E-05  8.999719E+00  7.154672E-06 -4.861822E-05 -1.132433E-14 -1.018070E-15 _shell_0000001201   
      1201  11  5.617163E-05  8.999636E+00 -1.032905E-06 -9.302613E-05  8.722430E-16 -1.030264E-14 _shell_0000001201   
      1201  12  9.175206E-05  8.999584E+00 -9.193534E-06 -8.661586E-05  8.093941E-15 -2.208063E-14 _shell_0000001201   
      1201  13 -3.443652E-05  8.999784E+00  3.246023E-06 -6.353502E-05 -1.577751E-15 -1.266443E-14 _shell_0000001201   
      1201  14  3.989404E-05  8.999649E+00 -1.204942E-05 -1.170903E-04  7.565205E-16  2.890884E-15 _shell_0000001201   
      1201  15  1.364045E-04  8.999558E+00  1.912385E-06 -1.198273E-04  2.506628E-15 -3.519653E-14 _shell_0000001201   
      1201  16 -1.172764E-04  8.999845E+00  6.202793E-06 -9.078840E-05 -1.198439E-14 -3.257819E-14 _shell_0000001201   
      1201  17 -9.395925E-06  8.999644E+00 -5.085718E-05 -1.534910E-04 -9.251233E-15  4.519783E-15 _shell_0000001201   
      1201  18  1.331917E-04  8.999499E+00 -4.942960E-05 -1.653753E-04 -1.241366E-14 -3.577615E-14 _shell_0000001201   
      1201  19  1.557636E-05  8.999685E+00 -7.397295E-06 -6.148856E-05  6.359950E-06  3.296375E-07 _shell_0000001201   
      1201  20  5.802071E-05  8.999640E+00  9.316697E-07 -8.695180E-05  2.596326E-06  3.323787E-06 _shell_0000001201   
      1201  21  1.101177E-04  8.999628E+00  9.287581E-06 -6.159687E-05 -1.167299E-06  1.884521E-05 _shell_0000001201   
      1201  22 -1.595083E-05  8.999764E+00  2.902552E-06 -7.089984E-05 -1.523551E-05 -4.838211E-06 _shell_0000001201   
      1201  23  7.489627E-05  8.999668E+00  4.123651E-06 -1.055104E-04  1.252405E-05 -2.015547E-06 _shell_0000001201   
      1201  24  1.879233E-04  8.999616E+00  3.460200E-05 -8.930281E-05  4.028361E-05  1.333439E-05 _shell_0000001201   
      1201  25 -6.563753E-05  8.999840E+00  2.006782E-05 -9.264771E-05 -4.425739E-05 -1.000606E-05 _shell_0000001201   
      1201  26  5.875946E-05  8.999677E+00 -2.047561E-05 -1.364056E-04  1.502535E-05 -7.354880E-06 _shell_0000001201   
      1201  27  2.178636E-04  8.999571E+00 -2.531493E-06 -1.293453E-04  7.430809E-05  7.823571E-06 _shell_0000001201   
      1202   1  1.275399E-04  8.999677E+00  1.672661E-05  1.464100E-05  7.007962E-06 -1.805867E-05 _shell_0000001202   
      1202   2  1.159307E-04  8.999802E+00  2.003764E-05  2.683113E-05  4.478300E-06 -5.086943E-07 _shell_0000001202   
      1202   3  7.887379E-05  8.999865E+00 -3.274347E-07  2.731542E-05  1.948638E-06  3.469296E-06 _shell_0000001202   
      1202   4  1.344541E-04  8.999624E+00  7.195757E-06  2.486894E-05 -2.014980E-05 -1.352646E-05 _shell_0000001202   
      1202   5  1.103180E-04  8.999773E+00 -4.924836E-06  3.128961E-05 -1.181638E-05  4.890602E-07 _shell_0000001202   
      1202   6  7.430624E-05  8.999874E+00 -9.053565E-06  2.600444E-05 -3.482960E-06  9.325935E-07 _shell_0000001202   
      1202   7  1.240916E-04  8.999551E+00 -5.316728E-05  4.140231E-05 -5.338657E-05 -8.994249E-06 _shell_0000001202   
      1202   8  9.958673E-05  8.999737E+00 -5.235078E-05  4.205352E-05 -3.419007E-05  1.486815E-06 _shell_0000001202   
      1202   9  7.677810E-05  8.999888E+00 -1.187444E-05  3.099889E-05 -1.499357E-05 -1.604109E-06 _shell_0000001202   
      1202  10  1.045408E-04  8.999628E+00 -4.873502E-06 -1.218891E-05  1.016796E-14 -2.280473E-14 _shell_0000001202   
      1202  11  1.026331E-04  8.999775E+00  8.139042E-06  1.323802E-05  1.035375E-14 -1.702192E-14 _shell_0000001202   
      1202  12  7.527772E-05  8.999861E+00 -2.524524E-06  2.695912E-05  1.195417E-14 -2.243696E-14 _shell_0000001202   
      1202  13  1.346194E-04  8.999585E+00 -4.476750E-06  1.272869E-06  2.054420E-16 -3.384011E-14 _shell_0000001202   
      1202  14  1.201848E-04  8.999757E+00 -6.895831E-06  2.093034E-05 -2.854079E-19 -1.995836E-15 _shell_0000001202   
      1202  15  9.387458E-05  8.999881E+00 -1.323050E-06  2.888198E-05  4.181110E-15 -3.518530E-14 _shell_0000001202   
      1202  16  1.474213E-04  8.999522E+00 -5.491218E-05  2.104007E-05 -1.500378E-14 -3.481794E-14 _shell_0000001202   
      1202  17  1.326180E-04  8.999730E+00 -4.439417E-05  3.492808E-05 -1.408032E-14  2.381824E-15 _shell_0000001202   
      1202  18  1.195109E-04  8.999904E+00  5.783678E-06  3.711027E-05 -9.553443E-15 -4.748399E-14 _shell_0000001202   
      1202  19  1.275399E-04  8.999677E+00  1.672661E-05  1.464100E-05 -7.007962E-06  1.805867E-05 _shell_0000001202   
      1202  20  1.159307E-04  8.999802E+00  2.003764E-05  2.683113E-05 -4.478300E-06  5.086943E-07 _shell_0000001202   
      1202  21  7.887379E-05  8.999865E+00 -3.274348E-07  2.731542E-05 -1.948638E-06 -3.469296E-06 _shell_0000001202   
      1202  22  1.344541E-04  8.999624E+00  7.195757E-06  2.486894E-05  2.014980E-05  1.352646E-05 _shell_0000001202   
      1202  23  1.103180E-04  8.999773E+00 -4.924836E-06  3.128961E-05  1.181638E-05 -4.890602E-07 _shell_0000001202   
      1202  24  7.430624E-05  8.999874E+00 -9.053565E-06  2.600444E-05  3.482960E-06 -9.325935E-07 _shell_0000001202   
      1202  25  1.240916E-04  8.999551E+00 -5.316728E-05  4.140231E-05  5.338657E-05  8.994249E-06 _shell_0000001202   
      1202  26  9.958673E-05  8.999737E+00 -5.235078E-05  4.205352E-05  3.419007E-05 -1.486815E-06 _shell_0000001202   
      1202  27  7.677810E-05  8.999888E+00 -1.187444E-05  3.099889E-05  1.499357E-05  1.604109E-06 _shell_0000001202   
      1203   1  6.800234E-05  8.999891E+00 -8.966345E-06  9.869970E-08 -7.092833E-07  1.968591E-06 _shell_0000001203   
      1203   2  8.101449E-05  8.999947E+00 -3.575803E-06 -1.737305E-05 -5.942739E-07  1.102852E-06 _shell_0000001203   
      1203   3  8.874226E-05  8.999986E+00  7.330642E-07 -3.311545E-05 -4.792645E-07 -5.239551E-07 _shell_0000001203   
      1203   4  9.625998E-05  8.999923E+00  3.781144E-06 -3.400137E-06  3.971264E-06 -1.038734E-06 _shell_0000001203   
      1203   5  1.041897E-04  8.999963E+00  9.033700E-07 -1.982383E-05  2.124500E-06  1.269506E-08 _shell_0000001203   
      1203   6  1.075961E-04  8.999987E+00 -1.280254E-06 -3.451819E-05  2.777357E-07  3.030557E-07 _shell_0000001203   
      1203   7  1.355018E-04  8.999962E+00  2.929115E-05 -9.237761E-06  1.007010E-05 -4.046059E-06 _shell_0000001203   
      1203   8  1.355125E-04  8.999983E+00  1.152636E-05 -2.461341E-05  6.261566E-06 -1.077462E-06 _shell_0000001203   
      1203   9  1.317610E-04  8.999989E+00 -3.768455E-06 -3.825971E-05  2.453028E-06  1.130067E-06 _shell_0000001203   
      1203  10  7.159605E-05  8.999895E+00 -6.640902E-06  2.854307E-06  5.942219E-15 -2.789507E-14 _shell_0000001203   
      1203  11  8.357385E-05  8.999949E+00 -2.284704E-06 -1.580337E-05 -6.711713E-15 -2.251947E-14 _shell_0000001203   
      1203  12  9.026728E-05  8.999986E+00  9.898191E-07 -3.273171E-05 -6.256060E-15  1.177015E-14 _shell_0000001203   
      1203  13  9.777831E-05  8.999926E+00  5.217140E-06 -9.893118E-07  2.955643E-15 -4.524272E-14 _shell_0000001203   
      1203  14  1.046737E-04  8.999964E+00  1.305022E-06 -1.859894E-05 -4.072475E-15 -1.014022E-14 _shell_0000001203   
      1203  15  1.070458E-04  8.999985E+00 -1.912946E-06 -3.447922E-05 -5.383582E-15 -2.623787E-14 _shell_0000001203   
      1203  16  1.349448E-04  8.999964E+00  2.983770E-05 -7.171716E-06 -4.695087E-15 -5.293957E-14 _shell_0000001203   
      1203  17  1.339211E-04  8.999983E+00  1.103856E-05 -2.373329E-05 -4.587540E-15 -1.024194E-14 _shell_0000001203   
      1203  18  1.291353E-04  8.999986E+00 -5.290594E-06 -3.856552E-05  1.011567E-15 -4.661867E-14 _shell_0000001203   
      1203  19  6.800234E-05  8.999891E+00 -8.966345E-06  9.869967E-08  7.092833E-07 -1.968591E-06 _shell_0000001203   
      1203  20  8.101449E-05  8.999947E+00 -3.575803E-06 -1.737305E-05  5.942739E-07 -1.102852E-06 _shell_0000001203   
      1203  21  8.874226E-05  8.999986E+00  7.330641E-07 -3.311545E-05  4.792645E-07  5.239552E-07 _shell_0000001203   
      1203  22  9.625998E-05  8.999923E+00  3.781144E-06 -3.400137E-06 -3.971264E-06  1.038734E-06 _shell_0000001203   
      1203  23  1.041897E-04  8.999963E+00  9.033700E-07 -1.982383E-05 -2.124500E-06 -1.269508E-08 _shell_0000001203   
      1203  24  1.075961E-04  8.999987E+00 -1.280254E-06 -3.451819E-05 -2.777357E-07 -3.030558E-07 _shell_0000001203   
      1203  25  1.355018E-04  8.999962E+00  2.929115E-05 -9.237761E-06 -1.007010E-05  4.046059E-06 _shell_0000001203   
      1203  26  1.355125E-04  8.999983E+00  1.152636E-05 -2.461341E-05 -6.261566E-06  1.077462E-06 _shell_0000001203   
      1203  27  1.317610E-04  8.999989E+00 -3.768455E-06 -3.825971E-05 -2.453028E-06 -1.130067E-06 _shell_0000001203   
      1204   1  9.610587E-05  8.999999E+00  2.982133E-06 -3.813046E-05  1.640007E-08 -1.026927E-06 _shell_0000001204   
      1204   2  9.956265E-05  9.000005E+00  6.503691E-07 -3.902316E-05  2.352424E-08 -5.459203E-07 _shell_0000001204   
      1204   3  1.027408E-04  9.000009E+00 -1.532873E-07 -4.229598E-05  3.064840E-08  7.666423E-08 _shell_0000001204   
      1204   4  1.160158E-04  8.999997E+00  1.009507E-06 -4.065659E-05 -1.659128E-07  1.616117E-07 _shell_0000001204   
      1204   5  1.169439E-04  9.000004E+00 -2.908758E-07 -4.028987E-05 -1.770062E-07 -3.216427E-08 _shell_0000001204   
      1204   6  1.174519E-04  9.000008E+00 -3.935001E-07 -4.230328E-05 -1.880996E-07 -8.436203E-08 _shell_0000001204   
      1204   7  1.371008E-04  8.999994E+00 -4.234509E-06 -4.293219E-05 -8.428410E-07  1.350150E-06 _shell_0000001204   
      1204   8  1.364895E-04  9.000003E+00 -2.195305E-06 -4.130606E-05 -8.721519E-07  4.815917E-07 _shell_0000001204   
      1204   9  1.353164E-04  9.000009E+00  7.113073E-07 -4.206005E-05 -9.014629E-07 -2.453883E-07 _shell_0000001204   
      1204  10  9.611196E-05  8.999997E+00  2.474748E-06 -3.758203E-05 -5.067912E-15  7.330108E-15 _shell_0000001204   
      1204  11  9.992249E-05  9.000005E+00  4.967379E-07 -3.854149E-05 -3.834192E-15 -2.129786E-14 _shell_0000001204   
      1204  12  1.034544E-04  9.000009E+00  4.683587E-08 -4.188106E-05 -7.086090E-15 -3.068176E-15 _shell_0000001204   
      1204  13  1.159051E-04  8.999995E+00  4.520551E-07 -3.999024E-05  8.255397E-17 -2.732720E-14 _shell_0000001204   
      1204  14  1.171869E-04  9.000003E+00 -4.945732E-07 -3.969028E-05  3.531699E-16 -4.461997E-15 _shell_0000001204   
      1204  15  1.180486E-04  9.000008E+00 -2.434432E-07 -4.177044E-05 -7.514504E-16 -2.114756E-14 _shell_0000001204   
      1204  16  1.368733E-04  8.999992E+00 -4.842027E-06 -4.214793E-05  2.365502E-15 -4.805282E-14 _shell_0000001204   
      1204  17  1.366157E-04  9.000002E+00 -2.449069E-06 -4.058855E-05  5.151575E-15 -5.049837E-15 _shell_0000001204   
      1204  18  1.357963E-04  9.000009E+00  8.112979E-07 -4.140930E-05 -9.353179E-16 -2.465380E-14 _shell_0000001204   
      1204  19  9.610587E-05  8.999999E+00  2.982133E-06 -3.813046E-05 -1.640008E-08  1.026927E-06 _shell_0000001204   
      1204  20  9.956265E-05  9.000005E+00  6.503691E-07 -3.902316E-05 -2.352424E-08  5.459203E-07 _shell_0000001204   
      1204  21  1.027408E-04  9.000009E+00 -1.532874E-07 -4.229598E-05 -3.064841E-08 -7.666421E-08 _shell_0000001204   
      1204  22  1.160158E-04  8.999997E+00  1.009507E-06 -4.065659E-05  1.659128E-07 -1.616118E-07 _shell_0000001204   
      1204  23  1.169439E-04  9.000004E+00 -2.908758E-07 -4.028987E-05  1.770062E-07  3.216425E-08 _shell_0000001204   
      1204  24  1.174519E-04  9.000008E+00 -3.935002E-07 -4.230328E-05  1.880996E-07  8.436201E-08 _shell_0000001204   
      1204  25  1.371008E-04  8.999994E+00 -4.234509E-06 -4.293219E-05  8.428410E-07 -1.350150E-06 _shell_0000001204   
      1204  26  1.364895E-04  9.000003E+00 -2.195305E-06 -4.130606E-05  8.721519E-07 -4.815917E-07 _shell_0000001204   
      1204  27  1.353164E-04  9.000009E+00  7.113072E-07 -4.206005E-05  9.014629E-07  2.453882E-07 _shell_0000001204   
      1205   1  1.037005E-04  9.000010E+00 -2.437585E-07 -4.095119E-05  6.992900E-08  2.416461E-07 _shell_0000001205   
      1205   2  1.045824E-04  9.000012E+00 -2.476661E-07 -3.661167E-05  3.068854E-08  1.053168E-07 _shell_0000001205   
      1205   3  1.054459E-04  9.000014E+00  1.123370E-07 -3.376286E-05 -8.551920E-09 -1.445925E-08 _shell_0000001205   
      1205   4  1.183468E-04  9.000010E+00  1.921591E-07 -4.044916E-05 -3.989736E-08 -6.322872E-08 _shell_0000001205   
      1205   5  1.168711E-04  9.000011E+00 -9.514896E-08 -3.582673E-05  3.041100E-09 -1.910992E-08 _shell_0000001205   
      1205   6  1.153604E-04  9.000011E+00 -5.717039E-08 -3.269500E-05  4.597956E-08  4.156199E-08 _shell_0000001205   
      1205   7  1.339044E-04  9.000010E+00  1.471938E-06 -4.000935E-05 -6.990478E-08 -3.681035E-07 _shell_0000001205   
      1205   8  1.299114E-04  9.000010E+00  5.287411E-07 -3.510400E-05  5.521259E-08 -1.435367E-07 _shell_0000001205   
      1205   9  1.258668E-04  9.000009E+00 -1.277933E-07 -3.168935E-05  1.803300E-07  9.758324E-08 _shell_0000001205   
      1205  10  1.037620E-04  9.000010E+00 -2.603940E-07 -4.072338E-05 -8.273317E-15  8.144564E-16 _shell_0000001205   
      1205  11  1.046673E-04  9.000012E+00 -2.408900E-07 -3.632844E-05 -6.054446E-15 -1.193165E-14 _shell_0000001205   
      1205  12  1.055542E-04  9.000014E+00  1.425244E-07 -3.342420E-05  2.550461E-15 -1.897424E-15 _shell_0000001205   
      1205  13  1.185053E-04  9.000010E+00  2.170937E-07 -4.021355E-05 -3.283174E-15 -1.915963E-14 _shell_0000001205   
      1205  14  1.170530E-04  9.000011E+00 -4.680290E-08 -3.553570E-05 -3.203975E-15  7.828720E-15 _shell_0000001205   
      1205  15  1.155657E-04  9.000011E+00  1.458701E-08 -3.234854E-05  2.770218E-16 -1.361141E-14 _shell_0000001205   
      1205  16  1.341599E-04  9.000010E+00  1.538443E-06 -3.976594E-05 -4.848551E-15 -2.036137E-14 _shell_0000001205   
      1205  17  1.301903E-04  9.000010E+00  6.186572E-07 -3.480516E-05 -2.674017E-15  3.298321E-15 _shell_0000001205   
      1205  18  1.261691E-04  9.000009E+00 -1.446583E-08 -3.133509E-05 -5.501749E-16 -3.249291E-14 _shell_0000001205   
      1205  19  1.037005E-04  9.000010E+00 -2.437586E-07 -4.095119E-05 -6.992902E-08 -2.416460E-07 _shell_0000001205   
      1205  20  1.045824E-04  9.000012E+00 -2.476660E-07 -3.661167E-05 -3.068854E-08 -1.053168E-07 _shell_0000001205   
      1205  21  1.054459E-04  9.000014E+00  1.123371E-07 -3.376286E-05  8.551928E-09  1.445926E-08 _shell_0000001205   
      1205  22  1.183468E-04  9.000010E+00  1.921590E-07 -4.044916E-05  3.989735E-08  6.322870E-08 _shell_0000001205   
      1205  23  1.168711E-04  9.000011E+00 -9.514893E-08 -3.582673E-05 -3.041097E-09  1.910995E-08 _shell_0000001205   
      1205  24  1.153604E-04  9.000011E+00 -5.717044E-08 -3.269500E-05 -4.597955E-08 -4.156201E-08 _shell_0000001205   
      1205  25  1.339044E-04  9.000010E+00  1.471938E-06 -4.000935E-05  6.990477E-08  3.681035E-07 _shell_0000001205   
      1205  26  1.299114E-04  9.000010E+00  5.287410E-07 -3.510400E-05 -5.521261E-08  1.435367E-07 _shell_0000001205   
      1205  27  1.258668E-04  9.000009E+00 -1.277934E-07 -3.168935E-05 -1.803300E-07 -9.758327E-08 _shell_0000001205   
      1206   1  1.051505E-04  9.000014E+00  1.049408E-07 -3.061209E-05 -4.551961E-08 -5.409599E-08 _shell_0000001206   
      1206   2  1.045000E-04  9.000013E+00  2.868735E-08 -2.498653E-05 -2.369860E-08 -4.940011E-08 _shell_0000001206   
      1206   3  1.037662E-04  9.000013E+00 -4.803691E-08 -2.057620E-05 -1.877592E-09  4.585272E-09 _shell_0000001206   
      1206   4  1.141898E-04  9.000011E+00 -4.685807E-09 -2.953253E-05  5.551024E-08  3.802740E-08 _shell_0000001206   
      1206   5  1.120750E-04  9.000011E+00  5.044102E-08 -2.400954E-05  1.106194E-08 -1.365992E-08 _shell_0000001206   
      1206   6  1.098277E-04  9.000010E+00 -9.911707E-09 -1.970179E-05 -3.338636E-08 -1.605779E-08 _shell_0000001206   
      1206   7  1.230271E-04  9.000008E+00 -4.054115E-07 -2.832727E-05  1.215789E-07  1.301508E-07 _shell_0000001206   
      1206   8  1.195180E-04  9.000008E+00 -5.575215E-08 -2.290686E-05  1.086131E-08  2.208023E-08 _shell_0000001206   
      1206   9  1.158270E-04  9.000008E+00  6.341879E-08 -1.870169E-05 -9.985631E-08 -3.670081E-08 _shell_0000001206   
      1206  10  1.052027E-04  9.000014E+00  1.175381E-07 -3.032444E-05  6.620466E-15  7.093104E-22 _shell_0000001206   
      1206  11  1.045675E-04  9.000013E+00  5.651616E-08 -2.476707E-05  6.021501E-15 -1.590212E-14 _shell_0000001206   
      1206  12  1.038489E-04  9.000013E+00 -4.976600E-09 -2.042493E-05  8.268030E-15 -1.355430E-14 _shell_0000001206   
      1206  13  1.141227E-04  9.000011E+00 -4.322771E-08 -2.923980E-05  2.825192E-15 -1.269000E-14 _shell_0000001206   
      1206  14  1.120232E-04  9.000011E+00  2.713068E-08 -2.378500E-05  7.330052E-15  2.914097E-15 _shell_0000001206   
      1206  15  1.097911E-04  9.000010E+00 -1.799055E-08 -1.954544E-05  7.887046E-15 -1.317873E-14 _shell_0000001206   
      1206  16  1.228407E-04  9.000008E+00 -4.950926E-07 -2.802947E-05  2.917240E-15 -3.400349E-14 _shell_0000001206   
      1206  17  1.193469E-04  9.000008E+00 -1.302016E-07 -2.267725E-05  6.752209E-15  7.268789E-15 _shell_0000001206   
      1206  18  1.156711E-04  9.000008E+00  4.200828E-09 -1.854026E-05  3.936014E-15 -2.587146E-15 _shell_0000001206   
      1206  19  1.051505E-04  9.000014E+00  1.049408E-07 -3.061209E-05  4.551962E-08  5.409602E-08 _shell_0000001206   
      1206  20  1.045000E-04  9.000013E+00  2.868744E-08 -2.498653E-05  2.369861E-08  4.940008E-08 _shell_0000001206   
      1206  21  1.037662E-04  9.000013E+00 -4.803690E-08 -2.057620E-05  1.877607E-09 -4.585266E-09 _shell_0000001206   
      1206  22  1.141898E-04  9.000011E+00 -4.685869E-09 -2.953253E-05 -5.551023E-08 -3.802742E-08 _shell_0000001206   
      1206  23  1.120750E-04  9.000011E+00  5.044105E-08 -2.400954E-05 -1.106192E-08  1.365995E-08 _shell_0000001206   
      1206  24  1.098277E-04  9.000010E+00 -9.911681E-09 -1.970179E-05  3.338637E-08  1.605776E-08 _shell_0000001206   
      1206  25  1.230271E-04  9.000008E+00 -4.054115E-07 -2.832727E-05 -1.215789E-07 -1.301509E-07 _shell_0000001206   
      1206  26  1.195180E-04  9.000008E+00 -5.575215E-08 -2.290686E-05 -1.086130E-08 -2.208023E-08 _shell_0000001206   
      1206  27  1.158270E-04  9.000008E+00  6.341884E-08 -1.870169E-05  9.985631E-08  3.670082E-08 _shell_0000001206   
      1207   1  1.032816E-04  9.000012E+00 -8.374166E-08 -1.744717E-05  2.198828E-08  2.657365E-08 _shell_0000001207   
      1207   2  1.027807E-04  9.000012E+00 -1.648873E-08 -1.228975E-05  3.862770E-09  1.764708E-08 _shell_0000001207   
      1207   3  1.022301E-04  9.000011E+00 -4.579070E-08 -7.686119E-06 -1.426273E-08  1.075346E-08 _shell_0000001207   
      1207   4  1.088584E-04  9.000010E+00  6.805104E-09 -1.661554E-05  1.325362E-08 -7.159063E-09 _shell_0000001207   
      1207   5  1.076323E-04  9.000010E+00  5.034468E-08 -1.168893E-05 -5.859813E-09 -4.684818E-09 _shell_0000001207   
      1207   6  1.063546E-04  9.000009E+00 -7.414193E-09 -7.316095E-06 -2.497324E-08 -1.776592E-10 _shell_0000001207   
      1207   7  1.140908E-04  9.000008E+00  4.708500E-08 -1.573950E-05  7.479508E-09 -4.089174E-08 _shell_0000001207   
      1207   8  1.121337E-04  9.000007E+00  5.309531E-08 -1.104369E-05 -1.262183E-08 -2.701679E-08 _shell_0000001207   
      1207   9  1.101229E-04  9.000007E+00 -4.693639E-08 -6.901656E-06 -3.272320E-08 -1.110875E-08 _shell_0000001207   
      1207  10  1.032542E-04  9.000012E+00 -8.430163E-08 -1.737252E-05  1.013949E-14 -5.701184E-15 _shell_0000001207   
      1207  11  1.027595E-04  9.000012E+00 -1.088405E-08 -1.221661E-05  9.476877E-15 -7.757577E-15 _shell_0000001207   
      1207  12  1.022151E-04  9.000011E+00 -3.402127E-08 -7.614482E-06  7.676655E-15 -2.090985E-14 _shell_0000001207   
      1207  13  1.088284E-04  9.000010E+00  5.117678E-09 -1.653884E-05  8.545758E-15 -1.266455E-14 _shell_0000001207   
      1207  14  1.076085E-04  9.000010E+00  5.482189E-08 -1.161373E-05  1.080359E-14  1.342811E-14 _shell_0000001207   
      1207  15  1.063370E-04  9.000009E+00  3.227686E-09 -7.242403E-06  4.560399E-15  1.916795E-14 _shell_0000001207   
      1207  16  1.140582E-04  9.000008E+00  4.427013E-08 -1.566075E-05  5.322428E-15 -7.126478E-15 _shell_0000001207   
      1207  17  1.121072E-04  9.000007E+00  5.644507E-08 -1.096644E-05  6.797100E-15  2.891093E-15 _shell_0000001207   
      1207  18  1.101026E-04  9.000007E+00 -3.742205E-08 -6.825909E-06  2.361025E-15  2.803126E-14 _shell_0000001207   
      1207  19  1.032816E-04  9.000012E+00 -8.374169E-08 -1.744717E-05 -2.198826E-08 -2.657365E-08 _shell_0000001207   
      1207  20  1.027807E-04  9.000012E+00 -1.648867E-08 -1.228975E-05 -3.862757E-09 -1.764709E-08 _shell_0000001207   
      1207  21  1.022301E-04  9.000011E+00 -4.579047E-08 -7.686119E-06  1.426275E-08 -1.075347E-08 _shell_0000001207   
      1207  22  1.088584E-04  9.000010E+00  6.805119E-09 -1.661554E-05 -1.325360E-08  7.159046E-09 _shell_0000001207   
      1207  23  1.076323E-04  9.000010E+00  5.034469E-08 -1.168893E-05  5.859826E-09  4.684870E-09 _shell_0000001207   
      1207  24  1.063546E-04  9.000009E+00 -7.414103E-09 -7.316095E-06  2.497326E-08  1.776922E-10 _shell_0000001207   
      1207  25  1.140908E-04  9.000008E+00  4.708509E-08 -1.573950E-05 -7.479499E-09  4.089174E-08 _shell_0000001207   
      1207  26  1.121337E-04  9.000007E+00  5.309526E-08 -1.104369E-05  1.262186E-08  2.701679E-08 _shell_0000001207   
      1207  27  1.101229E-04  9.000007E+00 -4.693642E-08 -6.901656E-06  3.272320E-08  1.110884E-08 _shell_0000001207   
      1208   1  1.020307E-04  9.000011E+00 -5.298808E-08 -4.744357E-06  8.970114E-09  6.956538E-09 _shell_0000001208   
      1208   2  1.020553E-04  9.000011E+00  5.954217E-09 -4.823099E-14  1.921604E-15  3.697373E-09 _shell_0000001208   
      1208   3  1.020307E-04  9.000011E+00 -5.298804E-08  4.744357E-06 -8.970109E-09  6.956580E-09 _shell_0000001208   
      1208   4  1.059867E-04  9.000009E+00 -9.927521E-10 -4.483395E-06  3.866901E-08 -6.570173E-10 _shell_0000001208   
      1208   5  1.060146E-04  9.000009E+00  6.555436E-08 -3.097473E-14 -6.522001E-15 -3.916186E-09 _shell_0000001208   
      1208   6  1.059867E-04  9.000009E+00 -9.927605E-10  4.483395E-06 -3.866901E-08 -6.570039E-10 _shell_0000001208   
      1208   7  1.095222E-04  9.000007E+00 -5.775116E-08 -4.222434E-06  6.836792E-08 -8.270527E-09 _shell_0000001208   
      1208   8  1.095533E-04  9.000007E+00  1.640069E-08 -4.591489E-14 -8.500872E-15 -1.152979E-08 _shell_0000001208   
      1208   9  1.095222E-04  9.000007E+00 -5.775126E-08  4.222434E-06 -6.836793E-08 -8.270543E-09 _shell_0000001208   
      1208  10  1.020188E-04  9.000011E+00 -3.887765E-08 -4.719638E-06  1.164735E-15 -1.058791E-14 _shell_0000001208   
      1208  11  1.020434E-04  9.000011E+00  2.006463E-08 -4.917271E-14 -5.543940E-15  2.728534E-15 _shell_0000001208   
      1208  12  1.020188E-04  9.000011E+00 -3.887762E-08  4.719638E-06 -5.285646E-15 -1.240897E-14 _shell_0000001208   
      1208  13  1.059315E-04  9.000009E+00 -5.421264E-09 -4.458677E-06 -1.628904E-15  2.317146E-14 _shell_0000001208   
      1208  14  1.059594E-04  9.000009E+00  6.112580E-08 -3.858479E-14 -6.362928E-15  2.243801E-14 _shell_0000001208   
      1208  15  1.059315E-04  9.000009E+00 -5.421294E-09  4.458677E-06 -2.608808E-15 -1.687412E-14 _shell_0000001208   
      1208  16  1.094237E-04  9.000007E+00 -8.071869E-08 -4.197715E-06 -2.453070E-15  3.827937E-14 _shell_0000001208   
      1208  17  1.094548E-04  9.000007E+00 -6.566781E-09 -4.632211E-14 -3.956875E-15  1.459888E-14 _shell_0000001208   
      1208  18  1.094237E-04  9.000007E+00 -8.071874E-08  4.197715E-06  5.599926E-16 -8.695556E-15 _shell_0000001208   
      1208  19  1.020307E-04  9.000011E+00 -5.298791E-08 -4.744357E-06 -8.970117E-09 -6.956551E-09 _shell_0000001208   
      1208  20  1.020553E-04  9.000011E+00  5.954309E-09 -5.861529E-14 -1.410025E-14 -3.697360E-09 _shell_0000001208   
      1208  21  1.020307E-04  9.000011E+00 -5.298801E-08  4.744357E-06  8.970097E-09 -6.956576E-09 _shell_0000001208   
      1208  22  1.059867E-04  9.000009E+00 -9.926668E-10 -4.483395E-06 -3.866902E-08  6.570629E-10 _shell_0000001208   
      1208  23  1.060146E-04  9.000009E+00  6.555436E-08 -5.874255E-14 -1.354031E-14  3.916252E-09 _shell_0000001208   
      1208  24  1.059867E-04  9.000009E+00 -9.927335E-10  4.483395E-06  3.866900E-08  6.569974E-10 _shell_0000001208   
      1208  25  1.095222E-04  9.000007E+00 -5.775119E-08 -4.222434E-06 -6.836793E-08  8.270638E-09 _shell_0000001208   
      1208  26  1.095533E-04  9.000007E+00  1.640062E-08 -7.515890E-14 -1.145327E-14  1.152982E-08 _shell_0000001208   
      1208  27  1.095222E-04  9.000007E+00 -5.775125E-08  4.222434E-06  6.836792E-08  8.270564E-09 _shell_0000001208   
      1209   1  1.022301E-04  9.000011E+00 -4.579059E-08  7.686119E-06  1.426273E-08  1.075350E-08 _shell_0000001209   
      1209   2  1.027807E-04  9.000012E+00 -1.648869E-08  1.228975E-05 -3.862782E-09  1.764706E-08 _shell_0000001209   
      1209   3  1.032816E-04  9.000012E+00 -8.374162E-08  1.744717E-05 -2.198830E-08  2.657360E-08 _shell_0000001209   
      1209   4  1.063546E-04  9.000009E+00 -7.414178E-09  7.316095E-06  2.497324E-08 -1.776283E-10 _shell_0000001209   
      1209   5  1.076323E-04  9.000010E+00  5.034469E-08  1.168893E-05  5.859815E-09 -4.684848E-09 _shell_0000001209   
      1209   6  1.088584E-04  9.000010E+00  6.805152E-09  1.661554E-05 -1.325362E-08 -7.159105E-09 _shell_0000001209   
      1209   7  1.101229E-04  9.000007E+00 -4.693652E-08  6.901656E-06  3.272320E-08 -1.110875E-08 _shell_0000001209   
      1209   8  1.121337E-04  9.000007E+00  5.309528E-08  1.104369E-05  1.262186E-08 -2.701679E-08 _shell_0000001209   
      1209   9  1.140908E-04  9.000008E+00  4.708509E-08  1.573950E-05 -7.479485E-09 -4.089180E-08 _shell_0000001209   
      1209  10  1.022151E-04  9.000011E+00 -3.402128E-08  7.614482E-06 -4.141947E-15 -2.178666E-14 _shell_0000001209   
      1209  11  1.027595E-04  9.000012E+00 -1.088404E-08  1.221661E-05  1.078419E-16 -1.773464E-14 _shell_0000001209   
      1209  12  1.032542E-04  9.000012E+00 -8.430153E-08  1.737252E-05 -5.157750E-15 -3.299941E-14 _shell_0000001209   
      1209  13  1.063370E-04  9.000009E+00  3.227654E-09  7.242403E-06 -8.774517E-16 -2.080909E-14 _shell_0000001209   
      1209  14  1.076085E-04  9.000010E+00  5.482188E-08  1.161373E-05  2.494285E-15 -1.584137E-14 _shell_0000001209   
      1209  15  1.088284E-04  9.000010E+00  5.117720E-09  1.653884E-05  7.441124E-16 -4.046786E-14 _shell_0000001209   
      1209  16  1.101026E-04  9.000007E+00 -3.742212E-08  6.825909E-06  3.932289E-15 -1.282766E-14 _shell_0000001209   
      1209  17  1.121072E-04  9.000007E+00  5.644505E-08  1.096644E-05  5.885402E-15 -2.480037E-14 _shell_0000001209   
      1209  18  1.140582E-04  9.000008E+00  4.427017E-08  1.566075E-05  2.832256E-15 -5.323605E-14 _shell_0000001209   
      1209  19  1.022301E-04  9.000011E+00 -4.579058E-08  7.686119E-06 -1.426273E-08 -1.075352E-08 _shell_0000001209   
      1209  20  1.027807E-04  9.000012E+00 -1.648869E-08  1.228975E-05  3.862774E-09 -1.764711E-08 _shell_0000001209   
      1209  21  1.032816E-04  9.000012E+00 -8.374162E-08  1.744717E-05  2.198828E-08 -2.657363E-08 _shell_0000001209   
      1209  22  1.063546E-04  9.000009E+00 -7.414156E-09  7.316095E-06 -2.497323E-08  1.776023E-10 _shell_0000001209   
      1209  23  1.076323E-04  9.000010E+00  5.034466E-08  1.168893E-05 -5.859816E-09  4.684830E-09 _shell_0000001209   
      1209  24  1.088584E-04  9.000010E+00  6.805112E-09  1.661554E-05  1.325362E-08  7.159040E-09 _shell_0000001209   
      1209  25  1.101229E-04  9.000007E+00 -4.693642E-08  6.901656E-06 -3.272319E-08  1.110874E-08 _shell_0000001209   
      1209  26  1.121337E-04  9.000007E+00  5.309525E-08  1.104369E-05 -1.262186E-08  2.701676E-08 _shell_0000001209   
      1209  27  1.140908E-04  9.000008E+00  4.708501E-08  1.573950E-05  7.479498E-09  4.089172E-08 _shell_0000001209   
      1210   1  1.037662E-04  9.000013E+00 -4.803683E-08  2.057620E-05  1.877590E-09  4.585258E-09 _shell_0000001210   
      1210   2  1.045000E-04  9.000013E+00  2.868737E-08  2.498653E-05  2.369859E-08 -4.940011E-08 _shell_0000001210   
      1210   3  1.051505E-04  9.000014E+00  1.049408E-07  3.061209E-05  4.551961E-08 -5.409600E-08 _shell_0000001210   
      1210   4  1.098277E-04  9.000010E+00 -9.911660E-09  1.970179E-05  3.338637E-08 -1.605781E-08 _shell_0000001210   
      1210   5  1.120750E-04  9.000011E+00  5.044105E-08  2.400954E-05 -1.106194E-08 -1.365994E-08 _shell_0000001210   
      1210   6  1.141898E-04  9.000011E+00 -4.685765E-09  2.953253E-05 -5.551026E-08  3.802737E-08 _shell_0000001210   
      1210   7  1.158270E-04  9.000008E+00  6.341881E-08  1.870169E-05  9.985632E-08 -3.670084E-08 _shell_0000001210   
      1210   8  1.195180E-04  9.000008E+00 -5.575214E-08  2.290686E-05 -1.086130E-08  2.208019E-08 _shell_0000001210   
      1210   9  1.230271E-04  9.000008E+00 -4.054114E-07  2.832727E-05 -1.215789E-07  1.301508E-07 _shell_0000001210   
      1210  10  1.038489E-04  9.000013E+00 -4.976520E-09  2.042493E-05 -5.446666E-15 -4.092635E-14 _shell_0000001210   
      1210  11  1.045675E-04  9.000013E+00  5.651614E-08  2.476707E-05 -2.730676E-15 -3.697614E-14 _shell_0000001210   
      1210  12  1.052027E-04  9.000014E+00  1.175381E-07  3.032444E-05 -1.188897E-14 -1.632854E-14 _shell_0000001210   
      1210  13  1.097911E-04  9.000010E+00 -1.799053E-08  1.954544E-05  6.228919E-16 -4.358838E-14 _shell_0000001210   
      1210  14  1.120232E-04  9.000011E+00  2.713068E-08  2.378500E-05 -2.239709E-15 -1.823383E-14 _shell_0000001210   
      1210  15  1.141227E-04  9.000011E+00 -4.322771E-08  2.923980E-05 -4.693528E-15 -3.498840E-14 _shell_0000001210   
      1210  16  1.156711E-04  9.000008E+00  4.200786E-09  1.854026E-05  9.162616E-16 -4.398056E-14 _shell_0000001210   
      1210  17  1.193469E-04  9.000008E+00 -1.302016E-07  2.267725E-05  1.335605E-15 -2.296785E-14 _shell_0000001210   
      1210  18  1.228407E-04  9.000008E+00 -4.950925E-07  2.802947E-05 -1.300957E-15 -4.934194E-14 _shell_0000001210   
      1210  19  1.037662E-04  9.000013E+00 -4.803681E-08  2.057620E-05 -1.877601E-09 -4.585311E-09 _shell_0000001210   
      1210  20  1.045000E-04  9.000013E+00  2.868742E-08  2.498653E-05 -2.369861E-08  4.940004E-08 _shell_0000001210   
      1210  21  1.051505E-04  9.000014E+00  1.049408E-07  3.061209E-05 -4.551962E-08  5.409599E-08 _shell_0000001210   
      1210  22  1.098277E-04  9.000010E+00 -9.911679E-09  1.970179E-05 -3.338637E-08  1.605773E-08 _shell_0000001210   
      1210  23  1.120750E-04  9.000011E+00  5.044106E-08  2.400954E-05  1.106193E-08  1.365993E-08 _shell_0000001210   
      1210  24  1.141898E-04  9.000011E+00 -4.685832E-09  2.953253E-05  5.551024E-08 -3.802743E-08 _shell_0000001210   
      1210  25  1.158270E-04  9.000008E+00  6.341878E-08  1.870169E-05 -9.985632E-08  3.670079E-08 _shell_0000001210   
      1210  26  1.195180E-04  9.000008E+00 -5.575215E-08  2.290686E-05  1.086130E-08 -2.208025E-08 _shell_0000001210   
      1210  27  1.230271E-04  9.000008E+00 -4.054115E-07  2.832727E-05  1.215789E-07 -1.301508E-07 _shell_0000001210   
      1211   1  1.054459E-04  9.000014E+00  1.123371E-07  3.376286E-05  8.551912E-09 -1.445921E-08 _shell_0000001211   
      1211   2  1.045824E-04  9.000012E+00 -2.476660E-07  3.661167E-05 -3.068855E-08  1.053168E-07 _shell_0000001211   
      1211   3  1.037005E-04  9.000010E+00 -2.437586E-07  4.095119E-05 -6.992899E-08  2.416460E-07 _shell_0000001211   
      1211   4  1.153604E-04  9.000011E+00 -5.717033E-08  3.269500E-05 -4.597956E-08  4.156198E-08 _shell_0000001211   
      1211   5  1.168711E-04  9.000011E+00 -9.514896E-08  3.582673E-05 -3.041106E-09 -1.910996E-08 _shell_0000001211   
      1211   6  1.183468E-04  9.000010E+00  1.921591E-07  4.044916E-05  3.989739E-08 -6.322882E-08 _shell_0000001211   
      1211   7  1.258668E-04  9.000009E+00 -1.277933E-07  3.168935E-05 -1.803300E-07  9.758322E-08 _shell_0000001211   
      1211   8  1.299114E-04  9.000010E+00  5.287410E-07  3.510400E-05 -5.521261E-08 -1.435368E-07 _shell_0000001211   
      1211   9  1.339044E-04  9.000010E+00  1.471938E-06  4.000935E-05  6.990479E-08 -3.681036E-07 _shell_0000001211   
      1211  10  1.055542E-04  9.000014E+00  1.425244E-07  3.342420E-05 -9.092944E-15 -1.730716E-14 _shell_0000001211   
      1211  11  1.046673E-04  9.000012E+00 -2.408900E-07  3.632844E-05  4.844850E-15 -2.435208E-14 _shell_0000001211   
      1211  12  1.037620E-04  9.000010E+00 -2.603940E-07  4.072338E-05  1.059761E-14 -3.195459E-15 _shell_0000001211   
      1211  13  1.155657E-04  9.000011E+00  1.458702E-08  3.234854E-05 -5.180133E-15 -3.546927E-14 _shell_0000001211   
      1211  14  1.170530E-04  9.000011E+00 -4.680291E-08  3.553570E-05  1.628988E-15 -9.325730E-15 _shell_0000001211   
      1211  15  1.185053E-04  9.000010E+00  2.170937E-07  4.021355E-05  1.314203E-14 -1.361140E-14 _shell_0000001211   
      1211  16  1.261691E-04  9.000009E+00 -1.446583E-08  3.133509E-05 -3.709916E-15 -4.744198E-14 _shell_0000001211   
      1211  17  1.301903E-04  9.000010E+00  6.186572E-07  3.480516E-05 -2.946286E-15 -5.355256E-15 _shell_0000001211   
      1211  18  1.341599E-04  9.000010E+00  1.538443E-06  3.976594E-05  1.009169E-14 -1.518573E-14 _shell_0000001211   
      1211  19  1.054459E-04  9.000014E+00  1.123371E-07  3.376286E-05 -8.551917E-09  1.445920E-08 _shell_0000001211   
      1211  20  1.045824E-04  9.000012E+00 -2.476660E-07  3.661167E-05  3.068856E-08 -1.053168E-07 _shell_0000001211   
      1211  21  1.037005E-04  9.000010E+00 -2.437586E-07  4.095119E-05  6.992901E-08 -2.416459E-07 _shell_0000001211   
      1211  22  1.153604E-04  9.000011E+00 -5.717041E-08  3.269500E-05  4.597956E-08 -4.156203E-08 _shell_0000001211   
      1211  23  1.168711E-04  9.000011E+00 -9.514893E-08  3.582673E-05  3.041102E-09  1.910995E-08 _shell_0000001211   
      1211  24  1.183468E-04  9.000010E+00  1.921590E-07  4.044916E-05 -3.989735E-08  6.322879E-08 _shell_0000001211   
      1211  25  1.258668E-04  9.000009E+00 -1.277933E-07  3.168935E-05  1.803300E-07 -9.758328E-08 _shell_0000001211   
      1211  26  1.299114E-04  9.000010E+00  5.287410E-07  3.510400E-05  5.521260E-08  1.435367E-07 _shell_0000001211   
      1211  27  1.339044E-04  9.000010E+00  1.471938E-06  4.000935E-05 -6.990477E-08  3.681036E-07 _shell_0000001211   
      1212   1  1.027408E-04  9.000009E+00 -1.532873E-07  4.229598E-05 -3.064842E-08  7.666414E-08 _shell_0000001212   
      1212   2  9.956265E-05  9.000005E+00  6.503691E-07  3.902316E-05 -2.352421E-08 -5.459203E-07 _shell_0000001212   
      1212   3  9.610587E-05  8.999999E+00  2.982133E-06  3.813046E-05 -1.640005E-08 -1.026927E-06 _shell_0000001212   
      1212   4  1.174519E-04  9.000008E+00 -3.935001E-07  4.230328E-05  1.880996E-07 -8.436211E-08 _shell_0000001212   
      1212   5  1.169439E-04  9.000004E+00 -2.908758E-07  4.028987E-05  1.770062E-07 -3.216430E-08 _shell_0000001212   
      1212   6  1.160158E-04  8.999997E+00  1.009507E-06  4.065659E-05  1.659128E-07  1.616117E-07 _shell_0000001212   
      1212   7  1.353164E-04  9.000009E+00  7.113073E-07  4.206005E-05  9.014629E-07 -2.453883E-07 _shell_0000001212   
      1212   8  1.364895E-04  9.000003E+00 -2.195305E-06  4.130606E-05  8.721519E-07  4.815917E-07 _shell_0000001212   
      1212   9  1.371008E-04  8.999994E+00 -4.234509E-06  4.293219E-05  8.428410E-07  1.350150E-06 _shell_0000001212   
      1212  10  1.034544E-04  9.000009E+00  4.683581E-08  4.188106E-05  1.212106E-14 -4.886699E-15 _shell_0000001212   
      1212  11  9.992249E-05  9.000005E+00  4.967379E-07  3.854149E-05  9.204386E-15 -2.160334E-14 _shell_0000001212   
      1212  12  9.611196E-05  8.999997E+00  2.474748E-06  3.758203E-05  4.857611E-15  4.541910E-15 _shell_0000001212   
      1212  13  1.180486E-04  9.000008E+00 -2.434432E-07  4.177044E-05  1.588046E-14 -1.757660E-14 _shell_0000001212   
      1212  14  1.171869E-04  9.000003E+00 -4.945732E-07  3.969028E-05  4.479637E-15 -1.339801E-14 _shell_0000001212   
      1212  15  1.159051E-04  8.999995E+00  4.520551E-07  3.999024E-05 -2.783484E-15 -1.369169E-15 _shell_0000001212   
      1212  16  1.357963E-04  9.000009E+00  8.112979E-07  4.140930E-05  9.977071E-15 -2.626617E-14 _shell_0000001212   
      1212  17  1.366157E-04  9.000002E+00 -2.449069E-06  4.058855E-05 -4.610106E-16 -2.174619E-14 _shell_0000001212   
      1212  18  1.368733E-04  8.999992E+00 -4.842027E-06  4.214793E-05 -4.081246E-15 -2.332607E-15 _shell_0000001212   
      1212  19  1.027408E-04  9.000009E+00 -1.532874E-07  4.229598E-05  3.064845E-08 -7.666414E-08 _shell_0000001212   
      1212  20  9.956265E-05  9.000005E+00  6.503691E-07  3.902316E-05  2.352426E-08  5.459203E-07 _shell_0000001212   
      1212  21  9.610587E-05  8.999999E+00  2.982133E-06  3.813046E-05  1.640006E-08  1.026927E-06 _shell_0000001212   
      1212  22  1.174519E-04  9.000008E+00 -3.935001E-07  4.230328E-05 -1.880996E-07  8.436208E-08 _shell_0000001212   
      1212  23  1.169439E-04  9.000004E+00 -2.908758E-07  4.028987E-05 -1.770062E-07  3.216430E-08 _shell_0000001212   
      1212  24  1.160158E-04  8.999997E+00  1.009507E-06  4.065659E-05 -1.659128E-07 -1.616117E-07 _shell_0000001212   
      1212  25  1.353164E-04  9.000009E+00  7.113073E-07  4.206005E-05 -9.014629E-07  2.453883E-07 _shell_0000001212   
      1212  26  1.364895E-04  9.000003E+00 -2.195305E-06  4.130606E-05 -8.721519E-07 -4.815917E-07 _shell_0000001212   
      1212  27  1.371008E-04  8.999994E+00 -4.234509E-06  4.293219E-05 -8.428410E-07 -1.350150E-06 _shell_0000001212   
      1213   1  8.874226E-05  8.999986E+00  7.330642E-07  3.311545E-05  4.792645E-07 -5.239551E-07 _shell_0000001213   
      1213   2  8.101449E-05  8.999947E+00 -3.575803E-06  1.737305E-05  5.942739E-07  1.102852E-06 _shell_0000001213   
      1213   3  6.800234E-05  8.999891E+00 -8.966345E-06 -9.869976E-08  7.092833E-07  1.968591E-06 _shell_0000001213   
      1213   4  1.075961E-04  8.999987E+00 -1.280254E-06  3.451819E-05 -2.777357E-07  3.030558E-07 _shell_0000001213   
      1213   5  1.041897E-04  8.999963E+00  9.033701E-07  1.982383E-05 -2.124500E-06  1.269506E-08 _shell_0000001213   
      1213   6  9.625998E-05  8.999923E+00  3.781144E-06  3.400137E-06 -3.971264E-06 -1.038734E-06 _shell_0000001213   
      1213   7  1.317610E-04  8.999989E+00 -3.768455E-06  3.825971E-05 -2.453028E-06  1.130067E-06 _shell_0000001213   
      1213   8  1.355125E-04  8.999983E+00  1.152636E-05  2.461341E-05 -6.261566E-06 -1.077462E-06 _shell_0000001213   
      1213   9  1.355018E-04  8.999962E+00  2.929115E-05  9.237761E-06 -1.007010E-05 -4.046059E-06 _shell_0000001213   
      1213  10  9.026728E-05  8.999986E+00  9.898190E-07  3.273171E-05 -3.162695E-15  1.404942E-14 _shell_0000001213   
      1213  11  8.357385E-05  8.999949E+00 -2.284704E-06  1.580337E-05 -1.288169E-14 -7.044943E-15 _shell_0000001213   
      1213  12  7.159605E-05  8.999895E+00 -6.640902E-06 -2.854307E-06 -8.300286E-15 -1.156911E-14 _shell_0000001213   
      1213  13  1.070458E-04  8.999985E+00 -1.912946E-06  3.447922E-05 -3.220470E-15  1.339819E-14 _shell_0000001213   
      1213  14  1.046737E-04  8.999964E+00  1.305022E-06  1.859894E-05 -6.299750E-15  1.265489E-14 _shell_0000001213   
      1213  15  9.777831E-05  8.999926E+00  5.217140E-06  9.893117E-07 -8.286757E-15 -5.061510E-15 _shell_0000001213   
      1213  16  1.291353E-04  8.999986E+00 -5.290594E-06  3.856552E-05 -4.969731E-16  1.079170E-14 _shell_0000001213   
      1213  17  1.339211E-04  8.999983E+00  1.103856E-05  2.373329E-05 -3.651685E-16  1.439509E-14 _shell_0000001213   
      1213  18  1.349448E-04  8.999964E+00  2.983770E-05  7.171716E-06 -7.723862E-15  9.782403E-15 _shell_0000001213   
      1213  19  8.874226E-05  8.999986E+00  7.330641E-07  3.311545E-05 -4.792646E-07  5.239552E-07 _shell_0000001213   
      1213  20  8.101449E-05  8.999947E+00 -3.575803E-06  1.737305E-05 -5.942740E-07 -1.102852E-06 _shell_0000001213   
      1213  21  6.800234E-05  8.999891E+00 -8.966345E-06 -9.869979E-08 -7.092833E-07 -1.968591E-06 _shell_0000001213   
      1213  22  1.075961E-04  8.999987E+00 -1.280254E-06  3.451819E-05  2.777357E-07 -3.030557E-07 _shell_0000001213   
      1213  23  1.041897E-04  8.999963E+00  9.033701E-07  1.982383E-05  2.124500E-06 -1.269501E-08 _shell_0000001213   
      1213  24  9.625998E-05  8.999923E+00  3.781144E-06  3.400137E-06  3.971264E-06  1.038734E-06 _shell_0000001213   
      1213  25  1.317610E-04  8.999989E+00 -3.768455E-06  3.825971E-05  2.453028E-06 -1.130067E-06 _shell_0000001213   
      1213  26  1.355125E-04  8.999983E+00  1.152636E-05  2.461341E-05  6.261566E-06  1.077462E-06 _shell_0000001213   
      1213  27  1.355018E-04  8.999962E+00  2.929115E-05  9.237761E-06  1.007010E-05  4.046059E-06 _shell_0000001213   
      1214   1  7.887379E-05  8.999865E+00 -3.274347E-07 -2.731542E-05 -1.948638E-06  3.469296E-06 _shell_0000001214   
      1214   2  1.159307E-04  8.999802E+00  2.003764E-05 -2.683113E-05 -4.478300E-06 -5.086944E-07 _shell_0000001214   
      1214   3  1.275399E-04  8.999677E+00  1.672661E-05 -1.464100E-05 -7.007962E-06 -1.805867E-05 _shell_0000001214   
      1214   4  7.430624E-05  8.999874E+00 -9.053565E-06 -2.600444E-05  3.482960E-06  9.325935E-07 _shell_0000001214   
      1214   5  1.103180E-04  8.999773E+00 -4.924835E-06 -3.128961E-05  1.181638E-05  4.890602E-07 _shell_0000001214   
      1214   6  1.344541E-04  8.999624E+00  7.195757E-06 -2.486894E-05  2.014980E-05 -1.352646E-05 _shell_0000001214   
      1214   7  7.677810E-05  8.999888E+00 -1.187444E-05 -3.099889E-05  1.499357E-05 -1.604109E-06 _shell_0000001214   
      1214   8  9.958673E-05  8.999737E+00 -5.235078E-05 -4.205352E-05  3.419007E-05  1.486815E-06 _shell_0000001214   
      1214   9  1.240916E-04  8.999551E+00 -5.316728E-05 -4.140231E-05  5.338657E-05 -8.994249E-06 _shell_0000001214   
      1214  10  7.527772E-05  8.999861E+00 -2.524524E-06 -2.695912E-05 -5.291524E-16 -7.329699E-15 _shell_0000001214   
      1214  11  1.026331E-04  8.999775E+00  8.139042E-06 -1.323802E-05  6.623322E-15 -1.559647E-14 _shell_0000001214   
      1214  12  1.045408E-04  8.999628E+00 -4.873502E-06  1.218891E-05  1.617756E-14 -3.289753E-14 _shell_0000001214   
      1214  13  9.387458E-05  8.999881E+00 -1.323050E-06 -2.888198E-05 -1.537308E-14 -6.139036E-15 _shell_0000001214   
      1214  14  1.201848E-04  8.999757E+00 -6.895831E-06 -2.093034E-05 -9.174350E-15 -6.068424E-15 _shell_0000001214   
      1214  15  1.346194E-04  8.999585E+00 -4.476750E-06 -1.272869E-06  7.669593E-15 -4.148533E-14 _shell_0000001214   
      1214  16  1.195109E-04  8.999904E+00  5.783678E-06 -3.711027E-05 -1.644108E-14  4.886362E-15 _shell_0000001214   
      1214  17  1.326180E-04  8.999730E+00 -4.439417E-05 -3.492808E-05 -1.164760E-14 -1.543406E-14 _shell_0000001214   
      1214  18  1.474213E-04  8.999522E+00 -5.491218E-05 -2.104007E-05 -6.473015E-15 -4.539715E-14 _shell_0000001214   
      1214  19  7.887379E-05  8.999865E+00 -3.274347E-07 -2.731542E-05  1.948638E-06 -3.469296E-06 _shell_0000001214   
      1214  20  1.159307E-04  8.999802E+00  2.003764E-05 -2.683113E-05  4.478300E-06  5.086943E-07 _shell_0000001214   
      1214  21  1.275399E-04  8.999677E+00  1.672661E-05 -1.464100E-05  7.007962E-06  1.805867E-05 _shell_0000001214   
      1214  22  7.430624E-05  8.999874E+00 -9.053565E-06 -2.600444E-05 -3.482960E-06 -9.325935E-07 _shell_0000001214   
      1214  23  1.103180E-04  8.999773E+00 -4.924835E-06 -3.128961E-05 -1.181638E-05 -4.890602E-07 _shell_0000001214   
      1214  24  1.344541E-04  8.999624E+00  7.195757E-06 -2.486894E-05 -2.014980E-05  1.352646E-05 _shell_0000001214   
      1214  25  7.677810E-05  8.999888E+00 -1.187444E-05 -3.099889E-05 -1.499357E-05  1.604109E-06 _shell_0000001214   
      1214  26  9.958673E-05  8.999737E+00 -5.235078E-05 -4.205352E-05 -3.419007E-05 -1.486815E-06 _shell_0000001214   
      1214  27  1.240916E-04  8.999551E+00 -5.316728E-05 -4.140231E-05 -5.338657E-05  8.994249E-06 _shell_0000001214   
      1215   1  1.101177E-04  8.999628E+00  9.287581E-06  6.159687E-05 -1.167299E-06 -1.884521E-05 _shell_0000001215   
      1215   2  5.802071E-05  8.999640E+00  9.316698E-07  8.695180E-05  2.596326E-06 -3.323787E-06 _shell_0000001215   
      1215   3  1.557636E-05  8.999685E+00 -7.397295E-06  6.148856E-05  6.359950E-06 -3.296374E-07 _shell_0000001215   
      1215   4  1.879233E-04  8.999616E+00  3.460200E-05  8.930281E-05  4.028361E-05 -1.333439E-05 _shell_0000001215   
      1215   5  7.489627E-05  8.999668E+00  4.123651E-06  1.055104E-04  1.252405E-05  2.015547E-06 _shell_0000001215   
      1215   6 -1.595083E-05  8.999764E+00  2.902552E-06  7.089984E-05 -1.523551E-05  4.838211E-06 _shell_0000001215   
      1215   7  2.178636E-04  8.999571E+00 -2.531493E-06  1.293453E-04  7.430809E-05 -7.823571E-06 _shell_0000001215   
      1215   8  5.875946E-05  8.999677E+00 -2.047561E-05  1.364056E-04  1.502535E-05  7.354880E-06 _shell_0000001215   
      1215   9 -6.563753E-05  8.999840E+00  2.006782E-05  9.264771E-05 -4.425739E-05  1.000606E-05 _shell_0000001215   
      1215  10  9.175206E-05  8.999584E+00 -9.193534E-06  8.661586E-05  1.833864E-14 -4.194461E-14 _shell_0000001215   
      1215  11  5.617163E-05  8.999636E+00 -1.032905E-06  9.302613E-05  1.027632E-14 -1.834547E-14 _shell_0000001215   
      1215  12  3.024383E-05  8.999719E+00  7.154672E-06  4.861822E-05 -1.169876E-14  3.991989E-14 _shell_0000001215   
      1215  13  1.364045E-04  8.999558E+00  1.912385E-06  1.198273E-04  1.196065E-14 -5.178324E-14 _shell_0000001215   
      1215  14  3.989404E-05  8.999649E+00 -1.204942E-05  1.170903E-04  8.959293E-15 -8.450821E-15 _shell_0000001215   
      1215  15 -3.443652E-05  8.999784E+00  3.246023E-06  6.353502E-05 -1.261096E-14  4.340530E-14 _shell_0000001215   
      1215  16  1.331917E-04  8.999499E+00 -4.942960E-05  1.653753E-04  6.557033E-16 -4.907095E-14 _shell_0000001215   
      1215  17 -9.395925E-06  8.999644E+00 -5.085718E-05  1.534910E-04  3.054496E-15 -1.075124E-14 _shell_0000001215   
      1215  18 -1.172764E-04  8.999845E+00  6.202793E-06  9.078840E-05 -1.329779E-14  6.445268E-14 _shell_0000001215   
      1215  19  1.101177E-04  8.999628E+00  9.287581E-06  6.159687E-05  1.167299E-06  1.884521E-05 _shell_0000001215   
      1215  20  5.802071E-05  8.999640E+00  9.316697E-07  8.695180E-05 -2.596326E-06  3.323787E-06 _shell_0000001215   
      1215  21  1.557636E-05  8.999685E+00 -7.397295E-06  6.148856E-05 -6.359950E-06  3.296375E-07 _shell_0000001215   
      1215  22  1.879233E-04  8.999616E+00  3.460200E-05  8.930281E-05 -4.028361E-05  1.333439E-05 _shell_0000001215   
      1215  23  7.489627E-05  8.999668E+00  4.123650E-06  1.055104E-04 -1.252405E-05 -2.015547E-06 _shell_0000001215   
      1215  24 -1.595083E-05  8.999764E+00  2.902552E-06  7.089984E-05  1.523551E-05 -4.838211E-06 _shell_0000001215   
      1215  25  2.178636E-04  8.999571E+00 -2.531493E-06  1.293453E-04 -7.430809E-05  7.823571E-06 _shell_0000001215   
      1215  26  5.875946E-05  8.999677E+00 -2.047561E-05  1.364056E-04 -1.502535E-05 -7.354880E-06 _shell_0000001215   
      1215  27 -6.563753E-05  8.999840E+00  2.006782E-05  9.264771E-05  4.425739E-05 -1.000606E-05 _shell_0000001215   
      1301   1 -6.143873E-05  8.999874E+00  2.933573E-05 -1.240543E-04  3.986914E-05  1.051943E-05 _shell_0000001301   
      1301   2  5.978472E-05  8.999744E+00 -2.257693E-05 -1.492334E-04  6.503375E-06  3.570179E-05 _shell_0000001301   
      1301   3 -1.210241E-05  8.999133E+00 -2.385603E-04 -2.505781E-04 -2.686239E-05  5.985577E-05 _shell_0000001301   
      1301   4 -4.579761E-06  9.000048E+00  7.084694E-05 -3.525684E-05 -1.468503E-05 -8.217161E-05 _shell_0000001301   
      1301   5 -7.272711E-05  8.999730E+00 -9.541424E-05 -2.122620E-04  7.253586E-05  9.139612E-05 _shell_0000001301   
      1301   6 -3.329567E-04  8.998934E+00 -4.233466E-04 -4.654328E-04  1.597568E-04  2.639355E-04 _shell_0000001301   
      1301   7 -8.983945E-05  9.000159E+00  4.806750E-05  3.513273E-05 -7.800509E-05 -1.748626E-04 _shell_0000001301   
      1301   8 -3.298258E-04  8.999672E+00 -1.916347E-04 -2.936985E-04  1.298025E-04  1.470905E-04 _shell_0000001301   
      1301   9 -7.608660E-04  8.998708E+00 -5.906085E-04 -6.986952E-04  3.376100E-04  4.680152E-04 _shell_0000001301   
      1301  10 -1.972135E-04  8.999614E+00 -8.958222E-05 -1.596496E-04 -1.538394E-14 -4.000001E-14 _shell_0000001301   
      1301  11  1.106667E-04  8.999919E+00  4.516193E-05 -9.400316E-05 -1.093741E-14 -3.573304E-15 _shell_0000001301   
      1301  12  2.254364E-04  8.999744E+00  1.583538E-05 -1.045222E-04 -1.084204E-14 -3.854394E-14 _shell_0000001301   
      1301  13  1.859029E-05  8.999855E+00  2.004822E-05 -8.633284E-06 -6.413831E-15 -4.395511E-14 _shell_0000001301   
      1301  14  1.370998E-04  8.999973E+00  4.044385E-05 -9.481282E-05 -1.686555E-15  3.257820E-15 _shell_0000001301   
      1301  15  6.352701E-05  8.999613E+00 -1.008317E-04 -2.571579E-04  4.083847E-15 -3.826465E-14 _shell_0000001301   
      1301  16  9.227546E-05  9.000035E+00  6.538801E-05  1.239752E-04 -3.929131E-15 -4.608826E-14 _shell_0000001301   
      1301  17  3.894592E-05  8.999984E+00  1.234263E-05 -1.140303E-04 -8.436398E-15  6.810996E-15 _shell_0000001301   
      1301  18 -2.054375E-04  8.999455E+00 -1.999744E-04 -4.282015E-04  3.735406E-15 -4.193044E-14 _shell_0000001301   
      1301  19 -6.143873E-05  8.999874E+00  2.933573E-05 -1.240543E-04 -3.986914E-05 -1.051943E-05 _shell_0000001301   
      1301  20  5.978472E-05  8.999744E+00 -2.257693E-05 -1.492334E-04 -6.503375E-06 -3.570179E-05 _shell_0000001301   
      1301  21 -1.210241E-05  8.999133E+00 -2.385603E-04 -2.505781E-04  2.686239E-05 -5.985577E-05 _shell_0000001301   
      1301  22 -4.579761E-06  9.000048E+00  7.084694E-05 -3.525684E-05  1.468503E-05  8.217161E-05 _shell_0000001301   
      1301  23 -7.272711E-05  8.999730E+00 -9.541424E-05 -2.122620E-04 -7.253586E-05 -9.139612E-05 _shell_0000001301   
      1301  24 -3.329567E-04  8.998934E+00 -4.233466E-04 -4.654328E-04 -1.597568E-04 -2.639355E-04 _shell_0000001301   
      1301  25 -8.983945E-05  9.000159E+00  4.806750E-05  3.513273E-05  7.800509E-05  1.748626E-04 _shell_0000001301   
      1301  26 -3.298258E-04  8.999672E+00 -1.916347E-04 -2.936985E-04 -1.298025E-04 -1.470905E-04 _shell_0000001301   
      1301  27 -7.608660E-04  8.998708E+00 -5.906085E-04 -6.986952E-04 -3.376100E-04 -4.680152E-04 _shell_0000001301   
      1302   1 -3.768045E-05  8.999098E+00 -2.716238E-04 -1.482397E-05 -1.248656E-05  5.298546E-05 _shell_0000001302   
      1302   2  1.104956E-04  8.999710E+00 -7.433395E-05  1.977141E-05 -1.887910E-05  1.202842E-05 _shell_0000001302   
      1302   3  1.137831E-04  8.999945E+00  1.760429E-05  2.830548E-05 -2.527163E-05 -1.941206E-05 _shell_0000001302   
      1302   4  9.246040E-05  8.999075E+00 -2.592410E-04  3.293013E-05  1.717089E-04  2.658884E-04 _shell_0000001302   
      1302   5  2.247314E-04  8.999722E+00 -3.714974E-05  4.440831E-05  6.651680E-05  1.068669E-04 _shell_0000001302   
      1302   6  2.025972E-04  8.999982E+00  5.738464E-05  2.982517E-05 -3.867534E-05 -4.263798E-05 _shell_0000001302   
      1302   7  3.165069E-04  8.999111E+00 -1.446227E-04  8.692366E-05  3.659466E-04  4.787913E-04 _shell_0000001302   
      1302   8  4.127885E-04  8.999773E+00  5.540663E-05  7.528463E-05  1.619549E-04  2.017054E-04 _shell_0000001302   
      1302   9  3.451482E-04  9.000039E+00  1.056737E-04  3.758428E-05 -4.203688E-05 -6.586391E-05 _shell_0000001302   
      1302  10  2.495178E-04  8.999747E+00  9.249065E-06  1.217519E-04 -1.177152E-14 -3.735307E-14 _shell_0000001302   
      1302  11  2.422766E-04  8.999997E+00  5.112157E-05  7.867884E-05 -1.387633E-14 -8.867297E-15 _shell_0000001302   
      1302  12  9.014664E-05  8.999869E+00 -1.235754E-05  9.544499E-06 -8.941605E-15 -5.628384E-14 _shell_0000001302   
      1302  13  2.437389E-04  8.999666E+00 -3.661948E-05  1.177002E-04  6.797104E-15 -3.909388E-14 _shell_0000001302   
      1302  14  2.205926E-04  8.999950E+00  3.005447E-05  5.150995E-05 -8.144548E-16  1.578006E-15 _shell_0000001302   
      1302  15  4.304102E-05  8.999848E+00 -3.082850E-05 -4.074160E-05 -2.487874E-15 -4.840823E-14 _shell_0000001302   
      1302  16  3.318657E-04  8.999643E+00  1.974756E-05  1.198879E-04  5.853592E-15 -3.611130E-14 _shell_0000001302   
      1302  17  2.727299E-04  8.999943E+00  6.435954E-05  3.058049E-05 -5.324556E-15  7.930824E-15 _shell_0000001302   
      1302  18  4.967237E-05  8.999846E+00 -4.079074E-05 -8.478827E-05 -9.909805E-15 -6.341173E-14 _shell_0000001302   
      1302  19 -3.768045E-05  8.999098E+00 -2.716238E-04 -1.482397E-05  1.248656E-05 -5.298546E-05 _shell_0000001302   
      1302  20  1.104956E-04  8.999710E+00 -7.433395E-05  1.977141E-05  1.887910E-05 -1.202842E-05 _shell_0000001302   
      1302  21  1.137831E-04  8.999945E+00  1.760429E-05  2.830548E-05  2.527163E-05  1.941206E-05 _shell_0000001302   
      1302  22  9.246040E-05  8.999075E+00 -2.592410E-04  3.293013E-05 -1.717089E-04 -2.658884E-04 _shell_0000001302   
      1302  23  2.247314E-04  8.999722E+00 -3.714974E-05  4.440831E-05 -6.651680E-05 -1.068669E-04 _shell_0000001302   
      1302  24  2.025972E-04  8.999982E+00  5.738464E-05  2.982517E-05  3.867534E-05  4.263798E-05 _shell_0000001302   
      1302  25  3.165069E-04  8.999111E+00 -1.446227E-04  8.692366E-05 -3.659466E-04 -4.787913E-04 _shell_0000001302   
      1302  26  4.127885E-04  8.999773E+00  5.540663E-05  7.528463E-05 -1.619549E-04 -2.017054E-04 _shell_0000001302   
      1302  27  3.451482E-04  9.000039E+00  1.056737E-04  3.758428E-05  4.203688E-05  6.586391E-05 _shell_0000001302   
      1303   1  1.638537E-04  8.999988E+00  4.937458E-05 -7.535323E-06  2.992326E-06 -2.011887E-05 _shell_0000001303   
      1303   2  1.612868E-04  9.000009E+00  2.244561E-05 -2.371171E-05  3.519430E-06 -3.091520E-06 _shell_0000001303   
      1303   3  1.447942E-04  8.999987E+00 -8.370498E-06 -4.095985E-05  4.046534E-06  4.886592E-06 _shell_0000001303   
      1303   4  2.004452E-04  9.000009E+00  5.969665E-05 -6.666358E-07 -3.033507E-05 -6.964738E-05 _shell_0000001303   
      1303   5  1.855112E-04  9.000013E+00  1.248274E-05 -2.338746E-05 -1.294679E-05 -2.494419E-05 _shell_0000001303   
      1303   6  1.657008E-04  8.999984E+00 -1.750343E-05 -4.718003E-05  4.441482E-06  1.070976E-05 _shell_0000001303   
      1303   7  2.264255E-04  9.000018E+00  4.323549E-05  4.952253E-06 -6.674585E-05 -1.191759E-04 _shell_0000001303   
      1303   8  2.052911E-04  9.000012E+00 -9.874182E-06 -2.431301E-05 -3.249641E-05 -4.679686E-05 _shell_0000001303   
      1303   9  1.883296E-04  8.999982E+00 -2.464122E-05 -5.465002E-05  1.753034E-06  1.653292E-05 _shell_0000001303   
      1303  10  1.006339E-04  8.999830E+00 -1.706386E-05 -3.405525E-05 -5.752919E-15 -5.384571E-14 _shell_0000001303   
      1303  11  1.361400E-04  8.999939E+00 -5.919873E-06 -3.419230E-05 -2.232233E-15 -1.782622E-14 _shell_0000001303   
      1303  12  1.577204E-04  9.000006E+00  1.336975E-06 -3.540109E-05  3.741513E-16 -5.322965E-14 _shell_0000001303   
      1303  13  1.652943E-04  8.999862E+00  5.287718E-06 -1.449558E-05 -2.771233E-15 -6.189861E-14 _shell_0000001303   
      1303  14  1.884332E-04  8.999955E+00 -3.853238E-06 -2.117706E-05 -2.443364E-15 -1.384573E-14 _shell_0000001303   
      1303  15  2.066957E-04  9.000015E+00  4.233551E-06 -2.893029E-05 -6.456806E-17 -5.330630E-14 _shell_0000001303   
      1303  16  2.193434E-04  8.999884E+00  8.560618E-07  3.814300E-06 -1.238175E-14 -6.787490E-14 _shell_0000001303   
      1303  17  2.362820E-04  8.999967E+00 -1.418065E-05 -9.411624E-06 -1.151010E-14 -2.637796E-14 _shell_0000001303   
      1303  18  2.573934E-04  9.000025E+00  9.125262E-06 -2.370929E-05 -9.563446E-17 -8.965248E-14 _shell_0000001303   
      1303  19  1.638537E-04  8.999988E+00  4.937458E-05 -7.535323E-06 -2.992326E-06  2.011887E-05 _shell_0000001303   
      1303  20  1.612868E-04  9.000009E+00  2.244561E-05 -2.371171E-05 -3.519430E-06  3.091520E-06 _shell_0000001303   
      1303  21  1.447942E-04  8.999987E+00 -8.370498E-06 -4.095985E-05 -4.046534E-06 -4.886592E-06 _shell_0000001303   
      1303  22  2.004452E-04  9.000009E+00  5.969665E-05 -6.666356E-07  3.033507E-05  6.964737E-05 _shell_0000001303   
      1303  23  1.855112E-04  9.000013E+00  1.248274E-05 -2.338746E-05  1.294679E-05  2.494419E-05 _shell_0000001303   
      1303  24  1.657008E-04  8.999984E+00 -1.750343E-05 -4.718003E-05 -4.441482E-06 -1.070976E-05 _shell_0000001303   
      1303  25  2.264255E-04  9.000018E+00  4.323549E-05  4.952253E-06  6.674585E-05  1.191759E-04 _shell_0000001303   
      1303  26  2.052911E-04  9.000012E+00 -9.874182E-06 -2.431301E-05  3.249641E-05  4.679686E-05 _shell_0000001303   
      1303  27  1.883296E-04  8.999982E+00 -2.464122E-05 -5.465002E-05 -1.753034E-06 -1.653292E-05 _shell_0000001303   
      1304   1  1.457139E-04  8.999981E+00 -1.241216E-05 -4.330852E-05  9.245905E-07  4.328959E-06 _shell_0000001304   
      1304   2  1.473387E-04  8.999998E+00 -4.675678E-06 -4.117705E-05 -2.230700E-07  1.043700E-06 _shell_0000001304   
      1304   3  1.470388E-04  9.000010E+00  2.048671E-06 -4.152802E-05 -1.370731E-06 -1.051939E-06 _shell_0000001304   
      1304   4  1.722981E-04  8.999981E+00 -1.367715E-05 -3.996287E-05  8.396660E-06  1.627076E-05 _shell_0000001304   
      1304   5  1.717250E-04  8.999998E+00 -3.047315E-06 -3.692333E-05  3.424018E-06  6.336310E-06 _shell_0000001304   
      1304   6  1.680374E-04  9.000009E+00  3.794609E-06 -3.636625E-05 -1.548624E-06 -2.408522E-06 _shell_0000001304   
      1304   7  2.040854E-04  8.999983E+00 -8.727721E-06 -3.655399E-05  1.649167E-05  2.821256E-05 _shell_0000001304   
      1304   8  2.000684E-04  9.000000E+00  1.888419E-06 -3.260640E-05  7.694045E-06  1.162892E-05 _shell_0000001304   
      1304   9  1.917474E-04  9.000009E+00  5.940871E-06 -3.114125E-05 -1.103578E-06 -3.765105E-06 _shell_0000001304   
      1304  10  1.604447E-04  9.000018E+00  2.922691E-06 -3.701230E-05  2.783909E-15 -5.282761E-14 _shell_0000001304   
      1304  11  1.531876E-04  9.000014E+00  1.777216E-06 -3.819567E-05  5.735627E-15 -7.238387E-15 _shell_0000001304   
      1304  12  1.440057E-04  9.000005E+00 -3.803883E-07 -4.186148E-05 -3.802785E-15 -2.933047E-14 _shell_0000001304   
      1304  13  1.812279E-04  9.000015E+00 -8.284333E-07 -3.662730E-05  4.154648E-15 -6.350450E-14 _shell_0000001304   
      1304  14  1.717728E-04  9.000011E+00  9.194461E-07 -3.690261E-05  3.611133E-15 -8.374423E-16 _shell_0000001304   
      1304  15  1.592033E-04  9.000001E+00 -1.120583E-06 -3.966036E-05  1.768038E-15 -1.624861E-14 _shell_0000001304   
      1304  16  2.072142E-04  9.000015E+00  1.634861E-06 -3.617907E-05  5.597753E-15 -8.090607E-14 _shell_0000001304   
      1304  17  1.943153E-04  9.000011E+00  3.369048E-06 -3.554632E-05  6.780659E-15 -5.813100E-15 _shell_0000001304   
      1304  18  1.771123E-04  8.999999E+00 -1.460453E-06 -3.739602E-05  7.896403E-15 -2.314708E-14 _shell_0000001304   
      1304  19  1.457139E-04  8.999981E+00 -1.241216E-05 -4.330852E-05 -9.245905E-07 -4.328959E-06 _shell_0000001304   
      1304  20  1.473387E-04  8.999998E+00 -4.675678E-06 -4.117705E-05  2.230700E-07 -1.043700E-06 _shell_0000001304   
      1304  21  1.470388E-04  9.000010E+00  2.048671E-06 -4.152802E-05  1.370731E-06  1.051939E-06 _shell_0000001304   
      1304  22  1.722981E-04  8.999981E+00 -1.367715E-05 -3.996287E-05 -8.396660E-06 -1.627076E-05 _shell_0000001304   
      1304  23  1.717250E-04  8.999998E+00 -3.047315E-06 -3.692333E-05 -3.424018E-06 -6.336310E-06 _shell_0000001304   
      1304  24  1.680374E-04  9.000009E+00  3.794609E-06 -3.636625E-05  1.548624E-06  2.408522E-06 _shell_0000001304   
      1304  25  2.040854E-04  8.999983E+00 -8.727721E-06 -3.655399E-05 -1.649167E-05 -2.821256E-05 _shell_0000001304   
      1304  26  2.000684E-04  9.000000E+00  1.888419E-06 -3.260640E-05 -7.694045E-06 -1.162892E-05 _shell_0000001304   
      1304  27  1.917474E-04  9.000009E+00  5.940871E-06 -3.114125E-05  1.103578E-06  3.765105E-06 _shell_0000001304   
      1305   1  1.443571E-04  9.000011E+00  3.027110E-06 -3.925036E-05 -4.144343E-07 -1.183138E-06 _shell_0000001305   
      1305   2  1.379711E-04  9.000009E+00  1.085300E-06 -3.335422E-05 -7.012943E-08 -3.955846E-07 _shell_0000001305   
      1305   3  1.314936E-04  9.000007E+00 -5.625357E-07 -3.031874E-05  2.741754E-07  2.535813E-07 _shell_0000001305   
      1305   4  1.613520E-04  9.000009E+00  3.369469E-06 -3.481635E-05 -1.745648E-06 -4.017418E-06 _shell_0000001305   
      1305   5  1.510003E-04  9.000007E+00  8.647235E-07 -2.929648E-05 -7.302857E-07 -1.658770E-06 _shell_0000001305   
      1305   6  1.406954E-04  9.000004E+00 -1.023144E-06 -2.663728E-05  2.850763E-07  5.614908E-07 _shell_0000001305   
      1305   7  1.772615E-04  9.000006E+00  2.010329E-06 -3.017107E-05 -3.271633E-06 -6.851699E-06 _shell_0000001305   
      1305   8  1.633336E-04  9.000004E+00 -1.484144E-07 -2.502747E-05 -1.585214E-06 -2.921956E-06 _shell_0000001305   
      1305   9  1.495909E-04  9.000002E+00 -1.367376E-06 -2.274454E-05  1.012049E-07  8.694004E-07 _shell_0000001305   
      1305  10  1.410800E-04  9.000002E+00 -6.166515E-07 -3.974748E-05 -4.671919E-15 -2.371087E-14 _shell_0000001305   
      1305  11  1.368997E-04  9.000006E+00 -3.527420E-07 -3.329614E-05 -1.371359E-15 -3.166138E-15 _shell_0000001305   
      1305  12  1.326279E-04  9.000008E+00  2.051420E-07 -2.970548E-05  1.443312E-15 -4.386343E-14 _shell_0000001305   
      1305  13  1.590465E-04  9.000001E+00  1.420982E-07 -3.457823E-05  8.653582E-16 -2.769636E-14 _shell_0000001305   
      1305  14  1.509005E-04  9.000004E+00 -1.569274E-07 -2.850317E-05  5.391664E-17  8.958998E-15 _shell_0000001305   
      1305  15  1.428013E-04  9.000006E+00  1.609251E-07 -2.528878E-05  4.552792E-15 -3.823643E-14 _shell_0000001305   
      1305  16  1.759275E-04  8.999998E+00 -8.006509E-07 -2.919770E-05  3.932222E-15 -1.656415E-14 _shell_0000001305   
      1305  17  1.642054E-04  9.000001E+00 -7.536743E-07 -2.349892E-05  7.875153E-16  6.709132E-15 _shell_0000001305   
      1305  18  1.526684E-04  9.000004E+00  2.330839E-07 -2.066080E-05  7.276212E-15 -5.284922E-14 _shell_0000001305   
      1305  19  1.443571E-04  9.000011E+00  3.027110E-06 -3.925036E-05  4.144343E-07  1.183138E-06 _shell_0000001305   
      1305  20  1.379711E-04  9.000009E+00  1.085300E-06 -3.335422E-05  7.012943E-08  3.955846E-07 _shell_0000001305   
      1305  21  1.314936E-04  9.000007E+00 -5.625357E-07 -3.031874E-05 -2.741754E-07 -2.535813E-07 _shell_0000001305   
      1305  22  1.613520E-04  9.000009E+00  3.369469E-06 -3.481635E-05  1.745648E-06  4.017418E-06 _shell_0000001305   
      1305  23  1.510003E-04  9.000007E+00  8.647235E-07 -2.929648E-05  7.302857E-07  1.658770E-06 _shell_0000001305   
      1305  24  1.406954E-04  9.000004E+00 -1.023144E-06 -2.663728E-05 -2.850763E-07 -5.614909E-07 _shell_0000001305   
      1305  25  1.772615E-04  9.000006E+00  2.010329E-06 -3.017107E-05  3.271633E-06  6.851699E-06 _shell_0000001305   
      1305  26  1.633336E-04  9.000004E+00 -1.484144E-07 -2.502747E-05  1.585214E-06  2.921956E-06 _shell_0000001305   
      1305  27  1.495909E-04  9.000002E+00 -1.367376E-06 -2.274454E-05 -1.012049E-07 -8.694005E-07 _shell_0000001305   
      1306   1  1.279368E-04  9.000006E+00 -9.268421E-07 -2.709539E-05  2.140580E-07  3.427878E-07 _shell_0000001306   
      1306   2  1.237043E-04  9.000006E+00 -2.599809E-07 -2.175133E-05  3.812919E-08  1.292699E-07 _shell_0000001306   
      1306   3  1.191919E-04  9.000006E+00  3.542934E-08 -1.773081E-05 -1.377996E-07 -2.264907E-08 _shell_0000001306   
      1306   4  1.369093E-04  9.000004E+00 -7.736510E-07 -2.325155E-05  5.127043E-07  9.968898E-07 _shell_0000001306   
      1306   5  1.309947E-04  9.000005E+00 -2.679532E-08 -1.853345E-05  1.789471E-07  4.019645E-07 _shell_0000001306   
      1306   6  1.247386E-04  9.000005E+00  2.048787E-07 -1.513890E-05 -1.548101E-07 -1.313621E-07 _shell_0000001306   
      1306   7  1.451310E-04  9.000002E+00 -5.204522E-07 -1.930600E-05  8.490644E-07  1.650992E-06 _shell_0000001306   
      1306   8  1.374588E-04  9.000003E+00  1.304008E-07 -1.521386E-05  3.574787E-07  6.746589E-07 _shell_0000001306   
      1306   9  1.293836E-04  9.000002E+00  1.223413E-07 -1.244527E-05 -1.341069E-07 -2.400752E-07 _shell_0000001306   
      1306  10  1.286458E-04  9.000008E+00 -6.013987E-08 -2.667908E-05  3.451714E-15 -4.244333E-14 _shell_0000001306   
      1306  11  1.238993E-04  9.000007E+00  9.278208E-08 -2.147649E-05  5.207046E-15  6.007155E-16 _shell_0000001306   
      1306  12  1.188730E-04  9.000006E+00 -1.257471E-07 -1.759745E-05  3.444940E-15  2.687757E-15 _shell_0000001306   
      1306  13  1.373707E-04  9.000006E+00 -1.305205E-08 -2.300656E-05  7.406448E-15 -4.889274E-14 _shell_0000001306   
      1306  14  1.309422E-04  9.000005E+00  2.198644E-07 -1.842993E-05  9.569843E-15  1.147627E-14 _shell_0000001306   
      1306  15  1.241721E-04  9.000004E+00 -6.240093E-08 -1.517684E-05  6.003564E-15  1.595026E-14 _shell_0000001306   
      1306  16  1.453449E-04  9.000004E+00  1.340436E-07 -1.923232E-05  1.031093E-14 -5.056763E-14 _shell_0000001306   
      1306  17  1.371587E-04  9.000003E+00  2.709573E-07 -1.528165E-05  1.011188E-14  8.338039E-15 _shell_0000001306   
      1306  18  1.285696E-04  9.000002E+00 -2.510414E-07 -1.265453E-05  2.294378E-15  6.555081E-15 _shell_0000001306   
      1306  19  1.279368E-04  9.000006E+00 -9.268421E-07 -2.709539E-05 -2.140580E-07 -3.427879E-07 _shell_0000001306   
      1306  20  1.237043E-04  9.000006E+00 -2.599809E-07 -2.175133E-05 -3.812918E-08 -1.292699E-07 _shell_0000001306   
      1306  21  1.191919E-04  9.000006E+00  3.542935E-08 -1.773081E-05  1.377996E-07  2.264908E-08 _shell_0000001306   
      1306  22  1.369093E-04  9.000004E+00 -7.736511E-07 -2.325155E-05 -5.127043E-07 -9.968899E-07 _shell_0000001306   
      1306  23  1.309947E-04  9.000005E+00 -2.679531E-08 -1.853345E-05 -1.789471E-07 -4.019644E-07 _shell_0000001306   
      1306  24  1.247386E-04  9.000005E+00  2.048787E-07 -1.513890E-05  1.548101E-07  1.313621E-07 _shell_0000001306   
      1306  25  1.451310E-04  9.000002E+00 -5.204522E-07 -1.930600E-05 -8.490643E-07 -1.650992E-06 _shell_0000001306   
      1306  26  1.374588E-04  9.000003E+00  1.304008E-07 -1.521386E-05 -3.574787E-07 -6.746589E-07 _shell_0000001306   
      1306  27  1.293836E-04  9.000002E+00  1.223413E-07 -1.244527E-05  1.341069E-07  2.400752E-07 _shell_0000001306   
      1307   1  1.170210E-04  9.000006E+00  4.351301E-08 -1.490911E-05  2.811585E-09 -4.677495E-08 _shell_0000001307   
      1307   2  1.146587E-04  9.000006E+00  7.786593E-08 -1.037769E-05 -1.742793E-08 -1.137858E-08 _shell_0000001307   
      1307   3  1.120938E-04  9.000005E+00 -1.471604E-07 -6.501210E-06 -3.766743E-08  3.354155E-08 _shell_0000001307   
      1307   4  1.218272E-04  9.000004E+00  1.759221E-07 -1.274973E-05 -1.505991E-08 -2.411135E-07 _shell_0000001307   
      1307   5  1.186373E-04  9.000004E+00  1.992756E-07 -8.828631E-06 -3.478626E-08 -1.185608E-07 _shell_0000001307   
      1307   6  1.152353E-04  9.000004E+00 -5.897217E-08 -5.562463E-06 -5.451259E-08  1.351552E-08 _shell_0000001307   
      1307   7  1.257125E-04  9.000002E+00  1.603789E-08 -1.052459E-05 -4.175143E-08 -4.354520E-07 _shell_0000001307   
      1307   8  1.217126E-04  9.000002E+00  6.955212E-08 -7.213802E-06 -6.096460E-08 -2.257432E-07 _shell_0000001307   
      1307   9  1.174912E-04  9.000002E+00 -1.807570E-07 -4.557949E-06 -8.017778E-08 -6.510549E-09 _shell_0000001307   
      1307  10  1.168083E-04  9.000006E+00 -1.379998E-07 -1.481983E-05  2.707583E-15 -2.738662E-15 _shell_0000001307   
      1307  11  1.145639E-04  9.000006E+00  1.424902E-08 -1.029160E-05  9.251090E-16 -2.758914E-15 _shell_0000001307   
      1307  12  1.121169E-04  9.000005E+00 -9.288148E-08 -6.418304E-06  1.938555E-16  3.783657E-14 _shell_0000001307   
      1307  13  1.216090E-04  9.000004E+00 -7.980659E-09 -1.262115E-05  6.811585E-16 -1.628911E-15 _shell_0000001307   
      1307  14  1.185370E-04  9.000004E+00  1.332687E-07 -8.703240E-06 -1.005993E-15  2.122673E-14 _shell_0000001307   
      1307  15  1.152529E-04  9.000004E+00 -7.083200E-09 -5.440259E-06 -1.344419E-15  6.786931E-14 _shell_0000001307   
      1307  16  1.254886E-04  9.000002E+00 -1.702547E-07 -1.035671E-05 -3.420251E-15  1.150247E-15 _shell_0000001307   
      1307  17  1.216067E-04  9.000002E+00  1.155324E-09 -7.049112E-06 -9.135652E-15  1.719523E-14 _shell_0000001307   
      1307  18  1.175032E-04  9.000002E+00 -1.312580E-07 -4.396445E-06 -6.550045E-16  5.320807E-14 _shell_0000001307   
      1307  19  1.170210E-04  9.000006E+00  4.351298E-08 -1.490911E-05 -2.811580E-09  4.677491E-08 _shell_0000001307   
      1307  20  1.146587E-04  9.000006E+00  7.786602E-08 -1.037769E-05  1.742793E-08  1.137858E-08 _shell_0000001307   
      1307  21  1.120938E-04  9.000005E+00 -1.471602E-07 -6.501210E-06  3.766744E-08 -3.354148E-08 _shell_0000001307   
      1307  22  1.218272E-04  9.000004E+00  1.759221E-07 -1.274973E-05  1.505991E-08  2.411135E-07 _shell_0000001307   
      1307  23  1.186373E-04  9.000004E+00  1.992756E-07 -8.828631E-06  3.478624E-08  1.185609E-07 _shell_0000001307   
      1307  24  1.152353E-04  9.000004E+00 -5.897212E-08 -5.562463E-06  5.451260E-08 -1.351540E-08 _shell_0000001307   
      1307  25  1.257125E-04  9.000002E+00  1.603794E-08 -1.052459E-05  4.175142E-08  4.354520E-07 _shell_0000001307   
      1307  26  1.217126E-04  9.000002E+00  6.955207E-08 -7.213802E-06  6.096459E-08  2.257432E-07 _shell_0000001307   
      1307  27  1.174912E-04  9.000002E+00 -1.807570E-07 -4.557949E-06  8.017778E-08  6.510640E-09 _shell_0000001307   
      1308   1  1.113728E-04  9.000005E+00 -1.623764E-07 -3.977923E-06  8.375620E-08  4.557857E-08 _shell_0000001308   
      1308   2  1.114809E-04  9.000005E+00 -8.374499E-09 -4.367514E-14 -4.104088E-15  4.134351E-08 _shell_0000001308   
      1308   3  1.113728E-04  9.000005E+00 -1.623763E-07  3.977923E-06 -8.375620E-08  4.557854E-08 _shell_0000001308   
      1308   4  1.143810E-04  9.000004E+00 -3.465355E-08 -3.360397E-06  1.069390E-07  5.091452E-08 _shell_0000001308   
      1308   5  1.144933E-04  9.000004E+00  1.292301E-07 -3.026208E-14 -1.231863E-14  4.667945E-08 _shell_0000001308   
      1308   6  1.143810E-04  9.000004E+00 -3.465343E-08  3.360397E-06 -1.069390E-07  5.091443E-08 _shell_0000001308   
      1308   7  1.164885E-04  9.000002E+00 -1.135405E-07 -2.742871E-06  1.301218E-07  5.625043E-08 _shell_0000001308   
      1308   8  1.166050E-04  9.000002E+00  6.022482E-08 -3.850844E-14 -6.903777E-16  5.201532E-08 _shell_0000001308   
      1308   9  1.164885E-04  9.000002E+00 -1.135405E-07  2.742871E-06 -1.301218E-07  5.625031E-08 _shell_0000001308   
      1308  10  1.113296E-04  9.000005E+00 -1.169252E-07 -3.957360E-06 -4.332832E-15  4.307442E-14 _shell_0000001308   
      1308  11  1.114377E-04  9.000006E+00  3.707667E-08 -6.373108E-14 -5.951170E-15  2.942275E-15 _shell_0000001308   
      1308  12  1.113296E-04  9.000005E+00 -1.169252E-07  3.957360E-06 -6.534404E-16 -1.393221E-14 _shell_0000001308   
      1308  13  1.143018E-04  9.000004E+00 -4.625001E-09 -3.339834E-06 -2.239751E-15  6.026965E-14 _shell_0000001308   
      1308  14  1.144141E-04  9.000004E+00  1.592586E-07 -5.304137E-14 -5.090342E-15  4.835825E-15 _shell_0000001308   
      1308  15  1.143018E-04  9.000004E+00 -4.624951E-09  3.339834E-06 -3.346896E-15 -1.889802E-14 _shell_0000001308   
      1308  16  1.163733E-04  9.000002E+00 -9.893457E-08 -2.722308E-06  4.686131E-15  5.368258E-14 _shell_0000001308   
      1308  17  1.164898E-04  9.000002E+00  7.483079E-08 -5.467028E-14  5.205735E-15 -8.154672E-15 _shell_0000001308   
      1308  18  1.163733E-04  9.000002E+00 -9.893454E-08  2.722308E-06  4.683167E-15 -4.686806E-14 _shell_0000001308   
      1308  19  1.113728E-04  9.000005E+00 -1.623763E-07 -3.977923E-06 -8.375621E-08 -4.557850E-08 _shell_0000001308   
      1308  20  1.114809E-04  9.000005E+00 -8.374448E-09 -9.910896E-14 -9.289875E-15 -4.134349E-08 _shell_0000001308   
      1308  21  1.113728E-04  9.000005E+00 -1.623763E-07  3.977923E-06  8.375620E-08 -4.557856E-08 _shell_0000001308   
      1308  22  1.143810E-04  9.000004E+00 -3.465356E-08 -3.360397E-06 -1.069390E-07 -5.091439E-08 _shell_0000001308   
      1308  23  1.144933E-04  9.000004E+00  1.292301E-07 -8.114006E-14 -5.293956E-15 -4.667944E-08 _shell_0000001308   
      1308  24  1.143810E-04  9.000004E+00 -3.465349E-08  3.360397E-06  1.069390E-07 -5.091448E-08 _shell_0000001308   
      1308  25  1.164885E-04  9.000002E+00 -1.135406E-07 -2.742871E-06 -1.301218E-07 -5.625036E-08 _shell_0000001308   
      1308  26  1.166050E-04  9.000002E+00  6.022473E-08 -7.279189E-14 -7.890030E-16 -5.201539E-08 _shell_0000001308   
      1308  27  1.164885E-04  9.000002E+00 -1.135406E-07  2.742871E-06  1.301218E-07 -5.625043E-08 _shell_0000001308   
      1309   1  1.120938E-04  9.000005E+00 -1.471602E-07  6.501210E-06  3.766743E-08  3.354149E-08 _shell_0000001309   
      1309   2  1.146587E-04  9.000006E+00  7.786600E-08  1.037769E-05  1.742793E-08 -1.137858E-08 _shell_0000001309   
      1309   3  1.170210E-04  9.000006E+00  4.351297E-08  1.490911E-05 -2.811573E-09 -4.677496E-08 _shell_0000001309   
      1309   4  1.152353E-04  9.000004E+00 -5.897206E-08  5.562463E-06  5.451261E-08  1.351541E-08 _shell_0000001309   
      1309   5  1.186373E-04  9.000004E+00  1.992756E-07  8.828631E-06  3.478627E-08 -1.185609E-07 _shell_0000001309   
      1309   6  1.218272E-04  9.000004E+00  1.759220E-07  1.274973E-05  1.505990E-08 -2.411135E-07 _shell_0000001309   
      1309   7  1.174912E-04  9.000002E+00 -1.807570E-07  4.557949E-06  8.017781E-08 -6.510695E-09 _shell_0000001309   
      1309   8  1.217126E-04  9.000002E+00  6.955209E-08  7.213802E-06  6.096461E-08 -2.257432E-07 _shell_0000001309   
      1309   9  1.257125E-04  9.000002E+00  1.603791E-08  1.052459E-05  4.175139E-08 -4.354521E-07 _shell_0000001309   
      1309  10  1.121169E-04  9.000005E+00 -9.288149E-08  6.418304E-06  1.686501E-15 -1.495548E-14 _shell_0000001309   
      1309  11  1.145639E-04  9.000006E+00  1.424904E-08  1.029160E-05  7.259774E-15 -3.136663E-14 _shell_0000001309   
      1309  12  1.168083E-04  9.000006E+00 -1.379998E-07  1.481983E-05  4.189390E-15 -5.223703E-14 _shell_0000001309   
      1309  13  1.152529E-04  9.000004E+00 -7.083201E-09  5.440259E-06  1.660866E-16 -2.443364E-14 _shell_0000001309   
      1309  14  1.185370E-04  9.000004E+00  1.332687E-07  8.703240E-06  8.806292E-15 -2.443364E-14 _shell_0000001309   
      1309  15  1.216090E-04  9.000004E+00 -7.980654E-09  1.262115E-05  4.345573E-15 -1.686189E-14 _shell_0000001309   
      1309  16  1.175032E-04  9.000002E+00 -1.312580E-07  4.396445E-06  8.246360E-15 -4.099779E-14 _shell_0000001309   
      1309  17  1.216067E-04  9.000002E+00  1.155250E-09  7.049112E-06  1.100117E-14 -2.586906E-14 _shell_0000001309   
      1309  18  1.254886E-04  9.000002E+00 -1.702547E-07  1.035671E-05 -6.788489E-15 -9.835821E-15 _shell_0000001309   
      1309  19  1.120938E-04  9.000005E+00 -1.471603E-07  6.501210E-06 -3.766742E-08 -3.354155E-08 _shell_0000001309   
      1309  20  1.146587E-04  9.000006E+00  7.786598E-08  1.037769E-05 -1.742793E-08  1.137852E-08 _shell_0000001309   
      1309  21  1.170210E-04  9.000006E+00  4.351304E-08  1.490911E-05  2.811565E-09  4.677485E-08 _shell_0000001309   
      1309  22  1.152353E-04  9.000004E+00 -5.897209E-08  5.562463E-06 -5.451261E-08 -1.351547E-08 _shell_0000001309   
      1309  23  1.186373E-04  9.000004E+00  1.992756E-07  8.828631E-06 -3.478626E-08  1.185608E-07 _shell_0000001309   
      1309  24  1.218272E-04  9.000004E+00  1.759221E-07  1.274973E-05 -1.505990E-08  2.411135E-07 _shell_0000001309   
      1309  25  1.174912E-04  9.000002E+00 -1.807569E-07  4.557949E-06 -8.017780E-08  6.510565E-09 _shell_0000001309   
      1309  26  1.217126E-04  9.000002E+00  6.955204E-08  7.213802E-06 -6.096460E-08  2.257431E-07 _shell_0000001309   
      1309  27  1.257125E-04  9.000002E+00  1.603790E-08  1.052459E-05 -4.175140E-08  4.354521E-07 _shell_0000001309   
      1310   1  1.191919E-04  9.000006E+00  3.542933E-08  1.773081E-05  1.377996E-07 -2.264914E-08 _shell_0000001310   
      1310   2  1.237043E-04  9.000006E+00 -2.599808E-07  2.175133E-05 -3.812919E-08  1.292699E-07 _shell_0000001310   
      1310   3  1.279368E-04  9.000006E+00 -9.268421E-07  2.709539E-05 -2.140580E-07  3.427878E-07 _shell_0000001310   
      1310   4  1.247386E-04  9.000005E+00  2.048787E-07  1.513890E-05  1.548101E-07 -1.313622E-07 _shell_0000001310   
      1310   5  1.309947E-04  9.000005E+00 -2.679531E-08  1.853345E-05 -1.789471E-07  4.019644E-07 _shell_0000001310   
      1310   6  1.369093E-04  9.000004E+00 -7.736511E-07  2.325155E-05 -5.127043E-07  9.968899E-07 _shell_0000001310   
      1310   7  1.293836E-04  9.000002E+00  1.223414E-07  1.244527E-05  1.341069E-07 -2.400752E-07 _shell_0000001310   
      1310   8  1.374588E-04  9.000003E+00  1.304008E-07  1.521386E-05 -3.574787E-07  6.746589E-07 _shell_0000001310   
      1310   9  1.451310E-04  9.000002E+00 -5.204524E-07  1.930600E-05 -8.490644E-07  1.650992E-06 _shell_0000001310   
      1310  10  1.188730E-04  9.000006E+00 -1.257471E-07  1.759745E-05  1.985239E-15 -4.427585E-14 _shell_0000001310   
      1310  11  1.238993E-04  9.000007E+00  9.278213E-08  2.147649E-05  2.461464E-15 -3.055218E-14 _shell_0000001310   
      1310  12  1.286458E-04  9.000008E+00 -6.013987E-08  2.667908E-05 -1.008371E-15 -4.872470E-14 _shell_0000001310   
      1310  13  1.241721E-04  9.000004E+00 -6.240090E-08  1.517684E-05 -5.987739E-16 -2.606255E-14 _shell_0000001310   
      1310  14  1.309422E-04  9.000005E+00  2.198644E-07  1.842993E-05 -2.443364E-15 -1.954691E-14 _shell_0000001310   
      1310  15  1.373707E-04  9.000006E+00 -1.305207E-08  2.300656E-05  2.407587E-15 -1.967969E-14 _shell_0000001310   
      1310  16  1.285696E-04  9.000002E+00 -2.510413E-07  1.265453E-05 -1.595821E-14 -9.234052E-15 _shell_0000001310   
      1310  17  1.371587E-04  9.000003E+00  2.709573E-07  1.528165E-05 -1.225567E-14 -2.424015E-14 _shell_0000001310   
      1310  18  1.453449E-04  9.000004E+00  1.340434E-07  1.923232E-05 -3.769777E-15 -1.861666E-14 _shell_0000001310   
      1310  19  1.191919E-04  9.000006E+00  3.542940E-08  1.773081E-05 -1.377996E-07  2.264903E-08 _shell_0000001310   
      1310  20  1.237043E-04  9.000006E+00 -2.599809E-07  2.175133E-05  3.812919E-08 -1.292699E-07 _shell_0000001310   
      1310  21  1.279368E-04  9.000006E+00 -9.268421E-07  2.709539E-05  2.140580E-07 -3.427879E-07 _shell_0000001310   
      1310  22  1.247386E-04  9.000005E+00  2.048787E-07  1.513890E-05 -1.548101E-07  1.313621E-07 _shell_0000001310   
      1310  23  1.309947E-04  9.000005E+00 -2.679531E-08  1.853345E-05  1.789471E-07 -4.019644E-07 _shell_0000001310   
      1310  24  1.369093E-04  9.000004E+00 -7.736510E-07  2.325155E-05  5.127043E-07 -9.968899E-07 _shell_0000001310   
      1310  25  1.293836E-04  9.000002E+00  1.223415E-07  1.244527E-05 -1.341070E-07  2.400752E-07 _shell_0000001310   
      1310  26  1.374588E-04  9.000003E+00  1.304008E-07  1.521386E-05  3.574787E-07 -6.746590E-07 _shell_0000001310   
      1310  27  1.451310E-04  9.000002E+00 -5.204523E-07  1.930600E-05  8.490643E-07 -1.650992E-06 _shell_0000001310   
      1311   1  1.314936E-04  9.000007E+00 -5.625358E-07  3.031874E-05 -2.741754E-07  2.535812E-07 _shell_0000001311   
      1311   2  1.379711E-04  9.000009E+00  1.085300E-06  3.335422E-05  7.012941E-08 -3.955846E-07 _shell_0000001311   
      1311   3  1.443571E-04  9.000011E+00  3.027110E-06  3.925036E-05  4.144343E-07 -1.183138E-06 _shell_0000001311   
      1311   4  1.406954E-04  9.000004E+00 -1.023144E-06  2.663728E-05 -2.850763E-07  5.614908E-07 _shell_0000001311   
      1311   5  1.510003E-04  9.000007E+00  8.647235E-07  2.929648E-05  7.302856E-07 -1.658770E-06 _shell_0000001311   
      1311   6  1.613520E-04  9.000009E+00  3.369469E-06  3.481635E-05  1.745648E-06 -4.017418E-06 _shell_0000001311   
      1311   7  1.495909E-04  9.000002E+00 -1.367376E-06  2.274454E-05 -1.012049E-07  8.694005E-07 _shell_0000001311   
      1311   8  1.633336E-04  9.000004E+00 -1.484144E-07  2.502747E-05  1.585214E-06 -2.921956E-06 _shell_0000001311   
      1311   9  1.772615E-04  9.000006E+00  2.010329E-06  3.017107E-05  3.271633E-06 -6.851699E-06 _shell_0000001311   
      1311  10  1.326279E-04  9.000008E+00  2.051420E-07  2.970548E-05 -3.009984E-15 -4.101803E-14 _shell_0000001311   
      1311  11  1.368997E-04  9.000006E+00 -3.527420E-07  3.329614E-05 -7.881001E-15 -1.324500E-14 _shell_0000001311   
      1311  12  1.410800E-04  9.000002E+00 -6.166515E-07  3.974748E-05  1.880388E-15 -2.174589E-14 _shell_0000001311   
      1311  13  1.428013E-04  9.000006E+00  1.609251E-07  2.528878E-05 -3.780252E-15 -1.791799E-14 _shell_0000001311   
      1311  14  1.509005E-04  9.000004E+00 -1.569274E-07  2.850317E-05 -1.384573E-14  2.443364E-15 _shell_0000001311   
      1311  15  1.590465E-04  9.000001E+00  1.420983E-07  3.457823E-05 -2.485138E-15 -2.459431E-14 _shell_0000001311   
      1311  16  1.526684E-04  9.000004E+00  2.330838E-07  2.066080E-05 -6.535030E-15  5.629754E-15 _shell_0000001311   
      1311  17  1.642054E-04  9.000001E+00 -7.536743E-07  2.349892E-05 -1.271985E-14  1.720603E-15 _shell_0000001311   
      1311  18  1.759275E-04  8.999998E+00 -8.006508E-07  2.919770E-05  2.354356E-15 -5.185658E-14 _shell_0000001311   
      1311  19  1.314936E-04  9.000007E+00 -5.625357E-07  3.031874E-05  2.741754E-07 -2.535813E-07 _shell_0000001311   
      1311  20  1.379711E-04  9.000009E+00  1.085300E-06  3.335422E-05 -7.012943E-08  3.955846E-07 _shell_0000001311   
      1311  21  1.443571E-04  9.000011E+00  3.027110E-06  3.925036E-05 -4.144343E-07  1.183138E-06 _shell_0000001311   
      1311  22  1.406954E-04  9.000004E+00 -1.023144E-06  2.663728E-05  2.850763E-07 -5.614909E-07 _shell_0000001311   
      1311  23  1.510003E-04  9.000007E+00  8.647236E-07  2.929648E-05 -7.302857E-07  1.658770E-06 _shell_0000001311   
      1311  24  1.613520E-04  9.000009E+00  3.369469E-06  3.481635E-05 -1.745648E-06  4.017418E-06 _shell_0000001311   
      1311  25  1.495909E-04  9.000002E+00 -1.367376E-06  2.274454E-05  1.012049E-07 -8.694005E-07 _shell_0000001311   
      1311  26  1.633336E-04  9.000004E+00 -1.484144E-07  2.502747E-05 -1.585214E-06  2.921956E-06 _shell_0000001311   
      1311  27  1.772615E-04  9.000006E+00  2.010329E-06  3.017107E-05 -3.271633E-06  6.851699E-06 _shell_0000001311   
      1312   1  1.470388E-04  9.000010E+00  2.048671E-06  4.152802E-05  1.370731E-06 -1.051940E-06 _shell_0000001312   
      1312   2  1.473387E-04  8.999998E+00 -4.675678E-06  4.117705E-05  2.230700E-07  1.043700E-06 _shell_0000001312   
      1312   3  1.457139E-04  8.999981E+00 -1.241216E-05  4.330852E-05 -9.245905E-07  4.328959E-06 _shell_0000001312   
      1312   4  1.680374E-04  9.000009E+00  3.794609E-06  3.636625E-05  1.548624E-06 -2.408522E-06 _shell_0000001312   
      1312   5  1.717250E-04  8.999998E+00 -3.047315E-06  3.692333E-05 -3.424018E-06  6.336310E-06 _shell_0000001312   
      1312   6  1.722981E-04  8.999981E+00 -1.367715E-05  3.996287E-05 -8.396660E-06  1.627076E-05 _shell_0000001312   
      1312   7  1.917474E-04  9.000009E+00  5.940871E-06  3.114125E-05  1.103578E-06 -3.765105E-06 _shell_0000001312   
      1312   8  2.000684E-04  9.000000E+00  1.888419E-06  3.260640E-05 -7.694045E-06  1.162892E-05 _shell_0000001312   
      1312   9  2.040854E-04  8.999983E+00 -8.727721E-06  3.655399E-05 -1.649167E-05  2.821256E-05 _shell_0000001312   
      1312  10  1.440057E-04  9.000005E+00 -3.803884E-07  4.186148E-05  4.752797E-15 -2.839396E-14 _shell_0000001312   
      1312  11  1.531876E-04  9.000014E+00  1.777216E-06  3.819567E-05 -8.509944E-15 -2.647995E-14 _shell_0000001312   
      1312  12  1.604447E-04  9.000018E+00  2.922691E-06  3.701230E-05 -6.188492E-15 -6.627519E-15 _shell_0000001312   
      1312  13  1.592033E-04  9.000001E+00 -1.120583E-06  3.966036E-05  4.058534E-16 -3.418152E-14 _shell_0000001312   
      1312  14  1.717728E-04  9.000011E+00  9.194460E-07  3.690261E-05 -1.180959E-14  7.635513E-16 _shell_0000001312   
      1312  15  1.812279E-04  9.000015E+00 -8.284333E-07  3.662730E-05 -8.102513E-15 -1.036686E-14 _shell_0000001312   
      1312  16  1.771123E-04  8.999999E+00 -1.460453E-06  3.739602E-05  3.983271E-15 -4.018334E-14 _shell_0000001312   
      1312  17  1.943153E-04  9.000011E+00  3.369048E-06  3.554632E-05 -3.922603E-15  7.014535E-15 _shell_0000001312   
      1312  18  2.072142E-04  9.000015E+00  1.634861E-06  3.617907E-05  6.150351E-15 -4.333025E-14 _shell_0000001312   
      1312  19  1.470388E-04  9.000010E+00  2.048671E-06  4.152802E-05 -1.370731E-06  1.051939E-06 _shell_0000001312   
      1312  20  1.473387E-04  8.999998E+00 -4.675678E-06  4.117705E-05 -2.230700E-07 -1.043700E-06 _shell_0000001312   
      1312  21  1.457139E-04  8.999981E+00 -1.241216E-05  4.330852E-05  9.245905E-07 -4.328959E-06 _shell_0000001312   
      1312  22  1.680374E-04  9.000009E+00  3.794609E-06  3.636625E-05 -1.548624E-06  2.408522E-06 _shell_0000001312   
      1312  23  1.717250E-04  8.999998E+00 -3.047315E-06  3.692333E-05  3.424018E-06 -6.336310E-06 _shell_0000001312   
      1312  24  1.722981E-04  8.999981E+00 -1.367715E-05  3.996287E-05  8.396660E-06 -1.627076E-05 _shell_0000001312   
      1312  25  1.917474E-04  9.000009E+00  5.940871E-06  3.114125E-05 -1.103578E-06  3.765105E-06 _shell_0000001312   
      1312  26  2.000684E-04  9.000000E+00  1.888419E-06  3.260640E-05  7.694045E-06 -1.162892E-05 _shell_0000001312   
      1312  27  2.040854E-04  8.999983E+00 -8.727721E-06  3.655399E-05  1.649167E-05 -2.821256E-05 _shell_0000001312   
      1313   1  1.447942E-04  8.999987E+00 -8.370498E-06  4.095985E-05 -4.046534E-06  4.886592E-06 _shell_0000001313   
      1313   2  1.612868E-04  9.000009E+00  2.244561E-05  2.371171E-05 -3.519430E-06 -3.091520E-06 _shell_0000001313   
      1313   3  1.638537E-04  8.999988E+00  4.937458E-05  7.535323E-06 -2.992326E-06 -2.011887E-05 _shell_0000001313   
      1313   4  1.657008E-04  8.999984E+00 -1.750343E-05  4.718003E-05 -4.441482E-06  1.070976E-05 _shell_0000001313   
      1313   5  1.855112E-04  9.000013E+00  1.248274E-05  2.338746E-05  1.294679E-05 -2.494419E-05 _shell_0000001313   
      1313   6  2.004452E-04  9.000009E+00  5.969665E-05  6.666356E-07  3.033507E-05 -6.964737E-05 _shell_0000001313   
      1313   7  1.883296E-04  8.999982E+00 -2.464122E-05  5.465002E-05 -1.753034E-06  1.653292E-05 _shell_0000001313   
      1313   8  2.052911E-04  9.000012E+00 -9.874182E-06  2.431301E-05  3.249641E-05 -4.679686E-05 _shell_0000001313   
      1313   9  2.264255E-04  9.000018E+00  4.323549E-05 -4.952253E-06  6.674586E-05 -1.191759E-04 _shell_0000001313   
      1313  10  1.577204E-04  9.000006E+00  1.336975E-06  3.540109E-05 -7.574803E-16  4.591520E-15 _shell_0000001313   
      1313  11  1.361400E-04  8.999939E+00 -5.919873E-06  3.419230E-05  7.479728E-15  6.098257E-15 _shell_0000001313   
      1313  12  1.006339E-04  8.999830E+00 -1.706386E-05  3.405525E-05  4.804913E-16  1.342836E-14 _shell_0000001313   
      1313  13  2.066957E-04  9.000015E+00  4.233551E-06  2.893029E-05  3.498900E-15 -1.628888E-14 _shell_0000001313   
      1313  14  1.884332E-04  8.999955E+00 -3.853238E-06  2.117706E-05  1.487582E-14  1.307260E-14 _shell_0000001313   
      1313  15  1.652943E-04  8.999862E+00  5.287718E-06  1.449558E-05  2.088132E-14  2.933593E-14 _shell_0000001313   
      1313  16  2.573934E-04  9.000025E+00  9.125262E-06  2.370929E-05  1.584309E-14 -4.690236E-14 _shell_0000001313   
      1313  17  2.362820E-04  8.999967E+00 -1.418065E-05  9.411623E-06  1.633095E-14  6.912582E-15 _shell_0000001313   
      1313  18  2.193434E-04  8.999884E+00  8.560619E-07 -3.814300E-06  2.293275E-14  2.024811E-14 _shell_0000001313   
      1313  19  1.447942E-04  8.999987E+00 -8.370498E-06  4.095985E-05  4.046534E-06 -4.886592E-06 _shell_0000001313   
      1313  20  1.612868E-04  9.000009E+00  2.244561E-05  2.371171E-05  3.519430E-06  3.091520E-06 _shell_0000001313   
      1313  21  1.638537E-04  8.999988E+00  4.937458E-05  7.535323E-06  2.992326E-06  2.011887E-05 _shell_0000001313   
      1313  22  1.657008E-04  8.999984E+00 -1.750343E-05  4.718003E-05  4.441482E-06 -1.070976E-05 _shell_0000001313   
      1313  23  1.855112E-04  9.000013E+00  1.248274E-05  2.338746E-05 -1.294679E-05  2.494419E-05 _shell_0000001313   
      1313  24  2.004452E-04  9.000009E+00  5.969665E-05  6.666357E-07 -3.033507E-05  6.964738E-05 _shell_0000001313   
      1313  25  1.883296E-04  8.999982E+00 -2.464122E-05  5.465002E-05  1.753034E-06 -1.653292E-05 _shell_0000001313   
      1313  26  2.052911E-04  9.000012E+00 -9.874182E-06  2.431301E-05 -3.249641E-05  4.679686E-05 _shell_0000001313   
      1313  27  2.264255E-04  9.000018E+00  4.323549E-05 -4.952253E-06 -6.674585E-05  1.191759E-04 _shell_0000001313   
      1314   1  1.137831E-04  8.999945E+00  1.760429E-05 -2.830548E-05  2.527163E-05 -1.941206E-05 _shell_0000001314   
      1314   2  1.104956E-04  8.999710E+00 -7.433395E-05 -1.977141E-05  1.887910E-05  1.202842E-05 _shell_0000001314   
      1314   3 -3.768045E-05  8.999098E+00 -2.716238E-04  1.482397E-05  1.248656E-05  5.298546E-05 _shell_0000001314   
      1314   4  2.025972E-04  8.999982E+00  5.738464E-05 -2.982517E-05  3.867534E-05 -4.263798E-05 _shell_0000001314   
      1314   5  2.247314E-04  8.999722E+00 -3.714974E-05 -4.440831E-05 -6.651680E-05  1.068669E-04 _shell_0000001314   
      1314   6  9.246040E-05  8.999075E+00 -2.592410E-04 -3.293013E-05 -1.717089E-04  2.658884E-04 _shell_0000001314   
      1314   7  3.451482E-04  9.000039E+00  1.056737E-04 -3.758428E-05  4.203688E-05 -6.586391E-05 _shell_0000001314   
      1314   8  4.127885E-04  8.999773E+00  5.540663E-05 -7.528463E-05 -1.619549E-04  2.017054E-04 _shell_0000001314   
      1314   9  3.165069E-04  8.999111E+00 -1.446227E-04 -8.692366E-05 -3.659466E-04  4.787913E-04 _shell_0000001314   
      1314  10  9.014664E-05  8.999869E+00 -1.235754E-05 -9.544499E-06 -3.354282E-15  1.212569E-14 _shell_0000001314   
      1314  11  2.422766E-04  8.999997E+00  5.112157E-05 -7.867884E-05 -6.204316E-15 -2.118569E-14 _shell_0000001314   
      1314  12  2.495178E-04  8.999747E+00  9.249065E-06 -1.217519E-04 -3.967570E-15 -4.867362E-14 _shell_0000001314   
      1314  13  4.304102E-05  8.999848E+00 -3.082850E-05  4.074160E-05  9.086261E-15  1.955669E-14 _shell_0000001314   
      1314  14  2.205926E-04  8.999950E+00  3.005447E-05 -5.150995E-05 -4.287862E-15 -4.352216E-19 _shell_0000001314   
      1314  15  2.437389E-04  8.999666E+00 -3.661948E-05 -1.177002E-04  3.394461E-15 -5.127259E-14 _shell_0000001314   
      1314  16  4.967237E-05  8.999846E+00 -4.079074E-05  8.478827E-05  1.374495E-14  2.823028E-14 _shell_0000001314   
      1314  17  2.727299E-04  8.999943E+00  6.435954E-05 -3.058049E-05 -1.670936E-15  8.134840E-15 _shell_0000001314   
      1314  18  3.318657E-04  8.999643E+00  1.974756E-05 -1.198879E-04 -5.047649E-15 -6.954587E-14 _shell_0000001314   
      1314  19  1.137831E-04  8.999945E+00  1.760429E-05 -2.830548E-05 -2.527163E-05  1.941206E-05 _shell_0000001314   
      1314  20  1.104956E-04  8.999710E+00 -7.433395E-05 -1.977141E-05 -1.887910E-05 -1.202842E-05 _shell_0000001314   
      1314  21 -3.768045E-05  8.999098E+00 -2.716238E-04  1.482397E-05 -1.248656E-05 -5.298546E-05 _shell_0000001314   
      1314  22  2.025972E-04  8.999982E+00  5.738464E-05 -2.982517E-05 -3.867534E-05  4.263798E-05 _shell_0000001314   
      1314  23  2.247314E-04  8.999722E+00 -3.714974E-05 -4.440831E-05  6.651680E-05 -1.068669E-04 _shell_0000001314   
      1314  24  9.246040E-05  8.999075E+00 -2.592410E-04 -3.293013E-05  1.717089E-04 -2.658884E-04 _shell_0000001314   
      1314  25  3.451482E-04  9.000039E+00  1.056737E-04 -3.758428E-05 -4.203688E-05  6.586391E-05 _shell_0000001314   
      1314  26  4.127885E-04  8.999773E+00  5.540663E-05 -7.528463E-05  1.619549E-04 -2.017054E-04 _shell_0000001314   
      1314  27  3.165069E-04  8.999111E+00 -1.446227E-04 -8.692366E-05  3.659466E-04 -4.787913E-04 _shell_0000001314   
      1315   1 -1.210241E-05  8.999133E+00 -2.385603E-04  2.505781E-04  2.686239E-05  5.985577E-05 _shell_0000001315   
      1315   2  5.978472E-05  8.999744E+00 -2.257693E-05  1.492334E-04 -6.503375E-06  3.570179E-05 _shell_0000001315   
      1315   3 -6.143873E-05  8.999874E+00  2.933573E-05  1.240543E-04 -3.986914E-05  1.051943E-05 _shell_0000001315   
      1315   4 -3.329567E-04  8.998934E+00 -4.233466E-04  4.654328E-04 -1.597568E-04  2.639355E-04 _shell_0000001315   
      1315   5 -7.272711E-05  8.999730E+00 -9.541424E-05  2.122620E-04 -7.253586E-05  9.139612E-05 _shell_0000001315   
      1315   6 -4.579761E-06  9.000048E+00  7.084694E-05  3.525684E-05  1.468503E-05 -8.217161E-05 _shell_0000001315   
      1315   7 -7.608660E-04  8.998708E+00 -5.906085E-04  6.986952E-04 -3.376100E-04  4.680152E-04 _shell_0000001315   
      1315   8 -3.298258E-04  8.999672E+00 -1.916347E-04  2.936985E-04 -1.298025E-04  1.470905E-04 _shell_0000001315   
      1315   9 -8.983945E-05  9.000159E+00  4.806750E-05 -3.513273E-05  7.800509E-05 -1.748626E-04 _shell_0000001315   
      1315  10  2.254364E-04  8.999744E+00  1.583538E-05  1.045222E-04 -4.249707E-15 -4.895912E-14 _shell_0000001315   
      1315  11  1.106667E-04  8.999919E+00  4.516193E-05  9.400316E-05 -1.940463E-15 -1.548474E-14 _shell_0000001315   
      1315  12 -1.972135E-04  8.999614E+00 -8.958222E-05  1.596496E-04 -1.698002E-14  6.094682E-14 _shell_0000001315   
      1315  13  6.352701E-05  8.999613E+00 -1.008317E-04  2.571579E-04  3.714745E-15 -6.189850E-14 _shell_0000001315   
      1315  14  1.370998E-04  8.999973E+00  4.044385E-05  9.481282E-05 -1.140237E-14  1.689594E-15 _shell_0000001315   
      1315  15  1.859029E-05  8.999855E+00  2.004822E-05  8.633284E-06 -2.615075E-14  4.624249E-14 _shell_0000001315   
      1315  16 -2.054375E-04  8.999455E+00 -1.999744E-04  4.282015E-04 -6.966823E-15 -6.848587E-14 _shell_0000001315   
      1315  17  3.894592E-05  8.999984E+00  1.234263E-05  1.140303E-04 -1.445666E-14 -7.227104E-16 _shell_0000001315   
      1315  18  9.227546E-05  9.000035E+00  6.538801E-05 -1.239752E-04 -1.754819E-14  2.475305E-14 _shell_0000001315   
      1315  19 -1.210241E-05  8.999133E+00 -2.385603E-04  2.505781E-04 -2.686239E-05 -5.985577E-05 _shell_0000001315   
      1315  20  5.978472E-05  8.999744E+00 -2.257693E-05  1.492334E-04  6.503375E-06 -3.570179E-05 _shell_0000001315   
      1315  21 -6.143873E-05  8.999874E+00  2.933573E-05  1.240543E-04  3.986914E-05 -1.051943E-05 _shell_0000001315   
      1315  22 -3.329567E-04  8.998934E+00 -4.233466E-04  4.654328E-04  1.597568E-04 -2.639355E-04 _shell_0000001315   
      1315  23 -7.272711E-05  8.999730E+00 -9.541424E-05  2.122620E-04  7.253586E-05 -9.139612E-05 _shell_0000001315   
      1315  24 -4.579761E-06  9.000048E+00  7.084694E-05  3.525684E-05 -1.468503E-05  8.217161E-05 _shell_0000001315   
      1315  25 -7.608660E-04  8.998708E+00 -5.906085E-04  6.986952E-04  3.376100E-04 -4.680152E-04 _shell_0000001315   
      1315  26 -3.298258E-04  8.999672E+00 -1.916347E-04  2.936985E-04  1.298025E-04 -1.470905E-04 _shell_0000001315   
      1315  27 -8.983945E-05  9.000159E+00  4.806750E-05 -3.513273E-05 -7.800509E-05  1.748626E-04 _shell_0000001315   
      1401   1 -2.005900E-04  8.999879E+00 -9.737010E-05 -7.737005E-05 -9.100821E-05 -1.610064E-04 _shell_0000001401   
      1401   2 -2.684087E-04  8.999861E+00 -1.002756E-04 -8.548596E-05  1.169241E-04  1.301013E-04 _shell_0000001401   
      1401   3 -1.138208E-04  9.000347E+00  1.347379E-04 -1.218034E-04  3.248564E-04  4.641705E-04 _shell_0000001401   
      1401   4  3.229295E-07  8.999947E+00 -6.816545E-05 -3.310595E-05 -6.159632E-05 -8.907803E-05 _shell_0000001401   
      1401   5 -6.582757E-05  8.999960E+00  2.555789E-05 -4.840023E-05  2.617799E-05  5.785931E-05 _shell_0000001401   
      1401   6  4.746689E-05  9.000434E+00  2.569564E-04 -9.189606E-05  1.139523E-04  2.477583E-04 _shell_0000001401   
      1401   7  7.760591E-05  8.999968E+00 -6.931137E-05  1.147534E-05 -2.425481E-05 -1.714970E-05 _shell_0000001401   
      1401   8 -2.735661E-06  8.999996E+00  8.403586E-05 -1.099730E-05 -5.663847E-05 -1.438265E-05 _shell_0000001401   
      1401   9  5.340612E-05  9.000442E+00  2.748146E-04 -6.167150E-05 -8.902214E-05  3.134601E-05 _shell_0000001401   
      1401  10  1.742435E-04  9.000220E+00  1.171513E-04  1.024351E-04 -9.886304E-15 -4.703476E-14 _shell_0000001401   
      1401  11 -7.360837E-05  8.999782E+00 -6.578739E-05 -1.190987E-05 -7.679685E-15  1.330102E-14 _shell_0000001401   
      1401  12 -9.905372E-05  8.999847E+00 -1.080716E-05 -1.544564E-04  4.047098E-15 -2.721174E-14 _shell_0000001401   
      1401  13  1.892556E-04  9.000207E+00  6.668419E-05  8.668815E-05 -1.794346E-14 -2.769146E-14 _shell_0000001401   
      1401  14 -5.692817E-05  8.999800E+00 -1.962571E-05 -3.483522E-05 -9.831075E-15 -1.211385E-15 _shell_0000001401   
      1401  15 -1.236669E-04  8.999854E+00  3.173961E-05 -1.845601E-04  8.207427E-15 -8.709555E-15 _shell_0000001401   
      1401  16  8.063764E-05  9.000149E+00 -1.413355E-05  7.125836E-05 -1.780011E-14 -1.395771E-14 _shell_0000001401   
      1401  17 -1.797372E-04  8.999757E+00 -4.081955E-05 -5.744337E-05 -5.993117E-15 -7.584686E-16 _shell_0000001401   
      1401  18 -3.036286E-04  8.999783E+00 -3.007408E-05 -2.143466E-04  6.089717E-15 -3.797366E-15 _shell_0000001401   
      1401  19 -2.005900E-04  8.999879E+00 -9.737010E-05 -7.737005E-05  9.100821E-05  1.610064E-04 _shell_0000001401   
      1401  20 -2.684087E-04  8.999861E+00 -1.002756E-04 -8.548596E-05 -1.169241E-04 -1.301013E-04 _shell_0000001401   
      1401  21 -1.138208E-04  9.000347E+00  1.347379E-04 -1.218034E-04 -3.248564E-04 -4.641705E-04 _shell_0000001401   
      1401  22  3.229295E-07  8.999947E+00 -6.816545E-05 -3.310595E-05  6.159632E-05  8.907803E-05 _shell_0000001401   
      1401  23 -6.582757E-05  8.999960E+00  2.555789E-05 -4.840023E-05 -2.617799E-05 -5.785931E-05 _shell_0000001401   
      1401  24  4.746689E-05  9.000434E+00  2.569564E-04 -9.189606E-05 -1.139523E-04 -2.477583E-04 _shell_0000001401   
      1401  25  7.760591E-05  8.999968E+00 -6.931137E-05  1.147534E-05  2.425481E-05  1.714970E-05 _shell_0000001401   
      1401  26 -2.735661E-06  8.999996E+00  8.403586E-05 -1.099730E-05  5.663847E-05  1.438265E-05 _shell_0000001401   
      1401  27  5.340612E-05  9.000442E+00  2.748146E-04 -6.167150E-05  8.902214E-05 -3.134601E-05 _shell_0000001401   
      1402   1  9.571080E-04  9.000764E+00  5.840490E-04  6.477186E-04  3.597437E-04  4.820692E-04 _shell_0000001402   
      1402   2  5.185199E-04  9.000045E+00  1.889979E-04  2.401439E-04  1.678785E-04  2.023793E-04 _shell_0000001402   
      1402   3  3.189238E-04  8.999885E+00  3.102242E-05  1.207971E-05 -2.398662E-05 -4.539363E-05 _shell_0000001402   
      1402   4  4.090807E-04  9.000550E+00  3.984666E-04  4.320041E-04  1.335278E-04  2.605253E-04 _shell_0000001402   
      1402   5  2.834236E-04  8.999976E+00  1.239368E-04  1.455641E-04  8.213522E-05  1.073709E-04 _shell_0000001402   
      1402   6  3.648416E-04  8.999929E+00  1.200994E-05  3.863446E-05  3.074261E-05 -1.386661E-05 _shell_0000001402   
      1402   7 -8.789372E-05  9.000347E+00  1.953690E-04  2.191104E-04 -9.916313E-05  3.898143E-05 _shell_0000001402   
      1402   8  1.123305E-04  8.999930E+00  7.157793E-05  5.380493E-05 -1.008321E-05  1.236248E-05 _shell_0000001402   
      1402   9  4.877130E-04  9.000009E+00  3.591700E-05  6.800994E-05  7.899670E-05  1.766041E-05 _shell_0000001402   
      1402  10  4.318373E-04  9.000020E+00  2.032162E-04  3.694734E-04  5.395763E-15 -3.033844E-14 _shell_0000001402   
      1402  11  1.501707E-04  8.999667E+00 -3.491347E-05  5.528435E-05 -7.157250E-15  8.006985E-15 _shell_0000001402   
      1402  12  1.074960E-04  8.999874E+00 -3.596753E-05 -7.939430E-05 -1.399392E-14 -6.722185E-14 _shell_0000001402   
      1402  13  4.723473E-05  8.999876E+00  8.767287E-05  2.060661E-04  1.008038E-14 -3.283333E-15 _shell_0000001402   
      1402  14  7.849914E-05  8.999668E+00 -2.993541E-05  1.301164E-05 -9.773250E-15 -4.469115E-15 _shell_0000001402   
      1402  15  3.168386E-04  8.999987E+00  1.505916E-05 -5.324009E-07 -1.294815E-14 -7.283637E-14 _shell_0000001402   
      1402  16 -2.863149E-04  8.999743E+00 -4.538554E-05  4.547952E-05  2.456126E-15 -2.351682E-15 _shell_0000001402   
      1402  17  7.083078E-05  8.999692E+00 -1.225513E-05 -2.644034E-05 -1.184031E-14 -7.375979E-15 _shell_0000001402   
      1402  18  6.031347E-04  9.000137E+00  1.090054E-04  8.115023E-05 -8.738974E-15 -7.620754E-14 _shell_0000001402   
      1402  19  9.571080E-04  9.000764E+00  5.840490E-04  6.477186E-04 -3.597437E-04 -4.820692E-04 _shell_0000001402   
      1402  20  5.185199E-04  9.000045E+00  1.889979E-04  2.401439E-04 -1.678785E-04 -2.023793E-04 _shell_0000001402   
      1402  21  3.189238E-04  8.999885E+00  3.102242E-05  1.207971E-05  2.398662E-05  4.539363E-05 _shell_0000001402   
      1402  22  4.090807E-04  9.000550E+00  3.984666E-04  4.320041E-04 -1.335278E-04 -2.605253E-04 _shell_0000001402   
      1402  23  2.834236E-04  8.999976E+00  1.239368E-04  1.455641E-04 -8.213522E-05 -1.073709E-04 _shell_0000001402   
      1402  24  3.648416E-04  8.999929E+00  1.200994E-05  3.863446E-05 -3.074261E-05  1.386661E-05 _shell_0000001402   
      1402  25 -8.789372E-05  9.000347E+00  1.953690E-04  2.191104E-04  9.916313E-05 -3.898143E-05 _shell_0000001402   
      1402  26  1.123305E-04  8.999930E+00  7.157793E-05  5.380493E-05  1.008321E-05 -1.236248E-05 _shell_0000001402   
      1402  27  4.877130E-04  9.000009E+00  3.591700E-05  6.800994E-05 -7.899670E-05 -1.766041E-05 _shell_0000001402   
      1403   1  1.950012E-04  8.999895E+00 -3.463284E-05 -4.208384E-05 -6.735981E-05 -1.006341E-04 _shell_0000001403   
      1403   2  1.880185E-04  8.999918E+00 -5.961150E-05 -4.228943E-05 -3.445608E-05 -5.315909E-05 _shell_0000001403   
      1403   3  2.222965E-04  9.000006E+00 -1.174195E-05 -4.910301E-05 -1.552351E-06  1.002089E-05 _shell_0000001403   
      1403   4  2.752263E-04  8.999946E+00 -5.571837E-05 -3.371689E-05 -2.949259E-05 -4.197060E-05 _shell_0000001403   
      1403   5  2.655176E-04  8.999953E+00 -4.519757E-05 -2.636458E-05 -1.807458E-05 -2.777694E-05 _shell_0000001403   
      1403   6  2.813647E-04  9.000008E+00  1.526455E-06 -2.562025E-05 -6.656564E-06  2.121721E-06 _shell_0000001403   
      1403   7  3.659942E-04  9.000005E+00 -5.787446E-05 -3.030829E-05  1.081606E-05  1.669286E-05 _shell_0000001403   
      1403   8  3.486768E-04  8.999991E+00 -2.324756E-05 -1.539807E-05  7.483606E-07 -2.394794E-06 _shell_0000001403   
      1403   9  3.412100E-04  9.000010E+00  1.093758E-05 -7.095839E-06 -9.319343E-06 -5.777447E-06 _shell_0000001403   
      1403  10  3.282422E-04  9.000094E+00  6.504641E-05  2.576472E-05 -1.653163E-14 -7.757680E-14 _shell_0000001403   
      1403  11  2.783248E-04  9.000017E+00 -2.866956E-06  3.555466E-06 -1.302387E-14 -3.037405E-14 _shell_0000001403   
      1403  12  2.696681E-04  9.000004E+00  2.067896E-06 -2.526177E-05  1.073985E-15 -1.003600E-13 _shell_0000001403   
      1403  13  3.699609E-04  9.000128E+00  2.745813E-05  1.982010E-05 -1.486081E-14 -7.816226E-14 _shell_0000001403   
      1403  14  3.173175E-04  9.000035E+00 -4.955769E-06  5.168755E-06 -1.140214E-14 -3.872709E-14 _shell_0000001403   
      1403  15  2.902299E-04  8.999991E+00 -1.166448E-06 -1.609058E-05 -4.900179E-15 -1.247439E-13 _shell_0000001403   
      1403  16  4.222224E-04  9.000171E+00  8.799302E-06  8.917133E-06 -5.076803E-15 -7.056229E-14 _shell_0000001403   
      1403  17  3.619703E-04  9.000057E+00  4.914997E-07  1.823691E-06 -1.171377E-14 -4.046306E-14 _shell_0000001403   
      1403  18  3.115688E-04  8.999976E+00 -8.258072E-06 -1.187774E-05 -1.521395E-14 -1.527918E-13 _shell_0000001403   
      1403  19  1.950012E-04  8.999895E+00 -3.463284E-05 -4.208384E-05  6.735981E-05  1.006341E-04 _shell_0000001403   
      1403  20  1.880185E-04  8.999918E+00 -5.961150E-05 -4.228943E-05  3.445608E-05  5.315908E-05 _shell_0000001403   
      1403  21  2.222965E-04  9.000006E+00 -1.174195E-05 -4.910301E-05  1.552351E-06 -1.002089E-05 _shell_0000001403   
      1403  22  2.752263E-04  8.999946E+00 -5.571837E-05 -3.371689E-05  2.949259E-05  4.197060E-05 _shell_0000001403   
      1403  23  2.655176E-04  8.999953E+00 -4.519757E-05 -2.636458E-05  1.807458E-05  2.777694E-05 _shell_0000001403   
      1403  24  2.813647E-04  9.000008E+00  1.526455E-06 -2.562025E-05  6.656564E-06 -2.121721E-06 _shell_0000001403   
      1403  25  3.659942E-04  9.000005E+00 -5.787446E-05 -3.030829E-05 -1.081606E-05 -1.669286E-05 _shell_0000001403   
      1403  26  3.486768E-04  8.999991E+00 -2.324756E-05 -1.539807E-05 -7.483606E-07  2.394794E-06 _shell_0000001403   
      1403  27  3.412100E-04  9.000010E+00  1.093758E-05 -7.095839E-06  9.319343E-06  5.777447E-06 _shell_0000001403   
      1404   1  2.494371E-04  9.000043E+00  2.115262E-05 -2.686918E-05  1.574700E-05  2.700031E-05 _shell_0000001404   
      1404   2  2.244312E-04  9.000020E+00  1.286281E-05 -2.375623E-05  7.818270E-06  1.213107E-05 _shell_0000001404   
      1404   3  1.992624E-04  8.999999E+00  1.629558E-06 -2.700614E-05 -1.104584E-07 -2.585381E-06 _shell_0000001404   
      1404   4  2.749356E-04  9.000026E+00  1.738337E-05 -1.752559E-05  4.089789E-06  1.189751E-05 _shell_0000001404   
      1404   5  2.444285E-04  9.000011E+00  9.995297E-06 -1.433637E-05  2.971992E-06  5.554350E-06 _shell_0000001404   
      1404   6  2.136056E-04  8.999999E+00 -6.927162E-07 -1.750999E-05  1.854194E-06 -6.360212E-07 _shell_0000001404   
      1404   7  2.963672E-04  9.000005E+00  6.006597E-06 -6.314107E-06 -8.498551E-06 -3.205295E-06 _shell_0000001404   
      1404   8  2.622211E-04  9.000001E+00  3.865539E-06 -3.048608E-06 -2.805418E-06 -1.022372E-06 _shell_0000001404   
      1404   9  2.276065E-04  8.999998E+00 -1.931961E-06 -6.145962E-06  2.887716E-06  1.313338E-06 _shell_0000001404   
      1404  10  2.172077E-04  8.999991E+00 -4.348228E-06 -4.148601E-05  5.138242E-15 -9.854901E-14 _shell_0000001404   
      1404  11  2.038887E-04  8.999995E+00 -9.511557E-07 -3.332216E-05  4.106655E-15 -7.467609E-15 _shell_0000001404   
      1404  12  1.904068E-04  9.000001E+00 -4.975181E-07 -3.152116E-05  7.154148E-15 -2.428478E-14 _shell_0000001404   
      1404  13  2.515453E-04  8.999977E+00 -4.329299E-06 -2.824679E-05 -2.233753E-15 -1.124227E-13 _shell_0000001404   
      1404  14  2.327250E-04  8.999989E+00 -3.048755E-08 -2.000667E-05 -8.682447E-16 -1.263659E-14 _shell_0000001404   
      1404  15  2.135891E-04  9.000004E+00  9.683854E-07 -1.812939E-05  3.346159E-15 -4.210219E-14 _shell_0000001404   
      1404  16  2.818160E-04  8.999960E+00 -1.191790E-05 -1.313968E-05 -1.612512E-14 -1.381620E-13 _shell_0000001404   
      1404  17  2.593568E-04  8.999983E+00 -2.372068E-06 -4.823279E-06 -1.174822E-14 -5.237980E-15 _shell_0000001404   
      1404  18  2.364291E-04  9.000007E+00  3.517318E-06 -2.869730E-06  4.645018E-16 -5.393726E-14 _shell_0000001404   
      1404  19  2.494371E-04  9.000043E+00  2.115262E-05 -2.686918E-05 -1.574700E-05 -2.700031E-05 _shell_0000001404   
      1404  20  2.244312E-04  9.000020E+00  1.286281E-05 -2.375623E-05 -7.818270E-06 -1.213107E-05 _shell_0000001404   
      1404  21  1.992624E-04  8.999999E+00  1.629558E-06 -2.700614E-05  1.104584E-07  2.585381E-06 _shell_0000001404   
      1404  22  2.749356E-04  9.000026E+00  1.738337E-05 -1.752559E-05 -4.089789E-06 -1.189751E-05 _shell_0000001404   
      1404  23  2.444285E-04  9.000011E+00  9.995297E-06 -1.433637E-05 -2.971992E-06 -5.554350E-06 _shell_0000001404   
      1404  24  2.136056E-04  8.999999E+00 -6.927163E-07 -1.750999E-05 -1.854194E-06  6.360211E-07 _shell_0000001404   
      1404  25  2.963672E-04  9.000005E+00  6.006597E-06 -6.314106E-06  8.498551E-06  3.205295E-06 _shell_0000001404   
      1404  26  2.622211E-04  9.000001E+00  3.865539E-06 -3.048608E-06  2.805417E-06  1.022372E-06 _shell_0000001404   
      1404  27  2.276065E-04  8.999998E+00 -1.931961E-06 -6.145962E-06 -2.887716E-06 -1.313339E-06 _shell_0000001404   
      1405   1  1.806651E-04  8.999992E+00 -5.085829E-06 -2.744256E-05 -3.070380E-06 -6.034955E-06 _shell_0000001405   
      1405   2  1.681234E-04  8.999997E+00 -3.292017E-06 -2.220374E-05 -1.623354E-06 -2.942076E-06 _shell_0000001405   
      1405   3  1.560181E-04  9.000002E+00 -4.515935E-07 -1.927351E-05 -1.763286E-07  6.612385E-07 _shell_0000001405   
      1405   4  1.977193E-04  8.999995E+00 -4.595536E-06 -1.640462E-05 -5.658089E-07 -2.240259E-06 _shell_0000001405   
      1405   5  1.819099E-04  8.999999E+00 -1.937649E-06 -1.265282E-05 -6.125144E-07 -1.331975E-06 _shell_0000001405   
      1405   6  1.660264E-04  9.000002E+00  5.758337E-07 -1.120961E-05 -6.592200E-07  8.674345E-08 _shell_0000001405   
      1405   7  2.132258E-04  8.999999E+00 -2.783536E-06 -5.565046E-06  2.188575E-06  1.554438E-06 _shell_0000001405   
      1405   8  1.936491E-04  9.000000E+00 -4.273682E-07 -3.300273E-06  6.481383E-07  2.781257E-07 _shell_0000001405   
      1405   9  1.734878E-04  9.000000E+00  5.933788E-07 -3.344083E-06 -8.922983E-07 -4.877515E-07 _shell_0000001405   
      1405  10  1.883061E-04  9.000005E+00  1.298279E-06 -2.318936E-05  4.630707E-15 -2.687700E-14 _shell_0000001405   
      1405  11  1.727447E-04  9.000003E+00  7.234227E-08 -1.926225E-05  2.293648E-15  5.665456E-15 _shell_0000001405   
      1405  12  1.576196E-04  9.000002E+00 -1.069845E-07 -1.764373E-05  5.808251E-15 -6.834172E-14 _shell_0000001405   
      1405  13  2.030648E-04  9.000008E+00  8.047887E-07 -1.315800E-05  4.861277E-15 -4.233109E-14 _shell_0000001405   
      1405  14  1.842357E-04  9.000004E+00  4.429266E-07 -1.071791E-05  7.791273E-15 -6.097994E-15 _shell_0000001405   
      1405  15  1.653325E-04  9.000000E+00 -6.334088E-08 -1.058641E-05  5.367307E-15 -7.264179E-14 _shell_0000001405   
      1405  16  2.162758E-04  9.000010E+00  1.633005E-06 -3.325009E-06  8.615418E-15 -6.282494E-14 _shell_0000001405   
      1405  17  1.936793E-04  9.000004E+00  9.694234E-07 -2.371948E-06  1.381877E-14  2.397524E-15 _shell_0000001405   
      1405  18  1.704983E-04  8.999998E+00 -1.029579E-06 -3.727469E-06  1.243018E-14 -6.880104E-14 _shell_0000001405   
      1405  19  1.806651E-04  8.999992E+00 -5.085829E-06 -2.744256E-05  3.070380E-06  6.034955E-06 _shell_0000001405   
      1405  20  1.681234E-04  8.999997E+00 -3.292017E-06 -2.220374E-05  1.623354E-06  2.942076E-06 _shell_0000001405   
      1405  21  1.560181E-04  9.000002E+00 -4.515936E-07 -1.927351E-05  1.763286E-07 -6.612386E-07 _shell_0000001405   
      1405  22  1.977193E-04  8.999995E+00 -4.595537E-06 -1.640462E-05  5.658089E-07  2.240258E-06 _shell_0000001405   
      1405  23  1.819099E-04  8.999999E+00 -1.937649E-06 -1.265282E-05  6.125145E-07  1.331975E-06 _shell_0000001405   
      1405  24  1.660264E-04  9.000002E+00  5.758337E-07 -1.120961E-05  6.592200E-07 -8.674363E-08 _shell_0000001405   
      1405  25  2.132258E-04  8.999999E+00 -2.783536E-06 -5.565046E-06 -2.188575E-06 -1.554438E-06 _shell_0000001405   
      1405  26  1.936491E-04  9.000000E+00 -4.273681E-07 -3.300273E-06 -6.481383E-07 -2.781257E-07 _shell_0000001405   
      1405  27  1.734878E-04  9.000000E+00  5.933789E-07 -3.344083E-06  8.922983E-07  4.877514E-07 _shell_0000001405   
      1406   1  1.509754E-04  9.000004E+00  1.085577E-06 -1.598496E-05  7.692733E-07  1.567667E-06 _shell_0000001406   
      1406   2  1.414523E-04  9.000003E+00  7.983521E-07 -1.248171E-05  3.388195E-07  7.412673E-07 _shell_0000001406   
      1406   3  1.315099E-04  9.000001E+00 -1.827586E-07 -1.036888E-05 -9.163434E-08 -9.835410E-08 _shell_0000001406   
      1406   4  1.574362E-04  9.000002E+00  9.975853E-07 -9.643548E-06  9.726295E-08  5.203140E-07 _shell_0000001406   
      1406   5  1.463448E-04  9.000002E+00  7.813818E-07 -7.228213E-06  3.471668E-08  2.535377E-07 _shell_0000001406   
      1406   6  1.348473E-04  9.000001E+00 -9.785685E-08 -6.203301E-06 -2.782959E-08 -2.646043E-08 _shell_0000001406   
      1406   7  1.620486E-04  9.000000E+00 -1.413287E-08 -3.076069E-06 -6.322297E-07 -5.270390E-07 _shell_0000001406   
      1406   8  1.495038E-04  9.000000E+00  1.089359E-07 -1.748652E-06 -3.268684E-07 -2.341920E-07 _shell_0000001406   
      1406   9  1.365661E-04  9.000000E+00 -4.001799E-07 -1.811658E-06 -2.150714E-08  4.543324E-08 _shell_0000001406   
      1406  10  1.490193E-04  9.000001E+00 -4.704324E-07 -1.668288E-05  7.905771E-15 -6.658168E-14 _shell_0000001406   
      1406  11  1.402551E-04  9.000001E+00  1.254053E-09 -1.289873E-05  3.781747E-15  9.941349E-15 _shell_0000001406   
      1406  12  1.310716E-04  9.000001E+00 -2.209452E-07 -1.050502E-05  1.077927E-15  1.437635E-14 _shell_0000001406   
      1406  13  1.559717E-04  8.999999E+00 -3.477576E-07 -1.008849E-05  1.985233E-15 -8.307439E-14 _shell_0000001406   
      1406  14  1.456391E-04  9.000001E+00  1.949503E-07 -7.392268E-06 -2.850577E-15 -4.496984E-15 _shell_0000001406   
      1406  15  1.349005E-04  9.000001E+00  7.462311E-08 -6.086468E-06  9.896036E-16  1.834807E-14 _shell_0000001406   
      1406  16  1.610756E-04  8.999997E+00 -1.148809E-06 -3.268042E-06  2.115511E-15 -8.298270E-14 _shell_0000001406   
      1406  17  1.492897E-04  8.999999E+00 -2.668291E-07 -1.659736E-06 -8.722406E-15 -7.783164E-15 _shell_0000001406   
      1406  18  1.371109E-04  9.000000E+00 -1.703344E-08 -1.441854E-06 -2.935945E-15 -9.498549E-15 _shell_0000001406   
      1406  19  1.509754E-04  9.000004E+00  1.085577E-06 -1.598496E-05 -7.692732E-07 -1.567667E-06 _shell_0000001406   
      1406  20  1.414523E-04  9.000003E+00  7.983520E-07 -1.248171E-05 -3.388194E-07 -7.412673E-07 _shell_0000001406   
      1406  21  1.315099E-04  9.000001E+00 -1.827586E-07 -1.036888E-05  9.163434E-08  9.835411E-08 _shell_0000001406   
      1406  22  1.574362E-04  9.000002E+00  9.975853E-07 -9.643548E-06 -9.726295E-08 -5.203141E-07 _shell_0000001406   
      1406  23  1.463448E-04  9.000002E+00  7.813818E-07 -7.228213E-06 -3.471668E-08 -2.535377E-07 _shell_0000001406   
      1406  24  1.348473E-04  9.000001E+00 -9.785689E-08 -6.203301E-06  2.782958E-08  2.646043E-08 _shell_0000001406   
      1406  25  1.620486E-04  9.000000E+00 -1.413284E-08 -3.076069E-06  6.322297E-07  5.270388E-07 _shell_0000001406   
      1406  26  1.495038E-04  9.000000E+00  1.089358E-07 -1.748652E-06  3.268684E-07  2.341920E-07 _shell_0000001406   
      1406  27  1.365661E-04  9.000000E+00 -4.001800E-07 -1.811658E-06  2.150713E-08 -4.543329E-08 _shell_0000001406   
      1407   1  1.272499E-04  9.000000E+00 -4.893049E-07 -8.826030E-06 -1.255124E-08 -3.095508E-07 _shell_0000001407   
      1407   2  1.230512E-04  9.000001E+00 -1.692280E-07 -6.062534E-06 -5.968484E-08 -1.531117E-07 _shell_0000001407   
      1407   3  1.186237E-04  9.000001E+00 -1.842808E-07 -3.791639E-06 -1.068184E-07  5.609092E-08 _shell_0000001407   
      1407   4  1.300716E-04  9.000000E+00 -2.761529E-07 -5.217337E-06  1.308493E-07 -1.126914E-07 _shell_0000001407   
      1407   5  1.252339E-04  9.000001E+00  1.207149E-07 -3.453415E-06 -1.274571E-08 -8.643242E-08 _shell_0000001407   
      1407   6  1.201145E-04  9.000001E+00  5.933778E-08 -2.182093E-06 -1.563407E-07 -7.409824E-09 _shell_0000001407   
      1407   7  1.314157E-04  9.000000E+00 -3.444370E-07 -1.590125E-06  2.907789E-07  8.416783E-08 _shell_0000001407   
      1407   8  1.259058E-04  9.000000E+00  5.208594E-08 -8.257771E-07  5.072250E-08 -1.975309E-08 _shell_0000001407   
      1407   9  1.200616E-04  9.000000E+00 -1.327511E-07 -5.540289E-07 -1.893339E-07 -7.091049E-08 _shell_0000001407   
      1407  10  1.275650E-04  9.000001E+00 -1.089852E-07 -8.518147E-06 -4.889746E-15  4.072273E-15 _shell_0000001407   
      1407  11  1.231826E-04  9.000001E+00  2.744875E-08 -5.846783E-06 -1.180074E-14  1.716963E-14 _shell_0000001407   
      1407  12  1.185714E-04  9.000001E+00 -1.712472E-07 -3.668020E-06  8.810515E-16  3.267613E-14 _shell_0000001407   
      1407  13  1.302255E-04  9.000001E+00  3.506738E-08 -4.970668E-06 -1.841972E-16  1.300582E-14 _shell_0000001407   
      1407  14  1.252040E-04  9.000001E+00  2.482923E-07 -3.298879E-06 -1.616835E-15  8.511286E-15 _shell_0000001407   
      1407  15  1.199011E-04  9.000001E+00  3.272157E-09 -2.119689E-06  3.669573E-15 -9.498549E-15 _shell_0000001407   
      1407  16  1.314083E-04  9.000000E+00 -1.023160E-07 -1.404670E-06  8.683770E-16 -8.867318E-15 _shell_0000001407   
      1407  17  1.257148E-04  9.000000E+00  1.105639E-07 -7.324548E-07 -4.820743E-16  1.705771E-14 _shell_0000001407   
      1407  18  1.196870E-04  9.000000E+00 -2.579161E-07 -5.528391E-07  3.837223E-15 -2.624578E-14 _shell_0000001407   
      1407  19  1.272499E-04  9.000000E+00 -4.893048E-07 -8.826030E-06  1.255123E-08  3.095508E-07 _shell_0000001407   
      1407  20  1.230512E-04  9.000001E+00 -1.692280E-07 -6.062534E-06  5.968481E-08  1.531118E-07 _shell_0000001407   
      1407  21  1.186237E-04  9.000001E+00 -1.842810E-07 -3.791639E-06  1.068184E-07 -5.609086E-08 _shell_0000001407   
      1407  22  1.300716E-04  9.000000E+00 -2.761529E-07 -5.217337E-06 -1.308493E-07  1.126915E-07 _shell_0000001407   
      1407  23  1.252339E-04  9.000001E+00  1.207149E-07 -3.453415E-06  1.274570E-08  8.643246E-08 _shell_0000001407   
      1407  24  1.201145E-04  9.000001E+00  5.933767E-08 -2.182093E-06  1.563407E-07  7.409775E-09 _shell_0000001407   
      1407  25  1.314157E-04  9.000000E+00 -3.444371E-07 -1.590125E-06 -2.907789E-07 -8.416784E-08 _shell_0000001407   
      1407  26  1.259058E-04  9.000000E+00  5.208597E-08 -8.257771E-07 -5.072249E-08  1.975315E-08 _shell_0000001407   
      1407  27  1.200616E-04  9.000000E+00 -1.327511E-07 -5.540290E-07  1.893339E-07  7.091044E-08 _shell_0000001407   
      1408   1  1.174908E-04  9.000001E+00 -7.655476E-08 -2.263688E-06  1.253466E-07  1.217199E-07 _shell_0000001408   
      1408   2  1.176187E-04  9.000001E+00  1.132821E-07 -1.962327E-14  2.156714E-14  1.139817E-07 _shell_0000001408   
      1408   3  1.174908E-04  9.000001E+00 -7.655506E-08  2.263688E-06 -1.253466E-07  1.217199E-07 _shell_0000001408   
      1408   4  1.185635E-04  9.000001E+00  5.159064E-08 -1.371728E-06  8.575403E-08  2.033755E-08 _shell_0000001408   
      1408   5  1.186991E-04  9.000001E+00  2.594833E-07 -4.189352E-14  1.183505E-14  1.259941E-08 _shell_0000001408   
      1408   6  1.185635E-04  9.000001E+00  5.159035E-08  1.371728E-06 -8.575401E-08  2.033760E-08 _shell_0000001408   
      1408   7  1.182793E-04  9.000000E+00 -1.941951E-07 -4.797692E-07  4.616138E-08 -8.104483E-08 _shell_0000001408   
      1408   8  1.184227E-04  9.000000E+00  3.175368E-08 -6.393470E-14 -3.878523E-14 -8.878286E-08 _shell_0000001408   
      1408   9  1.182793E-04  9.000000E+00 -1.941947E-07  4.797691E-07 -4.616147E-08 -8.104467E-08 _shell_0000001408   
      1408  10  1.172739E-04  9.000001E+00 -1.646310E-07 -2.287579E-06  6.356890E-15  2.300835E-14 _shell_0000001408   
      1408  11  1.174018E-04  9.000001E+00  2.520605E-08 -4.764560E-14  8.047269E-15 -1.897179E-14 _shell_0000001408   
      1408  12  1.172739E-04  9.000001E+00 -1.646310E-07  2.287578E-06  6.969345E-15 -5.650667E-14 _shell_0000001408   
      1408  13  1.183884E-04  9.000001E+00 -1.856750E-08 -1.395619E-06  8.933551E-15 -1.303128E-14 _shell_0000001408   
      1408  14  1.185241E-04  9.000001E+00  1.893254E-07 -2.748785E-15  1.023159E-14 -1.266454E-14 _shell_0000001408   
      1408  15  1.183884E-04  9.000001E+00 -1.856747E-08  1.395619E-06  2.596074E-15 -6.203333E-14 _shell_0000001408   
      1408  16  1.181460E-04  9.000000E+00 -2.464350E-07 -5.036599E-07  1.092180E-14 -2.291666E-14 _shell_0000001408   
      1408  17  1.182894E-04  9.000000E+00 -2.048617E-08  3.787215E-14  1.711713E-14  1.176375E-14 _shell_0000001408   
      1408  18  1.181460E-04  9.000000E+00 -2.464345E-07  5.036599E-07  4.721344E-15 -5.895122E-14 _shell_0000001408   
      1408  19  1.174908E-04  9.000001E+00 -7.655491E-08 -2.263688E-06 -1.253466E-07 -1.217198E-07 _shell_0000001408   
      1408  20  1.176187E-04  9.000001E+00  1.132821E-07 -8.063102E-14 -6.922865E-15 -1.139817E-07 _shell_0000001408   
      1408  21  1.174908E-04  9.000001E+00 -7.655515E-08  2.263688E-06  1.253466E-07 -1.217200E-07 _shell_0000001408   
      1408  22  1.185635E-04  9.000001E+00  5.159056E-08 -1.371728E-06 -8.575401E-08 -2.033754E-08 _shell_0000001408   
      1408  23  1.186991E-04  9.000001E+00  2.594834E-07 -6.899959E-14  1.170779E-15 -1.259944E-08 _shell_0000001408   
      1408  24  1.185635E-04  9.000001E+00  5.159031E-08  1.371728E-06  8.575401E-08 -2.033775E-08 _shell_0000001408   
      1408  25  1.182793E-04  9.000000E+00 -1.941950E-07 -4.797691E-07 -4.616136E-08  8.104478E-08 _shell_0000001408   
      1408  26  1.184227E-04  9.000000E+00  3.175386E-08 -7.452261E-14  6.121137E-14  8.878289E-08 _shell_0000001408   
      1408  27  1.182793E-04  9.000000E+00 -1.941947E-07  4.797689E-07  4.616147E-08  8.104451E-08 _shell_0000001408   
      1409   1  1.186237E-04  9.000001E+00 -1.842813E-07  3.791639E-06  1.068184E-07  5.609095E-08 _shell_0000001409   
      1409   2  1.230512E-04  9.000001E+00 -1.692280E-07  6.062534E-06  5.968480E-08 -1.531118E-07 _shell_0000001409   
      1409   3  1.272499E-04  9.000000E+00 -4.893047E-07  8.826030E-06  1.255115E-08 -3.095510E-07 _shell_0000001409   
      1409   4  1.201145E-04  9.000001E+00  5.933750E-08  2.182093E-06  1.563407E-07 -7.409648E-09 _shell_0000001409   
      1409   5  1.252339E-04  9.000001E+00  1.207149E-07  3.453415E-06  1.274567E-08 -8.643244E-08 _shell_0000001409   
      1409   6  1.300716E-04  9.000000E+00 -2.761527E-07  5.217337E-06 -1.308494E-07 -1.126917E-07 _shell_0000001409   
      1409   7  1.200616E-04  9.000000E+00 -1.327509E-07  5.540292E-07  1.893340E-07 -7.091028E-08 _shell_0000001409   
      1409   8  1.259058E-04  9.000000E+00  5.208603E-08  8.257771E-07 -5.072246E-08 -1.975311E-08 _shell_0000001409   
      1409   9  1.314157E-04  9.000000E+00 -3.444371E-07  1.590125E-06 -2.907789E-07  8.416759E-08 _shell_0000001409   
      1409  10  1.185714E-04  9.000001E+00 -1.712472E-07  3.668020E-06  6.713216E-15 -5.212510E-14 _shell_0000001409   
      1409  11  1.231826E-04  9.000001E+00  2.744872E-08  5.846783E-06  8.659619E-15 -1.398326E-14 _shell_0000001409   
      1409  12  1.275650E-04  9.000001E+00 -1.089853E-07  8.518147E-06 -8.530094E-15  1.930463E-15 _shell_0000001409   
      1409  13  1.199011E-04  9.000001E+00  3.272168E-09  2.119689E-06 -3.728020E-15 -6.352747E-14 _shell_0000001409   
      1409  14  1.252040E-04  9.000001E+00  2.482923E-07  3.298879E-06 -3.105112E-15 -2.248890E-14 _shell_0000001409   
      1409  15  1.302255E-04  9.000001E+00  3.506737E-08  4.970668E-06 -2.844557E-15  7.169873E-15 _shell_0000001409   
      1409  16  1.196870E-04  9.000000E+00 -2.579155E-07  5.528392E-07 -8.195451E-15 -7.809597E-14 _shell_0000001409   
      1409  17  1.257148E-04  9.000000E+00  1.105641E-07  7.324546E-07 -1.602854E-14 -2.071263E-14 _shell_0000001409   
      1409  18  1.314083E-04  9.000000E+00 -1.023163E-07  1.404670E-06 -8.792813E-15 -9.269484E-15 _shell_0000001409   
      1409  19  1.186237E-04  9.000001E+00 -1.842812E-07  3.791639E-06 -1.068184E-07 -5.609107E-08 _shell_0000001409   
      1409  20  1.230512E-04  9.000001E+00 -1.692280E-07  6.062534E-06 -5.968479E-08  1.531118E-07 _shell_0000001409   
      1409  21  1.272499E-04  9.000000E+00 -4.893047E-07  8.826030E-06 -1.255118E-08  3.095510E-07 _shell_0000001409   
      1409  22  1.201145E-04  9.000001E+00  5.933745E-08  2.182094E-06 -1.563407E-07  7.409544E-09 _shell_0000001409   
      1409  23  1.252339E-04  9.000001E+00  1.207149E-07  3.453415E-06 -1.274568E-08  8.643242E-08 _shell_0000001409   
      1409  24  1.300716E-04  9.000000E+00 -2.761528E-07  5.217337E-06  1.308494E-07  1.126917E-07 _shell_0000001409   
      1409  25  1.200616E-04  9.000000E+00 -1.327510E-07  5.540293E-07 -1.893340E-07  7.091015E-08 _shell_0000001409   
      1409  26  1.259058E-04  9.000000E+00  5.208600E-08  8.257772E-07  5.072242E-08  1.975309E-08 _shell_0000001409   
      1409  27  1.314157E-04  9.000000E+00 -3.444372E-07  1.590125E-06  2.907789E-07 -8.416764E-08 _shell_0000001409   
      1410   1  1.315099E-04  9.000001E+00 -1.827586E-07  1.036888E-05  9.163438E-08 -9.835422E-08 _shell_0000001410   
      1410   2  1.414523E-04  9.000003E+00  7.983520E-07  1.248171E-05 -3.388194E-07  7.412673E-07 _shell_0000001410   
      1410   3  1.509754E-04  9.000004E+00  1.085577E-06  1.598496E-05 -7.692732E-07  1.567667E-06 _shell_0000001410   
      1410   4  1.348473E-04  9.000001E+00 -9.785671E-08  6.203302E-06  2.782964E-08 -2.646054E-08 _shell_0000001410   
      1410   5  1.463448E-04  9.000002E+00  7.813817E-07  7.228213E-06 -3.471664E-08  2.535377E-07 _shell_0000001410   
      1410   6  1.574362E-04  9.000002E+00  9.975851E-07  9.643548E-06 -9.726291E-08  5.203143E-07 _shell_0000001410   
      1410   7  1.365661E-04  9.000000E+00 -4.001801E-07  1.811658E-06  2.150710E-08  4.543304E-08 _shell_0000001410   
      1410   8  1.495038E-04  9.000000E+00  1.089359E-07  1.748652E-06  3.268684E-07 -2.341919E-07 _shell_0000001410   
      1410   9  1.620486E-04  9.000000E+00 -1.413244E-08  3.076069E-06  6.322296E-07 -5.270387E-07 _shell_0000001410   
      1410  10  1.310716E-04  9.000001E+00 -2.209453E-07  1.050502E-05 -1.714173E-14 -3.054205E-15 _shell_0000001410   
      1410  11  1.402551E-04  9.000001E+00  1.254041E-09  1.289873E-05 -1.230053E-14 -2.019348E-14 _shell_0000001410   
      1410  12  1.490193E-04  9.000001E+00 -4.704323E-07  1.668288E-05 -8.134832E-15 -1.458770E-14 _shell_0000001410   
      1410  13  1.349005E-04  9.000001E+00  7.462305E-08  6.086468E-06 -2.991245E-15  3.257819E-15 _shell_0000001410   
      1410  14  1.456391E-04  9.000001E+00  1.949503E-07  7.392268E-06 -6.922880E-15 -2.243799E-14 _shell_0000001410   
      1410  15  1.559717E-04  8.999999E+00 -3.477574E-07  1.008849E-05 -4.871661E-15 -2.173593E-14 _shell_0000001410   
      1410  16  1.371109E-04  9.000000E+00 -1.703370E-08  1.441854E-06 -2.952401E-15 -1.782632E-14 _shell_0000001410   
      1410  17  1.492897E-04  8.999999E+00 -2.668290E-07  1.659737E-06 -8.023998E-16 -2.671923E-14 _shell_0000001410   
      1410  18  1.610756E-04  8.999997E+00 -1.148808E-06  3.268043E-06 -4.889664E-15 -4.767611E-14 _shell_0000001410   
      1410  19  1.315099E-04  9.000001E+00 -1.827584E-07  1.036888E-05 -9.163441E-08  9.835420E-08 _shell_0000001410   
      1410  20  1.414523E-04  9.000003E+00  7.983520E-07  1.248171E-05  3.388194E-07 -7.412674E-07 _shell_0000001410   
      1410  21  1.509754E-04  9.000004E+00  1.085577E-06  1.598496E-05  7.692732E-07 -1.567667E-06 _shell_0000001410   
      1410  22  1.348473E-04  9.000001E+00 -9.785675E-08  6.203302E-06 -2.782965E-08  2.646056E-08 _shell_0000001410   
      1410  23  1.463448E-04  9.000002E+00  7.813817E-07  7.228213E-06  3.471661E-08 -2.535377E-07 _shell_0000001410   
      1410  24  1.574362E-04  9.000002E+00  9.975851E-07  9.643548E-06  9.726289E-08 -5.203144E-07 _shell_0000001410   
      1410  25  1.365661E-04  9.000000E+00 -4.001802E-07  1.811658E-06 -2.150711E-08 -4.543307E-08 _shell_0000001410   
      1410  26  1.495038E-04  9.000000E+00  1.089358E-07  1.748652E-06 -3.268684E-07  2.341919E-07 _shell_0000001410   
      1410  27  1.620486E-04  9.000000E+00 -1.413248E-08  3.076069E-06 -6.322296E-07  5.270385E-07 _shell_0000001410   
      1411   1  1.560181E-04  9.000002E+00 -4.515937E-07  1.927351E-05  1.763286E-07  6.612387E-07 _shell_0000001411   
      1411   2  1.681234E-04  8.999997E+00 -3.292017E-06  2.220374E-05  1.623354E-06 -2.942076E-06 _shell_0000001411   
      1411   3  1.806651E-04  8.999992E+00 -5.085829E-06  2.744256E-05  3.070380E-06 -6.034955E-06 _shell_0000001411   
      1411   4  1.660264E-04  9.000002E+00  5.758336E-07  1.120961E-05  6.592200E-07  8.674380E-08 _shell_0000001411   
      1411   5  1.819099E-04  8.999999E+00 -1.937649E-06  1.265282E-05  6.125144E-07 -1.331975E-06 _shell_0000001411   
      1411   6  1.977193E-04  8.999995E+00 -4.595536E-06  1.640462E-05  5.658089E-07 -2.240259E-06 _shell_0000001411   
      1411   7  1.734878E-04  9.000000E+00  5.933792E-07  3.344082E-06  8.922983E-07 -4.877512E-07 _shell_0000001411   
      1411   8  1.936491E-04  9.000000E+00 -4.273681E-07  3.300273E-06 -6.481383E-07  2.781258E-07 _shell_0000001411   
      1411   9  2.132258E-04  8.999999E+00 -2.783537E-06  5.565046E-06 -2.188575E-06  1.554438E-06 _shell_0000001411   
      1411  10  1.576196E-04  9.000002E+00 -1.069843E-07  1.764373E-05 -7.082282E-15 -6.108319E-16 _shell_0000001411   
      1411  11  1.727447E-04  9.000003E+00  7.234222E-08  1.926225E-05 -9.000861E-15  3.018496E-15 _shell_0000001411   
      1411  12  1.883061E-04  9.000005E+00  1.298280E-06  2.318936E-05  2.109495E-15 -6.162247E-14 _shell_0000001411   
      1411  13  1.653325E-04  9.000000E+00 -6.334074E-08  1.058641E-05 -1.820492E-15 -1.466017E-14 _shell_0000001411   
      1411  14  1.842357E-04  9.000004E+00  4.429266E-07  1.071791E-05  2.239709E-15 -9.406712E-15 _shell_0000001411   
      1411  15  2.030648E-04  9.000008E+00  8.047887E-07  1.315800E-05  1.154343E-15 -6.304649E-14 _shell_0000001411   
      1411  16  1.704983E-04  8.999998E+00 -1.029579E-06  3.727469E-06  3.276550E-15 -3.574431E-14 _shell_0000001411   
      1411  17  1.936793E-04  9.000004E+00  9.694236E-07  2.371948E-06  1.721137E-14 -2.081970E-15 _shell_0000001411   
      1411  18  2.162758E-04  9.000010E+00  1.633005E-06  3.325009E-06 -4.072231E-15 -4.306933E-14 _shell_0000001411   
      1411  19  1.560181E-04  9.000002E+00 -4.515938E-07  1.927351E-05 -1.763286E-07 -6.612388E-07 _shell_0000001411   
      1411  20  1.681234E-04  8.999997E+00 -3.292017E-06  2.220374E-05 -1.623354E-06  2.942076E-06 _shell_0000001411   
      1411  21  1.806651E-04  8.999992E+00 -5.085829E-06  2.744256E-05 -3.070380E-06  6.034955E-06 _shell_0000001411   
      1411  22  1.660264E-04  9.000002E+00  5.758335E-07  1.120961E-05 -6.592200E-07 -8.674381E-08 _shell_0000001411   
      1411  23  1.819099E-04  8.999999E+00 -1.937649E-06  1.265282E-05 -6.125144E-07  1.331975E-06 _shell_0000001411   
      1411  24  1.977193E-04  8.999995E+00 -4.595536E-06  1.640462E-05 -5.658089E-07  2.240259E-06 _shell_0000001411   
      1411  25  1.734878E-04  9.000000E+00  5.933792E-07  3.344083E-06 -8.922983E-07  4.877511E-07 _shell_0000001411   
      1411  26  1.936491E-04  9.000000E+00 -4.273681E-07  3.300273E-06  6.481383E-07 -2.781258E-07 _shell_0000001411   
      1411  27  2.132258E-04  8.999999E+00 -2.783536E-06  5.565046E-06  2.188575E-06 -1.554438E-06 _shell_0000001411   
      1412   1  1.992624E-04  8.999999E+00  1.629558E-06  2.700614E-05  1.104584E-07 -2.585381E-06 _shell_0000001412   
      1412   2  2.244312E-04  9.000020E+00  1.286281E-05  2.375623E-05 -7.818270E-06  1.213107E-05 _shell_0000001412   
      1412   3  2.494371E-04  9.000043E+00  2.115262E-05  2.686918E-05 -1.574700E-05  2.700031E-05 _shell_0000001412   
      1412   4  2.136056E-04  8.999999E+00 -6.927162E-07  1.750999E-05 -1.854194E-06 -6.360213E-07 _shell_0000001412   
      1412   5  2.444285E-04  9.000011E+00  9.995297E-06  1.433637E-05 -2.971992E-06  5.554350E-06 _shell_0000001412   
      1412   6  2.749356E-04  9.000026E+00  1.738337E-05  1.752559E-05 -4.089789E-06  1.189751E-05 _shell_0000001412   
      1412   7  2.276065E-04  8.999998E+00 -1.931961E-06  6.145962E-06 -2.887716E-06  1.313338E-06 _shell_0000001412   
      1412   8  2.622211E-04  9.000001E+00  3.865539E-06  3.048608E-06  2.805417E-06 -1.022372E-06 _shell_0000001412   
      1412   9  2.963672E-04  9.000005E+00  6.006597E-06  6.314107E-06  8.498551E-06 -3.205295E-06 _shell_0000001412   
      1412  10  1.904068E-04  9.000001E+00 -4.975181E-07  3.152116E-05  4.714574E-15 -5.192146E-14 _shell_0000001412   
      1412  11  2.038887E-04  8.999995E+00 -9.511557E-07  3.332216E-05 -5.862862E-15  6.887088E-15 _shell_0000001412   
      1412  12  2.172077E-04  8.999991E+00 -4.348228E-06  4.148601E-05  9.540710E-15 -4.912563E-14 _shell_0000001412   
      1412  13  2.135891E-04  9.000004E+00  9.683854E-07  1.812939E-05 -5.244516E-15 -5.212496E-14 _shell_0000001412   
      1412  14  2.327250E-04  8.999989E+00 -3.048759E-08  2.000667E-05 -1.791812E-14 -4.519965E-15 _shell_0000001412   
      1412  15  2.515453E-04  8.999977E+00 -4.329299E-06  2.824679E-05 -5.023002E-15 -6.001780E-14 _shell_0000001412   
      1412  16  2.364291E-04  9.000007E+00  3.517318E-06  2.869730E-06 -2.367011E-14 -3.411541E-14 _shell_0000001412   
      1412  17  2.593568E-04  8.999983E+00 -2.372068E-06  4.823279E-06 -3.120678E-14  4.840864E-15 _shell_0000001412   
      1412  18  2.818160E-04  8.999960E+00 -1.191790E-05  1.313968E-05 -1.521640E-14 -8.066151E-14 _shell_0000001412   
      1412  19  1.992624E-04  8.999999E+00  1.629558E-06  2.700614E-05 -1.104584E-07  2.585381E-06 _shell_0000001412   
      1412  20  2.244312E-04  9.000020E+00  1.286281E-05  2.375623E-05  7.818270E-06 -1.213107E-05 _shell_0000001412   
      1412  21  2.494371E-04  9.000043E+00  2.115262E-05  2.686918E-05  1.574700E-05 -2.700031E-05 _shell_0000001412   
      1412  22  2.136056E-04  8.999999E+00 -6.927161E-07  1.750999E-05  1.854194E-06  6.360212E-07 _shell_0000001412   
      1412  23  2.444285E-04  9.000011E+00  9.995297E-06  1.433637E-05  2.971992E-06 -5.554350E-06 _shell_0000001412   
      1412  24  2.749356E-04  9.000026E+00  1.738337E-05  1.752559E-05  4.089789E-06 -1.189751E-05 _shell_0000001412   
      1412  25  2.276065E-04  8.999998E+00 -1.931961E-06  6.145962E-06  2.887716E-06 -1.313338E-06 _shell_0000001412   
      1412  26  2.622211E-04  9.000001E+00  3.865539E-06  3.048608E-06 -2.805417E-06  1.022372E-06 _shell_0000001412   
      1412  27  2.963672E-04  9.000005E+00  6.006597E-06  6.314106E-06 -8.498551E-06  3.205295E-06 _shell_0000001412   
      1413   1  2.222965E-04  9.000006E+00 -1.174195E-05  4.910301E-05  1.552351E-06  1.002089E-05 _shell_0000001413   
      1413   2  1.880185E-04  8.999918E+00 -5.961150E-05  4.228943E-05  3.445608E-05 -5.315908E-05 _shell_0000001413   
      1413   3  1.950012E-04  8.999895E+00 -3.463284E-05  4.208384E-05  6.735981E-05 -1.006341E-04 _shell_0000001413   
      1413   4  2.813647E-04  9.000008E+00  1.526456E-06  2.562025E-05  6.656564E-06  2.121721E-06 _shell_0000001413   
      1413   5  2.655176E-04  8.999953E+00 -4.519757E-05  2.636458E-05  1.807458E-05 -2.777694E-05 _shell_0000001413   
      1413   6  2.752263E-04  8.999946E+00 -5.571837E-05  3.371689E-05  2.949259E-05 -4.197060E-05 _shell_0000001413   
      1413   7  3.412100E-04  9.000010E+00  1.093758E-05  7.095839E-06  9.319343E-06 -5.777447E-06 _shell_0000001413   
      1413   8  3.486768E-04  8.999991E+00 -2.324756E-05  1.539807E-05 -7.483606E-07 -2.394794E-06 _shell_0000001413   
      1413   9  3.659942E-04  9.000005E+00 -5.787446E-05  3.030829E-05 -1.081606E-05  1.669286E-05 _shell_0000001413   
      1413  10  2.696681E-04  9.000004E+00  2.067896E-06  2.526177E-05  1.425894E-14 -5.782617E-14 _shell_0000001413   
      1413  11  2.783248E-04  9.000017E+00 -2.866956E-06 -3.555466E-06  1.277385E-14  1.177382E-14 _shell_0000001413   
      1413  12  3.282422E-04  9.000094E+00  6.504641E-05 -2.576472E-05  1.511538E-14  2.697489E-14 _shell_0000001413   
      1413  13  2.902299E-04  8.999991E+00 -1.166448E-06  1.609058E-05  1.768111E-15 -6.675962E-14 _shell_0000001413   
      1413  14  3.173175E-04  9.000035E+00 -4.955769E-06 -5.168755E-06 -3.449717E-15  1.935162E-15 _shell_0000001413   
      1413  15  3.699609E-04  9.000128E+00  2.745813E-05 -1.982010E-05  4.642555E-15  2.837425E-14 _shell_0000001413   
      1413  16  3.115688E-04  8.999976E+00 -8.258072E-06  1.187774E-05 -1.027062E-14 -9.581015E-14 _shell_0000001413   
      1413  17  3.619703E-04  9.000057E+00  4.914997E-07 -1.823691E-06 -1.889408E-14 -1.043029E-14 _shell_0000001413   
      1413  18  4.222224E-04  9.000171E+00  8.799302E-06 -8.917133E-06  3.576676E-15  1.699669E-14 _shell_0000001413   
      1413  19  2.222965E-04  9.000006E+00 -1.174195E-05  4.910301E-05 -1.552351E-06 -1.002089E-05 _shell_0000001413   
      1413  20  1.880185E-04  8.999918E+00 -5.961150E-05  4.228943E-05 -3.445608E-05  5.315908E-05 _shell_0000001413   
      1413  21  1.950012E-04  8.999895E+00 -3.463284E-05  4.208384E-05 -6.735981E-05  1.006341E-04 _shell_0000001413   
      1413  22  2.813647E-04  9.000008E+00  1.526455E-06  2.562025E-05 -6.656564E-06 -2.121721E-06 _shell_0000001413   
      1413  23  2.655176E-04  8.999953E+00 -4.519757E-05  2.636458E-05 -1.807458E-05  2.777694E-05 _shell_0000001413   
      1413  24  2.752263E-04  8.999946E+00 -5.571837E-05  3.371689E-05 -2.949259E-05  4.197060E-05 _shell_0000001413   
      1413  25  3.412100E-04  9.000010E+00  1.093758E-05  7.095839E-06 -9.319343E-06  5.777447E-06 _shell_0000001413   
      1413  26  3.486768E-04  8.999991E+00 -2.324756E-05  1.539807E-05  7.483606E-07  2.394794E-06 _shell_0000001413   
      1413  27  3.659942E-04  9.000005E+00 -5.787446E-05  3.030829E-05  1.081606E-05 -1.669286E-05 _shell_0000001413   
      1414   1  3.189238E-04  8.999885E+00  3.102242E-05 -1.207971E-05  2.398662E-05 -4.539363E-05 _shell_0000001414   
      1414   2  5.185199E-04  9.000045E+00  1.889979E-04 -2.401439E-04 -1.678785E-04  2.023793E-04 _shell_0000001414   
      1414   3  9.571080E-04  9.000764E+00  5.840490E-04 -6.477186E-04 -3.597437E-04  4.820692E-04 _shell_0000001414   
      1414   4  3.648416E-04  8.999929E+00  1.200994E-05 -3.863446E-05 -3.074261E-05 -1.386661E-05 _shell_0000001414   
      1414   5  2.834236E-04  8.999976E+00  1.239368E-04 -1.455641E-04 -8.213522E-05  1.073709E-04 _shell_0000001414   
      1414   6  4.090807E-04  9.000550E+00  3.984666E-04 -4.320041E-04 -1.335278E-04  2.605253E-04 _shell_0000001414   
      1414   7  4.877130E-04  9.000009E+00  3.591700E-05 -6.800994E-05 -7.899670E-05  1.766041E-05 _shell_0000001414   
      1414   8  1.123305E-04  8.999930E+00  7.157793E-05 -5.380493E-05  1.008321E-05  1.236248E-05 _shell_0000001414   
      1414   9 -8.789372E-05  9.000347E+00  1.953690E-04 -2.191104E-04  9.916313E-05  3.898143E-05 _shell_0000001414   
      1414  10  1.074960E-04  8.999874E+00 -3.596753E-05  7.939430E-05  1.358371E-14  2.687774E-14 _shell_0000001414   
      1414  11  1.501707E-04  8.999667E+00 -3.491347E-05 -5.528435E-05  1.329549E-15  1.269039E-14 _shell_0000001414   
      1414  12  4.318373E-04  9.000020E+00  2.032162E-04 -3.694734E-04  1.479222E-15 -6.633090E-14 _shell_0000001414   
      1414  13  3.168386E-04  8.999987E+00  1.505916E-05  5.324009E-07  1.231863E-14  2.609781E-14 _shell_0000001414   
      1414  14  7.849914E-05  8.999668E+00 -2.993541E-05 -1.301164E-05  1.281546E-14 -2.891609E-15 _shell_0000001414   
      1414  15  4.723473E-05  8.999876E+00  8.767287E-05 -2.060661E-04  1.199674E-14 -5.696807E-14 _shell_0000001414   
      1414  16  6.031347E-04  9.000137E+00  1.090054E-04 -8.115023E-05  2.304715E-14  6.606802E-15 _shell_0000001414   
      1414  17  7.083078E-05  8.999692E+00 -1.225513E-05  2.644034E-05  3.457247E-14 -2.529355E-14 _shell_0000001414   
      1414  18 -2.863149E-04  8.999743E+00 -4.538554E-05 -4.547952E-05  2.867756E-15 -6.017326E-14 _shell_0000001414   
      1414  19  3.189238E-04  8.999885E+00  3.102242E-05 -1.207971E-05 -2.398662E-05  4.539363E-05 _shell_0000001414   
      1414  20  5.185199E-04  9.000045E+00  1.889979E-04 -2.401439E-04  1.678785E-04 -2.023793E-04 _shell_0000001414   
      1414  21  9.571080E-04  9.000764E+00  5.840490E-04 -6.477186E-04  3.597437E-04 -4.820692E-04 _shell_0000001414   
      1414  22  3.648416E-04  8.999929E+00  1.200994E-05 -3.863446E-05  3.074261E-05  1.386661E-05 _shell_0000001414   
      1414  23  2.834236E-04  8.999976E+00  1.239368E-04 -1.455641E-04  8.213522E-05 -1.073709E-04 _shell_0000001414   
      1414  24  4.090807E-04  9.000550E+00  3.984666E-04 -4.320041E-04  1.335278E-04 -2.605253E-04 _shell_0000001414   
      1414  25  4.877130E-04  9.000009E+00  3.591700E-05 -6.800994E-05  7.899670E-05 -1.766041E-05 _shell_0000001414   
      1414  26  1.123305E-04  8.999930E+00  7.157793E-05 -5.380493E-05 -1.008321E-05 -1.236248E-05 _shell_0000001414   
      1414  27 -8.789372E-05  9.000347E+00  1.953690E-04 -2.191104E-04 -9.916313E-05 -3.898143E-05 _shell_0000001414   
      1415   1 -1.138208E-04  9.000347E+00  1.347379E-04  1.218034E-04 -3.248564E-04  4.641705E-04 _shell_0000001415   
      1415   2 -2.684087E-04  8.999861E+00 -1.002756E-04  8.548596E-05 -1.169241E-04  1.301013E-04 _shell_0000001415   
      1415   3 -2.005900E-04  8.999879E+00 -9.737010E-05  7.737005E-05  9.100821E-05 -1.610064E-04 _shell_0000001415   
      1415   4  4.746689E-05  9.000434E+00  2.569564E-04  9.189606E-05 -1.139523E-04  2.477583E-04 _shell_0000001415   
      1415   5 -6.582757E-05  8.999960E+00  2.555789E-05  4.840023E-05 -2.617799E-05  5.785931E-05 _shell_0000001415   
      1415   6  3.229296E-07  8.999947E+00 -6.816545E-05  3.310595E-05  6.159632E-05 -8.907803E-05 _shell_0000001415   
      1415   7  5.340612E-05  9.000442E+00  2.748146E-04  6.167150E-05  8.902214E-05  3.134601E-05 _shell_0000001415   
      1415   8 -2.735661E-06  8.999996E+00  8.403586E-05  1.099730E-05  5.663847E-05 -1.438265E-05 _shell_0000001415   
      1415   9  7.760591E-05  8.999968E+00 -6.931137E-05 -1.147534E-05  2.425481E-05 -1.714971E-05 _shell_0000001415   
      1415  10 -9.905372E-05  8.999847E+00 -1.080716E-05  1.544564E-04 -5.586095E-15 -6.841417E-14 _shell_0000001415   
      1415  11 -7.360837E-05  8.999782E+00 -6.578739E-05  1.190987E-05 -1.761866E-14  8.210693E-15 _shell_0000001415   
      1415  12  1.742435E-04  9.000220E+00  1.171513E-04 -1.024351E-04 -1.434565E-14  1.781235E-14 _shell_0000001415   
      1415  13 -1.236669E-04  8.999854E+00  3.173961E-05  1.845601E-04  1.958743E-15 -4.723852E-14 _shell_0000001415   
      1415  14 -5.692817E-05  8.999800E+00 -1.962571E-05  3.483522E-05 -1.628913E-14  8.520930E-15 _shell_0000001415   
      1415  15  1.892556E-04  9.000207E+00  6.668419E-05 -8.668815E-05 -1.421426E-14 -3.433675E-15 _shell_0000001415   
      1415  16 -3.036286E-04  8.999783E+00 -3.007408E-05  2.143466E-04 -1.866225E-14 -5.284782E-14 _shell_0000001415   
      1415  17 -1.797372E-04  8.999757E+00 -4.081955E-05  5.744337E-05 -2.097221E-14 -1.440059E-14 _shell_0000001415   
      1415  18  8.063764E-05  9.000149E+00 -1.413355E-05 -7.125836E-05 -6.107640E-15 -4.398565E-14 _shell_0000001415   
      1415  19 -1.138208E-04  9.000347E+00  1.347379E-04  1.218034E-04  3.248564E-04 -4.641705E-04 _shell_0000001415   
      1415  20 -2.684087E-04  8.999861E+00 -1.002756E-04  8.548596E-05  1.169241E-04 -1.301013E-04 _shell_0000001415   
      1415  21 -2.005900E-04  8.999879E+00 -9.737010E-05  7.737005E-05 -9.100821E-05  1.610064E-04 _shell_0000001415   
      1415  22  4.746689E-05  9.000434E+00  2.569564E-04  9.189606E-05  1.139523E-04 -2.477583E-04 _shell_0000001415   
      1415  23 -6.582757E-05  8.999960E+00  2.555789E-05  4.840023E-05  2.617799E-05 -5.785931E-05 _shell_0000001415   
      1415  24  3.229295E-07  8.999947E+00 -6.816545E-05  3.310595E-05 -6.159632E-05  8.907803E-05 _shell_0000001415   
      1415  25  5.340612E-05  9.000442E+00  2.748146E-04  6.167150E-05 -8.902214E-05 -3.134601E-05 _shell_0000001415   
      1415  26 -2.735661E-06  8.999996E+00  8.403586E-05  1.099730E-05 -5.663847E-05  1.438265E-05 _shell_0000001415   
      1415  27  7.760591E-05  8.999968E+00 -6.931137E-05 -1.147534E-05 -2.425481E-05  1.714970E-05 _shell_0000001415   
