    1C
    1UUSER                                                              
    1UDATE              01.august.2019                                  
    1UTIME              09:55:31                                        
    1UHOST                                                              
    1UPGM               CalculiX                                        
    1UVERSION           Version 2.15                             
    1UCOMPILETIME       Fri 15 Mar 11:57:46 CET 2019                    
    1UDIR                                                               
    1UDBN                                                               
    1UMAT    1EL                                                        
    2C                            41                                     1
 -1         1 0.00000E+00 0.00000E+00 0.00000E+00
 -1         2 1.00000E-01 0.00000E+00 0.00000E+00
 -1         3 5.00000E-02 0.00000E+00 0.00000E+00
 -1         4 2.00000E-01 0.00000E+00 0.00000E+00
 -1         5 1.50000E-01 0.00000E+00 0.00000E+00
 -1         6 3.00000E-01 0.00000E+00 0.00000E+00
 -1         7 2.50000E-01 0.00000E+00 0.00000E+00
 -1         8 4.00000E-01 0.00000E+00 0.00000E+00
 -1         9 3.50000E-01 0.00000E+00 0.00000E+00
 -1        10 5.00000E-01 0.00000E+00 0.00000E+00
 -1        11 4.50000E-01 0.00000E+00 0.00000E+00
 -1        12 6.00000E-01 0.00000E+00 0.00000E+00
 -1        13 5.50000E-01 0.00000E+00 0.00000E+00
 -1        14 7.00000E-01 0.00000E+00 0.00000E+00
 -1        15 6.50000E-01 0.00000E+00 0.00000E+00
 -1        16 8.00000E-01 0.00000E+00 0.00000E+00
 -1        17 7.50000E-01 0.00000E+00 0.00000E+00
 -1        18 9.00000E-01 0.00000E+00 0.00000E+00
 -1        19 8.50000E-01 0.00000E+00 0.00000E+00
 -1        20 1.00000E+00 0.00000E+00 0.00000E+00
 -1        21 9.50000E-01 0.00000E+00 0.00000E+00
 -1        22 1.10000E+00 0.00000E+00 0.00000E+00
 -1        23 1.05000E+00 0.00000E+00 0.00000E+00
 -1        24 1.20000E+00 0.00000E+00 0.00000E+00
 -1        25 1.15000E+00 0.00000E+00 0.00000E+00
 -1        26 1.30000E+00 0.00000E+00 0.00000E+00
 -1        27 1.25000E+00 0.00000E+00 0.00000E+00
 -1        28 1.40000E+00 0.00000E+00 0.00000E+00
 -1        29 1.35000E+00 0.00000E+00 0.00000E+00
 -1        30 1.50000E+00 0.00000E+00 0.00000E+00
 -1        31 1.45000E+00 0.00000E+00 0.00000E+00
 -1        32 1.60000E+00 0.00000E+00 0.00000E+00
 -1        33 1.55000E+00 0.00000E+00 0.00000E+00
 -1        34 1.70000E+00 0.00000E+00 0.00000E+00
 -1        35 1.65000E+00 0.00000E+00 0.00000E+00
 -1        36 1.80000E+00 0.00000E+00 0.00000E+00
 -1        37 1.75000E+00 0.00000E+00 0.00000E+00
 -1        38 1.90000E+00 0.00000E+00 0.00000E+00
 -1        39 1.85000E+00 0.00000E+00 0.00000E+00
 -1        40 2.00000E+00 0.00000E+00 0.00000E+00
 -1        41 1.95000E+00 0.00000E+00 0.00000E+00
 -3
    3C                            20                                     1
 -1         1   12    0    1
 -2         1         2         3
 -1         2   12    0    1
 -2         2         4         5
 -1         3   12    0    1
 -2         4         6         7
 -1         4   12    0    1
 -2         6         8         9
 -1         5   12    0    1
 -2         8        10        11
 -1         6   12    0    1
 -2        10        12        13
 -1         7   12    0    1
 -2        12        14        15
 -1         8   12    0    1
 -2        14        16        17
 -1         9   12    0    1
 -2        16        18        19
 -1        10   12    0    1
 -2        18        20        21
 -1        11   12    0    1
 -2        20        22        23
 -1        12   12    0    1
 -2        22        24        25
 -1        13   12    0    1
 -2        24        26        27
 -1        14   12    0    1
 -2        26        28        29
 -1        15   12    0    1
 -2        28        30        31
 -1        16   12    0    1
 -2        30        32        33
 -1        17   12    0    1
 -2        32        34        35
 -1        18   12    0    1
 -2        34        36        37
 -1        19   12    0    1
 -2        36        38        39
 -1        20   12    0    1
 -2        38        40        41
 -3
    1PSTEP                         1           1           1          
  100CL  101 1.000000000          41                     0    1           1
 -4  DISP        4    1
 -5  D1          1    2    1    0
 -5  D2          1    2    2    0
 -5  D3          1    2    3    0
 -5  ALL         1    2    0    0    1ALL
 -1         1-6.77626E-21 0.00000E+00 0.00000E+00
 -1         2-1.55009E-06 6.21730E-17 5.57387E-04
 -1         3-7.78932E-07 3.12925E-17 2.79393E-04
 -1         4-3.03896E-06 1.21188E-16 1.10361E-03
 -1         5-2.30593E-06 9.22137E-17 8.32594E-04
 -1         6-4.40910E-06 1.74661E-16 1.62752E-03
 -1         7-3.74226E-06 1.48843E-16 1.36906E-03
 -1         8-5.61051E-06 2.19940E-16 2.11795E-03
 -1         9-5.03369E-06 1.98324E-16 1.87762E-03
 -1        10-6.60437E-06 2.56367E-16 2.56373E-03
 -1        11-6.13534E-06 2.39309E-16 2.34711E-03
 -1        12-7.36682E-06 2.84142E-16 2.95371E-03
 -1        13-7.01542E-06 2.71354E-16 2.76639E-03
 -1        14-7.89267E-06 3.03266E-16 3.27672E-03
 -1        15-7.65892E-06 2.94681E-16 3.12429E-03
 -1        16-8.19917E-06 3.14357E-16 3.52164E-03
 -1        17-8.07140E-06 3.09766E-16 3.40964E-03
 -1        18-8.32971E-06 3.18609E-16 3.67717E-03
 -1        19-8.28273E-06 3.17332E-16 3.61126E-03
 -1        20-8.35766E-06 3.16096E-16 3.73266E-03
 -1        21-8.35079E-06 3.18176E-16 3.71814E-03
 -1        22-8.38561E-06 3.07228E-16 3.67717E-03
 -1        23-8.36453E-06 3.12420E-16 3.71814E-03
 -1        24-8.51615E-06 2.92813E-16 3.52164E-03
 -1        25-8.43258E-06 3.00738E-16 3.61126E-03
 -1        26-8.82265E-06 2.71905E-16 3.27672E-03
 -1        27-8.64391E-06 2.83074E-16 3.40964E-03
 -1        28-9.34850E-06 2.46499E-16 2.95371E-03
 -1        29-9.05640E-06 2.59728E-16 3.12429E-03
 -1        30-1.01109E-05 2.15912E-16 2.56373E-03
 -1        31-9.69990E-06 2.31841E-16 2.76639E-03
 -1        32-1.11048E-05 1.80928E-16 2.11795E-03
 -1        33-1.05800E-05 1.98959E-16 2.34711E-03
 -1        34-1.23062E-05 1.41037E-16 1.62752E-03
 -1        35-1.16816E-05 1.61741E-16 1.87762E-03
 -1        36-1.36764E-05 9.59082E-17 1.10361E-03
 -1        37-1.29731E-05 1.18862E-16 1.36906E-03
 -1        38-1.51652E-05 4.89398E-17 5.57387E-04
 -1        39-1.44094E-05 7.27282E-17 8.32594E-04
 -1        40-1.67153E-05 0.00000E+00 0.00000E+00
 -1        41-1.59364E-05 2.45403E-17 2.79393E-04
 -3
    1PSTEP                         2           1           1          
  100CL  101 1.000000000          41                     0    1           1
 -4  STRESS      6    1
 -5  SXX         1    4    1    1
 -5  SYY         1    4    2    2
 -5  SZZ         1    4    3    3
 -5  SXY         1    4    1    2
 -5  SYZ         1    4    2    3
 -5  SZX         1    4    3    1
 -1         1 1.25101E-15 7.72391E-03 2.87858E-05-1.09159E-16 2.29249E-05 8.58426E-18
 -1         2 6.71433E-16 7.73975E-03 2.94363E-05-1.01725E-16 4.97874E-04-5.80794E-17
 -1         3 9.61223E-16 7.73183E-03 2.91110E-05-1.05442E-16 2.60399E-04-2.47475E-17
 -1         4 5.64817E-16 7.75707E-03 3.14105E-05-1.02281E-16 9.99844E-04-1.11388E-16
 -1         5 6.18125E-16 7.74841E-03 3.04234E-05-1.02003E-16 7.48859E-04-8.47338E-17
 -1         6 3.00935E-16 7.75864E-03 3.47083E-05-7.38985E-17 1.49995E-03-1.11564E-16
 -1         7 4.32876E-16 7.75786E-03 3.30594E-05-8.80897E-17 1.24990E-03-1.11476E-16
 -1         8 1.03318E-16 7.75887E-03 3.93517E-05-7.48320E-17 1.99998E-03-1.52086E-16
 -1         9 2.02126E-16 7.75876E-03 3.70300E-05-7.43653E-17 1.74997E-03-1.31825E-16
 -1        10-7.92863E-16 7.75866E-03 4.53529E-05-7.14608E-17 2.49998E-03-2.12856E-16
 -1        11-3.44773E-16 7.75876E-03 4.23523E-05-7.31464E-17 2.24998E-03-1.82471E-16
 -1        12-6.38691E-16 7.75971E-03 5.27475E-05-2.66002E-17 2.99998E-03-1.12622E-16
 -1        13-7.15777E-16 7.75918E-03 4.90502E-05-4.90305E-17 2.74998E-03-1.62739E-16
 -1        14-1.00779E-16 7.75534E-03 6.14799E-05-3.00358E-17 3.49999E-03-1.62251E-16
 -1        15-3.69735E-16 7.75752E-03 5.71137E-05-2.83180E-17 3.24998E-03-1.37436E-16
 -1        16 1.23404E-16 7.77087E-03 7.18072E-05-2.52941E-17 4.00022E-03-1.44795E-16
 -1        17 1.13125E-17 7.76310E-03 6.66435E-05-2.76649E-17 3.75011E-03-1.53523E-16
 -1        18-3.86978E-16 7.68924E-03 8.36896E-05-1.68102E-17 4.50119E-03-8.55978E-17
 -1        19-1.31787E-16 7.73006E-03 7.77484E-05-2.10522E-17 4.25071E-03-1.15196E-16
 -1        20-2.19150E-16-5.43627E-15 8.50633E-05-3.29543E-17 4.97871E-03-1.03379E-16
 -1        21-3.03064E-16 3.84462E-03 8.43764E-05-2.48823E-17 4.73995E-03-9.44882E-17
 -1        22-5.73230E-17-7.68924E-03 8.36896E-05 3.04932E-18 4.50119E-03-1.39483E-16
 -1        23-1.38237E-16-3.84462E-03 8.43764E-05-1.49525E-17 4.73995E-03-1.21431E-16
 -1        24-1.21485E-16-7.77087E-03 7.18072E-05-1.01746E-17 4.00022E-03-1.16010E-16
 -1        25-8.94039E-17-7.73006E-03 7.77484E-05-3.56262E-18 4.25071E-03-1.27746E-16
 -1        26-3.69831E-16-7.75534E-03 6.14799E-05-2.37169E-18 3.49999E-03-1.12974E-16
 -1        27-2.45658E-16-7.76310E-03 6.66435E-05-6.27313E-18 3.75011E-03-1.14492E-16
 -1        28-9.85255E-16-7.75971E-03 5.27475E-05 4.71459E-17 2.99998E-03-1.33140E-16
 -1        29-6.77543E-16-7.75752E-03 5.71137E-05 2.23871E-17 3.24998E-03-1.23057E-16
 -1        30-1.20101E-15-7.75866E-03 4.53529E-05 4.47081E-17 2.49998E-03-1.38073E-16
 -1        31-1.09313E-15-7.75918E-03 4.90502E-05 4.59270E-17 2.74998E-03-1.35607E-16
 -1        32-6.40983E-16-7.75887E-03 3.93517E-05 7.79152E-17 1.99998E-03-6.49437E-17
 -1        33-9.20994E-16-7.75876E-03 4.23523E-05 6.13116E-17 2.24998E-03-1.01508E-16
 -1        34-5.70598E-16-7.75864E-03 3.47083E-05 1.28730E-16 1.49995E-03-1.24385E-16
 -1        35-6.05790E-16-7.75876E-03 3.70300E-05 1.03323E-16 1.74997E-03-9.46644E-17
 -1        36-8.92224E-16-7.75707E-03 3.14105E-05 1.49915E-16 9.99844E-04-1.22352E-16
 -1        37-7.31411E-16-7.75786E-03 3.30594E-05 1.39323E-16 1.24990E-03-1.23369E-16
 -1        38-7.05829E-16-7.73975E-03 2.94363E-05 1.65309E-16 4.97874E-04-7.68767E-17
 -1        39-7.99026E-16-7.74841E-03 3.04234E-05 1.57612E-16 7.48859E-04-9.96145E-17
 -1        40-2.55628E-16-7.72391E-03 2.87858E-05 1.58985E-16 2.29249E-05 1.87999E-17
 -1        41-4.80728E-16-7.73183E-03 2.91110E-05 1.62147E-16 2.60399E-04-2.90384E-17
 -3
 9999
